# vtk DataFile Version 3.0
vtk output
ASCII
DATASET UNSTRUCTURED_GRID
POINTS 1000 float
0	0	1	
0	0.2	1	
0.2	0.2	1	
0.2	0	1	
0	0	0.8	
0	0.2	0.8	
0.2	0.2	0.8	
0.2	0	0.8	
0	0	0.8	
0	0.2	0.8	
0.2	0.2	0.8	
0.2	0	0.8	
0	0	0.6	
0	0.2	0.6	
0.2	0.2	0.6	
0.2	0	0.6	
0	0	0.6	
0	0.2	0.6	
0.2	0.2	0.6	
0.2	0	0.6	
0	0	0.4	
0	0.2	0.4	
0.2	0.2	0.4	
0.2	0	0.4	
0	0	0.4	
0	0.2	0.4	
0.2	0.2	0.4	
0.2	0	0.4	
0	0	0.2	
0	0.2	0.2	
0.2	0.2	0.2	
0.2	0	0.2	
0	0	0.2	
0	0.2	0.2	
0.2	0.2	0.2	
0.2	0	0.2	
0	0	0	
0	0.2	0	
0.2	0.2	0	
0.2	0	0	
0.2	0	1	
0.2	0.2	1	
0.4	0.2	1	
0.4	0	1	
0.2	0	0.8	
0.2	0.2	0.8	
0.4	0.2	0.8	
0.4	0	0.8	
0.2	0	0.8	
0.2	0.2	0.8	
0.4	0.2	0.8	
0.4	0	0.8	
0.2	0	0.6	
0.2	0.2	0.6	
0.4	0.2	0.6	
0.4	0	0.6	
0.2	0	0.6	
0.2	0.2	0.6	
0.4	0.2	0.6	
0.4	0	0.6	
0.2	0	0.4	
0.2	0.2	0.4	
0.4	0.2	0.4	
0.4	0	0.4	
0.2	0	0.4	
0.2	0.2	0.4	
0.4	0.2	0.4	
0.4	0	0.4	
0.2	0	0.2	
0.2	0.2	0.2	
0.4	0.2	0.2	
0.4	0	0.2	
0.2	0	0.2	
0.2	0.2	0.2	
0.4	0.2	0.2	
0.4	0	0.2	
0.2	0	0	
0.2	0.2	0	
0.4	0.2	0	
0.4	0	0	
0.4	0	1	
0.4	0.2	1	
0.6	0.2	1	
0.6	0	1	
0.4	0	0.8	
0.4	0.2	0.8	
0.6	0.2	0.8	
0.6	0	0.8	
0.4	0	0.8	
0.4	0.2	0.8	
0.6	0.2	0.8	
0.6	0	0.8	
0.4	0	0.6	
0.4	0.2	0.6	
0.6	0.2	0.6	
0.6	0	0.6	
0.4	0	0.6	
0.4	0.2	0.6	
0.6	0.2	0.6	
0.6	0	0.6	
0.4	0	0.4	
0.4	0.2	0.4	
0.6	0.2	0.4	
0.6	0	0.4	
0.4	0	0.4	
0.4	0.2	0.4	
0.6	0.2	0.4	
0.6	0	0.4	
0.4	0	0.2	
0.4	0.2	0.2	
0.6	0.2	0.2	
0.6	0	0.2	
0.4	0	0.2	
0.4	0.2	0.2	
0.6	0.2	0.2	
0.6	0	0.2	
0.4	0	0	
0.4	0.2	0	
0.6	0.2	0	
0.6	0	0	
0.6	0	1	
0.6	0.2	1	
0.8	0.2	1	
0.8	0	1	
0.6	0	0.8	
0.6	0.2	0.8	
0.8	0.2	0.8	
0.8	0	0.8	
0.6	0	0.8	
0.6	0.2	0.8	
0.8	0.2	0.8	
0.8	0	0.8	
0.6	0	0.6	
0.6	0.2	0.6	
0.8	0.2	0.6	
0.8	0	0.6	
0.6	0	0.6	
0.6	0.2	0.6	
0.8	0.2	0.6	
0.8	0	0.6	
0.6	0	0.4	
0.6	0.2	0.4	
0.8	0.2	0.4	
0.8	0	0.4	
0.6	0	0.4	
0.6	0.2	0.4	
0.8	0.2	0.4	
0.8	0	0.4	
0.6	0	0.2	
0.6	0.2	0.2	
0.8	0.2	0.2	
0.8	0	0.2	
0.6	0	0.2	
0.6	0.2	0.2	
0.8	0.2	0.2	
0.8	0	0.2	
0.6	0	0	
0.6	0.2	0	
0.8	0.2	0	
0.8	0	0	
0.8	0	1	
0.8	0.2	1	
1	0.2	1	
1	0	1	
0.8	0	0.8	
0.8	0.2	0.8	
1	0.2	0.8	
1	0	0.8	
0.8	0	0.8	
0.8	0.2	0.8	
1	0.2	0.8	
1	0	0.8	
0.8	0	0.6	
0.8	0.2	0.6	
1	0.2	0.6	
1	0	0.6	
0.8	0	0.6	
0.8	0.2	0.6	
1	0.2	0.6	
1	0	0.6	
0.8	0	0.4	
0.8	0.2	0.4	
1	0.2	0.4	
1	0	0.4	
0.8	0	0.4	
0.8	0.2	0.4	
1	0.2	0.4	
1	0	0.4	
0.8	0	0.2	
0.8	0.2	0.2	
1	0.2	0.2	
1	0	0.2	
0.8	0	0.2	
0.8	0.2	0.2	
1	0.2	0.2	
1	0	0.2	
0.8	0	0	
0.8	0.2	0	
1	0.2	0	
1	0	0	
0	0.2	1	
0	0.4	1	
0.2	0.4	1	
0.2	0.2	1	
0	0.2	0.8	
0	0.4	0.8	
0.2	0.4	0.8	
0.2	0.2	0.8	
0	0.2	0.8	
0	0.4	0.8	
0.2	0.4	0.8	
0.2	0.2	0.8	
0	0.2	0.6	
0	0.4	0.6	
0.2	0.4	0.6	
0.2	0.2	0.6	
0	0.2	0.6	
0	0.4	0.6	
0.2	0.4	0.6	
0.2	0.2	0.6	
0	0.2	0.4	
0	0.4	0.4	
0.2	0.4	0.4	
0.2	0.2	0.4	
0	0.2	0.4	
0	0.4	0.4	
0.2	0.4	0.4	
0.2	0.2	0.4	
0	0.2	0.2	
0	0.4	0.2	
0.2	0.4	0.2	
0.2	0.2	0.2	
0	0.2	0.2	
0	0.4	0.2	
0.2	0.4	0.2	
0.2	0.2	0.2	
0	0.2	0	
0	0.4	0	
0.2	0.4	0	
0.2	0.2	0	
0.2	0.2	1	
0.2	0.4	1	
0.4	0.4	1	
0.4	0.2	1	
0.2	0.2	0.8	
0.2	0.4	0.8	
0.4	0.4	0.8	
0.4	0.2	0.8	
0.2	0.2	0.8	
0.2	0.4	0.8	
0.4	0.4	0.8	
0.4	0.2	0.8	
0.2	0.2	0.6	
0.2	0.4	0.6	
0.4	0.4	0.6	
0.4	0.2	0.6	
0.2	0.2	0.6	
0.2	0.4	0.6	
0.4	0.4	0.6	
0.4	0.2	0.6	
0.2	0.2	0.4	
0.2	0.4	0.4	
0.4	0.4	0.4	
0.4	0.2	0.4	
0.2	0.2	0.4	
0.2	0.4	0.4	
0.4	0.4	0.4	
0.4	0.2	0.4	
0.2	0.2	0.2	
0.2	0.4	0.2	
0.4	0.4	0.2	
0.4	0.2	0.2	
0.2	0.2	0.2	
0.2	0.4	0.2	
0.4	0.4	0.2	
0.4	0.2	0.2	
0.2	0.2	0	
0.2	0.4	0	
0.4	0.4	0	
0.4	0.2	0	
0.4	0.2	1	
0.4	0.4	1	
0.6	0.4	1	
0.6	0.2	1	
0.4	0.2	0.8	
0.4	0.4	0.8	
0.6	0.4	0.8	
0.6	0.2	0.8	
0.4	0.2	0.8	
0.4	0.4	0.8	
0.6	0.4	0.8	
0.6	0.2	0.8	
0.4	0.2	0.6	
0.4	0.4	0.6	
0.6	0.4	0.6	
0.6	0.2	0.6	
0.4	0.2	0.6	
0.4	0.4	0.6	
0.6	0.4	0.6	
0.6	0.2	0.6	
0.4	0.2	0.4	
0.4	0.4	0.4	
0.6	0.4	0.4	
0.6	0.2	0.4	
0.4	0.2	0.4	
0.4	0.4	0.4	
0.6	0.4	0.4	
0.6	0.2	0.4	
0.4	0.2	0.2	
0.4	0.4	0.2	
0.6	0.4	0.2	
0.6	0.2	0.2	
0.4	0.2	0.2	
0.4	0.4	0.2	
0.6	0.4	0.2	
0.6	0.2	0.2	
0.4	0.2	0	
0.4	0.4	0	
0.6	0.4	0	
0.6	0.2	0	
0.6	0.2	1	
0.6	0.4	1	
0.8	0.4	1	
0.8	0.2	1	
0.6	0.2	0.8	
0.6	0.4	0.8	
0.8	0.4	0.8	
0.8	0.2	0.8	
0.6	0.2	0.8	
0.6	0.4	0.8	
0.8	0.4	0.8	
0.8	0.2	0.8	
0.6	0.2	0.6	
0.6	0.4	0.6	
0.8	0.4	0.6	
0.8	0.2	0.6	
0.6	0.2	0.6	
0.6	0.4	0.6	
0.8	0.4	0.6	
0.8	0.2	0.6	
0.6	0.2	0.4	
0.6	0.4	0.4	
0.8	0.4	0.4	
0.8	0.2	0.4	
0.6	0.2	0.4	
0.6	0.4	0.4	
0.8	0.4	0.4	
0.8	0.2	0.4	
0.6	0.2	0.2	
0.6	0.4	0.2	
0.8	0.4	0.2	
0.8	0.2	0.2	
0.6	0.2	0.2	
0.6	0.4	0.2	
0.8	0.4	0.2	
0.8	0.2	0.2	
0.6	0.2	0	
0.6	0.4	0	
0.8	0.4	0	
0.8	0.2	0	
0.8	0.2	1	
0.8	0.4	1	
1	0.4	1	
1	0.2	1	
0.8	0.2	0.8	
0.8	0.4	0.8	
1	0.4	0.8	
1	0.2	0.8	
0.8	0.2	0.8	
0.8	0.4	0.8	
1	0.4	0.8	
1	0.2	0.8	
0.8	0.2	0.6	
0.8	0.4	0.6	
1	0.4	0.6	
1	0.2	0.6	
0.8	0.2	0.6	
0.8	0.4	0.6	
1	0.4	0.6	
1	0.2	0.6	
0.8	0.2	0.4	
0.8	0.4	0.4	
1	0.4	0.4	
1	0.2	0.4	
0.8	0.2	0.4	
0.8	0.4	0.4	
1	0.4	0.4	
1	0.2	0.4	
0.8	0.2	0.2	
0.8	0.4	0.2	
1	0.4	0.2	
1	0.2	0.2	
0.8	0.2	0.2	
0.8	0.4	0.2	
1	0.4	0.2	
1	0.2	0.2	
0.8	0.2	0	
0.8	0.4	0	
1	0.4	0	
1	0.2	0	
0	0.4	1	
0	0.6	1	
0.2	0.6	1	
0.2	0.4	1	
0	0.4	0.8	
0	0.6	0.8	
0.2	0.6	0.8	
0.2	0.4	0.8	
0	0.4	0.8	
0	0.6	0.8	
0.2	0.6	0.8	
0.2	0.4	0.8	
0	0.4	0.6	
0	0.6	0.6	
0.2	0.6	0.6	
0.2	0.4	0.6	
0	0.4	0.6	
0	0.6	0.6	
0.2	0.6	0.6	
0.2	0.4	0.6	
0	0.4	0.4	
0	0.6	0.4	
0.2	0.6	0.4	
0.2	0.4	0.4	
0	0.4	0.4	
0	0.6	0.4	
0.2	0.6	0.4	
0.2	0.4	0.4	
0	0.4	0.2	
0	0.6	0.2	
0.2	0.6	0.2	
0.2	0.4	0.2	
0	0.4	0.2	
0	0.6	0.2	
0.2	0.6	0.2	
0.2	0.4	0.2	
0	0.4	0	
0	0.6	0	
0.2	0.6	0	
0.2	0.4	0	
0.2	0.4	1	
0.2	0.6	1	
0.4	0.6	1	
0.4	0.4	1	
0.2	0.4	0.8	
0.2	0.6	0.8	
0.4	0.6	0.8	
0.4	0.4	0.8	
0.2	0.4	0.8	
0.2	0.6	0.8	
0.4	0.6	0.8	
0.4	0.4	0.8	
0.2	0.4	0.6	
0.2	0.6	0.6	
0.4	0.6	0.6	
0.4	0.4	0.6	
0.2	0.4	0.6	
0.2	0.6	0.6	
0.4	0.6	0.6	
0.4	0.4	0.6	
0.2	0.4	0.4	
0.2	0.6	0.4	
0.4	0.6	0.4	
0.4	0.4	0.4	
0.2	0.4	0.4	
0.2	0.6	0.4	
0.4	0.6	0.4	
0.4	0.4	0.4	
0.2	0.4	0.2	
0.2	0.6	0.2	
0.4	0.6	0.2	
0.4	0.4	0.2	
0.2	0.4	0.2	
0.2	0.6	0.2	
0.4	0.6	0.2	
0.4	0.4	0.2	
0.2	0.4	0	
0.2	0.6	0	
0.4	0.6	0	
0.4	0.4	0	
0.4	0.4	1	
0.4	0.6	1	
0.6	0.6	1	
0.6	0.4	1	
0.4	0.4	0.8	
0.4	0.6	0.8	
0.6	0.6	0.8	
0.6	0.4	0.8	
0.4	0.4	0.8	
0.4	0.6	0.8	
0.6	0.6	0.8	
0.6	0.4	0.8	
0.4	0.4	0.6	
0.4	0.6	0.6	
0.6	0.6	0.6	
0.6	0.4	0.6	
0.4	0.4	0.6	
0.4	0.6	0.6	
0.6	0.6	0.6	
0.6	0.4	0.6	
0.4	0.4	0.4	
0.4	0.6	0.4	
0.6	0.6	0.4	
0.6	0.4	0.4	
0.4	0.4	0.4	
0.4	0.6	0.4	
0.6	0.6	0.4	
0.6	0.4	0.4	
0.4	0.4	0.2	
0.4	0.6	0.2	
0.6	0.6	0.2	
0.6	0.4	0.2	
0.4	0.4	0.2	
0.4	0.6	0.2	
0.6	0.6	0.2	
0.6	0.4	0.2	
0.4	0.4	0	
0.4	0.6	0	
0.6	0.6	0	
0.6	0.4	0	
0.6	0.4	1	
0.6	0.6	1	
0.8	0.6	1	
0.8	0.4	1	
0.6	0.4	0.8	
0.6	0.6	0.8	
0.8	0.6	0.8	
0.8	0.4	0.8	
0.6	0.4	0.8	
0.6	0.6	0.8	
0.8	0.6	0.8	
0.8	0.4	0.8	
0.6	0.4	0.6	
0.6	0.6	0.6	
0.8	0.6	0.6	
0.8	0.4	0.6	
0.6	0.4	0.6	
0.6	0.6	0.6	
0.8	0.6	0.6	
0.8	0.4	0.6	
0.6	0.4	0.4	
0.6	0.6	0.4	
0.8	0.6	0.4	
0.8	0.4	0.4	
0.6	0.4	0.4	
0.6	0.6	0.4	
0.8	0.6	0.4	
0.8	0.4	0.4	
0.6	0.4	0.2	
0.6	0.6	0.2	
0.8	0.6	0.2	
0.8	0.4	0.2	
0.6	0.4	0.2	
0.6	0.6	0.2	
0.8	0.6	0.2	
0.8	0.4	0.2	
0.6	0.4	0	
0.6	0.6	0	
0.8	0.6	0	
0.8	0.4	0	
0.8	0.4	1	
0.8	0.6	1	
1	0.6	1	
1	0.4	1	
0.8	0.4	0.8	
0.8	0.6	0.8	
1	0.6	0.8	
1	0.4	0.8	
0.8	0.4	0.8	
0.8	0.6	0.8	
1	0.6	0.8	
1	0.4	0.8	
0.8	0.4	0.6	
0.8	0.6	0.6	
1	0.6	0.6	
1	0.4	0.6	
0.8	0.4	0.6	
0.8	0.6	0.6	
1	0.6	0.6	
1	0.4	0.6	
0.8	0.4	0.4	
0.8	0.6	0.4	
1	0.6	0.4	
1	0.4	0.4	
0.8	0.4	0.4	
0.8	0.6	0.4	
1	0.6	0.4	
1	0.4	0.4	
0.8	0.4	0.2	
0.8	0.6	0.2	
1	0.6	0.2	
1	0.4	0.2	
0.8	0.4	0.2	
0.8	0.6	0.2	
1	0.6	0.2	
1	0.4	0.2	
0.8	0.4	0	
0.8	0.6	0	
1	0.6	0	
1	0.4	0	
0	0.6	1	
0	0.8	1	
0.2	0.8	1	
0.2	0.6	1	
0	0.6	0.8	
0	0.8	0.8	
0.2	0.8	0.8	
0.2	0.6	0.8	
0	0.6	0.8	
0	0.8	0.8	
0.2	0.8	0.8	
0.2	0.6	0.8	
0	0.6	0.6	
0	0.8	0.6	
0.2	0.8	0.6	
0.2	0.6	0.6	
0	0.6	0.6	
0	0.8	0.6	
0.2	0.8	0.6	
0.2	0.6	0.6	
0	0.6	0.4	
0	0.8	0.4	
0.2	0.8	0.4	
0.2	0.6	0.4	
0	0.6	0.4	
0	0.8	0.4	
0.2	0.8	0.4	
0.2	0.6	0.4	
0	0.6	0.2	
0	0.8	0.2	
0.2	0.8	0.2	
0.2	0.6	0.2	
0	0.6	0.2	
0	0.8	0.2	
0.2	0.8	0.2	
0.2	0.6	0.2	
0	0.6	0	
0	0.8	0	
0.2	0.8	0	
0.2	0.6	0	
0.2	0.6	1	
0.2	0.8	1	
0.4	0.8	1	
0.4	0.6	1	
0.2	0.6	0.8	
0.2	0.8	0.8	
0.4	0.8	0.8	
0.4	0.6	0.8	
0.2	0.6	0.8	
0.2	0.8	0.8	
0.4	0.8	0.8	
0.4	0.6	0.8	
0.2	0.6	0.6	
0.2	0.8	0.6	
0.4	0.8	0.6	
0.4	0.6	0.6	
0.2	0.6	0.6	
0.2	0.8	0.6	
0.4	0.8	0.6	
0.4	0.6	0.6	
0.2	0.6	0.4	
0.2	0.8	0.4	
0.4	0.8	0.4	
0.4	0.6	0.4	
0.2	0.6	0.4	
0.2	0.8	0.4	
0.4	0.8	0.4	
0.4	0.6	0.4	
0.2	0.6	0.2	
0.2	0.8	0.2	
0.4	0.8	0.2	
0.4	0.6	0.2	
0.2	0.6	0.2	
0.2	0.8	0.2	
0.4	0.8	0.2	
0.4	0.6	0.2	
0.2	0.6	0	
0.2	0.8	0	
0.4	0.8	0	
0.4	0.6	0	
0.4	0.6	1	
0.4	0.8	1	
0.6	0.8	1	
0.6	0.6	1	
0.4	0.6	0.8	
0.4	0.8	0.8	
0.6	0.8	0.8	
0.6	0.6	0.8	
0.4	0.6	0.8	
0.4	0.8	0.8	
0.6	0.8	0.8	
0.6	0.6	0.8	
0.4	0.6	0.6	
0.4	0.8	0.6	
0.6	0.8	0.6	
0.6	0.6	0.6	
0.4	0.6	0.6	
0.4	0.8	0.6	
0.6	0.8	0.6	
0.6	0.6	0.6	
0.4	0.6	0.4	
0.4	0.8	0.4	
0.6	0.8	0.4	
0.6	0.6	0.4	
0.4	0.6	0.4	
0.4	0.8	0.4	
0.6	0.8	0.4	
0.6	0.6	0.4	
0.4	0.6	0.2	
0.4	0.8	0.2	
0.6	0.8	0.2	
0.6	0.6	0.2	
0.4	0.6	0.2	
0.4	0.8	0.2	
0.6	0.8	0.2	
0.6	0.6	0.2	
0.4	0.6	0	
0.4	0.8	0	
0.6	0.8	0	
0.6	0.6	0	
0.6	0.6	1	
0.6	0.8	1	
0.8	0.8	1	
0.8	0.6	1	
0.6	0.6	0.8	
0.6	0.8	0.8	
0.8	0.8	0.8	
0.8	0.6	0.8	
0.6	0.6	0.8	
0.6	0.8	0.8	
0.8	0.8	0.8	
0.8	0.6	0.8	
0.6	0.6	0.6	
0.6	0.8	0.6	
0.8	0.8	0.6	
0.8	0.6	0.6	
0.6	0.6	0.6	
0.6	0.8	0.6	
0.8	0.8	0.6	
0.8	0.6	0.6	
0.6	0.6	0.4	
0.6	0.8	0.4	
0.8	0.8	0.4	
0.8	0.6	0.4	
0.6	0.6	0.4	
0.6	0.8	0.4	
0.8	0.8	0.4	
0.8	0.6	0.4	
0.6	0.6	0.2	
0.6	0.8	0.2	
0.8	0.8	0.2	
0.8	0.6	0.2	
0.6	0.6	0.2	
0.6	0.8	0.2	
0.8	0.8	0.2	
0.8	0.6	0.2	
0.6	0.6	0	
0.6	0.8	0	
0.8	0.8	0	
0.8	0.6	0	
0.8	0.6	1	
0.8	0.8	1	
1	0.8	1	
1	0.6	1	
0.8	0.6	0.8	
0.8	0.8	0.8	
1	0.8	0.8	
1	0.6	0.8	
0.8	0.6	0.8	
0.8	0.8	0.8	
1	0.8	0.8	
1	0.6	0.8	
0.8	0.6	0.6	
0.8	0.8	0.6	
1	0.8	0.6	
1	0.6	0.6	
0.8	0.6	0.6	
0.8	0.8	0.6	
1	0.8	0.6	
1	0.6	0.6	
0.8	0.6	0.4	
0.8	0.8	0.4	
1	0.8	0.4	
1	0.6	0.4	
0.8	0.6	0.4	
0.8	0.8	0.4	
1	0.8	0.4	
1	0.6	0.4	
0.8	0.6	0.2	
0.8	0.8	0.2	
1	0.8	0.2	
1	0.6	0.2	
0.8	0.6	0.2	
0.8	0.8	0.2	
1	0.8	0.2	
1	0.6	0.2	
0.8	0.6	0	
0.8	0.8	0	
1	0.8	0	
1	0.6	0	
0	0.8	1	
0	1	1	
0.2	1	1	
0.2	0.8	1	
0	0.8	0.8	
0	1	0.8	
0.2	1	0.8	
0.2	0.8	0.8	
0	0.8	0.8	
0	1	0.8	
0.2	1	0.8	
0.2	0.8	0.8	
0	0.8	0.6	
0	1	0.6	
0.2	1	0.6	
0.2	0.8	0.6	
0	0.8	0.6	
0	1	0.6	
0.2	1	0.6	
0.2	0.8	0.6	
0	0.8	0.4	
0	1	0.4	
0.2	1	0.4	
0.2	0.8	0.4	
0	0.8	0.4	
0	1	0.4	
0.2	1	0.4	
0.2	0.8	0.4	
0	0.8	0.2	
0	1	0.2	
0.2	1	0.2	
0.2	0.8	0.2	
0	0.8	0.2	
0	1	0.2	
0.2	1	0.2	
0.2	0.8	0.2	
0	0.8	0	
0	1	0	
0.2	1	0	
0.2	0.8	0	
0.2	0.8	1	
0.2	1	1	
0.4	1	1	
0.4	0.8	1	
0.2	0.8	0.8	
0.2	1	0.8	
0.4	1	0.8	
0.4	0.8	0.8	
0.2	0.8	0.8	
0.2	1	0.8	
0.4	1	0.8	
0.4	0.8	0.8	
0.2	0.8	0.6	
0.2	1	0.6	
0.4	1	0.6	
0.4	0.8	0.6	
0.2	0.8	0.6	
0.2	1	0.6	
0.4	1	0.6	
0.4	0.8	0.6	
0.2	0.8	0.4	
0.2	1	0.4	
0.4	1	0.4	
0.4	0.8	0.4	
0.2	0.8	0.4	
0.2	1	0.4	
0.4	1	0.4	
0.4	0.8	0.4	
0.2	0.8	0.2	
0.2	1	0.2	
0.4	1	0.2	
0.4	0.8	0.2	
0.2	0.8	0.2	
0.2	1	0.2	
0.4	1	0.2	
0.4	0.8	0.2	
0.2	0.8	0	
0.2	1	0	
0.4	1	0	
0.4	0.8	0	
0.4	0.8	1	
0.4	1	1	
0.6	1	1	
0.6	0.8	1	
0.4	0.8	0.8	
0.4	1	0.8	
0.6	1	0.8	
0.6	0.8	0.8	
0.4	0.8	0.8	
0.4	1	0.8	
0.6	1	0.8	
0.6	0.8	0.8	
0.4	0.8	0.6	
0.4	1	0.6	
0.6	1	0.6	
0.6	0.8	0.6	
0.4	0.8	0.6	
0.4	1	0.6	
0.6	1	0.6	
0.6	0.8	0.6	
0.4	0.8	0.4	
0.4	1	0.4	
0.6	1	0.4	
0.6	0.8	0.4	
0.4	0.8	0.4	
0.4	1	0.4	
0.6	1	0.4	
0.6	0.8	0.4	
0.4	0.8	0.2	
0.4	1	0.2	
0.6	1	0.2	
0.6	0.8	0.2	
0.4	0.8	0.2	
0.4	1	0.2	
0.6	1	0.2	
0.6	0.8	0.2	
0.4	0.8	0	
0.4	1	0	
0.6	1	0	
0.6	0.8	0	
0.6	0.8	1	
0.6	1	1	
0.8	1	1	
0.8	0.8	1	
0.6	0.8	0.8	
0.6	1	0.8	
0.8	1	0.8	
0.8	0.8	0.8	
0.6	0.8	0.8	
0.6	1	0.8	
0.8	1	0.8	
0.8	0.8	0.8	
0.6	0.8	0.6	
0.6	1	0.6	
0.8	1	0.6	
0.8	0.8	0.6	
0.6	0.8	0.6	
0.6	1	0.6	
0.8	1	0.6	
0.8	0.8	0.6	
0.6	0.8	0.4	
0.6	1	0.4	
0.8	1	0.4	
0.8	0.8	0.4	
0.6	0.8	0.4	
0.6	1	0.4	
0.8	1	0.4	
0.8	0.8	0.4	
0.6	0.8	0.2	
0.6	1	0.2	
0.8	1	0.2	
0.8	0.8	0.2	
0.6	0.8	0.2	
0.6	1	0.2	
0.8	1	0.2	
0.8	0.8	0.2	
0.6	0.8	0	
0.6	1	0	
0.8	1	0	
0.8	0.8	0	
0.8	0.8	1	
0.8	1	1	
1	1	1	
1	0.8	1	
0.8	0.8	0.8	
0.8	1	0.8	
1	1	0.8	
1	0.8	0.8	
0.8	0.8	0.8	
0.8	1	0.8	
1	1	0.8	
1	0.8	0.8	
0.8	0.8	0.6	
0.8	1	0.6	
1	1	0.6	
1	0.8	0.6	
0.8	0.8	0.6	
0.8	1	0.6	
1	1	0.6	
1	0.8	0.6	
0.8	0.8	0.4	
0.8	1	0.4	
1	1	0.4	
1	0.8	0.4	
0.8	0.8	0.4	
0.8	1	0.4	
1	1	0.4	
1	0.8	0.4	
0.8	0.8	0.2	
0.8	1	0.2	
1	1	0.2	
1	0.8	0.2	
0.8	0.8	0.2	
0.8	1	0.2	
1	1	0.2	
1	0.8	0.2	
0.8	0.8	0	
0.8	1	0	
1	1	0	
1	0.8	0	
CELLS 125 1125
8	0	1	2	3	4	5	6	7	
8	8	9	10	11	12	13	14	15	
8	16	17	18	19	20	21	22	23	
8	24	25	26	27	28	29	30	31	
8	32	33	34	35	36	37	38	39	
8	40	41	42	43	44	45	46	47	
8	48	49	50	51	52	53	54	55	
8	56	57	58	59	60	61	62	63	
8	64	65	66	67	68	69	70	71	
8	72	73	74	75	76	77	78	79	
8	80	81	82	83	84	85	86	87	
8	88	89	90	91	92	93	94	95	
8	96	97	98	99	100	101	102	103	
8	104	105	106	107	108	109	110	111	
8	112	113	114	115	116	117	118	119	
8	120	121	122	123	124	125	126	127	
8	128	129	130	131	132	133	134	135	
8	136	137	138	139	140	141	142	143	
8	144	145	146	147	148	149	150	151	
8	152	153	154	155	156	157	158	159	
8	160	161	162	163	164	165	166	167	
8	168	169	170	171	172	173	174	175	
8	176	177	178	179	180	181	182	183	
8	184	185	186	187	188	189	190	191	
8	192	193	194	195	196	197	198	199	
8	200	201	202	203	204	205	206	207	
8	208	209	210	211	212	213	214	215	
8	216	217	218	219	220	221	222	223	
8	224	225	226	227	228	229	230	231	
8	232	233	234	235	236	237	238	239	
8	240	241	242	243	244	245	246	247	
8	248	249	250	251	252	253	254	255	
8	256	257	258	259	260	261	262	263	
8	264	265	266	267	268	269	270	271	
8	272	273	274	275	276	277	278	279	
8	280	281	282	283	284	285	286	287	
8	288	289	290	291	292	293	294	295	
8	296	297	298	299	300	301	302	303	
8	304	305	306	307	308	309	310	311	
8	312	313	314	315	316	317	318	319	
8	320	321	322	323	324	325	326	327	
8	328	329	330	331	332	333	334	335	
8	336	337	338	339	340	341	342	343	
8	344	345	346	347	348	349	350	351	
8	352	353	354	355	356	357	358	359	
8	360	361	362	363	364	365	366	367	
8	368	369	370	371	372	373	374	375	
8	376	377	378	379	380	381	382	383	
8	384	385	386	387	388	389	390	391	
8	392	393	394	395	396	397	398	399	
8	400	401	402	403	404	405	406	407	
8	408	409	410	411	412	413	414	415	
8	416	417	418	419	420	421	422	423	
8	424	425	426	427	428	429	430	431	
8	432	433	434	435	436	437	438	439	
8	440	441	442	443	444	445	446	447	
8	448	449	450	451	452	453	454	455	
8	456	457	458	459	460	461	462	463	
8	464	465	466	467	468	469	470	471	
8	472	473	474	475	476	477	478	479	
8	480	481	482	483	484	485	486	487	
8	488	489	490	491	492	493	494	495	
8	496	497	498	499	500	501	502	503	
8	504	505	506	507	508	509	510	511	
8	512	513	514	515	516	517	518	519	
8	520	521	522	523	524	525	526	527	
8	528	529	530	531	532	533	534	535	
8	536	537	538	539	540	541	542	543	
8	544	545	546	547	548	549	550	551	
8	552	553	554	555	556	557	558	559	
8	560	561	562	563	564	565	566	567	
8	568	569	570	571	572	573	574	575	
8	576	577	578	579	580	581	582	583	
8	584	585	586	587	588	589	590	591	
8	592	593	594	595	596	597	598	599	
8	600	601	602	603	604	605	606	607	
8	608	609	610	611	612	613	614	615	
8	616	617	618	619	620	621	622	623	
8	624	625	626	627	628	629	630	631	
8	632	633	634	635	636	637	638	639	
8	640	641	642	643	644	645	646	647	
8	648	649	650	651	652	653	654	655	
8	656	657	658	659	660	661	662	663	
8	664	665	666	667	668	669	670	671	
8	672	673	674	675	676	677	678	679	
8	680	681	682	683	684	685	686	687	
8	688	689	690	691	692	693	694	695	
8	696	697	698	699	700	701	702	703	
8	704	705	706	707	708	709	710	711	
8	712	713	714	715	716	717	718	719	
8	720	721	722	723	724	725	726	727	
8	728	729	730	731	732	733	734	735	
8	736	737	738	739	740	741	742	743	
8	744	745	746	747	748	749	750	751	
8	752	753	754	755	756	757	758	759	
8	760	761	762	763	764	765	766	767	
8	768	769	770	771	772	773	774	775	
8	776	777	778	779	780	781	782	783	
8	784	785	786	787	788	789	790	791	
8	792	793	794	795	796	797	798	799	
8	800	801	802	803	804	805	806	807	
8	808	809	810	811	812	813	814	815	
8	816	817	818	819	820	821	822	823	
8	824	825	826	827	828	829	830	831	
8	832	833	834	835	836	837	838	839	
8	840	841	842	843	844	845	846	847	
8	848	849	850	851	852	853	854	855	
8	856	857	858	859	860	861	862	863	
8	864	865	866	867	868	869	870	871	
8	872	873	874	875	876	877	878	879	
8	880	881	882	883	884	885	886	887	
8	888	889	890	891	892	893	894	895	
8	896	897	898	899	900	901	902	903	
8	904	905	906	907	908	909	910	911	
8	912	913	914	915	916	917	918	919	
8	920	921	922	923	924	925	926	927	
8	928	929	930	931	932	933	934	935	
8	936	937	938	939	940	941	942	943	
8	944	945	946	947	948	949	950	951	
8	952	953	954	955	956	957	958	959	
8	960	961	962	963	964	965	966	967	
8	968	969	970	971	972	973	974	975	
8	976	977	978	979	980	981	982	983	
8	984	985	986	987	988	989	990	991	
8	992	993	994	995	996	997	998	999	
CELL_TYPES 125
12
12
12
12
12
12
12
12
12
12
12
12
12
12
12
12
12
12
12
12
12
12
12
12
12
12
12
12
12
12
12
12
12
12
12
12
12
12
12
12
12
12
12
12
12
12
12
12
12
12
12
12
12
12
12
12
12
12
12
12
12
12
12
12
12
12
12
12
12
12
12
12
12
12
12
12
12
12
12
12
12
12
12
12
12
12
12
12
12
12
12
12
12
12
12
12
12
12
12
12
12
12
12
12
12
12
12
12
12
12
12
12
12
12
12
12
12
12
12
12
12
12
12
12
12
CELL_DATA 125
POINT_DATA 1000
SCALARS Pressure float 
LOOKUP_TABLE default
-4.5 -4.5 -4.5 -4.5 -4.5 -4.5 -4.5 -4.5 -3.5 -3.5 -3.5 -3.5 -3.5 -3.5 -3.5 -3.5 -2.5 -2.5 -2.5 -2.5 -2.5 -2.5 -2.5 -2.5 -1.5 -1.5 -1.5 -1.5 -1.5 -1.5 -1.5 -1.5 -0.5 -0.5 -0.5 -0.5 -0.5 -0.5 -0.5 -0.5 -4.5 -4.5 -4.5 -4.5 -4.5 -4.5 -4.5 -4.5 -3.5 -3.5 -3.5 -3.5 -3.5 -3.5 -3.5 -3.5 -2.5 -2.5 -2.5 -2.5 -2.5 -2.5 -2.5 -2.5 -1.5 -1.5 -1.5 -1.5 -1.5 -1.5 -1.5 -1.5 -0.5 -0.5 -0.5 -0.5 -0.5 -0.5 -0.5 -0.5 -4.5 -4.5 -4.5 -4.5 -4.5 -4.5 -4.5 -4.5 -3.5 -3.5 -3.5 -3.5 -3.5 -3.5 -3.5 -3.5 -2.5 -2.5 -2.5 -2.5 -2.5 -2.5 -2.5 -2.5 -1.5 -1.5 -1.5 -1.5 -1.5 -1.5 -1.5 -1.5 -0.5 -0.5 -0.5 -0.5 -0.5 -0.5 -0.5 -0.5 -4.5 -4.5 -4.5 -4.5 -4.5 -4.5 -4.5 -4.5 -3.5 -3.5 -3.5 -3.5 -3.5 -3.5 -3.5 -3.5 -2.5 -2.5 -2.5 -2.5 -2.5 -2.5 -2.5 -2.5 -1.5 -1.5 -1.5 -1.5 -1.5 -1.5 -1.5 -1.5 -0.5 -0.5 -0.5 -0.5 -0.5 -0.5 -0.5 -0.5 -4.5 -4.5 -4.5 -4.5 -4.5 -4.5 -4.5 -4.5 -3.5 -3.5 -3.5 -3.5 -3.5 -3.5 -3.5 -3.5 -2.5 -2.5 -2.5 -2.5 -2.5 -2.5 -2.5 -2.5 -1.5 -1.5 -1.5 -1.5 -1.5 -1.5 -1.5 -1.5 -0.5 -0.5 -0.5 -0.5 -0.5 -0.5 -0.5 -0.5 -4.5 -4.5 -4.5 -4.5 -4.5 -4.5 -4.5 -4.5 -3.5 -3.5 -3.5 -3.5 -3.5 -3.5 -3.5 -3.5 -2.5 -2.5 -2.5 -2.5 -2.5 -2.5 -2.5 -2.5 -1.5 -1.5 -1.5 -1.5 -1.5 -1.5 -1.5 -1.5 -0.5 -0.5 -0.5 -0.5 -0.5 -0.5 -0.5 -0.5 -4.5 -4.5 -4.5 -4.5 -4.5 -4.5 -4.5 -4.5 -3.5 -3.5 -3.5 -3.5 -3.5 -3.5 -3.5 -3.5 -2.5 -2.5 -2.5 -2.5 -2.5 -2.5 -2.5 -2.5 -1.5 -1.5 -1.5 -1.5 -1.5 -1.5 -1.5 -1.5 -0.5 -0.5 -0.5 -0.5 -0.5 -0.5 -0.5 -0.5 -4.5 -4.5 -4.5 -4.5 -4.5 -4.5 -4.5 -4.5 -3.5 -3.5 -3.5 -3.5 -3.5 -3.5 -3.5 -3.5 -2.5 -2.5 -2.5 -2.5 -2.5 -2.5 -2.5 -2.5 -1.5 -1.5 -1.5 -1.5 -1.5 -1.5 -1.5 -1.5 -0.5 -0.5 -0.5 -0.5 -0.5 -0.5 -0.5 -0.5 -4.5 -4.5 -4.5 -4.5 -4.5 -4.5 -4.5 -4.5 -3.5 -3.5 -3.5 -3.5 -3.5 -3.5 -3.5 -3.5 -2.5 -2.5 -2.5 -2.5 -2.5 -2.5 -2.5 -2.5 -1.5 -1.5 -1.5 -1.5 -1.5 -1.5 -1.5 -1.5 -0.5 -0.5 -0.5 -0.5 -0.5 -0.5 -0.5 -0.5 -4.5 -4.5 -4.5 -4.5 -4.5 -4.5 -4.5 -4.5 -3.5 -3.5 -3.5 -3.5 -3.5 -3.5 -3.5 -3.5 -2.5 -2.5 -2.5 -2.5 -2.5 -2.5 -2.5 -2.5 -1.5 -1.5 -1.5 -1.5 -1.5 -1.5 -1.5 -1.5 -0.5 -0.5 -0.5 -0.5 -0.5 -0.5 -0.5 -0.5 -4.5 -4.5 -4.5 -4.5 -4.5 -4.5 -4.5 -4.5 -3.5 -3.5 -3.5 -3.5 -3.5 -3.5 -3.5 -3.5 -2.5 -2.5 -2.5 -2.5 -2.5 -2.5 -2.5 -2.5 -1.5 -1.5 -1.5 -1.5 -1.5 -1.5 -1.5 -1.5 -0.5 -0.5 -0.5 -0.5 -0.5 -0.5 -0.5 -0.5 -4.5 -4.5 -4.5 -4.5 -4.5 -4.5 -4.5 -4.5 -3.5 -3.5 -3.5 -3.5 -3.5 -3.5 -3.5 -3.5 -2.5 -2.5 -2.5 -2.5 -2.5 -2.5 -2.5 -2.5 -1.5 -1.5 -1.5 -1.5 -1.5 -1.5 -1.5 -1.5 -0.5 -0.5 -0.5 -0.5 -0.5 -0.5 -0.5 -0.5 -4.5 -4.5 -4.5 -4.5 -4.5 -4.5 -4.5 -4.5 -3.5 -3.5 -3.5 -3.5 -3.5 -3.5 -3.5 -3.5 -2.5 -2.5 -2.5 -2.5 -2.5 -2.5 -2.5 -2.5 -1.5 -1.5 -1.5 -1.5 -1.5 -1.5 -1.5 -1.5 -0.5 -0.5 -0.5 -0.5 -0.5 -0.5 -0.5 -0.5 -4.5 -4.5 -4.5 -4.5 -4.5 -4.5 -4.5 -4.5 -3.5 -3.5 -3.5 -3.5 -3.5 -3.5 -3.5 -3.5 -2.5 -2.5 -2.5 -2.5 -2.5 -2.5 -2.5 -2.5 -1.5 -1.5 -1.5 -1.5 -1.5 -1.5 -1.5 -1.5 -0.5 -0.5 -0.5 -0.5 -0.5 -0.5 -0.5 -0.5 -4.5 -4.5 -4.5 -4.5 -4.5 -4.5 -4.5 -4.5 -3.5 -3.5 -3.5 -3.5 -3.5 -3.5 -3.5 -3.5 -2.5 -2.5 -2.5 -2.5 -2.5 -2.5 -2.5 -2.5 -1.5 -1.5 -1.5 -1.5 -1.5 -1.5 -1.5 -1.5 -0.5 -0.5 -0.5 -0.5 -0.5 -0.5 -0.5 -0.5 -4.5 -4.5 -4.5 -4.5 -4.5 -4.5 -4.5 -4.5 -3.5 -3.5 -3.5 -3.5 -3.5 -3.5 -3.5 -3.5 -2.5 -2.5 -2.5 -2.5 -2.5 -2.5 -2.5 -2.5 -1.5 -1.5 -1.5 -1.5 -1.5 -1.5 -1.5 -1.5 -0.5 -0.5 -0.5 -0.5 -0.5 -0.5 -0.5 -0.5 -4.5 -4.5 -4.5 -4.5 -4.5 -4.5 -4.5 -4.5 -3.5 -3.5 -3.5 -3.5 -3.5 -3.5 -3.5 -3.5 -2.5 -2.5 -2.5 -2.5 -2.5 -2.5 -2.5 -2.5 -1.5 -1.5 -1.5 -1.5 -1.5 -1.5 -1.5 -1.5 -0.5 -0.5 -0.5 -0.5 -0.5 -0.5 -0.5 -0.5 -4.5 -4.5 -4.5 -4.5 -4.5 -4.5 -4.5 -4.5 -3.5 -3.5 -3.5 -3.5 -3.5 -3.5 -3.5 -3.5 -2.5 -2.5 -2.5 -2.5 -2.5 -2.5 -2.5 -2.5 -1.5 -1.5 -1.5 -1.5 -1.5 -1.5 -1.5 -1.5 -0.5 -0.5 -0.5 -0.5 -0.5 -0.5 -0.5 -0.5 -4.5 -4.5 -4.5 -4.5 -4.5 -4.5 -4.5 -4.5 -3.5 -3.5 -3.5 -3.5 -3.5 -3.5 -3.5 -3.5 -2.5 -2.5 -2.5 -2.5 -2.5 -2.5 -2.5 -2.5 -1.5 -1.5 -1.5 -1.5 -1.5 -1.5 -1.5 -1.5 -0.5 -0.5 -0.5 -0.5 -0.5 -0.5 -0.5 -0.5 -4.5 -4.5 -4.5 -4.5 -4.5 -4.5 -4.5 -4.5 -3.5 -3.5 -3.5 -3.5 -3.5 -3.5 -3.5 -3.5 -2.5 -2.5 -2.5 -2.5 -2.5 -2.5 -2.5 -2.5 -1.5 -1.5 -1.5 -1.5 -1.5 -1.5 -1.5 -1.5 -0.5 -0.5 -0.5 -0.5 -0.5 -0.5 -0.5 -0.5 -4.5 -4.5 -4.5 -4.5 -4.5 -4.5 -4.5 -4.5 -3.5 -3.5 -3.5 -3.5 -3.5 -3.5 -3.5 -3.5 -2.5 -2.5 -2.5 -2.5 -2.5 -2.5 -2.5 -2.5 -1.5 -1.5 -1.5 -1.5 -1.5 -1.5 -1.5 -1.5 -0.5 -0.5 -0.5 -0.5 -0.5 -0.5 -0.5 -0.5 -4.5 -4.5 -4.5 -4.5 -4.5 -4.5 -4.5 -4.5 -3.5 -3.5 -3.5 -3.5 -3.5 -3.5 -3.5 -3.5 -2.5 -2.5 -2.5 -2.5 -2.5 -2.5 -2.5 -2.5 -1.5 -1.5 -1.5 -1.5 -1.5 -1.5 -1.5 -1.5 -0.5 -0.5 -0.5 -0.5 -0.5 -0.5 -0.5 -0.5 -4.5 -4.5 -4.5 -4.5 -4.5 -4.5 -4.5 -4.5 -3.5 -3.5 -3.5 -3.5 -3.5 -3.5 -3.5 -3.5 -2.5 -2.5 -2.5 -2.5 -2.5 -2.5 -2.5 -2.5 -1.5 -1.5 -1.5 -1.5 -1.5 -1.5 -1.5 -1.5 -0.5 -0.5 -0.5 -0.5 -0.5 -0.5 -0.5 -0.5 -4.5 -4.5 -4.5 -4.5 -4.5 -4.5 -4.5 -4.5 -3.5 -3.5 -3.5 -3.5 -3.5 -3.5 -3.5 -3.5 -2.5 -2.5 -2.5 -2.5 -2.5 -2.5 -2.5 -2.5 -1.5 -1.5 -1.5 -1.5 -1.5 -1.5 -1.5 -1.5 -0.5 -0.5 -0.5 -0.5 -0.5 -0.5 -0.5 -0.5 -4.5 -4.5 -4.5 -4.5 -4.5 -4.5 -4.5 -4.5 -3.5 -3.5 -3.5 -3.5 -3.5 -3.5 -3.5 -3.5 -2.5 -2.5 -2.5 -2.5 -2.5 -2.5 -2.5 -2.5 -1.5 -1.5 -1.5 -1.5 -1.5 -1.5 -1.5 -1.5 -0.5 -0.5 -0.5 -0.5 -0.5 -0.5 -0.5 -0.5 
VECTORS Velocity float 
5e-11 4.76143e-11 0.0100661 
5e-11 -1.72001e-11 0.410066 
4.56133e-12 -2.26718e-11 0.410066 
-1.78725e-11 4.76143e-11 0.0100661 
4e-11 4.23857e-11 0.0100661 
4e-11 5.6562e-11 0.410066 
3.45081e-11 4.66341e-11 0.410066 
8.08814e-12 4.23857e-11 0.0100661 
4e-11 3.76143e-11 0.0100661 
4e-11 5.4008e-11 0.410066 
3.43664e-11 4.08362e-11 0.410066 
3.07772e-12 3.76143e-11 0.0100661 
3e-11 3.23857e-11 0.0100661 
3e-11 4.49898e-11 0.410066 
2.89908e-11 3.26381e-11 0.410066 
-3.68956e-12 3.23857e-11 0.0100661 
3e-11 2.76143e-11 0.0100661 
3e-11 4.29869e-11 0.410066 
2.49724e-11 3.2514e-11 0.410066 
6.17016e-13 2.76143e-11 0.0100661 
2e-11 2.23857e-11 0.0100661 
2e-11 2.82944e-11 0.410066 
1.92571e-11 1.91738e-11 0.410066 
-3.03154e-12 2.23857e-11 0.0100661 
2e-11 1.76143e-11 0.0100661 
2e-11 2.7142e-11 0.410066 
1.55742e-11 2.06217e-11 0.410066 
1.07059e-12 1.76143e-11 0.0100661 
1e-11 1.23857e-11 0.0100661 
1e-11 1.3255e-11 0.410066 
1.02954e-11 7.91124e-12 0.410066 
-2.4858e-12 1.23857e-11 0.0100661 
1e-11 7.61432e-12 0.0100661 
1e-11 1.05851e-11 0.410066 
6.78063e-12 8.00211e-12 0.410066 
1.44622e-12 7.61432e-12 0.0100661 
4.43563e-21 2.38568e-12 0.0100661 
-1.79602e-21 1.765e-11 0.410066 
1.72516e-12 1.62718e-11 0.410066 
-1.93797e-12 2.38568e-12 0.0100661 
-1.78725e-11 4.76143e-11 0.0100661 
4.56133e-12 -2.08146e-11 0.410066 
2.6625e-12 -2.00816e-11 0.410066 
-6.54897e-13 4.76143e-11 0.0100661 
8.08814e-12 4.23857e-11 0.0100661 
3.45081e-11 4.1321e-11 0.410066 
5.07849e-12 3.90364e-11 0.410066 
2.46794e-12 4.23857e-11 0.0100661 
3.07772e-12 3.76143e-11 0.0100661 
3.43664e-11 3.83993e-11 0.410066 
7.58518e-12 3.4335e-11 0.410066 
1.02611e-12 3.76143e-11 0.0100661 
-3.68956e-12 3.23857e-11 0.0100661 
2.89908e-11 3.0228e-11 0.410066 
7.62876e-12 2.66234e-11 0.410066 
-2.73315e-14 3.23857e-11 0.0100661 
6.17016e-13 2.76143e-11 0.0100661 
2.49724e-11 2.96884e-11 0.410066 
6.74134e-12 2.57349e-11 0.410066 
1.15875e-12 2.76143e-11 0.0100661 
-3.03154e-12 2.23857e-11 0.0100661 
1.92571e-11 1.83263e-11 0.410066 
5.28348e-12 1.54225e-11 0.410066 
-2.79884e-13 2.23857e-11 0.0100661 
1.07059e-12 1.76143e-11 0.0100661 
1.55742e-11 1.82701e-11 0.410066 
4.13064e-12 1.57685e-11 0.410066 
8.0958e-13 1.76143e-11 0.0100661 
-2.4858e-12 1.23857e-11 0.0100661 
1.02954e-11 8.04389e-12 0.410066 
2.7712e-12 6.29943e-12 0.410066 
-3.8144e-13 1.23857e-11 0.0100661 
1.44622e-12 7.61432e-12 0.0100661 
6.78063e-12 6.38627e-12 0.410066 
1.73682e-12 5.3026e-12 0.410066 
6.20023e-13 7.61432e-12 0.0100661 
-1.93797e-12 2.38568e-12 0.0100661 
1.72516e-12 1.71511e-11 0.410066 
5.01769e-13 1.68091e-11 0.410066 
-4.83036e-13 2.38568e-12 0.0100661 
-6.54897e-13 4.76143e-11 0.0100661 
2.6625e-12 -2.05044e-11 0.410066 
-2.66327e-12 -2.05051e-11 0.410066 
6.55164e-13 4.76143e-11 0.0100661 
2.46794e-12 4.23857e-11 0.0100661 
5.07849e-12 3.94214e-11 0.410066 
-5.08009e-12 3.94191e-11 0.410066 
-2.4674e-12 4.23857e-11 0.0100661 
1.02611e-12 3.76143e-11 0.0100661 
7.58518e-12 3.51649e-11 0.410066 
-7.58431e-12 3.51661e-11 0.410066 
-1.02786e-12 3.76143e-11 0.0100661 
-2.73315e-14 3.23857e-11 0.0100661 
7.62876e-12 2.66203e-11 0.410066 
-7.62784e-12 2.6621e-11 0.410066 
2.91321e-14 3.23857e-11 0.0100661 
1.15875e-12 2.76143e-11 0.0100661 
6.74134e-12 2.60773e-11 0.410066 
-6.73766e-12 2.60782e-11 0.410066 
-1.15864e-12 2.76143e-11 0.0100661 
-2.79884e-13 2.23857e-11 0.0100661 
5.28348e-12 1.56564e-11 0.410066 
-5.2808e-12 1.56574e-11 0.410066 
2.79917e-13 2.23857e-11 0.0100661 
8.0958e-13 1.76143e-11 0.0100661 
4.13064e-12 1.58755e-11 0.410066 
-4.12871e-12 1.58745e-11 0.410066 
-8.09183e-13 1.76143e-11 0.0100661 
-3.8144e-13 1.23857e-11 0.0100661 
2.7712e-12 6.53297e-12 0.410066 
-2.77077e-12 6.53427e-12 0.410066 
3.81358e-13 1.23857e-11 0.0100661 
6.20023e-13 7.61432e-12 0.0100661 
1.73682e-12 5.27132e-12 0.410066 
-1.73582e-12 5.27047e-12 0.410066 
-6.19803e-13 7.61432e-12 0.0100661 
-4.83036e-13 2.38568e-12 0.0100661 
5.01769e-13 1.69509e-11 0.410066 
-5.01448e-13 1.69514e-11 0.410066 
4.82785e-13 2.38568e-12 0.0100661 
6.55164e-13 4.76143e-11 0.0100661 
-2.66327e-12 -2.00812e-11 0.410066 
-4.56135e-12 -2.08138e-11 0.410066 
1.7873e-11 4.76143e-11 0.0100661 
-2.4674e-12 4.23857e-11 0.0100661 
-5.08009e-12 3.90343e-11 0.410066 
-3.45078e-11 4.13218e-11 0.410066 
-8.08787e-12 4.23857e-11 0.0100661 
-1.02786e-12 3.76143e-11 0.0100661 
-7.58431e-12 3.43361e-11 0.410066 
-3.43654e-11 3.83974e-11 0.410066 
-3.07779e-12 3.76143e-11 0.0100661 
2.91321e-14 3.23857e-11 0.0100661 
-7.62784e-12 2.66256e-11 0.410066 
-2.89901e-11 3.02285e-11 0.410066 
3.69009e-12 3.23857e-11 0.0100661 
-1.15864e-12 2.76143e-11 0.0100661 
-6.73766e-12 2.57353e-11 0.410066 
-2.4971e-11 2.969e-11 0.410066 
-6.17916e-13 2.76143e-11 0.0100661 
2.79917e-13 2.23857e-11 0.0100661 
-5.2808e-12 1.5423e-11 0.410066 
-1.92554e-11 1.83273e-11 0.410066 
3.0321e-12 2.23857e-11 0.0100661 
-8.09183e-13 1.76143e-11 0.0100661 
-4.12871e-12 1.57684e-11 0.410066 
-1.55723e-11 1.82714e-11 0.410066 
-1.06989e-12 1.76143e-11 0.0100661 
3.81358e-13 1.23857e-11 0.0100661 
-2.77077e-12 6.29891e-12 0.410066 
-1.02948e-11 8.04568e-12 0.410066 
2.48579e-12 1.23857e-11 0.0100661 
-6.19803e-13 7.61432e-12 0.0100661 
-1.73582e-12 5.30287e-12 0.410066 
-6.77998e-12 6.38809e-12 0.410066 
-1.44605e-12 7.61432e-12 0.0100661 
4.82785e-13 2.38568e-12 0.0100661 
-5.01448e-13 1.68086e-11 0.410066 
-1.72481e-12 1.71515e-11 0.410066 
1.93799e-12 2.38568e-12 0.0100661 
1.7873e-11 4.76143e-11 0.0100661 
-4.56135e-12 -2.26728e-11 0.410066 
-5e-11 -1.71995e-11 0.410066 
-5e-11 4.76143e-11 0.0100661 
-8.08787e-12 4.23857e-11 0.0100661 
-3.45078e-11 4.66349e-11 0.410066 
-4e-11 5.65643e-11 0.410066 
-4e-11 4.23857e-11 0.0100661 
-3.07779e-12 3.76143e-11 0.0100661 
-3.43654e-11 4.08377e-11 0.410066 
-4e-11 5.40091e-11 0.410066 
-4e-11 3.76143e-11 0.0100661 
3.69009e-12 3.23857e-11 0.0100661 
-2.89901e-11 3.2639e-11 0.410066 
-3e-11 4.49899e-11 0.410066 
-3e-11 3.23857e-11 0.0100661 
-6.17916e-13 2.76143e-11 0.0100661 
-2.4971e-11 3.25146e-11 0.410066 
-3e-11 4.2989e-11 0.410066 
-3e-11 2.76143e-11 0.0100661 
3.0321e-12 2.23857e-11 0.0100661 
-1.92554e-11 1.91748e-11 0.410066 
-2e-11 2.82968e-11 0.410066 
-2e-11 2.23857e-11 0.0100661 
-1.06989e-12 1.76143e-11 0.0100661 
-1.55723e-11 2.06231e-11 0.410066 
-2e-11 2.71435e-11 0.410066 
-2e-11 1.76143e-11 0.0100661 
2.48579e-12 1.23857e-11 0.0100661 
-1.02948e-11 7.91416e-12 0.410066 
-1e-11 1.32553e-11 0.410066 
-1e-11 1.23857e-11 0.0100661 
-1.44605e-12 7.61432e-12 0.0100661 
-6.77998e-12 8.00379e-12 0.410066 
-1e-11 1.0587e-11 0.410066 
-1e-11 7.61432e-12 0.0100661 
1.93799e-12 2.38568e-12 0.0100661 
-1.72481e-12 1.62719e-11 0.410066 
1.79606e-21 1.76495e-11 0.410066 
-4.43559e-21 2.38568e-12 0.0100661 
5e-11 -1.72001e-11 0.410066 
5e-11 -3.01152e-12 0.610066 
-4.37463e-12 -4.64261e-12 0.610066 
-3.27063e-12 -2.26718e-11 0.410066 
4e-11 5.6562e-11 0.410066 
4e-11 1.27927e-11 0.610066 
3.4724e-11 1.13284e-11 0.610066 
3.58097e-11 4.66341e-11 0.410066 
4e-11 5.4008e-11 0.410066 
4e-11 1.46332e-11 0.610066 
3.2051e-11 1.19798e-11 0.610066 
3.16148e-11 4.08362e-11 0.410066 
3e-11 4.49898e-11 0.410066 
3e-11 1.611e-11 0.610066 
2.58558e-11 1.3276e-11 0.610066 
2.57542e-11 3.26381e-11 0.410066 
3e-11 4.29869e-11 0.410066 
3e-11 1.5749e-11 0.610066 
2.53138e-11 1.34103e-11 0.610066 
2.44711e-11 3.2514e-11 0.410066 
2e-11 2.82944e-11 0.410066 
2e-11 1.06169e-11 0.610066 
1.66832e-11 8.22661e-12 0.610066 
1.59333e-11 1.91738e-11 0.410066 
2e-11 2.7142e-11 0.410066 
2e-11 9.92048e-12 0.610066 
1.62248e-11 8.41677e-12 0.610066 
1.5866e-11 2.06217e-11 0.410066 
1e-11 1.3255e-11 0.410066 
1e-11 5.90127e-12 0.610066 
8.24365e-12 4.42268e-12 0.610066 
7.72609e-12 7.91124e-12 0.410066 
1e-11 1.05851e-11 0.410066 
1e-11 5.69391e-12 0.610066 
7.81541e-12 5.17458e-12 0.610066 
7.77559e-12 8.00211e-12 0.410066 
-1.68628e-21 1.765e-11 0.410066 
-1.00075e-21 4.886e-12 0.610066 
2.00706e-13 4.40649e-12 0.610066 
-2.51277e-14 1.62718e-11 0.410066 
-3.27063e-12 -2.08146e-11 0.410066 
-4.37463e-12 -3.08746e-12 0.610066 
7.65936e-13 -3.94634e-12 0.610066 
9.52595e-13 -2.00816e-11 0.410066 
3.58097e-11 4.1321e-11 0.410066 
3.4724e-11 1.0228e-11 0.610066 
8.36863e-12 8.9596e-12 0.610066 
7.64104e-12 3.90364e-11 0.410066 
3.16148e-11 3.83993e-11 0.410066 
3.2051e-11 1.20523e-11 0.610066 
9.4539e-12 9.95798e-12 0.610066 
8.26804e-12 3.4335e-11 0.410066 
2.57542e-11 3.0228e-11 0.410066 
2.58558e-11 1.316e-11 0.610066 
9.48625e-12 1.08524e-11 0.610066 
8.22963e-12 2.66234e-11 0.410066 
2.44711e-11 2.96884e-11 0.410066 
2.53138e-11 1.2878e-11 0.610066 
9.72321e-12 1.06745e-11 0.610066 
8.09715e-12 2.57349e-11 0.410066 
1.59333e-11 1.83263e-11 0.410066 
1.66832e-11 8.53638e-12 0.610066 
6.42277e-12 6.47675e-12 0.610066 
5.13668e-12 1.54225e-11 0.410066 
1.5866e-11 1.82701e-11 0.410066 
1.62248e-11 7.85091e-12 0.610066 
6.29231e-12 6.33504e-12 0.610066 
5.2455e-12 1.57685e-11 0.410066 
7.72609e-12 8.04389e-12 0.410066 
8.24365e-12 4.86677e-12 0.610066 
3.13632e-12 3.59533e-12 0.610066 
2.39875e-12 6.29943e-12 0.410066 
7.77559e-12 6.38627e-12 0.410066 
7.81541e-12 4.64011e-12 0.610066 
3.01262e-12 4.0452e-12 0.610066 
2.57446e-12 5.3026e-12 0.410066 
-2.51277e-14 1.71511e-11 0.410066 
2.00706e-13 4.89864e-12 0.610066 
5.6374e-14 4.5554e-12 0.610066 
-8.76494e-14 1.68091e-11 0.410066 
9.52595e-13 -2.05044e-11 0.410066 
7.65936e-13 -3.70032e-12 0.610066 
-7.65336e-13 -3.70028e-12 0.610066 
-9.52726e-13 -2.05051e-11 0.410066 
7.64104e-12 3.94214e-11 0.410066 
8.36863e-12 8.81792e-12 0.610066 
-8.3684e-12 8.81737e-12 0.610066 
-7.64479e-12 3.94191e-11 0.410066 
8.26804e-12 3.51649e-11 0.410066 
9.4539e-12 1.00781e-11 0.610066 
-9.45911e-12 1.00788e-11 0.610066 
-8.26874e-12 3.51661e-11 0.410066 
8.22963e-12 2.66203e-11 0.410066 
9.48625e-12 1.07062e-11 0.610066 
-9.49033e-12 1.07061e-11 0.610066 
-8.22671e-12 2.6621e-11 0.410066 
8.09715e-12 2.60773e-11 0.410066 
9.72321e-12 1.05579e-11 0.610066 
-9.72296e-12 1.05588e-11 0.610066 
-8.09529e-12 2.60782e-11 0.410066 
5.13668e-12 1.56564e-11 0.410066 
6.42277e-12 6.47984e-12 0.610066 
-6.42316e-12 6.48017e-12 0.610066 
-5.13177e-12 1.56574e-11 0.410066 
5.2455e-12 1.58755e-11 0.410066 
6.29231e-12 6.19245e-12 0.610066 
-6.29115e-12 6.19464e-12 0.610066 
-5.24454e-12 1.58745e-11 0.410066 
2.39875e-12 6.53297e-12 0.410066 
3.13632e-12 3.67147e-12 0.610066 
-3.13754e-12 3.67293e-12 0.610066 
-2.39751e-12 6.53427e-12 0.410066 
2.57446e-12 5.27132e-12 0.410066 
3.01262e-12 3.91297e-12 0.610066 
-3.01251e-12 3.9143e-12 0.610066 
-2.57312e-12 5.27047e-12 0.410066 
-8.76494e-14 1.69509e-11 0.410066 
5.6374e-14 4.66268e-12 0.610066 
-5.63516e-14 4.66396e-12 0.610066 
8.81207e-14 1.69514e-11 0.410066 
-9.52726e-13 -2.00812e-11 0.410066 
-7.65336e-13 -3.94569e-12 0.610066 
4.37346e-12 -3.08766e-12 0.610066 
3.27282e-12 -2.08138e-11 0.410066 
-7.64479e-12 3.90343e-11 0.410066 
-8.3684e-12 8.9581e-12 0.610066 
-3.4726e-11 1.02284e-11 0.610066 
-3.58109e-11 4.13218e-11 0.410066 
-8.26874e-12 3.43361e-11 0.410066 
-9.45911e-12 9.95783e-12 0.610066 
-3.20545e-11 1.20504e-11 0.610066 
-3.16154e-11 3.83974e-11 0.410066 
-8.22671e-12 2.66256e-11 0.410066 
-9.49033e-12 1.0853e-11 0.610066 
-2.58586e-11 1.31625e-11 0.610066 
-2.57524e-11 3.02285e-11 0.410066 
-8.09529e-12 2.57353e-11 0.410066 
-9.72296e-12 1.0675e-11 0.610066 
-2.5313e-11 1.28806e-11 0.610066 
-2.44701e-11 2.969e-11 0.410066 
-5.13177e-12 1.5423e-11 0.410066 
-6.42316e-12 6.4785e-12 0.610066 
-1.66842e-11 8.5399e-12 0.610066 
-1.59316e-11 1.83273e-11 0.410066 
-5.24454e-12 1.57684e-11 0.410066 
-6.29115e-12 6.3364e-12 0.610066 
-1.62263e-11 7.85473e-12 0.610066 
-1.58646e-11 1.82714e-11 0.410066 
-2.39751e-12 6.29891e-12 0.410066 
-3.13754e-12 3.59737e-12 0.610066 
-8.24591e-12 4.86924e-12 0.610066 
-7.72556e-12 8.04568e-12 0.410066 
-2.57312e-12 5.30287e-12 0.410066 
-3.01251e-12 4.04751e-12 0.610066 
-7.81607e-12 4.64354e-12 0.610066 
-7.77639e-12 6.38809e-12 0.410066 
8.81207e-14 1.68086e-11 0.410066 
-5.63516e-14 4.55446e-12 0.610066 
-2.01333e-13 4.89914e-12 0.610066 
2.58065e-14 1.71515e-11 0.410066 
3.27282e-12 -2.26728e-11 0.410066 
4.37346e-12 -4.6451e-12 0.610066 
-5e-11 -3.00808e-12 0.610066 
-5e-11 -1.71995e-11 0.410066 
-3.58109e-11 4.66349e-11 0.410066 
-3.4726e-11 1.13303e-11 0.610066 
-4e-11 1.27923e-11 0.610066 
-4e-11 5.65643e-11 0.410066 
-3.16154e-11 4.08377e-11 0.410066 
-3.20545e-11 1.19792e-11 0.610066 
-4e-11 1.46349e-11 0.610066 
-4e-11 5.40091e-11 0.410066 
-2.57524e-11 3.2639e-11 0.410066 
-2.58586e-11 1.32775e-11 0.610066 
-3e-11 1.61128e-11 0.610066 
-3e-11 4.49899e-11 0.410066 
-2.44701e-11 3.25146e-11 0.410066 
-2.5313e-11 1.34124e-11 0.610066 
-3e-11 1.57513e-11 0.610066 
-3e-11 4.2989e-11 0.410066 
-1.59316e-11 1.91748e-11 0.410066 
-1.66842e-11 8.23002e-12 0.610066 
-2e-11 1.06193e-11 0.610066 
-2e-11 2.82968e-11 0.410066 
-1.58646e-11 2.06231e-11 0.410066 
-1.62263e-11 8.41943e-12 0.610066 
-2e-11 9.92417e-12 0.610066 
-2e-11 2.71435e-11 0.410066 
-7.72556e-12 7.91416e-12 0.410066 
-8.24591e-12 4.42529e-12 0.610066 
-1e-11 5.90378e-12 0.610066 
-1e-11 1.32553e-11 0.410066 
-7.77639e-12 8.00379e-12 0.410066 
-7.81607e-12 5.17808e-12 0.610066 
-1e-11 5.6968e-12 0.610066 
-1e-11 1.0587e-11 0.410066 
2.58065e-14 1.62719e-11 0.410066 
-2.01333e-13 4.40545e-12 0.610066 
1.00049e-21 4.88739e-12 0.610066 
1.68628e-21 1.76495e-11 0.410066 
5e-11 -3.01152e-12 0.610066 
5e-11 3.00948e-12 0.610066 
-4.33488e-12 4.64433e-12 0.610066 
-4.33508e-12 -4.64261e-12 0.610066 
4e-11 1.27927e-11 0.610066 
4e-11 -1.27974e-11 0.610066 
3.46342e-11 -1.13313e-11 0.610066 
3.46328e-11 1.13284e-11 0.610066 
4e-11 1.46332e-11 0.610066 
4e-11 -1.46383e-11 0.610066 
3.12822e-11 -1.19813e-11 0.610066 
3.12823e-11 1.19798e-11 0.610066 
3e-11 1.611e-11 0.610066 
3e-11 -1.6115e-11 0.610066 
2.56926e-11 -1.32798e-11 0.610066 
2.56916e-11 1.3276e-11 0.610066 
3e-11 1.5749e-11 0.610066 
3e-11 -1.57547e-11 0.610066 
2.49196e-11 -1.34135e-11 0.610066 
2.49222e-11 1.34103e-11 0.610066 
2e-11 1.06169e-11 0.610066 
2e-11 -1.06197e-11 0.610066 
1.63062e-11 -8.22813e-12 0.610066 
1.63069e-11 8.22661e-12 0.610066 
2e-11 9.92048e-12 0.610066 
2e-11 -9.92392e-12 0.610066 
1.61491e-11 -8.41799e-12 0.610066 
1.61513e-11 8.41677e-12 0.610066 
1e-11 5.90127e-12 0.610066 
1e-11 -5.90451e-12 0.610066 
7.90818e-12 -4.42301e-12 0.610066 
7.90815e-12 4.42268e-12 0.610066 
1e-11 5.69391e-12 0.610066 
1e-11 -5.69612e-12 0.610066 
7.86552e-12 -5.17709e-12 0.610066 
7.86597e-12 5.17458e-12 0.610066 
-1.00329e-21 4.886e-12 0.610066 
-1.00396e-21 -4.88786e-12 0.610066 
1.45549e-14 -4.40626e-12 0.610066 
1.3648e-14 4.40649e-12 0.610066 
-4.33508e-12 -3.08746e-12 0.610066 
-4.33488e-12 3.08668e-12 0.610066 
9.53105e-13 3.94688e-12 0.610066 
9.52872e-13 -3.94634e-12 0.610066 
3.46328e-11 1.0228e-11 0.610066 
3.46342e-11 -1.02281e-11 0.610066 
8.35255e-12 -8.95635e-12 0.610066 
8.3525e-12 8.9596e-12 0.610066 
3.12823e-11 1.20523e-11 0.610066 
3.12822e-11 -1.20515e-11 0.610066 
9.397e-12 -9.95603e-12 0.610066 
9.39907e-12 9.95798e-12 0.610066 
2.56916e-11 1.316e-11 0.610066 
2.56926e-11 -1.31638e-11 0.610066 
9.67357e-12 -1.08531e-11 0.610066 
9.67393e-12 1.08524e-11 0.610066 
2.49222e-11 1.2878e-11 0.610066 
2.49196e-11 -1.28808e-11 0.610066 
9.6929e-12 -1.06763e-11 0.610066 
9.6947e-12 1.06745e-11 0.610066 
1.63069e-11 8.53638e-12 0.610066 
1.63062e-11 -8.53871e-12 0.610066 
6.49057e-12 -6.47565e-12 0.610066 
6.49101e-12 6.47675e-12 0.610066 
1.61513e-11 7.85091e-12 0.610066 
1.61491e-11 -7.85218e-12 0.610066 
6.34557e-12 -6.33564e-12 0.610066 
6.34592e-12 6.33504e-12 0.610066 
7.90815e-12 4.86677e-12 0.610066 
7.90818e-12 -4.8681e-12 0.610066 
3.13621e-12 -3.59433e-12 0.610066 
3.13631e-12 3.59533e-12 0.610066 
7.86597e-12 4.64011e-12 0.610066 
7.86552e-12 -4.64153e-12 0.610066 
3.04115e-12 -4.0453e-12 0.610066 
3.04138e-12 4.0452e-12 0.610066 
1.3648e-14 4.89864e-12 0.610066 
1.45549e-14 -4.89922e-12 0.610066 
4.45711e-14 -4.55445e-12 0.610066 
4.46555e-14 4.5554e-12 0.610066 
9.52872e-13 -3.70032e-12 0.610066 
9.53105e-13 3.70024e-12 0.610066 
-9.52452e-13 3.70095e-12 0.610066 
-9.51721e-13 -3.70028e-12 0.610066 
8.3525e-12 8.81792e-12 0.610066 
8.35255e-12 -8.81338e-12 0.610066 
-8.35497e-12 -8.81473e-12 0.610066 
-8.35337e-12 8.81737e-12 0.610066 
9.39907e-12 1.00781e-11 0.610066 
9.397e-12 -1.00779e-11 0.610066 
-9.40145e-12 -1.00749e-11 0.610066 
-9.40271e-12 1.00788e-11 0.610066 
9.67393e-12 1.07062e-11 0.610066 
9.67357e-12 -1.0707e-11 0.610066 
-9.67834e-12 -1.07072e-11 0.610066 
-9.67893e-12 1.07061e-11 0.610066 
9.6947e-12 1.05579e-11 0.610066 
9.6929e-12 -1.05583e-11 0.610066 
-9.69799e-12 -1.05593e-11 0.610066 
-9.69692e-12 1.05588e-11 0.610066 
6.49101e-12 6.47984e-12 0.610066 
6.49057e-12 -6.47809e-12 0.610066 
-6.49207e-12 -6.47691e-12 0.610066 
-6.48999e-12 6.48017e-12 0.610066 
6.34592e-12 6.19245e-12 0.610066 
6.34557e-12 -6.19191e-12 0.610066 
-6.34774e-12 -6.19065e-12 0.610066 
-6.34651e-12 6.19464e-12 0.610066 
3.13631e-12 3.67147e-12 0.610066 
3.13621e-12 -3.66968e-12 0.610066 
-3.13771e-12 -3.66884e-12 0.610066 
-3.1367e-12 3.67293e-12 0.610066 
3.04138e-12 3.91297e-12 0.610066 
3.04115e-12 -3.91013e-12 0.610066 
-3.04127e-12 -3.91023e-12 0.610066 
-3.04239e-12 3.9143e-12 0.610066 
4.46555e-14 4.66268e-12 0.610066 
4.45711e-14 -4.66323e-12 0.610066 
-4.3943e-14 -4.66248e-12 0.610066 
-4.39664e-14 4.66396e-12 0.610066 
-9.51721e-13 -3.94569e-12 0.610066 
-9.52452e-13 3.9476e-12 0.610066 
4.33595e-12 3.08756e-12 0.610066 
4.33584e-12 -3.08766e-12 0.610066 
-8.35337e-12 8.9581e-12 0.610066 
-8.35497e-12 -8.95622e-12 0.610066 
-3.46361e-11 -1.02287e-11 0.610066 
-3.46368e-11 1.02284e-11 0.610066 
-9.40271e-12 9.95783e-12 0.610066 
-9.40145e-12 -9.95719e-12 0.610066 
-3.12842e-11 -1.20521e-11 0.610066 
-3.12854e-11 1.20504e-11 0.610066 
-9.67893e-12 1.0853e-11 0.610066 
-9.67834e-12 -1.08525e-11 0.610066 
-2.56958e-11 -1.31623e-11 0.610066 
-2.56935e-11 1.31625e-11 0.610066 
-9.69692e-12 1.0675e-11 0.610066 
-9.69799e-12 -1.06757e-11 0.610066 
-2.49213e-11 -1.28789e-11 0.610066 
-2.49229e-11 1.28806e-11 0.610066 
-6.48999e-12 6.4785e-12 0.610066 
-6.49207e-12 -6.47561e-12 0.610066 
-1.63082e-11 -8.53434e-12 0.610066 
-1.63076e-11 8.5399e-12 0.610066 
-6.34651e-12 6.3364e-12 0.610066 
-6.34774e-12 -6.33222e-12 0.610066 
-1.61518e-11 -7.85025e-12 0.610066 
-1.61514e-11 7.85473e-12 0.610066 
-3.1367e-12 3.59737e-12 0.610066 
-3.13771e-12 -3.59339e-12 0.610066 
-7.91068e-12 -4.86502e-12 0.610066 
-7.90901e-12 4.86924e-12 0.610066 
-3.04239e-12 4.04751e-12 0.610066 
-3.04127e-12 -4.0418e-12 0.610066 
-7.8664e-12 -4.63957e-12 0.610066 
-7.86688e-12 4.64354e-12 0.610066 
-4.39664e-14 4.55446e-12 0.610066 
-4.3943e-14 -4.55481e-12 0.610066 
-1.40395e-14 -4.89826e-12 0.610066 
-1.35171e-14 4.89914e-12 0.610066 
4.33584e-12 -4.6451e-12 0.610066 
4.33595e-12 4.64283e-12 0.610066 
-5e-11 3.01116e-12 0.610066 
-5e-11 -3.00808e-12 0.610066 
-3.46368e-11 1.13303e-11 0.610066 
-3.46361e-11 -1.13304e-11 0.610066 
-4e-11 -1.27965e-11 0.610066 
-4e-11 1.27923e-11 0.610066 
-3.12854e-11 1.19792e-11 0.610066 
-3.12842e-11 -1.19823e-11 0.610066 
-4e-11 -1.4639e-11 0.610066 
-4e-11 1.46349e-11 0.610066 
-2.56935e-11 1.32775e-11 0.610066 
-2.56958e-11 -1.32769e-11 0.610066 
-3e-11 -1.61167e-11 0.610066 
-3e-11 1.61128e-11 0.610066 
-2.49229e-11 1.34124e-11 0.610066 
-2.49213e-11 -1.34111e-11 0.610066 
-3e-11 -1.57519e-11 0.610066 
-3e-11 1.57513e-11 0.610066 
-1.63076e-11 8.23002e-12 0.610066 
-1.63082e-11 -8.22484e-12 0.610066 
-2e-11 -1.0617e-11 0.610066 
-2e-11 1.06193e-11 0.610066 
-1.61514e-11 8.41943e-12 0.610066 
-1.61518e-11 -8.4155e-12 0.610066 
-2e-11 -9.92107e-12 0.610066 
-2e-11 9.92417e-12 0.610066 
-7.90901e-12 4.42529e-12 0.610066 
-7.91068e-12 -4.42177e-12 0.610066 
-1e-11 -5.90309e-12 0.610066 
-1e-11 5.90378e-12 0.610066 
-7.86688e-12 5.17808e-12 0.610066 
-7.8664e-12 -5.17468e-12 0.610066 
-1e-11 -5.69339e-12 0.610066 
-1e-11 5.6968e-12 0.610066 
-1.35171e-14 4.40545e-12 0.610066 
-1.40395e-14 -4.40607e-12 0.610066 
1.00375e-21 -4.8865e-12 0.610066 
1.00342e-21 4.88739e-12 0.610066 
5e-11 3.00948e-12 0.610066 
5e-11 1.71993e-11 0.410066 
-3.27163e-12 2.26725e-11 0.410066 
-4.3737e-12 4.64433e-12 0.610066 
4e-11 -1.27974e-11 0.610066 
4e-11 -5.65641e-11 0.410066 
3.5809e-11 -4.66362e-11 0.410066 
3.47237e-11 -1.13313e-11 0.610066 
4e-11 -1.46383e-11 0.610066 
4e-11 -5.40131e-11 0.410066 
3.16137e-11 -4.08365e-11 0.410066 
3.20506e-11 -1.19813e-11 0.610066 
3e-11 -1.6115e-11 0.610066 
3e-11 -4.49935e-11 0.410066 
2.5751e-11 -3.26383e-11 0.410066 
2.58553e-11 -1.32798e-11 0.610066 
3e-11 -1.57547e-11 0.610066 
3e-11 -4.29899e-11 0.410066 
2.44697e-11 -3.25162e-11 0.410066 
2.53113e-11 -1.34135e-11 0.610066 
2e-11 -1.06197e-11 0.610066 
2e-11 -2.82959e-11 0.410066 
1.59314e-11 -1.91744e-11 0.410066 
1.66828e-11 -8.22813e-12 0.610066 
2e-11 -9.92392e-12 0.610066 
2e-11 -2.71429e-11 0.410066 
1.58649e-11 -2.06227e-11 0.410066 
1.62228e-11 -8.41799e-12 0.610066 
1e-11 -5.90451e-12 0.610066 
1e-11 -1.32558e-11 0.410066 
7.72335e-12 -7.91142e-12 0.410066 
8.2443e-12 -4.42301e-12 0.610066 
1e-11 -5.69612e-12 0.610066 
1e-11 -1.05848e-11 0.410066 
7.77552e-12 -8.00317e-12 0.410066 
7.81477e-12 -5.17709e-12 0.610066 
-1.00088e-21 -4.88786e-12 0.610066 
-1.68666e-21 -1.76496e-11 0.410066 
-2.51058e-14 -1.62719e-11 0.410066 
2.01129e-13 -4.40626e-12 0.610066 
-4.3737e-12 3.08668e-12 0.610066 
-3.27163e-12 2.08145e-11 0.410066 
9.53453e-13 2.0082e-11 0.410066 
7.6585e-13 3.94688e-12 0.610066 
3.47237e-11 -1.02281e-11 0.610066 
3.5809e-11 -4.13216e-11 0.410066 
7.64126e-12 -3.90355e-11 0.410066 
8.36783e-12 -8.95635e-12 0.610066 
3.20506e-11 -1.20515e-11 0.610066 
3.16137e-11 -3.83989e-11 0.410066 
8.26691e-12 -3.43364e-11 0.410066 
9.45444e-12 -9.95603e-12 0.610066 
2.58553e-11 -1.31638e-11 0.610066 
2.5751e-11 -3.02297e-11 0.410066 
8.2258e-12 -2.66242e-11 0.410066 
9.48482e-12 -1.08531e-11 0.610066 
2.53113e-11 -1.28808e-11 0.610066 
2.44697e-11 -2.96894e-11 0.410066 
8.09413e-12 -2.57352e-11 0.410066 
9.72051e-12 -1.06763e-11 0.610066 
1.66828e-11 -8.53871e-12 0.610066 
1.59314e-11 -1.83267e-11 0.410066 
5.13284e-12 -1.54227e-11 0.410066 
6.42096e-12 -6.47565e-12 0.610066 
1.62228e-11 -7.85218e-12 0.610066 
1.58649e-11 -1.82708e-11 0.410066 
5.24313e-12 -1.57681e-11 0.410066 
6.29052e-12 -6.33564e-12 0.610066 
8.2443e-12 -4.8681e-12 0.610066 
7.72335e-12 -8.04412e-12 0.410066 
2.3972e-12 -6.29881e-12 0.410066 
3.13557e-12 -3.59433e-12 0.610066 
7.81477e-12 -4.64153e-12 0.610066 
7.77552e-12 -6.38646e-12 0.410066 
2.57244e-12 -5.30204e-12 0.410066 
3.01169e-12 -4.0453e-12 0.610066 
2.01129e-13 -4.89922e-12 0.610066 
-2.51058e-14 -1.71527e-11 0.410066 
-8.84966e-14 -1.68077e-11 0.410066 
5.66015e-14 -4.55445e-12 0.610066 
7.6585e-13 3.70024e-12 0.610066 
9.53453e-13 2.0505e-11 0.410066 
-9.53272e-13 2.05052e-11 0.410066 
-7.65925e-13 3.70095e-12 0.610066 
8.36783e-12 -8.81338e-12 0.610066 
7.64126e-12 -3.94197e-11 0.410066 
-7.6454e-12 -3.94202e-11 0.410066 
-8.3694e-12 -8.81473e-12 0.610066 
9.45444e-12 -1.00779e-11 0.610066 
8.26691e-12 -3.51662e-11 0.410066 
-8.26929e-12 -3.51645e-11 0.410066 
-9.45777e-12 -1.00749e-11 0.610066 
9.48482e-12 -1.0707e-11 0.610066 
8.2258e-12 -2.66215e-11 0.410066 
-8.22907e-12 -2.66213e-11 0.410066 
-9.48933e-12 -1.07072e-11 0.610066 
9.72051e-12 -1.05583e-11 0.610066 
8.09413e-12 -2.60776e-11 0.410066 
-8.09909e-12 -2.60788e-11 0.410066 
-9.72219e-12 -1.05593e-11 0.610066 
6.42096e-12 -6.47809e-12 0.610066 
5.13284e-12 -1.56557e-11 0.410066 
-5.13722e-12 -1.56553e-11 0.410066 
-6.42442e-12 -6.47691e-12 0.610066 
6.29052e-12 -6.19191e-12 0.610066 
5.24313e-12 -1.58739e-11 0.410066 
-5.24763e-12 -1.58737e-11 0.410066 
-6.29488e-12 -6.19065e-12 0.610066 
3.13557e-12 -3.66968e-12 0.610066 
2.3972e-12 -6.53359e-12 0.410066 
-2.39921e-12 -6.5318e-12 0.410066 
-3.1368e-12 -3.66884e-12 0.610066 
3.01169e-12 -3.91013e-12 0.610066 
2.57244e-12 -5.27031e-12 0.410066 
-2.5741e-12 -5.26936e-12 0.410066 
-3.01234e-12 -3.91023e-12 0.610066 
5.66015e-14 -4.66323e-12 0.610066 
-8.84966e-14 -1.6952e-11 0.410066 
8.76878e-14 -1.69505e-11 0.410066 
-5.58858e-14 -4.66248e-12 0.610066 
-7.65925e-13 3.9476e-12 0.610066 
-9.53272e-13 2.00819e-11 0.410066 
3.27274e-12 2.08139e-11 0.410066 
4.37427e-12 3.08756e-12 0.610066 
-8.3694e-12 -8.95622e-12 0.610066 
-7.6454e-12 -3.90351e-11 0.410066 
-3.58101e-11 -4.13219e-11 0.410066 
-3.47253e-11 -1.02287e-11 0.610066 
-9.45777e-12 -9.95719e-12 0.610066 
-8.26929e-12 -3.43371e-11 0.410066 
-3.16144e-11 -3.8398e-11 0.410066 
-3.20545e-11 -1.20521e-11 0.610066 
-9.48933e-12 -1.08525e-11 0.610066 
-8.22907e-12 -2.66256e-11 0.410066 
-2.57541e-11 -3.02277e-11 0.410066 
-2.58576e-11 -1.31623e-11 0.610066 
-9.72219e-12 -1.06757e-11 0.610066 
-8.09909e-12 -2.5736e-11 0.410066 
-2.44697e-11 -2.96888e-11 0.410066 
-2.53139e-11 -1.28789e-11 0.610066 
-6.42442e-12 -6.47561e-12 0.610066 
-5.13722e-12 -1.54226e-11 0.410066 
-1.59318e-11 -1.83241e-11 0.410066 
-1.6686e-11 -8.53434e-12 0.610066 
-6.29488e-12 -6.33222e-12 0.610066 
-5.24763e-12 -1.57665e-11 0.410066 
-1.58679e-11 -1.82692e-11 0.410066 
-1.6225e-11 -7.85025e-12 0.610066 
-3.1368e-12 -3.59339e-12 0.610066 
-2.39921e-12 -6.299e-12 0.410066 
-7.72517e-12 -8.04263e-12 0.410066 
-8.24669e-12 -4.86502e-12 0.610066 
-3.01234e-12 -4.0418e-12 0.610066 
-2.5741e-12 -5.3003e-12 0.410066 
-7.77754e-12 -6.38688e-12 0.410066 
-7.81497e-12 -4.63957e-12 0.610066 
-5.58858e-14 -4.55481e-12 0.610066 
8.76878e-14 -1.68084e-11 0.410066 
2.65231e-14 -1.71512e-11 0.410066 
-2.01234e-13 -4.89826e-12 0.610066 
4.37427e-12 4.64283e-12 0.610066 
3.27274e-12 2.26726e-11 0.410066 
-5e-11 1.72005e-11 0.410066 
-5e-11 3.01116e-12 0.610066 
-3.47253e-11 -1.13304e-11 0.610066 
-3.58101e-11 -4.66343e-11 0.410066 
-4e-11 -5.65659e-11 0.410066 
-4e-11 -1.27965e-11 0.610066 
-3.20545e-11 -1.19823e-11 0.610066 
-3.16144e-11 -4.08369e-11 0.410066 
-4e-11 -5.40116e-11 0.410066 
-4e-11 -1.4639e-11 0.610066 
-2.58576e-11 -1.32769e-11 0.610066 
-2.57541e-11 -3.2639e-11 0.410066 
-3e-11 -4.49926e-11 0.410066 
-3e-11 -1.61167e-11 0.610066 
-2.53139e-11 -1.34111e-11 0.610066 
-2.44697e-11 -3.25142e-11 0.410066 
-3e-11 -4.29912e-11 0.410066 
-3e-11 -1.57519e-11 0.610066 
-1.6686e-11 -8.22484e-12 0.610066 
-1.59318e-11 -1.91722e-11 0.410066 
-2e-11 -2.82959e-11 0.410066 
-2e-11 -1.0617e-11 0.610066 
-1.6225e-11 -8.4155e-12 0.610066 
-1.58679e-11 -2.06213e-11 0.410066 
-2e-11 -2.71427e-11 0.410066 
-2e-11 -9.92107e-12 0.610066 
-8.24669e-12 -4.42177e-12 0.610066 
-7.72517e-12 -7.91096e-12 0.410066 
-1e-11 -1.32555e-11 0.410066 
-1e-11 -5.90309e-12 0.610066 
-7.81497e-12 -5.17468e-12 0.610066 
-7.77754e-12 -8.00309e-12 0.410066 
-1e-11 -1.05845e-11 0.410066 
-1e-11 -5.69339e-12 0.610066 
-2.01234e-13 -4.40607e-12 0.610066 
2.65231e-14 -1.6271e-11 0.410066 
1.68648e-21 -1.76498e-11 0.410066 
1.00068e-21 -4.8865e-12 0.610066 
5e-11 1.71993e-11 0.410066 
5e-11 -4.76143e-11 0.0100661 
-1.78723e-11 -4.76143e-11 0.0100661 
4.56117e-12 2.26725e-11 0.410066 
4e-11 -5.65641e-11 0.410066 
4e-11 -4.23857e-11 0.0100661 
8.08759e-12 -4.23857e-11 0.0100661 
3.45069e-11 -4.66362e-11 0.410066 
4e-11 -5.40131e-11 0.410066 
4e-11 -3.76143e-11 0.0100661 
3.07734e-12 -3.76143e-11 0.0100661 
3.43649e-11 -4.08365e-11 0.410066 
3e-11 -4.49935e-11 0.410066 
3e-11 -3.23857e-11 0.0100661 
-3.68988e-12 -3.23857e-11 0.0100661 
2.89889e-11 -3.26383e-11 0.410066 
3e-11 -4.29899e-11 0.410066 
3e-11 -2.76143e-11 0.0100661 
6.17011e-13 -2.76143e-11 0.0100661 
2.497e-11 -3.25162e-11 0.410066 
2e-11 -2.82959e-11 0.410066 
2e-11 -2.23857e-11 0.0100661 
-3.03204e-12 -2.23857e-11 0.0100661 
1.92545e-11 -1.91744e-11 0.410066 
2e-11 -2.71429e-11 0.410066 
2e-11 -1.76143e-11 0.0100661 
1.06988e-12 -1.76143e-11 0.0100661 
1.55714e-11 -2.06227e-11 0.410066 
1e-11 -1.32558e-11 0.410066 
1e-11 -1.23857e-11 0.0100661 
-2.4854e-12 -1.23857e-11 0.0100661 
1.02941e-11 -7.91142e-12 0.410066 
1e-11 -1.05848e-11 0.410066 
1e-11 -7.61432e-12 0.0100661 
1.44594e-12 -7.61432e-12 0.0100661 
6.77968e-12 -8.00317e-12 0.410066 
-1.79608e-21 -1.76496e-11 0.410066 
4.43557e-21 -2.38568e-12 0.0100661 
-1.93751e-12 -2.38568e-12 0.0100661 
1.72501e-12 -1.62719e-11 0.410066 
4.56117e-12 2.08145e-11 0.410066 
-1.78723e-11 -4.76143e-11 0.0100661 
-6.54543e-13 -4.76143e-11 0.0100661 
2.66251e-12 2.0082e-11 0.410066 
3.45069e-11 -4.13216e-11 0.410066 
8.08759e-12 -4.23857e-11 0.0100661 
2.46734e-12 -4.23857e-11 0.0100661 
5.07745e-12 -3.90355e-11 0.410066 
3.43649e-11 -3.83989e-11 0.410066 
3.07734e-12 -3.76143e-11 0.0100661 
1.02694e-12 -3.76143e-11 0.0100661 
7.5831e-12 -3.43364e-11 0.410066 
2.89889e-11 -3.02297e-11 0.410066 
-3.68988e-12 -3.23857e-11 0.0100661 
-2.79209e-14 -3.23857e-11 0.0100661 
7.62616e-12 -2.66242e-11 0.410066 
2.497e-11 -2.96894e-11 0.410066 
6.17011e-13 -2.76143e-11 0.0100661 
1.15807e-12 -2.76143e-11 0.0100661 
6.7381e-12 -2.57352e-11 0.410066 
1.92545e-11 -1.83267e-11 0.410066 
-3.03204e-12 -2.23857e-11 0.0100661 
-2.79837e-13 -2.23857e-11 0.0100661 
5.27959e-12 -1.54227e-11 0.410066 
1.55714e-11 -1.82708e-11 0.410066 
1.06988e-12 -1.76143e-11 0.0100661 
8.08552e-13 -1.76143e-11 0.0100661 
4.12776e-12 -1.57681e-11 0.410066 
1.02941e-11 -8.04412e-12 0.410066 
-2.4854e-12 -1.23857e-11 0.0100661 
-3.81027e-13 -1.23857e-11 0.0100661 
2.76995e-12 -6.29881e-12 0.410066 
6.77968e-12 -6.38646e-12 0.410066 
1.44594e-12 -7.61432e-12 0.0100661 
6.19304e-13 -7.61432e-12 0.0100661 
1.73637e-12 -5.30204e-12 0.410066 
1.72501e-12 -1.71527e-11 0.410066 
-1.93751e-12 -2.38568e-12 0.0100661 
-4.8214e-13 -2.38568e-12 0.0100661 
5.01408e-13 -1.68077e-11 0.410066 
2.66251e-12 2.0505e-11 0.410066 
-6.54543e-13 -4.76143e-11 0.0100661 
6.54793e-13 -4.76143e-11 0.0100661 
-2.6624e-12 2.05052e-11 0.410066 
5.07745e-12 -3.94197e-11 0.410066 
2.46734e-12 -4.23857e-11 0.0100661 
-2.46699e-12 -4.23857e-11 0.0100661 
-5.0811e-12 -3.94202e-11 0.410066 
7.5831e-12 -3.51662e-11 0.410066 
1.02694e-12 -3.76143e-11 0.0100661 
-1.02757e-12 -3.76143e-11 0.0100661 
-7.58534e-12 -3.51645e-11 0.410066 
7.62616e-12 -2.66215e-11 0.410066 
-2.79209e-14 -3.23857e-11 0.0100661 
2.92453e-14 -3.23857e-11 0.0100661 
-7.62987e-12 -2.66213e-11 0.410066 
6.7381e-12 -2.60776e-11 0.410066 
1.15807e-12 -2.76143e-11 0.0100661 
-1.15814e-12 -2.76143e-11 0.0100661 
-6.74105e-12 -2.60788e-11 0.410066 
5.27959e-12 -1.56557e-11 0.410066 
-2.79837e-13 -2.23857e-11 0.0100661 
2.795e-13 -2.23857e-11 0.0100661 
-5.28391e-12 -1.56553e-11 0.410066 
4.12776e-12 -1.58739e-11 0.410066 
8.08552e-13 -1.76143e-11 0.0100661 
-8.09778e-13 -1.76143e-11 0.0100661 
-4.13152e-12 -1.58737e-11 0.410066 
2.76995e-12 -6.53359e-12 0.410066 
-3.81027e-13 -1.23857e-11 0.0100661 
3.82642e-13 -1.23857e-11 0.0100661 
-2.77298e-12 -6.5318e-12 0.410066 
1.73637e-12 -5.27031e-12 0.410066 
6.19304e-13 -7.61432e-12 0.0100661 
-6.20483e-13 -7.61432e-12 0.0100661 
-1.73621e-12 -5.26936e-12 0.410066 
5.01408e-13 -1.6952e-11 0.410066 
-4.8214e-13 -2.38568e-12 0.0100661 
4.83126e-13 -2.38568e-12 0.0100661 
-5.01737e-13 -1.69505e-11 0.410066 
-2.6624e-12 2.00819e-11 0.410066 
6.54793e-13 -4.76143e-11 0.0100661 
1.78732e-11 -4.76143e-11 0.0100661 
-4.5615e-12 2.08139e-11 0.410066 
-5.0811e-12 -3.90351e-11 0.410066 
-2.46699e-12 -4.23857e-11 0.0100661 
-8.08859e-12 -4.23857e-11 0.0100661 
-3.45079e-11 -4.13219e-11 0.410066 
-7.58534e-12 -3.43371e-11 0.410066 
-1.02757e-12 -3.76143e-11 0.0100661 
-3.07793e-12 -3.76143e-11 0.0100661 
-3.43657e-11 -3.8398e-11 0.410066 
-7.62987e-12 -2.66256e-11 0.410066 
2.92453e-14 -3.23857e-11 0.0100661 
3.69007e-12 -3.23857e-11 0.0100661 
-2.89899e-11 -3.02277e-11 0.410066 
-6.74105e-12 -2.5736e-11 0.410066 
-1.15814e-12 -2.76143e-11 0.0100661 
-6.16966e-13 -2.76143e-11 0.0100661 
-2.49716e-11 -2.96888e-11 0.410066 
-5.28391e-12 -1.54226e-11 0.410066 
2.795e-13 -2.23857e-11 0.0100661 
3.03215e-12 -2.23857e-11 0.0100661 
-1.9256e-11 -1.83241e-11 0.410066 
-4.13152e-12 -1.57665e-11 0.410066 
-8.09778e-13 -1.76143e-11 0.0100661 
-1.07048e-12 -1.76143e-11 0.0100661 
-1.55731e-11 -1.82692e-11 0.410066 
-2.77298e-12 -6.299e-12 0.410066 
3.82642e-13 -1.23857e-11 0.0100661 
2.48592e-12 -1.23857e-11 0.0100661 
-1.02954e-11 -8.04263e-12 0.410066 
-1.73621e-12 -5.3003e-12 0.410066 
-6.20483e-13 -7.61432e-12 0.0100661 
-1.44625e-12 -7.61432e-12 0.0100661 
-6.78059e-12 -6.38688e-12 0.410066 
-5.01737e-13 -1.68084e-11 0.410066 
4.83126e-13 -2.38568e-12 0.0100661 
1.93791e-12 -2.38568e-12 0.0100661 
-1.72501e-12 -1.71512e-11 0.410066 
-4.5615e-12 2.26726e-11 0.410066 
1.78732e-11 -4.76143e-11 0.0100661 
-5e-11 -4.76143e-11 0.0100661 
-5e-11 1.72005e-11 0.410066 
-3.45079e-11 -4.66343e-11 0.410066 
-8.08859e-12 -4.23857e-11 0.0100661 
-4e-11 -4.23857e-11 0.0100661 
-4e-11 -5.65659e-11 0.410066 
-3.43657e-11 -4.08369e-11 0.410066 
-3.07793e-12 -3.76143e-11 0.0100661 
-4e-11 -3.76143e-11 0.0100661 
-4e-11 -5.40116e-11 0.410066 
-2.89899e-11 -3.2639e-11 0.410066 
3.69007e-12 -3.23857e-11 0.0100661 
-3e-11 -3.23857e-11 0.0100661 
-3e-11 -4.49926e-11 0.410066 
-2.49716e-11 -3.25142e-11 0.410066 
-6.16966e-13 -2.76143e-11 0.0100661 
-3e-11 -2.76143e-11 0.0100661 
-3e-11 -4.29912e-11 0.410066 
-1.9256e-11 -1.91722e-11 0.410066 
3.03215e-12 -2.23857e-11 0.0100661 
-2e-11 -2.23857e-11 0.0100661 
-2e-11 -2.82959e-11 0.410066 
-1.55731e-11 -2.06213e-11 0.410066 
-1.07048e-12 -1.76143e-11 0.0100661 
-2e-11 -1.76143e-11 0.0100661 
-2e-11 -2.71427e-11 0.410066 
-1.02954e-11 -7.91096e-12 0.410066 
2.48592e-12 -1.23857e-11 0.0100661 
-1e-11 -1.23857e-11 0.0100661 
-1e-11 -1.32555e-11 0.410066 
-6.78059e-12 -8.00309e-12 0.410066 
-1.44625e-12 -7.61432e-12 0.0100661 
-1e-11 -7.61432e-12 0.0100661 
-1e-11 -1.05845e-11 0.410066 
-1.72501e-12 -1.6271e-11 0.410066 
1.93791e-12 -2.38568e-12 0.0100661 
-4.43536e-21 -2.38568e-12 0.0100661 
1.79586e-21 -1.76498e-11 0.410066 
TENSORS Stress float 
4.5 2.79023e-19 -1.75713e-10 
2.79023e-19 3.86583 2 
-1.75713e-10 2 5.13417 
4.5 -2.73587e-11 -2.98286e-11 
-2.73587e-11 3.86583 2 
-2.98286e-11 2 5.13417 
4.5 8.48113e-11 -2.29562e-10 
8.48113e-11 3.86583 2 
-2.29562e-10 2 5.13417 
4.5 1.12168e-10 -3.55516e-10 
1.12168e-10 3.86583 2 
-3.55516e-10 2 5.13417 
4.5 1.23199e-19 6.43163e-11 
1.23199e-19 5.13417 2 
6.43163e-11 2 3.86583 
4.5 -4.96394e-11 7.44843e-11 
-4.96394e-11 5.13417 2 
7.44843e-11 2 3.86583 
4.5 8.24613e-11 -1.25249e-10 
8.24613e-11 5.13417 2 
-1.25249e-10 2 3.86583 
4.5 1.32099e-10 -1.15487e-10 
1.32099e-10 5.13417 2 
-1.15487e-10 2 3.86583 
3.5 1.2648e-19 6.43163e-11 
1.2648e-19 2.86583 2 
6.43163e-11 2 4.13417 
3.5 -6.58591e-11 7.4485e-11 
-6.58591e-11 2.86583 2 
7.4485e-11 2 4.13417 
3.5 9.05851e-11 5.13633e-11 
9.05851e-11 2.86583 2 
5.13633e-11 2 4.13417 
3.5 1.56442e-10 4.81529e-11 
1.56442e-10 2.86583 2 
4.81529e-11 2 4.13417 
3.5 1.04768e-19 6.80547e-11 
1.04768e-19 4.13417 2 
6.80547e-11 2 2.86583 
3.5 -6.17589e-11 4.54554e-11 
-6.17589e-11 4.13417 2 
4.54554e-11 2 2.86583 
3.5 1.01644e-10 2.23333e-11 
1.01644e-10 4.13417 2 
2.23333e-11 2 2.86583 
3.5 1.634e-10 5.18909e-11 
1.634e-10 4.13417 2 
5.18909e-11 2 2.86583 
2.5 8.08209e-20 6.80547e-11 
8.08209e-20 1.86583 2 
6.80547e-11 2 3.13417 
2.5 -5.23644e-11 4.54554e-11 
-5.23644e-11 1.86583 2 
4.54554e-11 2 3.13417 
2.5 6.94128e-11 2.40319e-11 
6.94128e-11 1.86583 2 
2.40319e-11 2 3.13417 
2.5 1.21777e-10 3.62975e-11 
1.21777e-10 1.86583 2 
3.62975e-11 2 3.13417 
2.5 7.19472e-20 6.01648e-11 
7.19472e-20 3.13417 2 
6.01648e-11 2 1.86583 
2.5 -4.56031e-11 3.56003e-11 
-4.56031e-11 3.13417 2 
3.56003e-11 2 1.86583 
2.5 6.58396e-11 1.41768e-11 
6.58396e-11 3.13417 2 
1.41768e-11 2 1.86583 
2.5 1.11443e-10 2.84077e-11 
1.11443e-10 3.13417 2 
2.84077e-11 2 1.86583 
1.5 5.22577e-20 6.01648e-11 
5.22577e-20 0.865833 2 
6.01648e-11 2 2.13417 
1.5 -3.26013e-11 3.56003e-11 
-3.26013e-11 0.865833 2 
3.56003e-11 2 2.13417 
1.5 3.99169e-11 1.1994e-11 
3.99169e-11 0.865833 2 
1.1994e-11 2 2.13417 
1.5 7.2518e-11 2.79468e-11 
7.2518e-11 0.865833 2 
2.79468e-11 2 2.13417 
1.5 3.80155e-20 5.78997e-11 
3.80155e-20 2.13417 2 
5.78997e-11 2 0.865833 
1.5 -2.67187e-11 3.38947e-11 
-2.67187e-11 2.13417 2 
3.38947e-11 2 0.865833 
1.5 3.71874e-11 1.02886e-11 
3.71874e-11 2.13417 2 
1.02886e-11 2 0.865833 
1.5 6.39059e-11 2.56815e-11 
6.39059e-11 2.13417 2 
2.56815e-11 2 0.865833 
0.5 2.58609e-20 5.78997e-11 
2.58609e-20 -0.134167 2 
5.78997e-11 2 1.13417 
0.5 -1.29157e-11 3.38942e-11 
-1.29157e-11 -0.134167 2 
3.38942e-11 2 1.13417 
0.5 1.37558e-11 9.17153e-12 
1.37558e-11 -0.134167 2 
9.17153e-12 2 1.13417 
0.5 2.66733e-11 2.48205e-11 
2.66733e-11 -0.134167 2 
2.48205e-11 2 1.13417 
0.5 -3.92735e-20 5.72542e-11 
-3.92735e-20 1.13417 2 
5.72542e-11 2 -0.134167 
0.5 -6.89078e-12 3.3427e-11 
-6.89078e-12 1.13417 2 
3.3427e-11 2 -0.134167 
0.5 1.1424e-11 8.70453e-12 
1.1424e-11 1.13417 2 
8.70453e-12 2 -0.134167 
0.5 1.83168e-11 2.41751e-11 
1.83168e-11 1.13417 2 
2.41751e-11 2 -0.134167 
4.5 1.12168e-10 -1.19931e-10 
1.12168e-10 3.86583 2 
-1.19931e-10 2 5.13417 
4.5 1.15835e-10 -1.85503e-10 
1.15835e-10 3.86583 2 
-1.85503e-10 2 5.13417 
4.5 2.02519e-11 -4.78491e-11 
2.02519e-11 3.86583 2 
-4.78491e-11 2 5.13417 
4.5 1.6587e-11 -5.74166e-12 
1.6587e-11 3.86583 2 
-5.74166e-12 2 5.13417 
4.5 1.32099e-10 -1.38603e-10 
1.32099e-10 5.13417 2 
-1.38603e-10 2 3.86583 
4.5 1.20678e-10 -1.53636e-10 
1.20678e-10 5.13417 2 
-1.53636e-10 2 3.86583 
4.5 1.62974e-12 -1.5982e-11 
1.62974e-12 5.13417 2 
-1.5982e-11 2 3.86583 
4.5 1.30527e-11 -2.44138e-11 
1.30527e-11 5.13417 2 
-2.44138e-11 2 3.86583 
3.5 1.56442e-10 2.50369e-11 
1.56442e-10 2.86583 2 
2.50369e-11 2 4.13417 
3.5 1.36122e-10 2.29758e-11 
1.36122e-10 2.86583 2 
2.29758e-11 2 4.13417 
3.5 1.24746e-11 -4.12087e-12 
1.24746e-11 2.86583 2 
-4.12087e-12 2 4.13417 
3.5 3.27942e-11 -3.53242e-12 
3.27942e-11 2.86583 2 
-3.53242e-12 2 4.13417 
3.5 1.634e-10 4.15439e-11 
1.634e-10 4.13417 2 
4.15439e-11 2 2.86583 
3.5 1.45379e-10 4.19941e-11 
1.45379e-10 4.13417 2 
4.19941e-11 2 2.86583 
3.5 2.02585e-11 1.48996e-11 
2.02585e-11 4.13417 2 
1.48996e-11 2 2.86583 
3.5 3.82792e-11 1.29744e-11 
3.82792e-11 4.13417 2 
1.29744e-11 2 2.86583 
2.5 1.21777e-10 2.595e-11 
1.21777e-10 1.86583 2 
2.595e-11 2 3.13417 
2.5 1.02009e-10 4.36929e-11 
1.02009e-10 1.86583 2 
4.36929e-11 2 3.13417 
2.5 8.14375e-12 2.24067e-11 
8.14375e-12 1.86583 2 
2.24067e-11 2 3.13417 
2.5 2.79148e-11 1.49003e-11 
2.79148e-11 1.86583 2 
1.49003e-11 2 3.13417 
2.5 1.11443e-10 2.04783e-11 
1.11443e-10 3.13417 2 
2.04783e-11 2 1.86583 
2.5 9.69243e-11 3.49857e-11 
9.69243e-11 3.13417 2 
3.49857e-11 2 1.86583 
2.5 1.32963e-11 1.36989e-11 
1.32963e-11 3.13417 2 
1.36989e-11 2 1.86583 
2.5 2.78186e-11 9.42872e-12 
2.78186e-11 3.13417 2 
9.42872e-12 2 1.86583 
1.5 7.2518e-11 2.00175e-11 
7.2518e-11 0.865833 2 
2.00175e-11 2 2.13417 
1.5 6.00099e-11 3.28029e-11 
6.00099e-11 0.865833 2 
3.28029e-11 2 2.13417 
1.5 4.09801e-12 1.32063e-11 
4.09801e-12 0.865833 2 
1.32063e-11 2 2.13417 
1.5 1.66046e-11 8.19064e-12 
1.66046e-11 0.865833 2 
8.19064e-12 2 2.13417 
1.5 6.39059e-11 1.73374e-11 
6.39059e-11 2.13417 2 
1.73374e-11 2 0.865833 
1.5 5.51831e-11 3.00935e-11 
5.51831e-11 2.13417 2 
3.00935e-11 2 0.865833 
1.5 7.04069e-12 1.0496e-11 
7.04069e-12 2.13417 2 
1.0496e-11 2 0.865833 
1.5 1.57626e-11 5.51056e-12 
1.57626e-11 2.13417 2 
5.51056e-12 2 0.865833 
0.5 2.66733e-11 1.64764e-11 
2.66733e-11 -0.134167 2 
1.64764e-11 2 1.13417 
0.5 2.12525e-11 2.89777e-11 
2.12525e-11 -0.134167 2 
2.89777e-11 2 1.13417 
0.5 1.65797e-13 9.87534e-12 
1.65797e-13 -0.134167 2 
9.87534e-12 2 1.13417 
0.5 5.58396e-12 5.07077e-12 
5.58396e-12 -0.134167 2 
5.07077e-12 2 1.13417 
0.5 1.83168e-11 1.55856e-11 
1.83168e-11 1.13417 2 
1.55856e-11 2 -0.134167 
0.5 1.66053e-11 2.82458e-11 
1.66053e-11 1.13417 2 
2.82458e-11 2 -0.134167 
0.5 3.21459e-12 9.14353e-12 
3.21459e-12 1.13417 2 
9.14353e-12 2 -0.134167 
0.5 4.92403e-12 4.17992e-12 
4.92403e-12 1.13417 2 
4.17992e-12 2 -0.134167 
4.5 1.6587e-11 -1.56169e-11 
1.6587e-11 3.86583 2 
-1.56169e-11 2 5.13417 
4.5 1.65834e-11 -1.2079e-11 
1.65834e-11 3.86583 2 
-1.2079e-11 2 5.13417 
4.5 -1.65949e-11 1.20852e-11 
-1.65949e-11 3.86583 2 
1.20852e-11 2 5.13417 
4.5 -1.65933e-11 1.56102e-11 
-1.65933e-11 3.86583 2 
1.56102e-11 2 5.13417 
4.5 1.30527e-11 -1.56164e-11 
1.30527e-11 5.13417 2 
-1.56164e-11 2 3.86583 
4.5 1.3041e-11 -1.20911e-11 
1.3041e-11 5.13417 2 
-1.20911e-11 2 3.86583 
4.5 -1.30743e-11 1.20728e-11 
-1.30743e-11 5.13417 2 
1.20728e-11 2 3.86583 
4.5 -1.30648e-11 1.56106e-11 
-1.30648e-11 5.13417 2 
1.56106e-11 2 3.86583 
3.5 3.27942e-11 5.26499e-12 
3.27942e-11 2.86583 2 
5.26499e-12 2 4.13417 
3.5 3.2803e-11 -2.29794e-13 
3.2803e-11 2.86583 2 
-2.29794e-13 2 4.13417 
3.5 -3.27767e-11 2.05426e-13 
-3.27767e-11 2.86583 2 
2.05426e-13 2 4.13417 
3.5 -3.2781e-11 -5.28716e-12 
-3.2781e-11 2.86583 2 
-5.28716e-12 2 4.13417 
3.5 3.82792e-11 5.26615e-12 
3.82792e-11 4.13417 2 
5.26615e-12 2 2.86583 
3.5 3.82843e-11 -2.20654e-13 
3.82843e-11 4.13417 2 
-2.20654e-13 2 2.86583 
3.5 -3.82829e-11 2.14826e-13 
-3.82829e-11 4.13417 2 
2.14826e-13 2 2.86583 
3.5 -3.82837e-11 -5.28512e-12 
-3.82837e-11 4.13417 2 
-5.28512e-12 2 2.86583 
2.5 2.79148e-11 7.19344e-12 
2.79148e-11 1.86583 2 
7.19344e-12 2 3.13417 
2.5 2.79162e-11 7.2873e-12 
2.79162e-11 1.86583 2 
7.2873e-12 2 3.13417 
2.5 -2.78904e-11 -7.28598e-12 
-2.78904e-11 1.86583 2 
-7.28598e-12 2 3.13417 
2.5 -2.78951e-11 -7.19318e-12 
-2.78951e-11 1.86583 2 
-7.19318e-12 2 3.13417 
2.5 2.78186e-11 7.19074e-12 
2.78186e-11 3.13417 2 
7.19074e-12 2 1.86583 
2.5 2.782e-11 7.29615e-12 
2.782e-11 3.13417 2 
7.29615e-12 2 1.86583 
2.5 -2.77987e-11 -7.27767e-12 
-2.77987e-11 3.13417 2 
-7.27767e-12 2 1.86583 
2.5 -2.78036e-11 -7.19499e-12 
-2.78036e-11 3.13417 2 
-7.19499e-12 2 1.86583 
1.5 1.66046e-11 5.95266e-12 
1.66046e-11 0.865833 2 
5.95266e-12 2 2.13417 
1.5 1.66007e-11 6.80411e-12 
1.66007e-11 0.865833 2 
6.80411e-12 2 2.13417 
1.5 -1.66027e-11 -6.78397e-12 
-1.66027e-11 0.865833 2 
-6.78397e-12 2 2.13417 
1.5 -1.65977e-11 -5.95493e-12 
-1.65977e-11 0.865833 2 
-5.95493e-12 2 2.13417 
1.5 1.57626e-11 5.9551e-12 
1.57626e-11 2.13417 2 
5.9551e-12 2 0.865833 
1.5 1.57697e-11 6.79926e-12 
1.57697e-11 2.13417 2 
6.79926e-12 2 0.865833 
1.5 -1.57542e-11 -6.78776e-12 
-1.57542e-11 2.13417 2 
-6.78776e-12 2 0.865833 
1.5 -1.57607e-11 -5.95271e-12 
-1.57607e-11 2.13417 2 
-5.95271e-12 2 0.865833 
0.5 5.58396e-12 5.5153e-12 
5.58396e-12 -0.134167 2 
5.5153e-12 2 1.13417 
0.5 5.57976e-12 6.1772e-12 
5.57976e-12 -0.134167 2 
6.1772e-12 2 1.13417 
0.5 -5.5843e-12 -6.17036e-12 
-5.5843e-12 -0.134167 2 
-6.17036e-12 2 1.13417 
0.5 -5.5801e-12 -5.51294e-12 
-5.5801e-12 -0.134167 2 
-5.51294e-12 2 1.13417 
0.5 4.92403e-12 5.51486e-12 
4.92403e-12 1.13417 2 
5.51486e-12 2 -0.134167 
0.5 4.92644e-12 6.18345e-12 
4.92644e-12 1.13417 2 
6.18345e-12 2 -0.134167 
0.5 -4.91875e-12 -6.16366e-12 
-4.91875e-12 1.13417 2 
-6.16366e-12 2 -0.134167 
0.5 -4.92116e-12 -5.51338e-12 
-4.92116e-12 1.13417 2 
-5.51338e-12 2 -0.134167 
4.5 -1.65933e-11 5.73449e-12 
-1.65933e-11 3.86583 2 
5.73449e-12 2 5.13417 
4.5 -2.02542e-11 4.78464e-11 
-2.02542e-11 3.86583 2 
4.78464e-11 2 5.13417 
4.5 -1.15835e-10 1.85494e-10 
-1.15835e-10 3.86583 2 
1.85494e-10 2 5.13417 
4.5 -1.12172e-10 1.19926e-10 
-1.12172e-10 3.86583 2 
1.19926e-10 2 5.13417 
4.5 -1.30648e-11 2.44149e-11 
-1.30648e-11 5.13417 2 
2.44149e-11 2 3.86583 
4.5 -1.62509e-12 1.59854e-11 
-1.62509e-12 5.13417 2 
1.59854e-11 2 3.86583 
4.5 -1.20662e-10 1.53635e-10 
-1.20662e-10 5.13417 2 
1.53635e-10 2 3.86583 
4.5 -1.321e-10 1.38606e-10 
-1.321e-10 5.13417 2 
1.38606e-10 2 3.86583 
3.5 -3.2781e-11 3.5185e-12 
-3.2781e-11 2.86583 2 
3.5185e-12 2 4.13417 
3.5 -1.24767e-11 4.11978e-12 
-1.24767e-11 2.86583 2 
4.11978e-12 2 4.13417 
3.5 -1.36128e-10 -2.29734e-11 
-1.36128e-10 2.86583 2 
-2.29734e-11 2 4.13417 
3.5 -1.56441e-10 -2.50366e-11 
-1.56441e-10 2.86583 2 
-2.50366e-11 2 4.13417 
3.5 -3.82837e-11 -1.29868e-11 
-3.82837e-11 4.13417 2 
-1.29868e-11 2 2.86583 
3.5 -2.0271e-11 -1.49145e-11 
-2.0271e-11 4.13417 2 
-1.49145e-11 2 2.86583 
3.5 -1.45386e-10 -4.20091e-11 
-1.45386e-10 4.13417 2 
-4.20091e-11 2 2.86583 
3.5 -1.63405e-10 -4.15417e-11 
-1.63405e-10 4.13417 2 
-4.15417e-11 2 2.86583 
2.5 -2.78951e-11 -1.48951e-11 
-2.78951e-11 1.86583 2 
-1.48951e-11 2 3.13417 
2.5 -8.12175e-12 -2.24162e-11 
-8.12175e-12 1.86583 2 
-2.24162e-11 2 3.13417 
2.5 -1.01995e-10 -4.37107e-11 
-1.01995e-10 1.86583 2 
-4.37107e-11 2 3.13417 
2.5 -1.2176e-10 -2.59519e-11 
-1.2176e-10 1.86583 2 
-2.59519e-11 2 3.13417 
2.5 -2.78036e-11 -9.42805e-12 
-2.78036e-11 3.13417 2 
-9.42805e-12 2 1.86583 
2.5 -1.32821e-11 -1.37023e-11 
-1.32821e-11 3.13417 2 
-1.37023e-11 2 1.86583 
2.5 -9.69196e-11 -3.49951e-11 
-9.69196e-11 3.13417 2 
-3.49951e-11 2 1.86583 
2.5 -1.11433e-10 -2.04854e-11 
-1.11433e-10 3.13417 2 
-2.04854e-11 2 1.86583 
1.5 -1.65977e-11 -8.1871e-12 
-1.65977e-11 0.865833 2 
-8.1871e-12 2 2.13417 
1.5 -4.0831e-12 -1.32073e-11 
-4.0831e-12 0.865833 2 
-1.32073e-11 2 2.13417 
1.5 -5.99979e-11 -3.28043e-11 
-5.99979e-11 0.865833 2 
-3.28043e-11 2 2.13417 
1.5 -7.25136e-11 -2.00137e-11 
-7.25136e-11 0.865833 2 
-2.00137e-11 2 2.13417 
1.5 -1.57607e-11 -5.50418e-12 
-1.57607e-11 2.13417 2 
-5.50418e-12 2 0.865833 
1.5 -7.02664e-12 -1.04923e-11 
-7.02664e-12 2.13417 2 
-1.04923e-11 2 0.865833 
1.5 -5.51678e-11 -3.00893e-11 
-5.51678e-11 2.13417 2 
-3.00893e-11 2 0.865833 
1.5 -6.39043e-11 -1.73299e-11 
-6.39043e-11 2.13417 2 
-1.73299e-11 2 0.865833 
0.5 -5.5801e-12 -5.06441e-12 
-5.5801e-12 -0.134167 2 
-5.06441e-12 2 1.13417 
0.5 -1.54205e-13 -9.87443e-12 
-1.54205e-13 -0.134167 2 
-9.87443e-12 2 1.13417 
0.5 -2.12436e-11 -2.89766e-11 
-2.12436e-11 -0.134167 2 
-2.89766e-11 2 1.13417 
0.5 -2.66697e-11 -1.64717e-11 
-2.66697e-11 -0.134167 2 
-1.64717e-11 2 1.13417 
0.5 -4.92116e-12 -4.17379e-12 
-4.92116e-12 1.13417 2 
-4.17379e-12 2 -0.134167 
0.5 -3.20692e-12 -9.12951e-12 
-3.20692e-12 1.13417 2 
-9.12951e-12 2 -0.134167 
0.5 -1.65998e-11 -2.82335e-11 
-1.65998e-11 1.13417 2 
-2.82335e-11 2 -0.134167 
0.5 -1.8314e-11 -1.5581e-11 
-1.8314e-11 1.13417 2 
-1.5581e-11 2 -0.134167 
4.5 -1.12172e-10 3.55508e-10 
-1.12172e-10 3.86583 2 
3.55508e-10 2 5.13417 
4.5 -8.48049e-11 2.29552e-10 
-8.48049e-11 3.86583 2 
2.29552e-10 2 5.13417 
4.5 2.73669e-11 2.98193e-11 
2.73669e-11 3.86583 2 
2.98193e-11 2 5.13417 
4.5 -2.79017e-19 1.75704e-10 
-2.79017e-19 3.86583 2 
1.75704e-10 2 5.13417 
4.5 -1.321e-10 1.15494e-10 
-1.321e-10 5.13417 2 
1.15494e-10 2 3.86583 
4.5 -8.24522e-11 1.25246e-10 
-8.24522e-11 5.13417 2 
1.25246e-10 2 3.86583 
4.5 4.96474e-11 -7.44856e-11 
4.96474e-11 5.13417 2 
-7.44856e-11 2 3.86583 
4.5 -1.23206e-19 -6.43103e-11 
-1.23206e-19 5.13417 2 
-6.43103e-11 2 3.86583 
3.5 -1.56441e-10 -4.81501e-11 
-1.56441e-10 2.86583 2 
-4.81501e-11 2 4.13417 
3.5 -9.05772e-11 -5.13611e-11 
-9.05772e-11 2.86583 2 
-5.13611e-11 2 4.13417 
3.5 6.58573e-11 -7.44849e-11 
6.58573e-11 2.86583 2 
-7.44849e-11 2 4.13417 
3.5 -1.26479e-19 -6.43107e-11 
-1.26479e-19 2.86583 2 
-6.43107e-11 2 4.13417 
3.5 -1.63405e-10 -5.19003e-11 
-1.63405e-10 4.13417 2 
-5.19003e-11 2 2.86583 
3.5 -1.01644e-10 -2.234e-11 
-1.01644e-10 4.13417 2 
-2.234e-11 2 2.86583 
3.5 6.17549e-11 -4.54626e-11 
6.17549e-11 4.13417 2 
-4.54626e-11 2 2.86583 
3.5 -1.04768e-19 -6.80609e-11 
-1.04768e-19 4.13417 2 
-6.80609e-11 2 2.86583 
2.5 -1.2176e-10 -3.6311e-11 
-1.2176e-10 1.86583 2 
-3.6311e-11 2 3.13417 
2.5 -6.93982e-11 -2.40414e-11 
-6.93982e-11 1.86583 2 
-2.40414e-11 2 3.13417 
2.5 5.23716e-11 -4.54631e-11 
5.23716e-11 1.86583 2 
-4.54631e-11 2 3.13417 
2.5 -8.08202e-20 -6.80609e-11 
-8.08202e-20 1.86583 2 
-6.80609e-11 2 3.13417 
2.5 -1.11433e-10 -2.84091e-11 
-1.11433e-10 3.13417 2 
-2.84091e-11 2 1.86583 
2.5 -6.58307e-11 -1.41734e-11 
-6.58307e-11 3.13417 2 
-1.41734e-11 2 1.86583 
2.5 4.56102e-11 -3.55965e-11 
4.56102e-11 3.13417 2 
-3.55965e-11 2 1.86583 
2.5 -7.19502e-20 -6.0159e-11 
-7.19502e-20 3.13417 2 
-6.0159e-11 2 1.86583 
1.5 -7.25135e-11 -2.79374e-11 
-7.25135e-11 0.865833 2 
-2.79374e-11 2 2.13417 
1.5 -3.99103e-11 -1.19838e-11 
-3.99103e-11 0.865833 2 
-1.19838e-11 2 2.13417 
1.5 3.2602e-11 -3.55965e-11 
3.2602e-11 0.865833 2 
-3.55965e-11 2 2.13417 
1.5 -5.2258e-20 -6.0159e-11 
-5.2258e-20 0.865833 2 
-6.0159e-11 2 2.13417 
1.5 -6.39043e-11 -2.56857e-11 
-6.39043e-11 2.13417 2 
-2.56857e-11 2 0.865833 
1.5 -3.71959e-11 -1.0285e-11 
-3.71959e-11 2.13417 2 
-1.0285e-11 2 0.865833 
1.5 2.67055e-11 -3.38971e-11 
2.67055e-11 2.13417 2 
-3.38971e-11 2 0.865833 
1.5 -3.80103e-20 -5.79073e-11 
-3.80103e-20 2.13417 2 
-5.79073e-11 2 0.865833 
0.5 -2.66697e-11 -2.48275e-11 
-2.66697e-11 -0.134167 2 
-2.48275e-11 2 1.13417 
0.5 -1.37531e-11 -9.17343e-12 
-1.37531e-11 -0.134167 2 
-9.17343e-12 2 1.13417 
0.5 1.29166e-11 -3.38976e-11 
1.29166e-11 -0.134167 2 
-3.38976e-11 2 1.13417 
0.5 -2.58622e-20 -5.79073e-11 
-2.58622e-20 -0.134167 2 
-5.79073e-11 2 1.13417 
0.5 -1.8314e-11 -2.41739e-11 
-1.8314e-11 1.13417 2 
-2.41739e-11 2 -0.134167 
0.5 -1.14262e-11 -8.70155e-12 
-1.14262e-11 1.13417 2 
-8.70155e-12 2 -0.134167 
0.5 6.88784e-12 -3.34257e-11 
6.88784e-12 1.13417 2 
-3.34257e-11 2 -0.134167 
0.5 3.92733e-20 -5.72538e-11 
3.92733e-20 1.13417 2 
-5.72538e-11 2 -0.134167 
4.5 -2.73587e-11 -3.38319e-12 
-2.73587e-11 3.86583 1 
-3.38319e-12 1 5.13417 
4.5 -8.15545e-12 -8.13128e-12 
-8.15545e-12 3.86583 1 
-8.13128e-12 1 5.13417 
4.5 -1.36758e-11 -2.53625e-10 
-1.36758e-11 3.86583 1 
-2.53625e-10 1 5.13417 
4.5 -3.28782e-11 -2.48785e-10 
-3.28782e-11 3.86583 1 
-2.48785e-10 1 5.13417 
4.5 -4.96394e-11 8.82504e-11 
-4.96394e-11 5.13417 1 
8.82504e-11 1 3.86583 
4.5 -7.32146e-12 8.7874e-11 
-7.32146e-12 5.13417 1 
8.7874e-11 1 3.86583 
4.5 -1.27502e-11 -1.57619e-10 
-1.27502e-11 5.13417 1 
-1.57619e-10 1 3.86583 
4.5 -5.50673e-11 -1.57151e-10 
-5.50673e-11 5.13417 1 
-1.57151e-10 1 3.86583 
3.5 -6.58591e-11 8.8251e-11 
-6.58591e-11 2.86583 1 
8.8251e-11 1 4.13417 
3.5 -1.32667e-11 8.78733e-11 
-1.32667e-11 2.86583 1 
8.78733e-11 1 4.13417 
3.5 -1.10855e-11 6.88501e-11 
-1.10855e-11 2.86583 1 
6.88501e-11 1 4.13417 
3.5 -6.36769e-11 6.7554e-11 
-6.36769e-11 2.86583 1 
6.7554e-11 1 4.13417 
3.5 -6.17589e-11 4.56056e-11 
-6.17589e-11 4.13417 1 
4.56056e-11 1 2.86583 
3.5 -1.41702e-11 4.55588e-11 
-1.41702e-11 4.13417 1 
4.55588e-11 1 2.86583 
3.5 -1.36614e-11 2.65349e-11 
-1.36614e-11 4.13417 1 
2.65349e-11 1 2.86583 
3.5 -6.12501e-11 2.49081e-11 
-6.12501e-11 4.13417 1 
2.49081e-11 1 2.86583 
2.5 -5.23644e-11 4.56056e-11 
-5.23644e-11 1.86583 1 
4.56056e-11 1 3.13417 
2.5 -1.16937e-11 4.55588e-11 
-1.16937e-11 1.86583 1 
4.55588e-11 1 3.13417 
2.5 -7.48076e-12 3.87117e-11 
-7.48076e-12 1.86583 1 
3.87117e-11 1 3.13417 
2.5 -4.81511e-11 3.82949e-11 
-4.81511e-11 1.86583 1 
3.82949e-11 1 3.13417 
2.5 -4.56031e-11 2.884e-11 
-4.56031e-11 3.13417 1 
2.884e-11 1 1.86583 
2.5 -1.19514e-11 2.96979e-11 
-1.19514e-11 3.13417 1 
2.96979e-11 1 1.86583 
2.5 -8.2012e-12 2.28502e-11 
-8.2012e-12 3.13417 1 
2.28502e-11 1 1.86583 
2.5 -4.18536e-11 2.15292e-11 
-4.18536e-11 3.13417 1 
2.15292e-11 1 1.86583 
1.5 -3.26013e-11 2.884e-11 
-3.26013e-11 0.865833 1 
2.884e-11 1 2.13417 
1.5 -7.51907e-12 2.96985e-11 
-7.51907e-12 0.865833 1 
2.96985e-11 1 2.13417 
1.5 -5.72318e-12 1.9604e-11 
-5.72318e-12 0.865833 1 
1.9604e-11 1 2.13417 
1.5 -3.08084e-11 1.95396e-11 
-3.08084e-11 0.865833 1 
1.95396e-11 1 2.13417 
1.5 -2.67187e-11 2.40485e-11 
-2.67187e-11 2.13417 1 
2.40485e-11 1 0.865833 
1.5 -7.3926e-12 2.53177e-11 
-7.3926e-12 2.13417 1 
2.53177e-11 1 0.865833 
1.5 -4.80387e-12 1.52231e-11 
-4.80387e-12 2.13417 1 
1.52231e-11 1 0.865833 
1.5 -2.41319e-11 1.4747e-11 
-2.41319e-11 2.13417 1 
1.4747e-11 1 0.865833 
0.5 -1.29155e-11 2.40478e-11 
-1.29155e-11 -0.134167 1 
2.40478e-11 1 1.13417 
0.5 -2.59662e-12 2.53177e-11 
-2.59662e-12 -0.134167 1 
2.53177e-11 1 1.13417 
0.5 -2.39759e-12 1.33908e-11 
-2.39759e-12 -0.134167 1 
1.33908e-11 1 1.13417 
0.5 -1.27157e-11 1.305e-11 
-1.27157e-11 -0.134167 1 
1.305e-11 1 1.13417 
0.5 -6.89078e-12 2.28641e-11 
-6.89078e-12 1.13417 1 
2.28641e-11 1 -0.134167 
0.5 -2.39755e-12 2.42583e-11 
-2.39755e-12 1.13417 1 
2.42583e-11 1 -0.134167 
0.5 -1.26927e-12 1.23321e-11 
-1.26927e-12 1.13417 1 
1.23321e-11 1 -0.134167 
0.5 -5.76128e-12 1.18679e-11 
-5.76128e-12 1.13417 1 
1.18679e-11 1 -0.134167 
4.5 -1.85442e-12 -2.1988e-10 
-1.85442e-12 3.86583 1 
-2.1988e-10 1 5.13417 
4.5 -9.81576e-12 -2.25221e-10 
-9.81576e-12 3.86583 1 
-2.25221e-10 1 5.13417 
4.5 -5.22919e-12 -6.77408e-11 
-5.22919e-12 3.86583 1 
-6.77408e-11 1 5.13417 
4.5 2.73239e-12 -5.79204e-11 
2.73239e-12 3.86583 1 
-5.79204e-11 1 5.13417 
4.5 -1.68509e-11 -1.99438e-10 
-1.68509e-11 5.13417 1 
-1.99438e-10 1 3.86583 
4.5 -1.17707e-11 -2.00325e-10 
-1.17707e-11 5.13417 1 
-2.00325e-10 1 3.86583 
4.5 -2.70498e-12 -4.28448e-11 
-2.70498e-12 5.13417 1 
-4.28448e-11 1 3.86583 
4.5 -7.78362e-12 -3.74801e-11 
-7.78362e-12 5.13417 1 
-3.74801e-11 1 3.86583 
3.5 -1.81396e-11 2.52654e-11 
-1.81396e-11 2.86583 1 
2.52654e-11 1 4.13417 
3.5 -8.29099e-12 2.61439e-11 
-8.29099e-12 2.86583 1 
2.61439e-11 1 4.13417 
3.5 -4.54231e-12 -4.99462e-12 
-4.54231e-12 2.86583 1 
-4.99462e-12 1 4.13417 
3.5 -1.43939e-11 -3.84544e-12 
-1.43939e-11 2.86583 1 
-3.84544e-12 1 4.13417 
3.5 -1.75141e-11 4.6963e-11 
-1.75141e-11 4.13417 1 
4.6963e-11 1 2.86583 
3.5 -1.10316e-11 4.91587e-11 
-1.10316e-11 4.13417 1 
4.91587e-11 1 2.86583 
3.5 -5.25558e-12 1.80201e-11 
-5.25558e-12 4.13417 1 
1.80201e-11 1 2.86583 
3.5 -1.17407e-11 1.78532e-11 
-1.17407e-11 4.13417 1 
1.78532e-11 1 2.86583 
2.5 -1.55547e-11 6.03502e-11 
-1.55547e-11 1.86583 1 
6.03502e-11 1 3.13417 
2.5 -6.80396e-12 6.13355e-11 
-6.80396e-12 1.86583 1 
6.13355e-11 1 3.13417 
2.5 -2.88631e-12 3.46843e-11 
-2.88631e-12 1.86583 1 
3.46843e-11 1 3.13417 
2.5 -1.1638e-11 3.24632e-11 
-1.1638e-11 1.86583 1 
3.24632e-11 1 3.13417 
2.5 -1.07689e-11 4.9095e-11 
-1.07689e-11 3.13417 1 
4.9095e-11 1 1.86583 
2.5 -6.54846e-12 5.06033e-11 
-6.54846e-12 3.13417 1 
5.06033e-11 1 1.86583 
2.5 -3.8675e-12 2.39527e-11 
-3.8675e-12 3.13417 1 
2.39527e-11 1 1.86583 
2.5 -8.08935e-12 2.12076e-11 
-8.08935e-12 3.13417 1 
2.12076e-11 1 1.86583 
1.5 -1.07154e-11 4.71053e-11 
-1.07154e-11 0.865833 1 
4.71053e-11 1 2.13417 
1.5 -5.78397e-12 4.73566e-11 
-5.78397e-12 0.865833 1 
4.73566e-11 1 2.13417 
1.5 -2.3453e-12 2.32302e-11 
-2.3453e-12 0.865833 1 
2.32302e-11 1 2.13417 
1.5 -7.27336e-12 2.06393e-11 
-7.27336e-12 0.865833 1 
2.06393e-11 1 2.13417 
1.5 -6.13599e-12 4.11067e-11 
-6.13599e-12 2.13417 1 
4.11067e-11 1 0.865833 
1.5 -3.769e-12 4.14792e-11 
-3.769e-12 2.13417 1 
4.14792e-11 1 0.865833 
1.5 -2.67014e-12 1.73533e-11 
-2.67014e-12 2.13417 1 
1.73533e-11 1 0.865833 
1.5 -5.03418e-12 1.46395e-11 
-5.03418e-12 2.13417 1 
1.46395e-11 1 0.865833 
0.5 -5.21881e-12 3.94108e-11 
-5.21881e-12 -0.134167 1 
3.94108e-11 1 1.13417 
0.5 -2.77566e-12 3.96469e-11 
-2.77566e-12 -0.134167 1 
3.96469e-11 1 1.13417 
0.5 -7.83907e-13 1.63545e-11 
-7.83907e-13 -0.134167 1 
1.63545e-11 1 1.13417 
0.5 -3.2266e-12 1.37176e-11 
-3.2266e-12 -0.134167 1 
1.37176e-11 1 1.13417 
0.5 -5.79941e-13 3.76891e-11 
-5.79941e-13 1.13417 1 
3.76891e-11 1 -0.134167 
0.5 -5.88769e-13 3.80494e-11 
-5.88769e-13 1.13417 1 
3.80494e-11 1 -0.134167 
0.5 -9.96807e-13 1.47574e-11 
-9.96807e-13 1.13417 1 
1.47574e-11 1 -0.134167 
0.5 -9.8854e-13 1.19958e-11 
-9.8854e-13 1.13417 1 
1.19958e-11 1 -0.134167 
4.5 -9.36204e-13 -3.34349e-11 
-9.36204e-13 3.86583 1 
-3.34349e-11 1 5.13417 
4.5 -9.34106e-13 -3.80208e-11 
-9.34106e-13 3.86583 1 
-3.80208e-11 1 5.13417 
4.5 9.36923e-13 3.80082e-11 
9.36923e-13 3.86583 1 
3.80082e-11 1 5.13417 
4.5 9.34103e-13 3.34681e-11 
9.34103e-13 3.86583 1 
3.34681e-11 1 5.13417 
4.5 3.62751e-12 -3.34395e-11 
3.62751e-12 5.13417 1 
-3.34395e-11 1 3.86583 
4.5 3.63529e-12 -3.79889e-11 
3.63529e-12 5.13417 1 
-3.79889e-11 1 3.86583 
4.5 -3.62081e-12 3.80381e-11 
-3.62081e-12 5.13417 1 
3.80381e-11 1 3.86583 
4.5 -3.62972e-12 3.34639e-11 
-3.62972e-12 5.13417 1 
3.34639e-11 1 3.86583 
3.5 5.93428e-12 1.93249e-13 
5.93428e-12 2.86583 1 
1.93249e-13 1 4.13417 
3.5 5.93391e-12 -1.36263e-13 
5.93391e-12 2.86583 1 
-1.36263e-13 1 4.13417 
3.5 -5.94744e-12 1.79633e-13 
-5.94744e-12 2.86583 1 
1.79633e-13 1 4.13417 
3.5 -5.94469e-12 -2.08429e-13 
-5.94469e-12 2.86583 1 
-2.08429e-13 1 4.13417 
3.5 6.2848e-12 1.981e-13 
6.2848e-12 4.13417 1 
1.981e-13 1 2.86583 
3.5 6.28372e-12 -1.69302e-13 
6.28372e-12 4.13417 1 
-1.69302e-13 1 2.86583 
3.5 -6.31729e-12 1.4925e-13 
-6.31729e-12 4.13417 1 
1.4925e-13 1 2.86583 
3.5 -6.31444e-12 -2.04067e-13 
-6.31444e-12 4.13417 1 
-2.04067e-13 1 2.86583 
2.5 8.13425e-12 1.48095e-11 
8.13425e-12 1.86583 1 
1.48095e-11 1 3.13417 
2.5 8.13589e-12 1.64951e-11 
8.13589e-12 1.86583 1 
1.64951e-11 1 3.13417 
2.5 -8.13339e-12 -1.65056e-11 
-8.13339e-12 1.86583 1 
-1.65056e-11 1 3.13417 
2.5 -8.13365e-12 -1.48107e-11 
-8.13365e-12 1.86583 1 
-1.48107e-11 1 3.13417 
2.5 6.43337e-12 1.48127e-11 
6.43337e-12 3.13417 1 
1.48127e-11 1 1.86583 
2.5 6.43304e-12 1.65017e-11 
6.43304e-12 3.13417 1 
1.65017e-11 1 1.86583 
2.5 -6.45495e-12 -1.64996e-11 
-6.45495e-12 3.13417 1 
-1.64996e-11 1 1.86583 
2.5 -6.45204e-12 -1.48085e-11 
-6.45204e-12 3.13417 1 
-1.48085e-11 1 1.86583 
1.5 5.22977e-12 1.42435e-11 
5.22977e-12 0.865833 1 
1.42435e-11 1 2.13417 
1.5 5.24501e-12 1.57795e-11 
5.24501e-12 0.865833 1 
1.57795e-11 1 2.13417 
1.5 -5.22208e-12 -1.57687e-11 
-5.22208e-12 0.865833 1 
-1.57687e-11 1 2.13417 
1.5 -5.23788e-12 -1.42265e-11 
-5.23788e-12 0.865833 1 
-1.42265e-11 1 2.13417 
1.5 3.6939e-12 1.42295e-11 
3.6939e-12 2.13417 1 
1.42295e-11 1 0.865833 
1.5 3.69456e-12 1.57858e-11 
3.69456e-12 2.13417 1 
1.57858e-11 1 0.865833 
1.5 -3.69282e-12 -1.57632e-11 
-3.69282e-12 2.13417 1 
-1.57632e-11 1 0.865833 
1.5 -3.69363e-12 -1.42387e-11 
-3.69363e-12 2.13417 1 
-1.42387e-11 1 0.865833 
0.5 2.1869e-12 1.33064e-11 
2.1869e-12 -0.134167 1 
1.33064e-11 1 1.13417 
0.5 2.19645e-12 1.47875e-11 
2.19645e-12 -0.134167 1 
1.47875e-11 1 1.13417 
0.5 -2.19032e-12 -1.47754e-11 
-2.19032e-12 -0.134167 1 
-1.47754e-11 1 1.13417 
0.5 -2.20119e-12 -1.33102e-11 
-2.20119e-12 -0.134167 1 
-1.33102e-11 1 1.13417 
0.5 7.23319e-13 1.33205e-11 
7.23319e-13 1.13417 1 
1.33205e-11 1 -0.134167 
0.5 7.26318e-13 1.47966e-11 
7.26318e-13 1.13417 1 
1.47966e-11 1 -0.134167 
0.5 -7.15944e-13 -1.47656e-11 
-7.15944e-13 1.13417 1 
-1.47656e-11 1 -0.134167 
0.5 -7.19942e-13 -1.32962e-11 
-7.19942e-13 1.13417 1 
-1.32962e-11 1 -0.134167 
4.5 -2.72514e-12 5.79156e-11 
-2.72514e-12 3.86583 1 
5.79156e-11 1 5.13417 
4.5 5.22719e-12 6.7724e-11 
5.22719e-12 3.86583 1 
6.7724e-11 1 5.13417 
4.5 9.79168e-12 2.25205e-10 
9.79168e-12 3.86583 1 
2.25205e-10 1 5.13417 
4.5 1.84179e-12 2.19874e-10 
1.84179e-12 3.86583 1 
2.19874e-10 1 5.13417 
4.5 7.82061e-12 3.74608e-11 
7.82061e-12 5.13417 1 
3.74608e-11 1 3.86583 
4.5 2.73417e-12 4.28534e-11 
2.73417e-12 5.13417 1 
4.28534e-11 1 3.86583 
4.5 1.17737e-11 2.00336e-10 
1.17737e-11 5.13417 1 
2.00336e-10 1 3.86583 
4.5 1.68661e-11 1.9942e-10 
1.68661e-11 5.13417 1 
1.9942e-10 1 3.86583 
3.5 1.43535e-11 3.79153e-12 
1.43535e-11 2.86583 1 
3.79153e-12 1 4.13417 
3.5 4.51086e-12 4.99426e-12 
4.51086e-12 2.86583 1 
4.99426e-12 1 4.13417 
3.5 8.26704e-12 -2.61409e-11 
8.26704e-12 2.86583 1 
-2.61409e-11 1 4.13417 
3.5 1.81084e-11 -2.53122e-11 
1.81084e-11 2.86583 1 
-2.53122e-11 1 4.13417 
3.5 1.16967e-11 -1.78712e-11 
1.16967e-11 4.13417 1 
-1.78712e-11 1 2.86583 
3.5 5.23191e-12 -1.80733e-11 
5.23191e-12 4.13417 1 
-1.80733e-11 1 2.86583 
3.5 1.10181e-11 -4.921e-11 
1.10181e-11 4.13417 1 
-4.921e-11 1 2.86583 
3.5 1.74841e-11 -4.69766e-11 
1.74841e-11 4.13417 1 
-4.69766e-11 1 2.86583 
2.5 1.1635e-11 -3.24788e-11 
1.1635e-11 1.86583 1 
-3.24788e-11 1 3.13417 
2.5 2.89085e-12 -3.47284e-11 
2.89085e-12 1.86583 1 
-3.47284e-11 1 3.13417 
2.5 6.81155e-12 -6.13741e-11 
6.81155e-12 1.86583 1 
-6.13741e-11 1 3.13417 
2.5 1.55584e-11 -6.0354e-11 
1.55584e-11 1.86583 1 
-6.0354e-11 1 3.13417 
2.5 8.06451e-12 -2.12232e-11 
8.06451e-12 3.13417 1 
-2.12232e-11 1 1.86583 
2.5 3.85011e-12 -2.39521e-11 
3.85011e-12 3.13417 1 
-2.39521e-11 1 1.86583 
2.5 6.54352e-12 -5.05962e-11 
6.54352e-12 3.13417 1 
-5.05962e-11 1 1.86583 
2.5 1.07606e-11 -4.90972e-11 
1.07606e-11 3.13417 1 
-4.90972e-11 1 1.86583 
1.5 7.28152e-12 -2.06401e-11 
7.28152e-12 0.865833 1 
-2.06401e-11 1 2.13417 
1.5 2.35873e-12 -2.32212e-11 
2.35873e-12 0.865833 1 
-2.32212e-11 1 2.13417 
1.5 5.78134e-12 -4.73548e-11 
5.78134e-12 0.865833 1 
-4.73548e-11 1 2.13417 
1.5 1.07057e-11 -4.71003e-11 
1.07057e-11 0.865833 1 
-4.71003e-11 1 2.13417 
1.5 5.03411e-12 -1.46428e-11 
5.03411e-12 2.13417 1 
-1.46428e-11 1 0.865833 
1.5 2.65911e-12 -1.73701e-11 
2.65911e-12 2.13417 1 
-1.73701e-11 1 0.865833 
1.5 3.75745e-12 -4.15042e-11 
3.75745e-12 2.13417 1 
-4.15042e-11 1 0.865833 
1.5 6.13248e-12 -4.1102e-11 
6.13248e-12 2.13417 1 
-4.1102e-11 1 0.865833 
0.5 3.22868e-12 -1.37129e-11 
3.22868e-12 -0.134167 1 
-1.37129e-11 1 1.13417 
0.5 7.83758e-13 -1.63829e-11 
7.83758e-13 -0.134167 1 
-1.63829e-11 1 1.13417 
0.5 2.7836e-12 -3.96757e-11 
2.7836e-12 -0.134167 1 
-3.96757e-11 1 1.13417 
0.5 5.22557e-12 -3.94168e-11 
5.22557e-12 -0.134167 1 
-3.94168e-11 1 1.13417 
0.5 9.91879e-13 -1.2006e-11 
9.91879e-13 1.13417 1 
-1.2006e-11 1 -0.134167 
0.5 1.00153e-12 -1.47478e-11 
1.00153e-12 1.13417 1 
-1.47478e-11 1 -0.134167 
0.5 5.91337e-13 -3.80411e-11 
5.91337e-13 1.13417 1 
-3.80411e-11 1 -0.134167 
0.5 5.788e-13 -3.77108e-11 
5.788e-13 1.13417 1 
-3.77108e-11 1 -0.134167 
4.5 3.28715e-11 2.48789e-10 
3.28715e-11 3.86583 1 
2.48789e-10 1 5.13417 
4.5 1.36865e-11 2.53598e-10 
1.36865e-11 3.86583 1 
2.53598e-10 1 5.13417 
4.5 8.18527e-12 8.10163e-12 
8.18527e-12 3.86583 1 
8.10163e-12 1 5.13417 
4.5 2.73669e-11 3.37042e-12 
2.73669e-11 3.86583 1 
3.37042e-12 1 5.13417 
4.5 5.50748e-11 1.57176e-10 
5.50748e-11 5.13417 1 
1.57176e-10 1 3.86583 
4.5 1.27336e-11 1.57624e-10 
1.27336e-11 5.13417 1 
1.57624e-10 1 3.86583 
4.5 7.31055e-12 -8.78736e-11 
7.31055e-12 5.13417 1 
-8.78736e-11 1 3.86583 
4.5 4.96474e-11 -8.82417e-11 
4.96474e-11 5.13417 1 
-8.82417e-11 1 3.86583 
3.5 6.366e-11 -6.75553e-11 
6.366e-11 2.86583 1 
-6.75553e-11 1 4.13417 
3.5 1.1082e-11 -6.88517e-11 
1.1082e-11 2.86583 1 
-6.88517e-11 1 4.13417 
3.5 1.32781e-11 -8.78729e-11 
1.32781e-11 2.86583 1 
-8.78729e-11 1 4.13417 
3.5 6.58573e-11 -8.8241e-11 
6.58573e-11 2.86583 1 
-8.8241e-11 1 4.13417 
3.5 6.12245e-11 -2.49358e-11 
6.12245e-11 4.13417 1 
-2.49358e-11 1 2.86583 
3.5 1.36455e-11 -2.65592e-11 
1.36455e-11 4.13417 1 
-2.65592e-11 1 2.86583 
3.5 1.41766e-11 -4.55785e-11 
1.41766e-11 4.13417 1 
-4.55785e-11 1 2.86583 
3.5 6.17549e-11 -4.56202e-11 
6.17549e-11 4.13417 1 
-4.56202e-11 1 2.86583 
2.5 4.81551e-11 -3.83136e-11 
4.81551e-11 1.86583 1 
-3.83136e-11 1 3.13417 
2.5 7.48068e-12 -3.87232e-11 
7.48068e-12 1.86583 1 
-3.87232e-11 1 3.13417 
2.5 1.16949e-11 -4.55785e-11 
1.16949e-11 1.86583 1 
-4.55785e-11 1 3.13417 
2.5 5.23716e-11 -4.56209e-11 
5.23716e-11 1.86583 1 
-4.56209e-11 1 3.13417 
2.5 4.18477e-11 -2.15327e-11 
4.18477e-11 3.13417 1 
-2.15327e-11 1 1.86583 
2.5 8.18573e-12 -2.28529e-11 
8.18573e-12 3.13417 1 
-2.28529e-11 1 1.86583 
2.5 1.19462e-11 -2.97095e-11 
1.19462e-11 3.13417 1 
-2.97095e-11 1 1.86583 
2.5 4.56102e-11 -2.88413e-11 
4.56102e-11 3.13417 1 
-2.88413e-11 1 1.86583 
1.5 3.07934e-11 -1.95364e-11 
3.07934e-11 0.865833 1 
-1.95364e-11 1 2.13417 
1.5 5.71371e-12 -1.9611e-11 
5.71371e-12 0.865833 1 
-1.9611e-11 1 2.13417 
1.5 7.52312e-12 -2.9709e-11 
7.52312e-12 0.865833 1 
-2.9709e-11 1 2.13417 
1.5 3.2602e-11 -2.88414e-11 
3.2602e-11 0.865833 1 
-2.88414e-11 1 2.13417 
1.5 2.41056e-11 -1.47331e-11 
2.41056e-11 2.13417 1 
-1.47331e-11 1 0.865833 
1.5 4.79162e-12 -1.52196e-11 
4.79162e-12 2.13417 1 
-1.52196e-11 1 0.865833 
1.5 7.39206e-12 -2.53177e-11 
7.39206e-12 2.13417 1 
-2.53177e-11 1 0.865833 
1.5 2.67055e-11 -2.40378e-11 
2.67055e-11 2.13417 1 
-2.40378e-11 1 0.865833 
0.5 1.27167e-11 -1.30494e-11 
1.27167e-11 -0.134167 1 
-1.30494e-11 1 1.13417 
0.5 2.39672e-12 -1.33911e-11 
2.39672e-12 -0.134167 1 
-1.33911e-11 1 1.13417 
0.5 2.59387e-12 -2.53177e-11 
2.59387e-12 -0.134167 1 
-2.53177e-11 1 1.13417 
0.5 1.29166e-11 -2.40382e-11 
1.29166e-11 -0.134167 1 
-2.40382e-11 1 1.13417 
0.5 5.7524e-12 -1.1862e-11 
5.7524e-12 1.13417 1 
-1.1862e-11 1 -0.134167 
0.5 1.27664e-12 -1.23182e-11 
1.27664e-12 1.13417 1 
-1.23182e-11 1 -0.134167 
0.5 2.4092e-12 -2.42441e-11 
2.4092e-12 1.13417 1 
-2.42441e-11 1 -0.134167 
0.5 6.88784e-12 -2.28511e-11 
6.88784e-12 1.13417 1 
-2.28511e-11 1 -0.134167 
4.5 -8.15545e-12 3.64789e-12 
-8.15545e-12 3.86583 -7.90279e-11 
3.64789e-12 -7.90279e-11 5.13417 
4.5 8.17388e-12 3.63723e-12 
8.17388e-12 3.86583 7.90276e-11 
3.63723e-12 7.90276e-11 5.13417 
4.5 8.17515e-12 -2.41208e-10 
8.17515e-12 3.86583 7.98607e-11 
-2.41208e-10 7.98607e-11 5.13417 
4.5 -8.15452e-12 -2.41192e-10 
-8.15452e-12 3.86583 -7.98726e-11 
-2.41192e-10 -7.98726e-11 5.13417 
4.5 -7.32146e-12 9.54369e-11 
-7.32146e-12 5.13417 -7.90265e-11 
9.54369e-11 -7.90265e-11 3.86583 
4.5 7.33058e-12 9.5436e-11 
7.33058e-12 5.13417 7.90289e-11 
9.5436e-11 7.90289e-11 3.86583 
4.5 7.33663e-12 -1.49411e-10 
7.33663e-12 5.13417 7.98712e-11 
-1.49411e-10 7.98712e-11 3.86583 
4.5 -7.31474e-12 -1.49405e-10 
-7.31474e-12 5.13417 -7.98614e-11 
-1.49405e-10 -7.98614e-11 3.86583 
3.5 -1.32667e-11 9.54362e-11 
-1.32667e-11 2.86583 -7.38949e-12 
9.54362e-11 -7.38949e-12 4.13417 
3.5 1.32853e-11 9.54353e-11 
1.32853e-11 2.86583 7.3781e-12 
9.54353e-11 7.3781e-12 4.13417 
3.5 1.32852e-11 7.33813e-11 
1.32852e-11 2.86583 6.48607e-12 
7.33813e-11 6.48607e-12 4.13417 
3.5 -1.32675e-11 7.33881e-11 
-1.32675e-11 2.86583 -6.48705e-12 
7.33881e-11 -6.48705e-12 4.13417 
3.5 -1.41702e-11 4.47224e-11 
-1.41702e-11 4.13417 -7.39049e-12 
4.47224e-11 -7.39049e-12 2.86583 
3.5 1.41763e-11 4.47243e-11 
1.41763e-11 4.13417 7.3771e-12 
4.47243e-11 7.3771e-12 2.86583 
3.5 1.41814e-11 2.26707e-11 
1.41814e-11 4.13417 6.48876e-12 
2.26707e-11 6.48876e-12 2.86583 
3.5 -1.41638e-11 2.2676e-11 
-1.41638e-11 4.13417 -6.48542e-12 
2.2676e-11 -6.48542e-12 2.86583 
2.5 -1.16944e-11 4.47224e-11 
-1.16944e-11 1.86583 2.56538e-11 
4.47224e-11 2.56538e-11 3.13417 
2.5 1.1706e-11 4.47236e-11 
1.1706e-11 1.86583 -2.5681e-11 
4.47236e-11 -2.5681e-11 3.13417 
2.5 1.16929e-11 3.77912e-11 
1.16929e-11 1.86583 -2.59325e-11 
3.77912e-11 -2.59325e-11 3.13417 
2.5 -1.17069e-11 3.77993e-11 
-1.17069e-11 1.86583 2.59133e-11 
3.77993e-11 2.59133e-11 3.13417 
2.5 -1.19514e-11 2.5236e-11 
-1.19514e-11 3.13417 2.56501e-11 
2.5236e-11 2.56501e-11 1.86583 
2.5 1.19581e-11 2.52428e-11 
1.19581e-11 3.13417 -2.56854e-11 
2.52428e-11 -2.56854e-11 1.86583 
2.5 1.19543e-11 1.83123e-11 
1.19543e-11 3.13417 -2.59305e-11 
1.83123e-11 -2.59305e-11 1.86583 
2.5 -1.19545e-11 1.83156e-11 
-1.19545e-11 3.13417 2.59149e-11 
1.83156e-11 2.59149e-11 1.86583 
1.5 -7.51975e-12 2.52364e-11 
-7.51975e-12 0.865833 2.00862e-11 
2.52364e-11 2.00862e-11 2.13417 
1.5 7.53118e-12 2.52431e-11 
7.53118e-12 0.865833 -2.01072e-11 
2.52431e-11 -2.01072e-11 2.13417 
1.5 7.51823e-12 1.64486e-11 
7.51823e-12 0.865833 -1.99783e-11 
1.64486e-11 -1.99783e-11 2.13417 
1.5 -7.52931e-12 1.64531e-11 
-7.52931e-12 0.865833 1.9967e-11 
1.64531e-11 1.9967e-11 2.13417 
1.5 -7.3926e-12 1.99185e-11 
-7.3926e-12 2.13417 2.00926e-11 
1.99185e-11 2.00926e-11 0.865833 
1.5 7.40866e-12 1.99251e-11 
7.40866e-12 2.13417 -2.01002e-11 
1.99251e-11 -2.01002e-11 0.865833 
1.5 7.40732e-12 1.11296e-11 
7.40732e-12 2.13417 -1.997e-11 
1.11296e-11 -1.997e-11 0.865833 
1.5 -7.39258e-12 1.11339e-11 
-7.39258e-12 2.13417 1.99752e-11 
1.11339e-11 1.99752e-11 0.865833 
0.5 -2.59662e-12 1.99185e-11 
-2.59662e-12 -0.134167 4.03643e-12 
1.99185e-11 4.03643e-12 1.13417 
0.5 2.5977e-12 1.99251e-11 
2.5977e-12 -0.134167 -4.04442e-12 
1.99251e-11 -4.04442e-12 1.13417 
0.5 2.59155e-12 9.17979e-12 
2.59155e-12 -0.134167 -3.84896e-12 
9.17979e-12 -3.84896e-12 1.13417 
0.5 -2.5987e-12 9.17979e-12 
-2.5987e-12 -0.134167 3.84531e-12 
9.17979e-12 3.84531e-12 1.13417 
0.5 -2.39755e-12 1.86466e-11 
-2.39755e-12 1.13417 4.0309e-12 
1.86466e-11 4.0309e-12 -0.134167 
0.5 2.40765e-12 1.86557e-11 
2.40765e-12 1.13417 -4.04995e-12 
1.86557e-11 -4.04995e-12 -0.134167 
0.5 2.41219e-12 7.91069e-12 
2.41219e-12 1.13417 -3.85406e-12 
7.91069e-12 -3.85406e-12 -0.134167 
0.5 -2.39302e-12 7.90857e-12 
-2.39302e-12 1.13417 3.84091e-12 
7.90857e-12 3.84091e-12 -0.134167 
4.5 -4.29379e-12 -2.13114e-10 
-4.29379e-12 3.86583 -6.65794e-11 
-2.13114e-10 -6.65794e-11 5.13417 
4.5 4.30276e-12 -2.13109e-10 
4.30276e-12 3.86583 6.65722e-11 
-2.13109e-10 6.65722e-11 5.13417 
4.5 4.30282e-12 -5.52614e-11 
4.30282e-12 3.86583 6.4524e-11 
-5.52614e-11 6.4524e-11 5.13417 
4.5 -4.29339e-12 -5.52724e-11 
-4.29339e-12 3.86583 -6.4522e-11 
-5.52724e-11 -6.4522e-11 5.13417 
4.5 -6.33527e-12 -1.91978e-10 
-6.33527e-12 5.13417 -6.65952e-11 
-1.91978e-10 -6.65952e-11 3.86583 
4.5 6.36297e-12 -1.91958e-10 
6.36297e-12 5.13417 6.65557e-11 
-1.91958e-10 6.65557e-11 3.86583 
4.5 6.36006e-12 -3.41096e-11 
6.36006e-12 5.13417 6.45251e-11 
-3.41096e-11 6.45251e-11 3.86583 
4.5 -6.34292e-12 -3.41361e-11 
-6.34292e-12 5.13417 -6.45205e-11 
-3.41361e-11 -6.45205e-11 3.86583 
3.5 -1.04724e-11 3.08142e-11 
-1.04724e-11 2.86583 -5.55591e-12 
3.08142e-11 -5.55591e-12 4.13417 
3.5 1.0478e-11 3.08349e-11 
1.0478e-11 2.86583 5.54339e-12 
3.08349e-11 5.54339e-12 4.13417 
3.5 1.0467e-11 1.50634e-12 
1.0467e-11 2.86583 4.49451e-12 
1.50634e-12 4.49451e-12 4.13417 
3.5 -1.0482e-11 1.4851e-12 
-1.0482e-11 2.86583 -4.46164e-12 
1.4851e-12 -4.46164e-12 4.13417 
3.5 -1.15336e-11 4.57332e-11 
-1.15336e-11 4.13417 -5.55389e-12 
4.57332e-11 -5.55389e-12 2.86583 
3.5 1.15587e-11 4.57469e-11 
1.15587e-11 4.13417 5.54749e-12 
4.57469e-11 5.54749e-12 2.86583 
3.5 1.15528e-11 1.64175e-11 
1.15528e-11 4.13417 4.49186e-12 
1.64175e-11 4.49186e-12 2.86583 
3.5 -1.15402e-11 1.64048e-11 
-1.15402e-11 4.13417 -4.46602e-12 
1.64048e-11 -4.46602e-12 2.86583 
2.5 -1.10304e-11 6.08564e-11 
-1.10304e-11 1.86583 2.1693e-11 
6.08564e-11 2.1693e-11 3.13417 
2.5 1.10094e-11 6.08667e-11 
1.10094e-11 1.86583 -2.17255e-11 
6.08667e-11 -2.17255e-11 3.13417 
2.5 1.10142e-11 3.38129e-11 
1.10142e-11 1.86583 -2.09965e-11 
3.38129e-11 -2.09965e-11 3.13417 
2.5 -1.10263e-11 3.37981e-11 
-1.10263e-11 1.86583 2.0995e-11 
3.37981e-11 2.0995e-11 3.13417 
2.5 -1.03014e-11 4.63858e-11 
-1.03014e-11 3.13417 2.16921e-11 
4.63858e-11 2.16921e-11 1.86583 
2.5 1.03118e-11 4.6395e-11 
1.03118e-11 3.13417 -2.17264e-11 
4.6395e-11 -2.17264e-11 1.86583 
2.5 1.03127e-11 1.93426e-11 
1.03127e-11 3.13417 -2.10001e-11 
1.93426e-11 -2.10001e-11 1.86583 
2.5 -1.03006e-11 1.93301e-11 
-1.03006e-11 3.13417 2.09921e-11 
1.93301e-11 2.09921e-11 1.86583 
1.5 -7.5901e-12 4.45243e-11 
-7.5901e-12 0.865833 1.49049e-11 
4.45243e-11 1.49049e-11 2.13417 
1.5 7.57176e-12 4.45323e-11 
7.57176e-12 0.865833 -1.49362e-11 
4.45323e-11 -1.49362e-11 2.13417 
1.5 7.58124e-12 1.93755e-11 
7.58124e-12 0.865833 -1.37031e-11 
1.93755e-11 -1.37031e-11 2.13417 
1.5 -7.58062e-12 1.93576e-11 
-7.58062e-12 0.865833 1.3702e-11 
1.93576e-11 1.3702e-11 2.13417 
1.5 -6.35737e-12 3.76111e-11 
-6.35737e-12 2.13417 1.49011e-11 
3.76111e-11 1.49011e-11 0.865833 
1.5 6.36957e-12 3.7624e-11 
6.36957e-12 2.13417 -1.494e-11 
3.7624e-11 -1.494e-11 0.865833 
1.5 6.36886e-12 1.24665e-11 
6.36886e-12 2.13417 -1.37017e-11 
1.24665e-11 -1.37017e-11 0.865833 
1.5 -6.35741e-12 1.24438e-11 
-6.35741e-12 2.13417 1.37034e-11 
1.24438e-11 1.37034e-11 0.865833 
0.5 -2.97644e-12 3.5657e-11 
-2.97644e-12 -0.134167 -1.31226e-12 
3.5657e-11 -1.31226e-12 1.13417 
0.5 2.97874e-12 3.56742e-11 
2.97874e-12 -0.134167 1.26918e-12 
3.56742e-11 1.26918e-12 1.13417 
0.5 2.97983e-12 1.14024e-11 
2.97983e-12 -0.134167 2.55059e-12 
1.14024e-11 2.55059e-12 1.13417 
0.5 -2.97603e-12 1.13792e-11 
-2.97603e-12 -0.134167 -2.54613e-12 
1.13792e-11 -2.54613e-12 1.13417 
0.5 -1.71183e-12 3.37655e-11 
-1.71183e-12 1.13417 -1.31625e-12 
3.37655e-11 -1.31625e-12 -0.134167 
0.5 1.72721e-12 3.37733e-11 
1.72721e-12 1.13417 1.26449e-12 
3.37733e-11 1.26449e-12 -0.134167 
0.5 1.7226e-12 9.50115e-12 
1.7226e-12 1.13417 2.53687e-12 
9.50115e-12 2.53687e-12 -0.134167 
0.5 -1.71713e-12 9.48732e-12 
-1.71713e-12 1.13417 -2.55986e-12 
9.48732e-12 -2.55986e-12 -0.134167 
4.5 1.69196e-15 -3.69972e-11 
1.69196e-15 3.86583 -6.25722e-11 
-3.69972e-11 -6.25722e-11 5.13417 
4.5 5.03878e-15 -3.70118e-11 
5.03878e-15 3.86583 6.25873e-11 
-3.70118e-11 6.25873e-11 5.13417 
4.5 -1.18383e-16 3.69981e-11 
-1.18383e-16 3.86583 6.25819e-11 
3.69981e-11 6.25819e-11 5.13417 
4.5 -3.4652e-15 3.70095e-11 
-3.4652e-15 3.86583 -6.2585e-11 
3.70095e-11 -6.2585e-11 5.13417 
4.5 -2.65654e-15 -3.69805e-11 
-2.65654e-15 5.13417 -6.25802e-11 
-3.69805e-11 -6.25802e-11 3.86583 
4.5 -5.96292e-15 -3.69925e-11 
-5.96292e-15 5.13417 6.2579e-11 
-3.69925e-11 6.2579e-11 3.86583 
4.5 -1.47216e-14 3.70172e-11 
-1.47216e-14 5.13417 6.25768e-11 
3.70172e-11 6.25768e-11 3.86583 
4.5 -1.07379e-14 3.70277e-11 
-1.07379e-14 5.13417 -6.25897e-11 
3.70277e-11 -6.25897e-11 3.86583 
3.5 -6.50246e-15 -1.35509e-12 
-6.50246e-15 2.86583 -3.12725e-12 
-1.35509e-12 -3.12725e-12 4.13417 
3.5 4.19752e-15 -1.37794e-12 
4.19752e-15 2.86583 3.15929e-12 
-1.37794e-12 3.15929e-12 4.13417 
3.5 2.06621e-14 1.38908e-12 
2.06621e-14 2.86583 3.15977e-12 
1.38908e-12 3.15977e-12 4.13417 
3.5 1.06395e-14 1.40123e-12 
1.06395e-14 2.86583 -3.13785e-12 
1.40123e-12 -3.13785e-12 4.13417 
3.5 -1.89504e-15 -1.36085e-12 
-1.89504e-15 4.13417 -3.13536e-12 
-1.36085e-12 -3.13536e-12 2.86583 
3.5 -1.59139e-15 -1.37978e-12 
-1.59139e-15 4.13417 3.15089e-12 
-1.37978e-12 3.15089e-12 2.86583 
3.5 2.15667e-15 1.38776e-12 
2.15667e-15 4.13417 3.15594e-12 
1.38776e-12 3.15594e-12 2.86583 
3.5 2.53032e-15 1.39499e-12 
2.53032e-15 4.13417 -3.14273e-12 
1.39499e-12 -3.14273e-12 2.86583 
2.5 -4.42255e-15 1.60324e-11 
-4.42255e-15 1.86583 2.03954e-11 
1.60324e-11 2.03954e-11 3.13417 
2.5 -1.51867e-14 1.6015e-11 
-1.51867e-14 1.86583 -2.03955e-11 
1.6015e-11 -2.03955e-11 3.13417 
2.5 -9.49548e-15 -1.60263e-11 
-9.49548e-15 1.86583 -2.04172e-11 
-1.60263e-11 -2.04172e-11 3.13417 
2.5 -1.44059e-15 -1.60207e-11 
-1.44059e-15 1.86583 2.03872e-11 
-1.60207e-11 2.03872e-11 3.13417 
2.5 -1.81475e-16 1.60246e-11 
-1.81475e-16 3.13417 2.03881e-11 
1.60246e-11 2.03881e-11 1.86583 
2.5 4.00027e-15 1.60188e-11 
4.00027e-15 3.13417 -2.04035e-11 
1.60188e-11 -2.04035e-11 1.86583 
2.5 -4.22049e-15 -1.60211e-11 
-4.22049e-15 3.13417 -2.04131e-11 
-1.60211e-11 -2.04131e-11 1.86583 
2.5 -8.40223e-15 -1.60286e-11 
-8.40223e-15 3.13417 2.03921e-11 
-1.60286e-11 2.03921e-11 1.86583 
1.5 9.51581e-15 1.60541e-11 
9.51581e-15 0.865833 1.26028e-11 
1.60541e-11 1.26028e-11 2.13417 
1.5 4.89088e-15 1.60531e-11 
4.89088e-15 0.865833 -1.26133e-11 
1.60531e-11 -1.26133e-11 2.13417 
1.5 1.63887e-16 -1.6043e-11 
1.63887e-16 0.865833 -1.26093e-11 
-1.6043e-11 -1.26093e-11 2.13417 
1.5 4.78882e-15 -1.6043e-11 
4.78882e-15 0.865833 1.26083e-11 
-1.6043e-11 1.26083e-11 2.13417 
1.5 7.62922e-15 1.60492e-11 
7.62922e-15 2.13417 1.25948e-11 
1.60492e-11 1.25948e-11 0.865833 
1.5 4.51822e-15 1.60497e-11 
4.51822e-15 2.13417 -1.26212e-11 
1.60497e-11 -1.26212e-11 0.865833 
1.5 -8.45961e-16 -1.60474e-11 
-8.45961e-16 2.13417 -1.26184e-11 
-1.60474e-11 -1.26184e-11 0.865833 
1.5 2.26504e-15 -1.60472e-11 
2.26504e-15 2.13417 1.25978e-11 
-1.60472e-11 1.25978e-11 0.865833 
0.5 5.3355e-15 1.49868e-11 
5.3355e-15 -0.134167 -3.75864e-12 
1.49868e-11 -3.75864e-12 1.13417 
0.5 -1.79477e-15 1.49879e-11 
-1.79477e-15 -0.134167 3.7554e-12 
1.49879e-11 3.7554e-12 1.13417 
0.5 6.14128e-15 -1.49808e-11 
6.14128e-15 -0.134167 3.75432e-12 
-1.49808e-11 3.75432e-12 1.13417 
0.5 1.32716e-14 -1.49881e-11 
1.32716e-14 -0.134167 -3.75796e-12 
-1.49881e-11 -3.75796e-12 1.13417 
0.5 5.65761e-15 1.49895e-11 
5.65761e-15 1.13417 -3.7477e-12 
1.49895e-11 -3.7477e-12 -0.134167 
0.5 2.98855e-15 1.49807e-11 
2.98855e-15 1.13417 3.76633e-12 
1.49807e-11 3.76633e-12 -0.134167 
0.5 3.35156e-15 -1.4989e-11 
3.35156e-15 1.13417 3.75428e-12 
-1.4989e-11 3.75428e-12 -0.134167 
0.5 7.37523e-15 -1.49864e-11 
7.37523e-15 1.13417 -3.7553e-12 
-1.49864e-11 -3.7553e-12 -0.134167 
4.5 4.28681e-12 5.52485e-11 
4.28681e-12 3.86583 -6.45285e-11 
5.52485e-11 -6.45285e-11 5.13417 
4.5 -4.30384e-12 5.52562e-11 
-4.30384e-12 3.86583 6.45097e-11 
5.52562e-11 6.45097e-11 5.13417 
4.5 -4.29862e-12 2.13103e-10 
-4.29862e-12 3.86583 6.65753e-11 
2.13103e-10 6.65753e-11 5.13417 
4.5 4.29202e-12 2.13103e-10 
4.29202e-12 3.86583 -6.65868e-11 
2.13103e-10 -6.65868e-11 5.13417 
4.5 6.34356e-12 3.41259e-11 
6.34356e-12 5.13417 -6.45099e-11 
3.41259e-11 -6.45099e-11 3.86583 
4.5 -6.3704e-12 3.41333e-11 
-6.3704e-12 5.13417 6.4528e-11 
3.41333e-11 6.4528e-11 3.86583 
4.5 -6.35812e-12 1.91981e-10 
-6.35812e-12 5.13417 6.6596e-11 
1.91981e-10 6.6596e-11 3.86583 
4.5 6.35517e-12 1.91981e-10 
6.35517e-12 5.13417 -6.6565e-11 
1.91981e-10 -6.6565e-11 3.86583 
3.5 1.04689e-11 -1.50127e-12 
1.04689e-11 2.86583 -4.46626e-12 
-1.50127e-12 -4.46626e-12 4.13417 
3.5 -1.0468e-11 -1.49479e-12 
-1.0468e-11 2.86583 4.48525e-12 
-1.49479e-12 4.48525e-12 4.13417 
3.5 -1.0472e-11 -3.08205e-11 
-1.0472e-11 2.86583 5.56601e-12 
-3.08205e-11 5.56601e-12 4.13417 
3.5 1.04704e-11 -3.0841e-11 
1.04704e-11 2.86583 -5.54471e-12 
-3.0841e-11 -5.54471e-12 4.13417 
3.5 1.15514e-11 -1.6426e-11 
1.15514e-11 4.13417 -4.48445e-12 
-1.6426e-11 -4.48445e-12 2.86583 
3.5 -1.15463e-11 -1.64352e-11 
-1.15463e-11 4.13417 4.46811e-12 
-1.64352e-11 4.46811e-12 2.86583 
3.5 -1.15606e-11 -4.57623e-11 
-1.15606e-11 4.13417 5.53041e-12 
-4.57623e-11 5.53041e-12 2.86583 
3.5 1.15371e-11 -4.57674e-11 
1.15371e-11 4.13417 -5.58207e-12 
-4.57674e-11 -5.58207e-12 2.86583 
2.5 1.10238e-11 -3.38417e-11 
1.10238e-11 1.86583 2.09738e-11 
-3.38417e-11 2.09738e-11 3.13417 
2.5 -1.10218e-11 -3.38493e-11 
-1.10218e-11 1.86583 -2.10085e-11 
-3.38493e-11 -2.10085e-11 3.13417 
2.5 -1.10085e-11 -6.08862e-11 
-1.10085e-11 1.86583 -2.17438e-11 
-6.08862e-11 -2.17438e-11 3.13417 
2.5 1.1037e-11 -6.08845e-11 
1.1037e-11 1.86583 2.16823e-11 
-6.08845e-11 2.16823e-11 3.13417 
2.5 1.0296e-11 -1.9333e-11 
1.0296e-11 3.13417 2.09781e-11 
-1.9333e-11 2.09781e-11 1.86583 
2.5 -1.03041e-11 -1.93214e-11 
-1.03041e-11 3.13417 -2.10049e-11 
-1.93214e-11 -2.10049e-11 1.86583 
2.5 -1.02968e-11 -4.63555e-11 
-1.02968e-11 3.13417 -2.17195e-11 
-4.63555e-11 -2.17195e-11 1.86583 
2.5 1.03033e-11 -4.63745e-11 
1.03033e-11 3.13417 2.17077e-11 
-4.63745e-11 2.17077e-11 1.86583 
1.5 7.5856e-12 -1.93474e-11 
7.5856e-12 0.865833 1.36915e-11 
-1.93474e-11 1.36915e-11 2.13417 
1.5 -7.59633e-12 -1.93407e-11 
-7.59633e-12 0.865833 -1.36964e-11 
-1.93407e-11 -1.36964e-11 2.13417 
1.5 -7.59247e-12 -4.44962e-11 
-7.59247e-12 0.865833 -1.49227e-11 
-4.44962e-11 -1.49227e-11 2.13417 
1.5 7.58945e-12 -4.45101e-11 
7.58945e-12 0.865833 1.49309e-11 
-4.45101e-11 1.49309e-11 2.13417 
1.5 6.3542e-12 -1.24488e-11 
6.3542e-12 2.13417 1.36866e-11 
-1.24488e-11 1.36866e-11 0.865833 
1.5 -6.3632e-12 -1.2444e-11 
-6.3632e-12 2.13417 -1.37026e-11 
-1.2444e-11 -1.37026e-11 0.865833 
1.5 -6.36649e-12 -3.75989e-11 
-6.36649e-12 2.13417 -1.49271e-11 
-3.75989e-11 -1.49271e-11 0.865833 
1.5 6.3509e-12 -3.76116e-11 
6.3509e-12 2.13417 1.49265e-11 
-3.76116e-11 1.49265e-11 0.865833 
0.5 2.98735e-12 -1.13919e-11 
2.98735e-12 -0.134167 -2.54221e-12 
-1.13919e-11 -2.54221e-12 1.13417 
0.5 -2.98222e-12 -1.1379e-11 
-2.98222e-12 -0.134167 2.55895e-12 
-1.1379e-11 2.55895e-12 1.13417 
0.5 -2.98646e-12 -3.5654e-11 
-2.98646e-12 -0.134167 1.2925e-12 
-3.5654e-11 1.2925e-12 1.13417 
0.5 2.98243e-12 -3.56663e-11 
2.98243e-12 -0.134167 -1.2788e-12 
-3.56663e-11 -1.2788e-12 1.13417 
0.5 1.72485e-12 -9.4922e-12 
1.72485e-12 1.13417 -2.54188e-12 
-9.4922e-12 -2.54188e-12 -0.134167 
0.5 -1.71765e-12 -9.48579e-12 
-1.71765e-12 1.13417 2.55792e-12 
-9.48579e-12 2.55792e-12 -0.134167 
0.5 -1.71986e-12 -3.37611e-11 
-1.71986e-12 1.13417 1.28747e-12 
-3.37611e-11 1.28747e-12 -0.134167 
0.5 1.72128e-12 -3.37672e-11 
1.72128e-12 1.13417 -1.28418e-12 
-3.37672e-11 -1.28418e-12 -0.134167 
4.5 8.18683e-12 2.41221e-10 
8.18683e-12 3.86583 -7.98579e-11 
2.41221e-10 -7.98579e-11 5.13417 
4.5 -8.1568e-12 2.41185e-10 
-8.1568e-12 3.86583 7.98857e-11 
2.41185e-10 7.98857e-11 5.13417 
4.5 -8.15836e-12 -3.67471e-12 
-8.15836e-12 3.86583 7.90251e-11 
-3.67471e-12 7.90251e-11 5.13417 
4.5 8.18527e-12 -3.64188e-12 
8.18527e-12 3.86583 -7.90154e-11 
-3.64188e-12 -7.90154e-11 5.13417 
4.5 7.31467e-12 1.49444e-10 
7.31467e-12 5.13417 -7.98435e-11 
1.49444e-10 -7.98435e-11 3.86583 
4.5 -7.32936e-12 1.49406e-10 
-7.32936e-12 5.13417 7.98991e-11 
1.49406e-10 7.98991e-11 3.86583 
4.5 -7.3306e-12 -9.5454e-11 
-7.3306e-12 5.13417 7.90357e-11 
-9.5454e-11 7.90357e-11 3.86583 
4.5 7.31072e-12 -9.54197e-11 
7.31072e-12 5.13417 -7.90048e-11 
-9.54197e-11 -7.90048e-11 3.86583 
3.5 1.32857e-11 -7.33756e-11 
1.32857e-11 2.86583 -6.45742e-12 
-7.33756e-11 -6.45742e-12 4.13417 
3.5 -1.32789e-11 -7.33952e-11 
-1.32789e-11 2.86583 6.50626e-12 
-7.33952e-11 6.50626e-12 4.13417 
3.5 -1.32836e-11 -9.5454e-11 
-1.32836e-11 2.86583 7.38572e-12 
-9.5454e-11 7.38572e-12 4.13417 
3.5 1.32783e-11 -9.5417e-11 
1.32783e-11 2.86583 -7.39251e-12 
-9.5417e-11 -7.39251e-12 4.13417 
3.5 1.41656e-11 -2.27098e-11 
1.41656e-11 4.13417 -6.4861e-12 
-2.27098e-11 -6.4861e-12 2.86583 
3.5 -1.421e-11 -2.26939e-11 
-1.421e-11 4.13417 6.47934e-12 
-2.26939e-11 6.47934e-12 2.86583 
3.5 -1.41987e-11 -4.47506e-11 
-1.41987e-11 4.13417 7.39183e-12 
-4.47506e-11 7.39183e-12 2.86583 
3.5 1.41762e-11 -4.47495e-11 
1.41762e-11 4.13417 -7.38911e-12 
-4.47495e-11 -7.38911e-12 2.86583 
2.5 1.17031e-11 -3.78269e-11 
1.17031e-11 1.86583 2.59172e-11 
-3.78269e-11 2.59172e-11 3.13417 
2.5 -1.16965e-11 -3.78184e-11 
-1.16965e-11 1.86583 -2.59251e-11 
-3.78184e-11 -2.59251e-11 3.13417 
2.5 -1.17043e-11 -4.47519e-11 
-1.17043e-11 1.86583 -2.56688e-11 
-4.47519e-11 -2.56688e-11 3.13417 
2.5 1.16959e-11 -4.47495e-11 
1.16959e-11 1.86583 2.56632e-11 
-4.47495e-11 2.56632e-11 3.13417 
2.5 1.19436e-11 -1.83307e-11 
1.19436e-11 3.13417 2.59254e-11 
-1.83307e-11 2.59254e-11 1.86583 
2.5 -1.1964e-11 -1.83266e-11 
-1.1964e-11 3.13417 -2.59179e-11 
-1.83266e-11 -2.59179e-11 1.86583 
2.5 -1.19609e-11 -2.52615e-11 
-1.19609e-11 3.13417 -2.56682e-11 
-2.52615e-11 -2.56682e-11 1.86583 
2.5 1.19467e-11 -2.52547e-11 
1.19467e-11 3.13417 2.56665e-11 
-2.52547e-11 2.56665e-11 1.86583 
1.5 7.52132e-12 -1.64661e-11 
7.52132e-12 0.865833 1.99839e-11 
-1.64661e-11 1.99839e-11 2.13417 
1.5 -7.53015e-12 -1.64669e-11 
-7.53015e-12 0.865833 -1.99554e-11 
-1.64669e-11 -1.99554e-11 2.13417 
1.5 -7.52785e-12 -2.52612e-11 
-7.52785e-12 0.865833 -2.00835e-11 
-2.52612e-11 -2.00835e-11 2.13417 
1.5 7.52362e-12 -2.52543e-11 
7.52362e-12 0.865833 2.01083e-11 
-2.52543e-11 2.01083e-11 2.13417 
1.5 7.38423e-12 -1.11446e-11 
7.38423e-12 2.13417 1.9983e-11 
-1.11446e-11 1.9983e-11 0.865833 
1.5 -7.41494e-12 -1.11573e-11 
-7.41494e-12 2.13417 -1.99564e-11 
-1.11573e-11 -1.99564e-11 0.865833 
1.5 -7.4066e-12 -1.99516e-11 
-7.4066e-12 2.13417 -2.00964e-11 
-1.99516e-11 -2.00964e-11 0.865833 
1.5 7.39257e-12 -1.99329e-11 
7.39257e-12 2.13417 2.00955e-11 
-1.99329e-11 2.00955e-11 0.865833 
0.5 2.59538e-12 -9.19931e-12 
2.59538e-12 -0.134167 3.87561e-12 
-9.19931e-12 3.87561e-12 1.13417 
0.5 -2.59118e-12 -9.21309e-12 
-2.59118e-12 -0.134167 -3.83078e-12 
-9.21309e-12 -3.83078e-12 1.13417 
0.5 -2.59354e-12 -1.99516e-11 
-2.59354e-12 -0.134167 -4.04094e-12 
-1.99516e-11 -4.04094e-12 1.13417 
0.5 2.59437e-12 -1.99329e-11 
2.59437e-12 -0.134167 4.04058e-12 
-1.99329e-11 4.04058e-12 1.13417 
0.5 2.40659e-12 -7.93084e-12 
2.40659e-12 1.13417 3.86424e-12 
-7.93084e-12 3.86424e-12 -0.134167 
0.5 -2.40474e-12 -7.91304e-12 
-2.40474e-12 1.13417 -3.84179e-12 
-7.91304e-12 -3.84179e-12 -0.134167 
0.5 -2.40213e-12 -1.86509e-11 
-2.40213e-12 1.13417 -4.02038e-12 
-1.86509e-11 -4.02038e-12 -0.134167 
0.5 2.4092e-12 -1.86637e-11 
2.4092e-12 1.13417 4.06115e-12 
-1.86637e-11 4.06115e-12 -0.134167 
4.5 8.17388e-12 -8.12967e-12 
8.17388e-12 3.86583 -1 
-8.12967e-12 -1 5.13417 
4.5 2.7366e-11 -3.39673e-12 
2.7366e-11 3.86583 -1 
-3.39673e-12 -1 5.13417 
4.5 3.28768e-11 -2.488e-10 
3.28768e-11 3.86583 -1 
-2.488e-10 -1 5.13417 
4.5 1.36838e-11 -2.53616e-10 
1.36838e-11 3.86583 -1 
-2.53616e-10 -1 5.13417 
4.5 7.33058e-12 8.78718e-11 
7.33058e-12 5.13417 -1 
8.78718e-11 -1 3.86583 
4.5 4.96396e-11 8.8224e-11 
4.96396e-11 5.13417 -1 
8.8224e-11 -1 3.86583 
4.5 5.5066e-11 -1.57179e-10 
5.5066e-11 5.13417 -1 
-1.57179e-10 -1 3.86583 
4.5 1.2756e-11 -1.57612e-10 
1.2756e-11 5.13417 -1 
-1.57612e-10 -1 3.86583 
3.5 1.32853e-11 8.78713e-11 
1.32853e-11 2.86583 -1 
8.78713e-11 -1 4.13417 
3.5 6.58831e-11 8.8224e-11 
6.58831e-11 2.86583 -1 
8.8224e-11 -1 4.13417 
3.5 6.36987e-11 6.7538e-11 
6.36987e-11 2.86583 -1 
6.7538e-11 -1 4.13417 
3.5 1.11009e-11 6.88511e-11 
1.11009e-11 2.86583 -1 
6.88511e-11 -1 4.13417 
3.5 1.41763e-11 4.55815e-11 
1.41763e-11 4.13417 -1 
4.55815e-11 -1 2.86583 
3.5 6.17758e-11 4.55853e-11 
6.17758e-11 4.13417 -1 
4.55853e-11 -1 2.86583 
3.5 6.12552e-11 2.48991e-11 
6.12552e-11 4.13417 -1 
2.48991e-11 -1 2.86583 
3.5 1.36549e-11 2.65582e-11 
1.36549e-11 4.13417 -1 
2.65582e-11 -1 2.86583 
2.5 1.1706e-11 4.55808e-11 
1.1706e-11 1.86583 -1 
4.55808e-11 -1 3.13417 
2.5 5.23685e-11 4.55854e-11 
5.23685e-11 1.86583 -1 
4.55854e-11 -1 3.13417 
2.5 4.81587e-11 3.82764e-11 
4.81587e-11 1.86583 -1 
3.82764e-11 -1 3.13417 
2.5 7.49804e-12 3.87221e-11 
7.49804e-12 1.86583 -1 
3.87221e-11 -1 3.13417 
2.5 1.19581e-11 2.97165e-11 
1.19581e-11 3.13417 -1 
2.97165e-11 -1 1.86583 
2.5 4.56086e-11 2.88438e-11 
4.56086e-11 3.13417 -1 
2.88438e-11 -1 1.86583 
2.5 4.18509e-11 2.15351e-11 
4.18509e-11 3.13417 -1 
2.15351e-11 -1 1.86583 
2.5 8.20155e-12 2.28577e-11 
8.20155e-12 3.13417 -1 
2.28577e-11 -1 1.86583 
1.5 7.52983e-12 2.97167e-11 
7.52983e-12 0.865833 -1 
2.97167e-11 -1 2.13417 
1.5 3.26009e-11 2.88439e-11 
3.26009e-11 0.865833 -1 
2.88439e-11 -1 2.13417 
1.5 3.08102e-11 1.95518e-11 
3.08102e-11 0.865833 -1 
1.95518e-11 -1 2.13417 
1.5 5.74029e-12 1.96082e-11 
5.74029e-12 0.865833 -1 
1.96082e-11 -1 2.13417 
1.5 7.4073e-12 2.53135e-11 
7.4073e-12 2.13417 -1 
2.53135e-11 -1 0.865833 
1.5 2.67213e-11 2.40449e-11 
2.67213e-11 2.13417 -1 
2.40449e-11 -1 0.865833 
1.5 2.41165e-11 1.47544e-11 
2.41165e-11 2.13417 -1 
1.47544e-11 -1 0.865833 
1.5 4.80255e-12 1.52059e-11 
4.80255e-12 2.13417 -1 
1.52059e-11 -1 0.865833 
0.5 2.59634e-12 2.53135e-11 
2.59634e-12 -0.134167 -1 
2.53135e-11 -1 1.13417 
0.5 1.29081e-11 2.40438e-11 
1.29081e-11 -0.134167 -1 
2.40438e-11 -1 1.13417 
0.5 1.27119e-11 1.30485e-11 
1.27119e-11 -0.134167 -1 
1.30485e-11 -1 1.13417 
0.5 2.39873e-12 1.33814e-11 
2.39873e-12 -0.134167 -1 
1.33814e-11 -1 1.13417 
0.5 2.40765e-12 2.42333e-11 
2.40765e-12 1.13417 -1 
2.42333e-11 -1 -0.134167 
0.5 6.88829e-12 2.28556e-11 
6.88829e-12 1.13417 -1 
2.28556e-11 -1 -0.134167 
0.5 5.75712e-12 1.18589e-11 
5.75712e-12 1.13417 -1 
1.18589e-11 -1 -0.134167 
0.5 1.27648e-12 1.23017e-11 
1.27648e-12 1.13417 -1 
1.23017e-11 -1 -0.134167 
4.5 9.81145e-12 -2.25203e-10 
9.81145e-12 3.86583 -1 
-2.25203e-10 -1 5.13417 
4.5 1.84704e-12 -2.19861e-10 
1.84704e-12 3.86583 -1 
-2.19861e-10 -1 5.13417 
4.5 -2.7251e-12 -5.78969e-11 
-2.7251e-12 3.86583 -1 
-5.78969e-11 -1 5.13417 
4.5 5.23912e-12 -6.77265e-11 
5.23912e-12 3.86583 -1 
-6.77265e-11 -1 5.13417 
4.5 1.17847e-11 -2.00306e-10 
1.17847e-11 5.13417 -1 
-2.00306e-10 -1 3.86583 
4.5 1.6857e-11 -1.99419e-10 
1.6857e-11 5.13417 -1 
-1.99419e-10 -1 3.86583 
4.5 7.79744e-12 -3.74545e-11 
7.79744e-12 5.13417 -1 
-3.74545e-11 -1 3.86583 
4.5 2.72538e-12 -4.2829e-11 
2.72538e-12 5.13417 -1 
-4.2829e-11 -1 3.86583 
3.5 8.29307e-12 2.61587e-11 
8.29307e-12 2.86583 -1 
2.61587e-11 -1 4.13417 
3.5 1.81274e-11 2.52975e-11 
1.81274e-11 2.86583 -1 
2.52975e-11 -1 4.13417 
3.5 1.43745e-11 -3.80839e-12 
1.43745e-11 2.86583 -1 
-3.80839e-12 -1 4.13417 
3.5 4.53971e-12 -4.97174e-12 
4.53971e-12 2.86583 -1 
-4.97174e-12 -1 4.13417 
3.5 1.10322e-11 4.91612e-11 
1.10322e-11 4.13417 -1 
4.91612e-11 -1 2.86583 
3.5 1.75075e-11 4.69752e-11 
1.75075e-11 4.13417 -1 
4.69752e-11 -1 2.86583 
3.5 1.17336e-11 1.78665e-11 
1.17336e-11 4.13417 -1 
1.78665e-11 -1 2.86583 
3.5 5.26002e-12 1.80284e-11 
5.26002e-12 4.13417 -1 
1.80284e-11 -1 2.86583 
2.5 6.81455e-12 6.13261e-11 
6.81455e-12 1.86583 -1 
6.13261e-11 -1 3.13417 
2.5 1.5562e-11 6.03526e-11 
1.5562e-11 1.86583 -1 
6.03526e-11 -1 3.13417 
2.5 1.16384e-11 3.24676e-11 
1.16384e-11 1.86583 -1 
3.24676e-11 -1 3.13417 
2.5 2.89043e-12 3.46777e-11 
2.89043e-12 1.86583 -1 
3.46777e-11 -1 3.13417 
2.5 6.55842e-12 5.05918e-11 
6.55842e-12 3.13417 -1 
5.05918e-11 -1 1.86583 
2.5 1.07632e-11 4.90837e-11 
1.07632e-11 3.13417 -1 
4.90837e-11 -1 1.86583 
2.5 8.07838e-12 2.11974e-11 
8.07838e-12 3.13417 -1 
2.11974e-11 -1 1.86583 
2.5 3.87452e-12 2.39473e-11 
3.87452e-12 3.13417 -1 
2.39473e-11 -1 1.86583 
1.5 5.79315e-12 4.73417e-11 
5.79315e-12 0.865833 -1 
4.73417e-11 -1 2.13417 
1.5 1.07241e-11 4.71006e-11 
1.07241e-11 0.865833 -1 
4.71006e-11 -1 2.13417 
1.5 7.27434e-12 2.06217e-11 
7.27434e-12 0.865833 -1 
2.06217e-11 -1 2.13417 
1.5 2.34779e-12 2.32244e-11 
2.34779e-12 0.865833 -1 
2.32244e-11 -1 2.13417 
1.5 3.76413e-12 4.14779e-11 
3.76413e-12 2.13417 -1 
4.14779e-11 -1 0.865833 
1.5 6.12283e-12 4.10914e-11 
6.12283e-12 2.13417 -1 
4.10914e-11 -1 0.865833 
1.5 5.03117e-12 1.46124e-11 
5.03117e-12 2.13417 -1 
1.46124e-11 -1 0.865833 
1.5 2.67805e-12 1.73604e-11 
2.67805e-12 2.13417 -1 
1.73604e-11 -1 0.865833 
0.5 2.78524e-12 3.96535e-11 
2.78524e-12 -0.134167 -1 
3.96535e-11 -1 1.13417 
0.5 5.22572e-12 3.93875e-11 
5.22572e-12 -0.134167 -1 
3.93875e-11 -1 1.13417 
0.5 3.22966e-12 1.36885e-11 
3.22966e-12 -0.134167 -1 
1.36885e-11 -1 1.13417 
0.5 7.84682e-13 1.63609e-11 
7.84682e-13 -0.134167 -1 
1.63609e-11 -1 1.13417 
0.5 5.9286e-13 3.80365e-11 
5.9286e-13 1.13417 -1 
3.80365e-11 -1 -0.134167 
0.5 5.93277e-13 3.7702e-11 
5.93277e-13 1.13417 -1 
3.7702e-11 -1 -0.134167 
0.5 9.9944e-13 1.20039e-11 
9.9944e-13 1.13417 -1 
1.20039e-11 -1 -0.134167 
0.5 9.97258e-13 1.47431e-11 
9.97258e-13 1.13417 -1 
1.47431e-11 -1 -0.134167 
4.5 9.41335e-13 -3.80051e-11 
9.41335e-13 3.86583 -1 
-3.80051e-11 -1 5.13417 
4.5 9.39749e-13 -3.34469e-11 
9.39749e-13 3.86583 -1 
-3.34469e-11 -1 5.13417 
4.5 -9.37348e-13 3.34535e-11 
-9.37348e-13 3.86583 -1 
3.34535e-11 -1 5.13417 
4.5 -9.32764e-13 3.80223e-11 
-9.32764e-13 3.86583 -1 
3.80223e-11 -1 5.13417 
4.5 -3.63997e-12 -3.79963e-11 
-3.63997e-12 5.13417 -1 
-3.79963e-11 -1 3.86583 
4.5 -3.63459e-12 -3.34424e-11 
-3.63459e-12 5.13417 -1 
-3.34424e-11 -1 3.86583 
4.5 3.61562e-12 3.34576e-11 
3.61562e-12 5.13417 -1 
3.34576e-11 -1 3.86583 
4.5 3.61335e-12 3.80309e-11 
3.61335e-12 5.13417 -1 
3.80309e-11 -1 3.86583 
3.5 -5.92376e-12 -1.38126e-13 
-5.92376e-12 2.86583 -1 
-1.38126e-13 -1 4.13417 
3.5 -5.9293e-12 2.02065e-13 
-5.9293e-12 2.86583 -1 
2.02065e-13 -1 4.13417 
3.5 5.95255e-12 -2.03768e-13 
5.95255e-12 2.86583 -1 
-2.03768e-13 -1 4.13417 
3.5 5.95665e-12 1.71372e-13 
5.95665e-12 2.86583 -1 
1.71372e-13 -1 4.13417 
3.5 -6.29672e-12 -1.46926e-13 
-6.29672e-12 4.13417 -1 
-1.46926e-13 -1 2.86583 
3.5 -6.29426e-12 2.19282e-13 
-6.29426e-12 4.13417 -1 
2.19282e-13 -1 2.86583 
3.5 6.30285e-12 -1.86762e-13 
6.30285e-12 4.13417 -1 
-1.86762e-13 -1 2.86583 
3.5 6.29806e-12 1.6299e-13 
6.29806e-12 4.13417 -1 
1.6299e-13 -1 2.86583 
2.5 -8.13724e-12 1.6503e-11 
-8.13724e-12 1.86583 -1 
1.6503e-11 -1 3.13417 
2.5 -8.13778e-12 1.48204e-11 
-8.13778e-12 1.86583 -1 
1.48204e-11 -1 3.13417 
2.5 8.11016e-12 -1.47951e-11 
8.11016e-12 1.86583 -1 
-1.47951e-11 -1 3.13417 
2.5 8.11226e-12 -1.64839e-11 
8.11226e-12 1.86583 -1 
-1.64839e-11 -1 3.13417 
2.5 -6.43388e-12 1.651e-11 
-6.43388e-12 3.13417 -1 
1.651e-11 -1 1.86583 
2.5 -6.43712e-12 1.48206e-11 
-6.43712e-12 3.13417 -1 
1.48206e-11 -1 1.86583 
2.5 6.43694e-12 -1.47957e-11 
6.43694e-12 3.13417 -1 
-1.47957e-11 -1 1.86583 
2.5 6.44222e-12 -1.64781e-11 
6.44222e-12 3.13417 -1 
-1.64781e-11 -1 1.86583 
1.5 -5.22754e-12 1.57859e-11 
-5.22754e-12 0.865833 -1 
1.57859e-11 -1 2.13417 
1.5 -5.23941e-12 1.42444e-11 
-5.23941e-12 0.865833 -1 
1.42444e-11 -1 2.13417 
1.5 5.23622e-12 -1.42283e-11 
5.23622e-12 0.865833 -1 
-1.42283e-11 -1 2.13417 
1.5 5.24254e-12 -1.57787e-11 
5.24254e-12 0.865833 -1 
-1.57787e-11 -1 2.13417 
1.5 -3.68697e-12 1.57824e-11 
-3.68697e-12 2.13417 -1 
1.57824e-11 -1 0.865833 
1.5 -3.687e-12 1.42309e-11 
-3.687e-12 2.13417 -1 
1.42309e-11 -1 0.865833 
1.5 3.69705e-12 -1.42402e-11 
3.69705e-12 2.13417 -1 
-1.42402e-11 -1 0.865833 
1.5 3.69197e-12 -1.57831e-11 
3.69197e-12 2.13417 -1 
-1.57831e-11 -1 0.865833 
0.5 -2.19694e-12 1.47833e-11 
-2.19694e-12 -0.134167 -1 
1.47833e-11 -1 1.13417 
0.5 -2.19009e-12 1.3306e-11 
-2.19009e-12 -0.134167 -1 
1.3306e-11 -1 1.13417 
0.5 2.19592e-12 -1.33071e-11 
2.19592e-12 -0.134167 -1 
-1.33071e-11 -1 1.13417 
0.5 2.19072e-12 -1.47738e-11 
2.19072e-12 -0.134167 -1 
-1.47738e-11 -1 1.13417 
0.5 -7.23366e-13 1.47763e-11 
-7.23366e-13 1.13417 -1 
1.47763e-11 -1 -0.134167 
0.5 -7.16969e-13 1.33066e-11 
-7.16969e-13 1.13417 -1 
1.33066e-11 -1 -0.134167 
0.5 7.25227e-13 -1.33076e-11 
7.25227e-13 1.13417 -1 
-1.33076e-11 -1 -0.134167 
0.5 7.21617e-13 -1.47816e-11 
7.21617e-13 1.13417 -1 
-1.47816e-11 -1 -0.134167 
4.5 -5.23649e-12 6.7721e-11 
-5.23649e-12 3.86583 -1 
6.7721e-11 -1 5.13417 
4.5 2.72127e-12 5.79072e-11 
2.72127e-12 3.86583 -1 
5.79072e-11 -1 5.13417 
4.5 -1.84809e-12 2.1986e-10 
-1.84809e-12 3.86583 -1 
2.1986e-10 -1 5.13417 
4.5 -9.80784e-12 2.25201e-10 
-9.80784e-12 3.86583 -1 
2.25201e-10 -1 5.13417 
4.5 -2.74233e-12 4.28548e-11 
-2.74233e-12 5.13417 -1 
4.28548e-11 -1 3.86583 
4.5 -7.81538e-12 3.74688e-11 
-7.81538e-12 5.13417 -1 
3.74688e-11 -1 3.86583 
4.5 -1.6858e-11 1.99421e-10 
-1.6858e-11 5.13417 -1 
1.99421e-10 -1 3.86583 
4.5 -1.17861e-11 2.00336e-10 
-1.17861e-11 5.13417 -1 
2.00336e-10 -1 3.86583 
3.5 -4.53205e-12 4.99529e-12 
-4.53205e-12 2.86583 -1 
4.99529e-12 -1 4.13417 
3.5 -1.43611e-11 3.80602e-12 
-1.43611e-11 2.86583 -1 
3.80602e-12 -1 4.13417 
3.5 -1.8104e-11 -2.52951e-11 
-1.8104e-11 2.86583 -1 
-2.52951e-11 -1 4.13417 
3.5 -8.27389e-12 -2.61466e-11 
-8.27389e-12 2.86583 -1 
-2.61466e-11 -1 4.13417 
3.5 -5.24976e-12 -1.80667e-11 
-5.24976e-12 4.13417 -1 
-1.80667e-11 -1 2.86583 
3.5 -1.17082e-11 -1.78582e-11 
-1.17082e-11 4.13417 -1 
-1.78582e-11 -1 2.86583 
3.5 -1.74926e-11 -4.69597e-11 
-1.74926e-11 4.13417 -1 
-4.69597e-11 -1 2.86583 
3.5 -1.10317e-11 -4.921e-11 
-1.10317e-11 4.13417 -1 
-4.921e-11 -1 2.86583 
2.5 -2.89933e-12 -3.47136e-11 
-2.89933e-12 1.86583 -1 
-3.47136e-11 -1 3.13417 
2.5 -1.16472e-11 -3.24663e-11 
-1.16472e-11 1.86583 -1 
-3.24663e-11 -1 3.13417 
2.5 -1.55432e-11 -6.03469e-11 
-1.55432e-11 1.86583 -1 
-6.03469e-11 -1 3.13417 
2.5 -6.79332e-12 -6.13649e-11 
-6.79332e-12 1.86583 -1 
-6.13649e-11 -1 3.13417 
2.5 -3.85766e-12 -2.39463e-11 
-3.85766e-12 3.13417 -1 
-2.39463e-11 -1 1.86583 
2.5 -8.07264e-12 -2.11975e-11 
-8.07264e-12 3.13417 -1 
-2.11975e-11 -1 1.86583 
2.5 -1.07376e-11 -4.90762e-11 
-1.07376e-11 3.13417 -1 
-4.90762e-11 -1 1.86583 
2.5 -6.52106e-12 -5.0596e-11 
-6.52106e-12 3.13417 -1 
-5.0596e-11 -1 1.86583 
1.5 -2.35395e-12 -2.32482e-11 
-2.35395e-12 0.865833 -1 
-2.32482e-11 -1 2.13417 
1.5 -7.27681e-12 -2.06302e-11 
-7.27681e-12 0.865833 -1 
-2.06302e-11 -1 2.13417 
1.5 -1.07288e-11 -4.71015e-11 
-1.07288e-11 0.865833 -1 
-4.71015e-11 -1 2.13417 
1.5 -5.80406e-12 -4.73493e-11 
-5.80406e-12 0.865833 -1 
-4.73493e-11 -1 2.13417 
1.5 -2.67038e-12 -1.73787e-11 
-2.67038e-12 2.13417 -1 
-1.73787e-11 -1 0.865833 
1.5 -5.02865e-12 -1.46174e-11 
-5.02865e-12 2.13417 -1 
-1.46174e-11 -1 0.865833 
1.5 -6.11126e-12 -4.10887e-11 
-6.11126e-12 2.13417 -1 
-4.10887e-11 -1 0.865833 
1.5 -3.75108e-12 -4.14797e-11 
-3.75108e-12 2.13417 -1 
-4.14797e-11 -1 0.865833 
0.5 -7.97635e-13 -1.63708e-11 
-7.97635e-13 -0.134167 -1 
-1.63708e-11 -1 1.13417 
0.5 -3.24086e-12 -1.36841e-11 
-3.24086e-12 -0.134167 -1 
-1.36841e-11 -1 1.13417 
0.5 -5.24555e-12 -3.93954e-11 
-5.24555e-12 -0.134167 -1 
-3.93954e-11 -1 1.13417 
0.5 -2.80294e-12 -3.96572e-11 
-2.80294e-12 -0.134167 -1 
-3.96572e-11 -1 1.13417 
0.5 -9.99383e-13 -1.4748e-11 
-9.99383e-13 1.13417 -1 
-1.4748e-11 -1 -0.134167 
0.5 -9.95331e-13 -1.19806e-11 
-9.95331e-13 1.13417 -1 
-1.19806e-11 -1 -0.134167 
0.5 -5.75981e-13 -3.76917e-11 
-5.75981e-13 1.13417 -1 
-3.76917e-11 -1 -0.134167 
0.5 -5.79072e-13 -3.80345e-11 
-5.79072e-13 1.13417 -1 
-3.80345e-11 -1 -0.134167 
4.5 -1.3666e-11 2.53625e-10 
-1.3666e-11 3.86583 -1 
2.53625e-10 -1 5.13417 
4.5 -3.28686e-11 2.48782e-10 
-3.28686e-11 3.86583 -1 
2.48782e-10 -1 5.13417 
4.5 -2.73609e-11 3.36853e-12 
-2.73609e-11 3.86583 -1 
3.36853e-12 -1 5.13417 
4.5 -8.15836e-12 8.12717e-12 
-8.15836e-12 3.86583 -1 
8.12717e-12 -1 5.13417 
4.5 -1.27543e-11 1.57626e-10 
-1.27543e-11 5.13417 -1 
1.57626e-10 -1 3.86583 
4.5 -5.50818e-11 1.57167e-10 
-5.50818e-11 5.13417 -1 
1.57167e-10 -1 3.86583 
4.5 -4.96586e-11 -8.82476e-11 
-4.96586e-11 5.13417 -1 
-8.82476e-11 -1 3.86583 
4.5 -7.3306e-12 -8.78733e-11 
-7.3306e-12 5.13417 -1 
-8.78733e-11 -1 3.86583 
3.5 -1.10832e-11 -6.88547e-11 
-1.10832e-11 2.86583 -1 
-6.88547e-11 -1 4.13417 
3.5 -6.36724e-11 -6.75468e-11 
-6.36724e-11 2.86583 -1 
-6.75468e-11 -1 4.13417 
3.5 -6.58751e-11 -8.82466e-11 
-6.58751e-11 2.86583 -1 
-8.82466e-11 -1 4.13417 
3.5 -1.32836e-11 -8.78692e-11 
-1.32836e-11 2.86583 -1 
-8.78692e-11 -1 4.13417 
3.5 -1.36812e-11 -2.65385e-11 
-1.36812e-11 4.13417 -1 
-2.65385e-11 -1 2.86583 
3.5 -6.12502e-11 -2.491e-11 
-6.12502e-11 4.13417 -1 
-2.491e-11 -1 2.86583 
3.5 -6.17691e-11 -4.56076e-11 
-6.17691e-11 4.13417 -1 
-4.56076e-11 -1 2.86583 
3.5 -1.41987e-11 -4.55545e-11 
-1.41987e-11 4.13417 -1 
-4.55545e-11 -1 2.86583 
2.5 -7.48123e-12 -3.86927e-11 
-7.48123e-12 1.86583 -1 
-3.86927e-11 -1 3.13417 
2.5 -4.81649e-11 -3.82972e-11 
-4.81649e-11 1.86583 -1 
-3.82972e-11 -1 3.13417 
2.5 -5.2385e-11 -4.56075e-11 
-5.2385e-11 1.86583 -1 
-4.56075e-11 -1 3.13417 
2.5 -1.17043e-11 -4.55524e-11 
-1.17043e-11 1.86583 -1 
-4.55524e-11 -1 3.13417 
2.5 -8.19198e-12 -2.28558e-11 
-8.19198e-12 3.13417 -1 
-2.28558e-11 -1 1.86583 
2.5 -4.18503e-11 -2.15257e-11 
-4.18503e-11 3.13417 -1 
-2.15257e-11 -1 1.86583 
2.5 -4.56183e-11 -2.88356e-11 
-4.56183e-11 3.13417 -1 
-2.88356e-11 -1 1.86583 
2.5 -1.19609e-11 -2.9717e-11 
-1.19609e-11 3.13417 -1 
-2.9717e-11 -1 1.86583 
1.5 -5.74275e-12 -1.96081e-11 
-5.74275e-12 0.865833 -1 
-1.96081e-11 -1 2.13417 
1.5 -3.08213e-11 -1.9549e-11 
-3.08213e-11 0.865833 -1 
-1.9549e-11 -1 2.13417 
1.5 -3.26063e-11 -2.88363e-11 
-3.26063e-11 0.865833 -1 
-2.88363e-11 -1 2.13417 
1.5 -7.52785e-12 -2.97164e-11 
-7.52785e-12 0.865833 -1 
-2.97164e-11 -1 2.13417 
1.5 -4.80054e-12 -1.52296e-11 
-4.80054e-12 2.13417 -1 
-1.52296e-11 -1 0.865833 
1.5 -2.41169e-11 -1.47688e-11 
-2.41169e-11 2.13417 -1 
-1.47688e-11 -1 0.865833 
1.5 -2.67228e-11 -2.40559e-11 
-2.67228e-11 2.13417 -1 
-2.40559e-11 -1 0.865833 
1.5 -7.4066e-12 -2.5338e-11 
-7.4066e-12 2.13417 -1 
-2.5338e-11 -1 0.865833 
0.5 -2.40733e-12 -1.34063e-11 
-2.40733e-12 -0.134167 -1 
-1.34063e-11 -1 1.13417 
0.5 -1.27172e-11 -1.30752e-11 
-1.27172e-11 -0.134167 -1 
-1.30752e-11 -1 1.13417 
0.5 -1.29071e-11 -2.40557e-11 
-1.29071e-11 -0.134167 -1 
-2.40557e-11 -1 1.13417 
0.5 -2.59354e-12 -2.5338e-11 
-2.59354e-12 -0.134167 -1 
-2.5338e-11 -1 1.13417 
0.5 -1.26429e-12 -1.23178e-11 
-1.26429e-12 1.13417 -1 
-1.23178e-11 -1 -0.134167 
0.5 -5.75691e-12 -1.18851e-11 
-5.75691e-12 1.13417 -1 
-1.18851e-11 -1 -0.134167 
0.5 -6.8939e-12 -2.28648e-11 
-6.8939e-12 1.13417 -1 
-2.28648e-11 -1 -0.134167 
0.5 -2.40213e-12 -2.42488e-11 
-2.40213e-12 1.13417 -1 
-2.42488e-11 -1 -0.134167 
4.5 2.7366e-11 -2.98235e-11 
2.7366e-11 3.86583 -2 
-2.98235e-11 -2 5.13417 
4.5 -2.79017e-19 -1.75709e-10 
-2.79017e-19 3.86583 -2 
-1.75709e-10 -2 5.13417 
4.5 -1.12168e-10 -3.55508e-10 
-1.12168e-10 3.86583 -2 
-3.55508e-10 -2 5.13417 
4.5 -8.48003e-11 -2.29552e-10 
-8.48003e-11 3.86583 -2 
-2.29552e-10 -2 5.13417 
4.5 4.96396e-11 7.44911e-11 
4.96396e-11 5.13417 -2 
7.44911e-11 -2 3.86583 
4.5 -1.232e-19 6.4319e-11 
-1.232e-19 5.13417 -2 
6.4319e-11 -2 3.86583 
4.5 -1.32098e-10 -1.1548e-10 
-1.32098e-10 5.13417 -2 
-1.1548e-10 -2 3.86583 
4.5 -8.24566e-11 -1.25238e-10 
-8.24566e-11 5.13417 -2 
-1.25238e-10 -2 3.86583 
3.5 6.58831e-11 7.44911e-11 
6.58831e-11 2.86583 -2 
7.44911e-11 -2 4.13417 
3.5 -1.26479e-19 6.4319e-11 
-1.26479e-19 2.86583 -2 
6.4319e-11 -2 4.13417 
3.5 -1.56437e-10 4.81551e-11 
-1.56437e-10 2.86583 -2 
4.81551e-11 -2 4.13417 
3.5 -9.05551e-11 5.13711e-11 
-9.05551e-11 2.86583 -2 
5.13711e-11 -2 4.13417 
3.5 6.17749e-11 4.5449e-11 
6.17749e-11 4.13417 -2 
4.5449e-11 -2 2.86583 
3.5 -1.04764e-19 6.80509e-11 
-1.04764e-19 4.13417 -2 
6.80509e-11 -2 2.86583 
3.5 -1.63393e-10 5.1887e-11 
-1.63393e-10 4.13417 -2 
5.1887e-11 -2 2.86583 
3.5 -1.01618e-10 2.23287e-11 
-1.01618e-10 4.13417 -2 
2.23287e-11 -2 2.86583 
2.5 5.23676e-11 4.54488e-11 
5.23676e-11 1.86583 -2 
4.54488e-11 -2 3.13417 
2.5 -8.08154e-20 6.80509e-11 
-8.08154e-20 1.86583 -2 
6.80509e-11 -2 3.13417 
2.5 -1.21765e-10 3.62961e-11 
-1.21765e-10 1.86583 -2 
3.62961e-11 -2 3.13417 
2.5 -6.93984e-11 2.40265e-11 
-6.93984e-11 1.86583 -2 
2.40265e-11 -2 3.13417 
2.5 4.56086e-11 3.5593e-11 
4.56086e-11 3.13417 -2 
3.5593e-11 -2 1.86583 
2.5 -7.19432e-20 6.01605e-11 
-7.19432e-20 3.13417 -2 
6.01605e-11 -2 1.86583 
2.5 -1.11433e-10 2.84058e-11 
-1.11433e-10 3.13417 -2 
2.84058e-11 -2 1.86583 
2.5 -6.58242e-11 1.41705e-11 
-6.58242e-11 3.13417 -2 
1.41705e-11 -2 1.86583 
1.5 3.26e-11 3.55931e-11 
3.26e-11 0.865833 -2 
3.55931e-11 -2 2.13417 
1.5 -5.22559e-20 6.01605e-11 
-5.22559e-20 0.865833 -2 
6.01605e-11 -2 2.13417 
1.5 -7.25067e-11 2.79369e-11 
-7.25067e-11 0.865833 -2 
2.79369e-11 -2 2.13417 
1.5 -3.99089e-11 1.198e-11 
-3.99089e-11 0.865833 -2 
1.198e-11 -2 2.13417 
1.5 2.67213e-11 3.38877e-11 
2.67213e-11 2.13417 -2 
3.38877e-11 -2 0.865833 
1.5 -3.80063e-20 5.79038e-11 
-3.80063e-20 2.13417 -2 
5.79038e-11 -2 0.865833 
1.5 -6.38961e-11 2.56801e-11 
-6.38961e-11 2.13417 -2 
2.56801e-11 -2 0.865833 
1.5 -3.71769e-11 1.02725e-11 
-3.71769e-11 2.13417 -2 
1.02725e-11 -2 0.865833 
0.5 1.29081e-11 3.38886e-11 
1.29081e-11 -0.134167 -2 
3.38886e-11 -2 1.13417 
0.5 -2.58631e-20 5.79033e-11 
-2.58631e-20 -0.134167 -2 
5.79033e-11 -2 1.13417 
0.5 -2.667e-11 2.48206e-11 
-2.667e-11 -0.134167 -2 
2.48206e-11 -2 1.13417 
0.5 -1.37598e-11 9.15988e-12 
-1.37598e-11 -0.134167 -2 
9.15988e-12 -2 1.13417 
0.5 6.88829e-12 3.34268e-11 
6.88829e-12 1.13417 -2 
3.34268e-11 -2 -0.134167 
0.5 3.92732e-20 5.72577e-11 
3.92732e-20 1.13417 -2 
5.72577e-11 -2 -0.134167 
0.5 -1.83137e-11 2.4175e-11 
-1.83137e-11 1.13417 -2 
2.4175e-11 -2 -0.134167 
0.5 -1.14232e-11 8.70032e-12 
-1.14232e-11 1.13417 -2 
8.70032e-12 -2 -0.134167 
4.5 -1.1583e-10 -1.85493e-10 
-1.1583e-10 3.86583 -2 
-1.85493e-10 -2 5.13417 
4.5 -1.12168e-10 -1.19917e-10 
-1.12168e-10 3.86583 -2 
-1.19917e-10 -2 5.13417 
4.5 -1.65869e-11 -5.72663e-12 
-1.65869e-11 3.86583 -2 
-5.72663e-12 -2 5.13417 
4.5 -2.02474e-11 -4.78393e-11 
-2.02474e-11 3.86583 -2 
-4.78393e-11 -2 5.13417 
4.5 -1.20666e-10 -1.53629e-10 
-1.20666e-10 5.13417 -2 
-1.53629e-10 -2 3.86583 
4.5 -1.32098e-10 -1.38592e-10 
-1.32098e-10 5.13417 -2 
-1.38592e-10 -2 3.86583 
4.5 -1.30525e-11 -2.44019e-11 
-1.30525e-11 5.13417 -2 
-2.44019e-11 -2 3.86583 
4.5 -1.6188e-12 -1.59725e-11 
-1.6188e-12 5.13417 -2 
-1.59725e-11 -2 3.86583 
3.5 -1.36126e-10 2.29802e-11 
-1.36126e-10 2.86583 -2 
2.29802e-11 -2 4.13417 
3.5 -1.56437e-10 2.50436e-11 
-1.56437e-10 2.86583 -2 
2.50436e-11 -2 4.13417 
3.5 -3.27789e-11 -3.5182e-12 
-3.27789e-11 2.86583 -2 
-3.5182e-12 -2 4.13417 
3.5 -1.24677e-11 -4.11641e-12 
-1.24677e-11 2.86583 -2 
-4.11641e-12 -2 4.13417 
3.5 -1.45368e-10 4.2001e-11 
-1.45368e-10 4.13417 -2 
4.2001e-11 -2 2.86583 
3.5 -1.63393e-10 4.15495e-11 
-1.63393e-10 4.13417 -2 
4.15495e-11 -2 2.86583 
3.5 -3.82688e-11 1.29877e-11 
-3.82688e-11 4.13417 -2 
1.29877e-11 -2 2.86583 
3.5 -2.0245e-11 1.49057e-11 
-2.0245e-11 4.13417 -2 
1.49057e-11 -2 2.86583 
2.5 -1.01993e-10 4.36987e-11 
-1.01993e-10 1.86583 -2 
4.36987e-11 -2 3.13417 
2.5 -1.21765e-10 2.59586e-11 
-1.21765e-10 1.86583 -2 
2.59586e-11 -2 3.13417 
2.5 -2.79002e-11 1.49029e-11 
-2.79002e-11 1.86583 -2 
1.49029e-11 -2 3.13417 
2.5 -8.12837e-12 2.24138e-11 
-8.12837e-12 1.86583 -2 
2.24138e-11 -2 3.13417 
2.5 -9.69131e-11 3.49907e-11 
-9.69131e-11 3.13417 -2 
3.49907e-11 -2 1.86583 
2.5 -1.11433e-10 2.0485e-11 
-1.11433e-10 3.13417 -2 
2.0485e-11 -2 1.86583 
2.5 -2.77971e-11 9.42929e-12 
-2.77971e-11 3.13417 -2 
9.42929e-12 -2 1.86583 
2.5 -1.32811e-11 1.37067e-11 
-1.32811e-11 3.13417 -2 
1.37067e-11 -2 1.86583 
1.5 -5.99952e-11 3.28001e-11 
-5.99952e-11 0.865833 -2 
3.28001e-11 -2 2.13417 
1.5 -7.25067e-11 2.00162e-11 
-7.25067e-11 0.865833 -2 
2.00162e-11 -2 2.13417 
1.5 -1.65938e-11 8.18784e-12 
-1.65938e-11 0.865833 -2 
8.18784e-12 -2 2.13417 
1.5 -4.08324e-12 1.32034e-11 
-4.08324e-12 0.865833 -2 
1.32034e-11 -2 2.13417 
1.5 -5.51726e-11 3.0086e-11 
-5.51726e-11 2.13417 -2 
3.0086e-11 -2 0.865833 
1.5 -6.38961e-11 1.73302e-11 
-6.38961e-11 2.13417 -2 
1.73302e-11 -2 0.865833 
1.5 -1.57523e-11 5.50128e-12 
-1.57523e-11 2.13417 -2 
5.50128e-12 -2 0.865833 
1.5 -7.02779e-12 1.04877e-11 
-7.02779e-12 2.13417 -2 
1.04877e-11 -2 0.865833 
0.5 -2.12458e-11 2.89729e-11 
-2.12458e-11 -0.134167 -2 
2.89729e-11 -2 1.13417 
0.5 -2.667e-11 1.64711e-11 
-2.667e-11 -0.134167 -2 
1.64711e-11 -2 1.13417 
0.5 -5.58792e-12 5.06149e-12 
-5.58792e-12 -0.134167 -2 
5.06149e-12 -2 1.13417 
0.5 -1.61949e-13 9.87413e-12 
-1.61949e-13 -0.134167 -2 
9.87413e-12 -2 1.13417 
0.5 -1.65868e-11 2.82294e-11 
-1.65868e-11 1.13417 -2 
2.82294e-11 -2 -0.134167 
0.5 -1.83137e-11 1.55923e-11 
-1.83137e-11 1.13417 -2 
1.55923e-11 -2 -0.134167 
0.5 -4.91996e-12 4.18228e-12 
-4.91996e-12 1.13417 -2 
4.18228e-12 -2 -0.134167 
0.5 -3.19107e-12 9.13103e-12 
-3.19107e-12 1.13417 -2 
9.13103e-12 -2 -0.134167 
4.5 -1.65825e-11 -1.2079e-11 
-1.65825e-11 3.86583 -2 
-1.2079e-11 -2 5.13417 
4.5 -1.65869e-11 -1.56116e-11 
-1.65869e-11 3.86583 -2 
-1.56116e-11 -2 5.13417 
4.5 1.65882e-11 1.56067e-11 
1.65882e-11 3.86583 -2 
1.56067e-11 -2 5.13417 
4.5 1.65852e-11 1.20899e-11 
1.65852e-11 3.86583 -2 
1.20899e-11 -2 5.13417 
4.5 -1.30512e-11 -1.20774e-11 
-1.30512e-11 5.13417 -2 
-1.20774e-11 -2 3.86583 
4.5 -1.30525e-11 -1.56072e-11 
-1.30525e-11 5.13417 -2 
-1.56072e-11 -2 3.86583 
4.5 1.30731e-11 1.56111e-11 
1.30731e-11 5.13417 -2 
1.56111e-11 -2 3.86583 
4.5 1.30658e-11 1.20884e-11 
1.30658e-11 5.13417 -2 
1.20884e-11 -2 3.86583 
3.5 -3.27737e-11 -2.1975e-13 
-3.27737e-11 2.86583 -2 
-2.1975e-13 -2 4.13417 
3.5 -3.27789e-11 5.27654e-12 
-3.27789e-11 2.86583 -2 
5.27654e-12 -2 4.13417 
3.5 3.27863e-11 -5.28184e-12 
3.27863e-11 2.86583 -2 
-5.28184e-12 -2 4.13417 
3.5 3.27994e-11 2.15613e-13 
3.27994e-11 2.86583 -2 
2.15613e-13 -2 4.13417 
3.5 -3.82713e-11 -2.17799e-13 
-3.82713e-11 4.13417 -2 
-2.17799e-13 -2 2.86583 
3.5 -3.82688e-11 5.28454e-12 
-3.82688e-11 4.13417 -2 
5.28454e-12 -2 2.86583 
3.5 3.82933e-11 -5.27385e-12 
3.82933e-11 4.13417 -2 
-5.27385e-12 -2 2.86583 
3.5 3.82982e-11 2.20795e-13 
3.82982e-11 4.13417 -2 
2.20795e-13 -2 2.86583 
2.5 -2.79057e-11 7.29037e-12 
-2.79057e-11 1.86583 -2 
7.29037e-12 -2 3.13417 
2.5 -2.79002e-11 7.19974e-12 
-2.79002e-11 1.86583 -2 
7.19974e-12 -2 3.13417 
2.5 2.79157e-11 -7.178e-12 
2.79157e-11 1.86583 -2 
-7.178e-12 -2 3.13417 
2.5 2.79082e-11 -7.28776e-12 
2.79082e-11 1.86583 -2 
-7.28776e-12 -2 3.13417 
2.5 -2.77941e-11 7.29836e-12 
-2.77941e-11 3.13417 -2 
7.29836e-12 -2 1.86583 
2.5 -2.77971e-11 7.19818e-12 
-2.77971e-11 3.13417 -2 
7.19818e-12 -2 1.86583 
2.5 2.78183e-11 -7.17956e-12 
2.78183e-11 3.13417 -2 
-7.17956e-12 -2 1.86583 
2.5 2.78194e-11 -7.28034e-12 
2.78194e-11 3.13417 -2 
-7.28034e-12 -2 1.86583 
1.5 -1.65968e-11 6.79516e-12 
-1.65968e-11 0.865833 -2 
6.79516e-12 -2 2.13417 
1.5 -1.65938e-11 5.95674e-12 
-1.65938e-11 0.865833 -2 
5.95674e-12 -2 2.13417 
1.5 1.66063e-11 -5.95327e-12 
1.66063e-11 0.865833 -2 
-5.95327e-12 -2 2.13417 
1.5 1.66114e-11 -6.78732e-12 
1.66114e-11 0.865833 -2 
-6.78732e-12 -2 2.13417 
1.5 -1.5748e-11 6.78412e-12 
-1.5748e-11 2.13417 -2 
6.78412e-12 -2 0.865833 
1.5 -1.57523e-11 5.95549e-12 
-1.57523e-11 2.13417 -2 
5.95549e-12 -2 0.865833 
1.5 1.57757e-11 -5.95451e-12 
1.57757e-11 2.13417 -2 
-5.95451e-12 -2 0.865833 
1.5 1.57889e-11 -6.79696e-12 
1.57889e-11 2.13417 -2 
-6.79696e-12 -2 0.865833 
0.5 -5.57873e-12 6.17002e-12 
-5.57873e-12 -0.134167 -2 
6.17002e-12 -2 1.13417 
0.5 -5.58793e-12 5.51499e-12 
-5.58793e-12 -0.134167 -2 
5.51499e-12 -2 1.13417 
0.5 5.57988e-12 -5.51027e-12 
5.57988e-12 -0.134167 -2 
-5.51027e-12 -2 1.13417 
0.5 5.58264e-12 -6.17661e-12 
5.58264e-12 -0.134167 -2 
-6.17661e-12 -2 1.13417 
0.5 -4.90861e-12 6.17317e-12 
-4.90861e-12 1.13417 -2 
6.17317e-12 -2 -0.134167 
0.5 -4.91997e-12 5.51588e-12 
-4.91997e-12 1.13417 -2 
5.51588e-12 -2 -0.134167 
0.5 4.92543e-12 -5.50939e-12 
4.92543e-12 1.13417 -2 
-5.50939e-12 -2 -0.134167 
0.5 4.93079e-12 -6.17452e-12 
4.93079e-12 1.13417 -2 
-6.17452e-12 -2 -0.134167 
4.5 2.02438e-11 4.78573e-11 
2.02438e-11 3.86583 -2 
4.78573e-11 -2 5.13417 
4.5 1.65882e-11 5.72837e-12 
1.65882e-11 3.86583 -2 
5.72837e-12 -2 5.13417 
4.5 1.12171e-10 1.19929e-10 
1.12171e-10 3.86583 -2 
1.19929e-10 -2 5.13417 
4.5 1.15835e-10 1.85496e-10 
1.15835e-10 3.86583 -2 
1.85496e-10 -2 5.13417 
4.5 1.63478e-12 1.59991e-11 
1.63478e-12 5.13417 -2 
1.59991e-11 -2 3.86583 
4.5 1.30731e-11 2.44085e-11 
1.30731e-11 5.13417 -2 
2.44085e-11 -2 3.86583 
4.5 1.32094e-10 1.38609e-10 
1.32094e-10 5.13417 -2 
1.38609e-10 -2 3.86583 
4.5 1.20664e-10 1.5364e-10 
1.20664e-10 5.13417 -2 
1.5364e-10 -2 3.86583 
3.5 1.24858e-11 4.12915e-12 
1.24858e-11 2.86583 -2 
4.12915e-12 -2 4.13417 
3.5 3.27863e-11 3.51557e-12 
3.27863e-11 2.86583 -2 
3.51557e-12 -2 4.13417 
3.5 1.56443e-10 -2.50404e-11 
1.56443e-10 2.86583 -2 
-2.50404e-11 -2 4.13417 
3.5 1.36131e-10 -2.2971e-11 
1.36131e-10 2.86583 -2 
-2.2971e-11 -2 4.13417 
3.5 2.02872e-11 -1.49049e-11 
2.02872e-11 4.13417 -2 
-1.49049e-11 -2 2.86583 
3.5 3.82933e-11 -1.29912e-11 
3.82933e-11 4.13417 -2 
-1.29912e-11 -2 2.86583 
3.5 1.63405e-10 -4.15472e-11 
1.63405e-10 4.13417 -2 
-4.15472e-11 -2 2.86583 
3.5 1.45387e-10 -4.2007e-11 
1.45387e-10 4.13417 -2 
-4.2007e-11 -2 2.86583 
2.5 8.15083e-12 -2.24134e-11 
8.15083e-12 1.86583 -2 
-2.24134e-11 -2 3.13417 
2.5 2.79157e-11 -1.48958e-11 
2.79157e-11 1.86583 -2 
-1.48958e-11 -2 3.13417 
2.5 1.21772e-10 -2.59532e-11 
1.21772e-10 1.86583 -2 
-2.59532e-11 -2 3.13417 
2.5 1.0201e-10 -4.37062e-11 
1.0201e-10 1.86583 -2 
-4.37062e-11 -2 3.13417 
2.5 1.33105e-11 -1.37064e-11 
1.33105e-11 3.13417 -2 
-1.37064e-11 -2 1.86583 
2.5 2.78183e-11 -9.42976e-12 
2.78183e-11 3.13417 -2 
-9.42976e-12 -2 1.86583 
2.5 1.1144e-10 -2.04871e-11 
1.1144e-10 3.13417 -2 
-2.04871e-11 -2 1.86583 
2.5 9.69333e-11 -3.49982e-11 
9.69333e-11 3.13417 -2 
-3.49982e-11 -2 1.86583 
1.5 4.09718e-12 -1.32149e-11 
4.09718e-12 0.865833 -2 
-1.32149e-11 -2 2.13417 
1.5 1.66063e-11 -8.20347e-12 
1.66063e-11 0.865833 -2 
-8.20347e-12 -2 2.13417 
1.5 7.25132e-11 -2.00236e-11 
7.25132e-11 0.865833 -2 
-2.00236e-11 -2 2.13417 
1.5 5.99982e-11 -3.28097e-11 
5.99982e-11 0.865833 -2 
-3.28097e-11 -2 2.13417 
1.5 7.06319e-12 -1.05033e-11 
7.06319e-12 2.13417 -2 
-1.05033e-11 -2 0.865833 
1.5 1.57757e-11 -5.51841e-12 
1.57757e-11 2.13417 -2 
-5.51841e-12 -2 0.865833 
1.5 6.39069e-11 -1.73382e-11 
6.39069e-11 2.13417 -2 
-1.73382e-11 -2 0.865833 
1.5 5.51895e-11 -3.00988e-11 
5.51895e-11 2.13417 -2 
-3.00988e-11 -2 0.865833 
0.5 1.44038e-13 -9.8832e-12 
1.44038e-13 -0.134167 -2 
-9.8832e-12 -2 1.13417 
0.5 5.57988e-12 -5.07418e-12 
5.57988e-12 -0.134167 -2 
-5.07418e-12 -2 1.13417 
0.5 2.66715e-11 -1.64769e-11 
2.66715e-11 -0.134167 -2 
-1.64769e-11 -2 1.13417 
0.5 2.12368e-11 -2.8988e-11 
2.12368e-11 -0.134167 -2 
-2.8988e-11 -2 1.13417 
0.5 3.20932e-12 -9.1377e-12 
3.20932e-12 1.13417 -2 
-9.1377e-12 -2 -0.134167 
0.5 4.92543e-12 -4.18023e-12 
4.92543e-12 1.13417 -2 
-4.18023e-12 -2 -0.134167 
0.5 1.83148e-11 -1.55828e-11 
1.83148e-11 1.13417 -2 
-1.55828e-11 -2 -0.134167 
0.5 1.66016e-11 -2.82429e-11 
1.66016e-11 1.13417 -2 
-2.82429e-11 -2 -0.134167 
4.5 8.48146e-11 2.29545e-10 
8.48146e-11 3.86583 -2 
2.29545e-10 -2 5.13417 
4.5 1.12171e-10 3.5551e-10 
1.12171e-10 3.86583 -2 
3.5551e-10 -2 5.13417 
4.5 2.79012e-19 1.75701e-10 
2.79012e-19 3.86583 -2 
1.75701e-10 -2 5.13417 
4.5 -2.73609e-11 2.9813e-11 
-2.73609e-11 3.86583 -2 
2.9813e-11 -2 5.13417 
4.5 8.24432e-11 1.25235e-10 
8.24432e-11 5.13417 -2 
1.25235e-10 -2 3.86583 
4.5 1.32094e-10 1.15498e-10 
1.32094e-10 5.13417 -2 
1.15498e-10 -2 3.86583 
4.5 1.23204e-19 -6.43112e-11 
1.23204e-19 5.13417 -2 
-6.43112e-11 -2 3.86583 
4.5 -4.96581e-11 -7.44986e-11 
-4.96581e-11 5.13417 -2 
-7.44986e-11 -2 3.86583 
3.5 9.05585e-11 -5.13752e-11 
9.05585e-11 2.86583 -2 
-5.13752e-11 -2 4.13417 
3.5 1.56443e-10 -4.8151e-11 
1.56443e-10 2.86583 -2 
-4.8151e-11 -2 4.13417 
3.5 1.26476e-19 -6.43112e-11 
1.26476e-19 2.86583 -2 
-6.43112e-11 -2 4.13417 
3.5 -6.58756e-11 -7.44973e-11 
-6.58756e-11 2.86583 -2 
-7.44973e-11 -2 4.13417 
3.5 1.01628e-10 -2.23411e-11 
1.01628e-10 4.13417 -2 
-2.23411e-11 -2 2.86583 
3.5 1.63405e-10 -5.18934e-11 
1.63405e-10 4.13417 -2 
-5.18934e-11 -2 2.86583 
3.5 1.04767e-19 -6.80533e-11 
1.04767e-19 4.13417 -2 
-6.80533e-11 -2 2.86583 
3.5 -6.17695e-11 -4.54614e-11 
-6.17695e-11 4.13417 -2 
-4.54614e-11 -2 2.86583 
2.5 6.93907e-11 -2.40397e-11 
6.93907e-11 1.86583 -2 
-2.40397e-11 -2 3.13417 
2.5 1.21772e-10 -3.62989e-11 
1.21772e-10 1.86583 -2 
-3.62989e-11 -2 3.13417 
2.5 8.08137e-20 -6.80531e-11 
8.08137e-20 1.86583 -2 
-6.80531e-11 -2 3.13417 
2.5 -5.23845e-11 -4.54616e-11 
-5.23845e-11 1.86583 -2 
-4.54616e-11 -2 3.13417 
2.5 6.58233e-11 -1.41772e-11 
6.58233e-11 3.13417 -2 
-1.41772e-11 -2 1.86583 
2.5 1.1144e-10 -2.83931e-11 
1.1144e-10 3.13417 -2 
-2.83931e-11 -2 1.86583 
2.5 7.19497e-20 -6.01474e-11 
7.19497e-20 3.13417 -2 
-6.01474e-11 -2 1.86583 
2.5 -4.56188e-11 -3.56001e-11 
-4.56188e-11 3.13417 -2 
-3.56001e-11 -2 1.86583 
1.5 3.99067e-11 -1.19879e-11 
3.99067e-11 0.865833 -2 
-1.19879e-11 -2 2.13417 
1.5 7.25132e-11 -2.79296e-11 
7.25132e-11 0.865833 -2 
-2.79296e-11 -2 2.13417 
1.5 5.22529e-20 -6.01474e-11 
5.22529e-20 0.865833 -2 
-6.01474e-11 -2 2.13417 
1.5 -3.26067e-11 -3.55976e-11 
-3.26067e-11 0.865833 -2 
-3.55976e-11 -2 2.13417 
1.5 3.71839e-11 -1.0279e-11 
3.71839e-11 2.13417 -2 
-1.0279e-11 -2 0.865833 
1.5 6.39069e-11 -2.568e-11 
6.39069e-11 2.13417 -2 
-2.568e-11 -2 0.865833 
1.5 3.80104e-20 -5.7898e-11 
3.80104e-20 2.13417 -2 
-5.7898e-11 -2 0.865833 
1.5 -2.67233e-11 -3.38905e-11 
-2.67233e-11 2.13417 -2 
-3.38905e-11 -2 0.865833 
0.5 1.37651e-11 -9.1686e-12 
1.37651e-11 -0.134167 -2 
-9.1686e-12 -2 1.13417 
0.5 2.66715e-11 -2.48188e-11 
2.66715e-11 -0.134167 -2 
-2.48188e-11 -2 1.13417 
0.5 2.58607e-20 -5.7898e-11 
2.58607e-20 -0.134167 -2 
-5.7898e-11 -2 1.13417 
0.5 -1.29076e-11 -3.38908e-11 
-1.29076e-11 -0.134167 -2 
-3.38908e-11 -2 1.13417 
0.5 1.14209e-11 -8.6986e-12 
1.14209e-11 1.13417 -2 
-8.6986e-12 -2 -0.134167 
0.5 1.83148e-11 -2.41748e-11 
1.83148e-11 1.13417 -2 
-2.41748e-11 -2 -0.134167 
0.5 -3.9271e-20 -5.7254e-11 
-3.9271e-20 1.13417 -2 
-5.7254e-11 -2 -0.134167 
0.5 -6.89504e-12 -3.34209e-11 
-6.89504e-12 1.13417 -2 
-3.34209e-11 -2 -0.134167 
METADATA
COMPONENT_NAMES
XX
XY
XZ
YX
YY
YZ
ZX
ZY
ZZ

