# vtk DataFile Version 3.0
vtk output
ASCII
DATASET UNSTRUCTURED_GRID
POINTS 3504 float
9.37524	8.73136	0	
8.75	8.58834	0	
9.1209	8.27443	0	
2.62476	3.26864	0	
3.25	3.41166	0	
2.87919	3.72567	0	
6.75	1.5	0	
6.375	1.25	0	
6.81214	0.972955	0	
5.25	10.5	0	
5.625	10.75	0	
5.18786	11.027	0	
1.85045	1.35783	0	
1.69569	1.8874	0	
1.36384	1.3789	0	
10.1495	10.6422	0	
10.3043	10.1126	0	
10.6362	10.6211	0	
0.441894	4.21095	0	
0.909244	3.85868	0	
0.819813	4.43168	0	
11.5581	7.78905	0	
11.0908	8.14132	0	
11.1802	7.56832	0	
1.36384	1.3789	0	
1.69569	1.8874	0	
1.1945	1.88162	0	
10.6362	10.6211	0	
10.3043	10.1126	0	
10.8055	10.1184	0	
9	9	0	
8.75	8.58834	0	
9.37524	8.73136	0	
3	3	0	
3.25	3.41166	0	
2.62476	3.26864	0	
1.34548	3.74096	0	
1.44039	3.22981	0	
1.72591	3.65921	0	
10.6545	8.25904	0	
10.5596	8.77019	0	
10.2741	8.34079	0	
2.81957	1.31737	0	
2.56656	1.81417	0	
2.33543	1.33737	0	
9.18043	10.6826	0	
9.43344	10.1858	0	
9.66457	10.6626	0	
2.56656	1.81417	0	
2.81957	1.31737	0	
3.07339	1.72552	0	
9.43344	10.1858	0	
9.18043	10.6826	0	
8.92661	10.2745	0	
3.77844	11.5369	0	
3.4335	11.0699	0	
3.91364	11.0266	0	
8.22156	0.463092	0	
8.5665	0.930072	0	
8.08636	0.973355	0	
1.44039	3.22981	0	
1.34548	3.74096	0	
0.975292	3.4186	0	
10.5596	8.77019	0	
10.6545	8.25904	0	
11.0247	8.5814	0	
0.909244	3.85868	0	
0.441894	4.21095	0	
0.423927	3.72025	0	
11.0908	8.14132	0	
11.5581	7.78905	0	
11.5761	8.27975	0	
0.515247	3.25249	0	
0.964209	2.93026	0	
0.975292	3.4186	0	
11.4848	8.74751	0	
11.0358	9.06974	0	
11.0247	8.5814	0	
5.19375	11.559	0	
4.74219	11.2353	0	
5.18786	11.027	0	
6.80625	0.441027	0	
7.25781	0.764652	0	
6.81214	0.972955	0	
8.21439	10.7045	0	
7.94792	10.2758	0	
8.44965	10.3445	0	
3.78561	1.29551	0	
4.05208	1.72422	0	
3.55035	1.6555	0	
0.515247	3.25249	0	
0.975292	3.4186	0	
0.705927	3.5625	0	
11.4848	8.74751	0	
11.0247	8.5814	0	
11.2941	8.4375	0	
1.44039	3.22981	0	
1.83334	3.31312	0	
1.72591	3.65921	0	
10.5596	8.77019	0	
10.1667	8.68688	0	
10.2741	8.34079	0	
7.94792	10.2758	0	
8.21439	10.7045	0	
7.8056	10.755	0	
4.05208	1.72422	0	
3.78561	1.29551	0	
4.1944	1.24503	0	
1.278	0.451757	0	
1.09508	0.931645	0	
0.762263	0.502575	0	
10.722	11.5482	0	
10.9049	11.0684	0	
11.2377	11.4974	0	
0.436153	10.7318	0	
0.897918	10.4512	0	
0.812338	10.9992	0	
11.5638	1.26819	0	
11.1021	1.54877	0	
11.1877	1.00076	0	
0.964209	2.93026	0	
0.515247	3.25249	0	
0.488993	2.71456	0	
11.0358	9.06974	0	
11.4848	8.74751	0	
11.511	9.28544	0	
10.3201	4.12958	0	
9.70416	4.10915	0	
10.026	3.70057	0	
1.67992	7.87042	0	
2.29584	7.89085	0	
1.97403	8.29943	0	
9.70416	4.10915	0	
9.14288	4.31781	0	
9.2966	3.83515	0	
2.29584	7.89085	0	
2.85712	7.68219	0	
2.7034	8.16485	0	
7.18582	1.26783	0	
6.75	1.5	0	
6.81214	0.972955	0	
4.81418	10.7322	0	
5.25	10.5	0	
5.18786	11.027	0	
7.6301	1.08531	0	
7.18582	1.26783	0	
7.25781	0.764652	0	
4.3699	10.9147	0	
4.81418	10.7322	0	
4.74219	11.2353	0	
3.4335	11.0699	0	
3.77844	11.5369	0	
3.23101	11.5395	0	
8.5665	0.930072	0	
8.22156	0.463092	0	
8.76899	0.460521	0	
0.762263	0.502575	0	
1.09508	0.931645	0	
0.703305	0.973132	0	
11.2377	11.4974	0	
10.9049	11.0684	0	
11.2967	11.0269	0	
1.58989	0.947466	0	
1.09508	0.931645	0	
1.278	0.451757	0	
10.4101	11.0525	0	
10.9049	11.0684	0	
10.722	11.5482	0	
6.81214	0.972955	0	
6.375	1.25	0	
6.40509	0.756312	0	
5.18786	11.027	0	
5.625	10.75	0	
5.59491	11.2437	0	
5.24241	0.422233	0	
5.53462	0.795065	0	
4.95571	0.874051	0	
6.75759	11.5778	0	
6.46538	11.2049	0	
7.04429	11.1259	0	
1.77575	0.457563	0	
1.58989	0.947466	0	
1.278	0.451757	0	
10.2243	11.5424	0	
10.4101	11.0525	0	
10.722	11.5482	0	
0.897918	10.4512	0	
0.436153	10.7318	0	
0.432872	10.2502	0	
11.1021	1.54877	0	
11.5638	1.26819	0	
11.5671	1.74976	0	
7.25781	0.764652	0	
7.18582	1.26783	0	
6.81214	0.972955	0	
4.74219	11.2353	0	
4.81418	10.7322	0	
5.18786	11.027	0	
4.74219	11.2353	0	
5.19375	11.559	0	
4.68792	11.6569	0	
7.25781	0.764652	0	
6.80625	0.441027	0	
7.31208	0.343131	0	
0	3	0	
0	2.5	0	
0.488993	2.71456	0	
12	9	0	
12	9.5	0	
11.511	9.28544	0	
3.77516	7.48951	0	
4.26051	7.43129	0	
4.01911	7.855	0	
0.515247	3.25249	0	
0	3	0	
0.488993	2.71456	0	
11.4848	8.74751	0	
12	9	0	
11.511	9.28544	0	
3.03713	8.50604	0	
3	9	0	
2.59572	8.62093	0	
8.96287	3.49396	0	
9	3	0	
9.40428	3.37907	0	
2.07375	0.925107	0	
1.77575	0.457563	0	
2.28084	0.462581	0	
9.92625	11.0749	0	
10.2243	11.5424	0	
9.71916	11.5374	0	
3.77844	11.5369	0	
3.91364	11.0266	0	
4.29261	11.3608	0	
8.22156	0.463092	0	
8.08636	0.973355	0	
7.70739	0.639177	0	
10	7.5	0	
10.281	7.87777	0	
9.77488	7.87345	0	
2	4.5	0	
1.71898	4.12223	0	
2.22512	4.12655	0	
3.15548	8.01766	0	
3.28977	7.55171	0	
3.57624	7.90086	0	
1.77575	0.457563	0	
2.07375	0.925107	0	
1.58989	0.947466	0	
10.2243	11.5424	0	
9.92625	11.0749	0	
10.4101	11.0525	0	
10.8055	10.1184	0	
11.041	9.62545	0	
11.2138	10.0748	0	
1.1945	1.88162	0	
0.959013	2.37455	0	
0.786193	1.92522	0	
11.041	9.62545	0	
10.8055	10.1184	0	
10.6158	9.75351	0	
0.959013	2.37455	0	
1.1945	1.88162	0	
1.38417	2.24649	0	
10.4635	7.42658	0	
10.8817	7.21353	0	
10.7589	7.79131	0	
1.53647	4.57342	0	
1.11832	4.78647	0	
1.24111	4.20869	0	
4.95571	0.874051	0	
5.53462	0.795065	0	
5.25248	1.15003	0	
7.04429	11.1259	0	
6.46538	11.2049	0	
6.74752	10.85	0	
11.567	2.25	0	
11.5711	2.71322	0	
11.1304	2.45174	0	
0.433013	9.75	0	
0.428992	9.28697	0	
0.869637	9.54828	0	
10.3201	4.12958	0	
10	4.5	0	
9.70416	4.10915	0	
1.67992	7.87042	0	
2	7.5	0	
2.29584	7.89085	0	
10.4635	4.57342	0	
10.3201	4.12958	0	
10.8198	4.32736	0	
1.53647	7.42658	0	
1.67992	7.87042	0	
1.17991	7.67296	0	
9.53647	4.57342	0	
9.14288	4.31781	0	
9.70416	4.10915	0	
2.46353	7.42658	0	
2.85712	7.68219	0	
2.29584	7.89085	0	
1.77575	0.457563	0	
2	0	0	
2.28084	0.462581	0	
10.2243	11.5424	0	
10	12	0	
9.71916	11.5374	0	
2.59572	8.62093	0	
3	9	0	
2.51493	9.06911	0	
9.40428	3.37907	0	
9	3	0	
9.48507	2.93089	0	
4.18949	8.25512	0	
4.74906	8.29978	0	
4.30314	8.65409	0	
4.30314	8.65409	0	
4.74906	8.29978	0	
4.76044	8.70417	0	
7.74823	8.14603	0	
7.73869	8.56245	0	
7.29837	8.20566	0	
7.73869	8.56245	0	
7.16762	8.62235	0	
7.29837	8.20566	0	
1.36384	1.3789	0	
1.1945	1.88162	0	
0.865981	1.4238	0	
10.6362	10.6211	0	
10.8055	10.1184	0	
11.134	10.5762	0	
0.488993	2.71456	0	
0	2.5	0	
0.482269	2.22476	0	
11.511	9.28544	0	
12	9.5	0	
11.5177	9.77524	0	
8.85119	3.98401	0	
9.14288	4.31781	0	
8.72322	4.44094	0	
9.77488	7.87345	0	
10.281	7.87777	0	
9.95083	8.19353	0	
2.22512	4.12655	0	
1.71898	4.12223	0	
2.04917	3.80648	0	
11.0908	8.14132	0	
10.7589	7.79131	0	
11.1802	7.56832	0	
0.909244	3.85868	0	
1.24111	4.20869	0	
0.819813	4.43168	0	
10.7589	7.79131	0	
10.8817	7.21353	0	
11.1802	7.56832	0	
1.24111	4.20869	0	
1.11832	4.78647	0	
0.819813	4.43168	0	
2.85712	7.68219	0	
3.28977	7.55171	0	
3.15548	8.01766	0	
2	0	0	
2.5	0	0	
2.28084	0.462581	0	
10	12	0	
9.5	12	0	
9.71916	11.5374	0	
11.6039	4.76277	0	
11.2135	5.11832	0	
11.2126	4.5414	0	
0.396109	7.2373	0	
0.786475	6.88168	0	
0.787256	7.45891	0	
0	2.5	0	
0	2	0	
0.482269	2.22476	0	
12	9.5	0	
12	10	0	
11.5177	9.77524	0	
3.57624	7.90086	0	
3.77516	7.48951	0	
4.01911	7.855	0	
11.2135	5.11832	0	
10.8817	4.78647	0	
11.2126	4.5414	0	
0.786475	6.88168	0	
1.11832	7.21353	0	
0.787256	7.45891	0	
10.8198	4.32736	0	
10.3201	4.12958	0	
10.737	3.96301	0	
1.17991	7.67296	0	
1.67992	7.87042	0	
1.26301	8.03699	0	
3.25	3.41166	0	
3.75291	3.71723	0	
3.31445	3.83331	0	
4.29261	11.3608	0	
4.74219	11.2353	0	
4.68792	11.6569	0	
7.70739	0.639177	0	
7.25781	0.764652	0	
7.31208	0.343131	0	
8.75	8.58834	0	
8.24709	8.28351	0	
8.68564	8.16701	0	
7.04429	11.1259	0	
7.10292	10.669	0	
7.39823	10.832	0	
4.95571	0.874051	0	
4.89708	1.33103	0	
4.60177	1.16799	0	
7.94792	10.2758	0	
8.2972	9.92457	0	
8.44965	10.3445	0	
4.05208	1.72422	0	
3.7028	2.07543	0	
3.55035	1.6555	0	
11.134	10.5762	0	
10.8055	10.1184	0	
11.2138	10.0748	0	
0.865981	1.4238	0	
1.1945	1.88162	0	
0.786193	1.92522	0	
0.897918	10.4512	0	
1.24328	10.8279	0	
0.812338	10.9992	0	
11.1021	1.54877	0	
10.7567	1.17212	0	
11.1877	1.00076	0	
3.5	12	0	
3	12	0	
3.23101	11.5395	0	
8.5	0	0	
9	0	0	
8.76899	0.460521	0	
2.5	0	0	
3	0	0	
2.77608	0.45159	0	
9.5	12	0	
9	12	0	
9.22392	11.5484	0	
7.49361	10.452	0	
7.94792	10.2758	0	
7.8056	10.755	0	
4.50639	1.54804	0	
4.05208	1.72422	0	
4.1944	1.24503	0	
7.54471	11.1582	0	
7.04429	11.1259	0	
7.39823	10.832	0	
4.45529	0.841784	0	
4.95571	0.874051	0	
4.60177	1.16799	0	
4.29261	11.3608	0	
4.68792	11.6569	0	
4.25047	11.7331	0	
7.70739	0.639177	0	
7.31208	0.343131	0	
7.74953	0.266937	0	
3.23101	11.5395	0	
2.73291	11.5492	0	
2.94419	11.1055	0	
8.76899	0.460521	0	
9.26709	0.450847	0	
9.05581	0.894492	0	
3.21353	5.11832	0	
2.88168	4.78647	0	
3.45852	4.84439	0	
8.78647	6.88168	0	
9.11832	7.21353	0	
8.54148	7.15561	0	
2.28084	0.462581	0	
2.5	0	0	
2.77608	0.45159	0	
9.71916	11.5374	0	
9.5	12	0	
9.22392	11.5484	0	
2.88168	7.21353	0	
3.21353	6.88168	0	
3.45765	7.14906	0	
9.11832	4.78647	0	
8.78647	5.11832	0	
8.54196	4.848	0	
8.85119	3.98401	0	
8.72322	4.44094	0	
8.44235	4.1675	0	
11.5708	10.2786	0	
11.134	10.5762	0	
11.2138	10.0748	0	
0.429197	1.72138	0	
0.865981	1.4238	0	
0.786193	1.92522	0	
2.33543	1.33737	0	
2.56656	1.81417	0	
2.11815	1.70743	0	
9.66457	10.6626	0	
9.43344	10.1858	0	
9.88185	10.2926	0	
11.1304	2.45174	0	
11.5711	2.71322	0	
11.2395	2.89678	0	
0.869637	9.54828	0	
0.428992	9.28697	0	
0.759003	9.10481	0	
2.62476	3.26864	0	
2.87919	3.72567	0	
2.42059	3.73283	0	
9.37524	8.73136	0	
9.1209	8.27443	0	
9.57942	8.26719	0	
3.75291	3.71723	0	
3.25	3.41166	0	
3.75	3.31238	0	
2.88168	4.78647	0	
3.27659	4.48265	0	
3.45852	4.84439	0	
9.11832	7.21353	0	
8.72348	7.51752	0	
8.54148	7.15561	0	
8.24709	8.28351	0	
8.75	8.58834	0	
8.25	8.68814	0	
0.865981	1.4238	0	
0.429197	1.72138	0	
0.414393	1.25	0	
11.134	10.5762	0	
11.5708	10.2786	0	
11.5856	10.75	0	
8.72322	4.44094	0	
9.11832	4.78647	0	
8.54196	4.848	0	
3.27197	0.448831	0	
3.76807	0.438143	0	
3.53723	0.874729	0	
8.72803	11.5512	0	
8.23193	11.5619	0	
8.46277	11.1253	0	
3.28977	7.55171	0	
2.88168	7.21353	0	
3.45765	7.14906	0	
1.34548	3.74096	0	
0.909244	3.85868	0	
0.975292	3.4186	0	
10.6545	8.25904	0	
11.0908	8.14132	0	
11.0247	8.5814	0	
3.77844	11.5369	0	
3.5	12	0	
3.23101	11.5395	0	
8.22156	0.463092	0	
8.5	0	0	
8.76899	0.460521	0	
2.56656	1.81417	0	
3.07339	1.72552	0	
2.94634	2.12359	0	
9.43344	10.1858	0	
8.92661	10.2745	0	
9.05366	9.87641	0	
2.46353	4.57342	0	
2.22512	4.12655	0	
2.65608	4.07841	0	
9.53647	7.42658	0	
9.77488	7.87345	0	
9.34396	7.92164	0	
3.27197	0.448831	0	
3.53723	0.874729	0	
3.04485	0.889441	0	
8.72803	11.5512	0	
8.46277	11.1253	0	
8.95515	11.1106	0	
3	12	0	
2.73291	11.5492	0	
3.23101	11.5395	0	
9	0	0	
9.26709	0.450847	0	
8.76899	0.460521	0	
2.88257	4.41662	0	
2.46353	4.57342	0	
2.65608	4.07841	0	
9.1175	7.58346	0	
9.53647	7.42658	0	
9.34396	7.92164	0	
1.69569	1.8874	0	
1.85045	1.35783	0	
2.11815	1.70743	0	
10.3043	10.1126	0	
10.1495	10.6422	0	
9.88185	10.2926	0	
8.65543	1.77905	0	
8.64401	2.29747	0	
8.27901	2.05024	0	
3.34457	10.221	0	
3.35599	9.70253	0	
3.72099	9.94976	0	
7.18582	1.26783	0	
7.6301	1.08531	0	
7.54365	1.55108	0	
4.81418	10.7322	0	
4.3699	10.9147	0	
4.45635	10.4489	0	
3.15548	8.01766	0	
3.57624	7.90086	0	
3.41384	8.35508	0	
2.73291	11.5492	0	
2.46112	11.131	0	
2.94419	11.1055	0	
9.26709	0.450847	0	
9.53888	0.869048	0	
9.05581	0.894492	0	
2.65608	4.07841	0	
2.87919	3.72567	0	
3.08944	4.11489	0	
3.4335	11.0699	0	
3.23101	11.5395	0	
2.94419	11.1055	0	
8.5665	0.930072	0	
8.76899	0.460521	0	
9.05581	0.894492	0	
5.625	10.75	0	
6	11	0	
5.59491	11.2437	0	
6.375	1.25	0	
6	1	0	
6.40509	0.756312	0	
9.34396	7.92164	0	
9.1209	8.27443	0	
8.91063	7.88528	0	
4.29261	11.3608	0	
3.91364	11.0266	0	
4.3699	10.9147	0	
7.70739	0.639177	0	
8.08636	0.973355	0	
7.6301	1.08531	0	
11.6212	11.2424	0	
11.2377	11.4974	0	
11.2967	11.0269	0	
0.37881	0.75764	0	
0.762263	0.502575	0	
0.703305	0.973132	0	
2.46112	11.131	0	
2.73291	11.5492	0	
2.23908	11.5702	0	
9.53888	0.869048	0	
9.26709	0.450847	0	
9.76092	0.429793	0	
0	2	0	
0.429197	1.72138	0	
0.482269	2.22476	0	
12	10	0	
11.5708	10.2786	0	
11.5177	9.77524	0	
10.3201	4.12958	0	
10.026	3.70057	0	
10.4783	3.69212	0	
1.67992	7.87042	0	
1.97403	8.29943	0	
1.52172	8.30788	0	
9	3	0	
9.24286	2.53699	0	
9.48507	2.93089	0	
3	9	0	
2.75714	9.46301	0	
2.51493	9.06911	0	
3.27197	0.448831	0	
3.5	0	0	
3.76807	0.438143	0	
8.72803	11.5512	0	
8.5	12	0	
8.23193	11.5619	0	
9.2966	3.83515	0	
9.14288	4.31781	0	
8.85119	3.98401	0	
2.7034	8.16485	0	
2.85712	7.68219	0	
3.15548	8.01766	0	
8.64401	2.29747	0	
8.65543	1.77905	0	
9.00566	2.11772	0	
3.35599	9.70253	0	
3.34457	10.221	0	
2.99434	9.88228	0	
4.25	3.43301	0	
3.75291	3.71723	0	
3.75	3.31238	0	
7.73869	8.56245	0	
8.24709	8.28351	0	
8.25	8.68814	0	
4	0	0	
4.25896	0.436125	0	
3.76807	0.438143	0	
8	12	0	
7.74104	11.5639	0	
8.23193	11.5619	0	
0.782346	11.519	0	
0.399477	11.2307	0	
0.812338	10.9992	0	
11.2177	0.480967	0	
11.6005	0.769324	0	
11.1877	1.00076	0	
3.53723	0.874729	0	
4.03329	0.865952	0	
3.78561	1.29551	0	
8.46277	11.1253	0	
7.96671	11.134	0	
8.21439	10.7045	0	
3.74662	4.53644	0	
4	5	0	
3.45852	4.84439	0	
8.25337	7.46374	0	
8	7	0	
8.54148	7.15561	0	
0.782346	11.519	0	
0.812338	10.9992	0	
1.1261	11.2231	0	
11.2177	0.480967	0	
11.1877	1.00076	0	
10.8739	0.776924	0	
0.433013	4.75	0	
0.441894	4.21095	0	
0.819813	4.43168	0	
11.567	7.25	0	
11.5581	7.78905	0	
11.1802	7.56832	0	
9	9	0	
8.5	9	0	
8.75	8.58834	0	
3	3	0	
3.5	3	0	
3.25	3.41166	0	
3.63351	6.74446	0	
3.42658	6.46353	0	
3.72654	6.27346	0	
0.353472	5.24353	0	
0.573415	5.53647	0	
0.273457	5.72654	0	
8.36644	5.25519	0	
8.57342	5.53647	0	
8.27346	5.72654	0	
11.6465	6.75647	0	
11.4266	6.46353	0	
11.7265	6.27346	0	
11.4266	5.53647	0	
11.6509	5.24505	0	
11.7265	5.72654	0	
8.57342	6.46353	0	
8.36638	6.74524	0	
8.27346	6.27346	0	
3.42658	5.53647	0	
3.63362	5.25476	0	
3.72654	5.72654	0	
0.573415	6.46353	0	
0.349079	6.75496	0	
0.273457	6.27346	0	
3.04485	0.889441	0	
3.53723	0.874729	0	
3.30183	1.29301	0	
8.95515	11.1106	0	
8.46277	11.1253	0	
8.69817	10.707	0	
6	0	0	
5.98333	0.546775	0	
5.62881	0.366313	0	
6	12	0	
6.01667	11.4532	0	
6.37119	11.6337	0	
8	5	0	
8.24265	4.54183	0	
8.54196	4.848	0	
8.24709	8.28351	0	
7.73869	8.56245	0	
7.74823	8.14603	0	
3.75291	3.71723	0	
4.25	3.43301	0	
4.24938	3.83423	0	
4	0	0	
4.5	0	0	
4.25896	0.436125	0	
8	12	0	
7.5	12	0	
7.74104	11.5639	0	
4.75485	0.430494	0	
5.24241	0.422233	0	
4.95571	0.874051	0	
7.24515	11.5695	0	
6.75759	11.5778	0	
7.04429	11.1259	0	
5.24964	3.42577	0	
4.74592	3.70957	0	
4.75	3.30594	0	
3	0	0	
3.27197	0.448831	0	
2.77608	0.45159	0	
9	12	0	
8.72803	11.5512	0	
9.22392	11.5484	0	
4.74592	3.70957	0	
5.24964	3.42577	0	
5.2481	3.83013	0	
12	7.5	0	
11.5581	7.78905	0	
11.567	7.25	0	
0	4.5	0	
0.441894	4.21095	0	
0.433013	4.75	0	
7.2502	3.42595	0	
7.74892	3.71537	0	
7.24988	3.83233	0	
8.23193	11.5619	0	
7.96671	11.134	0	
8.46277	11.1253	0	
3.76807	0.438143	0	
4.03329	0.865952	0	
3.53723	0.874729	0	
7.74892	3.71537	0	
7.2502	3.42595	0	
7.74534	3.30543	0	
4.25896	0.436125	0	
4.03329	0.865952	0	
3.76807	0.438143	0	
7.74104	11.5639	0	
7.96671	11.134	0	
8.23193	11.5619	0	
3.5	0	0	
4	0	0	
3.76807	0.438143	0	
8.5	12	0	
8	12	0	
8.23193	11.5619	0	
11.5581	7.78905	0	
12	8	0	
11.5761	8.27975	0	
0.441894	4.21095	0	
0	4	0	
0.423927	3.72025	0	
0	8	0	
0.425836	7.74892	0	
0.396868	8.24797	0	
5.25	8.56699	0	
4.74906	8.29978	0	
5.24983	8.17022	0	
6.25	3.43301	0	
6.7511	3.69827	0	
6.24969	3.829	0	
6.25	8.56699	0	
6.73961	8.27391	0	
6.73675	8.69327	0	
4.74906	8.29978	0	
5.25	8.56699	0	
4.76044	8.70417	0	
3.75783	8.57977	0	
4.18949	8.25512	0	
4.30314	8.65409	0	
6	1	0	
5.98333	0.546775	0	
6.40509	0.756312	0	
6	11	0	
6.01667	11.4532	0	
5.59491	11.2437	0	
6.73961	8.27391	0	
6.25	8.56699	0	
6.24831	8.16535	0	
6.25	8.56699	0	
5.74951	8.30149	0	
6.24831	8.16535	0	
3.30183	1.29301	0	
3.53723	0.874729	0	
3.78561	1.29551	0	
8.69817	10.707	0	
8.46277	11.1253	0	
8.21439	10.7045	0	
9.41998	2.11935	0	
9.67857	2.51532	0	
9.24286	2.53699	0	
2.58002	9.88065	0	
2.32143	9.48468	0	
2.75714	9.46301	0	
9.26709	0.450847	0	
9.5	0	0	
9.76092	0.429793	0	
2.73291	11.5492	0	
2.5	12	0	
2.23908	11.5702	0	
11.5416	3.23352	0	
12	3.5	0	
11.6032	3.75292	0	
5.19375	11.559	0	
5.18786	11.027	0	
5.59491	11.2437	0	
6.80625	0.441027	0	
6.81214	0.972955	0	
6.40509	0.756312	0	
5.24964	3.42577	0	
5.74921	3.69805	0	
5.2481	3.83013	0	
6.7511	3.69827	0	
6.25	3.43301	0	
6.75	3.30438	0	
1.17991	7.67296	0	
0.816877	7.99907	0	
0.787256	7.45891	0	
6.25	3.43301	0	
5.74921	3.69805	0	
5.75	3.30426	0	
5.74951	8.30149	0	
6.25	8.56699	0	
5.75	8.69548	0	
8.22758	3.38583	0	
7.74892	3.71537	0	
7.74534	3.30543	0	
6.7511	3.69827	0	
7.2502	3.42595	0	
7.24988	3.83233	0	
11.5741	4.2515	0	
12	4.5	0	
11.6039	4.76277	0	
0.425836	7.74892	0	
0	7.5	0	
0.396109	7.2373	0	
5.25	8.56699	0	
5.74951	8.30149	0	
5.75	8.69548	0	
4.75485	0.430494	0	
5	0	0	
5.24241	0.422233	0	
7.24515	11.5695	0	
7	12	0	
6.75759	11.5778	0	
7.16762	8.62235	0	
6.73961	8.27391	0	
7.29837	8.20566	0	
5.74921	3.69805	0	
6.25	3.43301	0	
6.24969	3.829	0	
9.2966	3.83515	0	
8.85119	3.98401	0	
8.96287	3.49396	0	
2.7034	8.16485	0	
3.15548	8.01766	0	
3.03713	8.50604	0	
6.5	0	0	
7	0	0	
6.80625	0.441027	0	
5.5	12	0	
5	12	0	
5.19375	11.559	0	
5.74921	3.69805	0	
5.24964	3.42577	0	
5.75	3.30426	0	
3.41384	8.35508	0	
3.57624	7.90086	0	
3.80213	8.18478	0	
7.2502	3.42595	0	
6.7511	3.69827	0	
6.75	3.30438	0	
4	6.5	0	
3.63351	6.74446	0	
3.72654	6.27346	0	
12	6.5	0	
11.6465	6.75647	0	
11.7265	6.27346	0	
8	5.5	0	
8.36644	5.25519	0	
8.27346	5.72654	0	
0	5.5	0	
0.353472	5.24353	0	
0.273457	5.72654	0	
8.36638	6.74524	0	
8	6.5	0	
8.27346	6.27346	0	
11.6509	5.24505	0	
12	5.5	0	
11.7265	5.72654	0	
0.349079	6.75496	0	
0	6.5	0	
0.273457	6.27346	0	
3.63362	5.25476	0	
4	5.5	0	
3.72654	5.72654	0	
0.433013	9.75	0	
0	9.5	0	
0.428992	9.28697	0	
11.567	2.25	0	
12	2.5	0	
11.5711	2.71322	0	
5.74951	8.30149	0	
5.25	8.56699	0	
5.24983	8.17022	0	
6.73961	8.27391	0	
7.16762	8.62235	0	
6.73675	8.69327	0	
7.74892	3.71537	0	
8.22758	3.38583	0	
8.19888	3.81679	0	
9.2966	3.83515	0	
8.96287	3.49396	0	
9.40428	3.37907	0	
2.7034	8.16485	0	
3.03713	8.50604	0	
2.59572	8.62093	0	
4.29261	11.3608	0	
4.3699	10.9147	0	
4.74219	11.2353	0	
7.70739	0.639177	0	
7.6301	1.08531	0	
7.25781	0.764652	0	
4.75485	0.430494	0	
4.95571	0.874051	0	
4.45529	0.841784	0	
7.24515	11.5695	0	
7.04429	11.1259	0	
7.54471	11.1582	0	
9.87904	2.09105	0	
9.67857	2.51532	0	
9.41998	2.11935	0	
2.12096	9.90895	0	
2.32143	9.48468	0	
2.58002	9.88065	0	
2.81957	1.31737	0	
3.30183	1.29301	0	
3.07339	1.72552	0	
9.18043	10.6826	0	
8.69817	10.707	0	
8.92661	10.2745	0	
12	7	0	
12	7.5	0	
11.567	7.25	0	
0	5	0	
0	4.5	0	
0.433013	4.75	0	
4.74592	3.70957	0	
4.25	3.43301	0	
4.75	3.30594	0	
4.25	3.43301	0	
4.74592	3.70957	0	
4.24938	3.83423	0	
10.4783	3.69212	0	
10.026	3.70057	0	
10.2215	3.29195	0	
1.52172	8.30788	0	
1.97403	8.29943	0	
1.77849	8.70805	0	
3.99999	4.15303	0	
3.74662	4.53644	0	
3.52775	4.15271	0	
10.8198	4.32736	0	
11.1826	4.00198	0	
11.2126	4.5414	0	
2.85679	10.269	0	
2.3936	10.2985	0	
2.58002	9.88065	0	
9.14321	1.73102	0	
9.6064	1.70145	0	
9.41998	2.11935	0	
8.86041	1.34814	0	
9.14321	1.73102	0	
8.65543	1.77905	0	
3.13959	10.6519	0	
2.85679	10.269	0	
3.34457	10.221	0	
2.3936	10.2985	0	
2.12096	9.90895	0	
2.58002	9.88065	0	
9.6064	1.70145	0	
9.87904	2.09105	0	
9.41998	2.11935	0	
12	4	0	
11.5741	4.2515	0	
11.6032	3.75292	0	
0	3.5	0	
0.515247	3.25249	0	
0.423927	3.72025	0	
12	8.5	0	
11.4848	8.74751	0	
11.5761	8.27975	0	
12	7.5	0	
12	8	0	
11.5581	7.78905	0	
0	4.5	0	
0	4	0	
0.441894	4.21095	0	
12	4	0	
12	4.5	0	
11.5741	4.2515	0	
0	8	0	
0	7.5	0	
0.425836	7.74892	0	
7.99991	7.84737	0	
8.25337	7.46374	0	
8.47232	7.84764	0	
0	10	0	
0.433013	9.75	0	
0.432872	10.2502	0	
12	2	0	
11.567	2.25	0	
11.5671	1.74976	0	
4.5	0	0	
5	0	0	
4.75485	0.430494	0	
7.5	12	0	
7	12	0	
7.24515	11.5695	0	
5.98333	0.546775	0	
6	0	0	
6.33528	0.355748	0	
6.01667	11.4532	0	
6	12	0	
5.66472	11.6443	0	
0.458917	8.76762	0	
0	8.5	0	
0.396868	8.24797	0	
3.04485	0.889441	0	
3.30183	1.29301	0	
2.81957	1.31737	0	
8.95515	11.1106	0	
8.69817	10.707	0	
9.18043	10.6826	0	
5	0	0	
5.5	0	0	
5.24241	0.422233	0	
7	12	0	
6.5	12	0	
6.75759	11.5778	0	
12	4.5	0	
12	5	0	
11.6039	4.76277	0	
0	7.5	0	
0	7	0	
0.396109	7.2373	0	
10.5	12	0	
10.2243	11.5424	0	
10.722	11.5482	0	
1.5	0	0	
1.77575	0.457563	0	
1.278	0.451757	0	
8	0	0	
8.5	0	0	
8.22156	0.463092	0	
4	12	0	
3.5	12	0	
3.77844	11.5369	0	
9.33297	1.30833	0	
9.6064	1.70145	0	
9.14321	1.73102	0	
2.66703	10.6917	0	
2.3936	10.2985	0	
2.85679	10.269	0	
7.75	7.43301	0	
8	7	0	
8.25337	7.46374	0	
4.24949	4.56779	0	
4	5	0	
3.74662	4.53644	0	
0	9	0	
0.458917	8.76762	0	
0.428992	9.28697	0	
12	3	0	
11.5416	3.23352	0	
11.5711	2.71322	0	
3	12	0	
2.5	12	0	
2.73291	11.5492	0	
9	0	0	
9.5	0	0	
9.26709	0.450847	0	
0	3.5	0	
0	3	0	
0.515247	3.25249	0	
12	8.5	0	
12	9	0	
11.4848	8.74751	0	
8	5	0	
7.75022	4.5676	0	
8.24265	4.54183	0	
0	10	0	
0	9.5	0	
0.433013	9.75	0	
12	10	0	
12	10.5	0	
11.5708	10.2786	0	
0	2	0	
0	1.5	0	
0.429197	1.72138	0	
12	2	0	
12	2.5	0	
11.567	2.25	0	
10.4172	2.87226	0	
10.2215	3.29195	0	
9.95771	2.8976	0	
1.58282	9.12774	0	
1.77849	8.70805	0	
2.04229	9.1024	0	
0	9	0	
0	8.5	0	
0.458917	8.76762	0	
12	3	0	
12	3.5	0	
11.5416	3.23352	0	
12	8	0	
12	8.5	0	
11.5761	8.27975	0	
0	4	0	
0	3.5	0	
0.423927	3.72025	0	
5.74943	4.56563	0	
5.49824	4.15865	0	
5.9988	4.15718	0	
0	8.5	0	
0	8	0	
0.396868	8.24797	0	
7.5	12	0	
7.24515	11.5695	0	
7.74104	11.5639	0	
4.5	0	0	
4.75485	0.430494	0	
4.25896	0.436125	0	
4.24949	4.56779	0	
3.74662	4.53644	0	
3.99999	4.15303	0	
10.5	12	0	
10	12	0	
10.2243	11.5424	0	
9	12	0	
8.5	12	0	
8.72803	11.5512	0	
3	0	0	
3.5	0	0	
3.27197	0.448831	0	
1.5	0	0	
2	0	0	
1.77575	0.457563	0	
6.74985	4.56626	0	
6.49935	4.15847	0	
7.00018	4.16286	0	
5.7502	7.4338	0	
6.0009	7.84146	0	
5.50042	7.84212	0	
8.86041	1.34814	0	
8.65543	1.77905	0	
8.39677	1.36259	0	
3.13959	10.6519	0	
3.34457	10.221	0	
3.60323	10.6374	0	
7.75	7.43301	0	
8.25337	7.46374	0	
7.99991	7.84737	0	
4.75008	7.43338	0	
5.00018	7.84073	0	
4.51114	7.86845	0	
6.5	5	0	
6	5	0	
6.24943	4.56985	0	
3.99999	4.15303	0	
3.52775	4.15271	0	
3.75291	3.71723	0	
5.74943	4.56563	0	
5.24889	4.57085	0	
5.49824	4.15865	0	
10.1505	2.48113	0	
9.95771	2.8976	0	
9.67857	2.51532	0	
1.84954	9.51887	0	
2.04229	9.1024	0	
2.32143	9.48468	0	
12	3.5	0	
12	4	0	
11.6032	3.75292	0	
1.44039	3.22981	0	
1.78635	2.86547	0	
1.83334	3.31312	0	
10.5596	8.77019	0	
10.2137	9.13453	0	
10.1667	8.68688	0	
0	9.5	0	
0	9	0	
0.428992	9.28697	0	
12	2.5	0	
12	3	0	
11.5711	2.71322	0	
5.5	5	0	
5	5	0	
5.24889	4.57085	0	
6	7	0	
6.5	7	0	
6.25068	7.43001	0	
6.74985	4.56626	0	
6.24943	4.56985	0	
6.49935	4.15847	0	
1	0	0	
1.5	0	0	
1.278	0.451757	0	
11	12	0	
10.5	12	0	
10.722	11.5482	0	
0.436153	10.7318	0	
0	10.5	0	
0.432872	10.2502	0	
11.5638	1.26819	0	
12	1.5	0	
11.5671	1.74976	0	
7.74104	11.5639	0	
7.54471	11.1582	0	
7.96671	11.134	0	
4.25896	0.436125	0	
4.45529	0.841784	0	
4.03329	0.865952	0	
9.33297	1.30833	0	
9.14321	1.73102	0	
8.86041	1.34814	0	
2.66703	10.6917	0	
2.85679	10.269	0	
3.13959	10.6519	0	
5.7502	7.4338	0	
6.25068	7.43001	0	
6.0009	7.84146	0	
7.99991	7.84737	0	
8.47232	7.84764	0	
8.24709	8.28351	0	
0	10.5	0	
0	10	0	
0.432872	10.2502	0	
12	1.5	0	
12	2	0	
11.5671	1.74976	0	
1.74876	11.5799	0	
1.5	12	0	
1.27799	11.5811	0	
10.2512	0.420089	0	
10.5	0	0	
10.722	0.418858	0	
5	7	0	
5.5	7	0	
5.25023	7.4296	0	
5.74943	4.56563	0	
5.5	5	0	
5.24889	4.57085	0	
6.75071	7.43391	0	
7.00182	7.8453	0	
6.50154	7.84292	0	
4	7	0	
4.5	7	0	
4.26051	7.43129	0	
6.74985	4.56626	0	
7.00018	4.16286	0	
7.25026	4.56683	0	
8.24265	4.54183	0	
7.75022	4.5676	0	
7.98959	4.15677	0	
7.00018	4.16286	0	
7.49899	4.15919	0	
7.25026	4.56683	0	
6.74985	4.56626	0	
6.5	5	0	
6.24943	4.56985	0	
6	5	0	
5.74943	4.56563	0	
6.24943	4.56985	0	
7.5	9	0	
7.16762	8.62235	0	
7.73869	8.56245	0	
8	9	0	
7.5	9	0	
7.73869	8.56245	0	
5	5	0	
4.74905	4.57053	0	
5.24889	4.57085	0	
6.75071	7.43391	0	
7.25081	7.43315	0	
7.00182	7.8453	0	
4.75008	7.43338	0	
5.25023	7.4296	0	
5.00018	7.84073	0	
2	12	0	
1.5	12	0	
1.74876	11.5799	0	
10	0	0	
10.5	0	0	
10.2512	0.420089	0	
4.75008	7.43338	0	
4.51114	7.86845	0	
4.26051	7.43129	0	
4.51114	7.86845	0	
5.00018	7.84073	0	
4.74906	8.29978	0	
5.7502	7.4338	0	
6	7	0	
6.25068	7.43001	0	
6.5	7	0	
6.75071	7.43391	0	
6.25068	7.43001	0	
5.9988	4.15718	0	
5.49824	4.15865	0	
5.74921	3.69805	0	
4.75008	7.43338	0	
5	7	0	
5.25023	7.4296	0	
5.5	7	0	
5.7502	7.4338	0	
5.25023	7.4296	0	
7.00018	4.16286	0	
6.49935	4.15847	0	
6.7511	3.69827	0	
5.50042	7.84212	0	
6.0009	7.84146	0	
5.74951	8.30149	0	
2.55882	0.908687	0	
2.81957	1.31737	0	
2.33543	1.33737	0	
9.44118	11.0913	0	
9.18043	10.6826	0	
9.66457	10.6626	0	
1	12	0	
0.782346	11.519	0	
1.27799	11.5811	0	
11	0	0	
11.2177	0.480967	0	
10.722	0.418858	0	
1.5	12	0	
1	12	0	
1.27799	11.5811	0	
10.5	0	0	
11	0	0	
10.722	0.418858	0	
5.74943	4.56563	0	
5.9988	4.15718	0	
6.24943	4.56985	0	
4.5	7	0	
4.75008	7.43338	0	
4.26051	7.43129	0	
6.75071	7.43391	0	
7	7	0	
7.25081	7.43315	0	
0	1	0	
0	0.5	0	
0.37881	0.75764	0	
12	11	0	
12	11.5	0	
11.6212	11.2424	0	
5.7502	7.4338	0	
5.50042	7.84212	0	
5.25023	7.4296	0	
6.50154	7.84292	0	
7.00182	7.8453	0	
6.73961	8.27391	0	
0	11	0	
0	10.5	0	
0.436153	10.7318	0	
12	1	0	
12	1.5	0	
11.5638	1.26819	0	
5	5	0	
4.5	5	0	
4.74905	4.57053	0	
4.51114	7.86845	0	
4.74906	8.29978	0	
4.18949	8.25512	0	
7	5	0	
6.74985	4.56626	0	
7.25026	4.56683	0	
7	7	0	
7.5	7	0	
7.25081	7.43315	0	
6.75071	7.43391	0	
6.50154	7.84292	0	
6.25068	7.43001	0	
7.5	5	0	
7	5	0	
7.25026	4.56683	0	
1	12	0	
0.5	12	0	
0.782346	11.519	0	
11	0	0	
11.5	0	0	
11.2177	0.480967	0	
2.07375	0.925107	0	
2.33543	1.33737	0	
1.85045	1.35783	0	
9.92625	11.0749	0	
9.66457	10.6626	0	
10.1495	10.6422	0	
10.0838	1.66126	0	
9.87904	2.09105	0	
9.6064	1.70145	0	
1.91624	10.3387	0	
2.12096	9.90895	0	
2.3936	10.2985	0	
6.24943	4.56985	0	
5.9988	4.15718	0	
6.49935	4.15847	0	
6.25068	7.43001	0	
6.50154	7.84292	0	
6.0009	7.84146	0	
5.25023	7.4296	0	
5.50042	7.84212	0	
5.00018	7.84073	0	
7.5	9	0	
7	9	0	
7.16762	8.62235	0	
5.5	9	0	
5	9	0	
5.25	8.56699	0	
6.5	9	0	
6	9	0	
6.25	8.56699	0	
8	5	0	
7.5	5	0	
7.75022	4.5676	0	
6	5	0	
5.5	5	0	
5.74943	4.56563	0	
7	5	0	
6.5	5	0	
6.74985	4.56626	0	
4.5	5	0	
4	5	0	
4.24949	4.56779	0	
8	3	0	
8.5	3	0	
8.22758	3.38583	0	
6	3	0	
6.5	3	0	
6.25	3.43301	0	
4	3	0	
4.5	3	0	
4.25	3.43301	0	
7	3	0	
7.5	3	0	
7.2502	3.42595	0	
5	3	0	
5.5	3	0	
5.24964	3.42577	0	
6.5	7	0	
7	7	0	
6.75071	7.43391	0	
5.5	7	0	
6	7	0	
5.7502	7.4338	0	
4.5	7	0	
5	7	0	
4.75008	7.43338	0	
7.5	7	0	
8	7	0	
7.75	7.43301	0	
4	9	0	
3.5	9	0	
3.75783	8.57977	0	
5.24889	4.57085	0	
4.99748	4.1586	0	
5.49824	4.15865	0	
10	7.5	0	
10.4635	7.42658	0	
10.281	7.87777	0	
2	4.5	0	
1.53647	4.57342	0	
1.71898	4.12223	0	
4	5	0	
3.63362	5.25476	0	
3.45852	4.84439	0	
8	7	0	
8.36638	6.74524	0	
8.54148	7.15561	0	
4.74905	4.57053	0	
4.99748	4.1586	0	
5.24889	4.57085	0	
4.99748	4.1586	0	
4.4981	4.15831	0	
4.74592	3.70957	0	
7.75022	4.5676	0	
7.5	5	0	
7.25026	4.56683	0	
2.5	12	0	
2	12	0	
2.23908	11.5702	0	
9.5	0	0	
10	0	0	
9.76092	0.429793	0	
7.5	7	0	
7.75	7.43301	0	
7.25081	7.43315	0	
4.5	5	0	
4.24949	4.56779	0	
4.74905	4.57053	0	
7.25081	7.43315	0	
7.50202	7.86487	0	
7.00182	7.8453	0	
4.74905	4.57053	0	
4.4981	4.15831	0	
4.99748	4.1586	0	
10.4172	2.87226	0	
9.95771	2.8976	0	
10.1505	2.48113	0	
1.58282	9.12774	0	
2.04229	9.1024	0	
1.84954	9.51887	0	
7.98959	4.15677	0	
7.49899	4.15919	0	
7.74892	3.71537	0	
7.49899	4.15919	0	
7.75022	4.5676	0	
7.25026	4.56683	0	
9.53647	7.42658	0	
10	7.5	0	
9.77488	7.87345	0	
2.46353	4.57342	0	
2	4.5	0	
2.22512	4.12655	0	
9.80954	1.26802	0	
9.6064	1.70145	0	
9.33297	1.30833	0	
2.19046	10.732	0	
2.3936	10.2985	0	
2.66703	10.6917	0	
1.58989	0.947466	0	
1.85045	1.35783	0	
1.36384	1.3789	0	
10.4101	11.0525	0	
10.1495	10.6422	0	
10.6362	10.6211	0	
8.36644	5.25519	0	
8	5	0	
8.54196	4.848	0	
3.63351	6.74446	0	
4	7	0	
3.45765	7.14906	0	
7.75	7.43301	0	
7.50202	7.86487	0	
7.25081	7.43315	0	
10.1505	2.48113	0	
9.67857	2.51532	0	
9.87904	2.09105	0	
1.84954	9.51887	0	
2.32143	9.48468	0	
2.12096	9.90895	0	
4.24949	4.56779	0	
4.4981	4.15831	0	
4.74905	4.57053	0	
3.04485	0.889441	0	
2.81957	1.31737	0	
2.55882	0.908687	0	
8.95515	11.1106	0	
9.18043	10.6826	0	
9.44118	11.0913	0	
2.55882	0.908687	0	
2.33543	1.33737	0	
2.07375	0.925107	0	
9.44118	11.0913	0	
9.66457	10.6626	0	
9.92625	11.0749	0	
4.24949	4.56779	0	
3.99999	4.15303	0	
4.4981	4.15831	0	
7.98959	4.15677	0	
7.75022	4.5676	0	
7.49899	4.15919	0	
1.76019	2.40544	0	
2.17358	2.60002	0	
1.78635	2.86547	0	
10.2398	9.59456	0	
9.82642	9.39998	0	
10.2137	9.13453	0	
9.11832	7.21353	0	
9.53647	7.42658	0	
9.1175	7.58346	0	
2.88168	4.78647	0	
2.46353	4.57342	0	
2.88257	4.41662	0	
1.53647	7.42658	0	
2	7.5	0	
1.67992	7.87042	0	
10.4635	4.57342	0	
10	4.5	0	
10.3201	4.12958	0	
7.75	7.43301	0	
7.99991	7.84737	0	
7.50202	7.86487	0	
0.429197	1.72138	0	
0	1.5	0	
0.414393	1.25	0	
11.5708	10.2786	0	
12	10.5	0	
11.5856	10.75	0	
10.6828	3.26512	0	
10.2215	3.29195	0	
10.4172	2.87226	0	
1.31716	8.73488	0	
1.77849	8.70805	0	
1.58282	9.12774	0	
10	4.5	0	
9.53647	4.57342	0	
9.70416	4.10915	0	
2	7.5	0	
2.46353	7.42658	0	
2.29584	7.89085	0	
10.9049	11.0684	0	
10.6362	10.6211	0	
11.134	10.5762	0	
1.09508	0.931645	0	
1.36384	1.3789	0	
0.865981	1.4238	0	
2	12	0	
1.74876	11.5799	0	
2.23908	11.5702	0	
10	0	0	
10.2512	0.420089	0	
9.76092	0.429793	0	
8.5665	0.930072	0	
8.39677	1.36259	0	
8.08636	0.973355	0	
3.4335	11.0699	0	
3.60323	10.6374	0	
3.91364	11.0266	0	
10.4783	3.69212	0	
10.2215	3.29195	0	
10.6828	3.26512	0	
1.52172	8.30788	0	
1.77849	8.70805	0	
1.31716	8.73488	0	
2.88257	4.41662	0	
2.65608	4.07841	0	
3.08944	4.11489	0	
1.83334	3.31312	0	
1.78635	2.86547	0	
2.19377	3.04007	0	
10.1667	8.68688	0	
10.2137	9.13453	0	
9.80623	8.95993	0	
2.07375	0.925107	0	
1.85045	1.35783	0	
1.58989	0.947466	0	
9.92625	11.0749	0	
10.1495	10.6422	0	
10.4101	11.0525	0	
1.1945	1.88162	0	
1.69569	1.8874	0	
1.38417	2.24649	0	
10.8055	10.1184	0	
10.3043	10.1126	0	
10.6158	9.75351	0	
10.8817	4.78647	0	
10.4635	4.57342	0	
10.8198	4.32736	0	
1.11832	7.21353	0	
1.53647	7.42658	0	
1.17991	7.67296	0	
10.0838	1.66126	0	
9.6064	1.70145	0	
9.80954	1.26802	0	
1.91624	10.3387	0	
2.3936	10.2985	0	
2.19046	10.732	0	
7.24515	11.5695	0	
7.54471	11.1582	0	
7.74104	11.5639	0	
4.75485	0.430494	0	
4.45529	0.841784	0	
4.25896	0.436125	0	
9.67857	2.51532	0	
9.95771	2.8976	0	
9.48507	2.93089	0	
2.32143	9.48468	0	
2.04229	9.1024	0	
2.51493	9.06911	0	
0.816877	7.99907	0	
0.425836	7.74892	0	
0.787256	7.45891	0	
1.36793	2.66993	0	
1.78635	2.86547	0	
1.44039	3.22981	0	
10.6321	9.33007	0	
10.2137	9.13453	0	
10.5596	8.77019	0	
4	7	0	
4.26051	7.43129	0	
3.77516	7.48951	0	
9.1175	7.58346	0	
9.34396	7.92164	0	
8.91063	7.88528	0	
10.4101	11.0525	0	
10.6362	10.6211	0	
10.9049	11.0684	0	
1.58989	0.947466	0	
1.36384	1.3789	0	
1.09508	0.931645	0	
8.625	2.75	0	
8.25	2.5	0	
8.64401	2.29747	0	
3.375	9.25	0	
3.75	9.5	0	
3.35599	9.70253	0	
10.281	7.87777	0	
10.4635	7.42658	0	
10.7589	7.79131	0	
1.71898	4.12223	0	
1.53647	4.57342	0	
1.24111	4.20869	0	
8.25	2.5	0	
7.875	2.25	0	
8.27901	2.05024	0	
3.75	9.5	0	
4.125	9.75	0	
3.72099	9.94976	0	
11.1021	1.54877	0	
10.5636	1.62175	0	
10.7567	1.17212	0	
0.897918	10.4512	0	
1.43637	10.3782	0	
1.24328	10.8279	0	
3.375	2.75	0	
3	3	0	
2.96758	2.55348	0	
8.625	9.25	0	
9	9	0	
9.03242	9.44652	0	
3.75291	3.71723	0	
3.52775	4.15271	0	
3.31445	3.83331	0	
4.125	9.75	0	
4.5	10	0	
4.10824	10.1773	0	
7.875	2.25	0	
7.5	2	0	
7.89176	1.82269	0	
10.3548	2.05428	0	
10.5636	1.62175	0	
10.8174	2.02018	0	
1.64517	9.94572	0	
1.43637	10.3782	0	
1.18258	9.97982	0	
10.281	7.87777	0	
10.7589	7.79131	0	
10.6545	8.25904	0	
1.71898	4.12223	0	
1.24111	4.20869	0	
1.34548	3.74096	0	
9.53647	4.57342	0	
9.11832	4.78647	0	
9.14288	4.31781	0	
2.46353	7.42658	0	
2.88168	7.21353	0	
2.85712	7.68219	0	
3.75	2.5	0	
3.375	2.75	0	
3.34562	2.3253	0	
8.25	9.5	0	
8.625	9.25	0	
8.65438	9.6747	0	
9.80954	1.26802	0	
9.33297	1.30833	0	
9.53888	0.869048	0	
2.19046	10.732	0	
2.66703	10.6917	0	
2.46112	11.131	0	
7.875	9.75	0	
8.25	9.5	0	
8.2972	9.92457	0	
4.125	2.25	0	
3.75	2.5	0	
3.7028	2.07543	0	
8.24709	8.28351	0	
8.47232	7.84764	0	
8.68564	8.16701	0	
10.3548	2.05428	0	
9.87904	2.09105	0	
10.0838	1.66126	0	
1.64517	9.94572	0	
2.12096	9.90895	0	
1.91624	10.3387	0	
9.44118	11.0913	0	
9.92625	11.0749	0	
9.71916	11.5374	0	
2.55882	0.908687	0	
2.07375	0.925107	0	
2.28084	0.462581	0	
11.1826	4.00198	0	
11.5741	4.2515	0	
11.2126	4.5414	0	
1.76019	2.40544	0	
1.78635	2.86547	0	
1.36793	2.66993	0	
10.2398	9.59456	0	
10.2137	9.13453	0	
10.6321	9.33007	0	
7.5	10	0	
7.875	9.75	0	
7.94792	10.2758	0	
4.5	2	0	
4.125	2.25	0	
4.05208	1.72422	0	
10.6828	3.26512	0	
10.4172	2.87226	0	
10.86	2.84902	0	
1.31716	8.73488	0	
1.58282	9.12774	0	
1.14005	9.15098	0	
10.6321	9.33007	0	
11.0358	9.06974	0	
11.041	9.62545	0	
1.36793	2.66993	0	
0.964209	2.93026	0	
0.959013	2.37455	0	
4.5	10	0	
4.875	10.25	0	
4.45635	10.4489	0	
7.5	2	0	
7.125	1.75	0	
7.54365	1.55108	0	
0	1	0	
0.37881	0.75764	0	
0.414393	1.25	0	
12	11	0	
11.6212	11.2424	0	
11.5856	10.75	0	
4	7	0	
3.77516	7.48951	0	
3.45765	7.14906	0	
10.8174	2.02018	0	
10.5636	1.62175	0	
11.1021	1.54877	0	
1.18258	9.97982	0	
1.43637	10.3782	0	
0.897918	10.4512	0	
9.44197	9.65176	0	
9.85738	9.85959	0	
9.43344	10.1858	0	
2.55803	2.34824	0	
2.14262	2.14041	0	
2.56656	1.81417	0	
3.13959	10.6519	0	
3.60323	10.6374	0	
3.4335	11.0699	0	
8.86041	1.34814	0	
8.39677	1.36259	0	
8.5665	0.930072	0	
4.875	1.75	0	
4.5	2	0	
4.50639	1.54804	0	
7.125	10.25	0	
7.5	10	0	
7.49361	10.452	0	
10.1505	2.48113	0	
9.87904	2.09105	0	
10.3548	2.05428	0	
1.84954	9.51887	0	
2.12096	9.90895	0	
1.64517	9.94572	0	
1.36793	2.66993	0	
1.44039	3.22981	0	
0.964209	2.93026	0	
10.6321	9.33007	0	
10.5596	8.77019	0	
11.0358	9.06974	0	
10.4783	3.69212	0	
10.6828	3.26512	0	
10.9533	3.65718	0	
1.52172	8.30788	0	
1.31716	8.73488	0	
1.04671	8.34282	0	
9.85738	9.85959	0	
10.2398	9.59456	0	
10.3043	10.1126	0	
2.14262	2.14041	0	
1.76019	2.40544	0	
1.69569	1.8874	0	
10.3548	2.05428	0	
10.0838	1.66126	0	
10.5636	1.62175	0	
1.64517	9.94572	0	
1.91624	10.3387	0	
1.43637	10.3782	0	
2.96758	2.55348	0	
3	3	0	
2.58936	2.80158	0	
9.03242	9.44652	0	
9	9	0	
9.41064	9.19842	0	
2.14262	2.14041	0	
2.17358	2.60002	0	
1.76019	2.40544	0	
9.85738	9.85959	0	
9.82642	9.39998	0	
10.2398	9.59456	0	
8.72803	11.5512	0	
8.95515	11.1106	0	
9.22392	11.5484	0	
3.27197	0.448831	0	
3.04485	0.889441	0	
2.77608	0.45159	0	
11.041	9.62545	0	
11.0358	9.06974	0	
11.511	9.28544	0	
0.959013	2.37455	0	
0.964209	2.93026	0	
0.488993	2.71456	0	
4.18949	8.25512	0	
3.75783	8.57977	0	
3.80213	8.18478	0	
9.24286	2.53699	0	
9.67857	2.51532	0	
9.48507	2.93089	0	
2.75714	9.46301	0	
2.32143	9.48468	0	
2.51493	9.06911	0	
4.875	10.25	0	
5.25	10.5	0	
4.81418	10.7322	0	
7.125	1.75	0	
6.75	1.5	0	
7.18582	1.26783	0	
10.6545	8.25904	0	
10.7589	7.79131	0	
11.0908	8.14132	0	
1.34548	3.74096	0	
1.24111	4.20869	0	
0.909244	3.85868	0	
6.75	10.5	0	
7.125	10.25	0	
7.10292	10.669	0	
5.25	1.5	0	
4.875	1.75	0	
4.89708	1.33103	0	
2.17358	2.60002	0	
2.58936	2.80158	0	
2.19377	3.04007	0	
9.82642	9.39998	0	
9.41064	9.19842	0	
9.80623	8.95993	0	
8.85119	3.98401	0	
8.44235	4.1675	0	
8.58598	3.65848	0	
10.7567	1.17212	0	
10.5636	1.62175	0	
10.2884	1.22873	0	
1.24328	10.8279	0	
1.43637	10.3782	0	
1.71162	10.7713	0	
3.52775	4.15271	0	
3.74662	4.53644	0	
3.27659	4.48265	0	
8.64401	2.29747	0	
8.25	2.5	0	
8.27901	2.05024	0	
3.35599	9.70253	0	
3.75	9.5	0	
3.72099	9.94976	0	
4.03329	0.865952	0	
4.45529	0.841784	0	
4.1944	1.24503	0	
7.96671	11.134	0	
7.54471	11.1582	0	
7.8056	10.755	0	
8.47232	7.84764	0	
8.25337	7.46374	0	
8.72348	7.51752	0	
10.0838	1.66126	0	
9.80954	1.26802	0	
10.2884	1.22873	0	
1.91624	10.3387	0	
2.19046	10.732	0	
1.71162	10.7713	0	
7.875	2.25	0	
7.89176	1.82269	0	
8.27901	2.05024	0	
4.125	9.75	0	
4.10824	10.1773	0	
3.72099	9.94976	0	
2.55803	2.34824	0	
2.58936	2.80158	0	
2.17358	2.60002	0	
9.44197	9.65176	0	
9.41064	9.19842	0	
9.82642	9.39998	0	
3.375	2.75	0	
2.96758	2.55348	0	
3.34562	2.3253	0	
8.625	9.25	0	
9.03242	9.44652	0	
8.65438	9.6747	0	
9.14288	4.31781	0	
9.11832	4.78647	0	
8.72322	4.44094	0	
2.55803	2.34824	0	
2.17358	2.60002	0	
2.14262	2.14041	0	
9.44197	9.65176	0	
9.82642	9.39998	0	
9.85738	9.85959	0	
2.96758	2.55348	0	
2.58936	2.80158	0	
2.55803	2.34824	0	
9.03242	9.44652	0	
9.41064	9.19842	0	
9.44197	9.65176	0	
9.53888	0.869048	0	
9.33297	1.30833	0	
9.05581	0.894492	0	
2.46112	11.131	0	
2.66703	10.6917	0	
2.94419	11.1055	0	
9.33297	1.30833	0	
8.86041	1.34814	0	
9.05581	0.894492	0	
2.66703	10.6917	0	
3.13959	10.6519	0	
2.94419	11.1055	0	
10.5636	1.62175	0	
10.0838	1.66126	0	
10.2884	1.22873	0	
1.43637	10.3782	0	
1.91624	10.3387	0	
1.71162	10.7713	0	
10.3548	2.05428	0	
10.8174	2.02018	0	
10.6129	2.44853	0	
1.64517	9.94572	0	
1.18258	9.97982	0	
1.38711	9.55147	0	
0.959013	2.37455	0	
0.488993	2.71456	0	
0.482269	2.22476	0	
11.041	9.62545	0	
11.511	9.28544	0	
11.5177	9.77524	0	
8.2972	9.92457	0	
8.25	9.5	0	
8.65438	9.6747	0	
3.7028	2.07543	0	
3.75	2.5	0	
3.34562	2.3253	0	
10.86	2.84902	0	
10.4172	2.87226	0	
10.6129	2.44853	0	
1.14005	9.15098	0	
1.58282	9.12774	0	
1.38711	9.55147	0	
4.10824	10.1773	0	
4.5	10	0	
4.45635	10.4489	0	
7.89176	1.82269	0	
7.5	2	0	
7.54365	1.55108	0	
9.41064	9.19842	0	
9	9	0	
9.37524	8.73136	0	
2.58936	2.80158	0	
3	3	0	
2.62476	3.26864	0	
6	11	0	
6.375	10.75	0	
6.46538	11.2049	0	
6	1	0	
5.625	1.25	0	
5.53462	0.795065	0	
10.4172	2.87226	0	
10.1505	2.48113	0	
10.6129	2.44853	0	
1.58282	9.12774	0	
1.84954	9.51887	0	
1.38711	9.55147	0	
2.85712	7.68219	0	
2.88168	7.21353	0	
3.28977	7.55171	0	
7.875	9.75	0	
8.2972	9.92457	0	
7.94792	10.2758	0	
4.125	2.25	0	
3.7028	2.07543	0	
4.05208	1.72422	0	
2.58936	2.80158	0	
2.62476	3.26864	0	
2.19377	3.04007	0	
9.41064	9.19842	0	
9.37524	8.73136	0	
9.80623	8.95993	0	
8.92661	10.2745	0	
8.69817	10.707	0	
8.44965	10.3445	0	
3.07339	1.72552	0	
3.30183	1.29301	0	
3.55035	1.6555	0	
1.78635	2.86547	0	
2.17358	2.60002	0	
2.19377	3.04007	0	
10.2137	9.13453	0	
9.82642	9.39998	0	
9.80623	8.95993	0	
7.49361	10.452	0	
7.5	10	0	
7.94792	10.2758	0	
4.50639	1.54804	0	
4.5	2	0	
4.05208	1.72422	0	
0.5	0	0	
1	0	0	
0.762263	0.502575	0	
11.5	12	0	
11	12	0	
11.2377	11.4974	0	
10.1505	2.48113	0	
10.3548	2.05428	0	
10.6129	2.44853	0	
1.84954	9.51887	0	
1.64517	9.94572	0	
1.38711	9.55147	0	
8.86041	1.34814	0	
8.5665	0.930072	0	
9.05581	0.894492	0	
3.13959	10.6519	0	
3.4335	11.0699	0	
2.94419	11.1055	0	
0	11.5	0	
0	11	0	
0.399477	11.2307	0	
12	0.5	0	
12	1	0	
11.6005	0.769324	0	
8.95515	11.1106	0	
9.44118	11.0913	0	
9.22392	11.5484	0	
3.04485	0.889441	0	
2.55882	0.908687	0	
2.77608	0.45159	0	
4.875	10.25	0	
4.81418	10.7322	0	
4.45635	10.4489	0	
7.125	1.75	0	
7.18582	1.26783	0	
7.54365	1.55108	0	
7.125	10.25	0	
7.49361	10.452	0	
7.10292	10.669	0	
4.875	1.75	0	
4.50639	1.54804	0	
4.89708	1.33103	0	
2.46112	11.131	0	
2.23908	11.5702	0	
1.97643	11.1608	0	
9.53888	0.869048	0	
9.76092	0.429793	0	
10.0236	0.83921	0	
3.77844	11.5369	0	
4.29261	11.3608	0	
4.25047	11.7331	0	
8.22156	0.463092	0	
7.70739	0.639177	0	
7.74953	0.266937	0	
0	1.5	0	
0	1	0	
0.414393	1.25	0	
12	10.5	0	
12	11	0	
11.5856	10.75	0	
11.1021	1.54877	0	
11.5671	1.74976	0	
11.2438	1.99979	0	
0.897918	10.4512	0	
0.432872	10.2502	0	
0.756188	10.0002	0	
3.57624	7.90086	0	
3.28977	7.55171	0	
3.77516	7.48951	0	
6	11	0	
6.46538	11.2049	0	
6.01667	11.4532	0	
6	1	0	
5.53462	0.795065	0	
5.98333	0.546775	0	
1.71162	10.7713	0	
2.19046	10.732	0	
1.97643	11.1608	0	
10.2884	1.22873	0	
9.80954	1.26802	0	
10.0236	0.83921	0	
2.51493	9.06911	0	
2.04229	9.1024	0	
2.19054	8.7113	0	
9.48507	2.93089	0	
9.95771	2.8976	0	
9.80946	3.2887	0	
2.88168	4.78647	0	
2.88257	4.41662	0	
3.27659	4.48265	0	
9.41998	2.11935	0	
9.24286	2.53699	0	
9.00566	2.11772	0	
2.58002	9.88065	0	
2.75714	9.46301	0	
2.99434	9.88228	0	
9.11832	7.21353	0	
9.1175	7.58346	0	
8.72348	7.51752	0	
8.65543	1.77905	0	
9.14321	1.73102	0	
9.00566	2.11772	0	
3.34457	10.221	0	
2.85679	10.269	0	
2.99434	9.88228	0	
9.44118	11.0913	0	
9.71916	11.5374	0	
9.22392	11.5484	0	
2.55882	0.908687	0	
2.28084	0.462581	0	
2.77608	0.45159	0	
2.23908	11.5702	0	
1.74876	11.5799	0	
1.97643	11.1608	0	
9.76092	0.429793	0	
10.2512	0.420089	0	
10.0236	0.83921	0	
5.19375	11.559	0	
5	12	0	
4.68792	11.6569	0	
6.80625	0.441027	0	
7	0	0	
7.31208	0.343131	0	
2.19046	10.732	0	
2.46112	11.131	0	
1.97643	11.1608	0	
9.80954	1.26802	0	
9.53888	0.869048	0	
10.0236	0.83921	0	
8.58598	3.65848	0	
8.44235	4.1675	0	
8.19888	3.81679	0	
2.87919	3.72567	0	
3.31445	3.83331	0	
3.08944	4.11489	0	
9.24286	2.53699	0	
9	3	0	
8.88508	2.54051	0	
2.75714	9.46301	0	
3	9	0	
3.11492	9.45949	0	
9.1209	8.27443	0	
8.68564	8.16701	0	
8.91063	7.88528	0	
1	0	0	
1.278	0.451757	0	
0.762263	0.502575	0	
11	12	0	
10.722	11.5482	0	
11.2377	11.4974	0	
9.40428	3.37907	0	
9.48507	2.93089	0	
9.80946	3.2887	0	
2.59572	8.62093	0	
2.51493	9.06911	0	
2.19054	8.7113	0	
0.959013	2.37455	0	
0.482269	2.22476	0	
0.786193	1.92522	0	
11.041	9.62545	0	
11.5177	9.77524	0	
11.2138	10.0748	0	
0.964209	2.93026	0	
1.44039	3.22981	0	
0.975292	3.4186	0	
11.0358	9.06974	0	
10.5596	8.77019	0	
11.0247	8.5814	0	
8.22758	3.38583	0	
8.5	3	0	
8.68235	3.28535	0	
3.75783	8.57977	0	
3.5	9	0	
3.34176	8.68818	0	
9.85475	8.55237	0	
9.95083	8.19353	0	
10.2741	8.34079	0	
2.14526	3.44763	0	
2.04917	3.80648	0	
1.72591	3.65921	0	
9.70416	4.10915	0	
9.2966	3.83515	0	
9.63698	3.67744	0	
2.29584	7.89085	0	
2.7034	8.16485	0	
2.36302	8.32256	0	
0	11	0	
0.436153	10.7318	0	
0.399477	11.2307	0	
12	1	0	
11.5638	1.26819	0	
11.6005	0.769324	0	
9.44197	9.65176	0	
9.43344	10.1858	0	
9.05366	9.87641	0	
2.55803	2.34824	0	
2.56656	1.81417	0	
2.94634	2.12359	0	
4.26051	7.43129	0	
4.51114	7.86845	0	
4.01911	7.855	0	
5.5	0	0	
6	0	0	
5.62881	0.366313	0	
6.5	12	0	
6	12	0	
6.37119	11.6337	0	
10.026	3.70057	0	
9.70416	4.10915	0	
9.63698	3.67744	0	
1.97403	8.29943	0	
2.29584	7.89085	0	
2.36302	8.32256	0	
10.2215	3.29195	0	
10.026	3.70057	0	
9.80946	3.2887	0	
1.77849	8.70805	0	
1.97403	8.29943	0	
2.19054	8.7113	0	
8.58598	3.65848	0	
8.22758	3.38583	0	
8.68235	3.28535	0	
3.41384	8.35508	0	
3.75783	8.57977	0	
3.34176	8.68818	0	
10.2884	1.22873	0	
10.0236	0.83921	0	
10.4854	0.811919	0	
1.71162	10.7713	0	
1.97643	11.1608	0	
1.51456	11.1881	0	
1.04671	8.34282	0	
1.31716	8.73488	0	
0.897422	8.77022	0	
10.9533	3.65718	0	
10.6828	3.26512	0	
11.0945	3.23641	0	
2.87919	3.72567	0	
3.25	3.41166	0	
3.31445	3.83331	0	
9.1209	8.27443	0	
8.75	8.58834	0	
8.68564	8.16701	0	
8	0	0	
8.22156	0.463092	0	
7.74953	0.266937	0	
4	12	0	
3.77844	11.5369	0	
4.25047	11.7331	0	
10.86	2.84902	0	
10.6129	2.44853	0	
11.1304	2.45174	0	
1.14005	9.15098	0	
1.38711	9.55147	0	
0.869637	9.54828	0	
11.2135	5.11832	0	
11.6039	4.76277	0	
11.6509	5.24505	0	
0.786475	6.88168	0	
0.396109	7.2373	0	
0.349079	6.75496	0	
8.65438	9.6747	0	
9.03242	9.44652	0	
9.05366	9.87641	0	
3.34562	2.3253	0	
2.96758	2.55348	0	
2.94634	2.12359	0	
10.6129	2.44853	0	
10.8174	2.02018	0	
11.1304	2.45174	0	
1.38711	9.55147	0	
1.18258	9.97982	0	
0.869637	9.54828	0	
12	6.5	0	
12	7	0	
11.6465	6.75647	0	
8	5.5	0	
8	5	0	
8.36644	5.25519	0	
4	6.5	0	
4	7	0	
3.63351	6.74446	0	
0	5.5	0	
0	5	0	
0.353472	5.24353	0	
8	7	0	
8	6.5	0	
8.36638	6.74524	0	
12	5	0	
12	5.5	0	
11.6509	5.24505	0	
0	7	0	
0	6.5	0	
0.349079	6.75496	0	
4	5	0	
4	5.5	0	
3.63362	5.25476	0	
8	9	0	
7.73869	8.56245	0	
8.25	8.68814	0	
3.91364	11.0266	0	
3.60323	10.6374	0	
4.03551	10.5833	0	
8.08636	0.973355	0	
8.39677	1.36259	0	
7.96449	1.41668	0	
4	3	0	
4.25	3.43301	0	
3.75	3.31238	0	
6.7511	3.69827	0	
6.49935	4.15847	0	
6.24969	3.829	0	
5.74921	3.69805	0	
5.49824	4.15865	0	
5.2481	3.83013	0	
5.74951	8.30149	0	
6.0009	7.84146	0	
6.24831	8.16535	0	
1.27799	11.5811	0	
0.782346	11.519	0	
1.1261	11.2231	0	
10.722	0.418858	0	
11.2177	0.480967	0	
10.8739	0.776924	0	
4.74906	8.29978	0	
5.00018	7.84073	0	
5.24983	8.17022	0	
6.73961	8.27391	0	
7.00182	7.8453	0	
7.29837	8.20566	0	
2.56656	1.81417	0	
2.14262	2.14041	0	
2.11815	1.70743	0	
9.43344	10.1858	0	
9.85738	9.85959	0	
9.88185	10.2926	0	
7.00018	4.16286	0	
6.7511	3.69827	0	
7.24988	3.83233	0	
7.54365	1.55108	0	
7.6301	1.08531	0	
7.96449	1.41668	0	
4.45635	10.4489	0	
4.3699	10.9147	0	
4.03551	10.5833	0	
11.567	7.25	0	
11.2135	6.88168	0	
11.6465	6.75647	0	
0.433013	4.75	0	
0.786475	5.11832	0	
0.353472	5.24353	0	
4	9	0	
3.75783	8.57977	0	
4.30314	8.65409	0	
5.25	8.56699	0	
5	9	0	
4.76044	8.70417	0	
7.74892	3.71537	0	
7.49899	4.15919	0	
7.24988	3.83233	0	
7.2502	3.42595	0	
7.5	3	0	
7.74534	3.30543	0	
8	3	0	
8.22758	3.38583	0	
7.74534	3.30543	0	
1.74876	11.5799	0	
1.27799	11.5811	0	
1.51456	11.1881	0	
10.2512	0.420089	0	
10.722	0.418858	0	
10.4854	0.811919	0	
4.99748	4.1586	0	
4.74592	3.70957	0	
5.2481	3.83013	0	
5	3	0	
5.24964	3.42577	0	
4.75	3.30594	0	
4.25	3.43301	0	
4.5	3	0	
4.75	3.30594	0	
6.5	9	0	
6.25	8.56699	0	
6.73675	8.69327	0	
7.16762	8.62235	0	
7	9	0	
6.73675	8.69327	0	
6.25	8.56699	0	
6	9	0	
5.75	8.69548	0	
5.5	9	0	
5.25	8.56699	0	
5.75	8.69548	0	
7	3	0	
7.2502	3.42595	0	
6.75	3.30438	0	
6.25	3.43301	0	
6.5	3	0	
6.75	3.30438	0	
6	3	0	
6.25	3.43301	0	
5.75	3.30426	0	
5.24964	3.42577	0	
5.5	3	0	
5.75	3.30426	0	
10.6321	9.33007	0	
11.041	9.62545	0	
10.6158	9.75351	0	
1.36793	2.66993	0	
0.959013	2.37455	0	
1.38417	2.24649	0	
0	0	0	
0.5	0	0	
0.366025	0.366025	0	
0	0.5	0	
0	0	0	
0.366025	0.366025	0	
12	11.5	0	
12	12	0	
11.634	11.634	0	
12	12	0	
11.5	12	0	
11.634	11.634	0	
0.433013	4.75	0	
0.819813	4.43168	0	
0.789405	4.77162	0	
11.567	7.25	0	
11.1802	7.56832	0	
11.2106	7.22838	0	
4.74592	3.70957	0	
4.4981	4.15831	0	
4.24938	3.83423	0	
0.5	12	0	
0	12	0	
0.366025	11.634	0	
0	12	0	
0	11.5	0	
0.366025	11.634	0	
11.5	0	0	
12	0	0	
11.634	0.366025	0	
12	0	0	
12	0.5	0	
11.634	0.366025	0	
6.50154	7.84292	0	
6.73961	8.27391	0	
6.24831	8.16535	0	
7.98959	4.15677	0	
7.74892	3.71537	0	
8.19888	3.81679	0	
10.3043	10.1126	0	
10.2398	9.59456	0	
10.6158	9.75351	0	
1.69569	1.8874	0	
1.76019	2.40544	0	
1.38417	2.24649	0	
5.50042	7.84212	0	
5.74951	8.30149	0	
5.24983	8.17022	0	
5.9988	4.15718	0	
5.74921	3.69805	0	
6.24969	3.829	0	
3.25	3.41166	0	
3.5	3	0	
3.75	3.31238	0	
1.97643	11.1608	0	
1.74876	11.5799	0	
1.51456	11.1881	0	
10.0236	0.83921	0	
10.2512	0.420089	0	
10.4854	0.811919	0	
8.75	8.58834	0	
8.5	9	0	
8.25	8.68814	0	
3.99999	4.15303	0	
3.75291	3.71723	0	
4.24938	3.83423	0	
2.62476	3.26864	0	
2.42059	3.73283	0	
2.14526	3.44763	0	
9.37524	8.73136	0	
9.57942	8.26719	0	
9.85475	8.55237	0	
7.99991	7.84737	0	
8.24709	8.28351	0	
7.74823	8.14603	0	
8.69817	10.707	0	
8.21439	10.7045	0	
8.44965	10.3445	0	
3.30183	1.29301	0	
3.78561	1.29551	0	
3.55035	1.6555	0	
3	9	0	
3.375	9.25	0	
3.11492	9.45949	0	
9	3	0	
8.625	2.75	0	
8.88508	2.54051	0	
6	0	0	
6.5	0	0	
6.33528	0.355748	0	
6	12	0	
5.5	12	0	
5.66472	11.6443	0	
1.24328	10.8279	0	
1.71162	10.7713	0	
1.51456	11.1881	0	
10.7567	1.17212	0	
10.2884	1.22873	0	
10.4854	0.811919	0	
7.10292	10.669	0	
7.04429	11.1259	0	
6.74752	10.85	0	
4.89708	1.33103	0	
4.95571	0.874051	0	
5.25248	1.15003	0	
7.6301	1.08531	0	
8.08636	0.973355	0	
7.96449	1.41668	0	
4.3699	10.9147	0	
3.91364	11.0266	0	
4.03551	10.5833	0	
0.433013	9.75	0	
0.869637	9.54828	0	
0.756188	10.0002	0	
11.567	2.25	0	
11.1304	2.45174	0	
11.2438	1.99979	0	
5.53462	0.795065	0	
5.24241	0.422233	0	
5.62881	0.366313	0	
6.46538	11.2049	0	
6.75759	11.5778	0	
6.37119	11.6337	0	
11.5741	4.2515	0	
11.6039	4.76277	0	
11.2126	4.5414	0	
0.425836	7.74892	0	
0.396109	7.2373	0	
0.787256	7.45891	0	
0.816877	7.99907	0	
1.17991	7.67296	0	
1.26301	8.03699	0	
5.25	1.5	0	
4.89708	1.33103	0	
5.25248	1.15003	0	
6.75	10.5	0	
7.10292	10.669	0	
6.74752	10.85	0	
1.31716	8.73488	0	
1.14005	9.15098	0	
0.897422	8.77022	0	
10.6828	3.26512	0	
10.86	2.84902	0	
11.0945	3.23641	0	
10.3201	4.12958	0	
10.4783	3.69212	0	
10.737	3.96301	0	
1.67992	7.87042	0	
1.52172	8.30788	0	
1.26301	8.03699	0	
9.03242	9.44652	0	
9.44197	9.65176	0	
9.05366	9.87641	0	
2.96758	2.55348	0	
2.55803	2.34824	0	
2.94634	2.12359	0	
7.89176	1.82269	0	
7.54365	1.55108	0	
7.96449	1.41668	0	
4.10824	10.1773	0	
4.45635	10.4489	0	
4.03551	10.5833	0	
9.77488	7.87345	0	
9.57942	8.26719	0	
9.34396	7.92164	0	
2.22512	4.12655	0	
2.42059	3.73283	0	
2.65608	4.07841	0	
6.46538	11.2049	0	
6.375	10.75	0	
6.74752	10.85	0	
5.53462	0.795065	0	
5.625	1.25	0	
5.25248	1.15003	0	
3.78561	1.29551	0	
4.03329	0.865952	0	
4.1944	1.24503	0	
8.21439	10.7045	0	
7.96671	11.134	0	
7.8056	10.755	0	
2.14262	2.14041	0	
1.69569	1.8874	0	
2.11815	1.70743	0	
9.85738	9.85959	0	
10.3043	10.1126	0	
9.88185	10.2926	0	
11.1826	4.00198	0	
10.8198	4.32736	0	
10.737	3.96301	0	
0.396868	8.24797	0	
0.425836	7.74892	0	
0.816877	7.99907	0	
9.57942	8.26719	0	
9.1209	8.27443	0	
9.34396	7.92164	0	
2.42059	3.73283	0	
2.87919	3.72567	0	
2.65608	4.07841	0	
8.24265	4.54183	0	
7.98959	4.15677	0	
8.44235	4.1675	0	
9.00566	2.11772	0	
9.24286	2.53699	0	
8.88508	2.54051	0	
2.99434	9.88228	0	
2.75714	9.46301	0	
3.11492	9.45949	0	
8.72322	4.44094	0	
8.24265	4.54183	0	
8.44235	4.1675	0	
10.1667	8.68688	0	
9.85475	8.55237	0	
10.2741	8.34079	0	
1.83334	3.31312	0	
2.14526	3.44763	0	
1.72591	3.65921	0	
1.85045	1.35783	0	
2.33543	1.33737	0	
2.11815	1.70743	0	
10.1495	10.6422	0	
9.66457	10.6626	0	
9.88185	10.2926	0	
2.19377	3.04007	0	
2.62476	3.26864	0	
2.14526	3.44763	0	
9.80623	8.95993	0	
9.37524	8.73136	0	
9.85475	8.55237	0	
11.6032	3.75292	0	
11.5741	4.2515	0	
11.1826	4.00198	0	
7.8056	10.755	0	
7.54471	11.1582	0	
7.39823	10.832	0	
4.1944	1.24503	0	
4.45529	0.841784	0	
4.60177	1.16799	0	
11.5711	2.71322	0	
11.5416	3.23352	0	
11.2395	2.89678	0	
0.428992	9.28697	0	
0.458917	8.76762	0	
0.759003	9.10481	0	
2.42059	3.73283	0	
2.22512	4.12655	0	
2.04917	3.80648	0	
9.57942	8.26719	0	
9.77488	7.87345	0	
9.95083	8.19353	0	
11.2135	6.88168	0	
11.567	7.25	0	
11.2106	7.22838	0	
0.786475	5.11832	0	
0.433013	4.75	0	
0.789405	4.77162	0	
1.71898	4.12223	0	
1.34548	3.74096	0	
1.72591	3.65921	0	
10.281	7.87777	0	
10.6545	8.25904	0	
10.2741	8.34079	0	
0.909244	3.85868	0	
0.423927	3.72025	0	
0.705927	3.5625	0	
11.0908	8.14132	0	
11.5761	8.27975	0	
11.2941	8.4375	0	
10.8174	2.02018	0	
11.1021	1.54877	0	
11.2438	1.99979	0	
1.18258	9.97982	0	
0.897918	10.4512	0	
0.756188	10.0002	0	
11.6039	4.76277	0	
12	5	0	
11.6509	5.24505	0	
0.396109	7.2373	0	
0	7	0	
0.349079	6.75496	0	
0.399477	11.2307	0	
0.436153	10.7318	0	
0.812338	10.9992	0	
11.6005	0.769324	0	
11.5638	1.26819	0	
11.1877	1.00076	0	
12	7	0	
11.567	7.25	0	
11.6465	6.75647	0	
0	5	0	
0.433013	4.75	0	
0.353472	5.24353	0	
9.80946	3.2887	0	
10.026	3.70057	0	
9.63698	3.67744	0	
2.19054	8.7113	0	
1.97403	8.29943	0	
2.36302	8.32256	0	
4.51114	7.86845	0	
4.18949	8.25512	0	
4.01911	7.855	0	
3.34562	2.3253	0	
2.94634	2.12359	0	
3.34946	1.94658	0	
8.65438	9.6747	0	
9.05366	9.87641	0	
8.65054	10.0534	0	
9	3	0	
8.96287	3.49396	0	
8.68235	3.28535	0	
3	9	0	
3.03713	8.50604	0	
3.34176	8.68818	0	
1.14005	9.15098	0	
0.869637	9.54828	0	
0.759003	9.10481	0	
10.86	2.84902	0	
11.1304	2.45174	0	
11.2395	2.89678	0	
5.5	12	0	
5.19375	11.559	0	
5.66472	11.6443	0	
6.5	0	0	
6.80625	0.441027	0	
6.33528	0.355748	0	
10.8817	4.78647	0	
10.8198	4.32736	0	
11.2126	4.5414	0	
1.11832	7.21353	0	
1.17991	7.67296	0	
0.787256	7.45891	0	
11.4266	5.53647	0	
11.2135	5.11832	0	
11.6509	5.24505	0	
8.57342	6.46353	0	
8.78647	6.88168	0	
8.36638	6.74524	0	
8.78647	5.11832	0	
8.57342	5.53647	0	
8.36644	5.25519	0	
11.2135	6.88168	0	
11.4266	6.46353	0	
11.6465	6.75647	0	
3.42658	5.53647	0	
3.21353	5.11832	0	
3.63362	5.25476	0	
0.573415	6.46353	0	
0.786475	6.88168	0	
0.349079	6.75496	0	
3.21353	6.88168	0	
3.42658	6.46353	0	
3.63351	6.74446	0	
0.786475	5.11832	0	
0.573415	5.53647	0	
0.353472	5.24353	0	
9.95771	2.8976	0	
10.2215	3.29195	0	
9.80946	3.2887	0	
2.04229	9.1024	0	
1.77849	8.70805	0	
2.19054	8.7113	0	
9.14321	1.73102	0	
9.41998	2.11935	0	
9.00566	2.11772	0	
2.85679	10.269	0	
2.58002	9.88065	0	
2.99434	9.88228	0	
6.40509	0.756312	0	
5.98333	0.546775	0	
6.33528	0.355748	0	
5.59491	11.2437	0	
6.01667	11.4532	0	
5.66472	11.6443	0	
5.19375	11.559	0	
5.59491	11.2437	0	
5.66472	11.6443	0	
6.80625	0.441027	0	
6.40509	0.756312	0	
6.33528	0.355748	0	
8.5	3	0	
9	3	0	
8.68235	3.28535	0	
3.5	9	0	
3	9	0	
3.34176	8.68818	0	
4.03551	10.5833	0	
3.60323	10.6374	0	
3.76211	10.3046	0	
7.96449	1.41668	0	
8.39677	1.36259	0	
8.23789	1.69545	0	
3.60323	10.6374	0	
3.34457	10.221	0	
3.76211	10.3046	0	
8.39677	1.36259	0	
8.65543	1.77905	0	
8.23789	1.69545	0	
8.65543	1.77905	0	
8.27901	2.05024	0	
8.23789	1.69545	0	
3.34457	10.221	0	
3.72099	9.94976	0	
3.76211	10.3046	0	
0.432872	10.2502	0	
0.433013	9.75	0	
0.756188	10.0002	0	
11.5671	1.74976	0	
11.567	2.25	0	
11.2438	1.99979	0	
2.42059	3.73283	0	
2.04917	3.80648	0	
2.14526	3.44763	0	
9.57942	8.26719	0	
9.95083	8.19353	0	
9.85475	8.55237	0	
1.04671	8.34282	0	
0.816877	7.99907	0	
1.26301	8.03699	0	
10.2398	9.59456	0	
10.6321	9.33007	0	
10.6158	9.75351	0	
1.76019	2.40544	0	
1.36793	2.66993	0	
1.38417	2.24649	0	
10.9533	3.65718	0	
11.1826	4.00198	0	
10.737	3.96301	0	
5.98333	0.546775	0	
5.53462	0.795065	0	
5.62881	0.366313	0	
6.01667	11.4532	0	
6.46538	11.2049	0	
6.37119	11.6337	0	
0.869637	9.54828	0	
1.18258	9.97982	0	
0.756188	10.0002	0	
11.1304	2.45174	0	
10.8174	2.02018	0	
11.2438	1.99979	0	
5	12	0	
4.5	12	0	
4.68792	11.6569	0	
7	0	0	
7.5	0	0	
7.31208	0.343131	0	
11.5416	3.23352	0	
11.0945	3.23641	0	
11.2395	2.89678	0	
0.458917	8.76762	0	
0.897422	8.77022	0	
0.759003	9.10481	0	
5.625	1.25	0	
5.25	1.5	0	
5.25248	1.15003	0	
6.375	10.75	0	
6.75	10.5	0	
6.74752	10.85	0	
3.5	6	0	
4	6	0	
3.72654	6.27346	0	
0.5	6	0	
0	6	0	
0.273457	5.72654	0	
4	6	0	
3.5	6	0	
3.72654	5.72654	0	
0	6	0	
0.5	6	0	
0.273457	6.27346	0	
11.5	6	0	
12	6	0	
11.7265	6.27346	0	
8.5	6	0	
8	6	0	
8.27346	5.72654	0	
8	6	0	
8.5	6	0	
8.27346	6.27346	0	
12	6	0	
11.5	6	0	
11.7265	5.72654	0	
5.24241	0.422233	0	
5.5	0	0	
5.62881	0.366313	0	
6.75759	11.5778	0	
6.5	12	0	
6.37119	11.6337	0	
3.03713	8.50604	0	
3.15548	8.01766	0	
3.41384	8.35508	0	
8.96287	3.49396	0	
8.85119	3.98401	0	
8.58598	3.65848	0	
11.5416	3.23352	0	
11.6032	3.75292	0	
11.2888	3.53211	0	
2.94634	2.12359	0	
3.07339	1.72552	0	
3.34946	1.94658	0	
9.05366	9.87641	0	
8.92661	10.2745	0	
8.65054	10.0534	0	
8.92661	10.2745	0	
8.44965	10.3445	0	
8.65054	10.0534	0	
3.07339	1.72552	0	
3.55035	1.6555	0	
3.34946	1.94658	0	
2.04917	3.80648	0	
1.71898	4.12223	0	
1.72591	3.65921	0	
9.95083	8.19353	0	
10.281	7.87777	0	
10.2741	8.34079	0	
11.5177	9.77524	0	
11.5708	10.2786	0	
11.2138	10.0748	0	
0.482269	2.22476	0	
0.429197	1.72138	0	
0.786193	1.92522	0	
4.68792	11.6569	0	
4.5	12	0	
4.25047	11.7331	0	
7.31208	0.343131	0	
7.5	0	0	
7.74953	0.266937	0	
1.09508	0.931645	0	
0.865981	1.4238	0	
0.703305	0.973132	0	
10.9049	11.0684	0	
11.134	10.5762	0	
11.2967	11.0269	0	
11.5	12	0	
11.2377	11.4974	0	
11.634	11.634	0	
0.5	0	0	
0.762263	0.502575	0	
0.366025	0.366025	0	
3.5	3	0	
4	3	0	
3.75	3.31238	0	
0	11.5	0	
0.399477	11.2307	0	
0.366025	11.634	0	
12	0.5	0	
11.6005	0.769324	0	
11.634	0.366025	0	
8.5	9	0	
8	9	0	
8.25	8.68814	0	
7.89176	1.82269	0	
7.96449	1.41668	0	
8.23789	1.69545	0	
4.10824	10.1773	0	
4.03551	10.5833	0	
3.76211	10.3046	0	
3.27659	4.48265	0	
3.74662	4.53644	0	
3.45852	4.84439	0	
8.72348	7.51752	0	
8.25337	7.46374	0	
8.54148	7.15561	0	
9.2966	3.83515	0	
9.40428	3.37907	0	
9.63698	3.67744	0	
2.7034	8.16485	0	
2.59572	8.62093	0	
2.36302	8.32256	0	
0.458917	8.76762	0	
0.396868	8.24797	0	
0.717408	8.45313	0	
7.49899	4.15919	0	
7.00018	4.16286	0	
7.24988	3.83233	0	
11.1826	4.00198	0	
10.9533	3.65718	0	
11.2888	3.53211	0	
7.50202	7.86487	0	
7.99991	7.84737	0	
7.74823	8.14603	0	
4.4981	4.15831	0	
3.99999	4.15303	0	
4.24938	3.83423	0	
7.5	3	0	
8	3	0	
7.74534	3.30543	0	
7.50202	7.86487	0	
7.74823	8.14603	0	
7.29837	8.20566	0	
4.5	9	0	
4.30314	8.65409	0	
4.76044	8.70417	0	
4.5	9	0	
4	9	0	
4.30314	8.65409	0	
4.5	3	0	
5	3	0	
4.75	3.30594	0	
5	9	0	
4.5	9	0	
4.76044	8.70417	0	
0.414393	1.25	0	
0.37881	0.75764	0	
0.703305	0.973132	0	
11.5856	10.75	0	
11.6212	11.2424	0	
11.2967	11.0269	0	
7.00182	7.8453	0	
7.50202	7.86487	0	
7.29837	8.20566	0	
0.865981	1.4238	0	
0.414393	1.25	0	
0.703305	0.973132	0	
11.134	10.5762	0	
11.5856	10.75	0	
11.2967	11.0269	0	
7	9	0	
6.5	9	0	
6.73675	8.69327	0	
5.00018	7.84073	0	
5.50042	7.84212	0	
5.24983	8.17022	0	
6	9	0	
5.5	9	0	
5.75	8.69548	0	
6.0009	7.84146	0	
6.50154	7.84292	0	
6.24831	8.16535	0	
5.49824	4.15865	0	
4.99748	4.1586	0	
5.2481	3.83013	0	
6.5	3	0	
7	3	0	
6.75	3.30438	0	
5.5	3	0	
6	3	0	
5.75	3.30426	0	
6.49935	4.15847	0	
5.9988	4.15718	0	
6.24969	3.829	0	
0.816877	7.99907	0	
1.04671	8.34282	0	
0.717408	8.45313	0	
0.37881	0.75764	0	
0	0.5	0	
0.366025	0.366025	0	
11.6212	11.2424	0	
12	11.5	0	
11.634	11.634	0	
0.782346	11.519	0	
0.5	12	0	
0.366025	11.634	0	
11.2177	0.480967	0	
11.5	0	0	
11.634	0.366025	0	
11.6032	3.75292	0	
11.1826	4.00198	0	
11.2888	3.53211	0	
4	6	0	
4	6.5	0	
3.72654	6.27346	0	
0	6	0	
0	5.5	0	
0.273457	5.72654	0	
12	6	0	
12	6.5	0	
11.7265	6.27346	0	
8	6	0	
8	5.5	0	
8.27346	5.72654	0	
4	5.5	0	
4	6	0	
3.72654	5.72654	0	
0	6.5	0	
0	6	0	
0.273457	6.27346	0	
8	6.5	0	
8	6	0	
8.27346	6.27346	0	
12	5.5	0	
12	6	0	
11.7265	5.72654	0	
10.4783	3.69212	0	
10.9533	3.65718	0	
10.737	3.96301	0	
1.52172	8.30788	0	
1.04671	8.34282	0	
1.26301	8.03699	0	
0.423927	3.72025	0	
0.515247	3.25249	0	
0.705927	3.5625	0	
11.5761	8.27975	0	
11.4848	8.74751	0	
11.2941	8.4375	0	
8.2972	9.92457	0	
8.65438	9.6747	0	
8.65054	10.0534	0	
3.7028	2.07543	0	
3.34562	2.3253	0	
3.34946	1.94658	0	
0.396868	8.24797	0	
0.816877	7.99907	0	
0.717408	8.45313	0	
1.83334	3.31312	0	
2.19377	3.04007	0	
2.14526	3.44763	0	
10.1667	8.68688	0	
9.80623	8.95993	0	
9.85475	8.55237	0	
0.975292	3.4186	0	
0.909244	3.85868	0	
0.705927	3.5625	0	
11.0247	8.5814	0	
11.0908	8.14132	0	
11.2941	8.4375	0	
4.5	12	0	
4	12	0	
4.25047	11.7331	0	
7.5	0	0	
8	0	0	
7.74953	0.266937	0	
8.24265	4.54183	0	
8.72322	4.44094	0	
8.54196	4.848	0	
4.01911	7.855	0	
4.18949	8.25512	0	
3.80213	8.18478	0	
3.42658	6.46353	0	
3.5	6	0	
3.72654	6.27346	0	
0.573415	5.53647	0	
0.5	6	0	
0.273457	5.72654	0	
8.57342	5.53647	0	
8.5	6	0	
8.27346	5.72654	0	
11.4266	6.46353	0	
11.5	6	0	
11.7265	6.27346	0	
3.5	6	0	
3.42658	5.53647	0	
3.72654	5.72654	0	
0.5	6	0	
0.573415	6.46353	0	
0.273457	6.27346	0	
11.5	6	0	
11.4266	5.53647	0	
11.7265	5.72654	0	
8.5	6	0	
8.57342	6.46353	0	
8.27346	6.27346	0	
0.762263	0.502575	0	
0.37881	0.75764	0	
0.366025	0.366025	0	
11.2377	11.4974	0	
11.6212	11.2424	0	
11.634	11.634	0	
8.64401	2.29747	0	
9.00566	2.11772	0	
8.88508	2.54051	0	
3.35599	9.70253	0	
2.99434	9.88228	0	
3.11492	9.45949	0	
1.11832	4.78647	0	
0.786475	5.11832	0	
0.789405	4.77162	0	
10.8817	7.21353	0	
11.2135	6.88168	0	
11.2106	7.22838	0	
0.399477	11.2307	0	
0.782346	11.519	0	
0.366025	11.634	0	
11.6005	0.769324	0	
11.2177	0.480967	0	
11.634	0.366025	0	
9.40428	3.37907	0	
9.80946	3.2887	0	
9.63698	3.67744	0	
2.59572	8.62093	0	
2.19054	8.7113	0	
2.36302	8.32256	0	
8.27901	2.05024	0	
7.89176	1.82269	0	
8.23789	1.69545	0	
3.72099	9.94976	0	
4.10824	10.1773	0	
3.76211	10.3046	0	
3.375	9.25	0	
3.35599	9.70253	0	
3.11492	9.45949	0	
8.625	2.75	0	
8.64401	2.29747	0	
8.88508	2.54051	0	
3.27659	4.48265	0	
2.88257	4.41662	0	
3.08944	4.11489	0	
8.72348	7.51752	0	
9.1175	7.58346	0	
8.91063	7.88528	0	
4.89708	1.33103	0	
4.50639	1.54804	0	
4.60177	1.16799	0	
7.10292	10.669	0	
7.49361	10.452	0	
7.39823	10.832	0	
10.9533	3.65718	0	
11.0945	3.23641	0	
11.2888	3.53211	0	
1.04671	8.34282	0	
0.897422	8.77022	0	
0.717408	8.45313	0	
8.44965	10.3445	0	
8.2972	9.92457	0	
8.65054	10.0534	0	
3.55035	1.6555	0	
3.7028	2.07543	0	
3.34946	1.94658	0	
3.52775	4.15271	0	
3.27659	4.48265	0	
3.08944	4.11489	0	
8.47232	7.84764	0	
8.72348	7.51752	0	
8.91063	7.88528	0	
1.24328	10.8279	0	
1.51456	11.1881	0	
1.1261	11.2231	0	
10.7567	1.17212	0	
10.4854	0.811919	0	
10.8739	0.776924	0	
0.812338	10.9992	0	
1.24328	10.8279	0	
1.1261	11.2231	0	
11.1877	1.00076	0	
10.7567	1.17212	0	
10.8739	0.776924	0	
3.77516	7.48951	0	
3.28977	7.55171	0	
3.45765	7.14906	0	
1.51456	11.1881	0	
1.27799	11.5811	0	
1.1261	11.2231	0	
10.4854	0.811919	0	
10.722	0.418858	0	
10.8739	0.776924	0	
8.44235	4.1675	0	
7.98959	4.15677	0	
8.19888	3.81679	0	
0.819813	4.43168	0	
1.11832	4.78647	0	
0.789405	4.77162	0	
11.1802	7.56832	0	
10.8817	7.21353	0	
11.2106	7.22838	0	
8.96287	3.49396	0	
8.58598	3.65848	0	
8.68235	3.28535	0	
3.03713	8.50604	0	
3.41384	8.35508	0	
3.34176	8.68818	0	
11.0945	3.23641	0	
11.5416	3.23352	0	
11.2888	3.53211	0	
0.897422	8.77022	0	
0.458917	8.76762	0	
0.717408	8.45313	0	
3.75783	8.57977	0	
3.41384	8.35508	0	
3.80213	8.18478	0	
3.57624	7.90086	0	
4.01911	7.855	0	
3.80213	8.18478	0	
0.897422	8.77022	0	
1.14005	9.15098	0	
0.759003	9.10481	0	
11.0945	3.23641	0	
10.86	2.84902	0	
11.2395	2.89678	0	
3.63362	5.25476	0	
3.21353	5.11832	0	
3.45852	4.84439	0	
8.36638	6.74524	0	
8.78647	6.88168	0	
8.54148	7.15561	0	
4.50639	1.54804	0	
4.1944	1.24503	0	
4.60177	1.16799	0	
7.49361	10.452	0	
7.8056	10.755	0	
7.39823	10.832	0	
8.78647	5.11832	0	
8.36644	5.25519	0	
8.54196	4.848	0	
3.21353	6.88168	0	
3.63351	6.74446	0	
3.45765	7.14906	0	
8.22758	3.38583	0	
8.58598	3.65848	0	
8.19888	3.81679	0	
3.31445	3.83331	0	
3.52775	4.15271	0	
3.08944	4.11489	0	
8.68564	8.16701	0	
8.47232	7.84764	0	
8.91063	7.88528	0	
CELLS 1168 4672
3	0	1	2	
3	3	4	5	
3	6	7	8	
3	9	10	11	
3	12	13	14	
3	15	16	17	
3	18	19	20	
3	21	22	23	
3	24	25	26	
3	27	28	29	
3	30	31	32	
3	33	34	35	
3	36	37	38	
3	39	40	41	
3	42	43	44	
3	45	46	47	
3	48	49	50	
3	51	52	53	
3	54	55	56	
3	57	58	59	
3	60	61	62	
3	63	64	65	
3	66	67	68	
3	69	70	71	
3	72	73	74	
3	75	76	77	
3	78	79	80	
3	81	82	83	
3	84	85	86	
3	87	88	89	
3	90	91	92	
3	93	94	95	
3	96	97	98	
3	99	100	101	
3	102	103	104	
3	105	106	107	
3	108	109	110	
3	111	112	113	
3	114	115	116	
3	117	118	119	
3	120	121	122	
3	123	124	125	
3	126	127	128	
3	129	130	131	
3	132	133	134	
3	135	136	137	
3	138	139	140	
3	141	142	143	
3	144	145	146	
3	147	148	149	
3	150	151	152	
3	153	154	155	
3	156	157	158	
3	159	160	161	
3	162	163	164	
3	165	166	167	
3	168	169	170	
3	171	172	173	
3	174	175	176	
3	177	178	179	
3	180	181	182	
3	183	184	185	
3	186	187	188	
3	189	190	191	
3	192	193	194	
3	195	196	197	
3	198	199	200	
3	201	202	203	
3	204	205	206	
3	207	208	209	
3	210	211	212	
3	213	214	215	
3	216	217	218	
3	219	220	221	
3	222	223	224	
3	225	226	227	
3	228	229	230	
3	231	232	233	
3	234	235	236	
3	237	238	239	
3	240	241	242	
3	243	244	245	
3	246	247	248	
3	249	250	251	
3	252	253	254	
3	255	256	257	
3	258	259	260	
3	261	262	263	
3	264	265	266	
3	267	268	269	
3	270	271	272	
3	273	274	275	
3	276	277	278	
3	279	280	281	
3	282	283	284	
3	285	286	287	
3	288	289	290	
3	291	292	293	
3	294	295	296	
3	297	298	299	
3	300	301	302	
3	303	304	305	
3	306	307	308	
3	309	310	311	
3	312	313	314	
3	315	316	317	
3	318	319	320	
3	321	322	323	
3	324	325	326	
3	327	328	329	
3	330	331	332	
3	333	334	335	
3	336	337	338	
3	339	340	341	
3	342	343	344	
3	345	346	347	
3	348	349	350	
3	351	352	353	
3	354	355	356	
3	357	358	359	
3	360	361	362	
3	363	364	365	
3	366	367	368	
3	369	370	371	
3	372	373	374	
3	375	376	377	
3	378	379	380	
3	381	382	383	
3	384	385	386	
3	387	388	389	
3	390	391	392	
3	393	394	395	
3	396	397	398	
3	399	400	401	
3	402	403	404	
3	405	406	407	
3	408	409	410	
3	411	412	413	
3	414	415	416	
3	417	418	419	
3	420	421	422	
3	423	424	425	
3	426	427	428	
3	429	430	431	
3	432	433	434	
3	435	436	437	
3	438	439	440	
3	441	442	443	
3	444	445	446	
3	447	448	449	
3	450	451	452	
3	453	454	455	
3	456	457	458	
3	459	460	461	
3	462	463	464	
3	465	466	467	
3	468	469	470	
3	471	472	473	
3	474	475	476	
3	477	478	479	
3	480	481	482	
3	483	484	485	
3	486	487	488	
3	489	490	491	
3	492	493	494	
3	495	496	497	
3	498	499	500	
3	501	502	503	
3	504	505	506	
3	507	508	509	
3	510	511	512	
3	513	514	515	
3	516	517	518	
3	519	520	521	
3	522	523	524	
3	525	526	527	
3	528	529	530	
3	531	532	533	
3	534	535	536	
3	537	538	539	
3	540	541	542	
3	543	544	545	
3	546	547	548	
3	549	550	551	
3	552	553	554	
3	555	556	557	
3	558	559	560	
3	561	562	563	
3	564	565	566	
3	567	568	569	
3	570	571	572	
3	573	574	575	
3	576	577	578	
3	579	580	581	
3	582	583	584	
3	585	586	587	
3	588	589	590	
3	591	592	593	
3	594	595	596	
3	597	598	599	
3	600	601	602	
3	603	604	605	
3	606	607	608	
3	609	610	611	
3	612	613	614	
3	615	616	617	
3	618	619	620	
3	621	622	623	
3	624	625	626	
3	627	628	629	
3	630	631	632	
3	633	634	635	
3	636	637	638	
3	639	640	641	
3	642	643	644	
3	645	646	647	
3	648	649	650	
3	651	652	653	
3	654	655	656	
3	657	658	659	
3	660	661	662	
3	663	664	665	
3	666	667	668	
3	669	670	671	
3	672	673	674	
3	675	676	677	
3	678	679	680	
3	681	682	683	
3	684	685	686	
3	687	688	689	
3	690	691	692	
3	693	694	695	
3	696	697	698	
3	699	700	701	
3	702	703	704	
3	705	706	707	
3	708	709	710	
3	711	712	713	
3	714	715	716	
3	717	718	719	
3	720	721	722	
3	723	724	725	
3	726	727	728	
3	729	730	731	
3	732	733	734	
3	735	736	737	
3	738	739	740	
3	741	742	743	
3	744	745	746	
3	747	748	749	
3	750	751	752	
3	753	754	755	
3	756	757	758	
3	759	760	761	
3	762	763	764	
3	765	766	767	
3	768	769	770	
3	771	772	773	
3	774	775	776	
3	777	778	779	
3	780	781	782	
3	783	784	785	
3	786	787	788	
3	789	790	791	
3	792	793	794	
3	795	796	797	
3	798	799	800	
3	801	802	803	
3	804	805	806	
3	807	808	809	
3	810	811	812	
3	813	814	815	
3	816	817	818	
3	819	820	821	
3	822	823	824	
3	825	826	827	
3	828	829	830	
3	831	832	833	
3	834	835	836	
3	837	838	839	
3	840	841	842	
3	843	844	845	
3	846	847	848	
3	849	850	851	
3	852	853	854	
3	855	856	857	
3	858	859	860	
3	861	862	863	
3	864	865	866	
3	867	868	869	
3	870	871	872	
3	873	874	875	
3	876	877	878	
3	879	880	881	
3	882	883	884	
3	885	886	887	
3	888	889	890	
3	891	892	893	
3	894	895	896	
3	897	898	899	
3	900	901	902	
3	903	904	905	
3	906	907	908	
3	909	910	911	
3	912	913	914	
3	915	916	917	
3	918	919	920	
3	921	922	923	
3	924	925	926	
3	927	928	929	
3	930	931	932	
3	933	934	935	
3	936	937	938	
3	939	940	941	
3	942	943	944	
3	945	946	947	
3	948	949	950	
3	951	952	953	
3	954	955	956	
3	957	958	959	
3	960	961	962	
3	963	964	965	
3	966	967	968	
3	969	970	971	
3	972	973	974	
3	975	976	977	
3	978	979	980	
3	981	982	983	
3	984	985	986	
3	987	988	989	
3	990	991	992	
3	993	994	995	
3	996	997	998	
3	999	1000	1001	
3	1002	1003	1004	
3	1005	1006	1007	
3	1008	1009	1010	
3	1011	1012	1013	
3	1014	1015	1016	
3	1017	1018	1019	
3	1020	1021	1022	
3	1023	1024	1025	
3	1026	1027	1028	
3	1029	1030	1031	
3	1032	1033	1034	
3	1035	1036	1037	
3	1038	1039	1040	
3	1041	1042	1043	
3	1044	1045	1046	
3	1047	1048	1049	
3	1050	1051	1052	
3	1053	1054	1055	
3	1056	1057	1058	
3	1059	1060	1061	
3	1062	1063	1064	
3	1065	1066	1067	
3	1068	1069	1070	
3	1071	1072	1073	
3	1074	1075	1076	
3	1077	1078	1079	
3	1080	1081	1082	
3	1083	1084	1085	
3	1086	1087	1088	
3	1089	1090	1091	
3	1092	1093	1094	
3	1095	1096	1097	
3	1098	1099	1100	
3	1101	1102	1103	
3	1104	1105	1106	
3	1107	1108	1109	
3	1110	1111	1112	
3	1113	1114	1115	
3	1116	1117	1118	
3	1119	1120	1121	
3	1122	1123	1124	
3	1125	1126	1127	
3	1128	1129	1130	
3	1131	1132	1133	
3	1134	1135	1136	
3	1137	1138	1139	
3	1140	1141	1142	
3	1143	1144	1145	
3	1146	1147	1148	
3	1149	1150	1151	
3	1152	1153	1154	
3	1155	1156	1157	
3	1158	1159	1160	
3	1161	1162	1163	
3	1164	1165	1166	
3	1167	1168	1169	
3	1170	1171	1172	
3	1173	1174	1175	
3	1176	1177	1178	
3	1179	1180	1181	
3	1182	1183	1184	
3	1185	1186	1187	
3	1188	1189	1190	
3	1191	1192	1193	
3	1194	1195	1196	
3	1197	1198	1199	
3	1200	1201	1202	
3	1203	1204	1205	
3	1206	1207	1208	
3	1209	1210	1211	
3	1212	1213	1214	
3	1215	1216	1217	
3	1218	1219	1220	
3	1221	1222	1223	
3	1224	1225	1226	
3	1227	1228	1229	
3	1230	1231	1232	
3	1233	1234	1235	
3	1236	1237	1238	
3	1239	1240	1241	
3	1242	1243	1244	
3	1245	1246	1247	
3	1248	1249	1250	
3	1251	1252	1253	
3	1254	1255	1256	
3	1257	1258	1259	
3	1260	1261	1262	
3	1263	1264	1265	
3	1266	1267	1268	
3	1269	1270	1271	
3	1272	1273	1274	
3	1275	1276	1277	
3	1278	1279	1280	
3	1281	1282	1283	
3	1284	1285	1286	
3	1287	1288	1289	
3	1290	1291	1292	
3	1293	1294	1295	
3	1296	1297	1298	
3	1299	1300	1301	
3	1302	1303	1304	
3	1305	1306	1307	
3	1308	1309	1310	
3	1311	1312	1313	
3	1314	1315	1316	
3	1317	1318	1319	
3	1320	1321	1322	
3	1323	1324	1325	
3	1326	1327	1328	
3	1329	1330	1331	
3	1332	1333	1334	
3	1335	1336	1337	
3	1338	1339	1340	
3	1341	1342	1343	
3	1344	1345	1346	
3	1347	1348	1349	
3	1350	1351	1352	
3	1353	1354	1355	
3	1356	1357	1358	
3	1359	1360	1361	
3	1362	1363	1364	
3	1365	1366	1367	
3	1368	1369	1370	
3	1371	1372	1373	
3	1374	1375	1376	
3	1377	1378	1379	
3	1380	1381	1382	
3	1383	1384	1385	
3	1386	1387	1388	
3	1389	1390	1391	
3	1392	1393	1394	
3	1395	1396	1397	
3	1398	1399	1400	
3	1401	1402	1403	
3	1404	1405	1406	
3	1407	1408	1409	
3	1410	1411	1412	
3	1413	1414	1415	
3	1416	1417	1418	
3	1419	1420	1421	
3	1422	1423	1424	
3	1425	1426	1427	
3	1428	1429	1430	
3	1431	1432	1433	
3	1434	1435	1436	
3	1437	1438	1439	
3	1440	1441	1442	
3	1443	1444	1445	
3	1446	1447	1448	
3	1449	1450	1451	
3	1452	1453	1454	
3	1455	1456	1457	
3	1458	1459	1460	
3	1461	1462	1463	
3	1464	1465	1466	
3	1467	1468	1469	
3	1470	1471	1472	
3	1473	1474	1475	
3	1476	1477	1478	
3	1479	1480	1481	
3	1482	1483	1484	
3	1485	1486	1487	
3	1488	1489	1490	
3	1491	1492	1493	
3	1494	1495	1496	
3	1497	1498	1499	
3	1500	1501	1502	
3	1503	1504	1505	
3	1506	1507	1508	
3	1509	1510	1511	
3	1512	1513	1514	
3	1515	1516	1517	
3	1518	1519	1520	
3	1521	1522	1523	
3	1524	1525	1526	
3	1527	1528	1529	
3	1530	1531	1532	
3	1533	1534	1535	
3	1536	1537	1538	
3	1539	1540	1541	
3	1542	1543	1544	
3	1545	1546	1547	
3	1548	1549	1550	
3	1551	1552	1553	
3	1554	1555	1556	
3	1557	1558	1559	
3	1560	1561	1562	
3	1563	1564	1565	
3	1566	1567	1568	
3	1569	1570	1571	
3	1572	1573	1574	
3	1575	1576	1577	
3	1578	1579	1580	
3	1581	1582	1583	
3	1584	1585	1586	
3	1587	1588	1589	
3	1590	1591	1592	
3	1593	1594	1595	
3	1596	1597	1598	
3	1599	1600	1601	
3	1602	1603	1604	
3	1605	1606	1607	
3	1608	1609	1610	
3	1611	1612	1613	
3	1614	1615	1616	
3	1617	1618	1619	
3	1620	1621	1622	
3	1623	1624	1625	
3	1626	1627	1628	
3	1629	1630	1631	
3	1632	1633	1634	
3	1635	1636	1637	
3	1638	1639	1640	
3	1641	1642	1643	
3	1644	1645	1646	
3	1647	1648	1649	
3	1650	1651	1652	
3	1653	1654	1655	
3	1656	1657	1658	
3	1659	1660	1661	
3	1662	1663	1664	
3	1665	1666	1667	
3	1668	1669	1670	
3	1671	1672	1673	
3	1674	1675	1676	
3	1677	1678	1679	
3	1680	1681	1682	
3	1683	1684	1685	
3	1686	1687	1688	
3	1689	1690	1691	
3	1692	1693	1694	
3	1695	1696	1697	
3	1698	1699	1700	
3	1701	1702	1703	
3	1704	1705	1706	
3	1707	1708	1709	
3	1710	1711	1712	
3	1713	1714	1715	
3	1716	1717	1718	
3	1719	1720	1721	
3	1722	1723	1724	
3	1725	1726	1727	
3	1728	1729	1730	
3	1731	1732	1733	
3	1734	1735	1736	
3	1737	1738	1739	
3	1740	1741	1742	
3	1743	1744	1745	
3	1746	1747	1748	
3	1749	1750	1751	
3	1752	1753	1754	
3	1755	1756	1757	
3	1758	1759	1760	
3	1761	1762	1763	
3	1764	1765	1766	
3	1767	1768	1769	
3	1770	1771	1772	
3	1773	1774	1775	
3	1776	1777	1778	
3	1779	1780	1781	
3	1782	1783	1784	
3	1785	1786	1787	
3	1788	1789	1790	
3	1791	1792	1793	
3	1794	1795	1796	
3	1797	1798	1799	
3	1800	1801	1802	
3	1803	1804	1805	
3	1806	1807	1808	
3	1809	1810	1811	
3	1812	1813	1814	
3	1815	1816	1817	
3	1818	1819	1820	
3	1821	1822	1823	
3	1824	1825	1826	
3	1827	1828	1829	
3	1830	1831	1832	
3	1833	1834	1835	
3	1836	1837	1838	
3	1839	1840	1841	
3	1842	1843	1844	
3	1845	1846	1847	
3	1848	1849	1850	
3	1851	1852	1853	
3	1854	1855	1856	
3	1857	1858	1859	
3	1860	1861	1862	
3	1863	1864	1865	
3	1866	1867	1868	
3	1869	1870	1871	
3	1872	1873	1874	
3	1875	1876	1877	
3	1878	1879	1880	
3	1881	1882	1883	
3	1884	1885	1886	
3	1887	1888	1889	
3	1890	1891	1892	
3	1893	1894	1895	
3	1896	1897	1898	
3	1899	1900	1901	
3	1902	1903	1904	
3	1905	1906	1907	
3	1908	1909	1910	
3	1911	1912	1913	
3	1914	1915	1916	
3	1917	1918	1919	
3	1920	1921	1922	
3	1923	1924	1925	
3	1926	1927	1928	
3	1929	1930	1931	
3	1932	1933	1934	
3	1935	1936	1937	
3	1938	1939	1940	
3	1941	1942	1943	
3	1944	1945	1946	
3	1947	1948	1949	
3	1950	1951	1952	
3	1953	1954	1955	
3	1956	1957	1958	
3	1959	1960	1961	
3	1962	1963	1964	
3	1965	1966	1967	
3	1968	1969	1970	
3	1971	1972	1973	
3	1974	1975	1976	
3	1977	1978	1979	
3	1980	1981	1982	
3	1983	1984	1985	
3	1986	1987	1988	
3	1989	1990	1991	
3	1992	1993	1994	
3	1995	1996	1997	
3	1998	1999	2000	
3	2001	2002	2003	
3	2004	2005	2006	
3	2007	2008	2009	
3	2010	2011	2012	
3	2013	2014	2015	
3	2016	2017	2018	
3	2019	2020	2021	
3	2022	2023	2024	
3	2025	2026	2027	
3	2028	2029	2030	
3	2031	2032	2033	
3	2034	2035	2036	
3	2037	2038	2039	
3	2040	2041	2042	
3	2043	2044	2045	
3	2046	2047	2048	
3	2049	2050	2051	
3	2052	2053	2054	
3	2055	2056	2057	
3	2058	2059	2060	
3	2061	2062	2063	
3	2064	2065	2066	
3	2067	2068	2069	
3	2070	2071	2072	
3	2073	2074	2075	
3	2076	2077	2078	
3	2079	2080	2081	
3	2082	2083	2084	
3	2085	2086	2087	
3	2088	2089	2090	
3	2091	2092	2093	
3	2094	2095	2096	
3	2097	2098	2099	
3	2100	2101	2102	
3	2103	2104	2105	
3	2106	2107	2108	
3	2109	2110	2111	
3	2112	2113	2114	
3	2115	2116	2117	
3	2118	2119	2120	
3	2121	2122	2123	
3	2124	2125	2126	
3	2127	2128	2129	
3	2130	2131	2132	
3	2133	2134	2135	
3	2136	2137	2138	
3	2139	2140	2141	
3	2142	2143	2144	
3	2145	2146	2147	
3	2148	2149	2150	
3	2151	2152	2153	
3	2154	2155	2156	
3	2157	2158	2159	
3	2160	2161	2162	
3	2163	2164	2165	
3	2166	2167	2168	
3	2169	2170	2171	
3	2172	2173	2174	
3	2175	2176	2177	
3	2178	2179	2180	
3	2181	2182	2183	
3	2184	2185	2186	
3	2187	2188	2189	
3	2190	2191	2192	
3	2193	2194	2195	
3	2196	2197	2198	
3	2199	2200	2201	
3	2202	2203	2204	
3	2205	2206	2207	
3	2208	2209	2210	
3	2211	2212	2213	
3	2214	2215	2216	
3	2217	2218	2219	
3	2220	2221	2222	
3	2223	2224	2225	
3	2226	2227	2228	
3	2229	2230	2231	
3	2232	2233	2234	
3	2235	2236	2237	
3	2238	2239	2240	
3	2241	2242	2243	
3	2244	2245	2246	
3	2247	2248	2249	
3	2250	2251	2252	
3	2253	2254	2255	
3	2256	2257	2258	
3	2259	2260	2261	
3	2262	2263	2264	
3	2265	2266	2267	
3	2268	2269	2270	
3	2271	2272	2273	
3	2274	2275	2276	
3	2277	2278	2279	
3	2280	2281	2282	
3	2283	2284	2285	
3	2286	2287	2288	
3	2289	2290	2291	
3	2292	2293	2294	
3	2295	2296	2297	
3	2298	2299	2300	
3	2301	2302	2303	
3	2304	2305	2306	
3	2307	2308	2309	
3	2310	2311	2312	
3	2313	2314	2315	
3	2316	2317	2318	
3	2319	2320	2321	
3	2322	2323	2324	
3	2325	2326	2327	
3	2328	2329	2330	
3	2331	2332	2333	
3	2334	2335	2336	
3	2337	2338	2339	
3	2340	2341	2342	
3	2343	2344	2345	
3	2346	2347	2348	
3	2349	2350	2351	
3	2352	2353	2354	
3	2355	2356	2357	
3	2358	2359	2360	
3	2361	2362	2363	
3	2364	2365	2366	
3	2367	2368	2369	
3	2370	2371	2372	
3	2373	2374	2375	
3	2376	2377	2378	
3	2379	2380	2381	
3	2382	2383	2384	
3	2385	2386	2387	
3	2388	2389	2390	
3	2391	2392	2393	
3	2394	2395	2396	
3	2397	2398	2399	
3	2400	2401	2402	
3	2403	2404	2405	
3	2406	2407	2408	
3	2409	2410	2411	
3	2412	2413	2414	
3	2415	2416	2417	
3	2418	2419	2420	
3	2421	2422	2423	
3	2424	2425	2426	
3	2427	2428	2429	
3	2430	2431	2432	
3	2433	2434	2435	
3	2436	2437	2438	
3	2439	2440	2441	
3	2442	2443	2444	
3	2445	2446	2447	
3	2448	2449	2450	
3	2451	2452	2453	
3	2454	2455	2456	
3	2457	2458	2459	
3	2460	2461	2462	
3	2463	2464	2465	
3	2466	2467	2468	
3	2469	2470	2471	
3	2472	2473	2474	
3	2475	2476	2477	
3	2478	2479	2480	
3	2481	2482	2483	
3	2484	2485	2486	
3	2487	2488	2489	
3	2490	2491	2492	
3	2493	2494	2495	
3	2496	2497	2498	
3	2499	2500	2501	
3	2502	2503	2504	
3	2505	2506	2507	
3	2508	2509	2510	
3	2511	2512	2513	
3	2514	2515	2516	
3	2517	2518	2519	
3	2520	2521	2522	
3	2523	2524	2525	
3	2526	2527	2528	
3	2529	2530	2531	
3	2532	2533	2534	
3	2535	2536	2537	
3	2538	2539	2540	
3	2541	2542	2543	
3	2544	2545	2546	
3	2547	2548	2549	
3	2550	2551	2552	
3	2553	2554	2555	
3	2556	2557	2558	
3	2559	2560	2561	
3	2562	2563	2564	
3	2565	2566	2567	
3	2568	2569	2570	
3	2571	2572	2573	
3	2574	2575	2576	
3	2577	2578	2579	
3	2580	2581	2582	
3	2583	2584	2585	
3	2586	2587	2588	
3	2589	2590	2591	
3	2592	2593	2594	
3	2595	2596	2597	
3	2598	2599	2600	
3	2601	2602	2603	
3	2604	2605	2606	
3	2607	2608	2609	
3	2610	2611	2612	
3	2613	2614	2615	
3	2616	2617	2618	
3	2619	2620	2621	
3	2622	2623	2624	
3	2625	2626	2627	
3	2628	2629	2630	
3	2631	2632	2633	
3	2634	2635	2636	
3	2637	2638	2639	
3	2640	2641	2642	
3	2643	2644	2645	
3	2646	2647	2648	
3	2649	2650	2651	
3	2652	2653	2654	
3	2655	2656	2657	
3	2658	2659	2660	
3	2661	2662	2663	
3	2664	2665	2666	
3	2667	2668	2669	
3	2670	2671	2672	
3	2673	2674	2675	
3	2676	2677	2678	
3	2679	2680	2681	
3	2682	2683	2684	
3	2685	2686	2687	
3	2688	2689	2690	
3	2691	2692	2693	
3	2694	2695	2696	
3	2697	2698	2699	
3	2700	2701	2702	
3	2703	2704	2705	
3	2706	2707	2708	
3	2709	2710	2711	
3	2712	2713	2714	
3	2715	2716	2717	
3	2718	2719	2720	
3	2721	2722	2723	
3	2724	2725	2726	
3	2727	2728	2729	
3	2730	2731	2732	
3	2733	2734	2735	
3	2736	2737	2738	
3	2739	2740	2741	
3	2742	2743	2744	
3	2745	2746	2747	
3	2748	2749	2750	
3	2751	2752	2753	
3	2754	2755	2756	
3	2757	2758	2759	
3	2760	2761	2762	
3	2763	2764	2765	
3	2766	2767	2768	
3	2769	2770	2771	
3	2772	2773	2774	
3	2775	2776	2777	
3	2778	2779	2780	
3	2781	2782	2783	
3	2784	2785	2786	
3	2787	2788	2789	
3	2790	2791	2792	
3	2793	2794	2795	
3	2796	2797	2798	
3	2799	2800	2801	
3	2802	2803	2804	
3	2805	2806	2807	
3	2808	2809	2810	
3	2811	2812	2813	
3	2814	2815	2816	
3	2817	2818	2819	
3	2820	2821	2822	
3	2823	2824	2825	
3	2826	2827	2828	
3	2829	2830	2831	
3	2832	2833	2834	
3	2835	2836	2837	
3	2838	2839	2840	
3	2841	2842	2843	
3	2844	2845	2846	
3	2847	2848	2849	
3	2850	2851	2852	
3	2853	2854	2855	
3	2856	2857	2858	
3	2859	2860	2861	
3	2862	2863	2864	
3	2865	2866	2867	
3	2868	2869	2870	
3	2871	2872	2873	
3	2874	2875	2876	
3	2877	2878	2879	
3	2880	2881	2882	
3	2883	2884	2885	
3	2886	2887	2888	
3	2889	2890	2891	
3	2892	2893	2894	
3	2895	2896	2897	
3	2898	2899	2900	
3	2901	2902	2903	
3	2904	2905	2906	
3	2907	2908	2909	
3	2910	2911	2912	
3	2913	2914	2915	
3	2916	2917	2918	
3	2919	2920	2921	
3	2922	2923	2924	
3	2925	2926	2927	
3	2928	2929	2930	
3	2931	2932	2933	
3	2934	2935	2936	
3	2937	2938	2939	
3	2940	2941	2942	
3	2943	2944	2945	
3	2946	2947	2948	
3	2949	2950	2951	
3	2952	2953	2954	
3	2955	2956	2957	
3	2958	2959	2960	
3	2961	2962	2963	
3	2964	2965	2966	
3	2967	2968	2969	
3	2970	2971	2972	
3	2973	2974	2975	
3	2976	2977	2978	
3	2979	2980	2981	
3	2982	2983	2984	
3	2985	2986	2987	
3	2988	2989	2990	
3	2991	2992	2993	
3	2994	2995	2996	
3	2997	2998	2999	
3	3000	3001	3002	
3	3003	3004	3005	
3	3006	3007	3008	
3	3009	3010	3011	
3	3012	3013	3014	
3	3015	3016	3017	
3	3018	3019	3020	
3	3021	3022	3023	
3	3024	3025	3026	
3	3027	3028	3029	
3	3030	3031	3032	
3	3033	3034	3035	
3	3036	3037	3038	
3	3039	3040	3041	
3	3042	3043	3044	
3	3045	3046	3047	
3	3048	3049	3050	
3	3051	3052	3053	
3	3054	3055	3056	
3	3057	3058	3059	
3	3060	3061	3062	
3	3063	3064	3065	
3	3066	3067	3068	
3	3069	3070	3071	
3	3072	3073	3074	
3	3075	3076	3077	
3	3078	3079	3080	
3	3081	3082	3083	
3	3084	3085	3086	
3	3087	3088	3089	
3	3090	3091	3092	
3	3093	3094	3095	
3	3096	3097	3098	
3	3099	3100	3101	
3	3102	3103	3104	
3	3105	3106	3107	
3	3108	3109	3110	
3	3111	3112	3113	
3	3114	3115	3116	
3	3117	3118	3119	
3	3120	3121	3122	
3	3123	3124	3125	
3	3126	3127	3128	
3	3129	3130	3131	
3	3132	3133	3134	
3	3135	3136	3137	
3	3138	3139	3140	
3	3141	3142	3143	
3	3144	3145	3146	
3	3147	3148	3149	
3	3150	3151	3152	
3	3153	3154	3155	
3	3156	3157	3158	
3	3159	3160	3161	
3	3162	3163	3164	
3	3165	3166	3167	
3	3168	3169	3170	
3	3171	3172	3173	
3	3174	3175	3176	
3	3177	3178	3179	
3	3180	3181	3182	
3	3183	3184	3185	
3	3186	3187	3188	
3	3189	3190	3191	
3	3192	3193	3194	
3	3195	3196	3197	
3	3198	3199	3200	
3	3201	3202	3203	
3	3204	3205	3206	
3	3207	3208	3209	
3	3210	3211	3212	
3	3213	3214	3215	
3	3216	3217	3218	
3	3219	3220	3221	
3	3222	3223	3224	
3	3225	3226	3227	
3	3228	3229	3230	
3	3231	3232	3233	
3	3234	3235	3236	
3	3237	3238	3239	
3	3240	3241	3242	
3	3243	3244	3245	
3	3246	3247	3248	
3	3249	3250	3251	
3	3252	3253	3254	
3	3255	3256	3257	
3	3258	3259	3260	
3	3261	3262	3263	
3	3264	3265	3266	
3	3267	3268	3269	
3	3270	3271	3272	
3	3273	3274	3275	
3	3276	3277	3278	
3	3279	3280	3281	
3	3282	3283	3284	
3	3285	3286	3287	
3	3288	3289	3290	
3	3291	3292	3293	
3	3294	3295	3296	
3	3297	3298	3299	
3	3300	3301	3302	
3	3303	3304	3305	
3	3306	3307	3308	
3	3309	3310	3311	
3	3312	3313	3314	
3	3315	3316	3317	
3	3318	3319	3320	
3	3321	3322	3323	
3	3324	3325	3326	
3	3327	3328	3329	
3	3330	3331	3332	
3	3333	3334	3335	
3	3336	3337	3338	
3	3339	3340	3341	
3	3342	3343	3344	
3	3345	3346	3347	
3	3348	3349	3350	
3	3351	3352	3353	
3	3354	3355	3356	
3	3357	3358	3359	
3	3360	3361	3362	
3	3363	3364	3365	
3	3366	3367	3368	
3	3369	3370	3371	
3	3372	3373	3374	
3	3375	3376	3377	
3	3378	3379	3380	
3	3381	3382	3383	
3	3384	3385	3386	
3	3387	3388	3389	
3	3390	3391	3392	
3	3393	3394	3395	
3	3396	3397	3398	
3	3399	3400	3401	
3	3402	3403	3404	
3	3405	3406	3407	
3	3408	3409	3410	
3	3411	3412	3413	
3	3414	3415	3416	
3	3417	3418	3419	
3	3420	3421	3422	
3	3423	3424	3425	
3	3426	3427	3428	
3	3429	3430	3431	
3	3432	3433	3434	
3	3435	3436	3437	
3	3438	3439	3440	
3	3441	3442	3443	
3	3444	3445	3446	
3	3447	3448	3449	
3	3450	3451	3452	
3	3453	3454	3455	
3	3456	3457	3458	
3	3459	3460	3461	
3	3462	3463	3464	
3	3465	3466	3467	
3	3468	3469	3470	
3	3471	3472	3473	
3	3474	3475	3476	
3	3477	3478	3479	
3	3480	3481	3482	
3	3483	3484	3485	
3	3486	3487	3488	
3	3489	3490	3491	
3	3492	3493	3494	
3	3495	3496	3497	
3	3498	3499	3500	
3	3501	3502	3503	
CELL_TYPES 1168
5
5
5
5
5
5
5
5
5
5
5
5
5
5
5
5
5
5
5
5
5
5
5
5
5
5
5
5
5
5
5
5
5
5
5
5
5
5
5
5
5
5
5
5
5
5
5
5
5
5
5
5
5
5
5
5
5
5
5
5
5
5
5
5
5
5
5
5
5
5
5
5
5
5
5
5
5
5
5
5
5
5
5
5
5
5
5
5
5
5
5
5
5
5
5
5
5
5
5
5
5
5
5
5
5
5
5
5
5
5
5
5
5
5
5
5
5
5
5
5
5
5
5
5
5
5
5
5
5
5
5
5
5
5
5
5
5
5
5
5
5
5
5
5
5
5
5
5
5
5
5
5
5
5
5
5
5
5
5
5
5
5
5
5
5
5
5
5
5
5
5
5
5
5
5
5
5
5
5
5
5
5
5
5
5
5
5
5
5
5
5
5
5
5
5
5
5
5
5
5
5
5
5
5
5
5
5
5
5
5
5
5
5
5
5
5
5
5
5
5
5
5
5
5
5
5
5
5
5
5
5
5
5
5
5
5
5
5
5
5
5
5
5
5
5
5
5
5
5
5
5
5
5
5
5
5
5
5
5
5
5
5
5
5
5
5
5
5
5
5
5
5
5
5
5
5
5
5
5
5
5
5
5
5
5
5
5
5
5
5
5
5
5
5
5
5
5
5
5
5
5
5
5
5
5
5
5
5
5
5
5
5
5
5
5
5
5
5
5
5
5
5
5
5
5
5
5
5
5
5
5
5
5
5
5
5
5
5
5
5
5
5
5
5
5
5
5
5
5
5
5
5
5
5
5
5
5
5
5
5
5
5
5
5
5
5
5
5
5
5
5
5
5
5
5
5
5
5
5
5
5
5
5
5
5
5
5
5
5
5
5
5
5
5
5
5
5
5
5
5
5
5
5
5
5
5
5
5
5
5
5
5
5
5
5
5
5
5
5
5
5
5
5
5
5
5
5
5
5
5
5
5
5
5
5
5
5
5
5
5
5
5
5
5
5
5
5
5
5
5
5
5
5
5
5
5
5
5
5
5
5
5
5
5
5
5
5
5
5
5
5
5
5
5
5
5
5
5
5
5
5
5
5
5
5
5
5
5
5
5
5
5
5
5
5
5
5
5
5
5
5
5
5
5
5
5
5
5
5
5
5
5
5
5
5
5
5
5
5
5
5
5
5
5
5
5
5
5
5
5
5
5
5
5
5
5
5
5
5
5
5
5
5
5
5
5
5
5
5
5
5
5
5
5
5
5
5
5
5
5
5
5
5
5
5
5
5
5
5
5
5
5
5
5
5
5
5
5
5
5
5
5
5
5
5
5
5
5
5
5
5
5
5
5
5
5
5
5
5
5
5
5
5
5
5
5
5
5
5
5
5
5
5
5
5
5
5
5
5
5
5
5
5
5
5
5
5
5
5
5
5
5
5
5
5
5
5
5
5
5
5
5
5
5
5
5
5
5
5
5
5
5
5
5
5
5
5
5
5
5
5
5
5
5
5
5
5
5
5
5
5
5
5
5
5
5
5
5
5
5
5
5
5
5
5
5
5
5
5
5
5
5
5
5
5
5
5
5
5
5
5
5
5
5
5
5
5
5
5
5
5
5
5
5
5
5
5
5
5
5
5
5
5
5
5
5
5
5
5
5
5
5
5
5
5
5
5
5
5
5
5
5
5
5
5
5
5
5
5
5
5
5
5
5
5
5
5
5
5
5
5
5
5
5
5
5
5
5
5
5
5
5
5
5
5
5
5
5
5
5
5
5
5
5
5
5
5
5
5
5
5
5
5
5
5
5
5
5
5
5
5
5
5
5
5
5
5
5
5
5
5
5
5
5
5
5
5
5
5
5
5
5
5
5
5
5
5
5
5
5
5
5
5
5
5
5
5
5
5
5
5
5
5
5
5
5
5
5
5
5
5
5
5
5
5
5
5
5
5
5
5
5
5
5
5
5
5
5
5
5
5
5
5
5
5
5
5
5
5
5
5
5
5
5
5
5
5
5
5
5
5
5
5
5
5
5
5
5
5
5
5
5
5
5
5
5
5
5
5
5
5
5
5
5
5
5
5
5
5
5
5
5
5
5
5
5
5
5
5
5
5
5
5
5
5
5
5
5
5
5
5
5
5
5
5
5
5
5
5
5
5
5
5
5
5
5
5
5
5
5
5
5
5
5
5
5
5
5
5
5
5
5
5
5
5
5
5
5
5
5
5
5
5
5
5
5
5
5
5
5
5
5
5
5
5
5
5
5
5
5
5
5
5
5
5
5
5
5
5
5
5
5
5
5
5
5
5
5
5
5
5
5
5
5
5
5
5
5
5
5
5
5
5
5
5
5
5
5
5
5
5
5
5
5
5
5
5
5
5
5
5
5
5
5
5
5
5
5
5
5
5
5
5
5
5
5
5
5
5
5
5
5
5
5
5
5
5
5
5
5
5
5
5
5
5
5
5
5
5
5
5
5
5
5
5
5
5
5
5
5
5
5
5
5
5
5
5
5
5
5
5
5
5
5
5
5
5
5
5
5
5
5
5
5
5
5
5
5
5
5
5
5
5
5
5
5
5
5
5
5
5
5
5
5
5
5
5
5
5
5
5
5
5
5
5
5
5
5
5
5
5
5
5
5
5
5
5
5
CELL_DATA 1168
POINT_DATA 3504
SCALARS Pressure float 
LOOKUP_TABLE default
8.89987 8.89987 8.89987 1.10024 1.10024 1.10024 0.431513 0.431513 0.431513 9.56845 9.56845 9.56845 0.904038 0.904038 0.904038 9.09603 9.09603 9.09603 1.08942 1.08942 1.08942 8.91065 8.91065 8.91065 0.912407 0.912407 0.912407 9.08766 9.08766 9.08766 8.90789 8.90789 8.90789 1.09221 1.09221 1.09221 0.969476 0.969476 0.969476 9.0306 9.0306 9.0306 0.871708 0.871708 0.871708 9.12836 9.12836 9.12836 0.852937 0.852937 0.852937 9.14713 9.14713 9.14713 9.22635 9.22635 9.22635 0.773586 0.773586 0.773586 0.992315 0.992315 0.992315 9.00776 9.00776 9.00776 1.01712 1.01712 1.01712 8.98295 8.98295 8.98295 0.975397 0.975397 0.975397 9.02468 9.02468 9.02468 9.52719 9.52719 9.52719 0.472772 0.472772 0.472772 9.22421 9.22421 9.22421 0.775845 0.775845 0.775845 0.978485 0.978485 0.978485 9.02159 9.02159 9.02159 0.985206 0.985206 0.985206 9.01487 9.01487 9.01487 9.23265 9.23265 9.23265 0.767406 0.767406 0.767406 0.905736 0.905736 0.905736 9.09433 9.09433 9.09433 9.09298 9.09298 9.09298 0.906944 0.906944 0.906944 0.953182 0.953182 0.953182 9.04689 9.04689 9.04689 0.985059 0.985059 0.985059 9.01492 9.01492 9.01492 1.05376 1.05376 1.05376 8.94621 8.94621 8.94621 0.549437 0.549437 0.549437 9.45052 9.45052 9.45052 0.61647 0.61647 0.61647 9.38348 9.38348 9.38348 9.1952 9.1952 9.1952 0.804737 0.804737 0.804737 0.911822 0.911822 0.911822 9.08825 9.08825 9.08825 0.911428 0.911428 0.911428 9.08864 9.08864 9.08864 0.323925 0.323925 0.323925 9.67605 9.67605 9.67605 0.374098 0.374098 0.374098 9.62593 9.62593 9.62593 0.901962 0.901962 0.901962 9.09811 9.09811 9.09811 9.08528 9.08528 9.08528 0.914641 0.914641 0.914641 0.534353 0.534353 0.534353 9.46561 9.46561 9.46561 9.45463 9.45463 9.45463 0.54533 0.54533 0.54533 0.940815 0.940815 0.940815 9.05926 9.05926 9.05926 8.82135 8.82135 8.82135 0.949068 0.949068 0.949068 9.05101 9.05101 9.05101 8.92792 8.92792 8.92792 1.0719 1.0719 1.0719 0.889809 0.889809 0.889809 9.11026 9.11026 9.11026 9.24489 9.24489 9.24489 0.755053 0.755053 0.755053 9.05419 9.05419 9.05419 0.94589 0.94589 0.94589 8.84088 8.84088 8.84088 0.903195 0.903195 0.903195 9.09688 9.09688 9.09688 9.0782 9.0782 9.0782 0.921868 0.921868 0.921868 9.07614 9.07614 9.07614 0.923936 0.923936 0.923936 9.02485 9.02485 9.02485 0.975226 0.975226 0.975226 0.40296 0.40296 0.40296 9.59707 9.59707 9.59707 0.936943 0.936943 0.936943 9.06299 9.06299 9.06299 0.952528 0.952528 0.952528 9.04743 9.04743 9.04743 0.942896 0.942896 0.942896 9.05704 9.05704 9.05704 1.03759 1.03759 1.03759 8.96262 8.96262 8.96262 0.909421 0.909421 0.909421 9.09065 9.09065 9.09065 8.99713 8.99713 8.99713 1.00252 1.00252 1.00252 8.8271 8.8271 8.8271 8.82035 8.82035 8.82035 8.83313 8.83313 8.83313 8.82353 8.82353 8.82353 0.909509 0.909509 0.909509 9.09056 9.09056 9.09056 0.924647 0.924647 0.924647 9.07543 9.07543 9.07543 1.11282 1.11282 1.11282 9.01731 9.01731 9.01731 0.982775 0.982775 0.982775 8.99008 8.99008 8.99008 1.00999 1.00999 1.00999 8.95302 8.95302 8.95302 1.04705 1.04705 1.04705 8.88545 8.88545 8.88545 0.890456 0.890456 0.890456 9.10961 9.10961 9.10961 1.35131 1.35131 1.35131 8.64863 8.64863 8.64863 0.921352 0.921352 0.921352 9.07872 9.07872 9.07872 8.80853 8.80853 8.80853 1.14105 1.14105 1.14105 8.85884 8.85884 8.85884 0.980218 0.980218 0.980218 9.01978 9.01978 9.01978 1.1617 1.1617 1.1617 9.37252 9.37252 9.37252 0.627432 0.627432 0.627432 8.83838 8.83838 8.83838 9.40431 9.40431 9.40431 0.595731 0.595731 0.595731 9.19287 9.19287 9.19287 0.807192 0.807192 0.807192 9.08432 9.08432 9.08432 0.915755 0.915755 0.915755 9.08764 9.08764 9.08764 0.912284 0.912284 0.912284 9.16787 9.16787 9.16787 0.83206 0.83206 0.83206 0.864562 0.864562 0.864562 9.1355 9.1355 9.1355 9.2752 9.2752 9.2752 0.724859 0.724859 0.724859 9.37129 9.37129 9.37129 0.628756 0.628756 0.628756 9.29859 9.29859 9.29859 0.70136 0.70136 0.70136 9.15269 9.15269 9.15269 0.847237 0.847237 0.847237 1.34616 1.34616 1.34616 8.65404 8.65404 8.65404 0.888796 0.888796 0.888796 9.11127 9.11127 9.11127 8.6511 8.6511 8.6511 1.34722 1.34722 1.34722 1.16282 1.16282 1.16282 9.09142 9.09142 9.09142 0.908651 0.908651 0.908651 0.881986 0.881986 0.881986 9.11808 9.11808 9.11808 0.944621 0.944621 0.944621 9.05536 9.05536 9.05536 1.04839 1.04839 1.04839 8.95171 8.95171 8.95171 1.1789 1.1789 1.1789 1.16726 1.16726 1.16726 8.83288 8.83288 8.83288 8.82115 8.82115 8.82115 0.910312 0.910312 0.910312 9.08976 9.08976 9.08976 1.16463 1.16463 1.16463 0.795517 0.795517 0.795517 9.20454 9.20454 9.20454 8.83358 8.83358 8.83358 0.981494 0.981494 0.981494 9.01858 9.01858 9.01858 9.1805 9.1805 9.1805 0.819434 0.819434 0.819434 0.867288 0.867288 0.867288 9.13278 9.13278 9.13278 1.02826 1.02826 1.02826 8.97183 8.97183 8.97183 0.821758 0.821758 0.821758 9.17831 9.17831 9.17831 9.1375 9.1375 9.1375 0.862435 0.862435 0.862435 1.0552 1.0552 1.0552 8.94489 8.94489 8.94489 0.901931 0.901931 0.901931 9.09814 9.09814 9.09814 0.830872 0.830872 0.830872 9.16907 9.16907 9.16907 0.677364 0.677364 0.677364 9.32258 9.32258 9.32258 8.84676 8.84676 8.84676 9.13377 9.13377 9.13377 0.866157 0.866157 0.866157 1.09451 1.09451 1.09451 9.17175 9.17175 9.17175 0.828186 0.828186 0.828186 9.83174 9.83174 9.83174 0.168233 0.168233 0.168233 8.90559 8.90559 8.90559 9.30303 9.30303 9.30303 0.696917 0.696917 0.696917 9.09657 9.09657 9.09657 0.903499 0.903499 0.903499 9.12335 9.12335 9.12335 0.876582 0.876582 0.876582 0.907713 0.907713 0.907713 9.09236 9.09236 9.09236 0.988838 0.988838 0.988838 9.01111 9.01111 9.01111 0.935223 0.935223 0.935223 9.06459 9.06459 9.06459 0.817091 0.817091 0.817091 9.18297 9.18297 9.18297 1.11515 1.11515 1.11515 8.88441 8.88441 8.88441 0.847399 0.847399 0.847399 9.15255 9.15255 9.15255 1.17358 1.17358 1.17358 8.82675 8.82675 8.82675 0.767085 0.767085 0.767085 9.23297 9.23297 9.23297 9.09209 9.09209 9.09209 0.90783 0.90783 0.90783 0.772575 0.772575 0.772575 9.22748 9.22748 9.22748 1.36024 1.36024 1.36024 8.64006 8.64006 8.64006 9.08602 9.08602 9.08602 0.913898 0.913898 0.913898 1.12943 1.12943 1.12943 8.87064 8.87064 8.87064 8.78879 8.78879 8.78879 1.21135 1.21135 1.21135 7.41718 7.41718 7.41718 2.63181 2.63181 2.63181 2.58455 2.58455 2.58455 7.36822 7.36822 7.36822 2.63389 2.63389 2.63389 7.41576 7.41576 7.41576 2.58483 2.58483 2.58483 7.36601 7.36601 7.36601 0.820288 0.820288 0.820288 9.17978 9.17978 9.17978 0.0725866 0.0725866 0.0725866 9.92741 9.92741 9.92741 1.36015 1.36015 1.36015 8.81225 8.81225 8.81225 1.18848 1.18848 1.18848 0.72555 0.72555 0.72555 9.27451 9.27451 9.27451 0.493288 0.493288 0.493288 9.50675 9.50675 9.50675 1.17068 1.17068 1.17068 0.858076 0.858076 0.858076 9.14199 9.14199 9.14199 1.17002 1.17002 1.17002 8.84422 8.84422 8.84422 1.15585 1.15585 1.15585 1.17729 1.17729 1.17729 9.23097 9.23097 9.23097 0.769087 0.769087 0.769087 1.17411 1.17411 1.17411 0.737655 0.737655 0.737655 9.2624 9.2624 9.2624 0.77815 0.77815 0.77815 9.22191 9.22191 9.22191 8.97834 8.97834 8.97834 1.02174 1.02174 1.02174 8.97925 8.97925 8.97925 8.82932 8.82932 8.82932 1.16759 1.16759 1.16759 8.83145 8.83145 8.83145 8.82764 8.82764 8.82764 8.81398 8.81398 8.81398 0.0983159 0.0983159 0.0983159 9.90168 9.90168 9.90168 8.83257 8.83257 8.83257 8.83287 8.83287 8.83287 0.790341 0.790341 0.790341 9.20972 9.20972 9.20972 0.904335 0.904335 0.904335 9.09558 9.09558 9.09558 0.893348 0.893348 0.893348 9.10658 9.10658 9.10658 0.971607 0.971607 0.971607 9.66985 9.66985 9.66985 0.330118 0.330118 0.330118 1.16799 1.16799 1.16799 1.16876 1.16876 1.16876 8.96116 8.96116 8.96116 1.16722 1.16722 1.16722 8.83266 8.83266 8.83266 1.18821 1.18821 1.18821 1.16934 1.16934 1.16934 1.15074 1.15074 1.15074 8.84916 8.84916 8.84916 8.83215 8.83215 8.83215 0.476158 0.476158 0.476158 9.52388 9.52388 9.52388 8.83105 8.83105 8.83105 1.16726 1.16726 1.16726 1.09678 1.09678 1.09678 8.90313 8.90313 8.90313 0.184061 0.184061 0.184061 9.81593 9.81593 9.81593 1.16767 1.16767 1.16767 8.83334 8.83334 8.83334 1.17131 1.17131 1.17131 7.34018 7.34018 7.34018 7.30139 7.30139 7.30139 2.66137 2.66137 2.66137 2.69863 2.69863 2.69863 7.3391 7.3391 7.3391 2.70002 2.70002 2.70002 7.29988 7.29988 7.29988 2.66151 2.66151 2.66151 9.07241 9.07241 9.07241 0.927493 0.927493 0.927493 8.83158 8.83158 8.83158 8.82904 8.82904 8.82904 1.17317 1.17317 1.17317 1.07762 1.07762 1.07762 8.92266 8.92266 8.92266 9.31776 9.31776 9.31776 0.682188 0.682188 0.682188 0.571497 0.571497 0.571497 9.42855 9.42855 9.42855 0.905182 0.905182 0.905182 9.09474 9.09474 9.09474 0.845086 0.845086 0.845086 9.15498 9.15498 9.15498 8.61746 8.61746 8.61746 1.3826 1.3826 1.3826 1.17806 1.17806 1.17806 1.16725 1.16725 1.16725 0.976529 0.976529 0.976529 9.02338 9.02338 9.02338 1.1924 1.1924 1.1924 1.03883 1.03883 1.03883 9.1201 9.1201 9.1201 0.879833 0.879833 0.879833 0.836192 0.836192 0.836192 9.16374 9.16374 9.16374 9.10587 9.10587 9.10587 0.894046 0.894046 0.894046 1.02076 1.02076 1.02076 0.970481 0.970481 0.970481 9.0296 9.0296 9.0296 8.90709 8.90709 8.90709 1.09298 1.09298 1.09298 1.09949 1.09949 1.09949 8.90047 8.90047 8.90047 8.80767 8.80767 8.80767 9.08874 9.08874 9.08874 0.911181 0.911181 0.911181 0.754809 0.754809 0.754809 9.24524 9.24524 9.24524 0.0665685 0.0665685 0.0665685 9.93343 9.93343 9.93343 9.02846 9.02846 9.02846 0.834038 0.834038 0.834038 9.16603 9.16603 9.16603 0.166542 0.166542 0.166542 9.83347 9.83347 9.83347 1.39302 1.39302 1.39302 8.60687 8.60687 8.60687 9.08006 9.08006 9.08006 0.92001 0.92001 0.92001 0.784131 0.784131 0.784131 9.21581 9.21581 9.21581 0.868414 0.868414 0.868414 9.13151 9.13151 9.13151 8.80362 8.80362 8.80362 1.19656 1.19656 1.19656 9.05063 9.05063 9.05063 0.949208 0.949208 0.949208 9.13034 9.13034 9.13034 0.869593 0.869593 0.869593 0.966772 0.966772 0.966772 9.0333 9.0333 9.0333 1.19648 1.19648 1.19648 9.07524 9.07524 9.07524 9.09199 9.09199 9.09199 0.908085 0.908085 0.908085 0.924679 0.924679 0.924679 0.970847 0.970847 0.970847 9.02907 9.02907 9.02907 9.03418 9.03418 9.03418 0.965778 0.965778 0.965778 8.99658 8.99658 8.99658 1.00349 1.00349 1.00349 1.16487 1.16487 1.16487 8.99473 8.99473 8.99473 9.30433 9.30433 9.30433 0.69572 0.69572 0.69572 1.17887 1.17887 1.17887 9.09348 9.09348 9.09348 9.17197 9.17197 9.17197 0.828095 0.828095 0.828095 0.906587 0.906587 0.906587 1.16399 1.16399 1.16399 8.83516 8.83516 8.83516 0.829099 0.829099 0.829099 9.17084 9.17084 9.17084 8.82148 8.82148 8.82148 8.83234 8.83234 8.83234 1.16537 1.16537 1.16537 1.19284 1.19284 1.19284 1.16468 1.16468 1.16468 0.945365 0.945365 0.945365 9.05453 9.05453 9.05453 1.00536 1.00536 1.00536 0.964595 0.964595 0.964595 9.03548 9.03548 9.03548 9.05793 9.05793 9.05793 0.941956 0.941956 0.941956 1.16231 1.16231 1.16231 8.83482 8.83482 8.83482 1.16502 1.16502 1.16502 0.912605 0.912605 0.912605 9.08747 9.08747 9.08747 9.1001 9.1001 9.1001 0.899817 0.899817 0.899817 9.30792 9.30792 9.30792 0.692134 0.692134 0.692134 0.85871 0.85871 0.85871 9.14122 9.14122 9.14122 8.83407 8.83407 8.83407 8.80726 8.80726 8.80726 9.08819 9.08819 9.08819 0.911731 0.911731 0.911731 9.07689 9.07689 9.07689 0.923032 0.923032 0.923032 8.83768 8.83768 8.83768 1.16505 1.16505 1.16505 8.83634 8.83634 8.83634 8.94981 8.94981 8.94981 1.1602 1.1602 1.1602 1.1793 1.1793 1.1793 1.16738 1.16738 1.16738 1.16525 1.16525 1.16525 1.16644 1.16644 1.16644 8.81906 8.81906 8.81906 8.81394 8.81394 8.81394 1.15614 1.15614 1.15614 8.83986 8.83986 8.83986 8.84001 8.84001 8.84001 9.08934 9.08934 9.08934 0.910583 0.910583 0.910583 8.84808 8.84808 8.84808 8.83538 8.83538 8.83538 8.83367 8.83367 8.83367 8.83504 8.83504 8.83504 1.16682 1.16682 1.16682 8.84366 8.84366 8.84366 8.83493 8.83493 8.83493 1.16708 1.16708 1.16708 8.8331 8.8331 8.8331 0.866443 0.866443 0.866443 9.13362 9.13362 9.13362 9.07775 9.07775 9.07775 0.922166 0.922166 0.922166 9.08439 9.08439 9.08439 0.915531 0.915531 0.915531 1.16608 1.16608 1.16608 8.85748 8.85748 8.85748 8.84391 8.84391 8.84391 0.903607 0.903607 0.903607 9.09646 9.09646 9.09646 8.83534 8.83534 8.83534 8.8339 8.8339 8.8339 9.09458 9.09458 9.09458 0.905336 0.905336 0.905336 1.14338 1.14338 1.14338 8.82157 8.82157 8.82157 1.15654 1.15654 1.15654 8.85664 8.85664 8.85664 8.8353 8.8353 8.8353 1.14371 1.14371 1.14371 9.08584 9.08584 9.08584 0.914085 0.914085 0.914085 0.890151 0.890151 0.890151 9.10992 9.10992 9.10992 0.899543 0.899543 0.899543 9.10038 9.10038 9.10038 1.16512 1.16512 1.16512 8.83511 8.83511 8.83511 8.83627 8.83627 8.83627 8.8249 8.8249 8.8249 8.8292 8.8292 8.8292 8.83267 8.83267 8.83267 1.04825 1.04825 1.04825 1.16525 1.16525 1.16525 1.16255 1.16255 1.16255 1.04813 1.04813 1.04813 1.19105 1.19105 1.19105 1.16738 1.16738 1.16738 1.18601 1.18601 1.18601 1.17783 1.17783 1.17783 1.17015 1.17015 1.17015 8.83775 8.83775 8.83775 8.83482 8.83482 8.83482 8.85618 8.85618 8.85618 8.95181 8.95181 8.95181 8.80946 8.80946 8.80946 1.16358 1.16358 1.16358 9.05195 9.05195 9.05195 0.948125 0.948125 0.948125 1.5071 1.5071 1.5071 8.4932 8.4932 8.4932 1.16017 1.16017 1.16017 1.16492 1.16492 1.16492 1.14189 1.14189 1.14189 9.10457 9.10457 9.10457 0.895351 0.895351 0.895351 8.85798 8.85798 8.85798 1.1418 1.1418 1.1418 8.83223 8.83223 8.83223 1.16797 1.16797 1.16797 0.942017 0.942017 0.942017 9.05791 9.05791 9.05791 1.16417 1.16417 1.16417 1.15142 1.15142 1.15142 9.01097 9.01097 9.01097 0.989111 0.989111 0.989111 0.880963 0.880963 0.880963 9.11896 9.11896 9.11896 0.904082 0.904082 0.904082 9.09599 9.09599 9.09599 1.50823 1.50823 1.50823 8.49309 8.49309 8.49309 8.84875 8.84875 8.84875 0.919333 0.919333 0.919333 9.08058 9.08058 9.08058 1.15112 1.15112 1.15112 0.853662 0.853662 0.853662 9.1464 9.1464 9.1464 0.878084 0.878084 0.878084 9.12198 9.12198 9.12198 1.17805 1.17805 1.17805 1.17921 1.17921 1.17921 0.940685 0.940685 0.940685 9.05939 9.05939 9.05939 8.89624 8.89624 8.89624 1.10387 1.10387 1.10387 9.04551 9.04551 9.04551 0.954443 0.954443 0.954443 8.82148 8.82148 8.82148 0.896731 0.896731 0.896731 9.10334 9.10334 9.10334 0.962076 0.962076 0.962076 9.03784 9.03784 9.03784 0.996881 0.996881 0.996881 9.00317 9.00317 9.00317 9.09032 9.09032 9.09032 0.909748 0.909748 0.909748 9.08623 9.08623 9.08623 0.913695 0.913695 0.913695 0.795686 0.795686 0.795686 9.20425 9.20425 9.20425 0.98434 0.98434 0.98434 9.0155 9.0155 9.0155 1.11855 1.11855 1.11855 0.968076 0.968076 0.968076 9.032 9.032 9.032 0.894473 0.894473 0.894473 9.1056 9.1056 9.1056 0.920387 0.920387 0.920387 9.07969 9.07969 9.07969 0.985546 0.985546 0.985546 9.01442 9.01442 9.01442 0.891293 0.891293 0.891293 9.10863 9.10863 9.10863 9.33665 9.33665 9.33665 0.663397 0.663397 0.663397 0.943296 0.943296 0.943296 9.0566 9.0566 9.0566 8.89107 8.89107 8.89107 0.954863 0.954863 0.954863 9.04521 9.04521 9.04521 8.81083 8.81083 8.81083 8.88158 8.88158 8.88158 9.09692 9.09692 9.09692 0.90315 0.90315 0.90315 0.841964 0.841964 0.841964 9.15799 9.15799 9.15799 9.05291 9.05291 9.05291 0.947166 0.947166 0.947166 0.824588 0.824588 0.824588 9.17535 9.17535 9.17535 0.911216 0.911216 0.911216 9.08871 9.08871 9.08871 0.808625 0.808625 0.808625 9.19143 9.19143 9.19143 1.16468 1.16468 1.16468 9.21658 9.21658 9.21658 0.783359 0.783359 0.783359 0.917112 0.917112 0.917112 9.08281 9.08281 9.08281 9.02807 9.02807 9.02807 0.972008 0.972008 0.972008 1.0932 1.0932 1.0932 8.90736 8.90736 8.90736 0.838548 0.838548 0.838548 9.16152 9.16152 9.16152 0.876457 0.876457 0.876457 9.12347 9.12347 9.12347 9.17971 9.17971 9.17971 0.820357 0.820357 0.820357 8.83541 8.83541 8.83541 0.908564 0.908564 0.908564 9.09136 9.09136 9.09136 9.11437 9.11437 9.11437 0.885695 0.885695 0.885695 1.10884 1.10884 1.10884 0.941321 0.941321 0.941321 9.05875 9.05875 9.05875 9.22243 9.22243 9.22243 0.777627 0.777627 0.777627 0.964586 0.964586 0.964586 9.03545 9.03545 9.03545 9.05907 9.05907 9.05907 0.941003 0.941003 0.941003 9.2831 9.2831 9.2831 0.716842 0.716842 0.716842 0.896649 0.896649 0.896649 9.10342 9.10342 9.10342 8.64275 8.64275 8.64275 0.916856 0.916856 0.916856 9.08306 9.08306 9.08306 9.10557 9.10557 9.10557 0.8945 0.8945 0.8945 9.19449 9.19449 9.19449 0.805452 0.805452 0.805452 0.707826 0.707826 0.707826 9.29223 9.29223 9.29223 0.92295 0.92295 0.92295 9.07696 9.07696 9.07696 0.960328 0.960328 0.960328 9.03975 9.03975 9.03975 0.982444 0.982444 0.982444 9.01732 9.01732 9.01732 9.08155 9.08155 9.08155 0.918524 0.918524 0.918524 0.912062 0.912062 0.912062 9.08786 9.08786 9.08786 0.898976 0.898976 0.898976 9.10109 9.10109 9.10109 0.920241 0.920241 0.920241 9.07983 9.07983 9.07983 9.16166 9.16166 9.16166 0.838408 0.838408 0.838408 9.05715 9.05715 9.05715 0.942922 0.942922 0.942922 8.82653 8.82653 8.82653 0.923898 0.923898 0.923898 9.07594 9.07594 9.07594 9.39274 9.39274 9.39274 0.607209 0.607209 0.607209 8.98506 8.98506 8.98506 1.01502 1.01502 1.01502 9.39805 9.39805 9.39805 0.601992 0.601992 0.601992 0.950941 0.950941 0.950941 9.04914 9.04914 9.04914 1.15171 1.15171 1.15171 0.907754 0.907754 0.907754 9.09217 9.09217 9.09217 1.22531 1.22531 1.22531 0.843384 0.843384 0.843384 9.15656 9.15656 9.15656 0.713148 0.713148 0.713148 9.28691 9.28691 9.28691 8.77481 8.77481 8.77481 0.897715 0.897715 0.897715 9.10221 9.10221 9.10221 0.818116 0.818116 0.818116 9.18182 9.18182 9.18182 0.920863 0.920863 0.920863 9.07921 9.07921 9.07921 0.849689 0.849689 0.849689 9.15037 9.15037 9.15037 1.1676 1.1676 1.1676 0.915184 0.915184 0.915184 9.08489 9.08489 9.08489 0.89052 0.89052 0.89052 9.10955 9.10955 9.10955 0.864096 0.864096 0.864096 9.13583 9.13583 9.13583 0.846007 0.846007 0.846007 9.15392 9.15392 9.15392 0.905344 0.905344 0.905344 9.09458 9.09458 9.09458 0.929373 0.929373 0.929373 9.07054 9.07054 9.07054 0.932815 0.932815 0.932815 9.06726 9.06726 9.06726 9.16113 9.16113 9.16113 0.838932 0.838932 0.838932 0.945476 0.945476 0.945476 9.05446 9.05446 9.05446 9.22968 9.22968 9.22968 0.770263 0.770263 0.770263 9.01392 9.01392 9.01392 0.986156 0.986156 0.986156 9.81344 9.81344 9.81344 0.186588 0.186588 0.186588 0.947221 0.947221 0.947221 9.0527 9.0527 9.0527 8.83032 8.83032 8.83032 9.19174 9.19174 9.19174 0.808325 0.808325 0.808325 0.97533 0.97533 0.97533 9.02475 9.02475 9.02475 9.1822 9.1822 9.1822 0.817858 0.817858 0.817858 0.947187 0.947187 0.947187 9.05289 9.05289 9.05289 9.23301 9.23301 9.23301 0.767051 0.767051 0.767051 0.911095 0.911095 0.911095 9.08898 9.08898 9.08898 0.926919 0.926919 0.926919 9.073 9.073 9.073 0.833524 0.833524 0.833524 9.16641 9.16641 9.16641 9.09298 9.09298 9.09298 0.906938 0.906938 0.906938 9.14128 9.14128 9.14128 0.858782 0.858782 0.858782 9.31203 9.31203 9.31203 0.687918 0.687918 0.687918 9.31337 9.31337 9.31337 0.686683 0.686683 0.686683 9.10778 9.10778 9.10778 0.892149 0.892149 0.892149 9.27911 9.27911 9.27911 0.720831 0.720831 0.720831 0.902589 0.902589 0.902589 9.09748 9.09748 9.09748 0.913315 0.913315 0.913315 9.0866 9.0866 9.0866 8.78055 8.78055 8.78055 9.88664 9.88664 9.88664 0.113359 0.113359 0.113359 9.10327 9.10327 9.10327 0.896656 0.896656 0.896656 9.02138 9.02138 9.02138 0.978538 0.978538 0.978538 1.17055 1.17055 1.17055 0.883368 0.883368 0.883368 9.11656 9.11656 9.11656 8.82957 8.82957 8.82957 0.855575 0.855575 0.855575 9.14436 9.14436 9.14436 9.13116 9.13116 9.13116 0.868903 0.868903 0.868903 9.10361 9.10361 9.10361 0.896319 0.896319 0.896319 9.46436 9.46436 9.46436 0.535603 0.535603 0.535603 9.11374 9.11374 9.11374 0.886186 0.886186 0.886186 1.16658 1.16658 1.16658 1.12993 1.12993 1.12993 0.863389 0.863389 0.863389 9.13666 9.13666 9.13666 8.87018 8.87018 8.87018 0.919782 0.919782 0.919782 9.08029 9.08029 9.08029 0.993498 0.993498 0.993498 9.00633 9.00633 9.00633 0.921981 0.921981 0.921981 9.07809 9.07809 9.07809 0.958829 0.958829 0.958829 9.04125 9.04125 9.04125 1.20424 1.20424 1.20424 8.79791 8.79791 8.79791 9.00824 9.00824 9.00824 0.991842 0.991842 0.991842 1.03606 1.03606 1.03606 8.96386 8.96386 8.96386 9.10071 9.10071 9.10071 0.899209 0.899209 0.899209 9.12991 9.12991 9.12991 0.870154 0.870154 0.870154 8.82123 8.82123 8.82123 0.0806415 0.0806415 0.0806415 9.91936 9.91936 9.91936 1.0102 1.0102 1.0102 8.98979 8.98979 8.98979 0.994768 0.994768 0.994768 9.00515 9.00515 9.00515 1.16911 1.16911 1.16911 8.83071 8.83071 8.83071 0.900572 0.900572 0.900572 9.09935 9.09935 9.09935 9.02208 9.02208 9.02208 0.977949 0.977949 0.977949 1.12536 1.12536 1.12536 8.87477 8.87477 8.87477 0.774165 0.774165 0.774165 9.22578 9.22578 9.22578 0.945592 0.945592 0.945592 9.05431 9.05431 9.05431 1.50609 1.50609 1.50609 8.4938 8.4938 8.4938 9.14836 9.14836 9.14836 0.851709 0.851709 0.851709 0.931243 0.931243 0.931243 9.06868 9.06868 9.06868 7.88028 7.88028 7.88028 2.10667 2.10667 2.10667 7.89467 7.89467 7.89467 2.11976 2.11976 2.11976 7.89439 7.89439 7.89439 2.12038 2.12038 2.12038 7.87951 7.87951 7.87951 2.10607 2.10607 2.10607 8.79804 8.79804 8.79804 9.23914 9.23914 9.23914 0.760802 0.760802 0.760802 1.20223 1.20223 1.20223 1.16701 1.16701 1.16701 1.16687 1.16687 1.16687 8.83401 8.83401 8.83401 9.09048 9.09048 9.09048 0.909439 0.909439 0.909439 8.83043 8.83043 8.83043 8.83021 8.83021 8.83021 0.892742 0.892742 0.892742 9.10733 9.10733 9.10733 1.17083 1.17083 1.17083 0.713444 0.713444 0.713444 9.2865 9.2865 9.2865 8.50237 8.50237 8.50237 1.49769 1.49769 1.49769 8.80234 8.80234 8.80234 8.82617 8.82617 8.82617 1.17443 1.17443 1.17443 1.18638 1.18638 1.18638 1.19753 1.19753 1.19753 9.09268 9.09268 9.09268 0.907242 0.907242 0.907242 1.16937 1.16937 1.16937 1.17305 1.17305 1.17305 1.1816 1.1816 1.1816 8.83237 8.83237 8.83237 8.82817 8.82817 8.82817 8.8337 8.8337 8.8337 8.83213 8.83213 8.83213 1.17264 1.17264 1.17264 1.16776 1.16776 1.16776 1.16639 1.16639 1.16639 1.16756 1.16756 1.16756 9.06467 9.06467 9.06467 0.935404 0.935404 0.935404 0.907313 0.907313 0.907313 0.907758 0.907758 0.907758 9.09231 9.09231 9.09231 9.09276 9.09276 9.09276 1.2386 1.2386 1.2386 8.76146 8.76146 8.76146 1.17862 1.17862 1.17862 9.08939 9.08939 9.08939 9.08862 9.08862 9.08862 0.910535 0.910535 0.910535 0.911302 0.911302 0.911302 8.83344 8.83344 8.83344 1.18307 1.18307 1.18307 9.0798 9.0798 9.0798 0.920274 0.920274 0.920274 8.83306 8.83306 8.83306 1.16605 1.16605 1.16605 1.19616 1.19616 1.19616 9.09191 9.09191 9.09191 0.908015 0.908015 0.908015 8.80404 8.80404 8.80404 1.1709 1.1709 1.1709 1.01296 1.01296 1.01296 8.98713 8.98713 8.98713 8.83022 8.83022 8.83022 9.18761 9.18761 9.18761 0.812452 0.812452 0.812452 9.19202 9.19202 9.19202 0.808101 0.808101 0.808101 0.0790704 0.0790704 0.0790704 9.92093 9.92093 9.92093 9.09244 9.09244 9.09244 0.907485 0.907485 0.907485 9.49154 9.49154 9.49154 0.508504 0.508504 0.508504 0.746985 0.746985 0.746985 9.25296 9.25296 9.25296 9.07364 9.07364 9.07364 0.926278 0.926278 0.926278 0.240817 0.240817 0.240817 9.7592 9.7592 9.7592 1.15115 1.15115 1.15115 8.84882 8.84882 8.84882 8.96651 8.96651 8.96651 0.555039 0.555039 0.555039 9.44501 9.44501 9.44501 9.03268 9.03268 9.03268 0.967133 0.967133 0.967133 0.98532 0.98532 0.98532 9.0146 9.0146 9.0146 9.11583 9.11583 9.11583 0.884239 0.884239 0.884239 0.756889 0.756889 0.756889 9.24305 9.24305 9.24305 8.97286 8.97286 8.97286 1.02723 1.02723 1.02723 9.6689 9.6689 9.6689 0.33113 0.33113 0.33113 0.730858 0.730858 0.730858 9.2692 9.2692 9.2692 0.903424 0.903424 0.903424 9.09665 9.09665 9.09665 1.03364 1.03364 1.03364 8.96981 8.96981 8.96981 8.94597 8.94597 8.94597 1.05414 1.05414 1.05414 1.19647 1.19647 1.19647 0.867941 0.867941 0.867941 9.13198 9.13198 9.13198 1.2219 1.2219 1.2219 9.02122 9.02122 9.02122 0.978864 0.978864 0.978864 0.89 0.89 0.89 9.11007 9.11007 9.11007 0.99161 0.99161 0.99161 9.00847 9.00847 9.00847 1.03006 1.03006 1.03006 9.33795 9.33795 9.33795 0.662102 0.662102 0.662102 0.953418 0.953418 0.953418 9.04647 9.04647 9.04647 1.00933 1.00933 1.00933 8.99075 8.99075 8.99075 8.64288 8.64288 8.64288 1.35718 1.35718 1.35718 0.992644 0.992644 0.992644 9.00743 9.00743 9.00743 1.01256 1.01256 1.01256 8.98752 8.98752 8.98752 0.919896 0.919896 0.919896 9.08003 9.08003 9.08003 1.6097 1.6097 1.6097 8.39018 8.39018 8.39018 9.08843 9.08843 9.08843 0.911494 0.911494 0.911494 8.40894 8.40894 8.40894 1.59111 1.59111 1.59111 0.99899 0.99899 0.99899 9.00095 9.00095 9.00095 8.83836 8.83836 8.83836 0.852021 0.852021 0.852021 9.14804 9.14804 9.14804 1.16414 1.16414 1.16414 8.83818 8.83818 8.83818 9.05138 9.05138 9.05138 0.948586 0.948586 0.948586 9.86692 9.86692 9.86692 0.133063 0.133063 0.133063 1.05302 1.05302 1.05302 8.94687 8.94687 8.94687 2.03247 2.03247 2.03247 8.02289 8.02289 8.02289 1.97759 1.97759 1.97759 7.96917 7.96917 7.96917 1.97753 1.97753 1.97753 7.96742 7.96742 7.96742 8.0238 8.0238 8.0238 2.03088 2.03088 2.03088 0.964945 0.964945 0.964945 9.03495 9.03495 9.03495 0.869326 0.869326 0.869326 9.13059 9.13059 9.13059 0.148197 0.148197 0.148197 9.85179 9.85179 9.85179 9.75391 9.75391 9.75391 0.246076 0.246076 0.246076 1.21323 1.21323 1.21323 8.78715 8.78715 8.78715 9.20448 9.20448 9.20448 0.795461 0.795461 0.795461 9.19785 9.19785 9.19785 0.802087 0.802087 0.802087 0.824792 0.824792 0.824792 9.17515 9.17515 9.17515 9.07654 9.07654 9.07654 0.923384 0.923384 0.923384 1.00053 1.00053 1.00053 8.99955 8.99955 8.99955 8.99302 8.99302 8.99302 9.06496 9.06496 9.06496 0.935115 0.935115 0.935115 1.00711 1.00711 1.00711 0.160885 0.160885 0.160885 9.83913 9.83913 9.83913 9.07114 9.07114 9.07114 0.928776 0.928776 0.928776 9.21905 9.21905 9.21905 0.780898 0.780898 0.780898 0.968139 0.968139 0.968139 9.0321 9.0321 9.0321 0.433607 0.433607 0.433607 9.56643 9.56643 9.56643 5.30041 5.30041 5.30041 4.70563 4.70563 4.70563 4.70208 4.70208 4.70208 5.29447 5.29447 5.29447 5.29433 5.29433 5.29433 4.70093 4.70093 4.70093 5.2991 5.2991 5.2991 4.70548 4.70548 4.70548 0.124483 0.124483 0.124483 9.87553 9.87553 9.87553 8.86084 8.86084 8.86084 1.13924 1.13924 1.13924 0.986103 0.986103 0.986103 0.838257 0.838257 0.838257 9.16181 9.16181 9.16181 9.16317 9.16317 9.16317 0.836897 0.836897 0.836897 0.97959 0.97959 0.97959 9.02049 9.02049 9.02049 9.08096 9.08096 9.08096 0.919116 0.919116 0.919116 9.29207 9.29207 9.29207 0.707877 0.707877 0.707877 0.905191 0.905191 0.905191 9.09488 9.09488 9.09488 9.08818 9.08818 9.08818 0.911891 0.911891 0.911891 1.18895 1.18895 1.18895 9.09418 9.09418 9.09418 0.905741 0.905741 0.905741 8.81132 8.81132 8.81132 0.777814 0.777814 0.777814 9.22213 9.22213 9.22213 1.24581 1.24581 1.24581 8.75441 8.75441 8.75441 1.03786 1.03786 1.03786 8.96214 8.96214 8.96214 9.013 9.013 9.013 1.16447 1.16447 1.16447 0.993863 0.993863 0.993863 8.83567 8.83567 8.83567 1.16371 1.16371 1.16371 1.18554 1.18554 1.18554 8.82126 8.82126 8.82126 8.81635 8.81635 8.81635 8.8153 8.8153 8.8153 1.1763 1.1763 1.1763 8.82212 8.82212 8.82212 0.907651 0.907651 0.907651 9.09242 9.09242 9.09242 8.83536 8.83536 8.83536 0.904903 0.904903 0.904903 9.09517 9.09517 9.09517 8.82994 8.82994 8.82994 8.83363 8.83363 8.83363 8.83262 8.83262 8.83262 8.83341 8.83341 8.83341 1.1661 1.1661 1.1661 1.17032 1.17032 1.17032 1.16727 1.16727 1.16727 1.16681 1.16681 1.16681 9.00539 9.00539 9.00539 0.90213 0.90213 0.90213 9.09794 9.09794 9.09794 9.08451 9.08451 9.08451 0.915413 0.915413 0.915413 1.01993 1.01993 1.01993 6.30769 6.30769 6.30769 3.70204 3.70204 3.70204 6.29795 6.29795 6.29795 3.69382 3.69382 3.69382 3.69466 3.69466 3.69466 6.29931 6.29931 6.29931 6.30623 6.30623 6.30623 3.70061 3.70061 3.70061 0.994237 0.994237 0.994237 9.00572 9.00572 9.00572 0.988531 0.988531 0.988531 9.01154 9.01154 9.01154 9.16866 9.16866 9.16866 0.831402 0.831402 0.831402 8.98007 8.98007 8.98007 0.984978 0.984978 0.984978 9.0151 9.0151 9.0151 1.00276 1.00276 1.00276 8.99731 8.99731 8.99731 9.27027 9.27027 9.27027 0.729679 0.729679 0.729679 1.24785 1.24785 1.24785 8.81589 8.81589 8.81589 6.43186 6.43186 6.43186 3.60538 3.60538 3.60538 3.56985 3.56985 3.56985 6.39462 6.39462 6.39462 3.57067 3.57067 3.57067 6.39271 6.39271 6.39271 3.6072 3.6072 3.6072 6.4302 6.4302 6.4302 0.908306 0.908306 0.908306 9.09176 9.09176 9.09176 0.855772 0.855772 0.855772 9.14418 9.14418 9.14418 1.21274 1.21274 1.21274 8.78733 8.78733 8.78733 9.08826 9.08826 9.08826 0.911657 0.911657 0.911657 1.01687 1.01687 1.01687 8.98306 8.98306 8.98306 0.798485 0.798485 0.798485 9.20146 9.20146 9.20146 9.15043 9.15043 9.15043 0.849537 0.849537 0.849537 1.11982 1.11982 1.11982 8.88029 8.88029 8.88029 0.642125 0.642125 0.642125 9.35792 9.35792 9.35792 0.997529 0.997529 0.997529 9.00259 9.00259 9.00259 9.18536 9.18536 9.18536 0.814699 0.814699 0.814699 1.15682 1.15682 1.15682 8.84333 8.84333 8.84333 9.09172 9.09172 9.09172 0.908197 0.908197 0.908197 9.09153 9.09153 9.09153 0.908388 0.908388 0.908388 8.75596 8.75596 8.75596 9.08509 9.08509 9.08509 0.914828 0.914828 0.914828 1.19572 1.19572 1.19572 1.08766 1.08766 1.08766 8.91241 8.91241 8.91241 1.15065 1.15065 1.15065 8.8485 8.8485 8.8485 0.972291 0.972291 0.972291 9.02725 9.02725 9.02725 8.81512 8.81512 8.81512 8.8047 8.8047 8.8047 9.04069 9.04069 9.04069 0.959628 0.959628 0.959628 1.47495 1.47495 1.47495 8.52532 8.52532 8.52532 0.705593 0.705593 0.705593 9.29446 9.29446 9.29446 1.47603 1.47603 1.47603 8.52459 8.52459 8.52459 1.1866 1.1866 1.1866 1.15131 1.15131 1.15131 8.84884 8.84884 8.84884 
VECTORS Velocity float 
-0.0246838 -0.0373623 0 
-0.0308163 -0.00587371 0 
-0.0411788 -0.0238445 0 
-0.0246911 -0.0373682 0 
-0.0308243 -0.00587306 0 
-0.0411888 -0.0238426 0 
-0.00167678 -0.00111785 0 
-0.00566592 -0.00377728 0 
-0.0835419 -0.0496473 0 
-0.00167685 -0.0011179 0 
-0.0056662 -0.00377747 0 
-0.0835482 -0.0496512 0 
0.0307956 -0.022851 0 
0.02521 -0.0348791 0 
0.0189584 -0.0209265 0 
0.0307931 -0.0228492 0 
0.0252083 -0.0348763 0 
0.0189569 -0.0209248 0 
0.0155244 -0.051811 0 
0.0150273 -0.040221 0 
0.0324388 -0.0549532 0 
0.0155249 -0.0518123 0 
0.0150289 -0.0402212 0 
0.03244 -0.0549547 0 
0.01903 -0.0208167 0 
0.025108 -0.0350354 0 
0.0143717 -0.0299066 0 
0.0190285 -0.020815 0 
0.0251064 -0.0350325 0 
0.0143708 -0.0299042 0 
-0.0154149 -0.0149347 0 
-0.0244998 -0.00442879 0 
-0.0255006 -0.0375492 0 
-0.0154156 -0.014936 0 
-0.0245073 -0.00442802 0 
-0.0255063 -0.0375547 0 
0.00794156 -0.0328694 0 
0.00351869 -0.0455175 0 
-0.00263518 -0.0304135 0 
0.00794452 -0.0328686 0 
0.00352117 -0.0455147 0 
-0.00263108 -0.0304115 0 
0.0525248 -0.0206846 0 
0.0443797 -0.0311943 0 
0.0427543 -0.0222543 0 
0.0525206 -0.0206831 0 
0.0443763 -0.0311919 0 
0.042751 -0.0222525 0 
0.0439834 -0.0304161 0 
0.0529508 -0.0215211 0 
0.0518179 -0.0248391 0 
0.04398 -0.0304137 0 
0.0529466 -0.0215195 0 
0.0518138 -0.0248373 0 
-0.0498059 -0.0056767 0 
-0.0620359 -0.0137481 0 
-0.0743843 -0.0176957 0 
-0.0498015 -0.00567636 0 
-0.0620304 -0.0137474 0 
-0.0743781 -0.0176948 0 
0.00285592 -0.0419481 0 
0.00857423 -0.0362768 0 
0.0100034 -0.041276 0 
0.00285845 -0.0419455 0 
0.00857716 -0.0362758 0 
0.0100049 -0.0412749 0 
0.0202855 -0.0441843 0 
0.010882 -0.0483117 0 
0.00474294 -0.0339698 0 
0.020287 -0.0441845 0 
0.0108825 -0.0483131 0 
0.0047434 -0.0339701 0 
0.003656 -0.0301193 0 
0.0051285 -0.0389374 0 
0.00727374 -0.0422964 0 
0.00365646 -0.0301186 0 
0.00512936 -0.0389353 0 
0.00727536 -0.0422953 0 
-0.0877208 -0.068444 0 
-0.101586 -0.0309542 0 
-0.0833729 -0.0485052 0 
-0.0877133 -0.0684396 0 
-0.101579 -0.0309518 0 
-0.0833663 -0.0485017 0 
0.0674789 -0.0245926 0 
0.0462991 -0.0212406 0 
0.0525874 -0.0228967 0 
0.0674841 -0.0245944 0 
0.0463026 -0.0212422 0 
0.0525914 -0.0228984 0 
0.00150003 -0.0308977 0 
0.00950733 -0.04149 0 
0.00775629 -0.0384251 0 
0.00150049 -0.030897 0 
0.0095089 -0.0414889 0 
0.0077573 -0.0384247 0 
0.00529557 -0.0428452 0 
-0.00440532 -0.0409866 0 
-0.0043087 -0.0329304 0 
0.00529792 -0.0428426 0 
-0.00440165 -0.0409831 0 
-0.00430448 -0.0329282 0 
0.0444059 -0.0242864 0 
0.0689183 -0.0222768 0 
0.0717837 -0.0253931 0 
0.0444092 -0.0242882 0 
0.0689236 -0.0222785 0 
0.0717892 -0.0253951 0 
0.00864466 -0.00299772 0 
0.01102 -0.00877031 0 
0.00243838 -0.00233153 0 
0.00864391 -0.00299747 0 
0.0110191 -0.00876958 0 
0.00243815 -0.00233133 0 
-0.0017764 -0.00738899 0 
-0.00959417 -0.0184057 0 
-0.00678366 -0.00879368 0 
-0.00177653 -0.00738892 0 
-0.00959491 -0.0184055 0 
-0.00678361 -0.00879328 0 
0.00606286 -0.039608 0 
0.00257033 -0.0293401 0 
0.00195051 -0.0241102 0 
0.00606371 -0.0396059 0 
0.0025708 -0.0293394 0 
0.00195068 -0.0241089 0 
-0.000167417 -0.0103375 0 
0.0250463 -0.0113077 0 
0.0141619 -0.0278879 0 
-0.000175232 -0.0103299 0 
0.0250269 -0.0113045 0 
0.0141461 -0.0278747 0 
0.027142 -0.0117902 0 
0.0333763 -0.0198228 0 
0.0395389 -0.0252751 0 
0.0271241 -0.0117834 0 
0.0334471 -0.0198703 0 
0.0394864 -0.0253382 0 
-0.0691665 -0.035077 0 
-0.00123457 -0.00486828 0 
-0.0838146 -0.0473344 0 
-0.0691716 -0.0350795 0 
-0.0012346 -0.00486868 0 
-0.0838209 -0.0473379 0 
-0.0795631 -0.0268276 0 
-0.0682788 -0.0331229 0 
-0.0976726 -0.0328078 0 
-0.0795692 -0.0268295 0 
-0.0682839 -0.0331253 0 
-0.0976802 -0.0328103 0 
-0.0622967 -0.0141011 0 
-0.0494654 -0.00521573 0 
-0.0381587 -0.00410568 0 
-0.062291 -0.0141003 0 
-0.049461 -0.00521548 0 
-0.0381549 -0.00410543 0 
0.00319403 -0.00135734 0 
0.0102919 -0.00970893 0 
0.0052572 -0.00725345 0 
0.00319374 -0.00135721 0 
0.010291 -0.00970813 0 
0.00525675 -0.00725283 0 
0.0204622 -0.0123311 0 
0.0113506 -0.00963773 0 
0.00822495 -0.00189666 0 
0.0204605 -0.0123301 0 
0.0113497 -0.00963693 0 
0.00822424 -0.0018965 0 
-0.0856659 -0.0483012 0 
-0.0070333 -0.00291069 0 
-0.0658065 -0.0575908 0 
-0.0856724 -0.0483049 0 
-0.00703325 -0.00291108 0 
-0.0658134 -0.0575945 0 
0.0833056 -0.0766577 0 
0.0658073 -0.0577235 0 
0.100961 -0.0456532 0 
0.0832986 -0.0766531 0 
0.0658009 -0.0577197 0 
0.100953 -0.0456497 0 
0.0155968 -0.00349087 0 
0.0211944 -0.0111673 0 
0.00753964 -0.00298589 0 
0.0155955 -0.00349059 0 
0.0211927 -0.0111664 0 
0.00753898 -0.00298565 0 
-0.00856885 -0.0190287 0 
-0.00252614 -0.00693343 0 
-0.00253029 -0.0131468 0 
-0.00856957 -0.0190285 0 
-0.00252627 -0.00693337 0 
-0.00253072 -0.0131471 0 
-0.0976772 -0.0327754 0 
-0.0681177 -0.0342493 0 
-0.0845768 -0.0479359 0 
-0.0976849 -0.0327778 0 
-0.0681227 -0.0342518 0 
-0.0845832 -0.0479394 0 
-0.0970464 -0.0277004 0 
-0.0955382 -0.0740466 0 
-0.0655686 -0.000979136 0 
-0.0970388 -0.0276982 0 
-0.0955304 -0.0740419 0 
-0.0655633 -0.000978886 0 
-9.48052e-12 -0.0011226 0 
-9.22062e-12 7.31239e-05 0 
0.0011694 -0.0240567 0 
9.05202e-11 -0.00112263 0 
9.07801e-11 7.31872e-05 0 
0.00116949 -0.0240554 0 
-0.000724284 -0.0503329 0 
-0.00746996 -0.00284602 0 
0.0013016 -0.0216275 0 
0.00256514 -0.0294465 0 
-0.00105637 -0.00050597 0 
0.00193141 -0.0245015 0 
0.00256561 -0.0294457 0 
-0.00105652 -0.00050591 0 
0.00193158 -0.0245003 0 
0.0343405 -0.0159467 0 
0.0130679 -0.018924 0 
0.0282577 -0.0362431 0 
0.034409 -0.0159086 0 
0.0129191 -0.0188743 0 
0.0282909 -0.0362702 0 
0.0318644 -0.0117724 0 
0.0145144 -0.00349108 0 
0.0234775 -0.00375689 0 
0.0318618 -0.0117715 0 
0.0145131 -0.0034908 0 
0.0234756 -0.0037566 0 
-0.0504053 -0.00341446 0 
-0.0738229 -0.0198147 0 
-0.0724597 -0.013048 0 
-0.0504008 -0.00341437 0 
-0.0738168 -0.0198136 0 
-0.0724538 -0.0130471 0 
-0.00153697 0.00424732 0 
-0.003064 -0.010227 0 
-0.0226184 -0.0104677 0 
-0.00153732 0.00424766 0 
-0.00306741 -0.0102274 0 
-0.0226234 -0.010469 0 
0.0361058 -0.0247241 0 
0.0297159 -0.0415245 0 
0.0215622 -0.0324579 0 
0.015193 -0.00242637 0 
0.0312472 -0.0127407 0 
0.0216232 -0.0122976 0 
0.0151917 -0.00242617 0 
0.0312447 -0.0127397 0 
0.0216214 -0.0122966 0 
0.0141238 -0.0298971 0 
0.00773365 -0.0341302 0 
0.00692635 -0.0233543 0 
0.0141246 -0.0298994 0 
0.00773369 -0.0341326 0 
0.00692675 -0.0233561 0 
0.00763534 -0.0339244 0 
0.0142576 -0.0301773 0 
0.0150381 -0.0390535 0 
0.00763534 -0.0339268 0 
0.0142585 -0.0301796 0 
0.0150386 -0.0390565 0 
-0.00150529 0.000766984 0 
0.00816944 -0.00416254 0 
0.0221832 -0.0232235 0 
-0.00150549 0.000767085 0 
0.00816944 -0.00416254 0 
0.0221813 -0.0232228 0 
0.0961108 -0.0449915 0 
0.0713091 -0.0584742 0 
0.059077 -0.0350271 0 
0.0961034 -0.0449881 0 
0.0713025 -0.0584704 0 
0.0590727 -0.0350243 0 
-0.0019931 -0.0176035 0 
-0.00147581 -0.0215972 0 
-0.00566845 -0.0329621 0 
-0.00199415 -0.0176041 0 
-0.0014798 -0.0215992 0 
-0.00567067 -0.0329543 0 
0.000488794 -0.0103157 0 
0.0017068 0.00388426 0 
0.0248945 -0.0113127 0 
0.000483592 -0.010308 0 
0.00170542 0.00388301 0 
0.0248781 -0.0113095 0 
-0.0025791 0.0041678 0 
-0.00230134 -0.010587 0 
-0.0228958 -0.0225264 0 
-0.00257517 0.00417129 0 
-0.0023014 -0.0105759 0 
-0.0229106 -0.0225617 0 
0.00387376 0.00117972 0 
0.0354952 -0.0206105 0 
0.0270785 -0.0117666 0 
0.00385778 0.00119144 0 
0.0355066 -0.020636 0 
0.0270732 -0.0117644 0 
0.015925 -0.00347706 0 
0.000342709 0.00177167 0 
0.022034 -0.00377123 0 
0.0159237 -0.00347679 0 
0.000342676 0.00177153 0 
0.0220322 -0.00377094 0 
0.0283414 -0.0361645 0 
0.0082122 -0.0234769 0 
-0.00174914 -0.0445989 0 
0.028345 -0.0362195 0 
0.00809911 -0.0233936 0 
-0.00178666 -0.0445907 0 
0.00432876 -0.00683265 0 
-0.00158489 -0.000363847 0 
0.00090096 -0.00157605 0 
0.000411032 -0.00118678 0 
-0.00056111 -0.00117729 0 
-0.000904613 -2.25123e-05 0 
-0.00349425 -0.00688084 0 
-0.00261812 -0.00263201 0 
0.00109011 -0.00115926 0 
-0.00156166 -0.00177597 0 
0.000695998 -6.05589e-06 0 
6.22197e-05 -0.00199215 0 
0.0190945 -0.0210083 0 
0.0142932 -0.0296738 0 
0.00854949 -0.0164529 0 
0.0190931 -0.0210066 0 
0.0142924 -0.0296715 0 
0.00854882 -0.0164516 0 
0.00207648 -0.0236587 0 
-0.00114035 -0.000427242 0 
0.00256118 -0.0199044 0 
0.00207663 -0.0236574 0 
-0.00114037 -0.000427187 0 
0.00256112 -0.019903 0 
0.0368633 -0.0270928 0 
0.0361823 -0.020591 0 
0.0293611 -0.0374633 0 
-0.0228328 -0.0104695 0 
-0.00201526 -0.010218 0 
-0.0176321 -0.0235024 0 
-0.0228378 -0.0104708 0 
-0.00201838 -0.0102184 0 
-0.0176377 -0.0235044 0 
0.0159062 -0.0458421 0 
0.022272 -0.0242511 0 
0.0311346 -0.0465908 0 
0.0159046 -0.0458418 0 
0.0222701 -0.0242507 0 
0.0311335 -0.0465895 0 
0.022418 -0.0243284 0 
0.00840983 -0.0052937 0 
0.0361908 -0.049267 0 
0.0224162 -0.024328 0 
0.00840975 -0.00529335 0 
0.0361895 -0.0492656 0 
0.0364025 -0.0206667 0 
0.0287766 -0.0382658 0 
0.0367613 -0.0269984 0 
-0.000732885 -9.16852e-12 0 
0.00144692 -8.91672e-12 0 
0.0230992 -0.00201668 0 
-0.000732834 9.08322e-11 0 
0.00144681 9.1084e-11 0 
0.0230973 -0.00201652 0 
-0.0394143 -0.089893 0 
-0.0125912 -0.0342141 0 
-0.0374519 -0.0510808 0 
-0.0394052 -0.0898902 0 
-0.0125919 -0.0342191 0 
-0.0374574 -0.0511041 0 
-9.22962e-12 -0.00107805 0 
-9.03219e-12 0.000319971 0 
0.00134845 -0.0192123 0 
9.07711e-11 -0.00107801 0 
9.09685e-11 0.000319983 0 
0.00134842 -0.0192109 0 
0.0236227 -0.0337022 0 
0.00140354 -0.0471449 0 
0.00103017 -0.0220342 0 
-0.0125564 -0.0125564 0 
-0.000817785 -0.000817785 0 
-0.0374627 -0.0578377 0 
-0.0125626 -0.0125626 0 
-0.000824843 -0.000824843 0 
-0.0374665 -0.057856 0 
-0.0222293 -0.0222626 0 
-0.00249901 -0.0106652 0 
-0.0146452 -0.0317257 0 
-0.0222329 -0.0222941 0 
-0.00250604 -0.0106567 0 
-0.0146373 -0.0317226 0 
-0.0266891 -0.00932419 0 
-0.0158544 -0.0143867 0 
-0.0319316 -0.0222421 0 
-0.072728 -0.0125333 0 
-0.0971749 -0.0267019 0 
-0.0642449 -0.011261 0 
-0.072722 -0.0125324 0 
-0.0971673 -0.0266999 0 
-0.0642397 -0.0112601 0 
-0.0266765 -0.00932298 0 
-0.0158364 -0.0143634 0 
-0.0319276 -0.0222325 0 
0.0948446 -0.0413903 0 
0.0565302 -0.03023 0 
0.0774851 -0.0308001 0 
0.0948519 -0.0413935 0 
0.0565343 -0.0302323 0 
0.077491 -0.0308025 0 
0.0432167 -0.0216627 0 
0.028712 -0.0165199 0 
0.0543838 -0.0226507 0 
0.0432199 -0.0216644 0 
0.0287142 -0.0165211 0 
0.0543879 -0.0226523 0 
0.00881595 -0.0160793 0 
0.01413 -0.0298978 0 
0.00700166 -0.0233624 0 
0.00881662 -0.0160806 0 
0.0141309 -0.0299001 0 
0.00700204 -0.0233641 0 
-0.00947106 -0.019194 0 
-0.0152255 -0.0151377 0 
-0.00687123 -0.0082329 0 
-0.00947183 -0.0191937 0 
-0.0152257 -0.0151368 0 
-0.00687116 -0.00823263 0 
-0.00218168 9.17765e-11 0 
0.000295833 9.13069e-11 0 
-0.0384367 -0.0022819 0 
-0.00218149 -8.2229e-12 0 
0.000295864 -8.69237e-12 0 
-0.038433 -0.00228175 0 
-0.00055238 -8.96224e-12 0 
0.00164906 -8.6055e-12 0 
0.0303725 -0.0019883 0 
-0.000552345 9.10385e-11 0 
0.00164893 9.13952e-11 0 
0.03037 -0.00198815 0 
0.0487243 -0.0237191 0 
0.0434976 -0.0212284 0 
0.072479 -0.0277342 0 
0.048728 -0.0237209 0 
0.0435009 -0.02123 0 
0.0724845 -0.0277364 0 
0.0886311 -0.0223484 0 
0.0932195 -0.0400407 0 
0.0779733 -0.0312055 0 
0.088638 -0.0223502 0 
0.0932267 -0.0400438 0 
0.0779792 -0.031208 0 
-0.075093 -0.0143044 0 
-0.0616658 -0.00932952 0 
-0.0398522 -0.00108692 0 
-0.0750869 -0.0143034 0 
-0.0616608 -0.00932878 0 
-0.0398489 -0.00108686 0 
-0.0385668 -0.00408433 0 
-0.0292369 -0.00363189 0 
-0.0506683 -0.0117175 0 
-0.038563 -0.00408405 0 
-0.029234 -0.00363147 0 
-0.0506635 -0.0117164 0 
-0.0132724 -0.0132724 0 
0.00742958 0.00742958 0 
-0.0401708 -0.0725435 0 
-0.0132679 -0.0132679 0 
0.00742713 0.00742713 0 
-0.0401558 -0.0725177 0 
0.0239239 -0.00375728 0 
0.000573999 0.00184245 0 
0.0293323 -0.00368983 0 
0.0239219 -0.003757 0 
0.000573949 0.00184231 0 
0.0293299 -0.00368955 0 
-0.0075521 0.0075521 0 
0.0131216 -0.0131216 0 
0.0405615 -0.072428 0 
-0.00753804 0.00753804 0 
0.0132189 -0.0132189 0 
0.0403287 -0.0725318 0 
0.0361213 -0.0244436 0 
0.0304007 -0.0411753 0 
0.0219058 -0.0353437 0 
0.00171965 -0.0122484 0 
0.00894655 -0.0169001 0 
0.00694086 -0.0229802 0 
0.00171976 -0.0122494 0 
0.00894723 -0.0169014 0 
0.00694123 -0.022982 0 
0.0425454 -0.0226854 0 
0.0446146 -0.0307097 0 
0.0362914 -0.0313564 0 
0.042542 -0.0226836 0 
0.0446112 -0.0307073 0 
0.0362887 -0.0313539 0 
-0.00606687 -0.0331985 0 
-0.00103374 -0.0213349 0 
-0.00395539 -0.0340905 0 
-0.00606443 -0.0331878 0 
-0.00104091 -0.0213389 0 
-0.00395395 -0.034017 0 
-0.0238802 -0.0359117 0 
-0.0414261 -0.0242689 0 
-0.0315536 -0.0270262 0 
-0.0238743 -0.0359081 0 
-0.0414146 -0.0242682 0 
-0.0315459 -0.0270232 0 
-0.016092 -0.0145311 0 
-0.0259643 -0.00888383 0 
-0.00917187 -0.00234649 0 
-0.0197735 0.00469833 0 
-0.0310869 -0.0461307 0 
-0.0167743 -0.0701944 0 
-0.0197639 0.00469719 0 
-0.0310891 -0.0461055 0 
-0.0167669 -0.0701695 0 
-0.0160481 -0.0144917 0 
-0.0259561 -0.0088863 0 
-0.00918568 -0.00232809 0 
0.00797615 -0.0162399 0 
0.00245801 -0.0127524 0 
0.002237 -0.00652843 0 
0.00797555 -0.0162385 0 
0.00245785 -0.0127514 0 
0.00223681 -0.00652786 0 
0.031413 -0.0460925 0 
0.0195985 0.00464143 0 
0.0167552 -0.0700155 0 
0.0377315 -0.00395037 0 
0.0468841 -0.00453967 0 
0.0632277 -0.0126722 0 
0.0377285 -0.00395008 0 
0.0468804 -0.00453932 0 
0.0632227 -0.0126712 0 
0.0305973 -0.0474753 0 
0.0201195 0.00445507 0 
0.0169753 -0.0697882 0 
0.0111986 -0.0339914 0 
0.0151061 -0.0420061 0 
0.0081784 -0.0428652 0 
0.0112014 -0.0339905 0 
0.0151077 -0.0420063 0 
0.00818002 -0.0428641 0 
-0.0479393 -0.0052229 0 
-0.000856941 0.00226801 0 
-0.0394983 -0.00409939 0 
-0.047935 -0.00522264 0 
-0.000856827 0.00226789 0 
-0.0394945 -0.00409914 0 
0.0454566 -0.0306738 0 
0.0504058 -0.0245921 0 
0.038887 -0.0279891 0 
0.0454531 -0.0306714 0 
0.0504019 -0.0245903 0 
0.0388841 -0.0279871 0 
-0.00543116 -0.00153655 0 
-0.0242674 -0.010409 0 
-0.0395021 -0.0191225 0 
-0.00543092 -0.0015368 0 
-0.0242621 -0.0104076 0 
-0.0394952 -0.0191197 0 
0.0381821 -0.00322688 0 
0.0629081 -0.0131853 0 
0.0529346 -0.0120847 0 
0.038179 -0.00322664 0 
0.0629031 -0.0131843 0 
0.0529304 -0.0120838 0 
-0.000647057 0.00187966 0 
-0.0305249 -0.00360687 0 
-0.0375224 -0.00410461 0 
-0.00064694 0.00187948 0 
-0.0305219 -0.00360645 0 
-0.0375187 -0.00410433 0 
-0.0290184 -0.0201376 0 
-0.00703265 0.00258046 0 
-0.0383375 -0.0221166 0 
-0.0290162 -0.0201333 0 
-0.00703193 0.0025803 0 
-0.0383309 -0.0221137 0 
0.0253189 -0.0352516 0 
0.0307201 -0.0225929 0 
0.0361425 -0.0314525 0 
0.0253172 -0.0352488 0 
0.0307177 -0.0225911 0 
0.0361398 -0.03145 0 
-0.0489204 -0.0241525 0 
-0.024829 -0.0148594 0 
-0.0297418 -0.0163568 0 
-0.0489244 -0.024153 0 
-0.0248296 -0.0148584 0 
-0.029743 -0.0163566 0 
-0.0666207 -0.0338041 0 
-0.0817471 -0.0259304 0 
-0.0490086 -0.0250538 0 
-0.0666257 -0.0338065 0 
-0.0817534 -0.0259322 0 
-0.0490121 -0.0250554 0 
0.0372943 -0.025054 0 
0.0220896 -0.0326043 0 
0.0274924 -0.0147762 0 
-0.0295371 -0.0030014 0 
-0.0396673 -0.0114209 0 
-0.0504711 -0.0121316 0 
-0.0295342 -0.00300109 0 
-0.0396639 -0.0114193 0 
-0.0504664 -0.0121303 0 
-0.037421 -0.020165 0 
-0.0407519 -0.0231784 0 
-0.0367865 -0.0264765 0 
-0.062405 -0.0138499 0 
-0.0383254 -0.00371909 0 
-0.0508345 -0.0119689 0 
-0.0623993 -0.0138492 0 
-0.0383216 -0.00371886 0 
-0.0508296 -0.0119677 0 
-0.00692912 -0.00461941 0 
0.00132718 0.000884785 0 
-0.0659545 -0.0552808 0 
-0.00692915 -0.00461943 0 
0.0013283 0.000885535 0 
-0.0659475 -0.0552777 0 
-0.0374136 -0.020163 0 
-0.040743 -0.023177 0 
-0.036786 -0.0264679 0 
-0.0752888 -0.0155427 0 
-0.0718211 -0.0180495 0 
-0.0825511 -0.0255177 0 
-0.0752827 -0.0155416 0 
-0.0718152 -0.0180486 0 
-0.0825447 -0.025516 0 
0.000906036 -0.00212116 0 
0.0033316 -0.00245753 0 
0.00517613 -0.0066093 0 
0.00090612 -0.00212136 0 
0.00333191 -0.00245775 0 
0.00517656 -0.00660987 0 
-0.0393096 -0.0108705 0 
-0.0298998 -0.00355935 0 
-0.0205933 -0.00325268 0 
-0.0393063 -0.0108691 0 
-0.0298967 -0.00355892 0 
-0.0205914 -0.00325223 0 
-0.00114906 -0.000215549 0 
0.00226388 -0.0129136 0 
0.00253201 -0.0186607 0 
-0.00114901 -0.000215514 0 
0.00226373 -0.0129126 0 
0.00253194 -0.0186594 0 
-0.00131603 -0.0120129 0 
0.0147239 -0.0270681 0 
-0.00395947 -0.0316287 0 
-0.00132138 -0.0120017 0 
0.0147068 -0.0270569 0 
-0.00397594 -0.0316163 0 
0.00069223 -0.0223383 0 
-0.0260104 -0.0309114 0 
-0.000507459 -0.0447729 0 
0.000719652 -0.0224094 0 
-0.0260089 -0.0309198 0 
-0.000449622 -0.0447841 0 
0.0392213 -0.00398247 0 
0.000921867 0.00210005 0 
0.0452981 -0.0045055 0 
0.0392182 -0.00398218 0 
0.000921796 0.00209989 0 
0.0452945 -0.00450515 0 
0.0388496 -0.0231108 0 
0.0343051 -0.0227391 0 
0.0384726 -0.0252512 0 
0.0387924 -0.0231589 0 
0.0344131 -0.0229036 0 
0.0383499 -0.0252122 0 
-0.0248182 -0.0153506 0 
-0.0489346 -0.0235069 0 
-0.0386417 -0.025698 0 
-0.0248188 -0.0153491 0 
-0.0489386 -0.0235075 0 
-0.0386449 -0.025701 0 
0.000307097 -0.00227362 0 
-0.0160789 -0.0127124 0 
-0.00917926 -0.00337307 0 
0.000475459 -0.00221471 0 
-0.0160352 -0.0126909 0 
-0.00919313 -0.00336427 0 
0.00109695 0.00257392 0 
0.055879 -0.00557606 0 
0.0476066 -0.00448546 0 
0.00109686 0.00257371 0 
0.0558746 -0.00557557 0 
0.0476029 -0.00448511 0 
-0.00322969 -0.00226682 0 
-0.00100127 -0.00232602 0 
-0.00684668 -0.00801163 0 
-0.0032295 -0.00226666 0 
-0.00100127 -0.00232592 0 
-0.00684665 -0.00801134 0 
0.0639506 -0.0130714 0 
0.0744307 -0.0164596 0 
0.0680455 -0.02373 0 
0.0639456 -0.0130704 0 
0.0744249 -0.0164583 0 
0.0680403 -0.0237282 0 
0.000846725 -0.0490448 0 
0.0137403 -0.0491043 0 
-0.00978227 -0.0840939 0 
0.000846325 -0.0490187 0 
0.0137459 -0.0490968 0 
-0.00977964 -0.0840664 0 
-0.00327558 -0.00147148 0 
-0.00681019 -0.00864402 0 
-0.00971585 -0.00694397 0 
-0.00327538 -0.00147141 0 
-0.00681016 -0.00864365 0 
-0.00971557 -0.00694354 0 
0.0272025 -0.0763537 0 
0.0124731 -0.0535932 0 
0.0344643 -0.0537701 0 
0.0272033 -0.0763559 0 
0.0124736 -0.0535946 0 
0.0344655 -0.0537716 0 
-0.00634518 8.59695e-11 0 
0.00355717 8.83633e-11 0 
-0.0267614 -0.00815285 0 
-0.00634506 -1.40314e-11 0 
0.00354935 -1.16388e-11 0 
-0.0267654 -0.00814631 0 
0.0316387 -0.140719 0 
0.0215741 -0.0231613 0 
0.0202751 -0.186089 0 
0.0349305 -0.141137 0 
0.0212187 -0.0212295 0 
0.01575 -0.180193 0 
0.0316268 -0.14067 0 
0.0215691 -0.0231448 0 
0.020248 -0.186027 0 
0.0349315 -0.141141 0 
0.0212193 -0.0212301 0 
0.0157504 -0.180199 0 
-0.0214976 -0.0210861 0 
-0.0346126 -0.142076 0 
-0.015158 -0.179985 0 
-0.021585 -0.0231528 0 
-0.0315503 -0.140631 0 
-0.0202488 -0.186031 0 
-0.0215905 -0.023159 0 
-0.0315613 -0.140671 0 
-0.0202541 -0.186082 0 
-0.021497 -0.0210851 0 
-0.0346118 -0.142072 0 
-0.0151571 -0.179979 0 
0.0528573 -0.0120824 0 
0.0628231 -0.0131828 0 
0.0610215 -0.0210688 0 
0.0528531 -0.0120815 0 
0.0628182 -0.0131818 0 
0.0610167 -0.0210673 0 
-0.000158338 -0.127744 0 
0.00221856 -0.0755561 0 
0.036105 -0.102876 0 
-0.000158698 -0.127744 0 
0.00221206 -0.0755563 0 
0.0361 -0.102872 0 
-0.0138069 -0.0489283 0 
-0.00135228 -0.0483945 0 
0.00980562 -0.0845194 0 
-0.0122567 -0.0147639 0 
-0.00266722 -0.000490457 0 
-0.00346457 -0.00817556 0 
-0.0123815 -0.0148264 0 
-0.00269751 -0.000555713 0 
-0.00367571 -0.00783036 0 
-0.000431385 -7.73923e-12 0 
0.00153961 -7.2044e-12 0 
0.0581691 -0.00171921 0 
-0.000431341 9.22614e-11 0 
0.00153943 9.27961e-11 0 
0.0581645 -0.00171901 0 
0.0843076 -0.0101656 0 
0.0868687 -0.0822728 0 
0.0989271 -0.0424486 0 
0.084301 -0.0101647 0 
0.0868614 -0.0822678 0 
0.0989195 -0.0424453 0 
0.00101239 0.000306421 0 
5.16502e-05 -0.00065441 0 
0.000576101 -0.000172267 0 
0.000720232 0.0018732 0 
0.0372129 -0.00394218 0 
0.0311932 -0.00364335 0 
0.000720173 0.00187306 0 
0.0372099 -0.00394189 0 
0.0311906 -0.00364308 0 
0.000507255 -0.000911105 0 
0.000659049 0.0005055 0 
0.000380278 0.000536379 0 
-0.00901597 -0.00265093 0 
0.012454 -0.0524098 0 
0.0273847 -0.0873669 0 
-0.00901568 -0.00265082 0 
0.0124536 -0.0524084 0 
0.027384 -0.0873644 0 
-0.000586646 0.000694996 0 
0.00175697 -0.00575031 0 
-0.000356513 -0.00107694 0 
0.0463737 -0.00358105 0 
0.0756655 -0.0164802 0 
0.063429 -0.0130613 0 
0.0463774 -0.00358134 0 
0.0756714 -0.0164815 0 
0.0634339 -0.0130623 0 
0.00358259 -0.00469087 0 
-0.00192976 -8.44427e-05 0 
0.00132293 -0.00143803 0 
0.0587945 -0.00558805 0 
0.0756559 -0.0165065 0 
0.0458214 -0.00447812 0 
0.0587899 -0.00558755 0 
0.0756501 -0.0165051 0 
0.0458178 -0.00447777 0 
-0.000363023 -8.27907e-12 0 
0.00245944 -7.62924e-12 0 
0.0465415 -0.00247328 0 
-0.000362996 9.17216e-11 0 
0.00245924 9.23713e-11 0 
0.0465378 -0.00247308 0 
0.0108568 -0.0490139 0 
-0.00365264 -0.000358887 0 
0.00474817 -0.0338398 0 
0.0108563 -0.0490126 0 
-0.00365242 -0.000358854 0 
0.00474772 -0.0338394 0 
0.00390847 -0.000191482 0 
-0.012379 -0.0495609 0 
-0.00416266 -0.0319593 0 
-0.00095115 0.000525256 0 
-0.000876949 -0.000720846 0 
-0.000616452 0.000644607 0 
-0.000360289 0.000304729 0 
-0.000764826 0.000453038 0 
-0.000278808 0.000667443 0 
0.000235611 0.000305112 0 
0.000520006 0.000476118 0 
0.000663459 0.00014565 0 
-0.000543259 -0.000542849 0 
-0.00123468 0.000374015 0 
-0.000908444 -0.000158656 0 
0.00968627 -0.00509165 0 
0.00399738 -0.00799596 0 
0.000995309 -0.00124484 0 
0.000336514 0.00148216 0 
0.00240208 -0.0704946 0 
-0.0649943 -0.0558511 0 
0.000333329 0.00148265 0 
0.00239519 -0.0704949 0 
-0.0650003 -0.0558547 0 
0.000512687 0.000480499 0 
0.000206977 0.000322252 0 
3.16302e-05 0.000677452 0 
0.000206887 0.0003007 0 
-0.00035162 0.000598421 0 
3.15437e-05 0.000656882 0 
0.0605049 -0.0201509 0 
0.0633413 -0.0141036 0 
0.0687882 -0.0224718 0 
0.0605002 -0.0201494 0 
0.0633364 -0.0141025 0 
0.0687829 -0.0224701 0 
-0.0373687 -0.0349286 0 
-0.022571 -0.0449251 0 
-0.0247752 -0.032697 0 
-0.0373673 -0.0349375 0 
-0.0225597 -0.0449393 0 
-0.0247692 -0.0327113 0 
-0.0287301 -0.00360866 0 
-0.000410105 0.00166222 0 
-0.0218459 -0.00319875 0 
-0.0287329 -0.0036091 0 
-0.000410174 0.00166243 0 
-0.0218479 -0.00319919 0 
-0.00240225 -0.0273171 0 
0.00178709 -0.000316547 0 
-0.00474823 -0.0297987 0 
-0.0877856 -0.0742899 0 
-0.083357 -0.0470726 0 
-0.0644415 -0.0568643 0 
-0.0877781 -0.0742856 0 
-0.0833504 -0.0470689 0 
-0.064435 -0.0568608 0 
0.000659937 0.000272321 0 
0.000167261 0.000558269 0 
0.000380349 0.000517833 0 
-0.000752545 0.000459539 0 
-0.000388826 0.000289623 0 
-0.000783755 0.000156746 0 
-0.027202 -0.0238392 0 
-0.0184076 -0.049735 0 
-0.0344765 -0.0504987 0 
-0.000323523 0.000270894 0 
0.000133481 0.000538572 0 
0.000183609 0.00015226 0 
-0.000371842 0.000587694 0 
0.000179896 0.000286382 0 
-0.00033794 0.000171048 0 
0.00844409 -0.00422248 0 
0.00356503 -0.00670127 0 
0.00132675 -0.0010002 0 
-0.00111378 0.000532781 0 
-0.000585897 -0.00024745 0 
-0.000356731 -0.000801794 0 
-0.0133975 -0.0542139 0 
0.00957249 -0.00279837 0 
-0.0262777 -0.0857076 0 
-0.0133773 -0.0541843 0 
0.00956424 -0.00279138 0 
-0.0262769 -0.0857 0 
-0.00092511 0.000332605 0 
-0.000371817 0.000607787 0 
-0.000337962 0.000153647 0 
0.0748904 -0.0100061 0 
0.036263 -0.037397 0 
0.0842553 -0.0822285 0 
0.0748843 -0.0100051 0 
0.0362606 -0.0373947 0 
0.0842484 -0.0822235 0 
0.00075954 -0.000208564 0 
0.000792777 0.000627054 0 
-0.000169789 -0.00125275 0 
0.000130334 0.000540237 0 
-0.000360278 0.000290346 0 
-0.000278783 0.000635304 0 
0.041015 -0.0238346 0 
0.0366271 -0.0246343 0 
0.0345092 -0.0188983 0 
0.0409822 -0.0238719 0 
0.0364668 -0.0245991 0 
0.0344816 -0.0188843 0 
0.00364996 -0.123228 0 
-0.0193234 -0.0682956 0 
-0.0927521 -0.0693184 0 
0.00364996 -0.123234 0 
-0.0193246 -0.0683002 0 
-0.0927597 -0.0693225 0 
0.000133479 0.000539856 0 
0.000671733 0.00027875 0 
0.000183627 0.000143319 0 
0.0276937 -0.0153391 0 
0.0216185 -0.0312866 0 
0.012535 -0.0174426 0 
-0.000994405 -2.45623e-05 0 
-0.000752892 0.000335875 0 
-0.000783738 0.000162901 0 
-0.0176342 -0.016997 0 
0.0348456 -0.156955 0 
0.0186974 -0.178102 0 
-0.0170585 -0.0187179 0 
0.0361574 -0.148542 0 
0.0151606 -0.176638 0 
-0.017619 -0.017002 0 
0.0348247 -0.15688 0 
0.0186754 -0.178055 0 
-0.017058 -0.0187174 0 
0.0361564 -0.148537 0 
0.0151601 -0.176633 0 
-0.0347512 -0.156881 0 
0.0175953 -0.0169911 0 
-0.0186758 -0.178045 0 
-0.035588 -0.148286 0 
0.0167275 -0.0185479 0 
-0.014703 -0.177087 0 
-0.035587 -0.148281 0 
0.0167268 -0.0185475 0 
-0.0147021 -0.177082 0 
-0.0347626 -0.156924 0 
0.0176009 -0.0169965 0 
-0.0186811 -0.178096 0 
-0.0020005 -0.018335 0 
0.000886467 -0.000360372 0 
-0.00147418 -0.0209513 0 
-0.0019996 -0.0183357 0 
0.000885083 -0.000360005 0 
-0.00147002 -0.0209451 0 
-0.000381274 0.000612814 0 
-0.000951225 0.000346485 0 
-0.000616462 0.000621183 0 
0.000520488 0.000405384 0 
0.000904945 -9.01898e-05 0 
0.000663441 0.000148381 0 
0.00135963 -0.00518291 0 
0.0107065 -0.00578011 0 
0.0141219 -0.0165112 0 
0.039739 -0.0251391 0 
0.0368198 -0.0165361 0 
0.0277913 -0.0361402 0 
0.0397058 -0.0251768 0 
0.0367433 -0.0165721 0 
0.027763 -0.0361143 0 
-0.0759668 -0.0116293 0 
-0.0819662 -0.028894 0 
-0.0922003 -0.0280903 0 
-0.0759606 -0.0116286 0 
-0.0819598 -0.028892 0 
-0.0921931 -0.0280881 0 
0.0794228 -0.0209528 0 
0.10022 -0.0395929 0 
0.0853913 -0.0225595 0 
0.0794165 -0.0209512 0 
0.100213 -0.0395898 0 
0.0853847 -0.0225577 0 
-0.0308175 -0.0393663 0 
-0.0221037 -0.0442095 0 
-0.0374876 -0.0351107 0 
-0.030812 -0.0393739 0 
-0.0220915 -0.0442224 0 
-0.0374866 -0.0351202 0 
0.0534961 -0.0206442 0 
0.0604247 -0.020143 0 
0.0510217 -0.0261193 0 
0.0534918 -0.0206427 0 
0.06042 -0.0201415 0 
0.0510178 -0.0261174 0 
8.48665e-11 -0.0198863 0 
8.93971e-11 0.00255444 0 
0.0194342 -0.0919572 0 
-1.5134e-11 -0.0198857 0 
-1.06036e-11 0.00255438 0 
0.0194337 -0.0919545 0 
5.89485e-05 -0.00137581 0 
-0.0013094 -0.00180987 0 
0.000574067 2.87427e-05 0 
-0.0026944 -0.00258224 0 
0.00143959 -0.000605863 0 
-0.00367779 -0.00647768 0 
-0.00215915 -0.0316624 0 
0.0129619 -0.0270352 0 
0.00252947 -0.0425011 0 
-0.0021785 -0.0316498 0 
0.0129486 -0.027024 0 
0.00252635 -0.0424949 0 
-0.00118721 -0.023341 0 
-0.00211891 -0.0501918 0 
-0.0256393 -0.0363836 0 
-0.027197 -0.0237983 0 
-0.0184354 -0.0497108 0 
-0.0344739 -0.0504935 0 
-0.0488569 -0.0269824 0 
-0.0422974 -0.0301929 0 
-0.0374219 -0.0351298 0 
-0.0488527 -0.0269781 0 
-0.0422968 -0.0301872 0 
-0.037423 -0.0351213 0 
-0.0583682 -0.0220954 0 
-0.0483879 -0.0269188 0 
-0.0502192 -0.0227735 0 
-0.0583735 -0.0220971 0 
-0.0483917 -0.0269231 0 
-0.0502233 -0.0227739 0 
-0.0421709 -0.0304764 0 
-0.0307424 -0.0393782 0 
-0.0374245 -0.035124 0 
-0.0421701 -0.0304712 0 
-0.0307476 -0.0393706 0 
-0.037426 -0.0351145 0 
0.00391524 -0.000187094 0 
-0.0124045 -0.0495804 0 
-0.00415684 -0.0319662 0 
-0.00225116 -0.000362912 0 
0.00281063 -0.0305977 0 
0.0057985 -0.0312695 0 
-0.0022514 -0.000362928 0 
0.00281116 -0.0305971 0 
0.00579894 -0.0312697 0 
8.87703e-11 -0.00854852 0 
9.009e-11 0.00138476 0 
0.00877892 -0.0500058 0 
-1.12304e-11 -0.00854822 0 
-9.91074e-12 0.00138468 0 
0.00877859 -0.0500045 0 
9.8048e-12 0.00212489 0 
1.12369e-11 -0.00838357 0 
-0.0089512 -0.0516197 0 
-9.01941e-11 0.00211305 0 
-8.87615e-11 -0.00838202 0 
-0.00893836 -0.0515896 0 
-0.00124055 -0.0233147 0 
-0.0021314 -0.050155 0 
-0.025669 -0.0363652 0 
0.00108002 -0.00029377 0 
-0.00200902 -0.017222 0 
-0.00235619 -0.0134475 0 
0.00107998 -0.000293981 0 
-0.002008 -0.0172224 0 
-0.00235676 -0.0134482 0 
-0.00690448 -5.7563e-12 0 
0.0149668 -1.26315e-11 0 
0.0799159 -0.0188309 0 
-0.00690402 9.42442e-11 0 
0.0149657 8.73693e-11 0 
0.0799095 -0.0188295 0 
0.00219046 -0.0746342 0 
-0.000124942 -0.12884 0 
-0.0326087 -0.104168 0 
0.00218394 -0.0746337 0 
-0.000125275 -0.12884 0 
-0.0326135 -0.104172 0 
-0.00241309 -0.0273329 0 
0.0017891 -0.000312221 0 
-0.00474899 -0.0298 0 
0.0526059 -0.0124772 0 
0.0615741 -0.020201 0 
0.0526311 -0.0206005 0 
0.0526017 -0.0124763 0 
0.0615693 -0.0201995 0 
0.0526269 -0.020599 0 
0.0175803 -0.0699385 0 
-0.00342151 -0.122876 0 
0.0867586 -0.0778683 0 
0.0175793 -0.0699337 0 
-0.0034215 -0.12287 0 
0.0867514 -0.0778638 0 
1.04438e-11 0.0035517 0 
1.54652e-11 -0.0176856 0 
-0.016825 -0.0919782 0 
-8.95552e-11 0.00355172 0 
-8.45331e-11 -0.0176853 0 
-0.0168243 -0.091969 0 
9.44557e-05 0.00158448 0 
0.0141775 -0.00350712 0 
0.00878312 -0.00297113 0 
9.4468e-05 0.00158461 0 
0.0141787 -0.00350741 0 
0.00878388 -0.00297138 0 
-0.00257811 -7.8783e-12 0 
0.000506786 -8.2608e-12 0 
-0.0493573 -0.00285718 0 
-0.0025783 9.21211e-11 0 
0.000506748 9.17386e-11 0 
-0.0493617 -0.00285732 0 
-0.0497564 -0.0216069 0 
-0.0420472 -0.0302031 0 
-0.0493313 -0.0269475 0 
-0.0497603 -0.0216098 0 
-0.0420483 -0.0302088 0 
-0.0493347 -0.0269519 0 
0.000170986 -0.00385785 0 
0.0248825 -0.0287134 0 
-0.0017061 -0.0536905 0 
0.000201236 -0.00384306 0 
0.0248872 -0.0287107 0 
-0.00172006 -0.0537408 0 
0.000829778 -0.000312475 0 
-0.00220213 -0.0262738 0 
-0.00130084 -0.0216061 0 
0.000831678 -0.000310196 0 
-0.00222372 -0.0262566 0 
-0.00129311 -0.0215943 0 
-0.00176058 9.13531e-11 0 
0.000448661 9.10032e-11 0 
-0.0295683 -0.00199206 0 
-0.00176037 -8.64618e-12 0 
0.00044862 -8.99605e-12 0 
-0.0295653 -0.00199183 0 
-9.69484e-12 -0.00144429 0 
-9.45219e-12 1.1698e-05 0 
0.00150039 -0.0299683 0 
9.03059e-11 -0.00144442 0 
9.05486e-11 1.18316e-05 0 
0.00150066 -0.0299676 0 
-0.0246342 -0.0284842 0 
-0.000210414 -0.00355015 0 
0.0010812 -0.0529894 0 
-9.09194e-11 0.000329781 0 
-9.0736e-11 -0.000872174 0 
-0.00104092 -0.017781 0 
9.09369e-11 -0.000961417 0 
9.10722e-11 0.000574376 0 
0.00131832 -0.0122988 0 
-9.06386e-12 -0.000961485 0 
-8.92848e-12 0.000574407 0 
0.0013184 -0.0122998 0 
9.07996e-12 0.000329548 0 
9.26302e-12 -0.000871007 0 
-0.00103971 -0.0177815 0 
-0.00773759 -0.045524 0 
0.00255167 -0.0428347 0 
-0.00336547 -0.047254 0 
-0.007722 -0.0455197 0 
0.00254577 -0.042832 0 
-0.00334992 -0.0472561 0 
-9.05446e-11 0.000107698 0 
-9.0306e-11 -0.00135554 0 
-0.00134301 -0.0267089 0 
9.45187e-12 0.00011351 0 
9.69601e-12 -0.00135549 0 
-0.0013467 -0.0267034 0 
8.99141e-11 -0.00276929 0 
9.03797e-11 0.000806769 0 
0.00303198 -0.0327073 0 
-1.00866e-11 -0.0027691 0 
-9.62109e-12 0.000806659 0 
0.00303173 -0.032707 0 
-0.000393858 0.000387657 0 
-0.000405513 0.000738161 0 
-4.13353e-05 0.000629809 0 
-9.03946e-11 0.000823953 0 
-8.98623e-11 -0.00263353 0 
-0.00274433 -0.0310731 0 
-0.00253732 0.00737626 0 
0.0803369 -0.0181076 0 
0.0599043 -0.00486689 0 
-0.00253745 0.00737682 0 
0.0803432 -0.018109 0 
0.059909 -0.00486734 0 
0.00787136 -0.00336474 0 
0.000149395 -0.0536242 0 
-0.00172318 -0.02253 0 
-0.000860423 9.07398e-11 0 
0.00121091 9.08794e-11 0 
0.0151487 -0.00189553 0 
-0.000414808 9.13321e-11 0 
0.00198866 9.18039e-11 0 
0.0382912 -0.0021575 0 
-0.000414833 -8.66856e-12 0 
0.00198881 -8.19676e-12 0 
0.0382942 -0.00215766 0 
-0.000860489 -9.26092e-12 0 
0.00121101 -9.12134e-12 0 
0.01515 -0.00189568 0 
0.00115942 0.000683072 0 
1.87358e-05 0.000823524 0 
-9.36269e-05 0.00033979 0 
0.000273651 0.000405516 0 
-0.000176684 0.000658599 0 
0.00022023 0.000799957 0 
-0.0590519 -0.020658 0 
-0.0493367 -0.0246286 0 
-0.0625053 -0.0216945 0 
-0.0590574 -0.0206595 0 
-0.0493405 -0.0246295 0 
-0.0625104 -0.0216952 0 
0.00789609 -0.00338624 0 
0.000130365 -0.0535783 0 
-0.00177661 -0.0225033 0 
0.000319737 -0.000439278 0 
0.000373259 0.000595496 0 
-0.00103274 -0.00372384 0 
0.000138782 1.16592e-11 0 
-9.14867e-05 1.16714e-11 0 
0.000258109 0.000198098 0 
-0.00445087 -0.0233432 0 
-0.0221649 -0.0363812 0 
-0.015129 -0.0138249 0 
-0.000442726 0.00030848 0 
-0.00111025 0.000388852 0 
-0.000311674 0.000890201 0 
-0.0176437 -0.0455026 0 
-0.00457613 -0.0487587 0 
-0.0206761 -0.0446048 0 
-0.017631 -0.0455045 0 
-0.0045606 -0.0487604 0 
-0.0206568 -0.04462 0 
9.60502e-12 0.000822661 0 
1.0139e-11 -0.00262529 0 
-0.00273602 -0.0310814 0 
0.00386114 -0.0431493 0 
0.00686254 -0.0478708 0 
-0.00404397 -0.04091 0 
0.00386365 -0.0431467 0 
0.00686395 -0.0478666 0 
-0.00404037 -0.0409065 0 
-9.0742e-11 7.98232e-05 0 
-9.05077e-11 -0.000867555 0 
-0.000812836 -0.0212797 0 
9.2571e-12 7.99882e-05 0 
9.49119e-12 -0.000866297 0 
-0.000811725 -0.0212724 0 
5.85681e-05 1.16604e-11 0 
-0.000241401 1.16152e-11 0 
-0.00114278 0.000257466 0 
8.83366e-05 -8.83295e-11 0 
-0.00013835 -8.83442e-11 0 
-0.000394932 0.000194956 0 
0.000994073 0.000413896 0 
0.000301304 0.000319622 0 
8.88968e-05 0.00093774 0 
-0.000861011 -9.22539e-12 0 
0.000873152 -9.22955e-12 0 
0.00809368 -0.00156684 0 
-0.000860942 9.07753e-11 0 
0.000873077 9.07712e-11 0 
0.00809298 -0.00156671 0 
-0.00253353 -0.00801744 0 
0.00125768 -0.000134484 0 
-0.00252342 -0.0121387 0 
-0.00253366 -0.00801739 0 
0.00125782 -0.000134471 0 
-0.00252385 -0.0121391 0 
0.0592392 -0.00644335 0 
0.0877826 -0.0226407 0 
0.0756254 -0.0164582 0 
0.0592439 -0.00644392 0 
0.0877894 -0.0226425 0 
0.0756313 -0.0164595 0 
-0.0500681 -0.0209125 0 
-0.0489827 -0.027724 0 
-0.0575483 -0.0209854 0 
-0.0500719 -0.0209156 0 
-0.0489863 -0.0277281 0 
-0.0575537 -0.0209872 0 
0.000220774 0.000319537 0 
-0.000337367 0.000313785 0 
-0.000105869 0.000773749 0 
-0.00453384 -0.0233165 0 
-0.0221932 -0.0363632 0 
-0.0150848 -0.0138455 0 
-9.10388e-11 0.000591168 0 
-9.09068e-11 -0.000918131 0 
-0.00130667 -0.0128407 0 
8.96034e-12 0.000591258 0 
9.09242e-12 -0.000918319 0 
-0.00130691 -0.0128412 0 
-0.0128188 -0.00295673 0 
-4.64498e-05 0.00138497 0 
-0.00815635 -0.00255068 0 
-0.0128179 -0.00295641 0 
-4.64492e-05 0.00138485 0 
-0.00815585 -0.0025505 0 
0.000242925 -8.83831e-11 0 
-6.39239e-05 -8.83397e-11 0 
0.00106774 0.000263647 0 
-0.000475931 0.000308826 0 
-3.98979e-05 -0.000168278 0 
-0.00106617 0.000388393 0 
-0.00126892 0.000687214 0 
-4.15103e-05 0.0002061 0 
-0.000273512 0.000796184 0 
-0.00792302 -9.32812e-11 0 
0.00496363 -8.77019e-11 0 
-0.00464361 -0.0111158 0 
0.00131733 0.000428608 0 
2.01898e-05 0.00015638 0 
0.000911564 0.000541271 0 
-0.000572781 -0.0529029 0 
-0.00794808 -0.00314528 0 
0.00124292 -0.0216604 0 
0.000364289 0.000712232 0 
-0.00122364 -0.00404277 0 
0.000337863 -0.000385477 0 
0.000963501 0.000414116 0 
3.58886e-05 -0.000176632 0 
0.000328786 0.000319424 0 
-5.07123e-06 -0.000149027 0 
-0.000342282 0.000301177 0 
0.000188756 0.000317701 0 
0.00049906 0.000449985 0 
0.000808772 -1.78856e-05 0 
-0.00141087 -0.00179178 0 
-0.000765519 8.78815e-11 0 
0.000744531 8.81942e-11 0 
-0.00166744 -0.00132144 0 
-0.000140007 -0.000174834 0 
-0.00197517 0.000592423 0 
-0.00120943 0.000372389 0 
-0.00144115 0.000405045 0 
-0.000969858 0.000547836 0 
-0.000114187 8.70345e-05 0 
0.000902258 0.000509508 0 
0.00134862 0.000393026 0 
6.5381e-05 9.40368e-05 0 
-0.00114498 9.08334e-11 0 
0.000773679 9.07267e-11 0 
-0.0136151 -0.00161201 0 
-0.00114485 -9.16579e-12 0 
0.000773605 -9.27248e-12 0 
-0.0136141 -0.00161184 0 
-0.00054216 0.00113008 0 
-0.000279171 -0.00509594 0 
-0.00239618 -0.00825313 0 
4.94023e-05 -0.00378516 0 
-0.000383301 0.000638369 0 
-0.000610475 -0.00121405 0 
0.000217253 0.000319563 0 
-4.71197e-07 -0.000152338 0 
-0.00032571 0.000313697 0 
-3.93874e-05 -0.000170687 0 
-0.00107593 0.000398007 0 
-0.000461874 0.000310414 0 
-0.00019475 0.000630259 0 
-0.000180843 0.000737501 0 
0.000131394 0.000670019 0 
0.00185073 0.000502349 0 
0.000154923 -0.000151084 0 
0.001144 0.000394571 0 
3.92824e-05 -0.000177516 0 
0.000361036 0.000328778 0 
0.000985479 0.000405135 0 
-9.76659e-05 0.000339754 0 
2.75821e-05 0.000823602 0 
-0.000792498 0.000458106 0 
-1.29881e-05 0.000800267 0 
-1.85724e-05 0.00065839 0 
-0.000362619 0.000735244 0 
0.0425272 -0.0122954 0 
0.0529621 -0.0207027 0 
0.0425292 -0.022245 0 
0.0425237 -0.0122945 0 
0.0529579 -0.0207012 0 
0.0425258 -0.0222432 0 
3.3318e-05 0.00114838 0 
-0.00366597 -0.00222766 0 
-0.00676245 -0.00243785 0 
3.33259e-05 0.0011483 0 
-0.00366576 -0.00222754 0 
-0.00676204 -0.00243767 0 
-0.000780531 9.07424e-11 0 
0.000795482 9.07577e-11 0 
-0.00750418 -0.00132025 0 
-0.000780464 -9.25684e-12 0 
0.00079544 -9.24146e-12 0 
-0.00750372 -0.00132016 0 
-0.000341066 0.000301187 0 
-0.000112724 0.000746738 0 
0.00019189 0.000317728 0 
0.00333195 0.00293841 0 
0.00122834 0.00113764 0 
-0.00622415 -0.00826947 0 
-0.00122931 0.000404723 0 
-0.000154214 -0.000166501 0 
-0.00196887 0.000549354 0 
-8.95408e-12 -0.000423529 0 
-9.01206e-12 0.000546417 0 
0.000734851 -0.00227148 0 
9.10466e-11 -0.000423489 0 
9.09886e-11 0.000546369 0 
0.000734784 -0.00227127 0 
0.000320801 0.00032844 0 
0.000127772 0.000951098 0 
0.00103801 0.000405576 0 
-0.000246546 0.000796312 0 
-0.000147593 0.000205595 0 
0.000446255 0.000433259 0 
-9.10503e-11 0.000728384 0 
-9.10259e-11 -0.000802915 0 
-0.00133576 -0.00738085 0 
8.94893e-12 0.000728417 0 
8.97325e-12 -0.000802973 0 
-0.00133584 -0.00738078 0 
-3.78475e-05 1.16358e-11 0 
-0.00171357 1.12619e-11 0 
-0.00148029 0.00143934 0 
-0.000674985 -0.00509841 0 
-7.50422e-05 -0.000243358 0 
0.00244373 -0.00698308 0 
0.000159815 -0.000169244 0 
0.00112583 0.000428389 0 
0.00187978 0.000542379 0 
-5.78035e-05 -8.83659e-11 0 
-0.0017019 -8.8741e-11 0 
-0.00146225 0.00142429 0 
-0.00109265 0.000397877 0 
-0.000333212 0.000894177 0 
-0.000439953 0.000310585 0 
0.00167079 1.12576e-11 0 
6.20372e-05 1.16393e-11 0 
0.00138792 0.00139373 0 
-0.000486362 9.07465e-11 0 
0.000651685 9.08265e-11 0 
-0.00315328 -0.00109473 0 
-0.00048632 -9.25273e-12 0 
0.000651659 -9.17271e-12 0 
-0.0031531 -0.00109466 0 
0.0318005 -0.0124062 0 
0.0423221 -0.0223892 0 
0.03085 -0.0227837 0 
0.0317979 -0.0124052 0 
0.0423187 -0.0223874 0 
0.0308476 -0.0227819 0 
-0.0318956 -0.0301127 0 
-0.0307553 -0.0393816 0 
-0.0420169 -0.0302523 0 
-0.0318942 -0.0301166 0 
-0.0307498 -0.0393887 0 
-0.042018 -0.0302579 0 
0.000247164 0.000408738 0 
-0.000170397 0.000651776 0 
0.000194152 0.000764486 0 
-0.000387669 0.000396645 0 
-0.000431144 0.000732982 0 
-5.21661e-05 0.000685288 0 
0.00118928 0.000655003 0 
9.74823e-05 0.000901154 0 
-1.23453e-05 0.000221834 0 
0.000103014 8.81809e-11 0 
9.29015e-05 8.82905e-11 0 
0.000831236 7.63799e-06 0 
2.60815e-05 8.83378e-11 0 
-0.000222885 8.82685e-11 0 
-0.00106952 0.000215612 0 
0.00013494 8.83309e-11 0 
-7.66055e-05 8.83464e-11 0 
0.000220494 0.000183204 0 
-0.00817984 6.62779e-12 0 
0.00514788 1.23323e-11 0 
-0.00481771 -0.0115259 0 
8.08974e-05 1.16709e-11 0 
-0.000136528 1.16565e-11 0 
-0.000407059 0.000188886 0 
0.000257422 1.16203e-11 0 
-6.58576e-05 1.16626e-11 0 
0.0010405 0.00028044 0 
-0.00520008 1.23276e-11 0 
0.00831422 6.61617e-12 0 
0.00472614 -0.0116819 0 
-0.00136151 -1.20354e-11 0 
0.00150971 -1.22082e-11 0 
0.00938232 -0.00221559 0 
6.87849e-05 -1.16556e-11 0 
-0.000124635 -1.16692e-11 0 
-0.000375074 0.000167507 0 
-0.00074248 -1.2114e-11 0 
0.000739095 -1.18089e-11 0 
-0.00170058 -0.00128308 0 
-0.000160074 -1.17011e-11 0 
-0.000100924 -1.18809e-11 0 
-0.00111902 -5.03904e-05 0 
0.000182604 -1.17245e-11 0 
-2.30633e-05 -1.16606e-11 0 
0.000789596 0.000175133 0 
5.92351e-05 -8.83404e-11 0 
-0.00024987 -8.83837e-11 0 
-0.00115091 0.00026825 0 
0.000141666 -8.8343e-11 0 
-8.81938e-05 -8.83298e-11 0 
0.000286432 0.000199427 0 
0.00163635 -8.87407e-11 0 
6.77977e-05 -8.83635e-11 0 
0.0013564 0.00135955 0 
-0.00517989 -8.76696e-11 0 
0.00830483 -9.33836e-11 0 
0.00468601 -0.0116781 0 
-0.0015572 8.79334e-11 0 
0.00163782 8.77964e-11 0 
0.0106237 -0.0026853 0 
-0.00127549 0.000661993 0 
-7.1594e-05 0.00015138 0 
-0.000276691 0.000832372 0 
-0.00420148 0.000665449 0 
0.00388734 -0.000615695 0 
-0.000839202 -0.00723619 0 
-0.00420202 0.000665535 0 
0.00388751 -0.000615721 0 
-0.000842412 -0.00723633 0 
0.0418927 -0.0410139 0 
-0.0289085 -0.130448 0 
-0.0332803 -0.0908467 0 
0.0418861 -0.0410099 0 
-0.028898 -0.130411 0 
-0.0332655 -0.0908158 0 
-0.000935452 0.000593076 0 
-0.000128569 5.79552e-05 0 
-0.00145219 0.000372237 0 
0.000329887 0.00054476 0 
8.83959e-05 -0.00376461 0 
0.000314432 -0.00140895 0 
-0.00650287 -0.00861373 0 
0.00340614 0.00300993 0 
0.0012583 0.00116891 0 
-0.00141941 9.10437e-11 0 
0.000619348 9.08091e-11 0 
-0.0209696 -0.00175249 0 
-0.00141921 -8.95558e-12 0 
0.000619266 -9.1901e-12 0 
-0.0209677 -0.00175225 0 
-0.00343778 0.00301742 0 
0.00639564 -0.00871694 0 
-0.00136817 0.00126076 0 
-0.00345726 0.00300686 0 
0.00642196 -0.00875616 0 
-0.00140382 0.00130746 0 
-0.000396842 -0.000400637 0 
0.00111123 -0.00381944 0 
-0.000384673 0.000534751 0 
-0.000387503 -0.000315513 0 
0.00113398 -0.00376401 0 
-0.000421887 0.000544325 0 
-0.0062193 -0.0456078 0 
-0.00532253 -0.047146 0 
-0.0171064 -0.0466635 0 
-0.0062064 -0.0456033 0 
-0.00530679 -0.0471482 0 
-0.0170937 -0.0466653 0 
0.00374587 -0.0186915 0 
-0.00168954 -0.00363418 0 
0.00255011 -0.0064089 0 
-0.000409208 -0.00537755 0 
-0.00267097 -0.00860784 0 
-0.000608816 0.00116604 0 
-0.00503662 -0.000797723 0 
0.000934234 0.000147968 0 
-0.0235074 -0.00899303 0 
-0.00503703 -0.000797787 0 
0.000934098 0.000147947 0 
-0.0235125 -0.00899407 0 
-0.0386591 -0.0207322 0 
-0.0421784 -0.0303918 0 
-0.0494224 -0.0211267 0 
-0.0386609 -0.0207353 0 
-0.0421793 -0.0303971 0 
-0.0494265 -0.0211298 0 
0.0210626 -0.0119275 0 
0.0304225 -0.0228348 0 
0.0191748 -0.0209359 0 
0.0210609 -0.0119265 0 
0.0304201 -0.022833 0 
0.0191733 -0.0209342 0 
0.0289959 -0.130351 0 
-0.0419263 -0.0410416 0 
0.0335168 -0.0911697 0 
0.0290155 -0.130351 0 
-0.0420423 -0.0412038 0 
0.0337056 -0.0914099 0 
0.00240093 -0.00871581 0 
0.000224294 -0.00534371 0 
0.000569567 0.00126021 0 
-0.0166903 -0.0455717 0 
-0.0219609 -0.0445117 0 
-0.030712 -0.0395894 0 
-0.0166757 -0.0455737 0 
-0.0219478 -0.0445265 0 
-0.0307066 -0.0395969 0 
0.0024085 -0.00877814 0 
0.000234305 -0.00524185 0 
0.00060723 0.00131848 0 
0.0524416 -0.0121651 0 
0.0528102 -0.0209407 0 
0.042545 -0.0122674 0 
0.0524375 -0.0121642 0 
0.052806 -0.0209392 0 
0.0425416 -0.0122665 0 
0.0425679 -0.0123737 0 
0.042477 -0.022145 0 
0.0316491 -0.0126448 0 
0.0425645 -0.0123727 0 
0.0424737 -0.0221433 0 
0.0316465 -0.0126438 0 
0.00351688 -0.0106037 0 
0.000171554 -0.0193801 0 
-0.000798162 -0.00354129 0 
-0.000499118 -0.0186706 0 
-0.00374653 -0.0103563 0 
0.000656091 -0.00364574 0 
0.0180414 -0.0445832 0 
0.0161471 -0.0471299 0 
0.00690357 -0.0478787 0 
0.0180409 -0.0445796 0 
0.016147 -0.0471256 0 
0.00690496 -0.0478746 0 
-0.00537349 -0.00273793 0 
-5.94563e-05 -3.02946e-05 0 
-0.0297428 -0.0198612 0 
-0.00537619 -0.00273931 0 
-5.76627e-05 -2.93806e-05 0 
-0.0297449 -0.0198658 0 
-0.00413498 -0.000654916 0 
0.00445152 0.000705052 0 
-0.00148029 -0.0080353 0 
-0.00413793 -0.000655383 0 
0.00445368 0.000705394 0 
-0.00147802 -0.00803958 0 
0.00351333 -0.010653 0 
6.38714e-05 -0.0194517 0 
-0.000931437 -0.00333104 0 
0.00249122 -0.0116949 0 
-0.00117258 -3.0406e-05 0 
0.00220918 -0.00741416 0 
0.00249105 -0.0116939 0 
-0.0011725 -3.03922e-05 0 
0.002209 -0.00741351 0 
-0.00463086 -0.0420594 0 
0.00175134 -0.041118 0 
-0.00713971 -0.0468064 0 
-0.00462963 -0.0420673 0 
0.00174368 -0.0411115 0 
-0.00712548 -0.0467992 0 
-0.00110128 0.000174425 0 
0.00456076 -0.000722354 0 
0.026262 -0.0095061 0 
-0.00110165 0.000174485 0 
0.0045483 -0.00072038 0 
0.0262529 -0.00949323 0 
0.0108679 -0.00920741 0 
0.0186318 -0.020965 0 
0.00901053 -0.0164932 0 
0.0108688 -0.00920819 0 
0.0186332 -0.0209667 0 
0.00901121 -0.0164945 0 
-0.000230875 0.00152845 0 
-0.0144195 -0.00295704 0 
-0.0201469 -0.00323158 0 
-0.000230853 0.00152826 0 
-0.0144184 -0.00295671 0 
-0.0201451 -0.00323114 0 
-0.0628437 -0.0136741 0 
-0.0636521 -0.0234262 0 
-0.0720917 -0.0179009 0 
-0.0628494 -0.0136748 0 
-0.0636574 -0.0234272 0 
-0.0720976 -0.0179018 0 
-0.00330613 -0.0334499 0 
0.00335697 -0.0412114 0 
-0.00565013 -0.0420001 0 
-0.00332421 -0.0334354 0 
0.00335391 -0.0412052 0 
-0.00567 -0.0420068 0 
-0.0304199 -0.0222304 0 
-0.0370072 -0.0201301 0 
-0.0379193 -0.0265719 0 
-0.00410213 -0.0414639 0 
0.00691071 -0.047412 0 
-0.00274716 -0.0469258 0 
-0.00409851 -0.0414603 0 
0.0069121 -0.047408 0 
-0.00274449 -0.046921 0 
0.0319909 -0.0127751 0 
0.0306729 -0.0224405 0 
0.0208503 -0.0122618 0 
0.0319883 -0.0127741 0 
0.0306705 -0.0224387 0 
0.0208486 -0.0122609 0 
0.0144006 -0.0299063 0 
0.0246877 -0.0350402 0 
0.0148951 -0.0393325 0 
0.0143997 -0.0299039 0 
0.0246861 -0.0350374 0 
0.0148946 -0.0393295 0 
-0.00553764 -0.00282157 0 
0.00198838 0.00101313 0 
-0.0255327 -0.0207051 0 
-0.00554647 -0.00282607 0 
0.00199241 0.00101518 0 
-0.0255518 -0.0207366 0 
-0.0317427 -0.0301256 0 
-0.0422531 -0.0302325 0 
-0.0385547 -0.020955 0 
-0.0317414 -0.0301295 0 
-0.0422538 -0.0302381 0 
-0.0385565 -0.0209579 0 
0.0773205 -0.0180733 0 
0.0868495 -0.0245688 0 
0.0600016 -0.004868 0 
0.0773266 -0.0180747 0 
0.0868562 -0.0245708 0 
0.0600064 -0.00486845 0 
-0.0215864 -0.0458514 0 
-0.00370418 -0.0475645 0 
-0.00153436 -0.0438248 0 
-0.0215716 -0.0458729 0 
-0.00368853 -0.047566 0 
-0.00149757 -0.0438313 0 
-0.0181009 -0.0441409 0 
-0.016203 -0.0510658 0 
-0.0348893 -0.0580267 0 
0.00943785 -0.0440982 0 
0.00655791 -0.04755 0 
0.00405797 -0.0433566 0 
0.00943842 -0.0440951 0 
0.00655945 -0.047546 0 
0.00406035 -0.0433538 0 
-0.0243682 -0.0272263 0 
-0.000176945 -0.00372086 0 
0.00124317 -0.0505689 0 
-0.0304163 -0.0222241 0 
-0.0370015 -0.0201284 0 
-0.037917 -0.0265628 0 
0.021259 -0.0123046 0 
0.0189297 -0.0204693 0 
0.0105953 -0.00966105 0 
0.0212607 -0.0123056 0 
0.0189312 -0.0204709 0 
0.0105962 -0.00966185 0 
0.000508876 0.000339251 0 
-0.000613172 -0.000408781 0 
-0.0247462 -0.0151055 0 
0.000509992 0.000339995 0 
-0.0006133 -0.000408867 0 
-0.0247463 -0.0151041 0 
0.000337386 -0.010145 0 
0.00171804 0.00474726 0 
0.0218376 -0.0236501 0 
0.000334291 -0.0101454 0 
0.00171805 0.00474762 0 
0.0218356 -0.0236497 0 
0.000343965 0.00022931 0 
-0.00121944 -0.000812963 0 
-0.0289158 -0.0173215 0 
0.000344257 0.000229504 0 
-0.00121961 -0.000813075 0 
-0.0289169 -0.0173217 0 
-0.00931916 -0.0190272 0 
-0.0205467 -0.0268185 0 
-0.0154161 -0.0153445 0 
-0.00931813 -0.0190272 0 
-0.0205452 -0.0268198 0 
-0.0154161 -0.0153456 0 
-0.0018738 0.0012492 0 
0.00369547 -0.00246365 0 
0.0226705 -0.0220661 0 
-0.00187363 0.00124908 0 
0.0036953 -0.00246354 0 
0.0226689 -0.0220646 0 
-0.0146774 -0.0146983 0 
-0.0233637 -0.0340627 0 
-0.0326933 -0.0220405 0 
0.000458267 0.000305512 0 
-0.0018148 -0.00120986 0 
-0.0337413 -0.0198364 0 
0.000458138 0.000305425 0 
-0.00181462 -0.00120974 0 
-0.0337392 -0.0198353 0 
-0.022091 -0.0377202 0 
-0.0205568 -0.0270523 0 
-0.0132411 -0.0321682 0 
-0.0220858 -0.0377224 0 
-0.020555 -0.0270541 0 
-0.0132374 -0.032167 0 
0.00112784 -0.010288 0 
0.0187535 -0.0230921 0 
0.00840386 -0.0356745 0 
0.00112461 -0.0102884 0 
0.0187516 -0.0230917 0 
0.00840093 -0.0356755 0 
0.00115272 -0.00058734 0 
0.00537179 -0.00273707 0 
0.0337025 -0.0217747 0 
0.00113366 -0.000577629 0 
0.00540283 -0.00275288 0 
0.0336837 -0.0218198 0 
0.000627119 -0.000418079 0 
-0.0006943 0.000462867 0 
0.0236876 -0.0142262 0 
0.000627062 -0.000418041 0 
-0.000694212 0.000462808 0 
0.0236859 -0.0142252 0 
-0.0385708 -0.0207397 0 
-0.0497785 -0.0210966 0 
-0.039349 -0.0114937 0 
-0.0385727 -0.0207427 0 
-0.0497823 -0.0210997 0 
-0.0393523 -0.0114952 0 
0.00126539 -0.000843595 0 
-0.000273109 0.000182072 0 
0.0278142 -0.0166718 0 
0.00126549 -0.000843663 0 
-0.000273142 0.000182094 0 
0.0278163 -0.016673 0 
-0.0146551 -0.0146773 0 
-0.0233839 -0.034059 0 
-0.0326898 -0.02203 0 
-0.0218489 -0.0377862 0 
-0.0308422 -0.0391992 0 
-0.0317604 -0.0303965 0 
-0.0218431 -0.0377883 0 
-0.0308368 -0.0392061 0 
-0.031759 -0.0304005 0 
0.0420909 -0.0123567 0 
0.0322617 -0.0126646 0 
0.0230695 -0.00284962 0 
0.0420943 -0.0123576 0 
0.0322643 -0.0126656 0 
0.0230714 -0.00284983 0 
-0.0181286 -0.0441885 0 
-0.016241 -0.051095 0 
-0.0348911 -0.0580029 0 
0.0180221 -0.0449233 0 
0.00693221 -0.0473751 0 
0.00960688 -0.0440192 0 
0.0180216 -0.0449196 0 
0.00693359 -0.0473711 0 
0.00960757 -0.044016 0 
0.00251041 -0.00167361 0 
-0.000393369 0.000262246 0 
0.0434326 -0.0245072 0 
0.0025106 -0.00167373 0 
-0.000393406 0.000262271 0 
0.0434359 -0.0245091 0 
-0.00519923 -0.0428999 0 
-0.00643214 -0.0457601 0 
-0.00679103 -0.0414159 0 
-0.00518839 -0.0428936 0 
-0.006421 -0.0457574 0 
-0.00677443 -0.0413991 0 
0.00995596 -0.0438267 0 
0.00574172 -0.0389718 0 
0.00760483 -0.0343099 0 
0.00995533 -0.0438299 0 
0.00574089 -0.0389739 0 
0.00760488 -0.0343122 0 
0.000506535 0.00033769 0 
-0.00308047 -0.00205365 0 
-0.0470821 -0.0268156 0 
0.000506456 0.000337637 0 
-0.00308022 -0.00205348 0 
-0.0470787 -0.0268138 0 
-0.00084285 0.000115721 0 
0.00129217 -0.00262805 0 
0.00209907 -0.00617704 0 
-0.000842779 0.000115716 0 
0.00129205 -0.00262781 0 
0.0020989 -0.0061765 0 
-0.0144671 -0.0487827 0 
-0.00118973 -0.0452721 0 
0.0100597 -0.0849109 0 
-0.0132974 -0.0322565 0 
-0.020419 -0.0268358 0 
-0.00941579 -0.0190141 0 
-0.0132941 -0.032256 0 
-0.0204168 -0.0268372 0 
-0.00941541 -0.019014 0 
0.0312177 -0.0382685 0 
0.0303039 -0.0405615 0 
0.0441716 -0.0305658 0 
0.0312199 -0.0382717 0 
0.0303059 -0.0405649 0 
0.0441751 -0.0305682 0 
-0.0576641 -0.0207029 0 
-0.0643597 -0.0216376 0 
-0.0622846 -0.015114 0 
-0.0576589 -0.0207014 0 
-0.0643543 -0.0216368 0 
-0.0622789 -0.0151132 0 
0.00275362 -0.00183575 0 
-0.00080753 0.000538353 0 
0.0459241 -0.0263646 0 
0.00275342 -0.00183561 0 
-0.00080747 0.000538313 0 
0.0459206 -0.0263626 0 
-0.0170854 -0.0461395 0 
-0.030461 -0.0392287 0 
-0.0222664 -0.0377539 0 
-0.0170724 -0.0461438 0 
-0.0304552 -0.0392356 0 
-0.0222611 -0.037756 0 
0.00950976 -0.0435426 0 
0.00389727 -0.0445982 0 
0.00665398 -0.0395627 0 
0.00951034 -0.0435394 0 
0.00389962 -0.0445956 0 
0.00665484 -0.0395606 0 
-0.00373419 -0.0325564 0 
-0.00535764 -0.0426106 0 
-0.0114232 -0.0401306 0 
-0.00375274 -0.0325409 0 
-0.00537101 -0.0426309 0 
-0.0114796 -0.0401183 0 
0.0298696 -0.0406306 0 
0.0181039 -0.0451355 0 
0.025281 -0.0349312 0 
0.0298715 -0.040634 0 
0.0181044 -0.0451393 0 
0.0252827 -0.0349339 0 
-0.0219726 -0.0379655 0 
-0.0315783 -0.0301324 0 
-0.0206797 -0.0267977 0 
-0.0219671 -0.0379682 0 
-0.0315766 -0.0301362 0 
-0.0206781 -0.0267991 0 
0.0229923 -0.0176338 0 
0.00263428 -0.0170808 0 
0.0103102 -0.0429669 0 
0.0229906 -0.0176327 0 
0.0026342 -0.0170794 0 
0.0103099 -0.0429627 0 
0.0303894 -0.040993 0 
0.0169595 -0.0467475 0 
0.0176011 -0.0447905 0 
0.0303874 -0.0409895 0 
0.0169592 -0.0467433 0 
0.0176007 -0.0447868 0 
0.0385516 -0.00394936 0 
0.0526771 -0.0115925 0 
0.0298763 -0.00363576 0 
0.0385546 -0.00394965 0 
0.0526813 -0.0115933 0 
0.0298788 -0.00363603 0 
0.00760595 -0.0341908 0 
0.0057344 -0.0397554 0 
0.00184808 -0.0241554 0 
0.00760599 -0.0341932 0 
0.00573356 -0.0397575 0 
0.00184791 -0.0241567 0 
0.00243195 -0.00681862 0 
0.0117354 -0.00663276 0 
0.0140374 -0.0168961 0 
-0.0270391 -0.0325844 0 
-0.0220046 -0.0449533 0 
-0.000840616 -0.0453147 0 
-0.0270411 -0.0325983 0 
-0.0219932 -0.0449675 0 
-0.000793514 -0.0453433 0 
9.36305e-05 6.24203e-05 0 
-0.00460766 -0.00307177 0 
-0.065435 -0.0370701 0 
9.36065e-05 6.24043e-05 0 
-0.00460731 -0.00307154 0 
-0.0654302 -0.0370674 0 
0.00782476 -0.0330793 0 
0.0196331 -0.0270342 0 
0.0186395 -0.0429593 0 
0.00782182 -0.0330802 0 
0.0196313 -0.0270338 0 
0.0186378 -0.0429591 0 
0.00375943 -0.00250628 0 
-0.000825791 0.000550527 0 
0.0550186 -0.0317362 0 
0.00375968 -0.00250645 0 
-0.000825843 0.000550562 0 
0.0550227 -0.0317386 0 
0.0168658 -0.0469713 0 
0.00927398 -0.0422586 0 
-0.00191976 -0.0478141 0 
0.0168655 -0.0469671 0 
0.00927422 -0.0422543 0 
-0.00191732 -0.0478091 0 
0.0375343 -0.0250777 0 
0.0221676 -0.0354611 0 
0.0277679 -0.0151946 0 
-0.0154502 -0.0152652 0 
-0.020563 -0.0267805 0 
-0.026477 -0.0190173 0 
-0.0154503 -0.015266 0 
-0.0205613 -0.0267822 0 
-0.0264773 -0.0190192 0 
-0.0241927 -0.0338473 0 
-0.0048039 -0.0548991 0 
-0.0273361 -0.0444292 0 
-0.0249998 -0.0149751 0 
0.000419347 -0.000939519 0 
-0.02901 -0.015861 0 
-0.0249999 -0.0149737 0 
0.000419671 -0.000939838 0 
-0.0290111 -0.015861 0 
0.0761789 -0.0164908 0 
0.0859809 -0.022539 0 
0.0730194 -0.0274238 0 
0.076173 -0.0164895 0 
0.0859742 -0.0225371 0 
0.0730138 -0.0274217 0 
-0.0242189 -0.0338227 0 
-0.00481794 -0.0548656 0 
-0.0273377 -0.0444042 0 
-0.0317438 -0.0301272 0 
-0.0384499 -0.0208047 0 
-0.0265329 -0.0190333 0 
-0.0317425 -0.030131 0 
-0.0384517 -0.0208077 0 
-0.0265334 -0.0190353 0 
0.000536039 -0.00168096 0 
-0.0338187 -0.0178089 0 
-0.0301839 -0.0166945 0 
0.000536183 -0.00168122 0 
-0.0338208 -0.0178096 0 
-0.0301853 -0.0166945 0 
0.0311844 -0.0387425 0 
0.0102593 -0.041781 0 
0.0164017 -0.0471963 0 
0.0311822 -0.0387393 0 
0.0102592 -0.0417768 0 
0.0164016 -0.0471919 0 
-0.000597317 0.00186492 0 
0.0240197 -0.0214153 0 
0.0237209 -0.0137451 0 
-0.000597235 0.00186476 0 
0.024018 -0.0214138 0 
0.0237192 -0.0137442 0 
0.0336007 -0.0198336 0 
0.00562554 -0.00757877 0 
0.0382859 -0.0400817 0 
0.0307922 -0.0384857 0 
0.0169069 -0.0475271 0 
0.0304222 -0.0405067 0 
0.03079 -0.0384825 0 
0.0169067 -0.0475227 0 
0.0304202 -0.0405033 0 
0.026565 -0.0199773 0 
0.0101831 -0.0428836 0 
0.0311725 -0.0389139 0 
0.0265629 -0.0199759 0 
0.010183 -0.0428795 0 
0.0311704 -0.0389107 0 
-0.0393768 -0.0114344 0 
-0.0496806 -0.0213054 0 
-0.0505034 -0.0121284 0 
-0.03938 -0.011436 0 
-0.0496845 -0.0213083 0 
-0.0505083 -0.0121296 0 
-0.0494523 -0.0209644 0 
-0.0587902 -0.0208808 0 
-0.0508338 -0.0126216 0 
-0.0494563 -0.0209675 0 
-0.0587954 -0.0208826 0 
-0.0508386 -0.0126228 0 
-0.0205808 -0.0268059 0 
-0.031748 -0.0301185 0 
-0.0265149 -0.0190714 0 
-0.0205789 -0.0268073 0 
-0.0317467 -0.0301222 0 
-0.0265153 -0.0190735 0 
-0.0215763 -0.0377581 0 
-0.013545 -0.0321458 0 
-0.0123996 -0.0421485 0 
-0.02157 -0.0377604 0 
-0.0135425 -0.0321445 0 
-0.0123915 -0.0421458 0 
0.00736306 -0.0340175 0 
0.00206747 -0.0243156 0 
0.00257327 -0.0190242 0 
0.00736309 -0.0340151 0 
0.00206761 -0.0243142 0 
0.0025732 -0.0190229 0 
0.0279464 -0.0154827 0 
-0.000388603 -0.000856838 0 
0.0237162 -0.0142121 0 
0.0279485 -0.0154838 0 
-0.000388647 -0.00085692 0 
0.0237179 -0.0142131 0 
-0.00625642 -0.041444 0 
-0.00750638 -0.0457037 0 
-0.0124238 -0.0423666 0 
-0.00624934 -0.0414267 0 
-0.00749076 -0.0457013 0 
-0.0124169 -0.0423654 0 
-0.035396 -0.0190875 0 
0.000770793 -0.00238009 0 
-0.0473657 -0.0238993 0 
-0.0353937 -0.0190865 0 
0.000770684 -0.00237984 0 
-0.0473623 -0.0238978 0 
0.0115483 -0.0423643 0 
-0.00635294 -0.0214221 0 
-0.0250407 -0.0378784 0 
0.0115487 -0.0423685 0 
-0.00635329 -0.0214237 0 
-0.025046 -0.0378842 0 
-0.000474011 0.000316007 0 
0.00578453 -0.00385635 0 
0.0709731 -0.0559136 0 
-0.000473068 0.000315379 0 
0.00578454 -0.00385636 0 
0.07098 -0.0559169 0 
-0.00701305 -0.0467718 0 
-0.0162883 -0.0454637 0 
-0.0128192 -0.0415105 0 
-0.00699909 -0.0467658 0 
-0.0162757 -0.0454657 0 
-0.012813 -0.0415079 0 
0.0335787 -0.0198151 0 
0.00565333 -0.00753268 0 
0.0382597 -0.0411257 0 
-0.000656982 -0.00163847 0 
0.0285574 -0.0163645 0 
0.0437524 -0.0222014 0 
-0.000657041 -0.0016386 0 
0.0285596 -0.0163657 0 
0.0437557 -0.0222031 0 
0.0114573 -0.0435749 0 
-0.0250509 -0.0379497 0 
-0.0027056 -0.0473403 0 
0.0114569 -0.0435702 0 
-0.0250457 -0.0379449 0 
-0.00270296 -0.0473355 0 
0.0502215 -0.0246098 0 
0.0611677 -0.0215572 0 
0.0544937 -0.02297 0 
0.0502254 -0.0246116 0 
0.0611725 -0.0215588 0 
0.0544979 -0.0229717 0 
0.00648733 -0.0475934 0 
0.0168369 -0.0476027 0 
-0.00186159 -0.0465463 0 
0.00648887 -0.0475894 0 
0.0168366 -0.0475983 0 
-0.00185917 -0.0465416 0 
0.0458676 -0.0226113 0 
-0.000747822 -0.00367969 0 
0.0467252 -0.02248 0 
0.0458711 -0.0226131 0 
-0.000747877 -0.00367997 0 
0.0467288 -0.0224817 0 
-0.00064225 -9.13404e-12 0 
0.000537011 -9.23681e-12 0 
0.00304354 -0.00118533 0 
-0.000642195 9.08667e-11 0 
0.000536961 9.07639e-11 0 
0.00304327 -0.00118523 0 
-0.0174481 -0.0453819 0 
-0.0219737 -0.0383653 0 
-0.0120189 -0.0415669 0 
-0.0174362 -0.0453839 0 
-0.0219679 -0.0383684 0 
-0.0120109 -0.0415644 0 
-0.0584083 -0.0217674 0 
-0.0614394 -0.013919 0 
-0.0511247 -0.0119462 0 
-0.0584136 -0.021769 0 
-0.0614449 -0.0139197 0 
-0.0511295 -0.0119474 0 
-9.09515e-11 0.000563741 0 
-9.10181e-11 -0.000411003 0 
-0.000778776 -0.0024765 0 
9.04766e-12 0.000563725 0 
8.98111e-12 -0.000410986 0 
-0.000778749 -0.00247638 0 
0.0523288 -0.0121599 0 
0.0428995 -0.0122807 0 
0.0303515 -0.00286172 0 
0.052333 -0.0121608 0 
0.042903 -0.0122816 0 
0.0303539 -0.00286193 0 
0.000579938 -0.00379288 0 
-0.0659174 -0.0332458 0 
-0.0496777 -0.0255823 0 
0.000579872 -0.00379256 0 
-0.0659125 -0.0332434 0 
-0.0496741 -0.0255806 0 
-0.000603154 -0.00367466 0 
0.0489804 -0.0246861 0 
0.0548426 -0.0283959 0 
-0.000603191 -0.00367492 0 
0.0489841 -0.024688 0 
0.0548467 -0.0283981 0 
-0.0389773 -0.011528 0 
-0.0209859 -0.00247598 0 
-0.0282525 -0.0105674 0 
-0.038974 -0.0115265 0 
-0.020984 -0.00247566 0 
-0.0282506 -0.010566 0 
-0.0468472 -0.00463298 0 
-0.0753472 -0.0120591 0 
-0.0396301 -0.00304929 0 
-0.0468431 -0.00463276 0 
-0.075341 -0.0120583 0 
-0.0396268 -0.00304905 0 
-8.94889e-12 -0.000737816 0 
-8.9311e-12 0.000624205 0 
0.00112882 -0.00676239 0 
9.10518e-11 -0.00073775 0 
9.10696e-11 0.000624157 0 
0.00112873 -0.0067618 0 
-0.00957942 -0.019465 0 
-0.00174849 -0.0128091 0 
-0.00622031 -0.0235795 0 
-0.00957843 -0.019465 0 
-0.00174821 -0.0128088 0 
-0.0062195 -0.0235788 0 
0.02248 -0.0313392 0 
0.0271299 -0.0446764 0 
0.00362424 -0.0517371 0 
0.000303007 0.000658179 0 
0.0719843 -0.0554683 0 
0.0024047 -0.0702363 0 
0.000306224 0.000658552 0 
0.0719901 -0.0554721 0 
0.00241155 -0.070237 0 
-0.0266666 -0.0190244 0 
-0.0383989 -0.020812 0 
-0.0278436 -0.0103726 0 
-0.0266662 -0.0190224 0 
-0.0383971 -0.020809 0 
-0.0278418 -0.0103713 0 
0.000247113 -0.0439541 0 
-0.00507921 -0.0474681 0 
0.0126918 -0.0432101 0 
0.00021716 -0.0439481 0 
-0.00509491 -0.0474666 0 
0.0126877 -0.0432198 0 
-0.00536739 -0.00638491 0 
-0.0297471 -0.0189557 0 
-0.0387356 -0.0402462 0 
-0.0373702 -0.034925 0 
-0.0248523 -0.0325152 0 
-0.0388468 -0.0259206 0 
-0.0373686 -0.0349344 0 
-0.0248458 -0.0325308 0 
-0.038853 -0.0259261 0 
-0.00536536 -0.00638839 0 
-0.0297448 -0.0189507 0 
-0.038732 -0.0402211 0 
-0.048365 -0.022956 0 
-0.0493378 -0.0268253 0 
-0.0389402 -0.0259867 0 
-0.0483687 -0.0229565 0 
-0.0493411 -0.0268296 0 
-0.038944 -0.0259903 0 
0.0425701 -0.0115876 0 
0.0225234 -0.00372596 0 
0.03076 -0.00372129 0 
0.0425736 -0.0115885 0 
0.0225253 -0.00372624 0 
0.0307625 -0.00372157 0 
-0.021454 -0.0032057 0 
-0.0131469 -0.00298223 0 
-0.027822 -0.00989639 0 
-0.021452 -0.00320527 0 
-0.013146 -0.0029819 0 
-0.0278202 -0.00989516 0 
-0.0902333 -0.0750733 0 
-0.0364946 -0.0292171 0 
-0.0575829 -0.00252466 0 
-0.0902259 -0.0750685 0 
-0.0364922 -0.0292153 0 
-0.057578 -0.00252432 0 
-0.0384925 -0.0206245 0 
-0.0393587 -0.0115046 0 
-0.0277303 -0.0105995 0 
-0.0384907 -0.0206216 0 
-0.0393552 -0.011503 0 
-0.0277285 -0.0105982 0 
0.0279397 -0.0158031 0 
0.0218375 -0.0342914 0 
0.0124541 -0.0174761 0 
-0.0399893 -0.0217665 0 
-0.0330762 -0.0214568 0 
-0.0371171 -0.0270884 0 
-0.0244861 -0.0338175 0 
-0.00476333 -0.0119374 0 
-0.0184334 -0.0128372 0 
-0.0244762 -0.033842 0 
-0.00476532 -0.0119523 0 
-0.0184318 -0.012832 0 
-0.039981 -0.0217667 0 
-0.0330759 -0.0214479 0 
-0.0371164 -0.0270792 0 
-7.05815e-05 0.00128445 0 
0.00729498 -0.00286473 0 
0.00364183 -0.00245011 0 
-7.05796e-05 0.00128434 0 
0.00729435 -0.00286449 0 
0.0036415 -0.0024499 0 
0.0281944 -0.0353839 0 
-0.00155093 -0.0458984 0 
0.0138686 -0.0419173 0 
0.0281986 -0.035372 0 
-0.00151501 -0.0458978 0 
0.0138699 -0.0419107 0 
0.00783503 -0.0338692 0 
0.00219635 -0.0191426 0 
0.00686303 -0.0235218 0 
0.00783495 -0.0338669 0 
0.00219632 -0.0191413 0 
0.00686265 -0.0235199 0 
0.00509201 -0.0405452 0 
0.00604949 -0.0432444 0 
0.00732161 -0.0401874 0 
0.00509288 -0.0405432 0 
0.00605183 -0.0432417 0 
0.00732322 -0.0401864 0 
0.011257 -0.00487073 0 
-0.00063543 0.00303815 0 
0.0173551 -0.00469104 0 
0.0126363 -0.00596567 0 
-0.000584714 0.00362246 0 
0.0182218 -0.00515565 0 
-0.0168419 -0.0361207 0 
-0.0178549 -0.0233997 0 
-0.00385247 -0.0313442 0 
-0.0168472 -0.0361244 0 
-0.0178606 -0.0234019 0 
-0.00385657 -0.0313464 0 
0.0257161 -0.0127489 0 
0.0403802 -0.0247095 0 
0.028311 -0.0285088 0 
0.0256967 -0.0127431 0 
0.0403609 -0.0247503 0 
0.0282972 -0.028507 0 
0.000955579 0.000140792 0 
-0.00241973 -0.00671431 0 
-0.00145789 -0.00286865 0 
0.000955593 0.000140817 0 
-0.00241983 -0.00671423 0 
-0.00145785 -0.00286853 0 
0.0311929 -0.0367127 0 
0.0441898 -0.0317007 0 
0.0401481 -0.0269573 0 
0.031195 -0.0367157 0 
0.0441932 -0.0317031 0 
0.0401511 -0.0269592 0 
-0.00339596 -0.00999696 0 
0.000791343 -0.00322875 0 
-0.000477655 -0.0185045 0 
0.00459393 -0.118472 0 
-0.00942448 -0.1186 0 
0.0415354 -0.108235 0 
0.00459396 -0.118466 0 
-0.00942458 -0.1186 0 
0.0415301 -0.10823 0 
0.0137632 -0.0273817 0 
0.0257928 -0.0122555 0 
0.0283208 -0.0284458 0 
0.013748 -0.0273691 0 
0.0257731 -0.0122519 0 
0.0283068 -0.0284454 0 
0.00181425 -0.0410065 0 
0.0138325 -0.0288544 0 
0.0140588 -0.0411863 0 
0.00181129 -0.0410007 0 
0.0138181 -0.0288411 0 
0.0140629 -0.0411792 0 
0.0272809 -0.0140209 0 
0.00918143 -0.00441213 0 
0.0179877 -0.00483082 0 
0.0268288 -0.0137968 0 
0.0105686 -0.00542694 0 
0.018519 -0.00523308 0 
-0.0264818 -0.0187513 0 
-0.0279983 -0.0106015 0 
-0.017469 -0.00917197 0 
-0.0264823 -0.0187532 0 
-0.0280001 -0.0106028 0 
-0.0174698 -0.00917277 0 
-0.0112679 -0.0398115 0 
-0.00522369 -0.0424173 0 
-0.00568682 -0.0398342 0 
-0.0111785 -0.0397759 0 
-0.00519931 -0.0423811 0 
-0.00583049 -0.0399656 0 
-0.0428153 -0.0224654 0 
-0.0266959 -0.00936898 0 
-0.0317618 -0.0211318 0 
-0.0428092 -0.0224647 0 
-0.0266839 -0.00937111 0 
-0.0317581 -0.0211226 0 
-0.00162255 0.00199728 0 
-0.0510415 -0.00637745 0 
-0.0364139 -0.00171389 0 
-0.00162268 0.00199742 0 
-0.051046 -0.00637783 0 
-0.0364169 -0.00171402 0 
-0.00654815 -0.0419169 0 
-0.0120072 -0.0416914 0 
-0.00623739 -0.0328817 0 
-0.00654768 -0.0419103 0 
-0.0119988 -0.0416876 0 
-0.00623191 -0.032876 0 
-0.0378051 -0.0112483 0 
-0.0252487 -0.102796 0 
-0.0262912 -0.128391 0 
-0.0378056 -0.0112497 0 
-0.0252446 -0.10279 0 
-0.0262908 -0.128386 0 
0.0249519 -0.0144883 0 
0.0223854 -0.0204283 0 
0.0386713 -0.0276736 0 
0.0249537 -0.0144892 0 
0.0223869 -0.0204297 0 
0.0386742 -0.0276757 0 
-0.012616 -0.0416952 0 
-0.0133228 -0.0326111 0 
-0.00584567 -0.0328793 0 
-0.0126084 -0.0416914 0 
-0.0133198 -0.0326108 0 
-0.00584339 -0.0328737 0 
7.43396e-11 -0.0310953 0 
8.53642e-11 2.54558e-06 0 
0.0219845 -0.138258 0 
-2.4901e-11 -0.0287728 0 
-1.59817e-11 -0.0118439 0 
0.0124069 -0.141904 0 
7.5117e-11 -0.0287595 0 
8.40331e-11 -0.0118888 0 
0.0123658 -0.14196 0 
-2.56607e-11 -0.0310944 0 
-1.46364e-11 2.54781e-06 0 
0.0219838 -0.138254 0 
-8.40236e-11 -0.0118847 0 
-7.50996e-11 -0.0287684 0 
-0.0123719 -0.141902 0 
1.46324e-11 0.000246568 0 
2.56494e-11 -0.030765 0 
-0.021651 -0.138107 0 
-8.53663e-11 0.000246928 0 
-7.43495e-11 -0.0307645 0 
-0.0216509 -0.138102 0 
1.59791e-11 -0.0118841 0 
2.49061e-11 -0.0287775 0 
-0.012379 -0.141941 0 
3.68007e-05 0.00134343 0 
-0.00266143 -0.00298581 0 
-0.00682356 -0.00278179 0 
-0.0738382 -0.0200845 0 
-0.062444 -0.0219057 0 
-0.0647671 -0.024268 0 
-0.0738321 -0.0200834 0 
-0.0624389 -0.0219048 0 
-0.0647622 -0.0242669 0 
4.61276e-05 0.00136591 0 
-0.00268994 -0.0029967 0 
-0.00685935 -0.00281336 0 
-0.000793867 0.000460609 0 
2.97662e-05 0.000819609 0 
-0.000282413 0.000668383 0 
0.00019648 0.000550568 0 
-0.000231723 0.00083088 0 
0.000399203 0.000512864 0 
-0.000276671 0.000577964 0 
-0.000103703 0.000814173 0 
-2.02142e-05 0.000671008 0 
-0.0078928 -0.00257949 0 
-0.00255846 -0.00208888 0 
-0.0101546 -0.00656623 0 
-0.00789232 -0.00257931 0 
-0.00255832 -0.00208876 0 
-0.0101543 -0.00656584 0 
-0.000880832 -0.000719842 0 
-4.72013e-05 2.39823e-05 0 
-0.00057462 0.000633785 0 
0.000290139 0.000688442 0 
-1.25229e-05 -1.51874e-05 0 
0.0005673 -0.00134277 0 
0.0444193 -0.0307561 0 
0.0302513 -0.0405229 0 
0.0363825 -0.0313347 0 
0.0444159 -0.0307538 0 
0.0302494 -0.0405195 0 
0.0363797 -0.0313322 0 
-0.000174854 0.00019578 0 
-0.000691632 0.000646244 0 
-0.000915793 -0.000952056 0 
-0.049244 -0.0237852 0 
-0.0812395 -0.0286654 0 
-0.0626374 -0.0251261 0 
-0.0492475 -0.0237868 0 
-0.0812458 -0.0286673 0 
-0.0626421 -0.0251273 0 
0.0308927 -0.100841 0 
0.0339794 -0.00926966 0 
0.0277409 -0.129042 0 
0.0308918 -0.100838 0 
0.0339784 -0.00926939 0 
0.0277401 -0.129038 0 
-0.000705799 0.00147742 0 
0.00919864 -0.00515811 0 
0.00109985 -0.00123059 0 
-0.00114675 0.000349376 0 
-0.000184071 -6.72284e-05 0 
-0.00104089 -0.000121543 0 
0.00224343 -0.00586432 0 
-0.000865355 -0.0050977 0 
-0.000417929 -0.00106255 0 
-0.000960723 -0.000320321 0 
-0.00032473 0.000381634 0 
0.00058539 -0.00125851 0 
-0.000586002 0.00131475 0 
0.00817178 -0.00426788 0 
0.0012934 -0.00100577 0 
-0.0140129 -0.00295361 0 
-0.0071265 -0.00255337 0 
-0.017647 -0.00847668 0 
-0.0140119 -0.00295329 0 
-0.00712607 -0.00255319 0 
-0.0176462 -0.00847593 0 
-1.38761e-05 -6.88425e-05 0 
0.000606719 -0.000887228 0 
0.000313403 0.000520324 0 
0.000153913 -4.89344e-05 0 
0.000842714 0.000265729 0 
0.000791618 -0.000120581 0 
-0.00141141 -0.00178395 0 
0.000466178 0.000472707 0 
0.000720238 -8.40535e-06 0 
6.73579e-05 -0.000117056 0 
0.000300615 0.000321977 0 
0.000617398 0.0001337 0 
0.00087227 -8.48117e-05 0 
9.66272e-05 -8.39375e-06 0 
0.000713983 0.000140062 0 
0.000157619 0.000292107 0 
-1.39166e-05 -0.00010858 0 
-0.000277026 0.000155393 0 
-3.10707e-05 -9.89905e-05 0 
-0.00101537 0.000309409 0 
-0.000342267 0.000152541 0 
-0.000158179 3.22453e-06 0 
-0.00112208 -5.55925e-05 0 
-0.000788358 0.000161778 0 
-0.000455477 0.00030677 0 
-5.64828e-05 -0.000118044 0 
-0.000733388 0.000143788 0 
1.08841e-05 -0.000100287 0 
-0.000313962 0.000273356 0 
0.000137273 0.000140328 0 
0.000738149 0.000262622 0 
2.82128e-05 -8.71996e-05 0 
0.000196407 0.000140215 0 
0.00959948 -0.0440842 0 
0.00799039 -0.0340314 0 
0.0148771 -0.039005 0 
0.0095989 -0.0440874 0 
0.00799042 -0.0340337 0 
0.0148776 -0.039008 0 
-0.000117267 -9.08827e-12 0 
-6.78327e-06 -9.07717e-12 0 
0.000359236 -8.08796e-05 0 
-9.05016e-12 2.37756e-05 0 
-9.0796e-12 0.000117267 0 
6.84404e-05 -0.000371676 0 
9.09505e-11 2.37757e-05 0 
9.09211e-11 0.000117255 0 
6.84315e-05 -0.000371638 0 
-0.000117254 9.09124e-11 0 
-6.78484e-06 9.09235e-11 0 
0.0003592 -8.08693e-05 0 
0.039091 -0.0861373 0 
0.0293458 -0.0495578 0 
0.0299854 -0.0443953 0 
0.0390921 -0.0861398 0 
0.0293469 -0.0495592 0 
0.0299863 -0.0443965 0 
-0.000381575 -0.000148646 0 
0.000834622 -0.00511585 0 
-0.00178189 -0.00695365 0 
-1.55113e-05 9.08888e-11 0 
0.000130721 9.08762e-11 0 
-0.00039033 -0.000107049 0 
-9.0888e-11 0.000130721 0 
-9.09101e-11 1.57141e-05 0 
-8.41912e-05 -0.000413188 0 
-1.55026e-05 -9.11038e-12 0 
0.00013071 -9.12298e-12 0 
-0.000390303 -0.000107035 0 
9.11122e-12 0.00013071 0 
9.08909e-12 1.57177e-05 0 
-8.41805e-05 -0.000413158 0 
-0.000260999 0.000770147 0 
0.000466742 0.000470347 0 
5.94958e-05 0.000683609 0 
0.0024767 -0.0210192 0 
0.00347902 -0.00470522 0 
0.013347 -0.0166859 0 
0.0251948 -0.0356238 0 
0.0181937 -0.0444143 0 
0.0146321 -0.0390269 0 
0.0251964 -0.0356267 0 
0.0181942 -0.0444179 0 
0.0146325 -0.0390299 0 
4.54304e-05 0.000908001 0 
-0.000436936 0.000598191 0 
-0.00062481 0.00061899 0 
-0.000112874 0.000780874 0 
4.93211e-05 0.000519041 0 
-0.000209264 0.000653493 0 
-0.026366 -0.00880407 0 
0.0016493 0.00312871 0 
-0.00901918 -0.00237681 0 
-0.0274196 -0.0106371 0 
-0.0135674 -0.0022082 0 
-0.0180428 -0.00913891 0 
-0.0274179 -0.0106358 0 
-0.0135664 -0.00220796 0 
-0.018042 -0.00913812 0 
-0.0263656 -0.00880456 0 
0.00166038 0.00312335 0 
-0.00899343 -0.00236646 0 
-0.00294651 -0.0206898 0 
-0.0162081 -0.0157282 0 
-0.00233894 -0.00751532 0 
-0.0234534 -0.0368821 0 
-0.0315995 -0.0269218 0 
-0.0163728 -0.0367299 0 
-0.0234478 -0.0368776 0 
-0.0315917 -0.0269191 0 
-0.0163676 -0.036726 0 
-0.00298171 -0.0205779 0 
-0.0162252 -0.0158576 0 
-0.00208158 -0.00779442 0 
0.0621387 -0.020141 0 
0.066101 -0.0224839 0 
0.0535422 -0.0243579 0 
0.0621436 -0.0201424 0 
0.0661061 -0.0224856 0 
0.0535463 -0.0243597 0 
-0.00213146 -0.00142097 0 
0.0011076 0.000738402 0 
-0.0192611 -0.0161478 0 
-0.00213356 -0.00142237 0 
0.00110611 0.000737406 0 
-0.0192616 -0.0161488 0 
0.00864532 -0.119534 0 
-0.00486531 -0.118147 0 
-0.0371541 -0.108991 0 
0.00864517 -0.119534 0 
-0.00486524 -0.118152 0 
-0.0371591 -0.108995 0 
-0.0155951 -0.0152485 0 
-0.0263492 -0.0190347 0 
-0.0175846 -0.00893011 0 
-0.0155953 -0.0152476 0 
-0.0263487 -0.0190328 0 
-0.0175838 -0.00892927 0 
0.0563355 -0.0287129 0 
0.0953911 -0.0456504 0 
0.0594023 -0.0347177 0 
0.0563397 -0.028715 0 
0.0953985 -0.0456539 0 
0.0594068 -0.0347204 0 
-0.0789512 -0.0263978 0 
-0.0745779 -0.0173707 0 
-0.0641217 -0.0265969 0 
-0.0789573 -0.0263996 0 
-0.074584 -0.0173716 0 
-0.0641265 -0.0265983 0 
-0.00159354 -0.0177892 0 
-0.00611758 -0.0327478 0 
-0.00627936 -0.0241038 0 
-0.00159098 -0.0177893 0 
-0.00611856 -0.0327541 0 
-0.00628015 -0.0241047 0 
0.0676172 -0.0554143 0 
0.0824352 -0.0777683 0 
0.042233 -0.102339 0 
0.0676105 -0.0554108 0 
0.0824284 -0.0777634 0 
0.0422273 -0.102334 0 
-0.0133509 -0.0534127 0 
-0.0260821 -0.0823501 0 
-0.0410115 -0.0530947 0 
-0.0133301 -0.0533711 0 
-0.0260818 -0.0823416 0 
-0.0410089 -0.0531162 0 
-0.0226081 -0.0459618 0 
-0.0233711 -0.0272803 0 
-0.014327 -0.0303634 0 
0.000443829 -0.00409399 0 
0.0587617 -0.0299485 0 
0.058184 -0.0340977 0 
0.000443778 -0.00409373 0 
0.0587573 -0.0299462 0 
0.0581799 -0.0340952 0 
-0.00539735 -0.0424027 0 
-0.00664157 -0.0417113 0 
-0.00590672 -0.0398157 0 
-0.0054268 -0.0423652 0 
-0.00664317 -0.0417633 0 
-0.0059399 -0.0399579 0 
-0.00168589 -0.0109901 0 
-0.00367474 -0.0324161 0 
-0.0154854 -0.03139 0 
-0.00168984 -0.0109828 0 
-0.00369482 -0.0323937 0 
-0.0154799 -0.031386 0 
0.0223022 -0.0221111 0 
0.0332183 -0.0378844 0 
0.0387467 -0.0261466 0 
0.0223038 -0.0221127 0 
0.0332207 -0.0378876 0 
0.0387497 -0.0261484 0 
-0.0348026 -0.0186253 0 
-0.0478065 -0.0242443 0 
-0.0636593 -0.0247997 0 
-0.0348048 -0.0186262 0 
-0.0478099 -0.0242459 0 
-0.063664 -0.0248009 0 
-0.023516 -0.0104911 0 
-0.0317439 -0.0265101 0 
-0.03767 -0.0193238 0 
-0.023521 -0.0104924 0 
-0.0317521 -0.0265125 0 
-0.0376768 -0.0193264 0 
0.0706326 -0.0576276 0 
0.0062357 -0.00158526 0 
0.0595214 -0.0355888 0 
0.0706394 -0.0576317 0 
0.00623569 -0.00158536 0 
0.0595256 -0.0355915 0 
0.0670771 -0.0220505 0 
0.0754448 -0.0182183 0 
0.0737773 -0.0256406 0 
0.0670719 -0.0220488 0 
0.0754389 -0.0182169 0 
0.0737716 -0.0256386 0 
0.0302574 -0.0404155 0 
0.024978 -0.0351064 0 
0.0363703 -0.0315496 0 
0.0302554 -0.0404122 0 
0.0249764 -0.0351036 0 
0.0363676 -0.031547 0 
-0.0226613 -0.0459213 0 
-0.02336 -0.027239 0 
-0.0143364 -0.0303667 0 
-0.00413205 -0.0324866 0 
-0.0124317 -0.0486533 0 
-0.0210901 -0.0460531 0 
-0.0320876 -0.0270146 0 
-0.0400393 -0.0242899 0 
-0.0378122 -0.0195326 0 
-0.0320963 -0.0270177 0 
-0.0400486 -0.0242904 0 
-0.0378192 -0.0195354 0 
0.00144882 -0.0498267 0 
0.000753762 -0.0224047 0 
0.0234445 -0.0369691 0 
-0.0389296 -0.0260669 0 
-0.025583 -0.0338067 0 
-0.0202019 -0.0128198 0 
-0.0389338 -0.0260689 0 
-0.0255815 -0.0338311 0 
-0.0202027 -0.0128145 0 
0.0282204 -0.0432978 0 
0.00401122 -0.0546299 0 
0.0223478 -0.0349134 0 
-0.00422369 -0.0415564 0 
-0.0157418 -0.0366757 0 
-0.00497142 -0.0307797 0 
-0.00422735 -0.0415599 0 
-0.015747 -0.0366795 0 
-0.00497568 -0.0307818 0 
0.0305826 -0.0227725 0 
0.0423727 -0.0223913 0 
0.0362587 -0.0313007 0 
0.0305802 -0.0227706 0 
0.0423693 -0.0223895 0 
0.036256 -0.0312982 0 
-0.00313476 -0.0475679 0 
-0.0232096 -0.0369732 0 
-0.0162981 -0.0367577 0 
-0.00313214 -0.0475631 0 
-0.0232045 -0.0369684 0 
-0.0162928 -0.0367539 0 
-0.00412545 -0.0325033 0 
-0.012457 -0.048683 0 
-0.0211413 -0.0461088 0 
0.0717257 -0.0254307 0 
0.0874926 -0.0248839 0 
0.0784049 -0.0302443 0 
0.0717312 -0.0254327 0 
0.0874993 -0.0248859 0 
0.0784109 -0.0302466 0 
-0.00131667 -0.0211783 0 
-0.00223407 -0.026074 0 
-0.00403135 -0.0340484 0 
-0.00132528 -0.021182 0 
-0.00221233 -0.0260968 0 
-0.00402204 -0.0339795 0 
-0.0318407 -0.0263339 0 
-0.0232024 -0.0111341 0 
-0.0174554 -0.0231726 0 
-0.0318327 -0.0263312 0 
-0.0231974 -0.0111329 0 
-0.0174497 -0.0231705 0 
0.0119032 -0.032274 0 
0.0453663 -0.0857592 0 
0.0314269 -0.0443092 0 
0.0119028 -0.0322731 0 
0.045365 -0.0857567 0 
0.031426 -0.0443079 0 
-0.00132973 -0.0127937 0 
0.0105918 -0.033439 0 
-0.00416573 -0.0300846 0 
-0.00132637 -0.0127932 0 
0.0105947 -0.0334381 0 
-0.0041615 -0.0300826 0 
0.0144137 -0.0458592 0 
0.0078374 -0.0330872 0 
0.00770234 -0.0384096 0 
0.0144152 -0.0458594 0 
0.00783782 -0.0330875 0 
0.00770335 -0.0384093 0 
-0.0133476 -0.0321734 0 
-0.00943022 -0.0189902 0 
-0.00629665 -0.0238224 0 
-0.0133447 -0.0321722 0 
-0.00942943 -0.0189908 0 
-0.00629562 -0.023821 0 
-0.0246507 -0.0966648 0 
0.0137849 -0.00943012 0 
-0.0268808 -0.134436 0 
-0.0246464 -0.096655 0 
0.0137831 -0.00942824 0 
-0.0268802 -0.134432 0 
-0.00151912 -0.00203574 0 
-0.00234064 -0.00779011 0 
-0.00619637 -0.00837616 0 
-0.00151908 -0.00203565 0 
-0.00234073 -0.00779002 0 
-0.00619641 -0.00837584 0 
-0.0157062 -0.0108183 0 
0.0304895 -0.0983399 0 
0.0285025 -0.133767 0 
-0.0157057 -0.010818 0 
0.0304887 -0.0983371 0 
0.0285017 -0.133763 0 
0.0135156 -0.0422195 0 
0.0146338 -0.02733 0 
0.0280378 -0.0284627 0 
0.013521 -0.04221 0 
0.0146191 -0.0273173 0 
0.0280206 -0.0284624 0 
-0.00216307 -0.00330948 0 
0.00346355 -0.00820907 0 
0.00394587 -0.0183836 0 
0.0236606 -0.0151425 0 
0.0400185 -0.0269965 0 
0.0418526 -0.0213538 0 
0.0236588 -0.0151415 0 
0.0400155 -0.0269946 0 
0.0418494 -0.0213523 0 
0.0119824 -0.006415 0 
0.0346832 -0.0195561 0 
0.0163969 -0.00311004 0 
0.0121427 -0.00661687 0 
0.0345992 -0.0193879 0 
0.0172402 -0.00339015 0 
-0.00677036 -0.0415831 0 
-0.00605244 -0.0331397 0 
-0.00394096 -0.033965 0 
-0.00677619 -0.0415819 0 
-0.00605494 -0.0331498 0 
-0.00394238 -0.0340374 0 
-4.69767e-05 -0.128558 0 
-0.0952216 -0.0728679 0 
-0.039269 -0.104438 0 
-4.71394e-05 -0.128552 0 
-0.0952134 -0.072863 0 
-0.0392641 -0.104434 0 
-0.0048635 0.0021784 0 
-0.0258508 -0.0230647 0 
-0.0419091 -0.0545448 0 
-0.00487568 0.00217758 0 
-0.0258704 -0.0231132 0 
-0.041919 -0.0545559 0 
-0.0150269 -0.029492 0 
-0.000176483 -0.000346368 0 
-0.0417082 -0.132858 0 
-0.0158046 -0.0310183 0 
0.00296578 0.00582067 0 
-0.036995 -0.133222 0 
-0.00296886 0.00582671 0 
0.0157927 -0.030995 0 
0.0370637 -0.133281 0 
-0.000331991 0.000651569 0 
0.0150226 -0.0294836 0 
0.0411124 -0.132909 0 
-0.0158087 -0.0310264 0 
0.00296585 0.00582081 0 
-0.0370076 -0.13326 0 
-0.0150264 -0.029491 0 
-0.000177655 -0.000348667 0 
-0.0417081 -0.132853 0 
-0.0030022 0.00589215 0 
0.0157974 -0.0310041 0 
0.0370605 -0.133358 0 
-0.000331978 0.000651544 0 
0.0150222 -0.0294827 0 
0.0411112 -0.132905 0 
-0.00452084 -0.0489811 0 
0.00378508 -0.0409909 0 
0.0119233 -0.0412031 0 
-0.00450504 -0.0489828 0 
0.00378125 -0.0409851 0 
0.0119284 -0.0411961 0 
-0.0491401 -0.0273812 0 
-0.0372828 -0.0349247 0 
-0.0389636 -0.025921 0 
-0.0491437 -0.0273848 0 
-0.0372824 -0.034934 0 
-0.0389667 -0.0259265 0 
-0.0611831 -0.0539576 0 
-0.00169037 -0.0725278 0 
-0.0372544 -0.101646 0 
-0.0611899 -0.0539617 0 
-0.00169625 -0.0725276 0 
-0.0372599 -0.10165 0 
-0.0906485 -0.0720398 0 
-0.0620267 -0.0587622 0 
-0.0376962 -0.104153 0 
-0.0906414 -0.0720352 0 
-0.0620199 -0.0587589 0 
-0.0376906 -0.104149 0 
-0.0025769 -1.15524e-11 0 
0.00484113 -1.38666e-11 0 
0.0176475 -0.00423344 0 
-0.00242299 8.84454e-11 0 
0.00489059 8.61472e-11 0 
0.0185236 -0.00456108 0 
-0.0623853 -0.0245661 0 
-0.0642144 -0.0216841 0 
-0.0498939 -0.0231267 0 
-0.0623806 -0.0245649 0 
-0.0642091 -0.0216833 0 
-0.0498904 -0.0231261 0 
-0.063471 -0.0232417 0 
-0.0481956 -0.0227861 0 
-0.0503818 -0.0221045 0 
-0.0634658 -0.0232408 0 
-0.048192 -0.0227856 0 
-0.0503783 -0.0221039 0 
-0.0502467 -0.023197 0 
-0.0289111 -0.0169552 0 
-0.0490893 -0.0218458 0 
-0.0502505 -0.0231976 0 
-0.0289124 -0.016955 0 
-0.0490927 -0.0218464 0 
-0.0023565 -0.0123383 0 
-0.00200877 -0.0181106 0 
-0.00591022 -0.023818 0 
-0.00235707 -0.0123384 0 
-0.00200775 -0.018112 0 
-0.00591082 -0.0238188 0 
-0.0311619 -0.0264685 0 
-0.0179481 -0.0230749 0 
-0.0166173 -0.0369831 0 
-0.0311541 -0.0264658 0 
-0.0179424 -0.0230728 0 
-0.016612 -0.0369791 0 
-0.0116015 -0.0402688 0 
-0.0199817 -0.0457385 0 
-0.0159694 -0.030503 0 
0.0176273 -0.0446537 0 
0.00959658 -0.0440086 0 
0.014874 -0.0389246 0 
0.0176277 -0.0446574 0 
0.00959601 -0.0440118 0 
0.0148745 -0.0389276 0 
-0.0115856 -0.0402675 0 
-0.0200218 -0.0456905 0 
-0.0159803 -0.0305105 0 
0.00732588 -0.0729563 0 
0.0670265 -0.0527255 0 
0.0417228 -0.100016 0 
0.00732006 -0.0729562 0 
0.0670197 -0.0527211 0 
0.0417172 -0.100012 0 
-0.00602361 -0.0331222 0 
-0.0130133 -0.0321881 0 
-0.006351 -0.0238184 0 
-0.00602505 -0.0331267 0 
-0.0130168 -0.0321892 0 
-0.00635168 -0.0238198 0 
-0.00992167 8.7201e-11 0 
0.00464647 9.42025e-11 0 
-0.0643794 -0.00999756 0 
-0.00992086 -1.27982e-11 0 
0.00464615 -5.79708e-12 0 
-0.0643742 -0.00999679 0 
-0.0029184 -0.0268368 0 
-0.00549656 -0.0400949 0 
-0.0038509 -0.0338473 0 
-0.00286893 -0.0268346 0 
-0.00541727 -0.0398408 0 
-0.00384581 -0.0337814 0 
0.00348523 -0.00232349 0 
0.000416771 -0.000277848 0 
0.0581972 -0.035948 0 
0.00348513 -0.00232342 0 
0.000416722 -0.000277815 0 
0.058193 -0.0359452 0 
-0.0499535 -0.118965 0 
0.0489394 -0.0978441 0 
0.0164062 -0.163481 0 
-0.0484672 -0.117239 0 
0.0486015 -0.0955244 0 
0.0136338 -0.160489 0 
-0.0489471 -0.0978441 0 
0.0499471 -0.118965 0 
-0.0163916 -0.163482 0 
-0.048691 -0.0955244 0 
0.0483513 -0.117239 0 
-0.0133553 -0.160474 0 
-0.0484686 -0.117243 0 
0.0486029 -0.0955272 0 
0.0136342 -0.160494 0 
-0.0499353 -0.118934 0 
0.0489303 -0.0978139 0 
0.016387 -0.163436 0 
-0.0489316 -0.0978139 0 
0.0499344 -0.118934 0 
-0.0163869 -0.163436 0 
-0.0486923 -0.0955272 0 
0.0483528 -0.117243 0 
-0.013356 -0.160479 0 
0.0871103 -0.0784449 0 
0.00068085 -0.1296 0 
0.0435421 -0.102528 0 
0.0871028 -0.0784399 0 
0.000680962 -0.129594 0 
0.0435369 -0.102524 0 
0.0341373 -0.0174631 0 
0.0367495 -0.0257656 0 
0.0277941 -0.0143821 0 
0.0341733 -0.0174241 0 
0.0369044 -0.0258509 0 
0.0280284 -0.0148749 0 
-0.00223875 -0.0259388 0 
-0.00486922 -0.0308187 0 
-0.00753268 -0.0377928 0 
0.0383342 -0.026257 0 
0.0507556 -0.025688 0 
0.0430344 -0.0218727 0 
0.0383313 -0.026255 0 
0.0507517 -0.0256861 0 
0.0430311 -0.0218711 0 
0.0518054 -0.0248423 0 
0.0526277 -0.0226961 0 
0.0421636 -0.0225658 0 
0.0518094 -0.0248441 0 
0.0526318 -0.0226977 0 
0.0421668 -0.0225674 0 
-0.0177822 -0.0233662 0 
-0.00135883 -0.0108491 0 
-0.00414488 -0.0314778 0 
-0.0177767 -0.0233641 0 
-0.00135547 -0.0108489 0 
-0.00414065 -0.0314755 0 
0.00245432 -0.0193956 0 
0.00237309 -0.0118753 0 
0.00654461 -0.0232065 0 
0.00245438 -0.0193969 0 
0.00237325 -0.0118763 0 
0.00654494 -0.0232083 0 
-0.0650701 -0.00873657 0 
0.00264478 0.00365493 0 
-0.0382747 -0.00136169 0 
-0.0650648 -0.00873588 0 
0.0026446 0.00365466 0 
-0.0382715 -0.0013616 0 
0.0111439 -0.00979915 0 
0.00872551 -0.0158808 0 
0.004896 -0.0072152 0 
0.011143 -0.00979834 0 
0.00872484 -0.0158795 0 
0.00489558 -0.00721458 0 
-0.000268735 0.000715661 0 
0.00253448 -0.00216022 0 
0.000454571 -0.000341429 0 
-0.000268757 0.000715725 0 
0.00253471 -0.00216041 0 
0.000454617 -0.000341464 0 
-0.000854635 -1.20211e-11 0 
0.00113928 -1.20277e-11 0 
-0.00811395 -0.00124571 0 
0.00052684 0.000208551 0 
-0.00146173 -0.00201606 0 
-0.00040885 -0.000532021 0 
0.00052682 0.000208547 0 
-0.00146169 -0.00201595 0 
-0.000408818 -0.000531983 0 
-0.000843425 8.79824e-11 0 
0.00111375 8.79748e-11 0 
-0.00807497 -0.00122073 0 
-0.0348278 -0.0184847 0 
-0.0634973 -0.0257035 0 
-0.0492521 -0.0224753 0 
-0.03483 -0.0184856 0 
-0.0635021 -0.0257048 0 
-0.0492555 -0.0224758 0 
-0.0304079 -0.0447807 0 
0.00524758 -0.0537489 0 
-0.018876 -0.0743735 0 
-0.0304103 -0.0447557 0 
0.00523776 -0.0537154 0 
-0.0188677 -0.0743468 0 
0.0395464 -0.0243232 0 
0.0274969 -0.0348933 0 
0.0284999 -0.0285963 0 
0.0395123 -0.0243571 0 
0.0274737 -0.0348893 0 
0.0284899 -0.0285963 0 
-0.00224537 -0.0259283 0 
-0.00488076 -0.0309036 0 
-0.00776937 -0.0381075 0 
-6.78554e-05 -0.00405129 0 
-0.000570204 0.000719117 0 
-0.000626039 -0.00133561 0 
-0.0186282 -0.0435955 0 
-0.0120688 -0.040994 0 
-0.00624535 -0.039622 0 
0.00200018 -0.00343404 0 
-0.00405265 -0.0193071 0 
-0.0021444 -0.00771988 0 
0.00206633 -0.00351092 0 
-0.00393702 -0.0194237 0 
-0.00227534 -0.00759662 0 
-0.000631282 -1.18894e-11 0 
0.000510202 -1.19433e-11 0 
0.0010362 -0.000697288 0 
0.000749418 -0.00486232 0 
-0.00162646 -0.00712843 0 
-0.00036053 -0.000966964 0 
-0.000330515 0.000317999 0 
0.000448803 -0.00118264 0 
-0.000993178 -3.2212e-05 0 
-0.000511488 8.81427e-11 0 
0.000588933 8.80293e-11 0 
0.000688586 -0.000761302 0 
7.9905e-05 -1.18006e-11 0 
0.000113926 -1.17346e-11 0 
0.000710096 -2.0817e-05 0 
-0.00012963 8.82587e-11 0 
-5.05577e-05 8.81679e-11 0 
-0.000980349 -4.6784e-05 0 
0.00203363 -0.00708263 0 
0.0013501 -0.00182652 0 
0.00474705 -0.00689511 0 
0.00203346 -0.00708201 0 
0.00134998 -0.00182634 0 
0.00474664 -0.00689452 0 
0.000467467 0.000568091 0 
0.000148732 -0.0038571 0 
0.000159886 -0.00183786 0 
0.00869589 -0.0159629 0 
0.0016793 -0.00674307 0 
0.00494356 -0.00708343 0 
0.00869522 -0.0159616 0 
0.00167916 -0.00674248 0 
0.00494314 -0.00708282 0 
0.000103831 8.82862e-11 0 
-2.29918e-05 8.83242e-11 0 
0.000660544 7.77998e-05 0 
0.000102952 0.000222154 0 
5.07586e-05 0.000901024 0 
-0.000605243 0.00059337 0 
7.5225e-05 8.83411e-11 0 
-0.000112339 8.83261e-11 0 
-0.000310817 0.000114233 0 
-0.000202488 0.00068485 0 
-0.000232267 0.000733561 0 
2.39672e-05 0.000728848 0 
-0.000230583 0.000832377 0 
-0.000181894 0.000151369 0 
0.00035919 0.000460314 0 
4.04708e-05 -1.16745e-11 0 
-0.000155531 -1.17179e-11 0 
-0.000753485 0.000119319 0 
9.98624e-05 -1.16713e-11 0 
-7.15192e-05 -1.16605e-11 0 
0.000166886 0.000104288 0 
-1.24061e-05 0.000763955 0 
-1.44855e-05 0.000652177 0 
-0.000251667 0.000708958 0 
-0.0185954 -0.0436652 0 
-0.0120904 -0.041 0 
-0.00660692 -0.0397397 0 
0.00136727 -0.00184136 0 
-0.000499583 0.000206636 0 
0.0004068 -0.000495524 0 
0.00136715 -0.00184118 0 
-0.000499538 0.000206619 0 
0.00040676 -0.000495475 0 
-0.00256402 -0.00209851 0 
0.000240727 0.000700055 0 
-0.000486365 -0.000369423 0 
-0.00256387 -0.0020984 0 
0.000240722 0.000700018 0 
-0.000486333 -0.000369396 0 
-0.00583048 -0.0314937 0 
-0.0175847 -0.0482148 0 
-0.00677826 -0.0372631 0 
5.3763e-11 -0.0489047 0 
7.40939e-11 -0.00238815 0 
0.0254406 -0.172516 0 
-4.64558e-11 -0.0469229 0 
-2.61497e-11 -0.00458586 0 
0.0231548 -0.17001 0 
5.35438e-11 -0.0469243 0 
7.38506e-11 -0.00458599 0 
0.0231554 -0.170015 0 
-4.62519e-11 -0.0488836 0 
-2.59232e-11 -0.00240577 0 
0.0254194 -0.172468 0 
2.59266e-11 -0.00241523 0 
4.62642e-11 -0.048897 0 
-0.0254216 -0.172512 0 
-7.38572e-11 -0.00469038 0 
-5.35421e-11 -0.0468334 0 
-0.0230486 -0.170168 0 
-7.40792e-11 -0.00241453 0 
-5.37473e-11 -0.0488823 0 
-0.0254139 -0.172463 0 
2.61417e-11 -0.00469021 0 
4.64574e-11 -0.0468349 0 
-0.0230496 -0.170173 0 
-0.00380384 -0.0325513 0 
-0.0116966 -0.0401105 0 
-0.0154124 -0.0313135 0 
-0.00383002 -0.0325352 0 
-0.0117205 -0.0401006 0 
-0.0154023 -0.0313047 0 
0.00594689 -0.0320297 0 
0.00253933 -0.029208 0 
0.00774956 -0.038436 0 
0.00594737 -0.03203 0 
0.00253981 -0.0292073 0 
0.00775057 -0.0384357 0 
0.0283359 -0.0157552 0 
0.0236489 -0.0141651 0 
0.0418555 -0.0219494 0 
0.028338 -0.0157563 0 
0.0236506 -0.0141661 0 
0.0418587 -0.0219509 0 
-0.00580505 -0.0314952 0 
-0.0176221 -0.0481082 0 
-0.00706346 -0.0376557 0 
-0.00406679 -0.0414907 0 
-0.0032572 -0.0465394 0 
-0.0162801 -0.0369094 0 
-0.0040631 -0.0414871 0 
-0.00325458 -0.0465345 0 
-0.0162748 -0.0369055 0 
0.00783817 -0.0405982 0 
0.0154564 -0.0443402 0 
0.00770905 -0.0383998 0 
0.0078398 -0.0405972 0 
0.015458 -0.0443404 0 
0.00771006 -0.0383995 0 
-0.000771857 9.28631e-11 0 
0.000251506 9.23598e-11 0 
-0.0375125 -0.000546346 0 
-0.000771784 -7.13635e-12 0 
0.000251501 -7.63965e-12 0 
-0.0375094 -0.000546305 0 
-0.00549663 -0.0526338 0 
0.0303695 -0.043749 0 
0.0190177 -0.0750963 0 
0.00286555 -0.0209206 0 
0.00419171 -0.00649907 0 
0.0134472 -0.0170032 0 
0.00167091 -0.0105497 0 
0.00780047 -0.0492503 0 
0.00545583 -0.176699 0 
0.00137045 -0.00865269 0 
0.00780963 -0.049308 0 
0.00365763 -0.172531 0 
0.00166856 -0.0105349 0 
0.00779933 -0.0492431 0 
0.00544301 -0.176646 0 
0.00137049 -0.00865295 0 
0.00780985 -0.0493094 0 
0.00365775 -0.172536 0 
-0.0078015 -0.0492567 0 
-0.00166868 -0.0105356 0 
-0.00544352 -0.176697 0 
-0.00782822 -0.0494254 0 
-0.00131399 -0.00829621 0 
-0.00337939 -0.172516 0 
-0.00782843 -0.0494267 0 
-0.00131408 -0.00829676 0 
-0.00337976 -0.172521 0 
-0.00779947 -0.0492439 0 
-0.00166819 -0.0105325 0 
-0.00544146 -0.176648 0 
0.00276539 -0.00208092 0 
0.00134853 -0.00241563 0 
0.000411343 -0.000356376 0 
0.00276514 -0.00208073 0 
0.0013484 -0.00241541 0 
0.000411302 -0.00035634 0 
-0.0249403 -0.0152899 0 
-0.0390997 -0.0254703 0 
-0.0195056 -0.0152615 0 
-0.0249406 -0.0152886 0 
-0.0391038 -0.025473 0 
-0.0195051 -0.0152606 0 
-0.00259972 0.00259972 0 
0.0117291 -0.0117291 0 
0.0314427 -0.0462865 0 
-0.00259978 0.00259978 0 
0.0117295 -0.0117295 0 
0.0314437 -0.0462878 0 
-0.00141046 -0.0026342 0 
-0.0028876 -0.00200917 0 
-0.000420837 -0.000387515 0 
-0.00141042 -0.00263407 0 
-0.00288746 -0.00200906 0 
-0.000420803 -0.000387488 0 
0.0272744 -0.0351787 0 
0.013328 -0.0417967 0 
0.0282432 -0.0289255 0 
0.0272605 -0.0351628 0 
0.0133353 -0.0417915 0 
0.0282287 -0.0289312 0 
-0.0287857 -0.0158729 0 
-0.0349146 -0.0184528 0 
-0.0491659 -0.022507 0 
-0.028787 -0.0158729 0 
-0.0349168 -0.0184537 0 
-0.0491693 -0.0225075 0 
0.000471735 0.00125057 0 
-0.0247468 -0.0150932 0 
-0.0198859 -0.0156445 0 
0.000470643 0.00124925 0 
-0.0247466 -0.0150946 0 
-0.0198865 -0.0156455 0 
-0.0291611 -0.0386418 0 
-0.0323644 -0.0193943 0 
-0.0370549 -0.0278326 0 
-0.0291657 -0.0386201 0 
-0.0323599 -0.0193884 0 
-0.0370526 -0.0278239 0 
0.0573441 -0.0297852 0 
0.0462515 -0.0231701 0 
0.0769995 -0.0310738 0 
0.0573398 -0.029783 0 
0.046248 -0.0231683 0 
0.0769936 -0.0310714 0 
-0.010584 -0.0415475 0 
-0.0061487 -0.0390173 0 
-0.00813033 -0.0389193 0 
-0.0106887 -0.0414696 0 
-0.00602447 -0.0388675 0 
-0.00827998 -0.0391792 0 
0.0537677 -0.0243478 0 
0.0290894 -0.0154804 0 
0.0417618 -0.0219835 0 
0.0537718 -0.0243495 0 
0.0290916 -0.0154815 0 
0.0417649 -0.0219851 0 
-0.0232345 -0.035106 0 
-0.0301951 -0.0406735 0 
-0.0363796 -0.0265057 0 
-0.023254 -0.0350909 0 
-0.0301968 -0.0406464 0 
-0.0363772 -0.0264967 0 
-0.0154655 -0.0150764 0 
-0.0177435 -0.00914122 0 
-0.0100141 -0.00708312 0 
-0.0154656 -0.0150755 0 
-0.0177428 -0.00914043 0 
-0.0100138 -0.00708273 0 
-0.00646199 -0.00839563 0 
-0.015477 -0.0150377 0 
-0.00999611 -0.0071439 0 
-0.00646205 -0.00839531 0 
-0.015477 -0.0150369 0 
-0.00999576 -0.00714342 0 
-0.00606165 -0.050496 0 
0.0295602 -0.0449878 0 
0.019196 -0.0751144 0 
-0.0172186 -0.00918851 0 
-0.0075695 -0.00181733 0 
-0.0103606 -0.00705191 0 
-0.0172178 -0.00918773 0 
-0.00756904 -0.0018172 0 
-0.0103603 -0.00705151 0 
0.0199207 -0.0370526 0 
0.00329259 -0.0223445 0 
0.0131852 -0.016423 0 
0.0299798 -0.0566461 0 
0.0157479 0.00342837 0 
0.0301598 -0.0463444 0 
0.0299809 -0.0566478 0 
0.0157483 0.00342846 0 
0.0301607 -0.0463458 0 
0.036301 -0.0183529 0 
0.0274345 -0.0146157 0 
0.0173586 -0.00239485 0 
0.0363412 -0.0183463 0 
0.0268759 -0.0140141 0 
0.0180194 -0.00292427 0 
-0.00685092 -0.0400861 0 
-0.00147043 -0.0268461 0 
-0.00745246 -0.0378876 0 
-0.00658093 -0.0398477 0 
-0.00150703 -0.0268266 0 
-0.0077115 -0.0381779 0 
0.0115297 -0.00479917 0 
0.0257636 -0.0144926 0 
0.0141796 -0.0181638 0 
0.0199954 -0.0333266 0 
0.00378599 -0.0223196 0 
0.0131925 -0.0166161 0 
-0.00561624 -0.0393598 0 
-0.00654231 -0.0415555 0 
-0.00377805 -0.0339452 0 
-0.00571421 -0.0395852 0 
-0.00651331 -0.0415488 0 
-0.00377853 -0.0340168 0 
-0.0289988 -0.130659 0 
-0.0228498 -0.00256384 0 
-0.0302186 -0.0836711 0 
-0.0289879 -0.130621 0 
-0.022843 -0.00256174 0 
-0.0302053 -0.0836435 0 
0.046848 -0.0255468 0 
0.0743471 -0.0259275 0 
0.0767112 -0.0299252 0 
0.0468444 -0.0255448 0 
0.0743414 -0.0259254 0 
0.0767054 -0.0299228 0 
0.0228393 -0.00258301 0 
0.0291468 -0.130701 0 
0.0302744 -0.0836473 0 
0.0227881 -0.0025342 0 
0.0292073 -0.130792 0 
0.0303273 -0.0836372 0 
0.0105463 -0.0033738 0 
0.0259876 -0.0150048 0 
0.0142346 -0.0182043 0 
-0.0326553 -0.0219835 0 
-0.0241109 -0.0351816 0 
-0.0375051 -0.0266028 0 
-0.0326539 -0.0219763 0 
-0.024123 -0.0351656 0 
-0.0375043 -0.0265934 0 
TENSORS Stress float 
-8.88909 -0.0169464 0 
-0.0169464 -8.91064 0 
0 0 0 
-8.90502 -0.0316731 0 
-0.0316731 -8.89471 0 
0 0 0 
-8.9263 0.0646838 0 
0.0646838 -8.87344 0 
0 0 0 
-1.11101 0.0169571 0 
0.0169571 -1.08947 0 
0 0 0 
-1.09508 0.0316894 0 
0.0316894 -1.1054 0 
0 0 0 
-1.07384 -0.0646934 0 
-0.0646934 -1.12665 0 
0 0 0 
-0.688269 0.0229079 0 
0.0229079 -0.174757 0 
0 0 0 
-0.606424 0.208307 0 
0.208307 -0.256602 0 
0 0 0 
-0.603464 0.0946736 0 
0.0946736 -0.259561 0 
0 0 0 
-9.31168 -0.022912 0 
-0.022912 -9.82522 0 
0 0 0 
-9.39353 -0.20832 0 
-0.20832 -9.74338 0 
0 0 0 
-9.39649 -0.0946805 0 
-0.0946805 -9.74042 0 
0 0 0 
-0.849711 -0.00701532 0 
-0.00701532 -0.958364 0 
0 0 0 
-0.856153 -0.0100212 0 
-0.0100212 -0.951922 0 
0 0 0 
-0.863025 -0.00322997 0 
-0.00322997 -0.94505 0 
0 0 0 
-9.15035 0.00701429 0 
0.00701429 -9.04171 0 
0 0 0 
-9.14391 0.0100197 0 
0.0100197 -9.04815 0 
0 0 0 
-9.13704 0.00322934 0 
0.00322934 -9.05502 0 
0 0 0 
-1.04318 0.012663 0 
0.012663 -1.13566 0 
0 0 0 
-1.06747 0.0551263 0 
0.0551263 -1.11137 0 
0 0 0 
-0.989362 0.0815617 0 
0.0815617 -1.18947 0 
0 0 0 
-8.9569 -0.0126647 0 
-0.0126647 -8.86441 0 
0 0 0 
-8.93261 -0.0551268 0 
-0.0551268 -8.8887 0 
0 0 0 
-9.01071 -0.0815624 0 
-0.0815624 -8.81059 0 
0 0 0 
-0.868888 -0.00959992 0 
-0.00959992 -0.955927 0 
0 0 0 
-0.862758 -0.0163295 0 
-0.0163295 -0.962057 0 
0 0 0 
-0.875348 -0.014068 0 
-0.014068 -0.949467 0 
0 0 0 
-9.13118 0.00959869 0 
0.00959869 -9.04415 0 
0 0 0 
-9.13731 0.0163272 0 
0.0163272 -9.03802 0 
0 0 0 
-9.12472 0.014066 0 
0.014066 -9.05061 0 
0 0 0 
-8.85622 -0.185083 0 
-0.185083 -8.95955 0 
0 0 0 
-8.97334 -0.0113577 0 
-0.0113577 -8.84243 0 
0 0 0 
-8.89288 0.0447736 0 
0.0447736 -8.9229 0 
0 0 0 
-1.14388 0.185106 0 
0.185106 -1.04053 0 
0 0 0 
-1.02673 0.0113449 0 
0.0113449 -1.15768 0 
0 0 0 
-1.10721 -0.0447802 0 
-0.0447802 -1.0772 0 
0 0 0 
-1.00952 0.0155048 0 
0.0155048 -0.929431 0 
0 0 0 
-1.02564 0.0109216 0 
0.0109216 -0.913311 0 
0 0 0 
-1.02755 0.0200429 0 
0.0200429 -0.911396 0 
0 0 0 
-8.99056 -0.0155087 0 
-0.0155087 -9.07064 0 
0 0 0 
-8.97444 -0.0109258 0 
-0.0109258 -9.08676 0 
0 0 0 
-8.97253 -0.0200459 0 
-0.0200459 -9.08867 0 
0 0 0 
-0.829454 -0.00272602 0 
-0.00272602 -0.913961 0 
0 0 0 
-0.83196 0.00112512 0 
0.00112512 -0.911456 0 
0 0 0 
-0.837911 -0.000582679 0 
-0.000582679 -0.905505 0 
0 0 0 
-9.17061 0.00272575 0 
0.00272575 -9.08611 0 
0 0 0 
-9.1681 -0.00112495 0 
-0.00112495 -9.08861 0 
0 0 0 
-9.16215 0.000582518 0 
0.000582518 -9.09456 0 
0 0 0 
-0.828428 -0.00329815 0 
-0.00329815 -0.877447 0 
0 0 0 
-0.826757 -0.0121992 0 
-0.0121992 -0.879118 0 
0 0 0 
-0.822826 -0.00530692 0 
-0.00530692 -0.883049 0 
0 0 0 
-9.17164 0.00329794 0 
0.00329794 -9.12262 0 
0 0 0 
-9.17331 0.0121981 0 
0.0121981 -9.12095 0 
0 0 0 
-9.17724 0.00530667 0 
0.00530667 -9.11702 0 
0 0 0 
-9.2687 0.0397901 0 
0.0397901 -9.18401 0 
0 0 0 
-9.247 0.0155583 0 
0.0155583 -9.20571 0 
0 0 0 
-9.30604 0.0299919 0 
0.0299919 -9.14667 0 
0 0 0 
-0.731245 -0.0397872 0 
-0.0397872 -0.815928 0 
0 0 0 
-0.752943 -0.0155572 0 
-0.0155572 -0.79423 0 
0 0 0 
-0.693908 -0.0299895 0 
-0.0299895 -0.853265 0 
0 0 0 
-1.0215 0.013501 0 
0.013501 -0.963133 0 
0 0 0 
-1.01192 0.0171269 0 
0.0171269 -0.97271 0 
0 0 0 
-1.01557 0.0118355 0 
0.0118355 -0.969063 0 
0 0 0 
-8.97859 -0.0135044 0 
-0.0135044 -9.03694 0 
0 0 0 
-8.98816 -0.0171309 0 
-0.0171309 -9.02736 0 
0 0 0 
-8.98452 -0.0118388 0 
-0.0118388 -9.03101 0 
0 0 0 
-0.95372 0.0138845 0 
0.0138845 -1.08053 0 
0 0 0 
-0.933663 -0.0224745 0 
-0.0224745 -1.10058 0 
0 0 0 
-1.02576 -0.0176624 0 
-0.0176624 -1.00849 0 
0 0 0 
-9.04636 -0.0138853 0 
-0.0138853 -8.91954 0 
0 0 0 
-9.06642 0.0224744 0 
0.0224744 -8.89948 0 
0 0 0 
-8.97432 0.017662 0 
0.017662 -8.99158 0 
0 0 0 
-0.961954 -0.017167 0 
-0.017167 -0.98884 0 
0 0 0 
-0.969697 -0.0146967 0 
-0.0146967 -0.981097 0 
0 0 0 
-0.953671 -0.0168919 0 
-0.0168919 -0.997123 0 
0 0 0 
-9.03812 0.0171653 0 
0.0171653 -9.01123 0 
0 0 0 
-9.03038 0.014693 0 
0.014693 -9.01897 0 
0 0 0 
-9.04641 0.0168884 0 
0.0168884 -9.00295 0 
0 0 0 
-9.4875 -0.0890042 0 
-0.0890042 -9.56689 0 
0 0 0 
-9.45558 -0.0539315 0 
-0.0539315 -9.5988 0 
0 0 0 
-9.50574 -0.0400524 0 
-0.0400524 -9.54864 0 
0 0 0 
-0.512466 0.0889976 0 
0.0889976 -0.433078 0 
0 0 0 
-0.54438 0.053928 0 
0.053928 -0.401164 0 
0 0 0 
-0.494221 0.0400496 0 
0.0400496 -0.451323 0 
0 0 0 
-9.21204 0.0620717 0 
0.0620717 -9.23639 0 
0 0 0 
-9.21559 0.0448278 0 
0.0448278 -9.23284 0 
0 0 0 
-9.21648 0.0388213 0 
0.0388213 -9.23195 0 
0 0 0 
-0.788021 -0.0620766 0 
-0.0620766 -0.763668 0 
0 0 0 
-0.784468 -0.0448315 0 
-0.0448315 -0.767221 0 
0 0 0 
-0.783584 -0.0388246 0 
-0.0388246 -0.768105 0 
0 0 0 
-0.960752 -0.00442615 0 
-0.00442615 -0.996218 0 
0 0 0 
-0.954407 -0.0194958 0 
-0.0194958 -1.00256 0 
0 0 0 
-0.949755 -0.0107946 0 
-0.0107946 -1.00722 0 
0 0 0 
-9.03933 0.00442404 0 
0.00442404 -9.00385 0 
0 0 0 
-9.04567 0.0194931 0 
0.0194931 -8.99751 0 
0 0 0 
-9.05033 0.0107941 0 
0.0107941 -8.99285 0 
0 0 0 
-1.02786 -0.00862266 0 
-0.00862266 -0.942552 0 
0 0 0 
-1.05082 -0.0178488 0 
-0.0178488 -0.919588 0 
0 0 0 
-1.02791 0.00559629 0 
0.00559629 -0.942507 0 
0 0 0 
-8.97222 0.00861711 0 
0.00861711 -9.05752 0 
0 0 0 
-8.94926 0.0178426 0 
0.0178426 -9.08048 0 
0 0 0 
-8.97218 -0.00560128 0 
-0.00560128 -9.05757 0 
0 0 0 
-9.23322 0.0623415 0 
0.0623415 -9.23208 0 
0 0 0 
-9.2094 0.0460792 0 
0.0460792 -9.2559 0 
0 0 0 
-9.24705 0.0623397 0 
0.0623397 -9.21825 0 
0 0 0 
-0.766836 -0.0623464 0 
-0.0623464 -0.767975 0 
0 0 0 
-0.790658 -0.0460829 0 
-0.0460829 -0.744153 0 
0 0 0 
-0.753005 -0.0623447 0 
-0.0623447 -0.781806 0 
0 0 0 
-0.877026 0.00806832 0 
0.00806832 -0.934447 0 
0 0 0 
-0.880427 0.0050017 0 
0.0050017 -0.931046 0 
0 0 0 
-0.880813 0.00837308 0 
0.00837308 -0.93066 0 
0 0 0 
-9.12304 -0.00806768 0 
-0.00806768 -9.06563 0 
0 0 0 
-9.11964 -0.0050013 0 
-0.0050013 -9.06903 0 
0 0 0 
-9.11926 -0.00837239 0 
-0.00837239 -9.06941 0 
0 0 0 
-9.12315 -0.016708 0 
-0.016708 -9.0628 0 
0 0 0 
-9.12602 -0.0108002 0 
-0.0108002 -9.05993 0 
0 0 0 
-9.11913 -0.00757109 0 
-0.00757109 -9.06683 0 
0 0 0 
-0.87677 0.0167078 0 
0.0167078 -0.937118 0 
0 0 0 
-0.873898 0.010798 0 
0.010798 -0.93999 0 
0 0 0 
-0.880796 0.00756816 0 
0.00756816 -0.933093 0 
0 0 0 
-0.936474 -0.0277016 0 
-0.0277016 -0.969889 0 
0 0 0 
-0.929256 -0.0338872 0 
-0.0338872 -0.977107 0 
0 0 0 
-0.945905 -0.0317983 0 
-0.0317983 -0.960459 0 
0 0 0 
-9.0636 0.0276975 0 
0.0276975 -9.03018 0 
0 0 0 
-9.07082 0.0338853 0 
0.0338853 -9.02296 0 
0 0 0 
-9.05417 0.0317961 0 
0.0317961 -9.03961 0 
0 0 0 
-1.0651 -0.00617583 0 
-0.00617583 -0.90502 0 
0 0 0 
-1.07308 -0.0107226 0 
-0.0107226 -0.897039 0 
0 0 0 
-1.06608 -0.012587 0 
-0.012587 -0.904035 0 
0 0 0 
-8.93489 0.00614594 0 
0.00614594 -9.09494 0 
0 0 0 
-8.92694 0.0107043 0 
0.0107043 -9.10289 0 
0 0 0 
-8.93393 0.0125559 0 
0.0125559 -9.0959 0 
0 0 0 
-1.09031 0.00491726 0 
0.00491726 -1.01721 0 
0 0 0 
-1.0971 0.00285317 0 
0.00285317 -1.01042 0 
0 0 0 
-1.10819 -0.0207754 0 
-0.0207754 -0.999332 0 
0 0 0 
-8.90964 -0.00476935 0 
-0.00476935 -8.98277 0 
0 0 0 
-8.9024 -0.00322461 0 
-0.00322461 -8.99001 0 
0 0 0 
-8.89194 0.0200285 0 
0.0200285 -9.00047 0 
0 0 0 
-0.688843 0.0357545 0 
0.0357545 -0.41003 0 
0 0 0 
-0.696161 0.116379 0 
0.116379 -0.402712 0 
0 0 0 
-0.662022 0.161342 0 
0.161342 -0.436851 0 
0 0 0 
-9.3111 -0.0357576 0 
-0.0357576 -9.58994 0 
0 0 0 
-9.30378 -0.116388 0 
-0.116388 -9.59726 0 
0 0 0 
-9.33793 -0.161354 0 
-0.161354 -9.56311 0 
0 0 0 
-0.600592 0.0163241 0 
0.0163241 -0.632347 0 
0 0 0 
-0.635621 0.0770749 0 
0.0770749 -0.597318 0 
0 0 0 
-0.575215 0.123655 0 
0.123655 -0.657725 0 
0 0 0 
-9.39936 -0.0163265 0 
-0.0163265 -9.3676 0 
0 0 0 
-9.36433 -0.0770816 0 
-0.0770816 -9.40264 0 
0 0 0 
-9.42474 -0.123665 0 
-0.123665 -9.34223 0 
0 0 0 
-9.23753 0.0345739 0 
0.0345739 -9.15287 0 
0 0 0 
-9.25542 0.0550567 0 
0.0550567 -9.13498 0 
0 0 0 
-9.20739 0.0528806 0 
0.0528806 -9.18301 0 
0 0 0 
-0.762413 -0.0345703 0 
-0.0345703 -0.847061 0 
0 0 0 
-0.744525 -0.0550519 0 
-0.0550519 -0.864949 0 
0 0 0 
-0.792551 -0.0528762 0 
-0.0528762 -0.816923 0 
0 0 0 
-0.883749 0.000207081 0 
0.000207081 -0.939894 0 
0 0 0 
-0.885414 -0.00106341 0 
-0.00106341 -0.93823 0 
0 0 0 
-0.887015 -0.00166309 0 
-0.00166309 -0.936629 0 
0 0 0 
-9.11632 -0.000207056 0 
-0.000207056 -9.06018 0 
0 0 0 
-9.11465 0.00106329 0 
0.00106329 -9.06184 0 
0 0 0 
-9.11305 0.00166296 0 
0.00166296 -9.06344 0 
0 0 0 
-0.872293 0.00665044 0 
0.00665044 -0.950563 0 
0 0 0 
-0.883503 0.00513507 0 
0.00513507 -0.939353 0 
0 0 0 
-0.874728 0.0121376 0 
0.0121376 -0.948129 0 
0 0 0 
-9.12777 -0.00664994 0 
-0.00664994 -9.04951 0 
0 0 0 
-9.11657 -0.00513469 0 
-0.00513469 -9.06072 0 
0 0 0 
-9.12534 -0.0121366 0 
-0.0121366 -9.05195 0 
0 0 0 
-0.54454 0.0331315 0 
0.0331315 -0.10331 0 
0 0 0 
-0.494661 0.0517833 0 
0.0517833 -0.153189 0 
0 0 0 
-0.488137 0.109953 0 
0.109953 -0.159714 0 
0 0 0 
-9.45542 -0.0331314 0 
-0.0331314 -9.89667 0 
0 0 0 
-9.5053 -0.0517924 0 
-0.0517924 -9.84679 0 
0 0 0 
-9.51183 -0.109966 0 
-0.109966 -9.84027 0 
0 0 0 
-0.505702 -0.115562 0 
-0.115562 -0.242494 0 
0 0 0 
-0.490263 -0.0172544 0 
-0.0172544 -0.257933 0 
0 0 0 
-0.470879 -0.000748576 0 
-0.000748576 -0.277317 0 
0 0 0 
-9.49433 0.115559 0 
0.115559 -9.75753 0 
0 0 0 
-9.50977 0.0172508 0 
0.0172508 -9.74209 0 
0 0 0 
-9.52915 0.000748049 0 
0.000748049 -9.72271 0 
0 0 0 
-0.862746 0.0195086 0 
0.0195086 -0.941178 0 
0 0 0 
-0.870392 0.0146913 0 
0.0146913 -0.933532 0 
0 0 0 
-0.873137 0.0185874 0 
0.0185874 -0.930787 0 
0 0 0 
-9.13732 -0.019507 0 
-0.019507 -9.0589 0 
0 0 0 
-9.12967 -0.0146901 0 
-0.0146901 -9.06654 0 
0 0 0 
-9.12693 -0.0185859 0 
-0.0185859 -9.06929 0 
0 0 0 
-9.1114 -0.0186625 0 
-0.0186625 -9.05916 0 
0 0 0 
-9.11133 -0.0181821 0 
-0.0181821 -9.05923 0 
0 0 0 
-9.11421 -0.0194007 0 
-0.0194007 -9.05635 0 
0 0 0 
-0.888518 0.0186603 0 
0.0186603 -0.940763 0 
0 0 0 
-0.888587 0.0181811 0 
0.0181811 -0.940694 0 
0 0 0 
-0.885708 0.0193997 0 
0.0193997 -0.943573 0 
0 0 0 
-0.550058 0.0969491 0 
0.0969491 -0.518647 0 
0 0 0 
-0.591043 0.0382297 0 
0.0382297 -0.477662 0 
0 0 0 
-0.551069 0.146893 0 
0.146893 -0.517636 0 
0 0 0 
-9.4499 -0.096957 0 
-0.096957 -9.48131 0 
0 0 0 
-9.40891 -0.0382332 0 
-0.0382332 -9.5223 0 
0 0 0 
-9.44889 -0.146906 0 
-0.146906 -9.48232 0 
0 0 0 
-9.40145 0.0683088 0 
0.0683088 -9.50781 0 
0 0 0 
-9.53754 -0.0863225 0 
-0.0863225 -9.37172 0 
0 0 0 
-9.58898 -0.0641124 0 
-0.0641124 -9.32027 0 
0 0 0 
-0.598513 -0.0683041 0 
-0.0683041 -0.492147 0 
0 0 0 
-0.462427 0.0863191 0 
0.0863191 -0.628233 0 
0 0 0 
-0.410983 0.0641094 0 
0.0641094 -0.679677 0 
0 0 0 
-0.924964 -0.054757 0 
-0.054757 -0.956665 0 
0 0 0 
-0.946377 -0.0528359 0 
-0.0528359 -0.935253 0 
0 0 0 
-0.935959 -0.0476623 0 
-0.0476623 -0.945671 0 
0 0 0 
-9.07511 0.0547543 0 
0.0547543 -9.04341 0 
0 0 0 
-9.0537 0.0528331 0 
0.0528331 -9.06482 0 
0 0 0 
-9.06412 0.0476595 0 
0.0476595 -9.0544 0 
0 0 0 
-8.88033 0.142541 0 
0.142541 -8.76237 0 
0 0 0 
-8.81665 0.12533 0 
0.12533 -8.82606 0 
0 0 0 
-8.85397 -0.00154125 0 
-0.00154125 -8.78873 0 
0 0 0 
-0.924058 -0.0469926 0 
-0.0469926 -0.974079 0 
0 0 0 
-0.936065 -0.0550271 0 
-0.0550271 -0.962072 0 
0 0 0 
-0.951287 -0.042023 0 
-0.042023 -0.94685 0 
0 0 0 
-9.07602 0.0469901 0 
0.0469901 -9.02599 0 
0 0 0 
-9.06401 0.0550257 0 
0.0550257 -9.038 0 
0 0 0 
-9.04879 0.0420201 0 
0.0420201 -9.05322 0 
0 0 0 
-8.97017 0.0110534 0 
0.0110534 -8.88566 0 
0 0 0 
-8.88089 0.0479615 0 
0.0479615 -8.97495 0 
0 0 0 
-8.90719 -0.0260136 0 
-0.0260136 -8.94865 0 
0 0 0 
-1.02895 -0.0108813 0 
-0.0108813 -1.11485 0 
0 0 0 
-1.1192 -0.0480429 0 
-0.0480429 -1.0246 0 
0 0 0 
-1.09237 0.0259549 0 
0.0259549 -1.05143 0 
0 0 0 
-0.854917 0.0250385 0 
0.0250385 -0.9247 0 
0 0 0 
-0.859517 0.0285303 0 
0.0285303 -0.9201 0 
0 0 0 
-0.846422 0.0294769 0 
0.0294769 -0.933196 0 
0 0 0 
-9.14515 -0.0250364 0 
-0.0250364 -9.07537 0 
0 0 0 
-9.14055 -0.028528 0 
-0.028528 -9.07997 0 
0 0 0 
-9.15364 -0.0294745 0 
-0.0294745 -9.06688 0 
0 0 0 
-9.27804 0.0275816 0 
0.0275816 -9.21174 0 
0 0 0 
-9.30249 0.0327269 0 
0.0327269 -9.18729 0 
0 0 0 
-9.31315 0.0499597 0 
0.0499597 -9.17663 0 
0 0 0 
-0.721903 -0.02758 0 
-0.02758 -0.788202 0 
0 0 0 
-0.697452 -0.0327247 0 
-0.0327247 -0.812653 0 
0 0 0 
-0.686794 -0.0499562 0 
-0.0499562 -0.823312 0 
0 0 0 
-8.97591 -0.0275887 0 
-0.0275887 -9.13247 0 
0 0 0 
-9.00114 -0.0140714 0 
-0.0140714 -9.10723 0 
0 0 0 
-8.9843 -0.0370622 0 
-0.0370622 -9.12408 0 
0 0 0 
-1.02418 0.0275998 0 
0.0275998 -0.867604 0 
0 0 0 
-0.998937 0.0140767 0 
0.0140767 -0.892843 0 
0 0 0 
-1.01579 0.0370691 0 
0.0370691 -0.875988 0 
0 0 0 
-8.87961 -0.00474524 0 
-0.00474524 -8.80216 0 
0 0 0 
-8.92399 -0.0427469 0 
-0.0427469 -8.75778 0 
0 0 0 
-8.92695 0.0222782 0 
0.0222782 -8.75482 0 
0 0 0 
-0.861432 0.0193444 0 
0.0193444 -0.944958 0 
0 0 0 
-0.858322 0.0169428 0 
0.0169428 -0.948068 0 
0 0 0 
-0.869523 0.0165233 0 
0.0165233 -0.936867 0 
0 0 0 
-9.13863 -0.0193429 0 
-0.0193429 -9.05512 0 
0 0 0 
-9.14174 -0.0169415 0 
-0.0169415 -9.05201 0 
0 0 0 
-9.13054 -0.016522 0 
-0.016522 -9.06321 0 
0 0 0 
-9.11309 0.0224084 0 
0.0224084 -9.04332 0 
0 0 0 
-9.11273 0.0263471 0 
0.0263471 -9.04368 0 
0 0 0 
-9.10459 0.0186172 0 
0.0186172 -9.05182 0 
0 0 0 
-0.886981 -0.0224109 0 
-0.0224109 -0.956754 0 
0 0 0 
-0.887342 -0.0263502 0 
-0.0263502 -0.956393 0 
0 0 0 
-0.895481 -0.0186193 0 
-0.0186193 -0.948254 0 
0 0 0 
-9.10649 0.0228762 0 
0.0228762 -9.04578 0 
0 0 0 
-9.10746 0.0196519 0 
0.0196519 -9.04481 0 
0 0 0 
-9.11363 0.0288419 0 
0.0288419 -9.03865 0 
0 0 0 
-0.893579 -0.0228794 0 
-0.0228794 -0.954293 0 
0 0 0 
-0.892607 -0.0196543 0 
-0.0196543 -0.955265 0 
0 0 0 
-0.886444 -0.0288462 0 
-0.0288462 -0.961428 0 
0 0 0 
-8.99147 0.104489 0 
0.104489 -9.05823 0 
0 0 0 
-8.8614 -0.0218237 0 
-0.0218237 -9.18829 0 
0 0 0 
-8.96412 -0.0364175 0 
-0.0364175 -9.08557 0 
0 0 0 
-1.0086 -0.104482 0 
-0.104482 -0.941848 0 
0 0 0 
-1.13866 0.0218261 0 
0.0218261 -0.811787 0 
0 0 0 
-1.03595 0.0364184 0 
0.0364184 -0.914503 0 
0 0 0 
-0.52068 -0.0771419 0 
-0.0771419 -0.285239 0 
0 0 0 
-0.524296 -0.101582 0 
-0.101582 -0.281623 0 
0 0 0 
-0.49704 -0.00973002 0 
-0.00973002 -0.308879 0 
0 0 0 
-9.47936 0.0771364 0 
0.0771364 -9.71479 0 
0 0 0 
-9.47574 0.101573 0 
0.101573 -9.7184 0 
0 0 0 
-9.503 0.00972366 0 
0.00972366 -9.69115 0 
0 0 0 
-0.922884 0.0338703 0 
0.0338703 -0.951001 0 
0 0 0 
-0.91396 0.035119 0 
0.035119 -0.959925 0 
0 0 0 
-0.919376 0.0343231 0 
0.0343231 -0.954509 0 
0 0 0 
-9.07704 -0.0338499 0 
-0.0338499 -9.04894 0 
0 0 0 
-9.08597 -0.0350922 0 
-0.0350922 -9.04001 0 
0 0 0 
-9.08056 -0.0342929 0 
-0.0342929 -9.04543 0 
0 0 0 
-1.00715 -0.00884505 0 
-0.00884505 -0.897907 0 
0 0 0 
-1.02971 -0.0308696 0 
-0.0308696 -0.875347 0 
0 0 0 
-1.02157 -0.0355492 0 
-0.0355492 -0.883486 0 
0 0 0 
-8.99286 0.0088007 0 
0.0088007 -9.10201 0 
0 0 0 
-8.97029 0.0309211 0 
0.0309211 -9.12457 0 
0 0 0 
-8.97838 0.0354824 0 
0.0354824 -9.11649 0 
0 0 0 
-1.04838 -0.0128776 0 
-0.0128776 -0.837413 0 
0 0 0 
-0.994496 -0.0252036 0 
-0.0252036 -0.891296 0 
0 0 0 
-1.03559 -0.0224852 0 
-0.0224852 -0.850206 0 
0 0 0 
-8.95148 0.01278 0 
0.01278 -9.16261 0 
0 0 0 
-9.00561 0.0252536 0 
0.0252536 -9.10848 0 
0 0 0 
-8.96435 0.0226111 0 
0.0226111 -9.14974 0 
0 0 0 
-1.11434 -0.0327366 0 
-0.0327366 -0.960838 0 
0 0 0 
-1.11712 -0.0250623 0 
-0.0250623 -0.958064 0 
0 0 0 
-1.07628 -0.0341777 0 
-0.0341777 -0.998906 0 
0 0 0 
-8.88585 0.0326151 0 
0.0326151 -9.03939 0 
0 0 0 
-8.88305 0.0252307 0 
0.0252307 -9.0422 0 
0 0 0 
-8.92382 0.0341507 0 
0.0341507 -9.00143 0 
0 0 0 
-0.896646 0.0339844 0 
0.0339844 -0.922196 0 
0 0 0 
-0.885955 0.0400574 0 
0.0400574 -0.932886 0 
0 0 0 
-0.883831 0.0380223 0 
0.0380223 -0.935011 0 
0 0 0 
-9.10342 -0.0339815 0 
-0.0339815 -9.07788 0 
0 0 0 
-9.11411 -0.0400541 0 
-0.0400541 -9.06719 0 
0 0 0 
-9.11624 -0.0380192 0 
-0.0380192 -9.06506 0 
0 0 0 
-8.97216 -0.0198726 0 
-0.0198726 -9.0221 0 
0 0 0 
-8.95262 -0.0545182 0 
-0.0545182 -9.04164 0 
0 0 0 
-8.99498 -0.0239208 0 
-0.0239208 -8.99928 0 
0 0 0 
-1.02705 0.0199484 0 
0.0199484 -0.977999 0 
0 0 0 
-1.04653 0.0542353 0 
0.0542353 -0.958522 0 
0 0 0 
-1.00515 0.0238342 0 
0.0238342 -0.999902 0 
0 0 0 
-8.85489 0.00655778 0 
0.00655778 -8.79932 0 
0 0 0 
-8.84215 0.0127438 0 
0.0127438 -8.81205 0 
0 0 0 
-8.84109 -0.00365765 0 
-0.00365765 -8.81311 0 
0 0 0 
-8.82724 -0.000612999 0 
-0.000612999 -8.81345 0 
0 0 0 
-8.82989 0.00479796 0 
0.00479796 -8.81081 0 
0 0 0 
-8.82197 0.00179083 0 
0.00179083 -8.81872 0 
0 0 0 
-8.86193 -0.00855039 0 
-0.00855039 -8.80433 0 
0 0 0 
-8.84912 -0.00621781 0 
-0.00621781 -8.81714 0 
0 0 0 
-8.84943 -0.0153854 0 
-0.0153854 -8.81683 0 
0 0 0 
-8.83418 0.00190691 0 
0.00190691 -8.81289 0 
0 0 0 
-8.82468 -0.00104269 0 
-0.00104269 -8.82239 0 
0 0 0 
-8.83688 -0.0106975 0 
-0.0106975 -8.81018 0 
0 0 0 
-0.863173 -0.0124728 0 
-0.0124728 -0.955844 0 
0 0 0 
-0.868847 -0.0176111 0 
-0.0176111 -0.95017 0 
0 0 0 
-0.87395 -0.00804481 0 
-0.00804481 -0.945068 0 
0 0 0 
-9.13689 0.0124714 0 
0.0124714 -9.04423 0 
0 0 0 
-9.13122 0.017609 0 
0.017609 -9.0499 0 
0 0 0 
-9.12612 0.0080439 0 
0.0080439 -9.05501 0 
0 0 0 
-0.904767 -0.0430616 0 
-0.0430616 -0.944528 0 
0 0 0 
-0.910432 -0.0445004 0 
-0.0445004 -0.938863 0 
0 0 0 
-0.919779 -0.0400551 0 
-0.0400551 -0.929515 0 
0 0 0 
-9.09531 0.0430585 0 
0.0430585 -9.05555 0 
0 0 0 
-9.08964 0.044498 0 
0.044498 -9.06121 0 
0 0 0 
-9.08029 0.040052 0 
0.040052 -9.07056 0 
0 0 0 
-1.09982 -0.00136576 0 
-0.00136576 -1.12582 0 
0 0 0 
-1.09873 0.0406207 0 
0.0406207 -1.12691 0 
0 0 0 
-1.07715 0.023487 0 
0.023487 -1.1485 0 
0 0 0 
-8.92644 -0.0101194 0 
-0.0101194 -9.10817 0 
0 0 0 
-8.93583 -0.00649184 0 
-0.00649184 -9.09878 0 
0 0 0 
-8.93324 -0.0109401 0 
-0.0109401 -9.10137 0 
0 0 0 
-1.07365 0.0101226 0 
0.0101226 -0.891901 0 
0 0 0 
-1.06426 0.00649494 0 
0.00649494 -0.901292 0 
0 0 0 
-1.06685 0.0109409 0 
0.0109409 -0.8987 0 
0 0 0 
-8.96106 -0.0624065 0 
-0.0624065 -9.0191 0 
0 0 0 
-8.9757 -0.0800348 0 
-0.0800348 -9.00446 0 
0 0 0 
-8.97557 -0.0822006 0 
-0.0822006 -9.00459 0 
0 0 0 
-1.03901 0.0624047 0 
0.0624047 -0.980974 0 
0 0 0 
-1.02438 0.0800374 0 
0.0800374 -0.995605 0 
0 0 0 
-1.0245 0.0821994 0 
0.0821994 -0.995486 0 
0 0 0 
-8.91883 -0.031722 0 
-0.031722 -8.9872 0 
0 0 0 
-8.84823 -0.0470753 0 
-0.0470753 -9.0578 0 
0 0 0 
-8.82059 -0.124936 0 
-0.124936 -9.08544 0 
0 0 0 
-1.08124 0.031723 0 
0.031723 -1.01287 0 
0 0 0 
-1.15184 0.0470772 0 
0.0470772 -0.94227 0 
0 0 0 
-1.17948 0.124932 0 
0.124932 -0.914631 0 
0 0 0 
-8.90105 -0.0423786 0 
-0.0423786 -8.86985 0 
0 0 0 
-8.92519 -0.0232052 0 
-0.0232052 -8.8457 0 
0 0 0 
-8.89928 0.00476651 0 
0.00476651 -8.87162 0 
0 0 0 
-0.885486 0.0511491 0 
0.0511491 -0.895427 0 
0 0 0 
-0.870708 0.0540984 0 
0.0540984 -0.910204 0 
0 0 0 
-0.881692 0.049309 0 
0.049309 -0.899221 0 
0 0 0 
-9.11458 -0.0511449 0 
-0.0511449 -9.10464 0 
0 0 0 
-9.12936 -0.0540939 0 
-0.0540939 -9.08987 0 
0 0 0 
-9.11838 -0.0493049 0 
-0.0493049 -9.10085 0 
0 0 0 
-1.44533 -0.227189 0 
-0.227189 -1.25728 0 
0 0 0 
-1.39217 -0.089129 0 
-0.089129 -1.31045 0 
0 0 0 
-1.35753 -0.0430382 0 
-0.0430382 -1.34509 0 
0 0 0 
-8.55469 0.227335 0 
0.227335 -8.74258 0 
0 0 0 
-8.60773 0.0890725 0 
0.0890725 -8.68953 0 
0 0 0 
-8.6425 0.0429496 0 
0.0429496 -8.65476 0 
0 0 0 
-0.906486 -0.0444904 0 
-0.0444904 -0.936218 0 
0 0 0 
-0.921656 -0.0419456 0 
-0.0419456 -0.921048 0 
0 0 0 
-0.915741 -0.0389741 0 
-0.0389741 -0.926963 0 
0 0 0 
-9.09359 0.0444872 0 
0.0444872 -9.06386 0 
0 0 0 
-9.07842 0.0419426 0 
0.0419426 -9.07902 0 
0 0 0 
-9.08433 0.0389712 0 
0.0389712 -9.07311 0 
0 0 0 
-8.91562 0.0580401 0 
0.0580401 -8.70143 0 
0 0 0 
-8.90111 0.0841229 0 
0.0841229 -8.71595 0 
0 0 0 
-8.8717 0.0353059 0 
0.0353059 -8.74536 0 
0 0 0 
-1.42552 -0.19747 0 
-0.19747 -0.856573 0 
0 0 0 
-1.34883 0.267678 0 
0.267678 -0.933264 0 
0 0 0 
-1.21458 -0.133025 0 
-0.133025 -1.06751 0 
0 0 0 
-8.57435 0.197643 0 
0.197643 -9.14332 0 
0 0 0 
-8.65124 -0.268001 0 
-0.268001 -9.06643 0 
0 0 0 
-8.78533 0.132985 0 
0.132985 -8.93234 0 
0 0 0 
-1.07773 -0.0542739 0 
-0.0542739 -0.882708 0 
0 0 0 
-1.04885 -0.0388851 0 
-0.0388851 -0.911587 0 
0 0 0 
-1.02714 -0.0648015 0 
-0.0648015 -0.933295 0 
0 0 0 
-8.92228 0.0542728 0 
0.0542728 -9.11728 0 
0 0 0 
-8.95121 0.038908 0 
0.038908 -9.08835 0 
0 0 0 
-8.97298 0.0649255 0 
0.0649255 -9.06658 0 
0 0 0 
-1.09987 -0.00888115 0 
-0.00888115 -1.22353 0 
0 0 0 
-1.09994 0.000176816 0 
0.000176816 -1.22347 0 
0 0 0 
-1.07703 -0.0168418 0 
-0.0168418 -1.24637 0 
0 0 0 
-9.43038 0.026688 0 
0.026688 -9.31466 0 
0 0 0 
-9.47518 0.0567779 0 
0.0567779 -9.26987 0 
0 0 0 
-9.44765 0.0443516 0 
0.0443516 -9.29739 0 
0 0 0 
-0.569574 -0.0266864 0 
-0.0266864 -0.68529 0 
0 0 0 
-0.524785 -0.056774 0 
-0.056774 -0.730079 0 
0 0 0 
-0.552309 -0.0443488 0 
-0.0443488 -0.702555 0 
0 0 0 
-8.90026 0.00888938 0 
0.00888938 -8.77651 0 
0 0 0 
-8.90018 -0.000118882 0 
-0.000118882 -8.77659 0 
0 0 0 
-8.92301 0.0168682 0 
0.0168682 -8.75376 0 
0 0 0 
-9.38392 0.113885 0 
0.113885 -9.42471 0 
0 0 0 
-9.34909 0.104291 0 
0.104291 -9.45954 0 
0 0 0 
-9.36756 0.0487581 0 
0.0487581 -9.44107 0 
0 0 0 
-0.616125 -0.113895 0 
-0.113895 -0.575337 0 
0 0 0 
-0.650966 -0.1043 0 
-0.1043 -0.540497 0 
0 0 0 
-0.63249 -0.0487615 0 
-0.0487615 -0.558973 0 
0 0 0 
-9.15263 0.0702888 0 
0.0702888 -9.23311 0 
0 0 0 
-9.15171 0.0301346 0 
0.0301346 -9.23403 0 
0 0 0 
-9.17412 0.0581179 0 
0.0581179 -9.21162 0 
0 0 0 
-0.847432 -0.0702943 0 
-0.0702943 -0.766952 0 
0 0 0 
-0.848354 -0.0301372 0 
-0.0301372 -0.76603 0 
0 0 0 
-0.825939 -0.0581226 0 
-0.0581226 -0.788444 0 
0 0 0 
-9.12041 0.0160021 0 
0.0160021 -9.04822 0 
0 0 0 
-9.12352 0.0227026 0 
0.0227026 -9.04512 0 
0 0 0 
-9.11454 0.0189474 0 
0.0189474 -9.05409 0 
0 0 0 
-0.879659 -0.0160036 0 
-0.0160036 -0.951851 0 
0 0 0 
-0.876553 -0.022705 0 
-0.022705 -0.954958 0 
0 0 0 
-0.885528 -0.0189493 0 
-0.0189493 -0.945982 0 
0 0 0 
-9.12799 -0.0113308 0 
-0.0113308 -9.04729 0 
0 0 0 
-9.12818 -0.000104142 0 
-0.000104142 -9.0471 0 
0 0 0 
-9.11704 -0.00857205 0 
-0.00857205 -9.05823 0 
0 0 0 
-0.871933 0.0113286 0 
0.0113286 -0.952634 0 
0 0 0 
-0.871743 9.98984e-05 0 
9.98984e-05 -0.952824 0 
0 0 0 
-0.882882 0.00856929 0 
0.00856929 -0.941685 0 
0 0 0 
-9.19905 0.0940412 0 
0.0940412 -9.1367 0 
0 0 0 
-9.16099 0.0900426 0 
0.0900426 -9.17475 0 
0 0 0 
-9.17791 0.0795982 0 
0.0795982 -9.15783 0 
0 0 0 
-0.800888 -0.0940319 0 
-0.0940319 -0.863232 0 
0 0 0 
-0.838938 -0.0900336 0 
-0.0900336 -0.825182 0 
0 0 0 
-0.822022 -0.0795903 0 
-0.0795903 -0.842099 0 
0 0 0 
-0.863226 0.0703544 0 
0.0703544 -0.865899 0 
0 0 0 
-0.840911 0.0731495 0 
0.0731495 -0.888214 0 
0 0 0 
-0.855753 0.0658341 0 
0.0658341 -0.873372 0 
0 0 0 
-9.13684 -0.0703487 0 
-0.0703487 -9.13417 0 
0 0 0 
-9.15915 -0.0731436 0 
-0.0731436 -9.11185 0 
0 0 0 
-9.14431 -0.0658288 0 
-0.0658288 -9.12669 0 
0 0 0 
-9.26016 0.0929867 0 
0.0929867 -9.29023 0 
0 0 0 
-9.23021 0.0632735 0 
0.0632735 -9.32019 0 
0 0 0 
-9.24878 0.0636874 0 
0.0636874 -9.30162 0 
0 0 0 
-0.739896 -0.0929938 0 
-0.0929938 -0.709821 0 
0 0 0 
-0.769853 -0.0632784 0 
-0.0632784 -0.679864 0 
0 0 0 
-0.75128 -0.0636924 0 
-0.0636924 -0.698438 0 
0 0 0 
-9.39662 0.0732784 0 
0.0732784 -9.34597 0 
0 0 0 
-9.3889 0.0802196 0 
0.0802196 -9.35369 0 
0 0 0 
-9.37231 0.0271721 0 
0.0271721 -9.37028 0 
0 0 0 
-0.603429 -0.0732842 0 
-0.0732842 -0.654082 0 
0 0 0 
-0.611147 -0.0802258 0 
-0.0802258 -0.646364 0 
0 0 0 
-0.627742 -0.0271746 0 
-0.0271746 -0.629769 0 
0 0 0 
-9.36493 0.0795547 0 
0.0795547 -9.23225 0 
0 0 0 
-9.37658 0.097378 0 
0.097378 -9.22059 0 
0 0 0 
-9.32741 0.0755576 0 
0.0755576 -9.26976 0 
0 0 0 
-0.635023 -0.0795485 0 
-0.0795485 -0.767696 0 
0 0 0 
-0.623373 -0.0973703 0 
-0.0973703 -0.779346 0 
0 0 0 
-0.672538 -0.0755517 0 
-0.0755517 -0.730181 0 
0 0 0 
-9.20215 0.0485234 0 
0.0485234 -9.10324 0 
0 0 0 
-9.17358 0.0460001 0 
0.0460001 -9.13181 0 
0 0 0 
-9.18892 0.0369958 0 
0.0369958 -9.11647 0 
0 0 0 
-0.797789 -0.048519 0 
-0.048519 -0.896685 0 
0 0 0 
-0.826355 -0.0459959 0 
-0.0459959 -0.868119 0 
0 0 0 
-0.811014 -0.0369913 0 
-0.0369913 -0.883461 0 
0 0 0 
-1.52761 -0.338522 0 
-0.338522 -1.16471 0 
0 0 0 
-1.56803 -0.0819776 0 
-0.0819776 -1.12429 0 
0 0 0 
-1.45874 -0.0625244 0 
-0.0625244 -1.23358 0 
0 0 0 
-8.47265 0.338415 0 
0.338415 -8.83543 0 
0 0 0 
-8.43224 0.0819493 0 
0.0819493 -8.87583 0 
0 0 0 
-8.54152 0.0624897 0 
0.0624897 -8.76656 0 
0 0 0 
-0.878344 0.0499032 0 
0.0499032 -0.899247 0 
0 0 0 
-0.864511 0.0556067 0 
0.0556067 -0.91308 0 
0 0 0 
-0.859839 0.0531427 0 
0.0531427 -0.917752 0 
0 0 0 
-9.12172 -0.0498992 0 
-0.0498992 -9.10082 0 
0 0 0 
-9.13556 -0.0556022 0 
-0.0556022 -9.08699 0 
0 0 0 
-9.14023 -0.0531384 0 
-0.0531384 -9.08232 0 
0 0 0 
-8.42825 -0.0843207 0 
-0.0843207 -8.87395 0 
0 0 0 
-8.46912 -0.334841 0 
-0.334841 -8.83308 0 
0 0 0 
-8.53448 -0.0608952 0 
-0.0608952 -8.76772 0 
0 0 0 
-1.56923 0.0839249 0 
0.0839249 -1.12521 0 
0 0 0 
-1.52881 0.33636 0 
0.33636 -1.16563 0 
0 0 0 
-1.46266 0.0629082 0 
0.0629082 -1.23178 0 
0 0 0 
-1.12026 0.0121311 0 
0.0121311 -1.20538 0 
0 0 0 
-1.07133 0.0512671 0 
0.0512671 -1.25431 0 
0 0 0 
-1.08268 -0.0283281 0 
-0.0283281 -1.24296 0 
0 0 0 
-9.12269 0.0193565 0 
0.0193565 -9.06015 0 
0 0 0 
-9.1205 0.0218404 0 
0.0218404 -9.06234 0 
0 0 0 
-9.12227 0.0228678 0 
0.0228678 -9.06057 0 
0 0 0 
-0.877378 -0.019358 0 
-0.019358 -0.939924 0 
0 0 0 
-0.879565 -0.0218424 0 
-0.0218424 -0.937737 0 
0 0 0 
-0.877802 -0.02287 0 
-0.02287 -0.939501 0 
0 0 0 
-0.841748 -0.00673962 0 
-0.00673962 -0.922224 0 
0 0 0 
-0.839246 0.000205547 0 
0.000205547 -0.924726 0 
0 0 0 
-0.841354 0.00185438 0 
0.00185438 -0.922618 0 
0 0 0 
-9.15832 0.00673893 0 
0.00673893 -9.07785 0 
0 0 0 
-9.16082 -0.000205617 0 
-0.000205617 -9.07535 0 
0 0 0 
-9.15871 -0.00185434 0 
-0.00185434 -9.07745 0 
0 0 0 
-0.928795 0.033857 0 
0.033857 -0.960448 0 
0 0 0 
-0.924344 0.0306148 0 
0.0306148 -0.964898 0 
0 0 0 
-0.922713 0.0335341 0 
0.0335341 -0.96653 0 
0 0 0 
-9.07124 -0.0338336 0 
-0.0338336 -9.03948 0 
0 0 0 
-9.07564 -0.0306322 0 
-0.0306322 -9.03509 0 
0 0 0 
-9.07729 -0.0334402 0 
-0.0334402 -9.03343 0 
0 0 0 
-1.09007 0.0035808 0 
0.0035808 -1.00672 0 
0 0 0 
-1.08635 -0.0232379 0 
-0.0232379 -1.01044 0 
0 0 0 
-1.08572 -0.0170661 0 
-0.0170661 -1.01107 0 
0 0 0 
-8.91003 -0.00357557 0 
-0.00357557 -8.99339 0 
0 0 0 
-8.91376 0.02324 0 
0.02324 -8.98966 0 
0 0 0 
-8.91438 0.0170665 0 
0.0170665 -8.98904 0 
0 0 0 
-1.11248 -0.00656375 0 
-0.00656375 -1.24531 0 
0 0 0 
-1.11416 -0.022373 0 
-0.022373 -1.24363 0 
0 0 0 
-1.14562 -0.0046545 0 
-0.0046545 -1.21217 0 
0 0 0 
-1.18225 -0.119087 0 
-0.119087 -1.15227 0 
0 0 0 
-1.22936 0.0434435 0 
0.0434435 -1.10516 0 
0 0 0 
-1.12636 -0.10547 0 
-0.10547 -1.20817 0 
0 0 0 
-8.81785 0.119047 0 
0.119047 -8.8479 0 
0 0 0 
-8.77081 -0.0435226 0 
-0.0435226 -8.89494 0 
0 0 0 
-8.87379 0.10542 0 
0.10542 -8.79196 0 
0 0 0 
-8.88762 0.00634972 0 
0.00634972 -8.75469 0 
0 0 0 
-8.88587 0.0224467 0 
0.0224467 -8.75644 0 
0 0 0 
-8.85412 0.00442462 0 
0.00442462 -8.78819 0 
0 0 0 
-0.884441 -0.0143941 0 
-0.0143941 -0.936182 0 
0 0 0 
-0.879931 -0.0202079 0 
-0.0202079 -0.940692 0 
0 0 0 
-0.889116 -0.0180092 0 
-0.0180092 -0.931507 0 
0 0 0 
-9.11563 0.0143927 0 
0.0143927 -9.06389 0 
0 0 0 
-9.12014 0.0202063 0 
0.0202063 -9.05938 0 
0 0 0 
-9.11095 0.0180077 0 
0.0180077 -9.06857 0 
0 0 0 
-1.22522 -0.0420017 0 
-0.0420017 -1.10405 0 
0 0 0 
-1.18203 0.121939 0 
0.121939 -1.14724 0 
0 0 0 
-1.12049 0.107438 0 
0.107438 -1.20878 0 
0 0 0 
-0.775126 0.058251 0 
0.058251 -0.815908 0 
0 0 0 
-0.734292 0.057294 0 
0.057294 -0.856742 0 
0 0 0 
-0.756828 0.0423657 0 
0.0423657 -0.834205 0 
0 0 0 
-9.22493 -0.0582465 0 
-0.0582465 -9.18415 0 
0 0 0 
-9.26576 -0.0572896 0 
-0.0572896 -9.14332 0 
0 0 0 
-9.24323 -0.0423626 0 
-0.0423626 -9.16586 0 
0 0 0 
-8.77097 0.0302242 0 
0.0302242 -8.89618 0 
0 0 0 
-8.8218 -0.118911 0 
-0.118911 -8.84536 0 
0 0 0 
-8.8753 -0.106739 0 
-0.106739 -8.79186 0 
0 0 0 
-0.995577 0.0434675 0 
0.0434675 -0.967412 0 
0 0 0 
-0.972395 0.0325244 0 
0.0325244 -0.990593 0 
0 0 0 
-1.00759 0.0155834 0 
0.0155834 -0.955398 0 
0 0 0 
-9.0045 -0.0434696 0 
-0.0434696 -9.03266 0 
0 0 0 
-9.02768 -0.0325268 0 
-0.0325268 -9.00948 0 
0 0 0 
-8.99249 -0.0155856 0 
-0.0155856 -9.04467 0 
0 0 0 
-9.22698 0.0808549 0 
0.0808549 -9.13402 0 
0 0 0 
-9.21054 0.0963173 0 
0.0963173 -9.15046 0 
0 0 0 
-9.18319 0.0745738 0 
0.0745738 -9.17781 0 
0 0 0 
-0.772956 -0.0808474 0 
-0.0808474 -0.865912 0 
0 0 0 
-0.789396 -0.0963086 0 
-0.0963086 -0.849472 0 
0 0 0 
-0.816741 -0.0745667 0 
-0.0745667 -0.822127 0 
0 0 0 
-0.85955 -0.0122438 0 
-0.0122438 -0.875026 0 
0 0 0 
-0.854766 -0.0158687 0 
-0.0158687 -0.879811 0 
0 0 0 
-0.852283 -0.00849284 0 
-0.00849284 -0.882294 0 
0 0 0 
-9.14052 0.0122427 0 
0.0122427 -9.12504 0 
0 0 0 
-9.1453 0.0158676 0 
0.0158676 -9.12026 0 
0 0 0 
-9.14778 0.00849245 0 
0.00849245 -9.11777 0 
0 0 0 
-1.08639 0.0381635 0 
0.0381635 -0.970137 0 
0 0 0 
-1.05331 0.0180943 0 
0.0180943 -1.00322 0 
0 0 0 
-1.12203 0.0310446 0 
0.0310446 -0.934499 0 
0 0 0 
-8.91371 -0.0381556 0 
-0.0381556 -9.02994 0 
0 0 0 
-8.94678 -0.018083 0 
-0.018083 -8.99687 0 
0 0 0 
-8.87807 -0.0310432 0 
-0.0310432 -9.06558 0 
0 0 0 
-0.778345 0.0446385 0 
0.0446385 -0.865171 0 
0 0 0 
-0.764389 0.0322909 0 
0.0322909 -0.879126 0 
0 0 0 
-0.799433 0.0317581 0 
0.0317581 -0.844083 0 
0 0 0 
-9.22172 -0.044635 0 
-0.044635 -9.1349 0 
0 0 0 
-9.23567 -0.0322884 0 
-0.0322884 -9.12094 0 
0 0 0 
-9.20063 -0.0317557 0 
-0.0317557 -9.15598 0 
0 0 0 
-9.1625 0.0762997 0 
0.0762997 -9.11249 0 
0 0 0 
-9.14236 0.0603845 0 
0.0603845 -9.13263 0 
0 0 0 
-9.17632 0.0664988 0 
0.0664988 -9.09867 0 
0 0 0 
-0.837436 -0.0762926 0 
-0.0762926 -0.887433 0 
0 0 0 
-0.857569 -0.0603782 0 
-0.0603782 -0.867301 0 
0 0 0 
-0.823613 -0.066492 0 
-0.066492 -0.901256 0 
0 0 0 
-1.12855 0.0167846 0 
0.0167846 -0.981855 0 
0 0 0 
-1.10553 0.0087485 0 
0.0087485 -1.00487 0 
0 0 0 
-1.11456 0.0447316 0 
0.0447316 -0.995845 0 
0 0 0 
-8.87156 -0.016768 0 
-0.016768 -9.01822 0 
0 0 0 
-8.89456 -0.00873932 0 
-0.00873932 -8.99523 0 
0 0 0 
-8.88554 -0.0447286 0 
-0.0447286 -9.00424 0 
0 0 0 
-0.857518 -0.00395847 0 
-0.00395847 -0.946345 0 
0 0 0 
-0.853971 -0.00611484 0 
-0.00611484 -0.949892 0 
0 0 0 
-0.849413 -0.0113821 0 
-0.0113821 -0.954449 0 
0 0 0 
-9.14255 0.00395771 0 
0.00395771 -9.05373 0 
0 0 0 
-9.1461 0.00611383 0 
0.00611383 -9.05018 0 
0 0 0 
-9.15065 0.0113805 0 
0.0113805 -9.04563 0 
0 0 0 
-0.856879 0.0316304 0 
0.0316304 -0.804864 0 
0 0 0 
-0.883978 0.0256614 0 
0.0256614 -0.777765 0 
0 0 0 
-0.86553 0.0672891 0 
0.0672891 -0.796213 0 
0 0 0 
-9.14306 -0.0316351 0 
-0.0316351 -9.19508 0 
0 0 0 
-9.11596 -0.0256662 0 
-0.0256662 -9.22219 0 
0 0 0 
-9.13441 -0.0672973 0 
-0.0672973 -9.20374 0 
0 0 0 
-0.702026 0.136133 0 
0.136133 -0.652703 0 
0 0 0 
-0.676489 0.0867467 0 
0.0867467 -0.67824 0 
0 0 0 
-0.734157 0.0370429 0 
0.0370429 -0.620572 0 
0 0 0 
-9.29792 -0.136143 0 
-0.136143 -9.34725 0 
0 0 0 
-9.32346 -0.0867543 0 
-0.0867543 -9.32171 0 
0 0 0 
-9.26579 -0.0370473 0 
-0.0370473 -9.37938 0 
0 0 0 
-8.91427 -0.0161123 0 
-0.0161123 -8.77925 0 
0 0 0 
-8.92142 -0.00909137 0 
-0.00909137 -8.7721 0 
0 0 0 
-8.91073 0.018927 0 
0.018927 -8.78279 0 
0 0 0 
-9.17447 0.0376855 0 
0.0376855 -9.09307 0 
0 0 0 
-9.16235 0.0282038 0 
0.0282038 -9.10519 0 
0 0 0 
-9.18511 0.0327149 0 
0.0327149 -9.08243 0 
0 0 0 
-0.825461 -0.0376826 0 
-0.0376826 -0.906853 0 
0 0 0 
-0.837579 -0.0282009 0 
-0.0282009 -0.894736 0 
0 0 0 
-0.814821 -0.0327116 0 
-0.0327116 -0.917494 0 
0 0 0 
-1.10858 -0.0162773 0 
-0.0162773 -1.08045 0 
0 0 0 
-1.09599 0.0352736 0 
0.0352736 -1.09304 0 
0 0 0 
-1.07852 -0.0110864 0 
-0.0110864 -1.11051 0 
0 0 0 
-9.23048 0.033946 0 
0.033946 -9.11302 0 
0 0 0 
-9.21266 0.0412744 0 
0.0412744 -9.13084 0 
0 0 0 
-9.19474 0.0260904 0 
0.0260904 -9.14876 0 
0 0 0 
-0.76946 -0.0339419 0 
-0.0339419 -0.886912 0 
0 0 0 
-0.78728 -0.0412711 0 
-0.0412711 -0.869092 0 
0 0 0 
-0.805196 -0.0260869 0 
-0.0260869 -0.851175 0 
0 0 0 
-9.56295 0.0218318 0 
0.0218318 -10.1005 0 
0 0 0 
-9.63417 -0.0782543 0 
-0.0782543 -10.0293 0 
0 0 0 
-9.56836 -0.0691571 0 
-0.0691571 -10.0951 0 
0 0 0 
-0.437001 -0.0218329 0 
-0.0218329 0.100536 0 
0 0 0 
-0.36579 0.078222 0 
0.078222 0.0293245 0 
0 0 0 
-0.431618 0.0691509 0 
0.0691509 0.0951529 0 
0 0 0 
-8.89151 0.0162601 0 
0.0162601 -8.91967 0 
0 0 0 
-8.9041 -0.0352529 0 
-0.0352529 -8.90708 0 
0 0 0 
-8.92155 0.0110904 0 
0.0110904 -8.88963 0 
0 0 0 
-9.35401 -0.0113225 0 
-0.0113225 -9.25205 0 
0 0 0 
-9.34109 -0.00381805 0 
-0.00381805 -9.26497 0 
0 0 0 
-9.3636 0.00275009 0 
0.00275009 -9.24246 0 
0 0 0 
-0.645939 0.0113207 0 
0.0113207 -0.747895 0 
0 0 0 
-0.658859 0.00381658 0 
0.00381658 -0.734974 0 
0 0 0 
-0.636352 -0.00275097 0 
-0.00275097 -0.757482 0 
0 0 0 
-9.11606 0.00712409 0 
0.00712409 -9.07708 0 
0 0 0 
-9.11284 0.000614362 0 
0.000614362 -9.0803 0 
0 0 0 
-9.11855 7.92303e-05 0 
7.92303e-05 -9.0746 0 
0 0 0 
-0.884011 -0.00712466 0 
-0.00712466 -0.922987 0 
0 0 0 
-0.887227 -0.00061443 0 
-0.00061443 -0.919772 0 
0 0 0 
-0.881522 -7.92383e-05 0 
-7.92383e-05 -0.925476 0 
0 0 0 
-9.15838 0.0318565 0 
0.0318565 -9.08831 0 
0 0 0 
-9.16864 0.0414038 0 
0.0414038 -9.07805 0 
0 0 0 
-9.1483 0.0383976 0 
0.0383976 -9.09839 0 
0 0 0 
-0.841553 -0.0318542 0 
-0.0318542 -0.911611 0 
0 0 0 
-0.831292 -0.0414004 0 
-0.0414004 -0.921872 0 
0 0 0 
-0.851631 -0.0383946 0 
-0.0383946 -0.901532 0 
0 0 0 
-0.892459 -0.0368983 0 
-0.0368983 -0.922966 0 
0 0 0 
-0.900549 -0.0281342 0 
-0.0281342 -0.914876 0 
0 0 0 
-0.887949 -0.0334589 0 
-0.0334589 -0.927476 0 
0 0 0 
-9.10761 0.0368958 0 
0.0368958 -9.07711 0 
0 0 0 
-9.09952 0.0281317 0 
0.0281317 -9.0852 0 
0 0 0 
-9.11212 0.0334562 0 
0.0334562 -9.0726 0 
0 0 0 
-1.07466 -0.0293259 0 
-0.0293259 -0.903018 0 
0 0 0 
-1.08018 -0.0122739 0 
-0.0122739 -0.897494 0 
0 0 0 
-1.05018 -0.0109028 0 
-0.0109028 -0.927498 0 
0 0 0 
-8.9253 0.0292738 0 
0.0292738 -9.09692 0 
0 0 0 
-8.91981 0.0122743 0 
0.0122743 -9.10241 0 
0 0 0 
-8.94973 0.010889 0 
0.010889 -9.07249 0 
0 0 0 
-0.873517 0.0313152 0 
0.0313152 -0.99693 0 
0 0 0 
-0.925084 -0.019502 0 
-0.019502 -0.945363 0 
0 0 0 
-0.950355 0.0366585 0 
0.0366585 -0.920092 0 
0 0 0 
-9.12678 -0.0316429 0 
-0.0316429 -9.00239 0 
0 0 0 
-9.07485 0.0197169 0 
0.0197169 -9.05432 0 
0 0 0 
-9.0493 -0.037122 0 
-0.037122 -9.07987 0 
0 0 0 
-0.814223 0.0788776 0 
0.0788776 -0.819958 0 
0 0 0 
-0.788402 0.0937539 0 
0.0937539 -0.845779 0 
0 0 0 
-0.774732 0.0823036 0 
0.0823036 -0.859449 0 
0 0 0 
-9.18584 -0.0788714 0 
-0.0788714 -9.1801 0 
0 0 0 
-9.21166 -0.0937465 0 
-0.0937465 -9.15429 0 
0 0 0 
-9.22533 -0.0822972 0 
-0.0822972 -9.14062 0 
0 0 0 
-1.12508 -0.00450162 0 
-0.00450162 -1.10521 0 
0 0 0 
-1.10888 0.021705 0 
0.021705 -1.12142 0 
0 0 0 
-1.11731 -0.00967413 0 
-0.00967413 -1.11299 0 
0 0 0 
-8.87417 0.00447786 0 
0.00447786 -8.89466 0 
0 0 0 
-8.89194 -0.0223189 0 
-0.0223189 -8.87688 0 
0 0 0 
-8.88292 0.00949929 0 
0.00949929 -8.88591 0 
0 0 0 
-0.891294 0.0314356 0 
0.0314356 -0.803503 0 
0 0 0 
-0.86519 0.0380437 0 
0.0380437 -0.829608 0 
0 0 0 
-0.869291 -0.00208419 0 
-0.00208419 -0.825507 0 
0 0 0 
-9.10864 -0.0314351 0 
-0.0314351 -9.19646 0 
0 0 0 
-9.13475 -0.0380442 0 
-0.0380442 -9.17034 0 
0 0 0 
-9.13065 0.0020943 0 
0.0020943 -9.17445 0 
0 0 0 
-1.12519 -0.00203986 0 
-0.00203986 -1.22198 0 
0 0 0 
-1.12604 -0.0101849 0 
-0.0101849 -1.22113 0 
0 0 0 
-1.13365 -0.0109074 0 
-0.0109074 -1.21351 0 
0 0 0 
-8.87497 0.00166067 0 
0.00166067 -8.77854 0 
0 0 0 
-8.8747 0.0101124 0 
0.0101124 -8.77881 0 
0 0 0 
-8.86599 0.0108087 0 
0.0108087 -8.78752 0 
0 0 0 
-0.731928 0.123333 0 
0.123333 -0.802241 0 
0 0 0 
-0.711016 0.100194 0 
0.100194 -0.823154 0 
0 0 0 
-0.764308 0.0963251 0 
0.0963251 -0.769862 0 
0 0 0 
-9.26813 -0.123324 0 
-0.123324 -9.19782 0 
0 0 0 
-9.28904 -0.100186 0 
-0.100186 -9.17691 0 
0 0 0 
-9.23575 -0.0963177 0 
-0.0963177 -9.2302 0 
0 0 0 
-9.108 0.00300576 0 
0.00300576 -9.07618 0 
0 0 0 
-9.11213 -0.0100762 0 
-0.0100762 -9.07205 0 
0 0 0 
-9.11779 0.000709904 0 
0.000709904 -9.06639 0 
0 0 0 
-0.891924 -0.00300657 0 
-0.00300657 -0.923736 0 
0 0 0 
-0.887794 0.0100757 0 
0.0100757 -0.927867 0 
0 0 0 
-0.882129 -0.000710564 0 
-0.000710564 -0.933531 0 
0 0 0 
-0.75293 0.00391752 0 
0.00391752 -0.79222 0 
0 0 0 
-0.712096 0.000223005 0 
0.000223005 -0.833054 0 
0 0 0 
-0.730432 -0.0113657 0 
-0.0113657 -0.814718 0 
0 0 0 
-9.24713 -0.00391745 0 
-0.00391745 -9.20784 0 
0 0 0 
-9.28796 -0.000223218 0 
-0.000223218 -9.16701 0 
0 0 0 
-9.26962 0.0113646 0 
0.0113646 -9.18534 0 
0 0 0 
-1.27392 0.0729241 0 
0.0729241 -1.44656 0 
0 0 0 
-1.2213 0.069248 0 
0.069248 -1.49918 0 
0 0 0 
-1.25564 0.115803 0 
0.115803 -1.46484 0 
0 0 0 
-8.72641 -0.0728059 0 
-0.0728059 -8.55371 0 
0 0 0 
-8.77899 -0.0692364 0 
-0.0692364 -8.50113 0 
0 0 0 
-8.74468 -0.115782 0 
-0.115782 -8.53544 0 
0 0 0 
-9.11024 -0.000445685 0 
-0.000445685 -9.06181 0 
0 0 0 
-9.11628 -0.000764161 0 
-0.000764161 -9.05577 0 
0 0 0 
-9.11238 0.00994676 0 
0.00994676 -9.05966 0 
0 0 0 
-0.889684 0.000444807 0 
0.000444807 -0.938112 0 
0 0 0 
-0.883643 0.000763556 0 
0.000763556 -0.944153 0 
0 0 0 
-0.88754 -0.00994815 0 
-0.00994815 -0.940256 0 
0 0 0 
-1.02498 0.0354272 0 
0.0354272 -1.23389 0 
0 0 0 
-1.0921 0.0238836 0 
0.0238836 -1.16676 0 
0 0 0 
-1.04585 0.0515129 0 
0.0515129 -1.21301 0 
0 0 0 
-8.9751 -0.0354283 0 
-0.0354283 -8.76618 0 
0 0 0 
-8.90797 -0.0238846 0 
-0.0238846 -8.83331 0 
0 0 0 
-8.95422 -0.0515129 0 
-0.0515129 -8.78705 0 
0 0 0 
-8.89013 0.0991099 0 
0.0991099 -8.68745 0 
0 0 0 
-8.811 0.0721902 0 
0.0721902 -8.76658 0 
0 0 0 
-8.8284 -0.0235967 0 
-0.0235967 -8.74918 0 
0 0 0 
-1.10993 -0.0991753 0 
-0.0991753 -1.31276 0 
0 0 0 
-1.18923 -0.0722224 0 
-0.0722224 -1.23347 0 
0 0 0 
-1.17177 0.0236366 0 
0.0236366 -1.25093 0 
0 0 0 
-7.20315 -0.122921 0 
-0.122921 -7.63121 0 
0 0 0 
-7.38334 -0.54709 0 
-0.54709 -7.45102 0 
0 0 0 
-7.51872 -0.475435 0 
-0.475435 -7.31563 0 
0 0 0 
-2.84489 0.114174 0 
0.114174 -2.41873 0 
0 0 0 
-2.66893 0.55099 0 
0.55099 -2.59469 0 
0 0 0 
-2.494 0.42894 0 
0.42894 -2.76962 0 
0 0 0 
-2.79801 0.123363 0 
0.123363 -2.3711 0 
0 0 0 
-2.61832 0.54707 0 
0.54707 -2.55078 0 
0 0 0 
-2.48295 0.475241 0 
0.475241 -2.68616 0 
0 0 0 
-7.15513 -0.114177 0 
-0.114177 -7.58131 0 
0 0 0 
-7.3311 -0.551006 0 
-0.551006 -7.40534 0 
0 0 0 
-7.50603 -0.428953 0 
-0.428953 -7.2304 0 
0 0 0 
-2.66088 -0.538472 0 
-0.538472 -2.60689 0 
0 0 0 
-2.84903 -0.116273 0 
-0.116273 -2.41874 0 
0 0 0 
-2.48701 -0.423731 0 
-0.423731 -2.78076 0 
0 0 0 
-7.38246 0.546927 0 
0.546927 -7.44907 0 
0 0 0 
-7.20319 0.124187 0 
0.124187 -7.62833 0 
0 0 0 
-7.51728 0.475472 0 
0.475472 -7.31424 0 
0 0 0 
-2.61816 -0.547088 0 
-0.547088 -2.5515 0 
0 0 0 
-2.79747 -0.124214 0 
-0.124214 -2.37219 0 
0 0 0 
-2.48328 -0.475594 0 
-0.475594 -2.68639 0 
0 0 0 
-7.33902 0.538457 0 
0.538457 -7.393 0 
0 0 0 
-7.15089 0.116282 0 
0.116282 -7.58113 0 
0 0 0 
-7.51289 0.423716 0 
0.423716 -7.21913 0 
0 0 0 
-0.795738 0.0154765 0 
0.0154765 -0.844838 0 
0 0 0 
-0.765104 0.0118394 0 
0.0118394 -0.875472 0 
0 0 0 
-0.779526 0.0016374 0 
0.0016374 -0.86105 0 
0 0 0 
-9.20432 -0.0154754 0 
-0.0154754 -9.15523 0 
0 0 0 
-9.23496 -0.0118385 0 
-0.0118385 -9.12459 0 
0 0 0 
-9.22053 -0.00163738 0 
-0.00163738 -9.13902 0 
0 0 0 
-0.202179 -0.0290518 0 
-0.0290518 0.0570058 0 
0 0 0 
-0.375234 -0.0308551 0 
-0.0308551 0.230061 0 
0 0 0 
-0.202718 0.225872 0 
0.225872 0.0575445 0 
0 0 0 
-9.79782 0.0290743 0 
0.0290743 -10.057 0 
0 0 0 
-9.62476 0.03088 0 
0.03088 -10.2301 0 
0 0 0 
-9.79729 -0.225852 0 
-0.225852 -10.0575 0 
0 0 0 
-1.21435 -0.0690257 0 
-0.0690257 -1.50595 0 
0 0 0 
-1.27503 -0.0799845 0 
-0.0799845 -1.44528 0 
0 0 0 
-1.25772 -0.113531 0 
-0.113531 -1.46258 0 
0 0 0 
-8.84782 -0.0145239 0 
-0.0145239 -8.77669 0 
0 0 0 
-8.85594 -0.0127247 0 
-0.0127247 -8.76856 0 
0 0 0 
-8.84599 -0.0159744 0 
-0.0159744 -8.77851 0 
0 0 0 
-1.15242 0.0154476 0 
0.0154476 -1.22454 0 
0 0 0 
-1.14367 0.0110498 0 
0.0110498 -1.23328 0 
0 0 0 
-1.15689 0.0148527 0 
0.0148527 -1.22007 0 
0 0 0 
-0.71875 0.132669 0 
0.132669 -0.73235 0 
0 0 0 
-0.697649 0.143089 0 
0.143089 -0.753451 0 
0 0 0 
-0.717549 0.135816 0 
0.135816 -0.733551 0 
0 0 0 
-9.28131 -0.132658 0 
-0.132658 -9.2677 0 
0 0 0 
-9.3024 -0.143077 0 
-0.143077 -9.24661 0 
0 0 0 
-9.28251 -0.135806 0 
-0.135806 -9.2665 0 
0 0 0 
-0.468805 -0.123773 0 
-0.123773 -0.517772 0 
0 0 0 
-0.486939 -0.120811 0 
-0.120811 -0.499638 0 
0 0 0 
-0.505652 0.0516465 0 
0.0516465 -0.480925 0 
0 0 0 
-9.53123 0.123768 0 
0.123768 -9.48227 0 
0 0 0 
-9.51309 0.120805 0 
0.120805 -9.5004 0 
0 0 0 
-9.49438 -0.0516436 0 
-0.0516436 -9.51911 0 
0 0 0 
-1.1682 0.000385524 0 
0.000385524 -1.17317 0 
0 0 0 
-1.17152 0.001713 0 
0.001713 -1.16985 0 
0 0 0 
-1.16613 0.000501899 0 
0.000501899 -1.17523 0 
0 0 0 
-0.832873 0.0742719 0 
0.0742719 -0.88328 0 
0 0 0 
-0.82361 0.0672816 0 
0.0672816 -0.892542 0 
0 0 0 
-0.852595 0.0634376 0 
0.0634376 -0.863558 0 
0 0 0 
-9.16719 -0.0742659 0 
-0.0742659 -9.11679 0 
0 0 0 
-9.17645 -0.0672762 0 
-0.0672762 -9.10753 0 
0 0 0 
-9.14747 -0.0634325 0 
-0.0634325 -9.13651 0 
0 0 0 
-1.16993 0.0031087 0 
0.0031087 -1.17011 0 
0 0 0 
-1.16689 0.000329142 0 
0.000329142 -1.17314 0 
0 0 0 
-1.17339 0.00139171 0 
0.00139171 -1.16665 0 
0 0 0 
-8.97535 0.194787 0 
0.194787 -8.71308 0 
0 0 0 
-8.83005 0.0338836 0 
0.0338836 -8.85839 0 
0 0 0 
-9.08557 0.0640593 0 
0.0640593 -8.60287 0 
0 0 0 
-1.02472 -0.194781 0 
-0.194781 -1.28698 0 
0 0 0 
-1.17002 -0.0338826 0 
-0.0338826 -1.14168 0 
0 0 0 
-0.914506 -0.0640573 0 
-0.0640573 -1.3972 0 
0 0 0 
-1.15935 -0.00446839 0 
-0.00446839 -1.19523 0 
0 0 0 
-1.16766 -0.0127446 0 
-0.0127446 -1.18692 0 
0 0 0 
-1.17843 -0.00751309 0 
-0.00751309 -1.17615 0 
0 0 0 
-9.28264 -0.0521393 0 
-0.0521393 -9.1793 0 
0 0 0 
-9.3052 -0.030408 0 
-0.030408 -9.15675 0 
0 0 0 
-9.24756 -0.0277304 0 
-0.0277304 -9.21439 0 
0 0 0 
-0.717414 0.0521432 0 
0.0521432 -0.82076 0 
0 0 0 
-0.694856 0.0304102 0 
0.0304102 -0.843317 0 
0 0 0 
-0.752501 0.0277323 0 
0.0277323 -0.785672 0 
0 0 0 
-1.16388 -0.0023707 0 
-0.0023707 -1.18434 0 
0 0 0 
-1.15744 -0.00220726 0 
-0.00220726 -1.19078 0 
0 0 0 
-1.1549 -7.73478e-05 0 
-7.73478e-05 -1.19332 0 
0 0 0 
-0.641093 0.0733386 0 
0.0733386 -0.834216 0 
0 0 0 
-0.685785 0.030968 0 
0.030968 -0.789524 0 
0 0 0 
-0.71956 0.0728697 0 
0.0728697 -0.755749 0 
0 0 0 
-9.35896 -0.0733332 0 
-0.0733332 -9.16585 0 
0 0 0 
-9.31427 -0.0309659 0 
-0.0309659 -9.21054 0 
0 0 0 
-9.2805 -0.0728642 0 
-0.0728642 -9.24431 0 
0 0 0 
-0.783359 0.113694 0 
0.113694 -0.772941 0 
0 0 0 
-0.741399 0.117077 0 
0.117077 -0.814901 0 
0 0 0 
-0.76692 0.102628 0 
0.102628 -0.789379 0 
0 0 0 
-9.2167 -0.113685 0 
-0.113685 -9.22712 0 
0 0 0 
-9.25866 -0.117068 0 
-0.117068 -9.18516 0 
0 0 0 
-9.23314 -0.10262 0 
-0.10262 -9.21068 0 
0 0 0 
-9.07079 0.0692559 0 
0.0692559 -8.88588 0 
0 0 0 
-9.03011 0.106958 0 
0.106958 -8.92656 0 
0 0 0 
-8.97771 0.0460713 0 
0.0460713 -8.97897 0 
0 0 0 
-0.929284 -0.0692543 0 
-0.0692543 -1.11419 0 
0 0 0 
-0.969964 -0.106955 0 
-0.106955 -1.07351 0 
0 0 0 
-1.02237 -0.0460705 0 
-0.0460705 -1.0211 0 
0 0 0 
-9.03749 -0.117371 0 
-0.117371 -8.92101 0 
0 0 0 
-9.07275 -0.066084 0 
-0.066084 -8.88575 0 
0 0 0 
-8.97628 -0.0397803 0 
-0.0397803 -8.98222 0 
0 0 0 
-8.83171 0.000209484 0 
0.000209484 -8.82693 0 
0 0 0 
-8.82884 0.00232875 0 
0.00232875 -8.8298 0 
0 0 0 
-8.82661 0.00126006 0 
0.00126006 -8.83203 0 
0 0 0 
-1.16906 0.0002033 0 
0.0002033 -1.16611 0 
0 0 0 
-1.16946 0.000215071 0 
0.000215071 -1.16571 0 
0 0 0 
-1.16922 -3.37311e-05 0 
-3.37311e-05 -1.16595 0 
0 0 0 
-8.82991 8.39953e-05 0 
8.39953e-05 -8.83299 0 
0 0 0 
-8.82907 -0.000248931 0 
-0.000248931 -8.83383 0 
0 0 0 
-8.83 0.000189885 0 
0.000189885 -8.8329 0 
0 0 0 
-8.82622 0.00208437 0 
0.00208437 -8.82907 0 
0 0 0 
-8.82955 0.000861685 0 
0.000861685 -8.82573 0 
0 0 0 
-8.83112 0.000980123 0 
0.000980123 -8.82416 0 
0 0 0 
-8.85223 -0.01111 0 
-0.01111 -8.77572 0 
0 0 0 
-8.86018 0.0218619 0 
0.0218619 -8.76777 0 
0 0 0 
-8.82545 -0.000961907 0 
-0.000961907 -8.8025 0 
0 0 0 
-0.403219 -0.0541204 0 
-0.0541204 0.206587 0 
0 0 0 
-0.346888 -0.0109674 0 
-0.0109674 0.150256 0 
0 0 0 
-0.416461 -0.00911025 0 
-0.00911025 0.219829 0 
0 0 0 
-9.59678 0.0541241 0 
0.0541241 -10.2066 0 
0 0 0 
-9.65311 0.0109657 0 
0.0109657 -10.1503 0 
0 0 0 
-9.58353 0.00911113 0 
0.00911113 -10.2198 0 
0 0 0 
-8.83067 0.000613976 0 
0.000613976 -8.83447 0 
0 0 0 
-8.83097 0.00032563 0 
0.00032563 -8.83417 0 
0 0 0 
-8.83127 0.000126428 0 
0.000126428 -8.83387 0 
0 0 0 
-8.83052 0.000609323 0 
0.000609323 -8.83521 0 
0 0 0 
-8.83097 -0.00026374 0 
-0.00026374 -8.83477 0 
0 0 0 
-8.83194 0.00054308 0 
0.00054308 -8.83379 0 
0 0 0 
-0.773092 -0.0115264 0 
-0.0115264 -0.80759 0 
0 0 0 
-0.756119 -0.00156705 0 
-0.00156705 -0.824562 0 
0 0 0 
-0.738497 -0.0121454 0 
-0.0121454 -0.842184 0 
0 0 0 
-9.22697 0.0115253 0 
0.0115253 -9.19247 0 
0 0 0 
-9.24394 0.00156675 0 
0.00156675 -9.1755 0 
0 0 0 
-9.26156 0.0121443 0 
0.0121443 -9.15788 0 
0 0 0 
-0.888214 0.0197736 0 
0.0197736 -0.920456 0 
0 0 0 
-0.882664 -0.00141103 0 
-0.00141103 -0.926006 0 
0 0 0 
-0.890965 0.00458593 0 
0.00458593 -0.917704 0 
0 0 0 
-9.11173 -0.0197959 0 
-0.0197959 -9.07943 0 
0 0 0 
-9.11728 0.00139515 0 
0.00139515 -9.07389 0 
0 0 0 
-9.10898 -0.00460214 0 
-0.00460214 -9.08219 0 
0 0 0 
-0.862513 -0.0529079 0 
-0.0529079 -0.924182 0 
0 0 0 
-0.870491 -0.0590733 0 
-0.0590733 -0.916204 0 
0 0 0 
-0.88491 -0.0467923 0 
-0.0467923 -0.901785 0 
0 0 0 
-9.13742 0.0529129 0 
0.0529129 -9.07574 0 
0 0 0 
-9.12944 0.0590789 0 
0.0590789 -9.08372 0 
0 0 0 
-9.11502 0.0467966 0 
0.0467966 -9.09814 0 
0 0 0 
-0.968401 0.0506831 0 
0.0506831 -0.974813 0 
0 0 0 
-0.945854 0.0719377 0 
0.0719377 -0.99736 0 
0 0 0 
-0.93212 0.0486109 0 
0.0486109 -1.01109 0 
0 0 0 
-9.50634 -0.0548266 0 
-0.0548266 -9.83336 0 
0 0 0 
-9.57074 -0.00740027 0 
-0.00740027 -9.76897 0 
0 0 0 
-9.56641 9.71813e-05 0 
9.71813e-05 -9.7733 0 
0 0 0 
-0.493622 0.0548235 0 
0.0548235 -0.166614 0 
0 0 0 
-0.429231 0.00740097 0 
0.00740097 -0.231005 0 
0 0 0 
-0.433558 -9.98206e-05 0 
-9.98206e-05 -0.226678 0 
0 0 0 
-1.16968 -0.000714732 0 
-0.000714732 -1.16629 0 
0 0 0 
-1.16927 -0.000194179 0 
-0.000194179 -1.16671 0 
0 0 0 
-1.16919 -0.000456371 0 
-0.000456371 -1.16678 0 
0 0 0 
-1.17128 -0.00050387 0 
-0.00050387 -1.16623 0 
0 0 0 
-1.17027 -0.000104397 0 
-0.000104397 -1.16725 0 
0 0 0 
-1.17004 -5.19439e-05 0 
-5.19439e-05 -1.16747 0 
0 0 0 
-8.96117 0.0786847 0 
0.0786847 -8.96115 0 
0 0 0 
-8.93733 0.0796931 0 
0.0796931 -8.98499 0 
0 0 0 
-8.95191 0.100947 0 
0.100947 -8.97041 0 
0 0 0 
-1.16918 -0.000130765 0 
-0.000130765 -1.16526 0 
0 0 0 
-1.16924 -0.000112147 0 
-0.000112147 -1.1652 0 
0 0 0 
-1.1692 -0.000150037 0 
-0.000150037 -1.16524 0 
0 0 0 
-8.83054 4.72399e-05 0 
4.72399e-05 -8.83478 0 
0 0 0 
-8.83056 0.000116 0 
0.000116 -8.83476 0 
0 0 0 
-8.83036 -5.38159e-06 0 
-5.38159e-06 -8.83496 0 
0 0 0 
-1.15576 0.0110311 0 
0.0110311 -1.22065 0 
0 0 0 
-1.1469 -0.00854664 0 
-0.00854664 -1.22951 0 
0 0 0 
-1.18152 -0.00235247 0 
-0.00235247 -1.19489 0 
0 0 0 
-1.16667 -0.00199568 0 
-0.00199568 -1.17201 0 
0 0 0 
-1.16691 -0.00158198 0 
-0.00158198 -1.17178 0 
0 0 0 
-1.16748 -0.00197917 0 
-0.00197917 -1.1712 0 
0 0 0 
-1.15898 0.0564859 0 
0.0564859 -1.14251 0 
0 0 0 
-1.00493 0.19746 0 
0.19746 -1.29656 0 
0 0 0 
-0.922376 0.0680817 0 
0.0680817 -1.37911 0 
0 0 0 
-8.84106 -0.0564152 0 
-0.0564152 -8.85726 0 
0 0 0 
-8.99488 -0.197656 0 
-0.197656 -8.70344 0 
0 0 0 
-9.07754 -0.0680978 0 
-0.0680978 -8.62078 0 
0 0 0 
-8.82984 2.42248e-05 0 
2.42248e-05 -8.83445 0 
0 0 0 
-8.83019 0.000206705 0 
0.000206705 -8.83411 0 
0 0 0 
-8.83022 -7.36718e-05 0 
-7.36718e-05 -8.83407 0 
0 0 0 
-0.313623 0.019201 0 
0.019201 -0.638693 0 
0 0 0 
-0.435267 -0.323032 0 
-0.323032 -0.517048 0 
0 0 0 
-0.604615 0.0548188 0 
0.0548188 -0.347701 0 
0 0 0 
-9.6864 -0.0191961 0 
-0.0191961 -9.36135 0 
0 0 0 
-9.56476 0.323016 0 
0.323016 -9.48299 0 
0 0 0 
-9.39543 -0.0548123 0 
-0.0548123 -9.65233 0 
0 0 0 
-8.83343 -0.000456517 0 
-0.000456517 -8.82867 0 
0 0 0 
-8.83283 -0.00338063 0 
-0.00338063 -8.82926 0 
0 0 0 
-8.83355 -0.00132814 0 
-0.00132814 -8.82854 0 
0 0 0 
-1.1691 -0.000245515 0 
-0.000245515 -1.16542 0 
0 0 0 
-1.1695 0.000432628 0 
0.000432628 -1.16501 0 
0 0 0 
-1.16838 0.000329802 0 
0.000329802 -1.16613 0 
0 0 0 
-1.07523 0.0104764 0 
0.0104764 -1.11833 0 
0 0 0 
-1.07625 0.00520466 0 
0.00520466 -1.11731 0 
0 0 0 
-1.08599 -0.0174562 0 
-0.0174562 -1.10757 0 
0 0 0 
-8.92438 -0.0109811 0 
-0.0109811 -8.88188 0 
0 0 0 
-8.92465 -0.00488528 0 
-0.00488528 -8.88161 0 
0 0 0 
-8.9138 0.0187025 0 
0.0187025 -8.89246 0 
0 0 0 
-0.171952 -0.149035 0 
-0.149035 -0.19617 0 
0 0 0 
-0.551412 -0.19783 0 
-0.19783 0.18329 0 
0 0 0 
-0.250104 0.0554466 0 
0.0554466 -0.118018 0 
0 0 0 
-9.82804 0.149053 0 
0.149053 -9.80381 0 
0 0 0 
-9.44855 0.197852 0 
0.197852 -10.1833 0 
0 0 0 
-9.74988 -0.0554443 0 
-0.0554443 -9.88197 0 
0 0 0 
-1.16937 1.45194e-05 0 
1.45194e-05 -1.16596 0 
0 0 0 
-1.16968 -0.000164901 0 
-0.000164901 -1.16565 0 
0 0 0 
-1.16945 -0.000210685 0 
-0.000210685 -1.16588 0 
0 0 0 
-8.9103 0.0110254 0 
0.0110254 -8.75637 0 
0 0 0 
-8.91492 0.00265392 0 
0.00265392 -8.75176 0 
0 0 0 
-8.91266 0.0123509 0 
0.0123509 -8.75402 0 
0 0 0 
-1.17203 0.000168412 0 
0.000168412 -1.17058 0 
0 0 0 
-1.17057 -0.00128954 0 
-0.00128954 -1.17204 0 
0 0 0 
-1.17241 -0.00045531 0 
-0.00045531 -1.1702 0 
0 0 0 
-7.6033 0.346025 0 
0.346025 -7.07707 0 
0 0 0 
-7.28121 0.341791 0 
0.341791 -7.39916 0 
0 0 0 
-7.80487 0.251221 0 
0.251221 -6.87549 0 
0 0 0 
-7.56474 0.374427 0 
0.374427 -7.03805 0 
0 0 0 
-7.25985 0.3305 0 
0.3305 -7.34294 0 
0 0 0 
-7.72647 0.30843 0 
0.30843 -6.87631 0 
0 0 0 
-2.39832 -0.346518 0 
-0.346518 -2.92442 0 
0 0 0 
-2.71997 -0.341593 0 
-0.341593 -2.60277 0 
0 0 0 
-2.19702 -0.251417 0 
-0.251417 -3.12572 0 
0 0 0 
-2.4353 -0.374417 0 
-0.374417 -2.96196 0 
0 0 0 
-2.74017 -0.33049 0 
-0.33049 -2.65709 0 
0 0 0 
-2.27356 -0.308421 0 
-0.308421 -3.1237 0 
0 0 0 
-7.28067 -0.341393 0 
-0.341393 -7.39753 0 
0 0 0 
-7.60201 -0.347461 0 
-0.347461 -7.07619 0 
0 0 0 
-7.80331 -0.251327 0 
-0.251327 -6.87489 0 
0 0 0 
-2.7466 0.33029 0 
0.33029 -2.65343 0 
0 0 0 
-2.43984 0.379978 0 
0.379978 -2.9602 0 
0 0 0 
-2.27916 0.317267 0 
0.317267 -3.12088 0 
0 0 0 
-7.25331 -0.330282 0 
-0.330282 -7.34645 0 
0 0 0 
-7.56006 -0.379976 0 
-0.379976 -7.03971 0 
0 0 0 
-7.72072 -0.317265 0 
-0.317265 -6.87904 0 
0 0 0 
-2.71995 0.341486 0 
0.341486 -2.60308 0 
0 0 0 
-2.39852 0.347556 0 
0.347556 -2.92451 0 
0 0 0 
-2.19718 0.251409 0 
0.251409 -3.12585 0 
0 0 0 
-9.07731 -0.0420137 0 
-0.0420137 -9.06752 0 
0 0 0 
-9.0846 -0.0444399 0 
-0.0444399 -9.06023 0 
0 0 0 
-9.08813 -0.0442388 0 
-0.0442388 -9.0567 0 
0 0 0 
-0.922583 0.0420386 0 
0.0420386 -0.932403 0 
0 0 0 
-0.915324 0.0444182 0 
0.0444182 -0.939662 0 
0 0 0 
-0.911831 0.0442579 0 
0.0442579 -0.943155 0 
0 0 0 
-8.8301 -0.00025386 0 
-0.00025386 -8.83307 0 
0 0 0 
-8.82967 -0.000959453 0 
-0.000959453 -8.83349 0 
0 0 0 
-8.83019 -0.000677422 0 
-0.000677422 -8.83297 0 
0 0 0 
-8.82864 -0.000993976 0 
-0.000993976 -8.82945 0 
0 0 0 
-8.8278 -0.000325193 0 
-0.000325193 -8.83029 0 
0 0 0 
-8.82874 -0.000162608 0 
-0.000162608 -8.82934 0 
0 0 0 
-1.12459 -0.0190505 0 
-0.0190505 -1.22175 0 
0 0 0 
-1.13389 -0.00182227 0 
-0.00182227 -1.21245 0 
0 0 0 
-1.10107 -0.00375709 0 
-0.00375709 -1.24527 0 
0 0 0 
-1.07647 0.0322357 0 
0.0322357 -1.07877 0 
0 0 0 
-1.09952 -0.0297454 0 
-0.0297454 -1.05572 0 
0 0 0 
-1.11784 -0.0176097 0 
-0.0176097 -1.0374 0 
0 0 0 
-8.92381 -0.0319985 0 
-0.0319985 -8.9215 0 
0 0 0 
-8.90092 0.0295178 0 
0.0295178 -8.94439 0 
0 0 0 
-8.88253 0.0174799 0 
0.0174799 -8.96278 0 
0 0 0 
-9.37283 -0.020873 0 
-0.020873 -9.26269 0 
0 0 0 
-9.36943 0.00028558 0 
0.00028558 -9.26609 0 
0 0 0 
-9.38629 -0.0184403 0 
-0.0184403 -9.24923 0 
0 0 0 
-0.627118 0.0208704 0 
0.0208704 -0.737257 0 
0 0 0 
-0.63052 -0.000286489 0 
-0.000286489 -0.733855 0 
0 0 0 
-0.613665 0.0184379 0 
0.0184379 -0.75071 0 
0 0 0 
-0.512341 -0.0187174 0 
-0.0187174 -0.630652 0 
0 0 0 
-0.480675 -0.0113797 0 
-0.0113797 -0.662318 0 
0 0 0 
-0.547199 -0.0231872 0 
-0.0231872 -0.595794 0 
0 0 0 
-9.4877 0.0187162 0 
0.0187162 -9.3694 0 
0 0 0 
-9.51936 0.0113785 0 
0.0113785 -9.33773 0 
0 0 0 
-9.45284 0.0231852 0 
0.0231852 -9.40425 0 
0 0 0 
-0.878694 0.015537 0 
0.015537 -0.931669 0 
0 0 0 
-0.873489 0.0118187 0 
0.0118187 -0.936875 0 
0 0 0 
-0.874678 0.0194689 0 
0.0194689 -0.935686 0 
0 0 0 
-9.12124 -0.0155579 0 
-0.0155579 -9.06824 0 
0 0 0 
-9.12645 -0.0118505 0 
-0.0118505 -9.06302 0 
0 0 0 
-9.12527 -0.0194864 0 
-0.0194864 -9.0642 0 
0 0 0 
-0.826539 -0.00813715 0 
-0.00813715 -0.863633 0 
0 0 0 
-0.812961 -0.0119282 0 
-0.0119282 -0.877211 0 
0 0 0 
-0.817471 -0.00922728 0 
-0.00922728 -0.872701 0 
0 0 0 
-9.17352 0.00813639 0 
0.00813639 -9.13643 0 
0 0 0 
-9.1871 0.0119272 0 
0.0119272 -9.12286 0 
0 0 0 
-9.18259 0.00922654 0 
0.00922654 -9.12737 0 
0 0 0 
-8.88519 0.2951 0 
0.2951 -8.34974 0 
0 0 0 
-8.53745 0.290375 0 
0.290375 -8.69748 0 
0 0 0 
-8.70723 0.163907 0 
0.163907 -8.5277 0 
0 0 0 
-1.11488 -0.295091 0 
-0.295091 -1.65032 0 
0 0 0 
-1.46261 -0.290366 0 
-0.290366 -1.30258 0 
0 0 0 
-1.29284 -0.163902 0 
-0.163902 -1.47236 0 
0 0 0 
-1.16603 0.00448556 0 
0.00448556 -1.19009 0 
0 0 0 
-1.1704 -0.00131717 0 
-0.00131717 -1.18573 0 
0 0 0 
-1.17491 0.00247097 0 
0.00247097 -1.18122 0 
0 0 0 
-1.15039 0.00554044 0 
0.00554044 -1.18411 0 
0 0 0 
-1.14881 0.010484 0 
0.010484 -1.18569 0 
0 0 0 
-1.14527 0.00630833 0 
0.00630833 -1.18923 0 
0 0 0 
-1.0285 -0.00969982 0 
-0.00969982 -0.924555 0 
0 0 0 
-1.05644 -0.00610058 0 
-0.00610058 -0.896621 0 
0 0 0 
-1.04153 0.0119982 0 
0.0119982 -0.911522 0 
0 0 0 
-8.97135 0.00970871 0 
0.00970871 -9.07542 0 
0 0 0 
-8.94348 0.00611347 0 
0.00611347 -9.10329 0 
0 0 0 
-8.95835 -0.0119473 0 
-0.0119473 -9.08842 0 
0 0 0 
-1.12354 0.0364936 0 
0.0364936 -1.26126 0 
0 0 0 
-1.09059 0.0852933 0 
0.0852933 -1.29422 0 
0 0 0 
-1.07972 0.0542061 0 
0.0542061 -1.30508 0 
0 0 0 
-1.0388 -0.078426 0 
-0.078426 -1.03887 0 
0 0 0 
-1.06258 -0.0798723 0 
-0.0798723 -1.01509 0 
0 0 0 
-1.04842 -0.101138 0 
-0.101138 -1.02925 0 
0 0 0 
-9.14617 -0.0143536 0 
-0.0143536 -9.09402 0 
0 0 0 
-9.15016 -0.0103694 0 
-0.0103694 -9.09003 0 
0 0 0 
-9.1484 0.0011651 0 
0.0011651 -9.09179 0 
0 0 0 
-0.853778 0.0143512 0 
0.0143512 -0.905888 0 
0 0 0 
-0.849784 0.0103665 0 
0.0103665 -0.909882 0 
0 0 0 
-0.851544 -0.00116871 0 
-0.00116871 -0.908123 0 
0 0 0 
-0.821262 0.0288031 0 
0.0288031 -0.851121 0 
0 0 0 
-0.820786 0.00936696 0 
0.00936696 -0.851597 0 
0 0 0 
-0.823631 0.0129155 0 
0.0129155 -0.848753 0 
0 0 0 
-9.17868 -0.0288072 0 
-0.0288072 -9.14881 0 
0 0 0 
-9.17915 -0.00936052 0 
-0.00936052 -9.14833 0 
0 0 0 
-9.1763 -0.0129098 0 
-0.0129098 -9.15118 0 
0 0 0 
-9.13858 -0.0150363 0 
-0.0150363 -9.07316 0 
0 0 0 
-9.13998 -0.00594948 0 
-0.00594948 -9.07177 0 
0 0 0 
-9.14122 -0.00960954 0 
-0.00960954 -9.07052 0 
0 0 0 
-0.861351 0.0150303 0 
0.0150303 -0.926741 0 
0 0 0 
-0.859953 0.00593219 0 
0.00593219 -0.928139 0 
0 0 0 
-0.858724 0.00959277 0 
0.00959277 -0.929367 0 
0 0 0 
-0.962409 0.117352 0 
0.117352 -1.0791 0 
0 0 0 
-0.927309 0.0660539 0 
0.0660539 -1.1142 0 
0 0 0 
-1.02381 0.0397293 0 
0.0397293 -1.0177 0 
0 0 0 
-0.941602 -0.069934 0 
-0.069934 -0.99936 0 
0 0 0 
-0.968877 -0.0493496 0 
-0.0493496 -0.972085 0 
0 0 0 
-0.920283 -0.0390521 0 
-0.0390521 -1.02068 0 
0 0 0 
-9.05848 0.0699333 0 
0.0699333 -9.00071 0 
0 0 0 
-9.0312 0.0493489 0 
0.0493489 -9.02799 0 
0 0 0 
-9.0798 0.0390518 0 
0.0390518 -8.97939 0 
0 0 0 
-9.01428 0.15094 0 
0.15094 -8.7999 0 
0 0 0 
-8.8654 0.145682 0 
0.145682 -8.94878 0 
0 0 0 
-8.94985 0.0843353 0 
0.0843353 -8.86433 0 
0 0 0 
-0.985791 -0.150936 0 
-0.150936 -1.20017 0 
0 0 0 
-1.13467 -0.145678 0 
-0.145678 -1.05129 0 
0 0 0 
-1.05022 -0.0843328 0 
-0.0843328 -1.13574 0 
0 0 0 
-1.117 0.148941 0 
0.148941 -1.08198 0 
0 0 0 
-0.990268 0.152982 0 
0.152982 -1.20872 0 
0 0 0 
-1.05755 0.0970137 0 
0.0970137 -1.14144 0 
0 0 0 
-8.88273 -0.148949 0 
-0.148949 -8.91822 0 
0 0 0 
-9.00967 -0.153025 0 
-0.153025 -8.79128 0 
0 0 0 
-8.94239 -0.0968898 0 
-0.0968898 -8.85856 0 
0 0 0 
-8.87646 -0.0366032 0 
-0.0366032 -8.73888 0 
0 0 0 
-8.90937 -0.0852426 0 
-0.0852426 -8.70598 0 
0 0 0 
-8.92023 -0.0542621 0 
-0.0542621 -8.69511 0 
0 0 0 
-9.10381 -0.0345192 0 
-0.0345192 -9.07367 0 
0 0 0 
-9.10505 -0.0347249 0 
-0.0347249 -9.07243 0 
0 0 0 
-9.09757 -0.0318262 0 
-0.0318262 -9.07992 0 
0 0 0 
-0.89611 0.0345185 0 
0.0345185 -0.926252 0 
0 0 0 
-0.894874 0.0347301 0 
0.0347301 -0.927488 0 
0 0 0 
-0.902353 0.0318325 0 
0.0318325 -0.920009 0 
0 0 0 
-0.728916 0.212243 0 
0.212243 -0.780702 0 
0 0 0 
-0.494542 0.274174 0 
0.274174 -1.01508 0 
0 0 0 
-0.671283 -0.059187 0 
-0.059187 -0.838335 0 
0 0 0 
-9.27114 -0.212225 0 
-0.212225 -9.21935 0 
0 0 0 
-9.50549 -0.274153 0 
-0.274153 -8.985 0 
0 0 0 
-9.32876 0.0591861 0 
0.0591861 -9.16172 0 
0 0 0 
-0.356722 0.0178717 0 
0.0178717 0.223585 0 
0 0 0 
-0.203834 0.0373414 0 
0.0373414 0.070697 0 
0 0 0 
-0.196702 -0.230886 0 
-0.230886 0.0635654 0 
0 0 0 
-9.64328 -0.0178467 0 
-0.0178467 -10.2236 0 
0 0 0 
-9.79616 -0.0373188 0 
-0.0373188 -10.0707 0 
0 0 0 
-9.80329 0.230907 0 
0.230907 -10.0636 0 
0 0 0 
-9.03182 -0.0507371 0 
-0.0507371 -9.02509 0 
0 0 0 
-9.05421 -0.0718673 0 
-0.0718673 -9.0027 0 
0 0 0 
-9.068 -0.0486436 0 
-0.0486436 -8.98891 0 
0 0 0 
-0.796149 0.00732145 0 
0.00732145 -0.871927 0 
0 0 0 
-0.786935 0.00356671 0 
0.00356671 -0.881141 0 
0 0 0 
-0.807081 0.0047859 0 
0.0047859 -0.860994 0 
0 0 0 
-9.20391 -0.00732097 0 
-0.00732097 -9.12814 0 
0 0 0 
-9.21313 -0.00356646 0 
-0.00356646 -9.11893 0 
0 0 0 
-9.19298 -0.00478558 0 
-0.00478558 -9.13907 0 
0 0 0 
-0.467572 0.206676 0 
0.206676 0.134487 0 
0 0 0 
-0.152201 0.142079 0 
0.142079 -0.180884 0 
0 0 0 
-0.247293 -0.0402469 0 
-0.0402469 -0.085791 0 
0 0 0 
-9.53246 -0.206654 0 
-0.206654 -10.1345 0 
0 0 0 
-9.84781 -0.142061 0 
-0.142061 -9.81913 0 
0 0 0 
-9.75272 0.040251 0 
0.040251 -9.91422 0 
0 0 0 
-1.43161 0.294942 0 
0.294942 -1.35443 0 
0 0 0 
-1.16337 0.299643 0 
0.299643 -1.62267 0 
0 0 0 
-1.30852 0.203145 0 
0.203145 -1.47751 0 
0 0 0 
-8.56826 -0.294926 0 
-0.294926 -8.64549 0 
0 0 0 
-8.83648 -0.299639 0 
-0.299639 -8.37727 0 
0 0 0 
-8.69137 -0.203151 0 
-0.203151 -8.52238 0 
0 0 0 
-9.10128 -0.0248286 0 
-0.0248286 -9.05884 0 
0 0 0 
-9.10087 -0.0236401 0 
-0.0236401 -9.05925 0 
0 0 0 
-9.09436 -0.0200209 0 
-0.0200209 -9.06576 0 
0 0 0 
-0.898785 0.0248307 0 
0.0248307 -0.941234 0 
0 0 0 
-0.899201 0.0236421 0 
0.0236421 -0.940819 0 
0 0 0 
-0.90571 0.0200226 0 
0.0200226 -0.93431 0 
0 0 0 
-0.741249 -0.118579 0 
-0.118579 -0.827012 0 
0 0 0 
-0.786186 -0.112622 0 
-0.112622 -0.782075 0 
0 0 0 
-0.772388 -0.0977095 0 
-0.0977095 -0.795873 0 
0 0 0 
-9.25869 0.118589 0 
0.118589 -9.17292 0 
0 0 0 
-9.21375 0.112632 0 
0.112632 -9.21787 0 
0 0 0 
-9.22755 0.0977181 0 
0.0977181 -9.20407 0 
0 0 0 
-0.834026 0.0102245 0 
0.0102245 -0.902802 0 
0 0 0 
-0.834416 -0.000943819 0 
-0.000943819 -0.902413 0 
0 0 0 
-0.833395 0.00117617 0 
0.00117617 -0.903433 0 
0 0 0 
-9.16591 -0.0102263 0 
-0.0102263 -9.09711 0 
0 0 0 
-9.16552 0.000943675 0 
0.000943675 -9.0975 0 
0 0 0 
-9.16654 -0.00117685 0 
-0.00117685 -9.09648 0 
0 0 0 
-8.66435 -0.0637442 0 
-0.0637442 -8.9429 0 
0 0 0 
-8.79987 -0.335421 0 
-0.335421 -8.80737 0 
0 0 0 
-8.94145 -0.0917117 0 
-0.0917117 -8.6658 0 
0 0 0 
-1.33597 0.063675 0 
0.063675 -1.05715 0 
0 0 0 
-1.20023 0.335656 0 
0.335656 -1.19288 0 
0 0 0 
-1.0589 0.0922767 0 
0.0922767 -1.33421 0 
0 0 0 
-9.06188 -0.056744 0 
-0.056744 -9.03938 0 
0 0 0 
-9.07256 -0.047771 0 
-0.047771 -9.0287 0 
0 0 0 
-9.04962 -0.0425044 0 
-0.0425044 -9.05164 0 
0 0 0 
-0.937918 0.0568591 0 
0.0568591 -0.960498 0 
0 0 0 
-0.927221 0.0476729 0 
0.0476729 -0.971195 0 
0 0 0 
-0.950205 0.0424482 0 
0.0424482 -0.948211 0 
0 0 0 
-9.15452 0.0733884 0 
0.0733884 -9.10615 0 
0 0 0 
-9.12843 0.0698458 0 
0.0698458 -9.13224 0 
0 0 0 
-9.13924 0.0631954 0 
0.0631954 -9.12143 0 
0 0 0 
-0.845411 -0.0733808 0 
-0.0733808 -0.893774 0 
0 0 0 
-0.871497 -0.0698387 0 
-0.0698387 -0.867688 0 
0 0 0 
-0.860693 -0.0631889 0 
-0.0631889 -0.878492 0 
0 0 0 
-0.943041 -0.0653608 0 
-0.0653608 -0.990503 0 
0 0 0 
-0.973822 -0.0630677 0 
-0.0630677 -0.959722 0 
0 0 0 
-0.960972 -0.0536832 0 
-0.0536832 -0.972572 0 
0 0 0 
-9.05704 0.0653597 0 
0.0653597 -9.00957 0 
0 0 0 
-9.02625 0.0630662 0 
0.0630662 -9.04035 0 
0 0 0 
-9.0391 0.0536815 0 
0.0536815 -9.0275 0 
0 0 0 
-1.20355 -0.331395 0 
-0.331395 -1.1894 0 
0 0 0 
-1.33403 -0.0677397 0 
-0.0677397 -1.05892 0 
0 0 0 
-1.05543 -0.0908777 0 
-0.0908777 -1.33752 0 
0 0 0 
-9.07664 -0.0424046 0 
-0.0424046 -9.07384 0 
0 0 0 
-9.08719 -0.0445641 0 
-0.0445641 -9.06328 0 
0 0 0 
-9.08004 -0.0405599 0 
-0.0405599 -9.07043 0 
0 0 0 
-9.10314 0.0316594 0 
0.0316594 -9.08084 0 
0 0 0 
-9.09613 0.0294398 0 
0.0294398 -9.08784 0 
0 0 0 
-9.09809 0.0288504 0 
0.0288504 -9.08589 0 
0 0 0 
-0.896934 -0.031662 0 
-0.031662 -0.919235 0 
0 0 0 
-0.903939 -0.0294423 0 
-0.0294423 -0.91223 0 
0 0 0 
-0.901985 -0.0288528 0 
-0.0288528 -0.914184 0 
0 0 0 
-0.923272 0.0423998 0 
0.0423998 -0.926085 0 
0 0 0 
-0.912734 0.0445628 0 
0.0445628 -0.936623 0 
0 0 0 
-0.919876 0.0405623 0 
0.0405623 -0.929481 0 
0 0 0 
-0.983292 0.0265651 0 
0.0265651 -0.958402 0 
0 0 0 
-0.98868 0.0178784 0 
0.0178784 -0.953014 0 
0 0 0 
-0.999566 0.0338309 0 
0.0338309 -0.942128 0 
0 0 0 
-9.01665 -0.0265396 0 
-0.0265396 -9.04149 0 
0 0 0 
-9.01122 -0.0178112 0 
-0.0178112 -9.04691 0 
0 0 0 
-9.00028 -0.0338373 0 
-0.0338373 -9.05785 0 
0 0 0 
-9.02857 -0.0627586 0 
-0.0627586 -9.03979 0 
0 0 0 
-9.05434 -0.0652953 0 
-0.0652953 -9.01402 0 
0 0 0 
-9.04022 -0.0538817 0 
-0.0538817 -9.02815 0 
0 0 0 
-0.971251 0.0627896 0 
0.0627896 -0.960306 0 
0 0 0 
-0.945644 0.0652972 0 
0.0652972 -0.985913 0 
0 0 0 
-0.95974 0.0540789 0 
0.0540789 -0.971817 0 
0 0 0 
-9.03196 0.0892488 0 
0.0892488 -8.9612 0 
0 0 0 
-8.99334 0.0844579 0 
0.0844579 -8.99983 0 
0 0 0 
-9.01134 0.0710173 0 
0.0710173 -8.98183 0 
0 0 0 
-0.968114 -0.0892476 0 
-0.0892476 -1.03887 0 
0 0 0 
-1.00674 -0.0844571 0 
-0.0844571 -1.00025 0 
0 0 0 
-0.988737 -0.071017 0 
-0.071017 -1.01825 0 
0 0 0 
-1.16341 -0.000584223 0 
-0.000584223 -1.16632 0 
0 0 0 
-1.16306 -0.000855229 0 
-0.000855229 -1.16667 0 
0 0 0 
-1.16382 -0.000882446 0 
-0.000882446 -1.16592 0 
0 0 0 
-8.99394 -0.0852678 0 
-0.0852678 -8.99553 0 
0 0 0 
-9.02908 -0.0887991 0 
-0.0887991 -8.96039 0 
0 0 0 
-9.00853 -0.0719573 0 
-0.0719573 -8.98093 0 
0 0 0 
-9.39121 -0.162707 0 
-0.162707 -9.21745 0 
0 0 0 
-9.42543 -0.118608 0 
-0.118608 -9.18324 0 
0 0 0 
-9.28412 -0.0825565 0 
-0.0825565 -9.32455 0 
0 0 0 
-0.608834 0.16272 0 
0.16272 -0.782606 0 
0 0 0 
-0.574615 0.118617 0 
0.118617 -0.816825 0 
0 0 0 
-0.715939 0.082563 0 
0.082563 -0.675501 0 
0 0 0 
-1.17982 0.1308 0 
0.1308 -1.17793 0 
0 0 0 
-1.11574 0.141097 0 
0.141097 -1.24201 0 
0 0 0 
-1.14493 -0.00320357 0 
-0.00320357 -1.21281 0 
0 0 0 
-9.10108 -0.0329083 0 
-0.0329083 -9.08589 0 
0 0 0 
-9.10839 -0.0357358 0 
-0.0357358 -9.07858 0 
0 0 0 
-9.10181 -0.0329307 0 
-0.0329307 -9.08516 0 
0 0 0 
-9.16975 -0.0904945 0 
-0.0904945 -9.17419 0 
0 0 0 
-9.20173 -0.0935589 0 
-0.0935589 -9.14221 0 
0 0 0 
-9.18152 -0.0825286 0 
-0.0825286 -9.16241 0 
0 0 0 
-0.830314 0.0905017 0 
0.0905017 -0.825876 0 
0 0 0 
-0.798334 0.0935664 0 
0.0935664 -0.857855 0 
0 0 0 
-0.81854 0.0825352 0 
0.0825352 -0.83765 0 
0 0 0 
-0.898993 0.0329111 0 
0.0329111 -0.914181 0 
0 0 0 
-0.891681 0.0357388 0 
0.0357388 -0.921494 0 
0 0 0 
-0.898263 0.0329335 0 
0.0329335 -0.914912 0 
0 0 0 
-1.16449 0.00257286 0 
0.00257286 -1.16349 0 
0 0 0 
-1.16223 0.000622579 0 
0.000622579 -1.16575 0 
0 0 0 
-1.16377 0.00244214 0 
0.00244214 -1.16422 0 
0 0 0 
-8.83675 -0.00080535 0 
-0.00080535 -8.83357 0 
0 0 0 
-8.83638 -0.00112284 0 
-0.00112284 -8.83394 0 
0 0 0 
-8.83708 -0.00110249 0 
-0.00110249 -8.83324 0 
0 0 0 
-0.820735 0.024875 0 
0.024875 -0.837464 0 
0 0 0 
-0.813604 0.0190869 0 
0.0190869 -0.844595 0 
0 0 0 
-0.812058 0.0281308 0 
0.0281308 -0.846141 0 
0 0 0 
-9.1792 -0.0248768 0 
-0.0248768 -9.16247 0 
0 0 0 
-9.18633 -0.0190864 0 
-0.0190864 -9.15534 0 
0 0 0 
-9.18788 -0.0281323 0 
-0.0281323 -9.1538 0 
0 0 0 
-8.82071 -0.130779 0 
-0.130779 -8.82225 0 
0 0 0 
-8.88447 -0.140685 0 
-0.140685 -8.75848 0 
0 0 0 
-8.85543 0.0033557 0 
0.0033557 -8.78752 0 
0 0 0 
-8.82674 0.00759136 0 
0.00759136 -8.83793 0 
0 0 0 
-8.82918 0.00877438 0 
0.00877438 -8.83549 0 
0 0 0 
-8.82714 0.00691766 0 
0.00691766 -8.83754 0 
0 0 0 
-1.16382 -0.000916335 0 
-0.000916335 -1.16693 0 
0 0 0 
-1.16476 -0.000726213 0 
-0.000726213 -1.16598 0 
0 0 0 
-1.16445 -0.000461251 0 
-0.000461251 -1.1663 0 
0 0 0 
-1.13381 0.0399188 0 
0.0399188 -1.25188 0 
0 0 0 
-1.09024 0.0451565 0 
0.0451565 -1.29545 0 
0 0 0 
-1.11863 0.00999313 0 
0.00999313 -1.26706 0 
0 0 0 
-1.16383 -0.00017953 0 
-0.00017953 -1.16553 0 
0 0 0 
-1.16111 -0.000763622 0 
-0.000763622 -1.16826 0 
0 0 0 
-1.16205 -0.00185962 0 
-0.00185962 -1.16732 0 
0 0 0 
-0.937646 0.0291047 0 
0.0291047 -0.953085 0 
0 0 0 
-0.927181 0.0339061 0 
0.0339061 -0.96355 0 
0 0 0 
-0.931228 0.0362628 0 
0.0362628 -0.959503 0 
0 0 0 
-9.06226 -0.0291495 0 
-0.0291495 -9.04679 0 
0 0 0 
-9.07268 -0.0339339 0 
-0.0339339 -9.03637 0 
0 0 0 
-9.06862 -0.0363054 0 
-0.0363054 -9.04043 0 
0 0 0 
-1.00605 0.0852461 0 
0.0852461 -1.00467 0 
0 0 0 
-0.971041 0.0887981 0 
0.0887981 -1.03968 0 
0 0 0 
-0.991608 0.0720779 0 
0.0720779 -1.01911 0 
0 0 0 
-0.979434 0.00259764 0 
0.00259764 -0.949757 0 
0 0 0 
-0.986487 -0.0316205 0 
-0.0316205 -0.942704 0 
0 0 0 
-1.0194 -0.0228383 0 
-0.0228383 -0.909789 0 
0 0 0 
-9.02064 -0.00260283 0 
-0.00260283 -9.05032 0 
0 0 0 
-9.01359 0.0316128 0 
0.0316128 -9.05737 0 
0 0 0 
-8.98068 0.0228309 0 
0.0228309 -9.09028 0 
0 0 0 
-9.05431 -0.052531 0 
-0.052531 -9.06156 0 
0 0 0 
-9.06954 -0.0540823 0 
-0.0540823 -9.04632 0 
0 0 0 
-9.06178 -0.0483827 0 
-0.0483827 -9.05408 0 
0 0 0 
-0.945574 0.0525235 0 
0.0525235 -0.938337 0 
0 0 0 
-0.930363 0.0540634 0 
0.0540634 -0.953548 0 
0 0 0 
-0.938111 0.0483789 0 
0.0483789 -0.9458 0 
0 0 0 
-1.16276 0.00341585 0 
0.00341585 -1.16186 0 
0 0 0 
-1.15908 0.00362526 0 
0.00362526 -1.16554 0 
0 0 0 
-1.16111 0.00206143 0 
0.00206143 -1.16351 0 
0 0 0 
-8.83539 -0.0010555 0 
-0.0010555 -8.83425 0 
0 0 0 
-8.83638 -0.00123876 0 
-0.00123876 -8.83326 0 
0 0 0 
-8.83573 -0.000811988 0 
-0.000811988 -8.83392 0 
0 0 0 
-1.16147 0.00106649 0 
0.00106649 -1.16857 0 
0 0 0 
-1.16406 0.000451099 0 
0.000451099 -1.16599 0 
0 0 0 
-1.16223 0.00202898 0 
0.00202898 -1.16781 0 
0 0 0 
-0.903851 0.0165692 0 
0.0165692 -0.921359 0 
0 0 0 
-0.903025 0.0189864 0 
0.0189864 -0.922184 0 
0 0 0 
-0.905714 0.0172073 0 
0.0172073 -0.919496 0 
0 0 0 
-9.09622 -0.0165678 0 
-0.0165678 -9.07871 0 
0 0 0 
-9.09705 -0.0189847 0 
-0.0189847 -9.07789 0 
0 0 0 
-9.09436 -0.0172058 0 
-0.0172058 -9.08058 0 
0 0 0 
-9.11251 -0.0200407 0 
-0.0200407 -9.0877 0 
0 0 0 
-9.11753 -0.0226623 0 
-0.0226623 -9.08268 0 
0 0 0 
-9.11692 -0.0230216 0 
-0.0230216 -9.08328 0 
0 0 0 
-0.887413 0.0200396 0 
0.0200396 -0.912221 0 
0 0 0 
-0.88239 0.0226634 0 
0.0226634 -0.917244 0 
0 0 0 
-0.882995 0.0230208 0 
0.0230208 -0.916639 0 
0 0 0 
-9.37174 -0.0409688 0 
-0.0409688 -9.2441 0 
0 0 0 
-9.41048 -0.0169004 0 
-0.0169004 -9.20536 0 
0 0 0 
-9.32999 -0.0194207 0 
-0.0194207 -9.28585 0 
0 0 0 
-0.628308 0.0409717 0 
0.0409717 -0.755959 0 
0 0 0 
-0.589568 0.0169013 0 
0.0169013 -0.794699 0 
0 0 0 
-0.670063 0.0194219 0 
0.0194219 -0.714204 0 
0 0 0 
-0.828982 0.00753049 0 
0.00753049 -0.888438 0 
0 0 0 
-0.827375 -0.00046495 0 
-0.00046495 -0.890046 0 
0 0 0 
-0.826511 0.00981539 0 
0.00981539 -0.89091 0 
0 0 0 
-9.17096 -0.00752974 0 
-0.00752974 -9.11149 0 
0 0 0 
-9.17256 0.000468821 0 
0.000468821 -9.10988 0 
0 0 0 
-9.17343 -0.00981516 0 
-0.00981516 -9.10902 0 
0 0 0 
-8.83606 -0.000270843 0 
-0.000270843 -8.83208 0 
0 0 0 
-8.83617 -3.88233e-05 0 
-3.88233e-05 -8.83197 0 
0 0 0 
-8.8363 -5.86635e-05 0 
-5.86635e-05 -8.83184 0 
0 0 0 
-8.86587 -0.0397846 0 
-0.0397846 -8.74864 0 
0 0 0 
-8.91006 -0.0451558 0 
-0.0451558 -8.70445 0 
0 0 0 
-8.8812 -0.00966141 0 
-0.00966141 -8.73331 0 
0 0 0 
-9.09323 -0.0298634 0 
-0.0298634 -9.08315 0 
0 0 0 
-9.09942 -0.0322896 0 
-0.0322896 -9.07696 0 
0 0 0 
-9.09423 -0.0298877 0 
-0.0298877 -9.08215 0 
0 0 0 
-0.906691 0.0298649 0 
0.0298649 -0.916772 0 
0 0 0 
-0.9005 0.0322914 0 
0.0322914 -0.922963 0 
0 0 0 
-0.905694 0.0298889 0 
0.0298889 -0.917769 0 
0 0 0 
-9.09598 0.0240854 0 
0.0240854 -9.0578 0 
0 0 0 
-9.09663 0.0250119 0 
0.0250119 -9.05715 0 
0 0 0 
-9.09038 0.0204405 0 
0.0204405 -9.0634 0 
0 0 0 
-0.90394 -0.0240842 0 
-0.0240842 -0.942123 0 
0 0 0 
-0.903294 -0.02501 0 
-0.02501 -0.942769 0 
0 0 0 
-0.90954 -0.0204396 0 
-0.0204396 -0.936523 0 
0 0 0 
-8.84093 0.00345384 0 
0.00345384 -8.83443 0 
0 0 0 
-8.83732 0.0032022 0 
0.0032022 -8.83804 0 
0 0 0 
-8.83891 0.00188351 0 
0.00188351 -8.83645 0 
0 0 0 
-1.1644 0.000541095 0 
0.000541095 -1.1657 0 
0 0 0 
-1.16265 0.00184621 0 
0.00184621 -1.16744 0 
0 0 0 
-1.16189 0.00106301 0 
0.00106301 -1.1682 0 
0 0 0 
-8.83544 0.00275792 0 
0.00275792 -8.83725 0 
0 0 0 
-8.8357 0.00168928 0 
0.00168928 -8.83698 0 
0 0 0 
-8.83823 -0.000187157 0 
-0.000187157 -8.83445 0 
0 0 0 
-8.81612 -0.0575801 0 
-0.0575801 -9.0835 0 
0 0 0 
-8.92223 -0.0212707 0 
-0.0212707 -8.9774 0 
0 0 0 
-8.89249 0.150316 0 
0.150316 -9.00714 0 
0 0 0 
-1.15851 0.00499964 0 
0.00499964 -1.16189 0 
0 0 0 
-1.16182 -0.00713875 0 
-0.00713875 -1.15858 0 
0 0 0 
-1.1677 0.00655989 0 
0.00655989 -1.1527 0 
0 0 0 
-1.11911 -0.139165 0 
-0.139165 -1.2395 0 
0 0 0 
-1.18289 -0.132367 0 
-0.132367 -1.17572 0 
0 0 0 
-1.14457 7.19383e-05 0 
7.19383e-05 -1.21404 0 
0 0 0 
-1.17064 -0.00955034 0 
-0.00955034 -1.16412 0 
0 0 0 
-1.17392 -0.00773259 0 
-0.00773259 -1.16085 0 
0 0 0 
-1.17372 -0.00642906 0 
-0.00642906 -1.16105 0 
0 0 0 
-1.16198 -0.000805775 0 
-0.000805775 -1.16853 0 
0 0 0 
-1.16274 -0.0016031 0 
-0.0016031 -1.16777 0 
0 0 0 
-1.16455 -0.000163394 0 
-0.000163394 -1.16596 0 
0 0 0 
-1.16432 0.000134592 0 
0.000134592 -1.16856 0 
0 0 0 
-1.16472 0.000435155 0 
0.000435155 -1.16816 0 
0 0 0 
-1.16475 -4.87671e-05 0 
-4.87671e-05 -1.16813 0 
0 0 0 
-8.82465 0.00712991 0 
0.00712991 -8.81348 0 
0 0 0 
-8.82277 -0.004218 0 
-0.004218 -8.81536 0 
0 0 0 
-8.82692 -0.000588331 0 
-0.000588331 -8.8112 0 
0 0 0 
-8.82396 0.00623921 0 
0.00623921 -8.80392 0 
0 0 0 
-8.8213 0.00314475 0 
0.00314475 -8.80658 0 
0 0 0 
-8.82027 -0.00369009 0 
-0.00369009 -8.8076 0 
0 0 0 
-1.15309 0.000208827 0 
0.000208827 -1.15919 0 
0 0 0 
-1.15099 0.00171855 0 
0.00171855 -1.1613 0 
0 0 0 
-1.15929 -0.000665362 0 
-0.000665362 -1.15299 0 
0 0 0 
-8.84114 0.00487827 0 
0.00487827 -8.83857 0 
0 0 0 
-8.83185 0.00661566 0 
0.00661566 -8.84787 0 
0 0 0 
-8.83801 -0.0069884 0 
-0.0069884 -8.84171 0 
0 0 0 
-8.83247 -0.00644394 0 
-0.00644394 -8.84754 0 
0 0 0 
-8.84145 -0.0047346 0 
-0.0047346 -8.83857 0 
0 0 0 
-8.83822 0.00689408 0 
0.00689408 -8.84179 0 
0 0 0 
-9.10315 0.0356517 0 
0.0356517 -9.07552 0 
0 0 0 
-9.09586 0.0326611 0 
0.0326611 -9.08282 0 
0 0 0 
-9.09702 0.0314667 0 
0.0314667 -9.08166 0 
0 0 0 
-0.89677 -0.0356488 0 
-0.0356488 -0.924396 0 
0 0 0 
-0.90406 -0.0326586 0 
-0.0326586 -0.917106 0 
0 0 0 
-0.902907 -0.0314646 0 
-0.0314646 -0.918259 0 
0 0 0 
-8.83592 0.0244169 0 
0.0244169 -8.86023 0 
0 0 0 
-8.84055 0.0202603 0 
0.0202603 -8.8556 0 
0 0 0 
-8.83966 0.0213723 0 
0.0213723 -8.85649 0 
0 0 0 
-8.83836 0.00877983 0 
0.00877983 -8.83239 0 
0 0 0 
-8.83317 0.0100348 0 
0.0100348 -8.83759 0 
0 0 0 
-8.83727 0.00525851 0 
0.00525851 -8.83348 0 
0 0 0 
-8.83545 9.33416e-05 0 
9.33416e-05 -8.83188 0 
0 0 0 
-8.83584 -0.000105586 0 
-0.000105586 -8.83149 0 
0 0 0 
-8.83538 -0.000400242 0 
-0.000400242 -8.83196 0 
0 0 0 
-8.83747 -0.00187693 0 
-0.00187693 -8.83261 0 
0 0 0 
-8.83825 -0.00107805 0 
-0.00107805 -8.83183 0 
0 0 0 
-8.83566 -0.000453499 0 
-0.000453499 -8.83442 0 
0 0 0 
-1.16681 -0.000949918 0 
-0.000949918 -1.16684 0 
0 0 0 
-1.16763 -0.00131049 0 
-0.00131049 -1.16602 0 
0 0 0 
-1.16688 -0.000406196 0 
-0.000406196 -1.16676 0 
0 0 0 
-8.84821 0.00190605 0 
0.00190605 -8.83912 0 
0 0 0 
-8.84645 -0.000212426 0 
-0.000212426 -8.84087 0 
0 0 0 
-8.84087 -0.000394827 0 
-0.000394827 -8.84645 0 
0 0 0 
-8.83746 0.00163064 0 
0.00163064 -8.83241 0 
0 0 0 
-8.83571 0.000317629 0 
0.000317629 -8.83416 0 
0 0 0 
-8.83819 0.000869683 0 
0.000869683 -8.83168 0 
0 0 0 
-1.16895 0.00137076 0 
0.00137076 -1.16522 0 
0 0 0 
-1.16745 0.000760884 0 
0.000760884 -1.16672 0 
0 0 0 
-1.16761 0.000251459 0 
0.000251459 -1.16656 0 
0 0 0 
-8.83228 -0.00149578 0 
-0.00149578 -8.83392 0 
0 0 0 
-8.83325 -0.0011057 0 
-0.0011057 -8.83295 0 
0 0 0 
-8.83313 -0.000543017 0 
-0.000543017 -8.83307 0 
0 0 0 
-0.822709 0.0101848 0 
0.0101848 -0.910177 0 
0 0 0 
-0.816808 0.00985859 0 
0.00985859 -0.916078 0 
0 0 0 
-0.82968 0.0103356 0 
0.0103356 -0.903205 0 
0 0 0 
-9.17735 -0.0101841 0 
-0.0101841 -9.08989 0 
0 0 0 
-9.18326 -0.00985779 0 
-0.00985779 -9.08399 0 
0 0 0 
-9.17038 -0.0103348 0 
-0.0103348 -9.09686 0 
0 0 0 
-9.09308 0.00996915 0 
0.00996915 -9.06243 0 
0 0 0 
-9.09121 0.0091998 0 
0.0091998 -9.0643 0 
0 0 0 
-9.0904 0.012048 0 
0.012048 -9.06511 0 
0 0 0 
-0.906845 -0.00996849 0 
-0.00996849 -0.937487 0 
0 0 0 
-0.908714 -0.0091995 0 
-0.0091995 -0.935617 0 
0 0 0 
-0.909526 -0.0120477 0 
-0.0120477 -0.934806 0 
0 0 0 
-9.09301 0.0189499 0 
0.0189499 -9.07577 0 
0 0 0 
-9.09262 0.016445 0 
0.016445 -9.07616 0 
0 0 0 
-9.09064 0.0171272 0 
0.0171272 -9.07815 0 
0 0 0 
-0.906913 -0.0189486 0 
-0.0189486 -0.924149 0 
0 0 0 
-0.907302 -0.0164439 0 
-0.0164439 -0.92376 0 
0 0 0 
-0.909286 -0.0171262 0 
-0.0171262 -0.921776 0 
0 0 0 
-1.16417 -2.29506e-06 0 
-2.29506e-06 -1.16799 0 
0 0 0 
-1.16395 0.000259412 0 
0.000259412 -1.16821 0 
0 0 0 
-1.16409 0.00021571 0 
0.00021571 -1.16807 0 
0 0 0 
-8.82715 -0.00825348 0 
-0.00825348 -8.88781 0 
0 0 0 
-8.86721 0.0286289 0 
0.0286289 -8.84775 0 
0 0 0 
-8.82518 0.00658262 0 
0.00658262 -8.88978 0 
0 0 0 
-8.84087 0.000398462 0 
0.000398462 -8.84695 0 
0 0 0 
-8.84687 4.24975e-05 0 
4.24975e-05 -8.84095 0 
0 0 0 
-8.84885 -0.00189177 0 
-0.00189177 -8.83897 0 
0 0 0 
-0.899836 -0.00605032 0 
-0.00605032 -0.907379 0 
0 0 0 
-0.897736 -0.00476507 0 
-0.00476507 -0.909478 0 
0 0 0 
-0.899734 -0.00588041 0 
-0.00588041 -0.90748 0 
0 0 0 
-9.10023 0.00604975 0 
0.00604975 -9.09269 0 
0 0 0 
-9.10233 0.0047646 0 
0.0047646 -9.09059 0 
0 0 0 
-9.10034 0.00587986 0 
0.00587986 -9.09259 0 
0 0 0 
-8.83635 -0.000364273 0 
-0.000364273 -8.83433 0 
0 0 0 
-8.83818 -0.00206399 0 
-0.00206399 -8.83249 0 
0 0 0 
-8.83908 -0.000974253 0 
-0.000974253 -8.83159 0 
0 0 0 
-8.83339 0.000252329 0 
0.000252329 -8.8344 0 
0 0 0 
-8.83265 0.000854413 0 
0.000854413 -8.83514 0 
0 0 0 
-8.8335 -9.78537e-05 0 
-9.78537e-05 -8.8343 0 
0 0 0 
-9.10195 -0.0159467 0 
-0.0159467 -9.08722 0 
0 0 0 
-9.10376 -0.0183317 0 
-0.0183317 -9.08541 0 
0 0 0 
-9.1007 -0.0165109 0 
-0.0165109 -9.08847 0 
0 0 0 
-0.89797 0.0159467 0 
0.0159467 -0.912702 0 
0 0 0 
-0.896158 0.0183316 0 
0.0183316 -0.914514 0 
0 0 0 
-0.899223 0.0165104 0 
0.0165104 -0.911449 0 
0 0 0 
-1.15807 0.0138998 0 
0.0138998 -1.1287 0 
0 0 0 
-1.12238 0.00969692 0 
0.00969692 -1.16439 0 
0 0 0 
-1.1367 -0.00370714 0 
-0.00370714 -1.15007 0 
0 0 0 
-8.8331 0.0254707 0 
0.0254707 -8.81005 0 
0 0 0 
-8.82655 0.0135975 0 
0.0135975 -8.8166 0 
0 0 0 
-8.83639 0.0106712 0 
0.0106712 -8.80676 0 
0 0 0 
-1.15352 0.000253172 0 
0.000253172 -1.15956 0 
0 0 0 
-1.15936 0.000490571 0 
0.000490571 -1.15372 0 
0 0 0 
-1.15161 -0.00176489 0 
-0.00176489 -1.16146 0 
0 0 0 
-8.84163 -0.0138362 0 
-0.0138362 -8.87164 0 
0 0 0 
-8.87758 -0.00960192 0 
-0.00960192 -8.8357 0 
0 0 0 
-8.8632 0.00359437 0 
0.00359437 -8.85007 0 
0 0 0 
-8.8387 0.000744486 0 
0.000744486 -8.83191 0 
0 0 0 
-8.83793 0.00160683 0 
0.00160683 -8.83268 0 
0 0 0 
-8.83627 0.000232708 0 
0.000232708 -8.83433 0 
0 0 0 
-1.12325 -0.00928783 0 
-0.00928783 -1.16417 0 
0 0 0 
-1.15857 -0.0135051 0 
-0.0135051 -1.12885 0 
0 0 0 
-1.13728 0.00336236 0 
0.00336236 -1.15014 0 
0 0 0 
-9.09091 0.00681138 0 
0.00681138 -9.08076 0 
0 0 0 
-9.09355 0.00471833 0 
0.00471833 -9.07812 0 
0 0 0 
-9.09029 0.00560977 0 
0.00560977 -9.08139 0 
0 0 0 
-0.909011 -0.00681091 0 
-0.00681091 -0.919159 0 
0 0 0 
-0.90637 -0.00471795 0 
-0.00471795 -0.9218 0 
0 0 0 
-0.909636 -0.00560949 0 
-0.00560949 -0.918534 0 
0 0 0 
-0.842026 0.00948609 0 
0.00948609 -0.938275 0 
0 0 0 
-0.83678 0.00641519 0 
0.00641519 -0.943521 0 
0 0 0 
-0.848152 0.00716684 0 
0.00716684 -0.932149 0 
0 0 0 
-9.15804 -0.00948546 0 
-0.00948546 -9.0618 0 
0 0 0 
-9.16328 -0.00641479 0 
-0.00641479 -9.05655 0 
0 0 0 
-9.15191 -0.00716637 0 
-0.00716637 -9.06792 0 
0 0 0 
-0.861057 0.00937676 0 
0.00937676 -0.93803 0 
0 0 0 
-0.855467 0.00831138 0 
0.00831138 -0.943619 0 
0 0 0 
-0.855099 0.0118639 0 
0.0118639 -0.943988 0 
0 0 0 
-9.13887 -0.00938866 0 
-0.00938866 -9.06189 0 
0 0 0 
-9.14447 -0.00833427 0 
-0.00833427 -9.05629 0 
0 0 0 
-9.14484 -0.0118745 0 
-0.0118745 -9.05592 0 
0 0 0 
-1.16366 0.000946631 0 
0.000946631 -1.16657 0 
0 0 0 
-1.16382 0.000895626 0 
0.000895626 -1.16641 0 
0 0 0 
-1.16344 0.000934603 0 
0.000934603 -1.16679 0 
0 0 0 
-8.83663 0.000677521 0 
0.000677521 -8.8336 0 
0 0 0 
-8.83689 0.000607445 0 
0.000607445 -8.83333 0 
0 0 0 
-8.83641 0.000583641 0 
0.000583641 -8.83382 0 
0 0 0 
-8.83581 -0.00284696 0 
-0.00284696 -8.83673 0 
0 0 0 
-8.83838 0.000117295 0 
0.000117295 -8.83416 0 
0 0 0 
-8.83617 -0.00164617 0 
-0.00164617 -8.83636 0 
0 0 0 
-8.82387 -0.00281484 0 
-0.00281484 -8.82592 0 
0 0 0 
-8.82779 -0.00324672 0 
-0.00324672 -8.82201 0 
0 0 0 
-8.82499 -0.00237608 0 
-0.00237608 -8.8248 0 
0 0 0 
-8.83003 0.00329568 0 
0.00329568 -8.82838 0 
0 0 0 
-8.82622 0.00338867 0 
0.00338867 -8.83218 0 
0 0 0 
-8.82821 0.002354 0 
0.002354 -8.8302 0 
0 0 0 
-8.831 -0.000916273 0 
-0.000916273 -8.83434 0 
0 0 0 
-8.83217 -0.000642212 0 
-0.000642212 -8.83317 0 
0 0 0 
-8.83182 -0.000351241 0 
-0.000351241 -8.83352 0 
0 0 0 
-1.18979 0.0585936 0 
0.0585936 -0.906699 0 
0 0 0 
-1.07794 0.0212873 0 
0.0212873 -1.01855 0 
0 0 0 
-1.10144 -0.155889 0 
-0.155889 -0.995059 0 
0 0 0 
-1.16477 0.00109714 0 
0.00109714 -1.16573 0 
0 0 0 
-1.16366 0.00129115 0 
0.00129115 -1.16685 0 
0 0 0 
-1.16439 0.000781142 0 
0.000781142 -1.16612 0 
0 0 0 
-1.15909 -0.00342599 0 
-0.00342599 -1.166 0 
0 0 0 
-1.163 -0.00318212 0 
-0.00318212 -1.1621 0 
0 0 0 
-1.16125 -0.00167801 0 
-0.00167801 -1.16384 0 
0 0 0 
-1.07767 -0.0215083 0 
-0.0215083 -1.01858 0 
0 0 0 
-1.19147 -0.0588377 0 
-0.0588377 -0.904789 0 
0 0 0 
-1.10189 0.157162 0 
0.157162 -0.994364 0 
0 0 0 
-1.17473 0.0216052 0 
0.0216052 -1.20737 0 
0 0 0 
-1.172 0.0297971 0 
0.0297971 -1.21009 0 
0 0 0 
-1.17916 0.0194828 0 
0.0194828 -1.20294 0 
0 0 0 
-1.16785 -0.000979978 0 
-0.000979978 -1.16692 0 
0 0 0 
-1.16898 -0.00127461 0 
-0.00127461 -1.16579 0 
0 0 0 
-1.16816 -0.000687388 0 
-0.000687388 -1.16661 0 
0 0 0 
-1.17597 -0.00630393 0 
-0.00630393 -1.19606 0 
0 0 0 
-1.17844 -0.0029694 0 
-0.0029694 -1.19359 0 
0 0 0 
-1.18009 0.00353882 0 
0.00353882 -1.19194 0 
0 0 0 
-1.17471 -0.00401363 0 
-0.00401363 -1.18095 0 
0 0 0 
-1.17906 -0.00317972 0 
-0.00317972 -1.1766 0 
0 0 0 
-1.1776 -0.00458167 0 
-0.00458167 -1.17807 0 
0 0 0 
-1.17253 0.0025801 0 
0.0025801 -1.16777 0 
0 0 0 
-1.16952 0.00252402 0 
0.00252402 -1.17079 0 
0 0 0 
-1.17097 0.00191614 0 
0.00191614 -1.16933 0 
0 0 0 
-8.83725 -0.00343184 0 
-0.00343184 -8.83824 0 
0 0 0 
-8.84113 -0.0036661 0 
-0.0036661 -8.83436 0 
0 0 0 
-8.83898 -0.00196365 0 
-0.00196365 -8.83651 0 
0 0 0 
-8.83646 0.00101402 0 
0.00101402 -8.83319 0 
0 0 0 
-8.83539 0.000805542 0 
0.000805542 -8.83426 0 
0 0 0 
-8.83574 0.000494766 0 
0.000494766 -8.83391 0 
0 0 0 
-8.87617 0.00908131 0 
0.00908131 -8.83619 0 
0 0 0 
-8.84144 0.0132843 0 
0.0132843 -8.87092 0 
0 0 0 
-8.86245 -0.00327731 0 
-0.00327731 -8.8499 0 
0 0 0 
-8.92263 0.0215081 0 
0.0215081 -8.98099 0 
0 0 0 
-8.80866 0.0587183 0 
0.0587183 -9.09496 0 
0 0 0 
-8.89787 -0.157019 0 
-0.157019 -9.00575 0 
0 0 0 
-8.828 -0.0219861 0 
-0.0219861 -8.79093 0 
0 0 0 
-8.83029 -0.0302384 0 
-0.0302384 -8.78864 0 
0 0 0 
-8.82235 -0.0215241 0 
-0.0215241 -8.79658 0 
0 0 0 
-1.1644 -0.00297045 0 
-0.00297045 -1.16275 0 
0 0 0 
-1.16419 -0.00143814 0 
-0.00143814 -1.16297 0 
0 0 0 
-1.16164 0.000357953 0 
0.000357953 -1.16552 0 
0 0 0 
-9.0062 -0.021365 0 
-0.021365 -9.0977 0 
0 0 0 
-9.01036 -0.00727305 0 
-0.00727305 -9.09354 0 
0 0 0 
-9.01799 -0.0082576 0 
-0.0082576 -9.08591 0 
0 0 0 
-0.993879 0.021377 0 
0.021377 -0.902371 0 
0 0 0 
-0.98971 0.00728167 0 
0.00728167 -0.906541 0 
0 0 0 
-0.982088 0.00826178 0 
0.00826178 -0.914162 0 
0 0 0 
-1.23832 -0.0385977 0 
-0.0385977 -1.77587 0 
0 0 0 
-1.14211 -0.00741689 0 
-0.00741689 -1.87208 0 
0 0 0 
-1.50174 0.118865 0 
0.118865 -1.51246 0 
0 0 0 
-8.7619 0.0386318 0 
0.0386318 -8.22451 0 
0 0 0 
-8.85806 0.00740105 0 
0.00740105 -8.12834 0 
0 0 0 
-8.49857 -0.118799 0 
-0.118799 -8.48784 0 
0 0 0 
-1.16817 -0.00660872 0 
-0.00660872 -1.15217 0 
0 0 0 
-1.16218 0.00666564 0 
0.00666564 -1.15815 0 
0 0 0 
-1.15896 -0.00501982 0 
-0.00501982 -1.16138 0 
0 0 0 
-1.16693 0.0100594 0 
0.0100594 -1.16291 0 
0 0 0 
-1.16329 0.00875751 0 
0.00875751 -1.16655 0 
0 0 0 
-1.16397 0.00560256 0 
0.00560256 -1.16587 0 
0 0 0 
-1.17397 -0.00624612 0 
-0.00624612 -1.10981 0 
0 0 0 
-1.17301 0.00878414 0 
0.00878414 -1.11078 0 
0 0 0 
-1.13235 -0.0290117 0 
-0.0290117 -1.15143 0 
0 0 0 
-9.123 0.0541968 0 
0.0541968 -9.08615 0 
0 0 0 
-9.10745 0.0508984 0 
0.0508984 -9.1017 0 
0 0 0 
-9.11275 0.0473569 0 
0.0473569 -9.0964 0 
0 0 0 
-0.87693 -0.0541916 0 
-0.0541916 -0.913772 0 
0 0 0 
-0.892473 -0.0508936 0 
-0.0508936 -0.898228 0 
0 0 0 
-0.887174 -0.0473527 0 
-0.0473527 -0.903528 0 
0 0 0 
-8.82685 0.00873335 0 
0.00873335 -8.88912 0 
0 0 0 
-8.82557 -0.00701337 0 
-0.00701337 -8.89039 0 
0 0 0 
-8.86826 -0.030063 0 
-0.030063 -8.8477 0 
0 0 0 
-1.17298 -0.00943421 0 
-0.00943421 -1.11063 0 
0 0 0 
-1.17431 0.0069962 0 
0.0069962 -1.1093 0 
0 0 0 
-1.13156 0.0305652 0 
0.0305652 -1.15205 0 
0 0 0 
-8.82637 -0.00801998 0 
-0.00801998 -8.83809 0 
0 0 0 
-8.82724 -0.00634413 0 
-0.00634413 -8.83722 0 
0 0 0 
-8.82857 -0.0082313 0 
-0.0082313 -8.83589 0 
0 0 0 
-1.1742 0.00731518 0 
0.00731518 -1.16174 0 
0 0 0 
-1.17397 0.00669294 0 
0.00669294 -1.16197 0 
0 0 0 
-1.1711 0.00870574 0 
0.00870574 -1.16485 0 
0 0 0 
-0.935682 0.0260133 0 
0.0260133 -0.948351 0 
0 0 0 
-0.941226 0.0321125 0 
0.0321125 -0.942808 0 
0 0 0 
-0.942265 0.0348068 0 
0.0348068 -0.941769 0 
0 0 0 
-9.06424 -0.0260218 0 
-0.0260218 -9.05157 0 
0 0 0 
-9.05866 -0.0321229 0 
-0.0321229 -9.05715 0 
0 0 0 
-9.05765 -0.034836 0 
-0.034836 -9.05817 0 
0 0 0 
-1.12465 -0.0436599 0 
-0.0436599 -1.20368 0 
0 0 0 
-1.16542 -0.047086 0 
-0.047086 -1.16291 0 
0 0 0 
-1.14233 -0.0126597 0 
-0.0126597 -1.186 0 
0 0 0 
-1.15965 -0.0211705 0 
-0.0211705 -1.14318 0 
0 0 0 
-1.16113 -0.0216602 0 
-0.0216602 -1.14171 0 
0 0 0 
-1.16295 -0.0245764 0 
-0.0245764 -1.13988 0 
0 0 0 
-8.91862 -0.064519 0 
-0.064519 -9.10333 0 
0 0 0 
-9.00975 -0.08194 0 
-0.08194 -9.0122 0 
0 0 0 
-8.96978 -0.0233573 0 
-0.0233573 -9.05216 0 
0 0 0 
-1.08148 0.0645328 0 
0.0645328 -0.896744 0 
0 0 0 
-0.990337 0.081956 0 
0.081956 -0.987884 0 
0 0 0 
-1.0303 0.0233646 0 
0.0233646 -0.947917 0 
0 0 0 
-0.840923 -0.000588727 0 
-0.000588727 -0.921004 0 
0 0 0 
-0.836102 -0.0028761 0 
-0.0028761 -0.925824 0 
0 0 0 
-0.833915 0.000269372 0 
0.000269372 -0.928012 0 
0 0 0 
-9.15901 0.000585763 0 
0.000585763 -9.07892 0 
0 0 0 
-9.16384 0.00287131 0 
0.00287131 -9.07409 0 
0 0 0 
-9.16602 -0.000271949 0 
-0.000271949 -9.0719 0 
0 0 0 
-0.856989 0.00515025 0 
0.00515025 -0.951176 0 
0 0 0 
-0.852217 -0.000457029 0 
-0.000457029 -0.955947 0 
0 0 0 
-0.862306 0.00058166 0 
0.00058166 -0.945858 0 
0 0 0 
-9.14308 -0.00514997 0 
-0.00514997 -9.0489 0 
0 0 0 
-9.14785 0.000456706 0 
0.000456706 -9.04413 0 
0 0 0 
-9.13776 -0.000581865 0 
-0.000581865 -9.05422 0 
0 0 0 
-1.14248 0.0101542 0 
0.0101542 -1.87398 0 
0 0 0 
-1.23991 0.038376 0 
0.038376 -1.77655 0 
0 0 0 
-1.50512 -0.121459 0 
-0.121459 -1.51134 0 
0 0 0 
-8.85932 -0.0119529 0 
-0.0119529 -8.12685 0 
0 0 0 
-8.76121 -0.0387221 0 
-0.0387221 -8.22496 0 
0 0 0 
-8.49448 0.123447 0 
0.123447 -8.49169 0 
0 0 0 
-8.84024 -0.0222449 0 
-0.0222449 -8.85727 0 
0 0 0 
-8.84141 -0.0214645 0 
-0.0214645 -8.8561 0 
0 0 0 
-8.83732 -0.0253046 0 
-0.0253046 -8.86019 0 
0 0 0 
-0.894615 0.0248444 0 
0.0248444 -0.944052 0 
0 0 0 
-0.881672 0.0280507 0 
0.0280507 -0.956995 0 
0 0 0 
-0.893653 0.0203925 0 
0.0203925 -0.945014 0 
0 0 0 
-9.10529 -0.0249085 0 
-0.0249085 -9.05587 0 
0 0 0 
-9.11828 -0.0281093 0 
-0.0281093 -9.04288 0 
0 0 0 
-9.10626 -0.0204019 0 
-0.0204019 -9.0549 0 
0 0 0 
-1.16038 0.0220637 0 
0.0220637 -1.14186 0 
0 0 0 
-1.15837 0.0224155 0 
0.0224155 -1.14388 0 
0 0 0 
-1.16215 0.0255727 0 
0.0255727 -1.1401 0 
0 0 0 
-0.802941 0.0155329 0 
0.0155329 -0.904382 0 
0 0 0 
-0.811914 0.0122409 0 
0.0122409 -0.895409 0 
0 0 0 
-0.820821 0.0173449 0 
0.0173449 -0.886502 0 
0 0 0 
-9.19712 -0.0155317 0 
-0.0155317 -9.09569 0 
0 0 0 
-9.18815 -0.0122399 0 
-0.0122399 -9.10466 0 
0 0 0 
-9.17924 -0.0173436 0 
-0.0173436 -9.11357 0 
0 0 0 
-0.826213 0.0144093 0 
0.0144093 -0.929956 0 
0 0 0 
-0.832142 0.0130261 0 
0.0130261 -0.924027 0 
0 0 0 
-0.838074 0.0154733 0 
0.0154733 -0.918095 0 
0 0 0 
-9.17385 -0.0144082 0 
-0.0144082 -9.07012 0 
0 0 0 
-9.16792 -0.0130251 0 
-0.0130251 -9.07604 0 
0 0 0 
-9.16199 -0.0154721 0 
-0.0154721 -9.08198 0 
0 0 0 
-1.18217 0.0489091 0 
0.0489091 -1.17393 0 
0 0 0 
-1.17711 0.0381199 0 
0.0381199 -1.17899 0 
0 0 0 
-1.17792 0.0436964 0 
0.0436964 -1.17818 0 
0 0 0 
-1.18018 -0.0377111 0 
-0.0377111 -1.17823 0 
0 0 0 
-1.18419 -0.0475838 0 
-0.0475838 -1.17422 0 
0 0 0 
-1.17814 -0.0435666 0 
-0.0435666 -1.18027 0 
0 0 0 
-0.921963 -0.0255721 0 
-0.0255721 -0.959406 0 
0 0 0 
-0.929167 -0.0427683 0 
-0.0427683 -0.952202 0 
0 0 0 
-0.932286 -0.0231467 0 
-0.0231467 -0.949084 0 
0 0 0 
-9.07811 0.0255667 0 
0.0255667 -9.04067 0 
0 0 0 
-9.07091 0.042762 0 
0.042762 -9.04787 0 
0 0 0 
-9.06779 0.0231414 0 
0.0231414 -9.05099 0 
0 0 0 
-8.71671 0.00887161 0 
0.00887161 -9.07577 0 
0 0 0 
-8.79591 -0.105274 0 
-0.105274 -8.99657 0 
0 0 0 
-8.87852 -0.00795865 0 
-0.00795865 -8.91396 0 
0 0 0 
-1.28345 -0.0089126 0 
-0.0089126 -0.924295 0 
0 0 0 
-1.20424 0.105262 0 
0.105262 -1.0035 0 
0 0 0 
-1.12159 0.00797236 0 
0.00797236 -1.08616 0 
0 0 0 
-8.99985 0.00451231 0 
0.00451231 -9.09117 0 
0 0 0 
-8.99913 0.0169151 0 
0.0169151 -9.09189 0 
0 0 0 
-9.00891 0.00694256 0 
0.00694256 -9.0821 0 
0 0 0 
-1.00016 -0.00451869 0 
-0.00451869 -0.908729 0 
0 0 0 
-1.00085 -0.0169348 0 
-0.0169348 -0.908037 0 
0 0 0 
-0.991053 -0.00696245 0 
-0.00696245 -0.917834 0 
0 0 0 
-8.81825 -0.0468716 0 
-0.0468716 -8.82471 0 
0 0 0 
-8.82188 -0.0393303 0 
-0.0393303 -8.82108 0 
0 0 0 
-8.82397 -0.0448521 0 
-0.0448521 -8.81899 0 
0 0 0 
-0.879885 -0.0224711 0 
-0.0224711 -0.913577 0 
0 0 0 
-0.880103 -0.0240087 0 
-0.0240087 -0.913358 0 
0 0 0 
-0.885211 -0.0191593 0 
-0.0191593 -0.90825 0 
0 0 0 
-9.12018 0.0224692 0 
0.0224692 -9.08649 0 
0 0 0 
-9.11997 0.0240067 0 
0.0240067 -9.08671 0 
0 0 0 
-9.11486 0.0191576 0 
0.0191576 -9.09182 0 
0 0 0 
-0.972972 0.00238291 0 
0.00238291 -0.95118 0 
0 0 0 
-0.99756 0.0100535 0 
0.0100535 -0.926592 0 
0 0 0 
-0.985694 0.0281967 0 
0.0281967 -0.938458 0 
0 0 0 
-9.02709 -0.00222394 0 
-0.00222394 -9.04859 0 
0 0 0 
-9.00226 -0.00992665 0 
-0.00992665 -9.07342 0 
0 0 0 
-9.01428 -0.028249 0 
-0.028249 -9.0614 0 
0 0 0 
-1.01372 -0.0747984 0 
-0.0747984 -0.980041 0 
0 0 0 
-1.09271 -0.0594281 0 
-0.0594281 -0.901052 0 
0 0 0 
-1.03383 -0.0339921 0 
-0.0339921 -0.959936 0 
0 0 0 
-8.98623 0.0746448 0 
0.0746448 -9.02011 0 
0 0 0 
-8.9075 0.0594152 0 
0.0594152 -9.09885 0 
0 0 0 
-8.96628 0.0340104 0 
0.0340104 -9.04007 0 
0 0 0 
-9.13047 0.000458924 0 
0.000458924 -9.05018 0 
0 0 0 
-9.13592 0.0096738 0 
0.0096738 -9.04473 0 
0 0 0 
-9.12424 0.00737911 0 
0.00737911 -9.05641 0 
0 0 0 
-0.869597 -0.000459065 0 
-0.000459065 -0.949899 0 
0 0 0 
-0.86415 -0.00967484 0 
-0.00967484 -0.955346 0 
0 0 0 
-0.875832 -0.00737992 0 
-0.00737992 -0.943663 0 
0 0 0 
-9.10794 0.0417074 0 
0.0417074 -9.06452 0 
0 0 0 
-9.09797 0.0336734 0 
0.0336734 -9.07448 0 
0 0 0 
-9.11094 0.0383794 0 
0.0383794 -9.06152 0 
0 0 0 
-0.891986 -0.0417037 0 
-0.0417037 -0.935404 0 
0 0 0 
-0.901951 -0.0336712 0 
-0.0336712 -0.925438 0 
0 0 0 
-0.88899 -0.0383766 0 
-0.0383766 -0.938399 0 
0 0 0 
-0.774297 0.00760464 0 
0.00760464 -0.817075 0 
0 0 0 
-0.757004 0.00998979 0 
0.00998979 -0.834368 0 
0 0 0 
-0.748623 0.0057663 0 
0.0057663 -0.842749 0 
0 0 0 
-9.22564 -0.007606 0 
-0.007606 -9.18286 0 
0 0 0 
-9.24294 -0.00999098 0 
-0.00999098 -9.16557 0 
0 0 0 
-9.25132 -0.00576721 0 
-0.00576721 -9.15719 0 
0 0 0 
-1.02621 -0.0234687 0 
-0.0234687 -0.942475 0 
0 0 0 
-1.04545 0.0111653 0 
0.0111653 -0.923231 0 
0 0 0 
-1.00622 0.00268488 0 
0.00268488 -0.962461 0 
0 0 0 
-8.97356 0.0235031 0 
0.0235031 -9.05744 0 
0 0 0 
-8.95442 -0.0110532 0 
-0.0110532 -9.07659 0 
0 0 0 
-8.99349 -0.0026227 0 
-0.0026227 -9.03751 0 
0 0 0 
-1.12613 -0.0256117 0 
-0.0256117 -1.11097 0 
0 0 0 
-1.13878 0.0137468 0 
0.0137468 -1.09832 0 
0 0 0 
-1.1306 0.00357524 0 
0.00357524 -1.1065 0 
0 0 0 
-1.00707 -0.0171561 0 
-0.0171561 -0.929081 0 
0 0 0 
-0.977874 -0.0223668 0 
-0.0223668 -0.958278 0 
0 0 0 
-1.00232 -0.0547666 0 
-0.0547666 -0.933829 0 
0 0 0 
-8.99301 0.0171497 0 
0.0171497 -9.07099 0 
0 0 0 
-9.0222 0.02236 0 
0.02236 -9.0418 0 
0 0 0 
-8.99776 0.0547564 0 
0.0547564 -9.06625 0 
0 0 0 
-0.842903 0.00905683 0 
0.00905683 -0.946043 0 
0 0 0 
-0.847614 0.00661016 0 
0.00661016 -0.941332 0 
0 0 0 
-0.852572 0.0104054 0 
0.0104054 -0.936374 0 
0 0 0 
-9.15716 -0.00905622 0 
-0.00905622 -9.05403 0 
0 0 0 
-9.15245 -0.00660973 0 
-0.00660973 -9.05874 0 
0 0 0 
-9.14749 -0.0104046 0 
-0.0104046 -9.0637 0 
0 0 0 
-0.885497 -0.0161541 0 
-0.0161541 -0.955277 0 
0 0 0 
-0.87917 -0.0194202 0 
-0.0194202 -0.961604 0 
0 0 0 
-0.878382 -0.0224569 0 
-0.0224569 -0.962392 0 
0 0 0 
-9.11457 0.0161518 0 
0.0161518 -9.0448 0 
0 0 0 
-9.1209 0.0194176 0 
0.0194176 -9.03847 0 
0 0 0 
-9.12169 0.0224534 0 
0.0224534 -9.03768 0 
0 0 0 
-1.13109 -0.00255748 0 
-0.00255748 -0.840004 0 
0 0 0 
-1.06628 0.0598142 0 
0.0598142 -0.904815 0 
0 0 0 
-1.04482 -0.00639671 0 
-0.00639671 -0.926273 0 
0 0 0 
-8.86876 0.00270224 0 
0.00270224 -9.16008 0 
0 0 0 
-8.93369 -0.0598032 0 
-0.0598032 -9.09516 0 
0 0 0 
-8.95512 0.0064248 0 
0.0064248 -9.07372 0 
0 0 0 
-0.848829 0.0017818 0 
0.0017818 -0.933757 0 
0 0 0 
-0.841204 0.00233937 0 
0.00233937 -0.941382 0 
0 0 0 
-0.846479 0.00291248 0 
0.00291248 -0.936107 0 
0 0 0 
-9.1511 -0.00179221 0 
-0.00179221 -9.06616 0 
0 0 0 
-9.15873 -0.00234905 0 
-0.00234905 -9.05853 0 
0 0 0 
-9.15345 -0.00291641 0 
-0.00291641 -9.06381 0 
0 0 0 
-9.43903 -0.0443167 0 
-0.0443167 -9.23428 0 
0 0 0 
-9.40802 -0.0197604 0 
-0.0197604 -9.26529 0 
0 0 0 
-9.36496 -0.0432222 0 
-0.0432222 -9.30834 0 
0 0 0 
-0.561012 0.0443199 0 
0.0443199 -0.765782 0 
0 0 0 
-0.592028 0.0197616 0 
0.0197616 -0.734766 0 
0 0 0 
-0.635084 0.0432255 0 
0.0432255 -0.69171 0 
0 0 0 
-0.946436 0.0364393 0 
0.0364393 -0.940156 0 
0 0 0 
-0.938938 0.0340921 0 
0.0340921 -0.947654 0 
0 0 0 
-0.935784 0.0436697 0 
0.0436697 -0.950808 0 
0 0 0 
-9.05339 -0.0365856 0 
-0.0365856 -9.0598 0 
0 0 0 
-9.06096 -0.0340597 0 
-0.0340597 -9.05223 0 
0 0 0 
-9.06392 -0.0436773 0 
-0.0436773 -9.04927 0 
0 0 0 
-8.91211 0.0508736 0 
0.0508736 -8.87002 0 
0 0 0 
-8.94305 0.0271723 0 
0.0271723 -8.83909 0 
0 0 0 
-8.97169 0.0601209 0 
0.0601209 -8.81044 0 
0 0 0 
-0.946189 -0.0143326 0 
-0.0143326 -0.963537 0 
0 0 0 
-0.969991 -0.0442825 0 
-0.0442825 -0.939735 0 
0 0 0 
-0.967008 -0.00906265 0 
-0.00906265 -0.942718 0 
0 0 0 
-9.05389 0.0143272 0 
0.0143272 -9.03654 0 
0 0 0 
-9.03009 0.0442746 0 
0.0442746 -9.06034 0 
0 0 0 
-9.03307 0.0090576 0 
0.0090576 -9.05736 0 
0 0 0 
-8.78546 0.311417 0 
0.311417 -8.8362 0 
0 0 0 
-8.67066 0.0461806 0 
0.0461806 -8.95099 0 
0 0 0 
-8.94689 0.104006 0 
0.104006 -8.67477 0 
0 0 0 
-8.874 0.025585 0 
0.025585 -8.88917 0 
0 0 0 
-8.86136 -0.0137628 0 
-0.0137628 -8.90181 0 
0 0 0 
-8.86953 -0.00358688 0 
-0.00358688 -8.89364 0 
0 0 0 
-9.14511 -0.00422347 0 
-0.00422347 -9.04873 0 
0 0 0 
-9.1394 0.00314568 0 
0.00314568 -9.05444 0 
0 0 0 
-9.13406 -0.00425676 0 
-0.00425676 -9.05978 0 
0 0 0 
-0.854954 0.00422368 0 
0.00422368 -0.951345 0 
0 0 0 
-0.860666 -0.00314614 0 
-0.00314614 -0.945634 0 
0 0 0 
-0.866006 0.00425697 0 
0.00425697 -0.940294 0 
0 0 0 
-0.911266 0.0322202 0 
0.0322202 -0.772663 0 
0 0 0 
-0.908584 0.0347213 0 
0.0347213 -0.775345 0 
0 0 0 
-0.906421 0.0332443 0 
0.0332443 -0.777508 0 
0 0 0 
-9.0887 -0.0322344 0 
-0.0322344 -9.22728 0 
0 0 0 
-9.09138 -0.0347101 0 
-0.0347101 -9.22461 0 
0 0 0 
-9.09353 -0.033252 0 
-0.033252 -9.22245 0 
0 0 0 
-9.01613 -0.0329176 0 
-0.0329176 -9.08968 0 
0 0 0 
-8.95323 -0.00820785 0 
-0.00820785 -9.15259 0 
0 0 0 
-8.95447 -0.0235532 0 
-0.0235532 -9.15134 0 
0 0 0 
-0.983946 0.0329219 0 
0.0329219 -0.910386 0 
0 0 0 
-1.04685 0.00821496 0 
0.00821496 -0.847486 0 
0 0 0 
-1.0456 0.0235542 0 
0.0235542 -0.84873 0 
0 0 0 
-0.908181 0.0339207 0 
0.0339207 -0.740995 0 
0 0 0 
-0.901858 0.0565522 0 
0.0565522 -0.747318 0 
0 0 0 
-0.898272 0.0397345 0 
0.0397345 -0.750905 0 
0 0 0 
-9.09176 -0.0339255 0 
-0.0339255 -9.25895 0 
0 0 0 
-9.09808 -0.0565541 0 
-0.0565541 -9.25262 0 
0 0 0 
-9.10167 -0.039738 0 
-0.039738 -9.24904 0 
0 0 0 
-0.873285 0.0127674 0 
0.0127674 -0.949147 0 
0 0 0 
-0.862757 0.011156 0 
0.011156 -0.959675 0 
0 0 0 
-0.872472 0.00264424 0 
0.00264424 -0.94996 0 
0 0 0 
-9.12664 -0.0127731 0 
-0.0127731 -9.05078 0 
0 0 0 
-9.13717 -0.0111615 0 
-0.0111615 -9.04025 0 
0 0 0 
-9.12745 -0.00264957 0 
-0.00264957 -9.04996 0 
0 0 0 
-0.894239 -0.0253643 0 
-0.0253643 -0.723011 0 
0 0 0 
-0.942477 0.0378442 0 
0.0378442 -0.674773 0 
0 0 0 
-0.807747 0.0308145 0 
0.0308145 -0.809503 0 
0 0 0 
-9.10582 0.0253648 0 
0.0253648 -9.27704 0 
0 0 0 
-9.05759 -0.0378422 0 
-0.0378422 -9.32528 0 
0 0 0 
-9.19231 -0.030812 0 
-0.030812 -9.19056 0 
0 0 0 
-1.08939 0.00555904 0 
0.00555904 -1.23996 0 
0 0 0 
-1.08217 0.00306135 0 
0.00306135 -1.24718 0 
0 0 0 
-1.07973 0.00503125 0 
0.00503125 -1.24962 0 
0 0 0 
-9.11068 -0.0415958 0 
-0.0415958 -9.32248 0 
0 0 0 
-9.12048 -0.0754164 0 
-0.0754164 -9.31269 0 
0 0 0 
-9.12693 -0.0505152 0 
-0.0505152 -9.30623 0 
0 0 0 
-0.889256 0.0415921 0 
0.0415921 -0.677463 0 
0 0 0 
-0.87946 0.0754113 0 
0.0754113 -0.687258 0 
0 0 0 
-0.873007 0.0505113 0 
0.0505113 -0.693711 0 
0 0 0 
-0.871144 0.0191582 0 
0.0191582 -0.96308 0 
0 0 0 
-0.878241 0.0142436 0 
0.0142436 -0.955983 0 
0 0 0 
-0.879643 0.0176992 0 
0.0176992 -0.954581 0 
0 0 0 
-9.12878 -0.0191734 0 
-0.0191734 -9.03685 0 
0 0 0 
-9.12168 -0.0142532 0 
-0.0142532 -9.04395 0 
0 0 0 
-9.12027 -0.017715 0 
-0.017715 -9.04535 0 
0 0 0 
-8.96004 -0.0467666 0 
-0.0467666 -9.09609 0 
0 0 0 
-8.9524 -0.0471861 0 
-0.0471861 -9.10373 0 
0 0 0 
-8.95744 -0.0440885 0 
-0.0440885 -9.0987 0 
0 0 0 
-1.04004 0.0467695 0 
0.0467695 -0.903977 0 
0 0 0 
-1.04767 0.0471867 0 
0.0471867 -0.896343 0 
0 0 0 
-1.04264 0.0440877 0 
0.0440877 -0.901372 0 
0 0 0 
-1.16686 -0.134682 0 
-0.134682 -1.01953 0 
0 0 0 
-1.26787 0.00425431 0 
0.00425431 -0.918523 0 
0 0 0 
-1.12859 -0.00077292 0 
-0.00077292 -1.0578 0 
0 0 0 
-8.83359 0.134738 0 
0.134738 -8.98114 0 
0 0 0 
-8.73234 -0.00455079 0 
-0.00455079 -9.08239 0 
0 0 0 
-8.87221 0.000300191 0 
0.000300191 -8.94252 0 
0 0 0 
-0.904577 -0.0330887 0 
-0.0330887 -0.772519 0 
0 0 0 
-0.904879 -0.0353954 0 
-0.0353954 -0.772216 0 
0 0 0 
-0.906332 -0.0357914 0 
-0.0357914 -0.770764 0 
0 0 0 
-9.09549 0.0330865 0 
0.0330865 -9.22754 0 
0 0 0 
-9.09519 0.0353923 0 
0.0353923 -9.22784 0 
0 0 0 
-9.09374 0.0357886 0 
0.0357886 -9.2293 0 
0 0 0 
-0.837414 -0.00973348 0 
-0.00973348 -0.9155 0 
0 0 0 
-0.824566 -0.0117667 0 
-0.0117667 -0.928348 0 
0 0 0 
-0.831308 -0.012162 0 
-0.012162 -0.921606 0 
0 0 0 
-9.16252 0.00973196 0 
0.00973196 -9.08442 0 
0 0 0 
-9.17537 0.0117654 0 
0.0117654 -9.07157 0 
0 0 0 
-9.16863 0.0121618 0 
0.0121618 -9.07831 0 
0 0 0 
-9.10219 0.0552172 0 
0.0552172 -9.25722 0 
0 0 0 
-9.09437 0.0308061 0 
0.0308061 -9.26504 0 
0 0 0 
-9.10618 0.0396468 0 
0.0396468 -9.25323 0 
0 0 0 
-0.897879 -0.0552214 0 
-0.0552214 -0.742836 0 
0 0 0 
-0.905696 -0.0308085 0 
-0.0308085 -0.735019 0 
0 0 0 
-0.893889 -0.0396499 0 
-0.0396499 -0.746826 0 
0 0 0 
-8.9108 -0.00547912 0 
-0.00547912 -8.76002 0 
0 0 0 
-8.91792 -0.00281753 0 
-0.00281753 -8.75289 0 
0 0 0 
-8.92028 -0.00503053 0 
-0.00503053 -8.75053 0 
0 0 0 
-0.869569 0.0134888 0 
0.0134888 -0.947558 0 
0 0 0 
-0.862424 0.0155259 0 
0.0155259 -0.954704 0 
0 0 0 
-0.868859 0.0137124 0 
0.0137124 -0.948268 0 
0 0 0 
-9.13035 -0.0135129 0 
-0.0135129 -9.05237 0 
0 0 0 
-9.13751 -0.0155483 0 
-0.0155483 -9.04521 0 
0 0 0 
-9.13107 -0.0137246 0 
-0.0137246 -9.05165 0 
0 0 0 
-9.16215 -0.0257748 0 
-0.0257748 -9.06659 0 
0 0 0 
-9.14636 -0.0250147 0 
-0.0250147 -9.08239 0 
0 0 0 
-9.15679 -0.0285785 0 
-0.0285785 -9.07196 0 
0 0 0 
-0.837911 0.0257769 0 
0.0257769 -0.933478 0 
0 0 0 
-0.853704 0.0250167 0 
0.0250167 -0.917685 0 
0 0 0 
-0.843274 0.0285808 0 
0.0285808 -0.928115 0 
0 0 0 
-1.08827 -0.0510036 0 
-0.0510036 -1.1294 0 
0 0 0 
-1.05703 -0.0270878 0 
-0.0270878 -1.16064 0 
0 0 0 
-1.02812 -0.0604735 0 
-0.0604735 -1.18956 0 
0 0 0 
-0.923481 -0.0360221 0 
-0.0360221 -0.95916 0 
0 0 0 
-0.937671 -0.0326164 0 
-0.0326164 -0.94497 0 
0 0 0 
-0.928718 -0.0136178 0 
-0.0136178 -0.953923 0 
0 0 0 
-9.07659 0.0360158 0 
0.0360158 -9.04091 0 
0 0 0 
-9.0624 0.0326103 0 
0.0326103 -9.0551 0 
0 0 0 
-9.07135 0.0136134 0 
0.0136134 -9.04615 0 
0 0 0 
-9.13343 0.093282 0 
0.093282 -9.31143 0 
0 0 0 
-9.11414 0.0348613 0 
0.0348613 -9.33072 0 
0 0 0 
-9.14089 0.0506142 0 
0.0506142 -9.30397 0 
0 0 0 
-0.866636 -0.093289 0 
-0.093289 -0.688618 0 
0 0 0 
-0.885923 -0.0348641 0 
-0.0348641 -0.669331 0 
0 0 0 
-0.859171 -0.0506181 0 
-0.0506181 -0.696083 0 
0 0 0 
-0.967711 0.00375231 0 
0.00375231 -0.961461 0 
0 0 0 
-0.979499 0.0237286 0 
0.0237286 -0.949672 0 
0 0 0 
-0.957256 0.0165349 0 
0.0165349 -0.971916 0 
0 0 0 
-9.03235 -0.00381249 0 
-0.00381249 -9.03854 0 
0 0 0 
-9.02056 -0.0237468 0 
-0.0237468 -9.05033 0 
0 0 0 
-9.04283 -0.016568 0 
-0.016568 -9.02807 0 
0 0 0 
-9.07607 0.0311456 0 
0.0311456 -9.04207 0 
0 0 0 
-9.07397 0.0197365 0 
0.0197365 -9.04417 0 
0 0 0 
-9.07747 0.0193794 0 
0.0193794 -9.04067 0 
0 0 0 
-0.924 -0.0311516 0 
-0.0311516 -0.958006 0 
0 0 0 
-0.926106 -0.0197398 0 
-0.0197398 -0.9559 0 
0 0 0 
-0.9226 -0.0193827 0 
-0.0193827 -0.959407 0 
0 0 0 
-9.1412 -0.0463838 0 
-0.0463838 -9.42501 0 
0 0 0 
-9.16209 -0.111451 0 
-0.111451 -9.40412 0 
0 0 0 
-9.17108 -0.0675548 0 
-0.0675548 -9.39513 0 
0 0 0 
-0.858736 0.04638 0 
0.04638 -0.574947 0 
0 0 0 
-0.837846 0.111443 0 
0.111443 -0.595837 0 
0 0 0 
-0.82886 0.0675496 0 
0.0675496 -0.604823 0 
0 0 0 
-0.883975 -0.0141314 0 
-0.0141314 -0.909322 0 
0 0 0 
-0.88837 -0.00679434 0 
-0.00679434 -0.904927 0 
0 0 0 
-0.88392 -0.0101792 0 
-0.0101792 -0.909377 0 
0 0 0 
-9.11609 0.0141302 0 
0.0141302 -9.09075 0 
0 0 0 
-9.1117 0.00679372 0 
0.00679372 -9.09514 0 
0 0 0 
-9.11615 0.0101783 0 
0.0101783 -9.09069 0 
0 0 0 
-8.80231 0.0737901 0 
0.0737901 -8.48319 0 
0 0 0 
-8.72889 0.0867171 0 
0.0867171 -8.55662 0 
0 0 0 
-8.74173 0.10611 0 
0.10611 -8.54377 0 
0 0 0 
-0.874653 0.021174 0 
0.021174 -0.959058 0 
0 0 0 
-0.872252 0.0140148 0 
0.0140148 -0.961459 0 
0 0 0 
-0.881037 0.0134347 0 
0.0134347 -0.952674 0 
0 0 0 
-9.12526 -0.021182 0 
-0.021182 -9.04087 0 
0 0 0 
-9.12766 -0.0140218 0 
-0.0140218 -9.03846 0 
0 0 0 
-9.11888 -0.0134419 0 
-0.0134419 -9.04725 0 
0 0 0 
-9.14344 0.00648594 0 
0.00648594 -9.0677 0 
0 0 0 
-9.1342 0.010426 0 
0.010426 -9.07694 0 
0 0 0 
-9.13435 0.0116488 0 
0.0116488 -9.07678 0 
0 0 0 
-0.856624 -0.00648613 0 
-0.00648613 -0.932376 0 
0 0 0 
-0.865868 -0.0104279 0 
-0.0104279 -0.923133 0 
0 0 0 
-0.865713 -0.0116496 0 
-0.0116496 -0.923288 0 
0 0 0 
-9.21638 -0.00773397 0 
-0.00773397 -9.17259 0 
0 0 0 
-9.23602 -0.00694066 0 
-0.00694066 -9.15295 0 
0 0 0 
-9.22481 -0.00815027 0 
-0.00815027 -9.16416 0 
0 0 0 
-0.783561 0.00773456 0 
0.00773456 -0.827343 0 
0 0 0 
-0.76392 0.00694162 0 
0.00694162 -0.846984 0 
0 0 0 
-0.775127 0.00814934 0 
0.00814934 -0.835777 0 
0 0 0 
-0.831231 -0.109676 0 
-0.109676 -0.584422 0 
0 0 0 
-0.846286 -0.0586459 0 
-0.0586459 -0.569367 0 
0 0 0 
-0.823743 -0.0682623 0 
-0.0682623 -0.591909 0 
0 0 0 
-9.16883 0.109668 0 
0.109668 -9.41562 0 
0 0 0 
-9.15378 0.0586414 0 
0.0586414 -9.43068 0 
0 0 0 
-9.17632 0.0682572 0 
0.0682572 -9.40814 0 
0 0 0 
-0.885287 0.0224707 0 
0.0224707 -0.960613 0 
0 0 0 
-0.886174 0.0235788 0 
0.0235788 -0.959726 0 
0 0 0 
-0.894587 0.0191873 0 
0.0191873 -0.951312 0 
0 0 0 
-9.11462 -0.0225075 0 
-0.0225075 -9.0393 0 
0 0 0 
-9.11374 -0.0236053 0 
-0.0236053 -9.04018 0 
0 0 0 
-9.10531 -0.0192101 0 
-0.0192101 -9.04861 0 
0 0 0 
-0.953632 -0.025024 0 
-0.025024 -0.967024 0 
0 0 0 
-0.9633 -0.0222111 0 
-0.0222111 -0.957357 0 
0 0 0 
-0.958996 -0.00184655 0 
-0.00184655 -0.961661 0 
0 0 0 
-9.04644 0.025018 0 
0.025018 -9.03305 0 
0 0 0 
-9.03678 0.0222057 0 
0.0222057 -9.04271 0 
0 0 0 
-9.04108 0.00184377 0 
0.00184377 -9.03841 0 
0 0 0 
-1.0341 -0.0261459 0 
-0.0261459 -0.93079 0 
0 0 0 
-1.01126 0.00744381 0 
0.00744381 -0.953629 0 
0 0 0 
-0.993106 -0.0367741 0 
-0.0367741 -0.971781 0 
0 0 0 
-8.96579 0.0260864 0 
0.0260864 -9.06886 0 
0 0 0 
-8.98832 -0.00726171 0 
-0.00726171 -9.04633 0 
0 0 0 
-9.00631 0.0366788 0 
0.0366788 -9.02834 0 
0 0 0 
-9.1197 0.0269429 0 
0.0269429 -9.0434 0 
0 0 0 
-9.1169 0.0147721 0 
0.0147721 -9.04619 0 
0 0 0 
-9.11856 0.0188079 0 
0.0188079 -9.04453 0 
0 0 0 
-0.880368 -0.0269461 0 
-0.0269461 -0.95668 0 
0 0 0 
-0.883164 -0.0147751 0 
-0.0147751 -0.953884 0 
0 0 0 
-0.881507 -0.0188111 0 
-0.0188111 -0.955541 0 
0 0 0 
-0.865088 0.0145185 0 
0.0145185 -0.959037 0 
0 0 0 
-0.864026 0.0123074 0 
0.0123074 -0.960098 0 
0 0 0 
-0.872572 0.0105168 0 
0.0105168 -0.951553 0 
0 0 0 
-9.13483 -0.0145363 0 
-0.0145363 -9.04088 0 
0 0 0 
-9.1359 -0.0123198 0 
-0.0123198 -9.03982 0 
0 0 0 
-9.12734 -0.0105292 0 
-0.0105292 -9.04837 0 
0 0 0 
-0.933589 0.0506376 0 
0.0506376 -0.864363 0 
0 0 0 
-0.814375 0.0496825 0 
0.0496825 -0.983577 0 
0 0 0 
-0.900431 -0.0449752 0 
-0.0449752 -0.897521 0 
0 0 0 
-9.06648 -0.0506318 0 
-0.0506318 -9.1357 0 
0 0 0 
-9.18568 -0.0496757 0 
-0.0496757 -9.0165 0 
0 0 0 
-9.09963 0.0449715 0 
0.0449715 -9.10255 0 
0 0 0 
-0.892071 -0.031239 0 
-0.031239 -0.948411 0 
0 0 0 
-0.893768 -0.0283757 0 
-0.0283757 -0.946714 0 
0 0 0 
-0.893286 -0.0184189 0 
-0.0184189 -0.947196 0 
0 0 0 
-9.108 0.0312347 0 
0.0312347 -9.05166 0 
0 0 0 
-9.1063 0.0283716 0 
0.0283716 -9.05336 0 
0 0 0 
-9.10678 0.0184149 0 
0.0184149 -9.05288 0 
0 0 0 
-9.21333 -0.0487136 0 
-0.0487136 -9.10999 0 
0 0 0 
-9.19699 -0.0389788 0 
-0.0389788 -9.12632 0 
0 0 0 
-9.18452 -0.0482874 0 
-0.0482874 -9.1388 0 
0 0 0 
-0.786732 0.0487174 0 
0.0487174 -0.890083 0 
0 0 0 
-0.803069 0.0389818 0 
0.0389818 -0.873746 0 
0 0 0 
-0.815546 0.0482912 0 
0.0482912 -0.861269 0 
0 0 0 
-9.0718 0.0282844 0 
0.0282844 -9.0425 0 
0 0 0 
-9.08043 0.030187 0 
0.030187 -9.03387 0 
0 0 0 
-9.07765 0.0269123 0 
0.0269123 -9.03665 0 
0 0 0 
-0.928276 -0.0282884 0 
-0.0282884 -0.957569 0 
0 0 0 
-0.919645 -0.0301908 0 
-0.0301908 -0.966199 0 
0 0 0 
-0.922423 -0.0269142 0 
-0.0269142 -0.963422 0 
0 0 0 
-8.87916 0.0198734 0 
0.0198734 -8.7739 0 
0 0 0 
-8.87169 0.00508489 0 
0.00508489 -8.78137 0 
0 0 0 
-8.90358 0.00575062 0 
0.00575062 -8.74948 0 
0 0 0 
-0.894987 0.0284908 0 
0.0284908 -0.952809 0 
0 0 0 
-0.931345 0.013786 0 
0.013786 -0.916451 0 
0 0 0 
-0.895324 0.0262144 0 
0.0262144 -0.952472 0 
0 0 0 
-9.10495 -0.0285757 0 
-0.0285757 -9.04694 0 
0 0 0 
-9.06838 -0.0138086 0 
-0.0138086 -9.08351 0 
0 0 0 
-9.10459 -0.0263705 0 
-0.0263705 -9.04729 0 
0 0 0 
-9.20013 -0.0451107 0 
-0.0451107 -9.58535 0 
0 0 0 
-9.24135 -0.161827 0 
-0.161827 -9.54414 0 
0 0 0 
-9.25318 -0.0854722 0 
-0.0854722 -9.5323 0 
0 0 0 
-0.799805 0.0451071 0 
0.0451071 -0.414612 0 
0 0 0 
-0.758596 0.161815 0 
0.161815 -0.455822 0 
0 0 0 
-0.746758 0.0854657 0 
0.0854657 -0.467659 0 
0 0 0 
-8.93541 -0.04929 0 
-0.04929 -9.03471 0 
0 0 0 
-8.95828 -0.0679758 0 
-0.0679758 -9.01184 0 
0 0 0 
-8.95285 -0.0388762 0 
-0.0388762 -9.01726 0 
0 0 0 
-1.06467 0.0492899 0 
0.0492899 -0.965357 0 
0 0 0 
-1.0418 0.0679764 0 
0.0679764 -0.988233 0 
0 0 0 
-1.04722 0.0388737 0 
0.0388737 -0.982807 0 
0 0 0 
-9.23154 0.146555 0 
0.146555 -9.56457 0 
0 0 0 
-9.20894 0.0747269 0 
0.0747269 -9.58716 0 
0 0 0 
-9.24639 0.0887637 0 
0.0887637 -9.54972 0 
0 0 0 
-0.768524 -0.146566 0 
-0.146566 -0.435461 0 
0 0 0 
-0.791116 -0.0747325 0 
-0.0747325 -0.412869 0 
0 0 0 
-0.75367 -0.0887701 0 
-0.0887701 -0.450315 0 
0 0 0 
-0.947211 -0.0307999 0 
-0.0307999 -0.95467 0 
0 0 0 
-0.94741 -0.0461412 0 
-0.0461412 -0.954471 0 
0 0 0 
-0.947992 -0.0289057 0 
-0.0289057 -0.953889 0 
0 0 0 
-9.05286 0.0307939 0 
0.0307939 -9.04541 0 
0 0 0 
-9.05266 0.0461347 0 
0.0461347 -9.04561 0 
0 0 0 
-9.05208 0.0288996 0 
0.0288996 -9.04619 0 
0 0 0 
-1.0823 0.0188498 0 
0.0188498 -1.22111 0 
0 0 0 
-1.07651 0.00810311 0 
0.00810311 -1.2269 0 
0 0 0 
-1.08869 -0.018979 0 
-0.018979 -1.21472 0 
0 0 0 
-0.868565 0.0016328 0 
0.0016328 -0.946943 0 
0 0 0 
-0.860241 0.00743448 0 
0.00743448 -0.955267 0 
0 0 0 
-0.857068 0.000341072 0 
0.000341072 -0.958439 0 
0 0 0 
-9.13136 -0.00163859 0 
-0.00163859 -9.05298 0 
0 0 0 
-9.13968 -0.00744304 0 
-0.00744304 -9.04465 0 
0 0 0 
-9.14286 -0.000346327 0 
-0.000346327 -9.04148 0 
0 0 0 
-1.13859 0.0338379 0 
0.0338379 -1.31203 0 
0 0 0 
-1.12364 0.00277866 0 
0.00277866 -1.32698 0 
0 0 0 
-1.12085 0.021367 0 
0.021367 -1.32977 0 
0 0 0 
-0.904917 0.0248245 0 
0.0248245 -0.781851 0 
0 0 0 
-0.91551 0.0477578 0 
0.0477578 -0.771259 0 
0 0 0 
-0.898188 0.0512056 0 
0.0512056 -0.78858 0 
0 0 0 
-9.09503 -0.0248356 0 
-0.0248356 -9.21809 0 
0 0 0 
-9.08444 -0.0477649 0 
-0.0477649 -9.22868 0 
0 0 0 
-9.10175 -0.0512075 0 
-0.0512075 -9.21137 0 
0 0 0 
-0.70012 -0.0178616 0 
-0.0178616 -0.726177 0 
0 0 0 
-0.651078 -0.0233392 0 
-0.0233392 -0.775219 0 
0 0 0 
-0.669386 -0.0296078 0 
-0.0296078 -0.75691 0 
0 0 0 
-9.29993 0.01786 0 
0.01786 -9.27388 0 
0 0 0 
-9.34897 0.0233371 0 
0.0233371 -9.22484 0 
0 0 0 
-9.33067 0.0296053 0 
0.0296053 -9.24315 0 
0 0 0 
-8.86146 -0.0338999 0 
-0.0338999 -8.68816 0 
0 0 0 
-8.87637 -0.0028435 0 
-0.0028435 -8.67325 0 
0 0 0 
-8.87916 -0.0213814 0 
-0.0213814 -8.67045 0 
0 0 0 
-0.847919 0.00178098 0 
0.00178098 -0.947511 0 
0 0 0 
-0.844818 -0.00124545 0 
-0.00124545 -0.950612 0 
0 0 0 
-0.855114 -0.00130859 0 
-0.00130859 -0.940316 0 
0 0 0 
-9.15201 -0.00179158 0 
-0.00179158 -9.0524 0 
0 0 0 
-9.15511 0.00124007 0 
0.00124007 -9.0493 0 
0 0 0 
-9.14481 0.00130242 0 
0.00130242 -9.0596 0 
0 0 0 
-0.898414 0.062891 0 
0.062891 -0.737818 0 
0 0 0 
-0.879271 0.0683274 0 
0.0683274 -0.756962 0 
0 0 0 
-0.890347 0.0354898 0 
0.0354898 -0.745885 0 
0 0 0 
-9.10152 -0.062897 0 
-0.062897 -9.26212 0 
0 0 0 
-9.12066 -0.0683327 0 
-0.0683327 -9.24298 0 
0 0 0 
-9.10959 -0.035496 0 
-0.035496 -9.25406 0 
0 0 0 
-0.906861 -0.0285527 0 
-0.0285527 -0.934866 0 
0 0 0 
-0.896148 -0.0262514 0 
-0.0262514 -0.945578 0 
0 0 0 
-0.903918 -0.0204724 0 
-0.0204724 -0.937808 0 
0 0 0 
-9.09321 0.028551 0 
0.028551 -9.06521 0 
0 0 0 
-9.10391 0.0262494 0 
0.0262494 -9.0545 0 
0 0 0 
-9.09615 0.0204675 0 
0.0204675 -9.06227 0 
0 0 0 
-0.932448 -0.0200931 0 
-0.0200931 -0.76693 0 
0 0 0 
-0.916269 -0.000405417 0 
-0.000405417 -0.783109 0 
0 0 0 
-0.884865 -0.0370935 0 
-0.0370935 -0.814513 0 
0 0 0 
-9.06762 0.0200914 0 
0.0200914 -9.23313 0 
0 0 0 
-9.0838 0.000404896 0 
0.000404896 -9.21695 0 
0 0 0 
-9.1152 0.0370909 0 
0.0370909 -9.18555 0 
0 0 0 
-1.14801 -0.0229002 0 
-0.0229002 -1.1872 0 
0 0 0 
-1.23815 -0.0163731 0 
-0.0163731 -1.09706 0 
0 0 0 
-1.25945 0.0682091 0 
0.0682091 -1.07576 0 
0 0 0 
-0.88385 -0.0257944 0 
-0.0257944 -0.946517 0 
0 0 0 
-0.885301 -0.0157291 0 
-0.0157291 -0.945067 0 
0 0 0 
-0.890585 -0.020773 0 
-0.020773 -0.939783 0 
0 0 0 
-9.11622 0.0257922 0 
0.0257922 -9.05356 0 
0 0 0 
-9.11477 0.0157265 0 
0.0157265 -9.05501 0 
0 0 0 
-9.10948 0.0207698 0 
0.0207698 -9.06029 0 
0 0 0 
-0.865633 0.0063659 0 
0.0063659 -0.915408 0 
0 0 0 
-0.865948 0.00542953 0 
0.00542953 -0.915093 0 
0 0 0 
-0.909093 -0.0128083 0 
-0.0128083 -0.871948 0 
0 0 0 
-9.13443 -0.00636333 0 
-0.00636333 -9.08466 0 
0 0 0 
-9.13411 -0.00542861 0 
-0.00542861 -9.08498 0 
0 0 0 
-9.09097 0.0128075 0 
0.0128075 -9.12812 0 
0 0 0 
-0.829845 -0.0169634 0 
-0.0169634 -0.898346 0 
0 0 0 
-0.819566 -0.013823 0 
-0.013823 -0.908626 0 
0 0 0 
-0.812327 -0.0180149 0 
-0.0180149 -0.915864 0 
0 0 0 
-9.17009 0.0169646 0 
0.0169646 -9.10158 0 
0 0 0 
-9.18037 0.0138247 0 
0.0138247 -9.0913 0 
0 0 0 
-9.18761 0.0180161 0 
0.0180161 -9.08406 0 
0 0 0 
-0.814814 -0.0057499 0 
-0.0057499 -0.8772 0 
0 0 0 
-0.798322 -0.00788458 0 
-0.00788458 -0.893693 0 
0 0 0 
-0.807219 -0.00657817 0 
-0.00657817 -0.884796 0 
0 0 0 
-9.18512 0.00575267 0 
0.00575267 -9.12272 0 
0 0 0 
-9.20161 0.0078872 0 
0.0078872 -9.10623 0 
0 0 0 
-9.19272 0.00657872 0 
0.00657872 -9.11513 0 
0 0 0 
-0.862345 0.00664854 0 
0.00664854 -0.948343 0 
0 0 0 
-0.852404 0.00633802 0 
0.00633802 -0.958285 0 
0 0 0 
-0.859301 0.00203554 0 
0.00203554 -0.951387 0 
0 0 0 
-9.13758 -0.00666044 0 
-0.00666044 -9.05158 0 
0 0 0 
-9.14753 -0.00634893 0 
-0.00634893 -9.04163 0 
0 0 0 
-9.14062 -0.00204126 0 
-0.00204126 -9.04853 0 
0 0 0 
-0.894864 0.0236011 0 
0.0236011 -0.963882 0 
0 0 0 
-0.898596 0.0199621 0 
0.0199621 -0.96015 0 
0 0 0 
-0.892895 0.0227425 0 
0.0227425 -0.965851 0 
0 0 0 
-9.10505 -0.0236138 0 
-0.0236138 -9.03604 0 
0 0 0 
-9.1013 -0.0199789 0 
-0.0199789 -9.03978 0 
0 0 0 
-9.10701 -0.0227663 0 
-0.0227663 -9.03408 0 
0 0 0 
-0.912705 -0.0315197 0 
-0.0315197 -0.952924 0 
0 0 0 
-0.907542 -0.0326584 0 
-0.0326584 -0.958088 0 
0 0 0 
-0.917512 -0.0310065 0 
-0.0310065 -0.948118 0 
0 0 0 
-9.08737 0.0315162 0 
0.0315162 -9.04715 0 
0 0 0 
-9.09253 0.0326561 0 
0.0326561 -9.04199 0 
0 0 0 
-9.08256 0.0310042 0 
0.0310042 -9.05196 0 
0 0 0 
-9.10393 0.0506398 0 
0.0506398 -9.21833 0 
0 0 0 
-9.08742 0.0468544 0 
0.0468544 -9.23484 0 
0 0 0 
-9.1 0.0269176 0 
0.0269176 -9.22226 0 
0 0 0 
-0.896139 -0.0506437 0 
-0.0506437 -0.781726 0 
0 0 0 
-0.912645 -0.0468582 0 
-0.0468582 -0.765219 0 
0 0 0 
-0.900069 -0.02692 0 
-0.02692 -0.777795 0 
0 0 0 
-0.929958 0.0167968 0 
0.0167968 -0.960994 0 
0 0 0 
-0.939368 0.0222952 0 
0.0222952 -0.951584 0 
0 0 0 
-0.937745 0.0284403 0 
0.0284403 -0.953207 0 
0 0 0 
-9.06989 -0.0168812 0 
-0.0168812 -9.03904 0 
0 0 0 
-9.06059 -0.0223639 0 
-0.0223639 -9.04834 0 
0 0 0 
-9.06215 -0.0284089 0 
-0.0284089 -9.04678 0 
0 0 0 
-9.14901 -0.0356612 0 
-0.0356612 -9.31034 0 
0 0 0 
-9.1248 -0.0853734 0 
-0.0853734 -9.33456 0 
0 0 0 
-9.15772 -0.0995145 0 
-0.0995145 -9.30164 0 
0 0 0 
-0.850923 0.0356571 0 
0.0356571 -0.689603 0 
0 0 0 
-0.875134 0.0853662 0 
0.0853662 -0.665392 0 
0 0 0 
-0.842218 0.0995068 0 
0.0995068 -0.698308 0 
0 0 0 
-9.02645 0.0201617 0 
0.0201617 -9.0014 0 
0 0 0 
-8.9904 0.0969017 0 
0.0969017 -9.03744 0 
0 0 0 
-8.98319 0.0140155 0 
0.0140155 -9.04465 0 
0 0 0 
-0.973631 -0.0201691 0 
-0.0201691 -0.998681 0 
0 0 0 
-1.00967 -0.0969099 0 
-0.0969099 -0.962642 0 
0 0 0 
-1.01688 -0.0140191 0 
-0.0140191 -0.955431 0 
0 0 0 
-9.60793 0.0882492 0 
0.0882492 -10.0189 0 
0 0 0 
-9.54599 -0.0226627 0 
-0.0226627 -10.0809 0 
0 0 0 
-9.55182 0.0605158 0 
0.0605158 -10.0751 0 
0 0 0 
-0.39211 -0.0882752 0 
-0.0882752 0.0189334 0 
0 0 0 
-0.454061 0.0226643 0 
0.0226643 0.0808844 0 
0 0 0 
-0.44821 -0.0605247 0 
-0.0605247 0.0750332 0 
0 0 0 
-0.930207 0.0227336 0 
0.0227336 -0.964235 0 
0 0 0 
-0.936225 0.0308229 0 
0.0308229 -0.958217 0 
0 0 0 
-0.931732 0.0249127 0 
0.0249127 -0.962711 0 
0 0 0 
-9.06969 -0.0227561 0 
-0.0227561 -9.03572 0 
0 0 0 
-9.06369 -0.0308351 0 
-0.0308351 -9.04172 0 
0 0 0 
-9.06818 -0.0249389 0 
-0.0249389 -9.03723 0 
0 0 0 
-8.85142 0.0225675 0 
0.0225675 -8.80923 0 
0 0 0 
-8.75912 0.0147404 0 
0.0147404 -8.90153 0 
0 0 0 
-8.74142 -0.0690531 0 
-0.0690531 -8.91923 0 
0 0 0 
-9.10464 0.0633138 0 
0.0633138 -9.27884 0 
0 0 0 
-9.13495 0.0215016 0 
0.0215016 -9.24853 0 
0 0 0 
-9.13187 0.07665 0 
0.07665 -9.25161 0 
0 0 0 
-0.895433 -0.0633187 0 
-0.0633187 -0.721216 0 
0 0 0 
-0.865121 -0.0215035 0 
-0.0215035 -0.751529 0 
0 0 0 
-0.8682 -0.0766559 0 
-0.0766559 -0.748449 0 
0 0 0 
-0.991528 -0.0651803 0 
-0.0651803 -0.959133 0 
0 0 0 
-1.00542 -0.064985 0 
-0.064985 -0.94524 0 
0 0 0 
-0.993995 -0.00689647 0 
-0.00689647 -0.956665 0 
0 0 0 
-9.00855 0.0651668 0 
0.0651668 -9.04095 0 
0 0 0 
-8.99466 0.0649725 0 
0.0649725 -9.05484 0 
0 0 0 
-9.00608 0.00689325 0 
0.00689325 -9.04341 0 
0 0 0 
-9.1885 0.0214983 0 
0.0214983 -9.17591 0 
0 0 0 
-9.19311 0.0236772 0 
0.0236772 -9.1713 0 
0 0 0 
-9.20146 0.0270021 0 
0.0270021 -9.16295 0 
0 0 0 
-0.811563 -0.0215001 0 
-0.0215001 -0.824153 0 
0 0 0 
-0.806951 -0.0236792 0 
-0.0236792 -0.828764 0 
0 0 0 
-0.798606 -0.0270044 0 
-0.0270044 -0.83711 0 
0 0 0 
-0.947719 -0.0200471 0 
-0.0200471 -0.946654 0 
0 0 0 
-0.943759 -0.0469182 0 
-0.0469182 -0.950614 0 
0 0 0 
-0.960469 -0.0440497 0 
-0.0440497 -0.933905 0 
0 0 0 
-9.05235 0.0200411 0 
0.0200411 -9.05342 0 
0 0 0 
-9.05631 0.0469103 0 
0.0469103 -9.04946 0 
0 0 0 
-9.0396 0.044042 0 
0.044042 -9.06617 0 
0 0 0 
-9.16785 0.0947807 0 
0.0947807 -9.29817 0 
0 0 0 
-9.15033 0.08671 0 
0.08671 -9.31569 0 
0 0 0 
-9.14305 0.0565352 0 
0.0565352 -9.32297 0 
0 0 0 
-0.832216 -0.0947878 0 
-0.0947878 -0.701885 0 
0 0 0 
-0.849737 -0.0867166 0 
-0.0867166 -0.684364 0 
0 0 0 
-0.85702 -0.0565396 0 
-0.0565396 -0.677081 0 
0 0 0 
-0.903749 0.00473127 0 
0.00473127 -0.91844 0 
0 0 0 
-0.905156 0.00668094 0 
0.00668094 -0.917033 0 
0 0 0 
-0.906441 0.00447145 0 
0.00447145 -0.915748 0 
0 0 0 
-9.09632 -0.00473082 0 
-0.00473082 -9.08163 0 
0 0 0 
-9.09491 -0.00668032 0 
-0.00668032 -9.08304 0 
0 0 0 
-9.09363 -0.00447102 0 
-0.00447102 -9.08432 0 
0 0 0 
-0.895672 0.026261 0 
0.026261 -0.958166 0 
0 0 0 
-0.901041 0.0243451 0 
0.0243451 -0.952797 0 
0 0 0 
-0.899196 0.0227044 0 
0.0227044 -0.954642 0 
0 0 0 
-9.10423 -0.0262787 0 
-0.0262787 -9.04178 0 
0 0 0 
-9.09887 -0.0243745 0 
-0.0243745 -9.04714 0 
0 0 0 
-9.10072 -0.0227189 0 
-0.0227189 -9.04529 0 
0 0 0 
-0.793021 -0.00758381 0 
-0.00758381 -0.874027 0 
0 0 0 
-0.784571 -0.0110736 0 
-0.0110736 -0.882477 0 
0 0 0 
-0.806081 -0.00940973 0 
-0.00940973 -0.860967 0 
0 0 0 
-9.20692 0.00758758 0 
0.00758758 -9.1259 0 
0 0 0 
-9.21537 0.0110749 0 
0.0110749 -9.11745 0 
0 0 0 
-9.19386 0.00941106 0 
0.00941106 -9.13896 0 
0 0 0 
-9.09922 -0.00471711 0 
-0.00471711 -9.08674 0 
0 0 0 
-9.09667 -0.0061722 0 
-0.0061722 -9.0893 0 
0 0 0 
-9.09686 -0.00591787 0 
-0.00591787 -9.08911 0 
0 0 0 
-0.900697 0.00471683 0 
0.00471683 -0.913179 0 
0 0 0 
-0.903254 0.00617192 0 
0.00617192 -0.910622 0 
0 0 0 
-0.903066 0.00591753 0 
0.00591753 -0.910811 0 
0 0 0 
-9.19206 -0.0307608 0 
-0.0307608 -9.09051 0 
0 0 0 
-9.16782 -0.0302867 0 
-0.0302867 -9.11475 0 
0 0 0 
-9.18307 -0.0370456 0 
-0.0370456 -9.0995 0 
0 0 0 
-0.808002 0.0307632 0 
0.0307632 -0.909562 0 
0 0 0 
-0.832243 0.0302891 0 
0.0302891 -0.88532 0 
0 0 0 
-0.81699 0.0370485 0 
0.0370485 -0.900573 0 
0 0 0 
-9.18363 -0.11019 0 
-0.11019 -9.44042 0 
0 0 0 
-9.22824 -0.138935 0 
-0.138935 -9.39582 0 
0 0 0 
-9.21216 -0.0360004 0 
-0.0360004 -9.4119 0 
0 0 0 
-0.816304 0.110182 0 
0.110182 -0.559532 0 
0 0 0 
-0.7717 0.138925 0 
0.138925 -0.604136 0 
0 0 0 
-0.78778 0.0359968 0 
0.0359968 -0.588057 0 
0 0 0 
-9.19341 0.111173 0 
0.111173 -9.43332 0 
0 0 0 
-9.19312 0.0625404 0 
0.0625404 -9.43362 0 
0 0 0 
-9.21332 0.121539 0 
0.121539 -9.41342 0 
0 0 0 
-0.806647 -0.111181 0 
-0.111181 -0.566719 0 
0 0 0 
-0.806945 -0.0625452 0 
-0.0625452 -0.566421 0 
0 0 0 
-0.786742 -0.121548 0 
-0.121548 -0.586624 0 
0 0 0 
-9.15523 0.0269871 0 
0.0269871 -9.06032 0 
0 0 0 
-9.14807 0.0316792 0 
0.0316792 -9.06748 0 
0 0 0 
-9.13852 0.0228722 0 
0.0228722 -9.07703 0 
0 0 0 
-0.844701 -0.0269864 0 
-0.0269864 -0.939597 0 
0 0 0 
-0.851856 -0.0316771 0 
-0.0316771 -0.932442 0 
0 0 0 
-0.861411 -0.022872 0 
-0.022872 -0.922887 0 
0 0 0 
-9.3253 0.0747711 0 
0.0747711 -9.23293 0 
0 0 0 
-9.34631 0.091359 0 
0.091359 -9.21191 0 
0 0 0 
-9.32679 0.0864935 0 
0.0864935 -9.23144 0 
0 0 0 
-0.674651 -0.074765 0 
-0.074765 -0.767012 0 
0 0 0 
-0.653635 -0.0913519 0 
-0.0913519 -0.788028 0 
0 0 0 
-0.673158 -0.0864869 0 
-0.0864869 -0.768504 0 
0 0 0 
-0.893825 -0.0181822 0 
-0.0181822 -0.911353 0 
0 0 0 
-0.896172 -0.0155971 0 
-0.0155971 -0.909006 0 
0 0 0 
-0.897141 -0.0156234 0 
-0.0156234 -0.908037 0 
0 0 0 
-9.10624 0.0181806 0 
0.0181806 -9.08872 0 
0 0 0 
-9.1039 0.0155957 0 
0.0155957 -9.09106 0 
0 0 0 
-9.10293 0.015622 0 
0.015622 -9.09203 0 
0 0 0 
-0.882089 0.0235885 0 
0.0235885 -0.94454 0 
0 0 0 
-0.883462 0.017094 0 
0.017094 -0.943168 0 
0 0 0 
-0.884298 0.0272181 0 
0.0272181 -0.942331 0 
0 0 0 
-9.11782 -0.0235885 0 
-0.0235885 -9.05538 0 
0 0 0 
-9.11645 -0.0170939 0 
-0.0170939 -9.05675 0 
0 0 0 
-9.11562 -0.027218 0 
-0.027218 -9.05759 0 
0 0 0 
-8.86532 0.0398718 0 
0.0398718 -8.69578 0 
0 0 0 
-8.8834 0.028018 0 
0.028018 -8.67769 0 
0 0 0 
-8.88186 0.0116254 0 
0.0116254 -8.67924 0 
0 0 0 
-9.61094 -0.0668313 0 
-0.0668313 -10.1624 0 
0 0 0 
-9.57423 -0.0157807 0 
-0.0157807 -10.1991 0 
0 0 0 
-9.64439 -0.013427 0 
-0.013427 -10.1289 0 
0 0 0 
-0.389063 0.0668343 0 
0.0668343 0.162345 0 
0 0 0 
-0.425778 0.0157796 0 
0.0157796 0.19906 0 
0 0 0 
-0.355619 0.0134255 0 
0.0134255 0.1289 0 
0 0 0 
-9.14451 0.00654987 0 
0.00654987 -9.06203 0 
0 0 0 
-9.1563 0.00864063 0 
0.00864063 -9.05023 0 
0 0 0 
-9.14999 0.0122798 0 
0.0122798 -9.05654 0 
0 0 0 
-0.855422 -0.00655492 0 
-0.00655492 -0.93789 0 
0 0 0 
-0.843628 -0.00864504 0 
-0.00864504 -0.949684 0 
0 0 0 
-0.849936 -0.0122812 0 
-0.0122812 -0.943375 0 
0 0 0 
-8.99794 -0.0425982 0 
-0.0425982 -9.04481 0 
0 0 0 
-8.99968 -0.0339098 0 
-0.0339098 -9.04307 0 
0 0 0 
-9.00556 -0.0374034 0 
-0.0374034 -9.03719 0 
0 0 0 
-1.00189 0.0426154 0 
0.0426154 -0.955183 0 
0 0 0 
-1.0002 0.0339302 0 
0.0339302 -0.95688 0 
0 0 0 
-0.994268 0.0374759 0 
0.0374759 -0.962808 0 
0 0 0 
-1.24803 0.0136296 0 
0.0136296 -1.09306 0 
0 0 0 
-1.14898 0.0213091 0 
0.0213091 -1.19212 0 
0 0 0 
-1.26802 -0.0497343 0 
-0.0497343 -1.07308 0 
0 0 0 
-0.871941 0.0116607 0 
0.0116607 -0.894795 0 
0 0 0 
-0.878191 -0.00521344 0 
-0.00521344 -0.888544 0 
0 0 0 
-0.886437 0.015291 0 
0.015291 -0.880298 0 
0 0 0 
-9.12799 -0.0116571 0 
-0.0116571 -9.10513 0 
0 0 0 
-9.12178 0.00518905 0 
0.00518905 -9.11135 0 
0 0 0 
-9.11354 -0.0152925 0 
-0.0152925 -9.11958 0 
0 0 0 
-8.75218 -0.0136499 0 
-0.0136499 -8.90697 0 
0 0 0 
-8.85106 -0.0213048 0 
-0.0213048 -8.80809 0 
0 0 0 
-8.73213 0.0496381 0 
0.0496381 -8.92702 0 
0 0 0 
-0.862354 0.0293846 0 
0.0293846 -0.848796 0 
0 0 0 
-0.840919 0.0224357 0 
0.0224357 -0.870231 0 
0 0 0 
-0.865586 -0.00378361 0 
-0.00378361 -0.845564 0 
0 0 0 
-9.13758 -0.029384 0 
-0.029384 -9.15115 0 
0 0 0 
-9.15904 -0.0224308 0 
-0.0224308 -9.12969 0 
0 0 0 
-9.13434 0.00380919 0 
0.00380919 -9.15438 0 
0 0 0 
-9.16599 -0.0341368 0 
-0.0341368 -9.09634 0 
0 0 0 
-9.1585 -0.0385925 0 
-0.0385925 -9.10383 0 
0 0 0 
-9.17715 -0.0387533 0 
-0.0387533 -9.08517 0 
0 0 0 
-0.834077 0.0341396 0 
0.0341396 -0.903729 0 
0 0 0 
-0.841562 0.0385956 0 
0.0385956 -0.896244 0 
0 0 0 
-0.822909 0.0387564 0 
0.0387564 -0.914897 0 
0 0 0 
-9.14402 0.0310272 0 
0.0310272 -9.06319 0 
0 0 0 
-9.13043 0.02908 0 
0.02908 -9.07678 0 
0 0 0 
-9.13662 0.0237726 0 
0.0237726 -9.07059 0 
0 0 0 
-0.855909 -0.0310254 0 
-0.0310254 -0.936729 0 
0 0 0 
-0.869494 -0.0290785 0 
-0.0290785 -0.923144 0 
0 0 0 
-0.863312 -0.0237727 0 
-0.0237727 -0.929326 0 
0 0 0 
-9.34078 0.0156969 0 
0.0156969 -9.58793 0 
0 0 0 
-9.66263 -0.356212 0 
-0.356212 -9.26609 0 
0 0 0 
-9.64986 0.095874 0 
0.095874 -9.27885 0 
0 0 0 
-0.659172 -0.0156926 0 
-0.0156926 -0.412034 0 
0 0 0 
-0.337347 0.356194 0 
0.356194 -0.733859 0 
0 0 0 
-0.350111 -0.0958652 0 
-0.0958652 -0.721095 0 
0 0 0 
-9.16015 0.0123869 0 
0.0123869 -9.06733 0 
0 0 0 
-9.16599 0.0176802 0 
0.0176802 -9.06149 0 
0 0 0 
-9.15234 0.0163729 0 
0.0163729 -9.07514 0 
0 0 0 
-0.839782 -0.0123898 0 
-0.0123898 -0.932591 0 
0 0 0 
-0.833944 -0.0176807 0 
-0.0176807 -0.938428 0 
0 0 0 
-0.84759 -0.0163737 0 
-0.0163737 -0.924783 0 
0 0 0 
-1.08984 -0.0123994 0 
-0.0123994 -1.24332 0 
0 0 0 
-1.08431 -0.00426161 0 
-0.00426161 -1.24885 0 
0 0 0 
-1.08611 -0.0143949 0 
-0.0143949 -1.24704 0 
0 0 0 
-1.10465 0.00519127 0 
0.00519127 -1.15521 0 
0 0 0 
-1.08838 0.0152016 0 
0.0152016 -1.17148 0 
0 0 0 
-1.09245 -0.0244739 0 
-0.0244739 -1.16741 0 
0 0 0 
-0.835519 0.00667317 0 
0.00667317 -0.891259 0 
0 0 0 
-0.885183 -0.0714533 0 
-0.0714533 -0.841594 0 
0 0 0 
-0.965711 -0.00655699 0 
-0.00655699 -0.761066 0 
0 0 0 
-9.16479 -0.00668667 0 
-0.00668667 -9.10852 0 
0 0 0 
-9.11494 0.0716678 0 
0.0716678 -9.15838 0 
0 0 0 
-9.03423 0.00661432 0 
0.00661432 -9.23909 0 
0 0 0 
-8.89544 -0.00519117 0 
-0.00519117 -8.84493 0 
0 0 0 
-8.9117 -0.0151863 0 
-0.0151863 -8.82866 0 
0 0 0 
-8.90762 0.0244825 0 
0.0244825 -8.83275 0 
0 0 0 
-0.903289 0.0106259 0 
0.0106259 -0.936276 0 
0 0 0 
-0.90549 0.0112426 0 
0.0112426 -0.934074 0 
0 0 0 
-0.906 0.00871935 0 
0.00871935 -0.933564 0 
0 0 0 
-9.09678 -0.010625 0 
-0.010625 -9.0638 0 
0 0 0 
-9.09458 -0.0112416 0 
-0.0112416 -9.066 0 
0 0 0 
-9.09407 -0.00871857 0 
-0.00871857 -9.06651 0 
0 0 0 
-1.048 0.0516413 0 
0.0516413 -0.938991 0 
0 0 0 
-1.03643 0.0509971 0 
0.0509971 -0.950565 0 
0 0 0 
-1.01192 0.0165989 0 
0.0165989 -0.975077 0 
0 0 0 
-8.95179 -0.0515578 0 
-0.0515578 -9.06088 0 
0 0 0 
-8.96332 -0.0508648 0 
-0.0508648 -9.04934 0 
0 0 0 
-8.98787 -0.0165116 0 
-0.0165116 -9.0248 0 
0 0 0 
-0.893205 -0.0298344 0 
-0.0298344 -0.950756 0 
0 0 0 
-0.896273 -0.028943 0 
-0.028943 -0.947688 0 
0 0 0 
-0.89875 -0.0249208 0 
-0.0249208 -0.945211 0 
0 0 0 
-9.10687 0.0298317 0 
0.0298317 -9.04932 0 
0 0 0 
-9.1038 0.0289406 0 
0.0289406 -9.05239 0 
0 0 0 
-9.10132 0.0249179 0 
0.0249179 -9.05486 0 
0 0 0 
-0.963647 -0.00346764 0 
-0.00346764 -0.954012 0 
0 0 0 
-0.959469 -0.00786344 0 
-0.00786344 -0.958189 0 
0 0 0 
-0.959379 -0.00215046 0 
-0.00215046 -0.958279 0 
0 0 0 
-9.03643 0.00346433 0 
0.00346433 -9.04606 0 
0 0 0 
-9.04061 0.00785803 0 
0.00785803 -9.04188 0 
0 0 0 
-9.0407 0.00214701 0 
0.00214701 -9.04179 0 
0 0 0 
-1.16907 0.0374914 0 
0.0374914 -1.23941 0 
0 0 0 
-1.15602 0.0362598 0 
0.0362598 -1.25246 0 
0 0 0 
-1.16181 0.0483295 0 
0.0483295 -1.24667 0 
0 0 0 
-8.83246 -0.037344 0 
-0.037344 -8.76336 0 
0 0 0 
-8.85017 -0.0327632 0 
-0.0327632 -8.74565 0 
0 0 0 
-8.84685 -0.0447339 0 
-0.0447339 -8.74897 0 
0 0 0 
-8.94085 0.00691451 0 
0.00691451 -9.07563 0 
0 0 0 
-8.917 0.0187836 0 
0.0187836 -9.09948 0 
0 0 0 
-8.93372 -0.00467983 0 
-0.00467983 -9.08276 0 
0 0 0 
-1.05924 -0.0069186 0 
-0.0069186 -0.924446 0 
0 0 0 
-1.08309 -0.0187892 0 
-0.0187892 -0.900598 0 
0 0 0 
-1.06637 0.00467728 0 
0.00467728 -0.917313 0 
0 0 0 
-1.09988 0.00842678 0 
0.00842678 -0.972252 0 
0 0 0 
-1.10831 0.0106091 0 
0.0106091 -0.963814 0 
0 0 0 
-1.09188 -0.00545173 0 
-0.00545173 -0.98025 0 
0 0 0 
-8.90005 -0.00852393 0 
-0.00852393 -9.02767 0 
0 0 0 
-8.89162 -0.0107717 0 
-0.0107717 -9.0361 0 
0 0 0 
-8.90822 0.00544846 0 
0.00544846 -9.0195 0 
0 0 0 
-9.11454 -0.0137739 0 
-0.0137739 -9.08688 0 
0 0 0 
-9.11393 -0.0103388 0 
-0.0103388 -9.0875 0 
0 0 0 
-9.1101 -0.00712107 0 
-0.00712107 -9.09133 0 
0 0 0 
-0.88538 0.0137739 0 
0.0137739 -0.913039 0 
0 0 0 
-0.885994 0.0103382 0 
0.0103382 -0.912424 0 
0 0 0 
-0.889825 0.00712037 0 
0.00712037 -0.908593 0 
0 0 0 
-9.14071 0.000225991 0 
0.000225991 -9.11911 0 
0 0 0 
-9.1454 0.00654458 0 
0.00654458 -9.11443 0 
0 0 0 
-9.14935 0.0124258 0 
0.0124258 -9.11048 0 
0 0 0 
-0.859351 -0.000225967 0 
-0.000225967 -0.880957 0 
0 0 0 
-0.854669 -0.00654518 0 
-0.00654518 -0.885638 0 
0 0 0 
-0.850715 -0.0124259 0 
-0.0124259 -0.889592 0 
0 0 0 
-8.81651 0.0448868 0 
0.0448868 -8.82595 0 
0 0 0 
-8.82377 0.0432364 0 
0.0432364 -8.81869 0 
0 0 0 
-8.82016 0.0371322 0 
0.0371322 -8.8223 0 
0 0 0 
-0.0972308 0.0965658 0 
0.0965658 -0.0640522 0 
0 0 0 
-0.176028 0.0706139 0 
0.0706139 0.0147449 0 
0 0 0 
-0.151055 0.139845 0 
0.139845 -0.0102275 0 
0 0 0 
-9.90278 -0.0965387 0 
-0.0965387 -9.93595 0 
0 0 0 
-9.82397 -0.0705886 0 
-0.0705886 -10.0147 0 
0 0 0 
-9.84895 -0.139822 0 
-0.139822 -9.98978 0 
0 0 0 
-1.08324 0.00208294 0 
0.00208294 -0.937162 0 
0 0 0 
-1.08876 0.00707325 0 
0.00707325 -0.931642 0 
0 0 0 
-1.08514 0.000486739 0 
0.000486739 -0.935263 0 
0 0 0 
-8.91675 -0.00210851 0 
-0.00210851 -9.06283 0 
0 0 0 
-8.91122 -0.00709845 0 
-0.00709845 -9.06836 0 
0 0 0 
-8.91488 -0.000501278 0 
-0.000501278 -9.0647 0 
0 0 0 
-1.04369 0.020586 0 
0.020586 -0.94585 0 
0 0 0 
-1.05465 0.00965405 0 
0.00965405 -0.934882 0 
0 0 0 
-1.06885 0.0227638 0 
0.0227638 -0.920688 0 
0 0 0 
-8.95621 -0.0205501 0 
-0.0205501 -9.0541 0 
0 0 0 
-8.94523 -0.00962144 0 
-0.00962144 -9.06507 0 
0 0 0 
-8.93105 -0.0227171 0 
-0.0227171 -9.07925 0 
0 0 0 
-1.11032 0.0326327 0 
0.0326327 -1.2279 0 
0 0 0 
-1.11275 0.017147 0 
0.017147 -1.22547 0 
0 0 0 
-1.11667 0.0249586 0 
0.0249586 -1.22155 0 
0 0 0 
-8.8955 -0.0348657 0 
-0.0348657 -8.76591 0 
0 0 0 
-8.88839 -0.0140538 0 
-0.0140538 -8.77302 0 
0 0 0 
-8.87909 -0.0244607 0 
-0.0244607 -8.78232 0 
0 0 0 
-0.855861 -0.006589 0 
-0.006589 -0.945284 0 
0 0 0 
-0.850795 -0.0136059 0 
-0.0136059 -0.95035 0 
0 0 0 
-0.863239 -0.0121639 0 
-0.0121639 -0.937906 0 
0 0 0 
-9.14407 0.00658449 0 
0.00658449 -9.05463 0 
0 0 0 
-9.14913 0.0136042 0 
0.0136042 -9.04957 0 
0 0 0 
-9.13669 0.0121619 0 
0.0121619 -9.06202 0 
0 0 0 
-9.01334 0.0228227 0 
0.0228227 -9.03082 0 
0 0 0 
-9.00004 -0.00687546 0 
-0.00687546 -9.04412 0 
0 0 0 
-9.0353 0.00293342 0 
0.00293342 -9.00887 0 
0 0 0 
-0.987154 -0.0222716 0 
-0.0222716 -0.968745 0 
0 0 0 
-0.99955 0.0057811 0 
0.0057811 -0.956349 0 
0 0 0 
-0.964772 -0.00279058 0 
-0.00279058 -0.991127 0 
0 0 0 
-1.06467 -0.00267717 0 
-0.00267717 -1.18605 0 
0 0 0 
-1.07158 -0.000219044 0 
-0.000219044 -1.17914 0 
0 0 0 
-1.09091 -0.00839701 0 
-0.00839701 -1.15981 0 
0 0 0 
-8.93545 0.00269271 0 
0.00269271 -8.81409 0 
0 0 0 
-8.92854 0.000238555 0 
0.000238555 -8.82101 0 
0 0 0 
-8.90923 0.00840784 0 
0.00840784 -8.84032 0 
0 0 0 
-0.748783 -0.0925575 0 
-0.0925575 -0.799548 0 
0 0 0 
-0.741431 -0.117611 0 
-0.117611 -0.8069 0 
0 0 0 
-0.745441 -0.127896 0 
-0.127896 -0.80289 0 
0 0 0 
-9.25116 0.0925661 0 
0.0925661 -9.20039 0 
0 0 0 
-9.25851 0.117621 0 
0.117621 -9.19304 0 
0 0 0 
-9.2545 0.127906 0 
0.127906 -9.19705 0 
0 0 0 
-0.923293 0.0220068 0 
0.0220068 -0.967891 0 
0 0 0 
-0.929121 0.0273658 0 
0.0273658 -0.962064 0 
0 0 0 
-0.925303 0.022543 0 
0.022543 -0.965881 0 
0 0 0 
-9.0766 -0.0219529 0 
-0.0219529 -9.03202 0 
0 0 0 
-9.07071 -0.0273894 0 
-0.0273894 -9.03791 0 
0 0 0 
-9.07461 -0.0225409 0 
-0.0225409 -9.03402 0 
0 0 0 
-1.42492 -0.212362 0 
-0.212362 -1.58725 0 
0 0 0 
-1.6623 -0.0303809 0 
-0.0303809 -1.34987 0 
0 0 0 
-1.33384 -0.242824 0 
-0.242824 -1.67833 0 
0 0 0 
-8.57497 0.212372 0 
0.212372 -8.41264 0 
0 0 0 
-8.33763 0.0303837 0 
0.0303837 -8.64998 0 
0 0 0 
-8.66608 0.24281 0 
0.24281 -8.32153 0 
0 0 0 
-9.11585 0.0289413 0 
0.0289413 -9.18086 0 
0 0 0 
-9.09993 0.000399472 0 
0.000399472 -9.19678 0 
0 0 0 
-9.12646 0.00782957 0 
0.00782957 -9.17025 0 
0 0 0 
-0.884215 -0.0289437 0 
-0.0289437 -0.819203 0 
0 0 0 
-0.900137 -0.000399348 0 
-0.000399348 -0.803281 0 
0 0 0 
-0.873607 -0.00783 0 
-0.00783 -0.829811 0 
0 0 0 
-0.900285 0.0273627 0 
0.0273627 -0.962201 0 
0 0 0 
-0.90545 0.0234918 0 
0.0234918 -0.957036 0 
0 0 0 
-0.903246 0.0236104 0 
0.0236104 -0.95924 0 
0 0 0 
-9.09963 -0.0273739 0 
-0.0273739 -9.03774 0 
0 0 0 
-9.09446 -0.0235023 0 
-0.0235023 -9.04291 0 
0 0 0 
-9.09666 -0.0236229 0 
-0.0236229 -9.04071 0 
0 0 0 
-8.27338 0.543272 0 
0.543272 -7.48717 0 
0 0 0 
-7.70426 0.555264 0 
0.555264 -8.05629 0 
0 0 0 
-8.00706 0.250527 0 
0.250527 -7.7535 0 
0 0 0 
-1.64347 -0.59556 0 
-0.59556 -2.56987 0 
0 0 0 
-2.43259 -0.605477 0 
-0.605477 -1.78075 0 
0 0 0 
-2.04352 -0.0954313 0 
-0.0954313 -2.16982 0 
0 0 0 
-8.35865 0.595862 0 
0.595862 -7.43069 0 
0 0 0 
-7.56881 0.605652 0 
0.605652 -8.22053 0 
0 0 0 
-7.95728 0.0951657 0 
0.0951657 -7.83206 0 
0 0 0 
-1.72667 -0.543256 0 
-0.543256 -2.51286 0 
0 0 0 
-2.29577 -0.555248 0 
-0.555248 -1.94376 0 
0 0 0 
-1.99299 -0.250519 0 
-0.250519 -2.24654 0 
0 0 0 
-7.5672 -0.605852 0 
-0.605852 -8.22158 0 
0 0 0 
-8.35702 -0.595843 0 
-0.595843 -7.43175 0 
0 0 0 
-7.95773 -0.0949878 0 
-0.0949878 -7.83105 0 
0 0 0 
-2.28755 0.55723 0 
0.55723 -1.9532 0 
0 0 0 
-1.73294 0.545168 0 
0.545168 -2.50781 0 
0 0 0 
-1.99445 0.252451 0 
0.252451 -2.24631 0 
0 0 0 
-7.71234 -0.557216 0 
-0.557216 -8.04669 0 
0 0 0 
-8.26693 -0.545152 0 
-0.545152 -7.4921 0 
0 0 0 
-8.00544 -0.252443 0 
-0.252443 -7.75358 0 
0 0 0 
-2.4333 0.606004 0 
0.606004 -1.77884 0 
0 0 0 
-1.64332 0.595991 0 
0.595991 -2.56882 0 
0 0 0 
-2.04269 0.0950615 0 
0.0950615 -2.16945 0 
0 0 0 
-8.82067 0.0104727 0 
0.0104727 -8.77542 0 
0 0 0 
-8.81933 0.0101288 0 
0.0101288 -8.77676 0 
0 0 0 
-8.81758 0.014588 0 
0.014588 -8.77851 0 
0 0 0 
-9.26024 -0.0380434 0 
-0.0380434 -9.21804 0 
0 0 0 
-9.2558 -0.0269305 0 
-0.0269305 -9.22248 0 
0 0 0 
-9.2671 -0.0288269 0 
-0.0288269 -9.21118 0 
0 0 0 
-0.739702 0.0380393 0 
0.0380393 -0.781902 0 
0 0 0 
-0.744145 0.0269267 0 
0.0269267 -0.777458 0 
0 0 0 
-0.73284 0.0288233 0 
0.0288233 -0.788764 0 
0 0 0 
-1.17938 -0.0100873 0 
-0.0100873 -1.22508 0 
0 0 0 
-1.18043 -0.010205 0 
-0.010205 -1.22402 0 
0 0 0 
-1.18274 -0.0149709 0 
-0.0149709 -1.22171 0 
0 0 0 
-1.16861 0.00111274 0 
0.00111274 -1.16541 0 
0 0 0 
-1.16825 0.00152537 0 
0.00152537 -1.16577 0 
0 0 0 
-1.16733 -4.7751e-05 0 
-4.7751e-05 -1.1667 0 
0 0 0 
-1.16783 -0.00093014 0 
-0.00093014 -1.16591 0 
0 0 0 
-1.16829 -0.000421307 0 
-0.000421307 -1.16545 0 
0 0 0 
-1.16807 -0.00147047 0 
-0.00147047 -1.16567 0 
0 0 0 
-8.83286 -1.57318e-05 0 
-1.57318e-05 -8.83515 0 
0 0 0 
-8.83317 -0.000888566 0 
-0.000888566 -8.83485 0 
0 0 0 
-8.83379 0.00092316 0 
0.00092316 -8.83423 0 
0 0 0 
-9.11496 0.00899353 0 
0.00899353 -9.06601 0 
0 0 0 
-9.11512 0.00863076 0 
0.00863076 -9.06585 0 
0 0 0 
-9.11459 0.00837237 0 
0.00837237 -9.06637 0 
0 0 0 
-0.884967 -0.00899369 0 
-0.00899369 -0.933911 0 
0 0 0 
-0.884807 -0.00863076 0 
-0.00863076 -0.934071 0 
0 0 0 
-0.885332 -0.00837315 0 
-0.00837315 -0.933546 0 
0 0 0 
-8.83149 0.000585397 0 
0.000585397 -8.82938 0 
0 0 0 
-8.82966 0.00389118 0 
0.00389118 -8.8312 0 
0 0 0 
-8.82977 0.000506299 0 
0.000506299 -8.8311 0 
0 0 0 
-8.83053 -0.00334158 0 
-0.00334158 -8.82988 0 
0 0 0 
-8.82894 -0.00256795 0 
-0.00256795 -8.83147 0 
0 0 0 
-8.82917 -0.00239092 0 
-0.00239092 -8.83125 0 
0 0 0 
-0.850723 -0.0115094 0 
-0.0115094 -0.934762 0 
0 0 0 
-0.853235 -0.00579086 0 
-0.00579086 -0.93225 0 
0 0 0 
-0.856492 -0.0101913 0 
-0.0101913 -0.928993 0 
0 0 0 
-9.14934 0.0115084 0 
0.0115084 -9.06531 0 
0 0 0 
-9.14683 0.00578986 0 
0.00578986 -9.06782 0 
0 0 0 
-9.14357 0.0101899 0 
0.0101899 -9.07108 0 
0 0 0 
-1.17253 -0.00216674 0 
-0.00216674 -1.16913 0 
0 0 0 
-1.17065 -0.00230999 0 
-0.00230999 -1.17101 0 
0 0 0 
-1.17261 -0.00190409 0 
-0.00190409 -1.16904 0 
0 0 0 
-0.736509 0.0671724 0 
0.0671724 -0.690379 0 
0 0 0 
-0.717104 0.0919398 0 
0.0919398 -0.709784 0 
0 0 0 
-0.720192 0.0389391 0 
0.0389391 -0.706696 0 
0 0 0 
-9.26343 -0.0671792 0 
-0.0671792 -9.30957 0 
0 0 0 
-9.28284 -0.0919478 0 
-0.0919478 -9.29016 0 
0 0 0 
-9.27975 -0.0389444 0 
-0.0389444 -9.29325 0 
0 0 0 
-8.36091 -0.0258763 0 
-0.0258763 -8.64383 0 
0 0 0 
-8.55459 -0.22381 0 
-0.22381 -8.45014 0 
0 0 0 
-8.64264 -0.254606 0 
-0.254606 -8.3621 0 
0 0 0 
-1.63914 0.0258755 0 
0.0258755 -1.35624 0 
0 0 0 
-1.44547 0.223804 0 
0.223804 -1.54992 0 
0 0 0 
-1.35743 0.254599 0 
0.254599 -1.63796 0 
0 0 0 
-8.82304 -0.0337304 0 
-0.0337304 -8.78165 0 
0 0 0 
-8.83453 -0.00798383 0 
-0.00798383 -8.77016 0 
0 0 0 
-8.81487 0.00384239 0 
0.00384239 -8.78982 0 
0 0 0 
-8.82586 0.00316047 0 
0.00316047 -8.82648 0 
0 0 0 
-8.82559 0.000912702 0 
0.000912702 -8.82676 0 
0 0 0 
-8.82506 0.00312363 0 
0.00312363 -8.82729 0 
0 0 0 
-1.15806 -0.0129438 0 
-0.0129438 -1.1908 0 
0 0 0 
-1.168 -0.0301281 0 
-0.0301281 -1.18086 0 
0 0 0 
-1.17437 -0.00498201 0 
-0.00498201 -1.17449 0 
0 0 0 
-1.18074 -0.00252357 0 
-0.00252357 -1.19202 0 
0 0 0 
-1.17928 0.00222042 0 
0.00222042 -1.19348 0 
0 0 0 
-1.18055 -0.00149817 0 
-0.00149817 -1.19222 0 
0 0 0 
-1.17774 0.0321488 0 
0.0321488 -1.21732 0 
0 0 0 
-1.16863 0.00883907 0 
0.00883907 -1.22643 0 
0 0 0 
-1.18702 -0.00378072 0 
-0.00378072 -1.20804 0 
0 0 0 
-9.12735 0.0204918 0 
0.0204918 -9.05801 0 
0 0 0 
-9.11842 0.0192252 0 
0.0192252 -9.06694 0 
0 0 0 
-9.12183 0.0143617 0 
0.0143617 -9.06353 0 
0 0 0 
-0.872572 -0.0204912 0 
-0.0204912 -0.941912 0 
0 0 0 
-0.881503 -0.0192247 0 
-0.0192247 -0.93298 0 
0 0 0 
-0.878091 -0.0143628 0 
-0.0143628 -0.936392 0 
0 0 0 
-1.17035 0.00429211 0 
0.00429211 -1.16839 0 
0 0 0 
-1.16878 0.00118352 0 
0.00118352 -1.16996 0 
0 0 0 
-1.17026 0.00114259 0 
0.00114259 -1.16849 0 
0 0 0 
-1.1734 0.000464025 0 
0.000464025 -1.17271 0 
0 0 0 
-1.17293 0.002268 0 
0.002268 -1.17317 0 
0 0 0 
-1.17392 0.002235 0 
0.002235 -1.17218 0 
0 0 0 
-1.17286 0.000787089 0 
0.000787089 -1.19034 0 
0 0 0 
-1.17556 -0.00801544 0 
-0.00801544 -1.18763 0 
0 0 0 
-1.17873 0.00655129 0 
0.00655129 -1.18447 0 
0 0 0 
-8.83063 -0.00032587 0 
-0.00032587 -8.83411 0 
0 0 0 
-8.83096 -0.00109632 0 
-0.00109632 -8.83378 0 
0 0 0 
-8.83067 -0.00142729 0 
-0.00142729 -8.83407 0 
0 0 0 
-8.82762 -0.00244161 0 
-0.00244161 -8.82871 0 
0 0 0 
-8.8277 -0.00122443 0 
-0.00122443 -8.82863 0 
0 0 0 
-8.82849 -0.00210298 0 
-0.00210298 -8.82784 0 
0 0 0 
-8.83181 0.000190218 0 
0.000190218 -8.83559 0 
0 0 0 
-8.83202 -0.000626123 0 
-0.000626123 -8.83537 0 
0 0 0 
-8.83261 0.00114225 0 
0.00114225 -8.83478 0 
0 0 0 
-8.83049 0.0025626 0 
0.0025626 -8.83378 0 
0 0 0 
-8.82954 0.00144751 0 
0.00144751 -8.83473 0 
0 0 0 
-8.83169 -0.000168379 0 
-0.000168379 -8.83257 0 
0 0 0 
-1.17305 -0.0018145 0 
-0.0018145 -1.17224 0 
0 0 0 
-1.17379 -0.00238515 0 
-0.00238515 -1.17149 0 
0 0 0 
-1.17223 -0.00173857 0 
-0.00173857 -1.17305 0 
0 0 0 
-1.16913 -0.00140771 0 
-0.00140771 -1.16639 0 
0 0 0 
-1.16946 -0.000533304 0 
-0.000533304 -1.16607 0 
0 0 0 
-1.16939 -0.00185853 0 
-0.00185853 -1.16613 0 
0 0 0 
-1.16793 -0.00101368 0 
-0.00101368 -1.16486 0 
0 0 0 
-1.16822 -0.000173433 0 
-0.000173433 -1.16457 0 
0 0 0 
-1.16733 0.000777167 0 
0.000777167 -1.16545 0 
0 0 0 
-1.16979 0.000954902 0 
0.000954902 -1.16533 0 
0 0 0 
-1.16902 0.00190018 0 
0.00190018 -1.1661 0 
0 0 0 
-1.16802 -0.000346705 0 
-0.000346705 -1.1671 0 
0 0 0 
-9.08879 0.0282946 0 
0.0282946 -9.04054 0 
0 0 0 
-9.08721 0.0198567 0 
0.0198567 -9.04212 0 
0 0 0 
-9.09188 0.0279986 0 
0.0279986 -9.03746 0 
0 0 0 
-0.911278 -0.0282993 0 
-0.0282993 -0.95953 0 
0 0 0 
-0.912859 -0.0198597 0 
-0.0198597 -0.957949 0 
0 0 0 
-0.908191 -0.0280031 0 
-0.0280031 -0.962617 0 
0 0 0 
-0.905844 5.33005e-05 0 
5.33005e-05 -0.908783 0 
0 0 0 
-0.908158 0.000609941 0 
0.000609941 -0.906468 0 
0 0 0 
-0.906342 0.00222194 0 
0.00222194 -0.908285 0 
0 0 0 
-0.907937 -0.000946584 0 
-0.000946584 -0.90758 0 
0 0 0 
-0.906219 1.69421e-05 0 
1.69421e-05 -0.909298 0 
0 0 0 
-0.907366 -0.00118849 0 
-0.00118849 -0.908151 0 
0 0 0 
-9.09213 0.000946488 0 
0.000946488 -9.09249 0 
0 0 0 
-9.09385 -1.6953e-05 0 
-1.6953e-05 -9.09077 0 
0 0 0 
-9.0927 0.00118838 0 
0.00118838 -9.09192 0 
0 0 0 
-9.09423 -5.32851e-05 0 
-5.32851e-05 -9.09129 0 
0 0 0 
-9.09191 -0.000609878 0 
-0.000609878 -9.0936 0 
0 0 0 
-9.09373 -0.00222174 0 
-0.00222174 -9.09179 0 
0 0 0 
-1.24253 0.180071 0 
0.180071 -1.23467 0 
0 0 0 
-1.20445 0.056962 0 
0.056962 -1.27276 0 
0 0 0 
-1.42465 0.0947981 0 
0.0947981 -1.05255 0 
0 0 0 
-8.75753 -0.180076 0 
-0.180076 -8.76539 0 
0 0 0 
-8.79562 -0.056963 0 
-0.056963 -8.72731 0 
0 0 0 
-8.57541 -0.0948002 0 
-0.0948002 -8.94752 0 
0 0 0 
-1.17262 0.0170772 0 
0.0170772 -1.18463 0 
0 0 0 
-1.16975 0.0225555 0 
0.0225555 -1.18749 0 
0 0 0 
-1.1671 0.0133579 0 
0.0133579 -1.19015 0 
0 0 0 
-9.08883 0.000712101 0 
0.000712101 -9.08995 0 
0 0 0 
-9.09094 0.000158776 0 
0.000158776 -9.08783 0 
0 0 0 
-9.09047 0.00221419 0 
0.00221419 -9.0883 0 
0 0 0 
-9.09028 -5.3993e-05 0 
-5.3993e-05 -9.08696 0 
0 0 0 
-9.08827 -0.000960944 0 
-0.000960944 -9.08896 0 
0 0 0 
-9.08923 -0.00157197 0 
-0.00157197 -9.08801 0 
0 0 0 
-0.911095 -0.000712046 0 
-0.000712046 -0.909975 0 
0 0 0 
-0.908978 -0.00015873 0 
-0.00015873 -0.912092 0 
0 0 0 
-0.909448 -0.00221409 0 
-0.00221409 -0.911623 0 
0 0 0 
-0.90964 5.39647e-05 0 
5.39647e-05 -0.912964 0 
0 0 0 
-0.911648 0.000960871 0 
0.000960871 -0.910956 0 
0 0 0 
-0.910696 0.0015719 0 
0.0015719 -0.911909 0 
0 0 0 
-8.8324 0.00107744 0 
0.00107744 -8.83448 0 
0 0 0 
-8.83242 0.00108728 0 
0.00108728 -8.83446 0 
0 0 0 
-8.833 0.000357477 0 
0.000357477 -8.83388 0 
0 0 0 
-1.13019 -0.069338 0 
-0.069338 -1.23594 0 
0 0 0 
-1.15738 -0.0298214 0 
-0.0298214 -1.20876 0 
0 0 0 
-1.10075 -0.00666913 0 
-0.00666913 -1.26538 0 
0 0 0 
-9.11313 0.024963 0 
0.024963 -9.04647 0 
0 0 0 
-9.11364 0.0225567 0 
0.0225567 -9.04596 0 
0 0 0 
-9.11522 0.0162005 0 
0.0162005 -9.04437 0 
0 0 0 
-0.88694 -0.0249666 0 
-0.0249666 -0.953608 0 
0 0 0 
-0.886432 -0.0225602 0 
-0.0225602 -0.954116 0 
0 0 0 
-0.884847 -0.0162041 0 
-0.0162041 -0.955701 0 
0 0 0 
-8.83165 -0.00060063 0 
-0.00060063 -8.83447 0 
0 0 0 
-8.83213 -0.00116029 0 
-0.00116029 -8.834 0 
0 0 0 
-8.83186 -0.00170568 0 
-0.00170568 -8.83427 0 
0 0 0 
-1.16692 -0.000747655 0 
-0.000747655 -1.16519 0 
0 0 0 
-1.16717 8.57472e-05 0 
8.57472e-05 -1.16494 0 
0 0 0 
-1.16636 0.000929084 0 
0.000929084 -1.16574 0 
0 0 0 
-1.14067 -0.0426848 0 
-0.0426848 -1.25166 0 
0 0 0 
-1.15106 -0.0689678 0 
-0.0689678 -1.24127 0 
0 0 0 
-1.18165 -0.00538643 0 
-0.00538643 -1.21068 0 
0 0 0 
-9.13435 0.0185075 0 
0.0185075 -9.04947 0 
0 0 0 
-9.1297 0.0235555 0 
0.0235555 -9.05411 0 
0 0 0 
-9.12194 0.0152601 0 
0.0152601 -9.06188 0 
0 0 0 
-0.865582 -0.0185084 0 
-0.0185084 -0.950448 0 
0 0 0 
-0.870225 -0.0235545 0 
-0.0235545 -0.945805 0 
0 0 0 
-0.877989 -0.0152616 0 
-0.0152616 -0.938041 0 
0 0 0 
-8.85947 0.0427396 0 
0.0427396 -8.7486 0 
0 0 0 
-8.8491 0.0689628 0 
0.0689628 -8.75897 0 
0 0 0 
-8.81868 0.00545269 0 
0.00545269 -8.7894 0 
0 0 0 
-1.12859 0.0767219 0 
0.0767219 -1.21321 0 
0 0 0 
-1.09877 0.0319618 0 
0.0319618 -1.24303 0 
0 0 0 
-1.14939 0.00606544 0 
0.00606544 -1.19242 0 
0 0 0 
-1.06709 -0.0197415 0 
-0.0197415 -0.95883 0 
0 0 0 
-1.06863 -0.0322 0 
-0.0322 -0.957288 0 
0 0 0 
-1.06813 -0.0108509 0 
-0.0108509 -0.957788 0 
0 0 0 
-8.933 0.0197371 0 
0.0197371 -9.04125 0 
0 0 0 
-8.93146 0.0321975 0 
0.0321975 -9.04279 0 
0 0 0 
-8.93196 0.0108444 0 
0.0108444 -9.04229 0 
0 0 0 
-8.87015 -0.0794179 0 
-0.0794179 -8.79028 0 
0 0 0 
-8.90095 -0.0337487 0 
-0.0337487 -8.75948 0 
0 0 0 
-8.8531 -0.00397304 0 
-0.00397304 -8.80734 0 
0 0 0 
-9.19663 0.0290353 0 
0.0290353 -9.17859 0 
0 0 0 
-9.20687 0.0325326 0 
0.0325326 -9.16835 0 
0 0 0 
-9.20446 0.0269134 0 
0.0269134 -9.17076 0 
0 0 0 
-0.803435 -0.0290378 0 
-0.0290378 -0.821469 0 
0 0 0 
-0.793191 -0.0325353 0 
-0.0325353 -0.831713 0 
0 0 0 
-0.795604 -0.0269157 0 
-0.0269157 -0.8293 0 
0 0 0 
-9.0872 -0.006053 0 
-0.006053 -9.29685 0 
0 0 0 
-9.11337 -0.0339018 0 
-0.0339018 -9.27068 0 
0 0 0 
-9.15024 0.036245 0 
0.036245 -9.23381 0 
0 0 0 
-0.912926 0.0060478 0 
0.0060478 -0.703276 0 
0 0 0 
-0.886747 0.0339987 0 
0.0339987 -0.729454 0 
0 0 0 
-0.849945 -0.0361673 0 
-0.0361673 -0.766257 0 
0 0 0 
-0.170156 -0.065589 0 
-0.065589 0.0120152 0 
0 0 0 
-0.109913 -0.0897577 0 
-0.0897577 -0.048228 0 
0 0 0 
-0.143086 -0.130382 0 
-0.130382 -0.0150545 0 
0 0 0 
-9.82984 0.0656138 0 
0.0656138 -10.012 0 
0 0 0 
-9.89008 0.0897844 0 
0.0897844 -9.95177 0 
0 0 0 
-9.85691 0.130405 0 
0.130405 -9.98494 0 
0 0 0 
-9.13054 0.000305101 0 
0.000305101 -9.05434 0 
0 0 0 
-9.14193 0.00326653 0 
0.00326653 -9.04295 0 
0 0 0 
-9.13481 0.00987718 0 
0.00987718 -9.05006 0 
0 0 0 
-0.869387 -0.000310099 0 
-0.000310099 -0.945582 0 
0 0 0 
-0.858 -0.00327071 0 
-0.00327071 -0.95697 0 
0 0 0 
-0.865113 -0.00987914 0 
-0.00987914 -0.949857 0 
0 0 0 
-9.39904 0.0817637 0 
0.0817637 -9.58403 0 
0 0 0 
-9.39645 0.112668 0 
0.112668 -9.58662 0 
0 0 0 
-9.42525 0.117523 0 
0.117523 -9.55782 0 
0 0 0 
-0.601004 -0.0817705 0 
-0.0817705 -0.416005 0 
0 0 0 
-0.603599 -0.112677 0 
-0.112677 -0.413409 0 
0 0 0 
-0.574793 -0.117534 0 
-0.117534 -0.442216 0 
0 0 0 
-0.717723 0.0500385 0 
0.0500385 -0.776248 0 
0 0 0 
-0.722095 0.0436341 0 
0.0436341 -0.771875 0 
0 0 0 
-0.726454 0.0222176 0 
0.0222176 -0.767516 0 
0 0 0 
-9.28222 -0.0500434 0 
-0.0500434 -9.22369 0 
0 0 0 
-9.27785 -0.0436391 0 
-0.0436391 -9.22807 0 
0 0 0 
-9.27349 -0.0222213 0 
-0.0222213 -9.23243 0 
0 0 0 
-9.09784 -0.0304461 0 
-0.0304461 -9.04944 0 
0 0 0 
-9.09997 -0.0316314 0 
-0.0316314 -9.04731 0 
0 0 0 
-9.09413 -0.0278715 0 
-0.0278715 -9.05315 0 
0 0 0 
-0.902067 0.0304783 0 
0.0304783 -0.950489 0 
0 0 0 
-0.89992 0.0316396 0 
0.0316396 -0.952636 0 
0 0 0 
-0.905789 0.0278604 0 
0.0278604 -0.946767 0 
0 0 0 
-0.401822 0.0634794 0 
0.0634794 -0.0798115 0 
0 0 0 
-0.422486 -0.0280602 0 
-0.0280602 -0.0591475 0 
0 0 0 
-0.487442 -0.0153633 0 
-0.0153633 0.00580807 0 
0 0 0 
-9.5982 -0.063475 0 
-0.063475 -9.9202 0 
0 0 0 
-9.57754 0.0280671 0 
0.0280671 -9.94086 0 
0 0 0 
-9.51258 0.0153664 0 
0.0153664 -10.0058 0 
0 0 0 
-1.12515 0.00178402 0 
0.00178402 -1.17715 0 
0 0 0 
-0.985952 -0.0441746 0 
-0.0441746 -1.31634 0 
0 0 0 
-1.04959 -0.112212 0 
-0.112212 -1.2527 0 
0 0 0 
-8.87498 -0.00182826 0 
-0.00182826 -8.82265 0 
0 0 0 
-9.01391 0.0441085 0 
0.0441085 -8.68372 0 
0 0 0 
-8.95045 0.112195 0 
0.112195 -8.74718 0 
0 0 0 
-8.93788 0.0508874 0 
0.0508874 -8.99514 0 
0 0 0 
-8.95612 0.0902225 0 
0.0902225 -8.97691 0 
0 0 0 
-8.90769 0.0538528 0 
0.0538528 -9.02534 0 
0 0 0 
-0.710074 -0.125261 0 
-0.125261 -0.400003 0 
0 0 0 
-0.725674 -0.0811528 0 
-0.0811528 -0.384403 0 
0 0 0 
-0.697801 -0.148082 0 
-0.148082 -0.412276 0 
0 0 0 
-9.28998 0.125252 0 
0.125252 -9.60003 0 
0 0 0 
-9.27438 0.081146 0 
0.081146 -9.61563 0 
0 0 0 
-9.30225 0.148072 0 
0.148072 -9.58776 0 
0 0 0 
-9.02152 -0.00579298 0 
-0.00579298 -9.04383 0 
0 0 0 
-9.03301 -0.0227745 0 
-0.0227745 -9.03235 0 
0 0 0 
-9.04657 0.00329374 0 
0.00329374 -9.01879 0 
0 0 0 
-0.978769 0.00510945 0 
0.00510945 -0.955496 0 
0 0 0 
-0.967326 0.0220678 0 
0.0220678 -0.966939 0 
0 0 0 
-0.952822 -0.00321435 0 
-0.00321435 -0.981443 0 
0 0 0 
-1.07079 -0.0425897 0 
-0.0425897 -0.899851 0 
0 0 0 
-1.04512 -0.0127621 0 
-0.0127621 -0.925524 0 
0 0 0 
-1.04946 -0.0627013 0 
-0.0627013 -0.921183 0 
0 0 0 
-8.92915 0.0425602 0 
0.0425602 -9.10004 0 
0 0 0 
-8.95489 0.0127177 0 
0.0127177 -9.0743 0 
0 0 0 
-8.95055 0.0626761 0 
0.0626761 -9.07864 0 
0 0 0 
-9.0967 0.00487159 0 
0.00487159 -9.13496 0 
0 0 0 
-9.1014 -0.0121581 0 
-0.0121581 -9.13025 0 
0 0 0 
-9.11945 0.0154686 0 
0.0154686 -9.11221 0 
0 0 0 
-0.903366 -0.00487123 0 
-0.00487123 -0.865111 0 
0 0 0 
-0.898666 0.0121596 0 
0.0121596 -0.869812 0 
0 0 0 
-0.880616 -0.0154694 0 
-0.0154694 -0.887861 0 
0 0 0 
-0.813829 0.0438953 0 
0.0438953 -0.699949 0 
0 0 0 
-0.798906 0.099784 0 
0.099784 -0.714872 0 
0 0 0 
-0.775138 0.0701879 0 
0.0701879 -0.738639 0 
0 0 0 
-9.18611 -0.0439015 0 
-0.0439015 -9.3 0 
0 0 0 
-9.20103 -0.0997925 0 
-0.0997925 -9.28507 0 
0 0 0 
-9.2248 -0.0701952 0 
-0.0701952 -9.26131 0 
0 0 0 
-8.90901 0.0117479 0 
0.0117479 -9.03671 0 
0 0 0 
-8.91132 -0.0101859 0 
-0.0101859 -9.03439 0 
0 0 0 
-8.90789 0.0117082 0 
0.0117082 -9.03783 0 
0 0 0 
-1.09108 -0.0117464 0 
-0.0117464 -0.963381 0 
0 0 0 
-1.08877 0.0101911 0 
0.0101911 -0.965696 0 
0 0 0 
-1.09221 -0.0117034 0 
-0.0117034 -0.962255 0 
0 0 0 
-9.46385 0.0908077 0 
0.0908077 -9.87395 0 
0 0 0 
-9.50199 0.0543657 0 
0.0543657 -9.83581 0 
0 0 0 
-9.45196 0.0512557 0 
0.0512557 -9.88584 0 
0 0 0 
-0.536196 -0.0908183 0 
-0.0908183 -0.126063 0 
0 0 0 
-0.498056 -0.054374 0 
-0.054374 -0.164203 0 
0 0 0 
-0.548085 -0.0512581 0 
-0.0512581 -0.114174 0 
0 0 0 
-0.71912 -0.0292127 0 
-0.0292127 -0.742595 0 
0 0 0 
-0.700666 -0.0220764 0 
-0.0220764 -0.761049 0 
0 0 0 
-0.674195 -0.036807 0 
-0.036807 -0.787521 0 
0 0 0 
-9.28093 0.0292102 0 
0.0292102 -9.25746 0 
0 0 0 
-9.29939 0.0220745 0 
0.0220745 -9.23901 0 
0 0 0 
-9.32586 0.036804 0 
0.036804 -9.21254 0 
0 0 0 
-0.859103 -0.0138912 0 
-0.0138912 -0.947745 0 
0 0 0 
-0.863039 -0.010836 0 
-0.010836 -0.943809 0 
0 0 0 
-0.860535 -0.0165443 0 
-0.0165443 -0.946313 0 
0 0 0 
-9.14096 0.0138895 0 
0.0138895 -9.05233 0 
0 0 0 
-9.13703 0.010834 0 
0.010834 -9.05626 0 
0 0 0 
-9.13953 0.0165424 0 
0.0165424 -9.05376 0 
0 0 0 
-1.06246 -0.0508214 0 
-0.0508214 -1.00481 0 
0 0 0 
-1.04412 -0.090091 0 
-0.090091 -1.02316 0 
0 0 0 
-1.09229 -0.0538947 0 
-0.0538947 -0.974984 0 
0 0 0 
-8.98519 -0.0234963 0 
-0.0234963 -8.95444 0 
0 0 0 
-9.07072 -0.0260889 0 
-0.0260889 -8.86891 0 
0 0 0 
-9.034 0.0296953 0 
0.0296953 -8.90563 0 
0 0 0 
-8.89949 -0.00972702 0 
-0.00972702 -8.99244 0 
0 0 0 
-8.91858 -0.00606481 0 
-0.00606481 -8.97335 0 
0 0 0 
-8.90984 0.0362426 0 
0.0362426 -8.98209 0 
0 0 0 
-1.10062 0.00973668 0 
0.00973668 -1.00765 0 
0 0 0 
-1.08151 0.00608097 0 
0.00608097 -1.02677 0 
0 0 0 
-1.09026 -0.0362637 0 
-0.0362637 -1.01802 0 
0 0 0 
-1.09738 -0.0913692 0 
-0.0913692 -1.29557 0 
0 0 0 
-1.13097 -0.0399903 0 
-0.0399903 -1.26198 0 
0 0 0 
-1.07987 -0.0541933 0 
-0.0541933 -1.31308 0 
0 0 0 
-0.888274 0.01868 0 
0.01868 -0.847609 0 
0 0 0 
-0.882061 -0.0271767 0 
-0.0271767 -0.853822 0 
0 0 0 
-0.921079 -0.0249434 0 
-0.0249434 -0.814804 0 
0 0 0 
-9.11168 -0.0186831 0 
-0.0186831 -9.15228 0 
0 0 0 
-9.11788 0.0272547 0 
0.0272547 -9.14608 0 
0 0 0 
-9.07883 0.0250239 0 
0.0250239 -9.18513 0 
0 0 0 
-1.12363 -0.023368 0 
-0.023368 -1.32017 0 
0 0 0 
-1.11653 -0.00641193 0 
-0.00641193 -1.32727 0 
0 0 0 
-1.14276 -0.045789 0 
-0.045789 -1.30104 0 
0 0 0 
-8.97417 -0.00402779 0 
-0.00402779 -9.06826 0 
0 0 0 
-8.95709 0.0205473 0 
0.0205473 -9.08534 0 
0 0 0 
-8.9511 0.00894672 0 
0.00894672 -9.09133 0 
0 0 0 
-1.02591 0.00402331 0 
0.00402331 -0.931815 0 
0 0 0 
-1.04299 -0.0205533 0 
-0.0205533 -0.914733 0 
0 0 0 
-1.04899 -0.00895226 0 
-0.00895226 -0.908742 0 
0 0 0 
-0.845323 0.000590615 0 
0.000590615 -0.934676 0 
0 0 0 
-0.839389 -0.0013788 0 
-0.0013788 -0.94061 0 
0 0 0 
-0.841379 -0.000969794 0 
-0.000969794 -0.93862 0 
0 0 0 
-9.15474 -0.000590815 0 
-0.000590815 -9.0654 0 
0 0 0 
-9.16068 0.00137847 0 
0.00137847 -9.05946 0 
0 0 0 
-9.15869 0.000969486 0 
0.000969486 -9.06145 0 
0 0 0 
-1.04005 -0.0208754 0 
-0.0208754 -0.943173 0 
0 0 0 
-1.04575 -0.0353287 0 
-0.0353287 -0.937469 0 
0 0 0 
-1.03717 -0.0281007 0 
-0.0281007 -0.946054 0 
0 0 0 
-8.96004 0.0208694 0 
0.0208694 -9.0569 0 
0 0 0 
-8.95433 0.0353185 0 
0.0353185 -9.06261 0 
0 0 0 
-8.96292 0.0280934 0 
0.0280934 -9.05402 0 
0 0 0 
-1.01484 0.0235533 0 
0.0235533 -1.04527 0 
0 0 0 
-0.928965 0.0260481 0 
0.0260481 -1.13115 0 
0 0 0 
-0.965806 -0.0297471 0 
-0.0297471 -1.0943 0 
0 0 0 
-9.35082 0.0493382 0 
0.0493382 -9.32508 0 
0 0 0 
-9.35962 0.0537994 0 
0.0537994 -9.31627 0 
0 0 0 
-9.38002 0.0612527 0 
0.0612527 -9.29588 0 
0 0 0 
-0.649235 -0.0493422 0 
-0.0493422 -0.67497 0 
0 0 0 
-0.640427 -0.0538038 0 
-0.0538038 -0.683778 0 
0 0 0 
-0.620032 -0.0612577 0 
-0.0612577 -0.704173 0 
0 0 0 
-0.944052 0.0360118 0 
0.0360118 -0.962784 0 
0 0 0 
-0.934914 0.0378704 0 
0.0378704 -0.971921 0 
0 0 0 
-0.937323 0.0298724 0 
0.0298724 -0.969513 0 
0 0 0 
-9.05585 -0.0360379 0 
-0.0360379 -9.03708 0 
0 0 0 
-9.06492 -0.0378298 0 
-0.0378298 -9.02801 0 
0 0 0 
-9.06259 -0.0300087 0 
-0.0300087 -9.03034 0 
0 0 0 
-1.08817 0.00136106 0 
0.00136106 -0.9305 0 
0 0 0 
-1.08597 -0.00679914 0 
-0.00679914 -0.932696 0 
0 0 0 
-1.08167 -0.00124514 0 
-0.00124514 -0.937 0 
0 0 0 
-8.91193 -0.00135978 0 
-0.00135978 -9.06958 0 
0 0 0 
-8.91412 0.00680031 0 
0.00680031 -9.06738 0 
0 0 0 
-8.91842 0.00124408 0 
0.00124408 -9.06308 0 
0 0 0 
-8.64916 -0.139812 0 
-0.139812 -8.63659 0 
0 0 0 
-8.52605 -0.0961567 0 
-0.0961567 -8.75971 0 
0 0 0 
-8.49572 -0.052284 0 
-0.052284 -8.79004 0 
0 0 0 
-1.3509 0.139808 0 
0.139808 -1.36347 0 
0 0 0 
-1.47401 0.096154 0 
0.096154 -1.24036 0 
0 0 0 
-1.50434 0.0522825 0 
0.0522825 -1.21003 0 
0 0 0 
-1.06894 0.0213038 0 
0.0213038 -0.916352 0 
0 0 0 
-1.071 0.0272429 0 
0.0272429 -0.91429 0 
0 0 0 
-1.05574 0.0200485 0 
0.0200485 -0.929549 0 
0 0 0 
-8.93115 -0.0213037 0 
-0.0213037 -9.08372 0 
0 0 0 
-8.92908 -0.0272451 0 
-0.0272451 -9.08578 0 
0 0 0 
-8.94435 -0.0200483 0 
-0.0200483 -9.07052 0 
0 0 0 
-0.987687 -0.00962338 0 
-0.00962338 -1.03742 0 
0 0 0 
-0.99129 0.00820557 0 
0.00820557 -1.03382 0 
0 0 0 
-0.995439 -0.00616516 0 
-0.00616516 -1.02967 0 
0 0 0 
-9.01239 0.00962235 0 
0.00962235 -8.96264 0 
0 0 0 
-9.00879 -0.00820625 0 
-0.00820625 -8.96625 0 
0 0 0 
-9.00464 0.00616243 0 
0.00616243 -8.9704 0 
0 0 0 
-0.880781 0.0236924 0 
0.0236924 -0.959012 0 
0 0 0 
-0.885795 0.0169687 0 
0.0169687 -0.953997 0 
0 0 0 
-0.891272 0.0222114 0 
0.0222114 -0.948521 0 
0 0 0 
-9.11914 -0.0236955 0 
-0.0236955 -9.04092 0 
0 0 0 
-9.11412 -0.0169711 0 
-0.0169711 -9.04594 0 
0 0 0 
-9.10864 -0.0222144 0 
-0.0222144 -9.05141 0 
0 0 0 
-1.66156 0.143761 0 
0.143761 -1.55783 0 
0 0 0 
-1.39636 0.287372 0 
0.287372 -1.82303 0 
0 0 0 
-1.25555 0.14672 0 
0.14672 -1.96384 0 
0 0 0 
-8.33838 -0.14374 0 
-0.14374 -8.44198 0 
0 0 0 
-8.6035 -0.287418 0 
-0.287418 -8.17686 0 
0 0 0 
-8.7443 -0.146741 0 
-0.146741 -8.03606 0 
0 0 0 
-9.10676 -0.0100006 0 
-0.0100006 -9.07009 0 
0 0 0 
-9.11486 -0.0123394 0 
-0.0123394 -9.06199 0 
0 0 0 
-9.11074 -0.00277103 0 
-0.00277103 -9.06611 0 
0 0 0 
-0.893158 0.01 0 
0.01 -0.929831 0 
0 0 0 
-0.885058 0.0123389 0 
0.0123389 -0.93793 0 
0 0 0 
-0.88918 0.00276942 0 
0.00276942 -0.933808 0 
0 0 0 
-8.63874 0.2498 0 
0.2498 -8.17915 0 
0 0 0 
-8.38213 0.156203 0 
0.156203 -8.43576 0 
0 0 0 
-8.788 0.111625 0 
0.111625 -8.02989 0 
0 0 0 
-1.36132 -0.249792 0 
-0.249792 -1.8209 0 
0 0 0 
-1.61793 -0.156199 0 
-0.156199 -1.5643 0 
0 0 0 
-1.21207 -0.111622 0 
-0.111622 -1.97015 0 
0 0 0 
-1.0708 0.0172326 0 
0.0172326 -0.927179 0 
0 0 0 
-1.05823 0.0167552 0 
0.0167552 -0.939754 0 
0 0 0 
-1.07705 0.0188867 0 
0.0188867 -0.920933 0 
0 0 0 
-8.92916 -0.0171956 0 
-0.0171956 -9.07275 0 
0 0 0 
-8.94167 -0.0167621 0 
-0.0167621 -9.06024 0 
0 0 0 
-8.92294 -0.0188762 0 
-0.0188762 -9.07897 0 
0 0 0 
-8.85041 0.045866 0 
0.045866 -8.82632 0 
0 0 0 
-8.85845 0.0178452 0 
0.0178452 -8.81828 0 
0 0 0 
-8.87655 0.0395961 0 
0.0395961 -8.80018 0 
0 0 0 
-0.892253 -0.0305359 0 
-0.0305359 -0.811788 0 
0 0 0 
-0.886061 -0.0119881 0 
-0.0119881 -0.81798 0 
0 0 0 
-0.866623 -0.0348672 0 
-0.0348672 -0.837418 0 
0 0 0 
-9.10782 0.0305334 0 
0.0305334 -9.18827 0 
0 0 0 
-9.11401 0.011987 0 
0.011987 -9.18208 0 
0 0 0 
-9.13344 0.0348643 0 
0.0348643 -9.16265 0 
0 0 0 
-1.06717 -0.0181006 0 
-0.0181006 -1.26111 0 
0 0 0 
-1.14267 -0.0209449 0 
-0.0209449 -1.18561 0 
0 0 0 
-1.09978 0.0720196 0 
0.0720196 -1.2285 0 
0 0 0 
-8.93169 0.0164323 0 
0.0164323 -8.74466 0 
0 0 0 
-8.85138 0.0187492 0 
0.0187492 -8.82497 0 
0 0 0 
-8.9051 -0.0606909 0 
-0.0606909 -8.77126 0 
0 0 0 
-9.06761 -0.0256913 0 
-0.0256913 -9.03514 0 
0 0 0 
-9.06486 -0.025574 0 
-0.025574 -9.03789 0 
0 0 0 
-9.07172 -0.0230734 0 
-0.0230734 -9.03103 0 
0 0 0 
-0.932239 0.0256932 0 
0.0256932 -0.964932 0 
0 0 0 
-0.935068 0.0255394 0 
0.0255394 -0.962103 0 
0 0 0 
-0.928294 0.0230694 0 
0.0230694 -0.968878 0 
0 0 0 
-9.68525 0.097869 0 
0.097869 -10.0486 0 
0 0 0 
-9.67948 0.099654 0 
0.099654 -10.0544 0 
0 0 0 
-9.83181 -0.00158393 0 
-0.00158393 -9.90203 0 
0 0 0 
-0.314725 -0.0978477 0 
-0.0978477 0.0485984 0 
0 0 0 
-0.320492 -0.0996372 0 
-0.0996372 0.0543651 0 
0 0 0 
-0.168181 0.00159198 0 
0.00159198 -0.0979458 0 
0 0 0 
-1.21015 -0.0488308 0 
-0.0488308 -0.895886 0 
0 0 0 
-1.06881 -0.0153274 0 
-0.0153274 -1.03723 0 
0 0 0 
-1.20428 -0.129909 0 
-0.129909 -0.901757 0 
0 0 0 
-8.78999 0.0490312 0 
0.0490312 -9.10375 0 
0 0 0 
-8.93119 0.0151853 0 
0.0151853 -8.96255 0 
0 0 0 
-8.79566 0.129995 0 
0.129995 -9.09809 0 
0 0 0 
-2.13476 -0.832095 0 
-0.832095 -1.93017 0 
0 0 0 
-2.56647 -0.252411 0 
-0.252411 -1.49847 0 
0 0 0 
-2.08927 -0.123202 0 
-0.123202 -1.97567 0 
0 0 0 
-7.90141 0.794438 0 
0.794438 -8.14437 0 
0 0 0 
-7.55014 0.313705 0 
0.313705 -8.49564 0 
0 0 0 
-7.96335 0.172227 0 
0.172227 -8.08243 0 
0 0 0 
-2.4503 0.3143 0 
0.3143 -1.50488 0 
0 0 0 
-2.0993 0.79448 0 
0.79448 -1.85588 0 
0 0 0 
-2.03776 0.172068 0 
0.172068 -1.91743 0 
0 0 0 
-7.4416 -0.260184 0 
-0.260184 -8.49673 0 
0 0 0 
-7.85509 -0.813262 0 
-0.813262 -8.08324 0 
0 0 0 
-7.9125 -0.133311 0 
-0.133311 -8.02583 0 
0 0 0 
-2.09904 -0.794672 0 
-0.794672 -1.85601 0 
0 0 0 
-2.45043 -0.313787 0 
-0.313787 -1.50462 0 
0 0 0 
-2.03709 -0.172263 0 
-0.172263 -1.91796 0 
0 0 0 
-7.86513 0.832093 0 
0.832093 -8.06971 0 
0 0 0 
-7.43341 0.252378 0 
0.252378 -8.50143 0 
0 0 0 
-7.91064 0.123179 0 
0.123179 -8.0242 0 
0 0 0 
-7.55167 -0.315176 0 
-0.315176 -8.49593 0 
0 0 0 
-7.90204 -0.794187 0 
-0.794187 -8.14556 0 
0 0 0 
-7.96323 -0.172478 0 
-0.172478 -8.08437 0 
0 0 0 
-2.55843 0.260177 0 
0.260177 -1.50333 0 
0 0 0 
-2.14495 0.813238 0 
0.813238 -1.91681 0 
0 0 0 
-2.08754 0.133307 0 
0.133307 -1.97422 0 
0 0 0 
-1.00423 0.0380853 0 
0.0380853 -0.925656 0 
0 0 0 
-0.992377 0.0265188 0 
0.0265188 -0.937514 0 
0 0 0 
-1.01049 0.0326776 0 
0.0326776 -0.919396 0 
0 0 0 
-8.99562 -0.0380398 0 
-0.0380398 -9.07428 0 
0 0 0 
-9.00747 -0.0264812 0 
-0.0264812 -9.06243 0 
0 0 0 
-8.98936 -0.0326408 0 
-0.0326408 -9.08054 0 
0 0 0 
-0.857253 0.020669 0 
0.020669 -0.881399 0 
0 0 0 
-0.853727 0.000560069 0 
0.000560069 -0.884925 0 
0 0 0 
-0.866307 0.00424819 0 
0.00424819 -0.872345 0 
0 0 0 
-9.14268 -0.0206632 0 
-0.0206632 -9.1185 0 
0 0 0 
-9.14621 -0.000553116 0 
-0.000553116 -9.11498 0 
0 0 0 
-9.13363 -0.00424354 0 
-0.00424354 -9.12756 0 
0 0 0 
-0.42449 -0.0646561 0 
-0.0646561 0.128096 0 
0 0 0 
-0.391689 -0.0443928 0 
-0.0443928 0.0952945 0 
0 0 0 
-0.403642 -0.0458728 0 
-0.0458728 0.107248 0 
0 0 0 
-9.57549 0.0646698 0 
0.0646698 -10.1281 0 
0 0 0 
-9.6083 0.0444057 0 
0.0444057 -10.0953 0 
0 0 0 
-9.59634 0.0458821 0 
0.0458821 -10.1072 0 
0 0 0 
-9.55588 -0.0283567 0 
-0.0283567 -9.95194 0 
0 0 0 
-9.63167 0.0903378 0 
0.0903378 -9.87614 0 
0 0 0 
-9.4842 -0.00634058 0 
-0.00634058 -10.0236 0 
0 0 0 
-0.444099 0.0283623 0 
0.0283623 -0.0480531 0 
0 0 0 
-0.368308 -0.0903302 0 
-0.0903302 -0.123844 0 
0 0 0 
-0.515784 0.00634423 0 
0.00634423 0.023631 0 
0 0 0 
-1.20011 0.0719736 0 
0.0719736 -1.22635 0 
0 0 0 
-1.15754 0.0903607 0 
0.0903607 -1.26892 0 
0 0 0 
-1.15982 -0.024265 0 
-0.024265 -1.26664 0 
0 0 0 
-8.79183 -0.07222 0 
-0.07222 -8.78246 0 
0 0 0 
-8.84284 -0.0887249 0 
-0.0887249 -8.73146 0 
0 0 0 
-8.84631 0.0193418 0 
0.0193418 -8.72798 0 
0 0 0 
-9.20258 -0.0555986 0 
-0.0555986 -9.20637 0 
0 0 0 
-9.20657 -0.0500018 0 
-0.0500018 -9.20239 0 
0 0 0 
-9.20028 -0.0307286 0 
-0.0307286 -9.20868 0 
0 0 0 
-0.797355 0.0555929 0 
0.0555929 -0.793567 0 
0 0 0 
-0.793369 0.0499958 0 
0.0499958 -0.797554 0 
0 0 0 
-0.799659 0.0307237 0 
0.0307237 -0.791263 0 
0 0 0 
-9.19347 -0.0399772 0 
-0.0399772 -9.20223 0 
0 0 0 
-9.19168 -0.0365701 0 
-0.0365701 -9.20403 0 
0 0 0 
-9.20109 -0.0420916 0 
-0.0420916 -9.19462 0 
0 0 0 
-0.806464 0.0399739 0 
0.0399739 -0.797709 0 
0 0 0 
-0.808261 0.0365654 0 
0.0365654 -0.795912 0 
0 0 0 
-0.798848 0.0420867 0 
0.0420867 -0.805325 0 
0 0 0 
-0.859287 0.040309 0 
0.040309 -0.790297 0 
0 0 0 
-0.854038 0.0526468 0 
0.0526468 -0.795546 0 
0 0 0 
-0.837495 0.0537569 0 
0.0537569 -0.812089 0 
0 0 0 
-9.14065 -0.0403133 0 
-0.0403133 -9.20965 0 
0 0 0 
-9.1459 -0.0526544 0 
-0.0526544 -9.2044 0 
0 0 0 
-9.16245 -0.053763 0 
-0.053763 -9.18785 0 
0 0 0 
-9.09871 -0.0279776 0 
-0.0279776 -9.05437 0 
0 0 0 
-9.10121 -0.0285327 0 
-0.0285327 -9.05187 0 
0 0 0 
-9.0996 -0.0290792 0 
-0.0290792 -9.05348 0 
0 0 0 
-0.901212 0.0279829 0 
0.0279829 -0.945556 0 
0 0 0 
-0.898709 0.0285353 0 
0.0285353 -0.94806 0 
0 0 0 
-0.900317 0.0290841 0 
0.0290841 -0.946451 0 
0 0 0 
-1.0751 -0.0185641 0 
-0.0185641 -0.925957 0 
0 0 0 
-1.07153 -0.0151342 0 
-0.0151342 -0.929525 0 
0 0 0 
-1.07192 -0.00594041 0 
-0.00594041 -0.92914 0 
0 0 0 
-8.92499 0.01856 0 
0.01856 -9.07412 0 
0 0 0 
-8.92856 0.0151304 0 
0.0151304 -9.07055 0 
0 0 0 
-8.92817 0.00593755 0 
0.00593755 -9.07094 0 
0 0 0 
-8.97696 0.00143729 0 
0.00143729 -9.00909 0 
0 0 0 
-9.00338 0.0680701 0 
0.0680701 -8.98267 0 
0 0 0 
-8.96064 0.0691719 0 
0.0691719 -9.02541 0 
0 0 0 
-9.0878 0.0318722 0 
0.0318722 -9.04211 0 
0 0 0 
-9.08659 0.0200345 0 
0.0200345 -9.04333 0 
0 0 0 
-9.0937 0.0201308 0 
0.0201308 -9.03622 0 
0 0 0 
-0.912269 -0.0318775 0 
-0.0318775 -0.95796 0 
0 0 0 
-0.913483 -0.0200385 0 
-0.0200385 -0.956747 0 
0 0 0 
-0.906375 -0.0201347 0 
-0.0201347 -0.963855 0 
0 0 0 
-1.02334 -0.00137049 0 
-0.00137049 -0.990879 0 
0 0 0 
-0.996682 -0.0680063 0 
-0.0680063 -1.01753 0 
0 0 0 
-1.03957 -0.0693148 0 
-0.0693148 -0.974644 0 
0 0 0 
-0.389155 0.0607771 0 
0.0607771 0.0673845 0 
0 0 0 
-0.405476 0.0568298 0 
0.0568298 0.0837055 0 
0 0 0 
-0.428881 0.0197178 0 
0.0197178 0.10711 0 
0 0 0 
-9.61086 -0.0607654 0 
-0.0607654 -10.0674 0 
0 0 0 
-9.59454 -0.0568175 0 
-0.0568175 -10.0837 0 
0 0 0 
-9.57114 -0.0197107 0 
-0.0197107 -10.1071 0 
0 0 0 
-9.10419 -0.0269347 0 
-0.0269347 -9.03809 0 
0 0 0 
-9.10185 -0.0243628 0 
-0.0243628 -9.04042 0 
0 0 0 
-9.09615 -0.0222307 0 
-0.0222307 -9.04613 0 
0 0 0 
-0.895715 0.0269335 0 
0.0269335 -0.961837 0 
0 0 0 
-0.898044 0.0243578 0 
0.0243578 -0.959508 0 
0 0 0 
-0.903755 0.0222292 0 
0.0222292 -0.953798 0 
0 0 0 
-9.36545 0.265365 0 
0.265365 -9.07264 0 
0 0 0 
-9.24675 0.201949 0 
0.201949 -9.19134 0 
0 0 0 
-9.33036 -0.034397 0 
-0.034397 -9.10773 0 
0 0 0 
-0.634503 -0.265344 0 
-0.265344 -0.927293 0 
0 0 0 
-0.753195 -0.201932 0 
-0.201932 -0.808602 0 
0 0 0 
-0.669594 0.0343976 0 
0.0343976 -0.892203 0 
0 0 0 
-0.952107 0.0231059 0 
0.0231059 -0.984171 0 
0 0 0 
-0.953649 0.0284776 0 
0.0284776 -0.982629 0 
0 0 0 
-0.956809 0.0267199 0 
0.0267199 -0.979469 0 
0 0 0 
-9.04802 -0.0236542 0 
-0.0236542 -9.01618 0 
0 0 0 
-9.04683 -0.0287009 0 
-0.0287009 -9.01738 0 
0 0 0 
-9.04354 -0.0267941 0 
-0.0267941 -9.02067 0 
0 0 0 
-0.65506 -0.152514 0 
-0.152514 -0.212153 0 
0 0 0 
-0.687626 -0.0706833 0 
-0.0706833 -0.179587 0 
0 0 0 
-0.625051 -0.0993673 0 
-0.0993673 -0.242162 0 
0 0 0 
-9.34499 0.152505 0 
0.152505 -9.78787 0 
0 0 0 
-9.31243 0.0706774 0 
0.0706774 -9.82043 0 
0 0 0 
-9.375 0.0993606 0 
0.0993606 -9.75786 0 
0 0 0 
-5.40498 0.535393 0 
0.535393 -5.19584 0 
0 0 0 
-5.21416 -0.188267 0 
-0.188267 -5.38666 0 
0 0 0 
-4.89557 0.022325 0 
0.022325 -5.70524 0 
0 0 0 
-4.59052 -0.526722 0 
-0.526722 -4.82075 0 
0 0 0 
-4.79943 0.184786 0 
0.184786 -4.61184 0 
0 0 0 
-5.1052 0.010639 0 
0.010639 -4.30607 0 
0 0 0 
-4.78835 -0.18833 0 
-0.18833 -4.61581 0 
0 0 0 
-4.59746 0.535359 0 
0.535359 -4.8067 0 
0 0 0 
-5.10692 0.0222593 0 
0.0222593 -4.29724 0 
0 0 0 
-5.1996 0.185007 0 
0.185007 -5.38933 0 
0 0 0 
-5.41031 -0.525841 0 
-0.525841 -5.17862 0 
0 0 0 
-4.89485 0.0136832 0 
0.0136832 -5.69408 0 
0 0 0 
-5.40945 0.526737 0 
0.526737 -5.17921 0 
0 0 0 
-5.20053 -0.184791 0 
-0.184791 -5.38813 0 
0 0 0 
-4.89475 -0.0106389 0 
-0.0106389 -5.69391 0 
0 0 0 
-4.59633 -0.535237 0 
-0.535237 -4.80553 0 
0 0 0 
-4.78719 0.188235 0 
0.188235 -4.61467 0 
0 0 0 
-5.10566 -0.0221754 0 
-0.0221754 -4.2962 0 
0 0 0 
-5.21286 0.188257 0 
0.188257 -5.38535 0 
0 0 0 
-5.4037 -0.535229 0 
-0.535229 -5.19451 0 
0 0 0 
-4.89437 -0.0222405 0 
-0.0222405 -5.70383 0 
0 0 0 
-4.80035 -0.185012 0 
-0.185012 -4.61061 0 
0 0 0 
-4.58963 0.525856 0 
0.525856 -4.82133 0 
0 0 0 
-5.10511 -0.01368 0 
-0.01368 -4.30586 0 
0 0 0 
-0.313985 0.0968861 0 
0.0968861 0.0650182 0 
0 0 0 
-0.305927 0.0956249 0 
0.0956249 0.0569606 0 
0 0 0 
-0.152379 0.0191568 0 
0.0191568 -0.0965877 0 
0 0 0 
-9.68604 -0.0968697 0 
-0.0968697 -10.065 0 
0 0 0 
-9.69409 -0.0956043 0 
-0.0956043 -10.057 0 
0 0 0 
-9.84763 -0.0191468 0 
-0.0191468 -9.90343 0 
0 0 0 
-8.90516 0.00648934 0 
0.00648934 -8.81651 0 
0 0 0 
-8.90999 -0.00992798 0 
-0.00992798 -8.81169 0 
0 0 0 
-8.90651 0.0122662 0 
0.0122662 -8.81516 0 
0 0 0 
-1.09541 -0.0059522 0 
-0.0059522 -1.18307 0 
0 0 0 
-1.08983 0.0102043 0 
0.0102043 -1.18864 0 
0 0 0 
-1.0944 -0.0117948 0 
-0.0117948 -1.18408 0 
0 0 0 
-0.969382 0.0391517 0 
0.0391517 -1.00282 0 
0 0 0 
-0.944583 0.0330015 0 
0.0330015 -1.02762 0 
0 0 0 
-0.96637 -8.46396e-05 0 
-8.46396e-05 -1.00584 0 
0 0 0 
-0.851046 -0.0191976 0 
-0.0191976 -0.825468 0 
0 0 0 
-0.840993 -0.0170152 0 
-0.0170152 -0.83552 0 
0 0 0 
-0.840126 -0.0308057 0 
-0.0308057 -0.836387 0 
0 0 0 
-9.14902 0.019196 0 
0.019196 -9.17459 0 
0 0 0 
-9.15907 0.0170138 0 
0.0170138 -9.16454 0 
0 0 0 
-9.15994 0.0308032 0 
0.0308032 -9.16368 0 
0 0 0 
-9.15291 0.0295878 0 
0.0295878 -9.17342 0 
0 0 0 
-9.1586 0.0319485 0 
0.0319485 -9.16773 0 
0 0 0 
-9.15575 0.0319705 0 
0.0319705 -9.17059 0 
0 0 0 
-0.847152 -0.0295903 0 
-0.0295903 -0.826643 0 
0 0 0 
-0.841463 -0.0319511 0 
-0.0319511 -0.832332 0 
0 0 0 
-0.844317 -0.0319732 0 
-0.0319732 -0.829477 0 
0 0 0 
-1.07355 -0.00340903 0 
-0.00340903 -0.885627 0 
0 0 0 
-1.07436 0.0152352 0 
0.0152352 -0.884822 0 
0 0 0 
-1.04843 0.0197806 0 
0.0197806 -0.910749 0 
0 0 0 
-8.92653 0.0034082 0 
0.0034082 -9.11444 0 
0 0 0 
-8.92573 -0.015236 0 
-0.015236 -9.11525 0 
0 0 0 
-8.95165 -0.01978 0 
-0.01978 -9.08932 0 
0 0 0 
-9.10812 0.0288651 0 
0.0288651 -9.0538 0 
0 0 0 
-9.10267 0.0271365 0 
0.0271365 -9.05925 0 
0 0 0 
-9.106 0.0244137 0 
0.0244137 -9.05591 0 
0 0 0 
-0.891956 -0.0288672 0 
-0.0288672 -0.946276 0 
0 0 0 
-0.897405 -0.0271387 0 
-0.0271387 -0.940827 0 
0 0 0 
-0.894067 -0.0244164 0 
-0.0244164 -0.944166 0 
0 0 0 
-9.37634 0.160917 0 
0.160917 -9.2078 0 
0 0 0 
-9.34175 0.207479 0 
0.207479 -9.24239 0 
0 0 0 
-9.29396 0.0931712 0 
0.0931712 -9.29018 0 
0 0 0 
-0.623612 -0.160904 0 
-0.160904 -0.792142 0 
0 0 0 
-0.658205 -0.207462 0 
-0.207462 -0.757549 0 
0 0 0 
-0.705984 -0.0931635 0 
-0.0931635 -0.70977 0 
0 0 0 
-0.866234 -0.00344552 0 
-0.00344552 -0.944148 0 
0 0 0 
-0.872312 -0.0104202 0 
-0.0104202 -0.93807 0 
0 0 0 
-0.881809 -0.00127006 0 
-0.00127006 -0.928573 0 
0 0 0 
-9.13383 0.00344515 0 
0.00344515 -9.05593 0 
0 0 0 
-9.12776 0.0104192 0 
0.0104192 -9.062 0 
0 0 0 
-9.11826 0.0012699 0 
0.0012699 -9.0715 0 
0 0 0 
-9.09703 -0.00590753 0 
-0.00590753 -9.07933 0 
0 0 0 
-9.09718 -0.000136009 0 
-0.000136009 -9.07918 0 
0 0 0 
-9.0906 0.00436158 0 
0.00436158 -9.08576 0 
0 0 0 
-0.903039 0.00590806 0 
0.00590806 -0.920742 0 
0 0 0 
-0.902894 0.000136047 0 
0.000136047 -0.920887 0 
0 0 0 
-0.909471 -0.00436193 0 
-0.00436193 -0.91431 0 
0 0 0 
-1.18034 -0.0269413 0 
-0.0269413 -1.19757 0 
0 0 0 
-1.17476 -0.0214563 0 
-0.0214563 -1.20314 0 
0 0 0 
-1.18098 -0.0311271 0 
-0.0311271 -1.19693 0 
0 0 0 
-9.10182 -0.00428447 0 
-0.00428447 -9.08654 0 
0 0 0 
-9.10007 -0.00146198 0 
-0.00146198 -9.08829 0 
0 0 0 
-9.09942 -0.000214437 0 
-0.000214437 -9.08894 0 
0 0 0 
-0.898099 0.00428435 0 
0.00428435 -0.913384 0 
0 0 0 
-0.899852 0.00146177 0 
0.00146177 -0.911631 0 
0 0 0 
-0.900498 0.000214253 0 
0.000214253 -0.910985 0 
0 0 0 
-8.82 0.02701 0 
0.02701 -8.80264 0 
0 0 0 
-8.8253 0.0213944 0 
0.0213944 -8.79734 0 
0 0 0 
-8.81915 0.0308359 0 
0.0308359 -8.80349 0 
0 0 0 
-0.81685 0.063207 0 
0.063207 -0.738778 0 
0 0 0 
-0.800323 0.0785849 0 
0.0785849 -0.755304 0 
0 0 0 
-0.799509 0.0370584 0 
0.0370584 -0.756118 0 
0 0 0 
-9.18309 -0.0632145 0 
-0.0632145 -9.26117 0 
0 0 0 
-9.19962 -0.0785923 0 
-0.0785923 -9.24464 0 
0 0 0 
-9.20043 -0.0370651 0 
-0.0370651 -9.24383 0 
0 0 0 
-1.22697 0.0324069 0 
0.0324069 -1.26464 0 
0 0 0 
-1.06048 0.0207661 0 
0.0207661 -1.43114 0 
0 0 0 
-1.05774 -0.135356 0 
-0.135356 -1.43388 0 
0 0 0 
-8.7732 -0.0324505 0 
-0.0324505 -8.73562 0 
0 0 0 
-8.93972 -0.0208426 0 
-0.0208426 -8.5691 0 
0 0 0 
-8.94237 0.135283 0 
0.135283 -8.56645 0 
0 0 0 
-1.08398 0.0191716 0 
0.0191716 -0.991742 0 
0 0 0 
-1.09015 0.00398737 0 
0.00398737 -0.985566 0 
0 0 0 
-1.08465 0.0217506 0 
0.0217506 -0.991069 0 
0 0 0 
-8.91626 -0.0192115 0 
-0.0192115 -9.00803 0 
0 0 0 
-8.90996 -0.00399289 0 
-0.00399289 -9.01433 0 
0 0 0 
-8.91546 -0.021866 0 
-0.021866 -9.00883 0 
0 0 0 
-9.03036 -0.0386709 0 
-0.0386709 -8.99564 0 
0 0 0 
-9.05675 -0.0326321 0 
-0.0326321 -8.96926 0 
0 0 0 
-9.03171 -0.0001286 0 
-0.0001286 -8.9943 0 
0 0 0 
-1.16388 -0.00752425 0 
-0.00752425 -1.16506 0 
0 0 0 
-1.16525 -0.0107269 0 
-0.0107269 -1.16369 0 
0 0 0 
-1.16244 -0.00744803 0 
-0.00744803 -1.1665 0 
0 0 0 
-0.980349 -0.0311645 0 
-0.0311645 -1.00738 0 
0 0 0 
-0.990687 -0.00515008 0 
-0.00515008 -0.99704 0 
0 0 0 
-0.970577 -0.0243992 0 
-0.0243992 -1.01715 0 
0 0 0 
-8.8456 -0.0492015 0 
-0.0492015 -8.82574 0 
0 0 0 
-8.86614 -0.0400248 0 
-0.0400248 -8.80521 0 
0 0 0 
-8.85979 -0.0102713 0 
-0.0102713 -8.81156 0 
0 0 0 
-1.15657 0.048927 0 
0.048927 -1.17084 0 
0 0 0 
-1.13142 0.0428677 0 
0.0428677 -1.19599 0 
0 0 0 
-1.13944 0.00976329 0 
0.00976329 -1.18797 0 
0 0 0 
-1.17898 0.00201871 0 
0.00201871 -1.19211 0 
0 0 0 
-1.18108 0.00353773 0 
0.00353773 -1.19 0 
0 0 0 
-1.18099 0.00427368 0 
0.00427368 -1.1901 0 
0 0 0 
-8.82924 -0.0236937 0 
-0.0236937 -8.81328 0 
0 0 0 
-8.83059 -0.015996 0 
-0.015996 -8.81194 0 
0 0 0 
-8.82683 -0.0179531 0 
-0.0179531 -8.81569 0 
0 0 0 
-8.8211 -0.00532669 0 
-0.00532669 -8.81161 0 
0 0 0 
-8.82313 0.00193621 0 
0.00193621 -8.80958 0 
0 0 0 
-8.81955 0.00497136 0 
0.00497136 -8.81315 0 
0 0 0 
-8.82011 -0.00198698 0 
-0.00198698 -8.8105 0 
0 0 0 
-8.82149 -0.0037847 0 
-0.0037847 -8.80911 0 
0 0 0 
-8.82038 0.00106821 0 
0.00106821 -8.81023 0 
0 0 0 
-1.17764 0.003212 0 
0.003212 -1.17496 0 
0 0 0 
-1.17429 0.00353937 0 
0.00353937 -1.17831 0 
0 0 0 
-1.17616 0.000525118 0 
0.000525118 -1.17644 0 
0 0 0 
-8.82423 0.00445799 0 
0.00445799 -8.82001 0 
0 0 0 
-8.82127 0.0040335 0 
0.0040335 -8.82297 0 
0 0 0 
-8.8224 0.00216706 0 
0.00216706 -8.82184 0 
0 0 0 
-0.884845 -0.0113422 0 
-0.0113422 -0.930456 0 
0 0 0 
-0.890215 -0.00977667 0 
-0.00977667 -0.925086 0 
0 0 0 
-0.886494 -0.00217217 0 
-0.00217217 -0.928807 0 
0 0 0 
-9.11522 0.0113412 0 
0.0113412 -9.06962 0 
0 0 0 
-9.10985 0.00977585 0 
0.00977585 -9.07499 0 
0 0 0 
-9.11358 0.0021719 0 
0.0021719 -9.07127 0 
0 0 0 
-8.83549 -0.0100568 0 
-0.0100568 -8.83522 0 
0 0 0 
-8.83586 -0.00872368 0 
-0.00872368 -8.83486 0 
0 0 0 
-8.8363 -0.00722869 0 
-0.00722869 -8.83441 0 
0 0 0 
-0.87218 -0.0116623 0 
-0.0116623 -0.937625 0 
0 0 0 
-0.879213 -0.0188048 0 
-0.0188048 -0.930592 0 
0 0 0 
-0.88045 -0.00328959 0 
-0.00328959 -0.929355 0 
0 0 0 
-9.12789 0.0116613 0 
0.0116613 -9.06245 0 
0 0 0 
-9.12086 0.0188033 0 
0.0188033 -9.06948 0 
0 0 0 
-9.11962 0.00328915 0 
0.00328915 -9.07072 0 
0 0 0 
-8.82874 -0.00262811 0 
-0.00262811 -8.83114 0 
0 0 0 
-8.83006 -0.00252119 0 
-0.00252119 -8.82981 0 
0 0 0 
-8.82941 -0.0017079 0 
-0.0017079 -8.83046 0 
0 0 0 
-8.83279 -0.00150228 0 
-0.00150228 -8.83448 0 
0 0 0 
-8.83342 -0.000405758 0 
-0.000405758 -8.83384 0 
0 0 0 
-8.83383 0.000259316 0 
0.000259316 -8.83343 0 
0 0 0 
-8.83219 0.00122089 0 
0.00122089 -8.83305 0 
0 0 0 
-8.83156 0.0012142 0 
0.0012142 -8.83368 0 
0 0 0 
-8.83187 0.000732808 0 
0.000732808 -8.83337 0 
0 0 0 
-8.83361 0.00090162 0 
0.00090162 -8.83321 0 
0 0 0 
-8.83311 0.00117387 0 
0.00117387 -8.8337 0 
0 0 0 
-8.83352 4.30362e-05 0 
4.30362e-05 -8.8333 0 
0 0 0 
-1.1664 -0.000277219 0 
-0.000277219 -1.16579 0 
0 0 0 
-1.16741 -0.00121871 0 
-0.00121871 -1.16478 0 
0 0 0 
-1.16629 0.0009809 0 
0.0009809 -1.1659 0 
0 0 0 
-1.17007 -0.00313598 0 
-0.00313598 -1.17057 0 
0 0 0 
-1.17203 -0.00304977 0 
-0.00304977 -1.16861 0 
0 0 0 
-1.1711 -0.00150186 0 
-0.00150186 -1.16954 0 
0 0 0 
-1.16819 0.000695615 0 
0.000695615 -1.16634 0 
0 0 0 
-1.1677 0.000705389 0 
0.000705389 -1.16683 0 
0 0 0 
-1.16795 0.000309619 0 
0.000309619 -1.16658 0 
0 0 0 
-1.16726 0.00128754 0 
0.00128754 -1.16636 0 
0 0 0 
-1.16661 0.00109739 0 
0.00109739 -1.16701 0 
0 0 0 
-1.1668 0.000173424 0 
0.000173424 -1.16682 0 
0 0 0 
-9.01899 0.031825 0 
0.031825 -8.99178 0 
0 0 0 
-9.00865 0.00598121 0 
0.00598121 -9.00212 0 
0 0 0 
-9.02977 0.0243658 0 
0.0243658 -8.981 0 
0 0 0 
-0.896564 -0.00149278 0 
-0.00149278 -0.907697 0 
0 0 0 
-0.894706 -0.00380264 0 
-0.00380264 -0.909555 0 
0 0 0 
-0.896612 -0.00033114 0 
-0.00033114 -0.907649 0 
0 0 0 
-9.10351 0.00149262 0 
0.00149262 -9.09237 0 
0 0 0 
-9.10536 0.0038023 0 
0.0038023 -9.09052 0 
0 0 0 
-9.10346 0.000331095 0 
0.000331095 -9.09242 0 
0 0 0 
-9.09344 0.000193652 0 
0.000193652 -9.07558 0 
0 0 0 
-9.09362 0.00615025 0 
0.00615025 -9.0754 0 
0 0 0 
-9.08717 -0.0034363 0 
-0.0034363 -9.08184 0 
0 0 0 
-0.906485 -0.000193648 0 
-0.000193648 -0.924341 0 
0 0 0 
-0.906303 -0.00614994 0 
-0.00614994 -0.924523 0 
0 0 0 
-0.912749 0.00343603 0 
0.00343603 -0.918078 0 
0 0 0 
-0.987334 0.0169498 0 
0.0169498 -1.05252 0 
0 0 0 
-0.970721 0.00548903 0 
0.00548903 -1.06913 0 
0 0 0 
-1.00685 -0.0113624 0 
-0.0113624 -1.03301 0 
0 0 0 
-6.83509 0.886389 0 
0.886389 -5.7803 0 
0 0 0 
-5.98267 0.968469 0 
0.968469 -6.63272 0 
0 0 0 
-6.54241 0.0265928 0 
0.0265928 -6.07298 0 
0 0 0 
-3.18811 -0.879368 0 
-0.879368 -4.21597 0 
0 0 0 
-4.04358 -0.958028 0 
-0.958028 -3.3605 0 
0 0 0 
-3.48364 -0.012016 0 
-0.012016 -3.92044 0 
0 0 0 
-6.8119 0.879394 0 
0.879394 -5.78401 0 
0 0 0 
-5.9564 0.958056 0 
0.958056 -6.6395 0 
0 0 0 
-6.51636 0.0120161 0 
0.0120161 -6.07955 0 
0 0 0 
-3.16658 -0.886225 0 
-0.886225 -4.22107 0 
0 0 0 
-4.01892 -0.968229 0 
-0.968229 -3.36873 0 
0 0 0 
-3.45927 -0.0264461 0 
-0.0264461 -3.92838 0 
0 0 0 
-4.01992 0.968487 0 
0.968487 -3.36941 0 
0 0 0 
-3.16722 0.886529 0 
0.886529 -4.22211 0 
0 0 0 
-3.46007 0.0263435 0 
0.0263435 -3.92926 0 
0 0 0 
-5.95663 -0.958845 0 
-0.958845 -6.64199 0 
0 0 0 
-6.81242 -0.879848 0 
-0.879848 -5.78619 0 
0 0 0 
-6.51694 -0.0124054 0 
-0.0124054 -6.08167 0 
0 0 0 
-5.98108 -0.968207 0 
-0.968207 -6.63139 0 
0 0 0 
-6.83352 -0.886273 0 
-0.886273 -5.77895 0 
0 0 0 
-6.54076 -0.026357 0 
-0.026357 -6.07171 0 
0 0 0 
-4.0433 0.958871 0 
0.958871 -3.35793 0 
0 0 0 
-3.18748 0.879873 0 
0.879873 -4.21375 0 
0 0 0 
-3.48297 0.0124081 0 
0.0124081 -3.91826 0 
0 0 0 
-1.04663 -0.0226719 0 
-0.0226719 -0.941842 0 
0 0 0 
-1.01868 -0.0322397 0 
-0.0322397 -0.969795 0 
0 0 0 
-1.0365 -0.0757595 0 
-0.0757595 -0.951974 0 
0 0 0 
-8.95334 0.0225576 0 
0.0225576 -9.05809 0 
0 0 0 
-8.9814 0.0320772 0 
0.0320772 -9.03004 0 
0 0 0 
-8.96346 0.0757711 0 
0.0757711 -9.04797 0 
0 0 0 
-0.941034 -0.0275892 0 
-0.0275892 -1.03603 0 
0 0 0 
-0.97053 -0.034384 0 
-0.034384 -1.00653 0 
0 0 0 
-0.98295 0.0123738 0 
0.0123738 -0.994113 0 
0 0 0 
-9.05904 0.0275877 0 
0.0275877 -8.96404 0 
0 0 0 
-9.02955 0.0343826 0 
0.0343826 -8.99354 0 
0 0 0 
-9.01713 -0.012375 0 
-0.012375 -9.00596 0 
0 0 0 
-9.12233 0.0570815 0 
0.0570815 -9.21499 0 
0 0 0 
-9.11118 0.0272171 0 
0.0272171 -9.22614 0 
0 0 0 
-9.14626 0.0311732 0 
0.0311732 -9.19107 0 
0 0 0 
-0.877732 -0.0570861 0 
-0.0570861 -0.785071 0 
0 0 0 
-0.888886 -0.0272196 0 
-0.0272196 -0.773917 0 
0 0 0 
-0.853808 -0.0311761 0 
-0.0311761 -0.808995 0 
0 0 0 
-9.01284 -0.016646 0 
-0.016646 -8.9473 0 
0 0 0 
-9.03032 -0.00443164 0 
-0.00443164 -8.92982 0 
0 0 0 
-8.99033 0.0125749 0 
0.0125749 -8.96981 0 
0 0 0 
-1.02777 -0.00826968 0 
-0.00826968 -0.942183 0 
0 0 0 
-1.0262 -0.0346784 0 
-0.0346784 -0.943755 0 
0 0 0 
-1.0519 -0.0413643 0 
-0.0413643 -0.918056 0 
0 0 0 
-8.97231 0.00826501 0 
0.00826501 -9.05789 0 
0 0 0 
-8.97388 0.0346696 0 
0.0346696 -9.05632 0 
0 0 0 
-8.94819 0.0413544 0 
0.0413544 -9.08202 0 
0 0 0 
-1.01051 0.0153652 0 
0.0153652 -0.995013 0 
0 0 0 
-0.97352 0.0217239 0 
0.0217239 -1.032 0 
0 0 0 
-0.965007 -0.0269216 0 
-0.0269216 -1.04052 0 
0 0 0 
-8.98957 -0.0153669 0 
-0.0153669 -9.00506 0 
0 0 0 
-9.02656 -0.0217258 0 
-0.0217258 -8.96807 0 
0 0 0 
-9.03507 0.0269197 0 
0.0269197 -8.95955 0 
0 0 0 
-9.2807 0.145482 0 
0.145482 -9.25983 0 
0 0 0 
-9.27377 0.140107 0 
0.140107 -9.26676 0 
0 0 0 
-9.27436 0.141191 0 
0.141191 -9.26617 0 
0 0 0 
-0.719243 -0.14547 0 
-0.14547 -0.740116 0 
0 0 0 
-0.726178 -0.140095 0 
-0.140095 -0.733181 0 
0 0 0 
-0.725583 -0.141179 0 
-0.141179 -0.733775 0 
0 0 0 
-1.06323 -0.0406705 0 
-0.0406705 -1.43246 0 
0 0 0 
-1.2286 -0.0200597 0 
-0.0200597 -1.2671 0 
0 0 0 
-1.05297 0.12477 0 
0.12477 -1.44272 0 
0 0 0 
-8.87389 0.063932 0 
0.063932 -8.7579 0 
0 0 0 
-8.83952 0.0302356 0 
0.0302356 -8.79226 0 
0 0 0 
-8.89596 0.0112052 0 
0.0112052 -8.73583 0 
0 0 0 
-5.72161 -0.872072 0 
-0.872072 -7.14211 0 
0 0 0 
-6.79322 -1.19534 0 
-1.19534 -6.0705 0 
0 0 0 
-6.68719 0.245439 0 
0.245439 -6.17654 0 
0 0 0 
-4.28039 0.852286 0 
0.852286 -2.93037 0 
0 0 0 
-3.24271 1.16746 0 
1.16746 -3.96805 0 
0 0 0 
-3.34671 -0.228448 0 
-0.228448 -3.86405 0 
0 0 0 
-4.27977 0.87182 0 
0.87182 -2.85993 0 
0 0 0 
-3.20855 1.19496 0 
1.19496 -3.93115 0 
0 0 0 
-3.31454 -0.24528 0 
-0.24528 -3.82516 0 
0 0 0 
-5.71959 -0.852311 0 
-0.852311 -7.06965 0 
0 0 0 
-6.75729 -1.16749 0 
-1.16749 -6.03194 0 
0 0 0 
-6.6533 0.228454 0 
0.228454 -6.13594 0 
0 0 0 
-3.20929 -1.19526 0 
-1.19526 -3.93205 0 
0 0 0 
-4.28077 -0.872073 0 
-0.872073 -2.86056 0 
0 0 0 
-3.31529 0.245309 0 
0.245309 -3.82605 0 
0 0 0 
-6.75541 1.1652 0 
1.1652 -6.03002 0 
0 0 0 
-5.72177 0.852196 0 
0.852196 -7.06366 0 
0 0 0 
-6.65216 -0.2242 0 
-0.2242 -6.13327 0 
0 0 0 
-3.24449 -1.16524 0 
-1.16524 -3.96991 0 
0 0 0 
-4.27817 -0.852221 0 
-0.852221 -2.93623 0 
0 0 0 
-3.34775 0.224209 0 
0.224209 -3.86665 0 
0 0 0 
-6.79149 1.19494 0 
1.19494 -6.06891 0 
0 0 0 
-5.72029 0.871835 0 
0.871835 -7.14011 0 
0 0 0 
-6.68551 -0.245257 0 
-0.245257 -6.17488 0 
0 0 0 
-0.896545 0.0050689 0 
0.0050689 -0.920067 0 
0 0 0 
-0.892218 -0.00443861 0 
-0.00443861 -0.924394 0 
0 0 0 
-0.903732 -0.00212642 0 
-0.00212642 -0.91288 0 
0 0 0 
-9.10352 -0.00506848 0 
-0.00506848 -9.08 0 
0 0 0 
-9.10785 0.00443825 0 
0.00443825 -9.07568 0 
0 0 0 
-9.09634 0.00212624 0 
0.00212624 -9.08719 0 
0 0 0 
-0.899127 0.0391892 0 
0.0391892 -0.812417 0 
0 0 0 
-0.885611 0.0207403 0 
0.0207403 -0.825933 0 
0 0 0 
-0.903911 0.00296904 0 
0.00296904 -0.807633 0 
0 0 0 
-9.10081 -0.0391835 0 
-0.0391835 -9.18754 0 
0 0 0 
-9.11433 -0.0207406 0 
-0.0207406 -9.17403 0 
0 0 0 
-9.09603 -0.00296759 0 
-0.00296759 -9.19233 0 
0 0 0 
-1.52901 -0.038958 0 
-0.038958 -0.896469 0 
0 0 0 
-1.53381 0.203648 0 
0.203648 -0.891666 0 
0 0 0 
-1.10491 0.102965 0 
0.102965 -1.32056 0 
0 0 0 
-8.47105 0.0389594 0 
0.0389594 -9.10361 0 
0 0 0 
-8.46624 -0.203653 0 
-0.203653 -9.10841 0 
0 0 0 
-8.89516 -0.102968 0 
-0.102968 -8.6795 0 
0 0 0 
-9.10449 -0.00529797 0 
-0.00529797 -9.07203 0 
0 0 0 
-9.10118 0.00511461 0 
0.00511461 -9.07534 0 
0 0 0 
-9.09208 -0.00171103 0 
-0.00171103 -9.08444 0 
0 0 0 
-0.895429 0.00529771 0 
0.00529771 -0.927885 0 
0 0 0 
-0.898737 -0.00511468 0 
-0.00511468 -0.924577 0 
0 0 0 
-0.907837 0.00171084 0 
0.00171084 -0.915476 0 
0 0 0 
-1.08032 0.0230343 0 
0.0230343 -0.953426 0 
0 0 0 
-1.07139 0.01628 0 
0.01628 -0.962351 0 
0 0 0 
-1.07228 0.0237137 0 
0.0237137 -0.961468 0 
0 0 0 
-8.91983 -0.0228037 0 
-0.0228037 -9.04629 0 
0 0 0 
-8.92845 -0.0161722 0 
-0.0161722 -9.03767 0 
0 0 0 
-8.92779 -0.0238301 0 
-0.0238301 -9.03833 0 
0 0 0 
-0.850902 0.0488718 0 
0.0488718 -0.746068 0 
0 0 0 
-0.839705 0.0702162 0 
0.0702162 -0.757265 0 
0 0 0 
-0.825495 0.0492416 0 
0.0492416 -0.771475 0 
0 0 0 
-9.14904 -0.0488795 0 
-0.0488795 -9.25388 0 
0 0 0 
-9.16023 -0.0702233 0 
-0.0702233 -9.24268 0 
0 0 0 
-9.17444 -0.0492494 0 
-0.0492494 -9.22847 0 
0 0 0 
-9.07615 -0.0209651 0 
-0.0209651 -9.22471 0 
0 0 0 
-9.09686 -0.0341886 0 
-0.0341886 -9.20401 0 
0 0 0 
-9.08382 0.00521837 0 
0.00521837 -9.21704 0 
0 0 0 
-0.923816 0.0209631 0 
0.0209631 -0.775257 0 
0 0 0 
-0.903111 0.0341891 0 
0.0341891 -0.795962 0 
0 0 0 
-0.916146 -0.00523122 0 
-0.00523122 -0.782927 0 
0 0 0 
-1.08319 -0.0374794 0 
-0.0374794 -1.15645 0 
0 0 0 
-1.14016 -0.0582324 0 
-0.0582324 -1.09948 0 
0 0 0 
-1.11611 0.0182767 0 
0.0182767 -1.12353 0 
0 0 0 
-8.91688 0.0374572 0 
0.0374572 -8.84371 0 
0 0 0 
-8.85995 0.0581616 0 
0.0581616 -8.90064 0 
0 0 0 
-8.88398 -0.0182739 0 
-0.0182739 -8.87661 0 
0 0 0 
-0.680664 -0.124914 0 
-0.124914 -0.603586 0 
0 0 0 
-0.709333 -0.0842975 0 
-0.0842975 -0.574916 0 
0 0 0 
-0.673055 -0.0849666 0 
-0.0849666 -0.611195 0 
0 0 0 
-9.31939 0.124904 0 
0.124904 -9.39646 0 
0 0 0 
-9.29072 0.0842911 0 
0.0842911 -9.42513 0 
0 0 0 
-9.327 0.08496 0 
0.08496 -9.38885 0 
0 0 0 
-0.990283 -0.00283468 0 
-0.00283468 -1.00477 0 
0 0 0 
-0.987766 0.00484402 0 
0.00484402 -1.00729 0 
0 0 0 
-0.980064 -0.0161204 0 
-0.0161204 -1.01499 0 
0 0 0 
-9.00849 0.00392909 0 
0.00392909 -8.99668 0 
0 0 0 
-9.01253 -0.00518268 0 
-0.00518268 -8.99264 0 
0 0 0 
-9.024 0.0185269 0 
0.0185269 -8.98118 0 
0 0 0 
-9.15683 0.0585138 0 
0.0585138 -9.2139 0 
0 0 0 
-9.15063 0.0403922 0 
0.0403922 -9.2201 0 
0 0 0 
-9.16486 0.0223905 0 
0.0223905 -9.20587 0 
0 0 0 
-0.843235 -0.0585184 0 
-0.0585184 -0.786162 0 
0 0 0 
-0.849439 -0.0403956 0 
-0.0403956 -0.779958 0 
0 0 0 
-0.835205 -0.0223927 0 
-0.0223927 -0.794192 0 
0 0 0 
-1.06776 0.0112047 0 
0.0112047 -1.24587 0 
0 0 0 
-1.0863 -0.0748756 0 
-0.0748756 -1.22733 0 
0 0 0 
-1.13329 -0.000773441 0 
-0.000773441 -1.18034 0 
0 0 0 
-8.93221 -0.0111219 0 
-0.0111219 -8.75445 0 
0 0 0 
-8.9137 0.0747152 0 
0.0747152 -8.77296 0 
0 0 0 
-8.86684 0.000782566 0 
0.000782566 -8.81982 0 
0 0 0 
-9.13154 0.000574735 0 
0.000574735 -9.05191 0 
0 0 0 
-9.13486 0.00888098 0 
0.00888098 -9.04859 0 
0 0 0 
-9.12198 0.00616479 0 
0.00616479 -9.06147 0 
0 0 0 
-0.868385 -0.000577831 0 
-0.000577831 -0.948008 0 
0 0 0 
-0.865066 -0.00888264 0 
-0.00888264 -0.951327 0 
0 0 0 
-0.877947 -0.00616686 0 
-0.00616686 -0.938446 0 
0 0 0 
-9.12493 -0.00598616 0 
-0.00598616 -9.05813 0 
0 0 0 
-9.13119 0.000650437 0 
0.000650437 -9.05188 0 
0 0 0 
-9.12134 0.00678098 0 
0.00678098 -9.06173 0 
0 0 0 
-0.874989 0.00598401 0 
0.00598401 -0.941787 0 
0 0 0 
-0.868732 -0.000652415 0 
-0.000652415 -0.948045 0 
0 0 0 
-0.878584 -0.00678325 0 
-0.00678325 -0.938193 0 
0 0 0 
-8.93477 0.0300114 0 
0.0300114 -8.57715 0 
0 0 0 
-8.76045 0.0323763 0 
0.0323763 -8.75147 0 
0 0 0 
-8.94231 -0.11003 0 
-0.11003 -8.56961 0 
0 0 0 
-9.11979 0.00970378 0 
0.00970378 -9.0504 0 
0 0 0 
-9.11825 0.0142312 0 
0.0142312 -9.05194 0 
0 0 0 
-9.11101 0.00708768 0 
0.00708768 -9.05918 0 
0 0 0 
-0.880139 -0.00970493 0 
-0.00970493 -0.949517 0 
0 0 0 
-0.881673 -0.0142311 0 
-0.0142311 -0.947983 0 
0 0 0 
-0.888913 -0.00708926 0 
-0.00708926 -0.940743 0 
0 0 0 
-1.10324 -0.050356 0 
-0.050356 -1.28819 0 
0 0 0 
-1.13228 -0.0446999 0 
-0.0446999 -1.25916 0 
0 0 0 
-1.1206 -0.0133335 0 
-0.0133335 -1.27083 0 
0 0 0 
-1.21753 0.0851394 0 
0.0851394 -0.957791 0 
0 0 0 
-1.09429 0.0840763 0 
0.0840763 -1.08103 0 
0 0 0 
-1.24118 0.137029 0 
0.137029 -0.934141 0 
0 0 0 
-8.78254 -0.085141 0 
-0.085141 -9.04228 0 
0 0 0 
-8.90578 -0.0840782 0 
-0.0840782 -8.91904 0 
0 0 0 
-8.75889 -0.137032 0 
-0.137032 -9.06593 0 
0 0 0 
-1.07118 0.0105545 0 
0.0105545 -1.23012 0 
0 0 0 
-1.1111 0.016408 0 
0.016408 -1.19021 0 
0 0 0 
-1.07264 0.00802938 0 
0.00802938 -1.22867 0 
0 0 0 
-8.92675 -0.00850426 0 
-0.00850426 -8.77024 0 
0 0 0 
-8.88187 -0.0154972 0 
-0.0154972 -8.81513 0 
0 0 0 
-8.92959 -0.0104223 0 
-0.0104223 -8.76741 0 
0 0 0 
-0.961109 0.0281352 0 
0.0281352 -0.983473 0 
0 0 0 
-0.949577 0.0186118 0 
0.0186118 -0.995005 0 
0 0 0 
-0.94751 0.0127258 0 
0.0127258 -0.997072 0 
0 0 0 
-9.03588 -0.0277882 0 
-0.0277882 -9.01862 0 
0 0 0 
-9.05037 -0.0194746 0 
-0.0194746 -9.00413 0 
0 0 0 
-9.05184 -0.0119715 0 
-0.0119715 -9.00267 0 
0 0 0 
-8.87359 0.00373567 0 
0.00373567 -8.75665 0 
0 0 0 
-8.88261 -0.0136139 0 
-0.0136139 -8.74763 0 
0 0 0 
-8.88756 -0.00382501 0 
-0.00382501 -8.74269 0 
0 0 0 
-8.89214 0.0482859 0 
0.0482859 -8.71725 0 
0 0 0 
-8.87004 0.0369234 0 
0.0369234 -8.73935 0 
0 0 0 
-8.87873 0.0132532 0 
0.0132532 -8.73067 0 
0 0 0 
-9.05518 -0.0151779 0 
-0.0151779 -9.02619 0 
0 0 0 
-9.04787 -0.0222985 0 
-0.0222985 -9.0335 0 
0 0 0 
-9.05986 -0.020818 0 
-0.020818 -9.02151 0 
0 0 0 
-0.945118 0.0145847 0 
0.0145847 -0.974138 0 
0 0 0 
-0.953281 0.0221739 0 
0.0221739 -0.965975 0 
0 0 0 
-0.940109 0.0209198 0 
0.0209198 -0.979147 0 
0 0 0 
-1.44403 -0.306114 0 
-0.306114 -1.50586 0 
0 0 0 
-1.49121 -0.265807 0 
-0.265807 -1.45868 0 
0 0 0 
-1.60579 -0.0205916 0 
-0.0205916 -1.3441 0 
0 0 0 
-8.55623 0.306033 0 
0.306033 -8.4944 0 
0 0 0 
-8.50908 0.265734 0 
0.265734 -8.54156 0 
0 0 0 
-8.39453 0.0206082 0 
0.0206082 -8.6561 0 
0 0 0 
-0.721843 -0.0845058 0 
-0.0845058 -0.689342 0 
0 0 0 
-0.742374 -0.0620929 0 
-0.0620929 -0.668812 0 
0 0 0 
-0.702531 -0.087674 0 
-0.087674 -0.708654 0 
0 0 0 
-9.27821 0.0844994 0 
0.0844994 -9.31071 0 
0 0 0 
-9.25768 0.0620879 0 
0.0620879 -9.33124 0 
0 0 0 
-9.29752 0.0876673 0 
0.0876673 -9.2914 0 
0 0 0 
-1.49215 0.263799 0 
0.263799 -1.45991 0 
0 0 0 
-1.44764 0.306336 0 
0.306336 -1.50442 0 
0 0 0 
-1.60782 0.0221703 0 
0.0221703 -1.34424 0 
0 0 0 
-8.50871 -0.261967 0 
-0.261967 -8.54047 0 
0 0 0 
-8.55114 -0.306656 0 
-0.306656 -8.49804 0 
0 0 0 
-8.3922 -0.0242047 0 
-0.0242047 -8.65698 0 
0 0 0 
-1.12626 -0.00318067 0 
-0.00318067 -1.24694 0 
0 0 0 
-1.11933 0.0136658 0 
0.0136658 -1.25387 0 
0 0 0 
-1.11549 0.00441043 0 
0.00441043 -1.25771 0 
0 0 0 
-1.09479 0.0298656 0 
0.0298656 -1.20783 0 
0 0 0 
-1.08121 -0.0158283 0 
-0.0158283 -1.2214 0 
0 0 0 
-1.09644 -0.0150908 0 
-0.0150908 -1.20618 0 
0 0 0 
-8.90534 -0.0297716 0 
-0.0297716 -8.79235 0 
0 0 0 
-8.91886 0.0158477 0 
0.0158477 -8.77883 0 
0 0 0 
-8.90367 0.0151081 0 
0.0151081 -8.79402 0 
0 0 0 
METADATA
COMPONENT_NAMES
XX
XY
XZ
YX
YY
YZ
ZX
ZY
ZZ

