# vtk DataFile Version 3.0
vtk output
ASCII
DATASET UNSTRUCTURED_GRID
POINTS 17480 float
0.0603793	0.0090957	0.160519	
0.0904908	0.170765	0.159817	
-0.0341142	0.113867	0.250814	
0.102495	0.11997	0.264802	
0.5	0	0.2	
0.364988	0.109735	0.263774	
0.334086	0.0370714	0.16525	
0.370375	-0.0671022	0.257475	
-0.444481	-0.228991	0.0919014	
-0.374595	-0.0873247	0.117455	
-0.269341	-0.201154	0.169023	
-0.275077	-0.119224	0.102748	
0.196796	0.354228	0.5	
0.228991	0.444481	0.408099	
0.22095	0.291034	0.346604	
0.0804661	0.372171	0.377993	
0.328092	0.270243	0	
0.386505	0.317197	0.0688254	
0.227799	0.256719	0.161264	
0.327512	0.168835	0.13044	
-0.0341142	0.113867	0.250814	
0.0904908	0.170765	0.159817	
0.0603793	0.0090957	0.160519	
0.04259	0.0957748	0.0972509	
0.153084	-0.0880453	0.135895	
0.143921	-0.0736091	0.260892	
0.0362446	-0.13014	0.250465	
0.109758	-0.214467	0.270707	
-0.356684	-0.19351	0	
-0.444481	-0.228991	0.0919014	
-0.269341	-0.201154	0.169023	
-0.275077	-0.119224	0.102748	
-0.267316	-0.203168	0.336848	
-0.358772	-0.11614	0.36635	
-0.262519	-0.0832944	0.5	
-0.175968	-0.135992	0.338029	
0.0420691	0.427134	0	
0.0540882	0.337091	0.15152	
0	0.5	0.1	
-0.0714313	0.379857	0.110067	
-0.444481	-0.228991	0.0919014	
-0.429146	-0.25658	0.16876	
-0.269341	-0.201154	0.169023	
-0.374595	-0.0873247	0.117455	
0.317206	0.386498	0.299678	
0.315434	0.222572	0.240138	
0.22095	0.291034	0.346604	
0.173765	0.338831	0.233339	
0.322451	0.0144002	0.334794	
0.308034	0.17727	0.353981	
0.218809	0.121581	0.250148	
0.240261	0.0350229	0.402836	
-0.0505573	-0.00469477	0.5	
-0.0646627	-0.0272093	0.335016	
-0.122627	0.0544512	0.5	
-0.0527152	0.0950891	0.390784	
-0.356684	-0.19351	0	
-0.374595	-0.0873247	0.117455	
-0.444481	-0.228991	0.0919014	
-0.275077	-0.119224	0.102748	
0.327062	-0.133702	0.350244	
0.205712	-0.0609706	0.365394	
0.257374	-0.098487	0.223367	
0.24114	-0.149085	0.404027	
-0.142648	-0.00714059	0	
-0.134825	0.0680349	0.146947	
-0.0779543	-0.0725374	0.153012	
-0.0383015	0.0232581	0.102769	
0.308034	0.17727	0.353981	
0.17182	0.113313	0.371264	
0.218809	0.121581	0.250148	
0.240261	0.0350229	0.402836	
0.316847	0.386792	0.198616	
0.315434	0.222572	0.240138	
0.317206	0.386498	0.299678	
0.173765	0.338831	0.233339	
-0.0646627	-0.0272093	0.335016	
-0.0739341	-0.184055	0.34975	
0.0362446	-0.13014	0.250465	
0.0292443	-0.0551693	0.315985	
0.115537	0.0107471	0	
0.195808	0.041614	0.135744	
0.0603793	0.0090957	0.160519	
0.153084	-0.0880453	0.135895	
-0.269341	-0.201154	0.169023	
-0.28242	-0.274225	0.0937223	
-0.356684	-0.19351	0	
-0.275077	-0.119224	0.102748	
-0.495012	-0.0704482	0.428155	
-0.5	0	0.4	
-0.42782	-0.0498056	0.5	
-0.358772	-0.11614	0.36635	
-0.354878	0.123846	0.244627	
-0.201798	0.0517729	0.246381	
-0.301517	0.172887	0.349578	
-0.261609	0.0749827	0.393802	
0.115537	0.0107471	0	
0.153084	-0.0880453	0.135895	
0.0603793	0.0090957	0.160519	
0.0349199	-0.099137	0.113215	
-0.122627	0.0544512	0.5	
-0.0646627	-0.0272093	0.335016	
-0.0505573	-0.00469477	0.5	
-0.112364	-0.0877996	0.406457	
-0.468495	-0.174678	0.182891	
-0.269341	-0.201154	0.169023	
-0.429146	-0.25658	0.16876	
-0.374595	-0.0873247	0.117455	
0.0420691	0.427134	0	
0.0704482	0.495012	0.0718447	
0	0.5	0.1	
0.0540882	0.337091	0.15152	
0.334086	0.0370714	0.16525	
0.364988	0.109735	0.263774	
0.493389	0.0810399	0.14715	
0.382697	0.0900146	0.0901371	
-0.262519	-0.0832944	0.5	
-0.358772	-0.11614	0.36635	
-0.188849	-0.0237464	0.373158	
-0.175968	-0.135992	0.338029	
-0.235698	0.440961	0.0686036	
-0.201912	0.369986	0	
-0.0714313	0.379857	0.110067	
-0.13617	0.283588	0.0953011	
-0.444481	-0.228991	0.0919014	
-0.356684	-0.19351	0	
-0.269341	-0.201154	0.169023	
-0.28242	-0.274225	0.0937223	
-0.0232782	-0.127584	0	
-0.0200202	-0.20323	0.140535	
-0.0779543	-0.0725374	0.153012	
-0.147445	-0.179827	0.128956	
-0.142648	-0.00714059	0	
-0.0779543	-0.0725374	0.153012	
-0.134825	0.0680349	0.146947	
-0.220281	-0.031921	0.125401	
0.0420691	0.427134	0	
0.0153159	0.363557	0	
0.0540882	0.337091	0.15152	
-0.0714313	0.379857	0.110067	
0.328092	0.270243	0	
0.317233	0.386476	0.0904728	
0.261819	0.319027	0	
0.227799	0.256719	0.161264	
0.0362446	-0.13014	0.250465	
0.154755	-0.229359	0.16737	
0.109758	-0.214467	0.270707	
0.0675207	-0.289808	0.212123	
-0.0646627	-0.0272093	0.335016	
0.0362446	-0.13014	0.250465	
-0.115752	-0.145542	0.242419	
-0.032045	0.00109893	0.228452	
0.0362446	-0.13014	0.250465	
-0.0200202	-0.20323	0.140535	
0.154755	-0.229359	0.16737	
0.0675207	-0.289808	0.212123	
0.154755	-0.229359	0.16737	
0.153084	-0.0880453	0.135895	
0.0362446	-0.13014	0.250465	
0.109758	-0.214467	0.270707	
-0.239764	-0.151909	0.5	
-0.267316	-0.203168	0.336848	
-0.262519	-0.0832944	0.5	
-0.175968	-0.135992	0.338029	
0.386505	0.317197	0.0688254	
0.317233	0.386476	0.0904728	
0.328092	0.270243	0	
0.227799	0.256719	0.161264	
-0.117671	-0.10197	0	
-0.0232782	-0.127584	0	
-0.0779543	-0.0725374	0.153012	
-0.147445	-0.179827	0.128956	
-0.235698	0.440961	0.0686036	
-0.0714313	0.379857	0.110067	
-0.2429	0.437035	0.152631	
-0.13617	0.283588	0.0953011	
0.154755	-0.229359	0.16737	
-0.0200202	-0.20323	0.140535	
0.0362446	-0.13014	0.250465	
0.105136	-0.172994	0.0956717	
-0.247023	0.434718	0.250558	
-0.176182	0.282501	0.333733	
-0.317163	0.386533	0.299742	
-0.277293	0.260919	0.267415	
-0.0646627	-0.0272093	0.335016	
0.0362446	-0.13014	0.250465	
-0.0739341	-0.184055	0.34975	
-0.115752	-0.145542	0.242419	
0.0362446	-0.13014	0.250465	
-0.032045	0.00109893	0.228452	
-0.0646627	-0.0272093	0.335016	
0.0292443	-0.0551693	0.315985	
-0.416747	0.276265	0.362548	
-0.439384	0.238625	0.423358	
-0.301517	0.172887	0.349578	
-0.276891	0.277667	0.386451	
0.317319	-0.386405	0.201487	
0.180335	-0.320871	0.25933	
0.307021	-0.223333	0.261668	
0.23319	-0.305698	0.109456	
-0.117671	-0.10197	0	
-0.0779543	-0.0725374	0.153012	
-0.220281	-0.031921	0.125401	
-0.147445	-0.179827	0.128956	
0.0903521	0.10545	0	
0.195808	0.041614	0.135744	
0.201932	0.155478	0.107683	
0.04259	0.0957748	0.0972509	
-0.5	0	0.4	
-0.334634	0.00771017	0.33657	
-0.42782	-0.0498056	0.5	
-0.358772	-0.11614	0.36635	
0.307021	-0.223333	0.261668	
0.23319	-0.305698	0.109456	
0.180335	-0.320871	0.25933	
0.214683	-0.189052	0.238302	
-0.209296	-0.0687964	0.252985	
-0.188849	-0.0237464	0.373158	
-0.358772	-0.11614	0.36635	
-0.175968	-0.135992	0.338029	
-0.26105	0.203399	0	
-0.1632	0.180339	0.117277	
-0.228343	0.287598	0.142133	
-0.33672	0.17128	0.12732	
-0.247023	0.434718	0.250558	
-0.256554	0.429162	0.331268	
-0.317163	0.386533	0.299742	
-0.176182	0.282501	0.333733	
-0.374813	0.199394	0.5	
-0.335163	0.274889	0.5	
-0.304559	0.211579	0.5	
-0.276891	0.277667	0.386451	
0.267645	-0.326424	0.5	
0.238057	-0.243638	0.5	
0.307193	-0.244124	0.374573	
0.163077	-0.321214	0.379886	
0.0603793	0.0090957	0.160519	
-0.0383015	0.0232581	0.102769	
-0.0341142	0.113867	0.250814	
0.04259	0.0957748	0.0972509	
0.0903521	0.10545	0	
0.195808	0.041614	0.135744	
0.184962	0.0799289	0	
0.201932	0.155478	0.107683	
0.115537	0.0107471	0	
0.0603793	0.0090957	0.160519	
0.195808	0.041614	0.135744	
0.04259	0.0957748	0.0972509	
0.154755	-0.229359	0.16737	
0.143921	-0.0736091	0.260892	
0.153084	-0.0880453	0.135895	
0.109758	-0.214467	0.270707	
0.0603793	0.0090957	0.160519	
-0.032045	0.00109893	0.228452	
-0.0341142	0.113867	0.250814	
-0.0383015	0.0232581	0.102769	
-0.117671	-0.10197	0	
-0.0779543	-0.0725374	0.153012	
-0.142648	-0.00714059	0	
-0.220281	-0.031921	0.125401	
-0.159378	0.10044	0.348698	
-0.201798	0.0517729	0.246381	
-0.301517	0.172887	0.349578	
-0.206936	0.196576	0.295071	
-0.238308	0.160613	0.208202	
-0.301517	0.172887	0.349578	
-0.354878	0.123846	0.244627	
-0.201798	0.0517729	0.246381	
-0.122627	0.0544512	0.5	
-0.0646627	-0.0272093	0.335016	
-0.188849	-0.0237464	0.373158	
-0.0527152	0.0950891	0.390784	
0.218809	0.121581	0.250148	
0.308034	0.17727	0.353981	
0.322451	0.0144002	0.334794	
0.364988	0.109735	0.263774	
-0.374813	0.199394	0.5	
-0.304559	0.211579	0.5	
-0.301517	0.172887	0.349578	
-0.276891	0.277667	0.386451	
0.115537	0.0107471	0	
0.195808	0.041614	0.135744	
0.0903521	0.10545	0	
0.04259	0.0957748	0.0972509	
-0.269341	-0.201154	0.169023	
-0.349306	-0.102086	0.237815	
-0.429146	-0.25658	0.16876	
-0.326617	-0.238576	0.253202	
-0.122627	0.0544512	0.5	
-0.0505573	-0.00469477	0.5	
-0.120671	-0.0405641	0.5	
-0.112364	-0.0877996	0.406457	
0.5	0	0.3	
0.364988	0.109735	0.263774	
0.5	0	0.2	
0.370375	-0.0671022	0.257475	
0.115537	0.0107471	0	
0.0603793	0.0090957	0.160519	
0.0461078	-0.0584269	0	
0.0349199	-0.099137	0.113215	
0.173765	0.338831	0.233339	
0.156948	0.213263	0.238247	
0.0540882	0.337091	0.15152	
0.0776161	0.251925	0.0921435	
-0.262519	-0.0832944	0.5	
-0.267316	-0.203168	0.336848	
-0.239764	-0.151909	0.5	
-0.358772	-0.11614	0.36635	
0.0603793	0.0090957	0.160519	
0.102495	0.11997	0.264802	
-0.0341142	0.113867	0.250814	
0.000906282	0.043941	0.311068	
0.0362446	-0.13014	0.250465	
0.153084	-0.0880453	0.135895	
0.0603793	0.0090957	0.160519	
0.143921	-0.0736091	0.260892	
0.227799	0.256719	0.161264	
0.156948	0.213263	0.238247	
0.173765	0.338831	0.233339	
0.0776161	0.251925	0.0921435	
0.316847	0.386792	0.198616	
0.227799	0.256719	0.161264	
0.315434	0.222572	0.240138	
0.173765	0.338831	0.233339	
-0.439384	0.238625	0.423358	
-0.450312	0.217299	0.354112	
-0.416747	0.276265	0.362548	
-0.301517	0.172887	0.349578	
-0.0739341	-0.184055	0.34975	
0.0943746	-0.140978	0.374495	
0.0362446	-0.13014	0.250465	
-0.00932629	-0.104346	0.393808	
-0.145646	0.149141	0.5	
-0.0728851	0.200383	0.343081	
-0.0527152	0.0950891	0.390784	
-0.201617	0.192684	0.393966	
-0.468495	-0.174678	0.182891	
-0.429146	-0.25658	0.16876	
-0.269341	-0.201154	0.169023	
-0.349306	-0.102086	0.237815	
0.25658	0.429146	0.33124	
0.22095	0.291034	0.346604	
0.228991	0.444481	0.408099	
0.0804661	0.372171	0.377993	
0.257374	-0.098487	0.223367	
0.327062	-0.133702	0.350244	
0.322451	0.0144002	0.334794	
0.205712	-0.0609706	0.365394	
0.115537	0.0107471	0	
0.0461078	-0.0584269	0	
0.153084	-0.0880453	0.135895	
0.0349199	-0.099137	0.113215	
0.154755	-0.229359	0.16737	
0.0362446	-0.13014	0.250465	
0.153084	-0.0880453	0.135895	
0.105136	-0.172994	0.0956717	
-0.468495	-0.174678	0.182891	
-0.349306	-0.102086	0.237815	
-0.269341	-0.201154	0.169023	
-0.374595	-0.0873247	0.117455	
0.115537	0.0107471	0	
0.184962	0.0799289	0	
0.0903521	0.10545	0	
0.195808	0.041614	0.135744	
0.4284	0.257824	0.295024	
0.415735	0.277785	0.365862	
0.374193	0.331632	0.334643	
0.308034	0.17727	0.353981	
0.144361	-0.223672	0.5	
0.0943746	-0.140978	0.374495	
0.203223	-0.215179	0.335428	
0.0330605	-0.234493	0.398486	
0.386505	0.317197	0.0688254	
0.380873	0.323938	0.152261	
0.227799	0.256719	0.161264	
0.327512	0.168835	0.13044	
-0.247023	0.434718	0.250558	
-0.176182	0.282501	0.333733	
-0.277293	0.260919	0.267415	
-0.13916	0.369653	0.26307	
0.267645	-0.326424	0.5	
0.163077	-0.321214	0.379886	
0.307193	-0.244124	0.374573	
0.251456	-0.316364	0.331038	
0.0904908	0.170765	0.159817	
0.195808	0.041614	0.135744	
0.218809	0.121581	0.250148	
0.134907	0.0287462	0.229115	
0.0603793	0.0090957	0.160519	
0.195808	0.041614	0.135744	
0.0904908	0.170765	0.159817	
0.134907	0.0287462	0.229115	
0.196796	0.354228	0.5	
0.22095	0.291034	0.346604	
0.122026	0.332598	0.5	
0.0804661	0.372171	0.377993	
-0.0505573	-0.00469477	0.5	
-0.00932629	-0.104346	0.393808	
-0.0646627	-0.0272093	0.335016	
0.0390655	0.0525248	0.401715	
0.0362446	-0.13014	0.250465	
0.0603793	0.0090957	0.160519	
0.153084	-0.0880453	0.135895	
0.0349199	-0.099137	0.113215	
-0.117671	-0.10197	0	
-0.220281	-0.031921	0.125401	
-0.211369	-0.0761151	0	
-0.147445	-0.179827	0.128956	
-0.374813	0.199394	0.5	
-0.301517	0.172887	0.349578	
-0.439384	0.238625	0.423358	
-0.276891	0.277667	0.386451	
-0.209296	-0.0687964	0.252985	
-0.358772	-0.11614	0.36635	
-0.267316	-0.203168	0.336848	
-0.175968	-0.135992	0.338029	
-0.238308	0.160613	0.208202	
-0.301517	0.172887	0.349578	
-0.201798	0.0517729	0.246381	
-0.206936	0.196576	0.295071	
-0.145646	0.149141	0.5	
-0.0728851	0.200383	0.343081	
-0.201617	0.192684	0.393966	
-0.0919101	0.279835	0.40279	
-0.334634	0.00771017	0.33657	
-0.201798	0.0517729	0.246381	
-0.354878	0.123846	0.244627	
-0.261609	0.0749827	0.393802	
-0.159378	0.10044	0.348698	
-0.0527152	0.0950891	0.390784	
-0.0728851	0.200383	0.343081	
-0.201617	0.192684	0.393966	
0.144361	-0.223672	0.5	
0.203223	-0.215179	0.335428	
0.163077	-0.321214	0.379886	
0.0330605	-0.234493	0.398486	
-0.0341142	0.113867	0.250814	
-0.0383015	0.0232581	0.102769	
-0.0444464	0.169104	0.125588	
0.04259	0.0957748	0.0972509	
-0.209296	-0.0687964	0.252985	
-0.188849	-0.0237464	0.373158	
-0.334634	0.00771017	0.33657	
-0.358772	-0.11614	0.36635	
0.0362446	-0.13014	0.250465	
0.143921	-0.0736091	0.260892	
0.0603793	0.0090957	0.160519	
0.0292443	-0.0551693	0.315985	
0.0904908	0.170765	0.159817	
0.195808	0.041614	0.135744	
0.0603793	0.0090957	0.160519	
0.04259	0.0957748	0.0972509	
-0.145646	0.149141	0.5	
-0.0527152	0.0950891	0.390784	
-0.159378	0.10044	0.348698	
-0.201617	0.192684	0.393966	
0.5	0	0.3	
0.322451	0.0144002	0.334794	
0.364988	0.109735	0.263774	
0.370375	-0.0671022	0.257475	
0.261819	0.319027	0	
0.231243	0.24169	0	
0.328092	0.270243	0	
0.227799	0.256719	0.161264	
0.227799	0.256719	0.161264	
0.173765	0.338831	0.233339	
0.167266	0.351716	0.112308	
0.0776161	0.251925	0.0921435	
-0.159378	0.10044	0.348698	
-0.301517	0.172887	0.349578	
-0.201798	0.0517729	0.246381	
-0.261609	0.0749827	0.393802	
0.0404524	-0.41072	0	
0.0704474	-0.495012	0.0718449	
0.12931	-0.356487	0.143012	
-0.0438792	-0.403194	0.0910547	
-0.26105	0.203399	0	
-0.1632	0.180339	0.117277	
-0.33672	0.17128	0.12732	
-0.24789	0.08719	0.114987	
0.469721	0.171353	0.161666	
0.493389	0.0810399	0.14715	
0.364988	0.109735	0.263774	
0.382697	0.0900146	0.0901371	
0.167266	0.351716	0.112308	
0.173765	0.338831	0.233339	
0.0540882	0.337091	0.15152	
0.0776161	0.251925	0.0921435	
-0.237047	0.0201392	0	
-0.333403	0.0238809	0.168384	
-0.220281	-0.031921	0.125401	
-0.24789	0.08719	0.114987	
0.317206	0.386498	0.299678	
0.316847	0.386792	0.198616	
0.376757	0.328716	0.246468	
0.315434	0.222572	0.240138	
-0.247023	0.434718	0.250558	
-0.256554	0.429162	0.331268	
-0.176182	0.282501	0.333733	
-0.13916	0.369653	0.26307	
0.0540882	0.337091	0.15152	
0.00240227	0.224422	0.221344	
0.0904908	0.170765	0.159817	
0.156948	0.213263	0.238247	
-0.333403	0.0238809	0.168384	
-0.334634	0.00771017	0.33657	
-0.209296	-0.0687964	0.252985	
-0.201798	0.0517729	0.246381	
-0.122627	0.0544512	0.5	
-0.188849	-0.0237464	0.373158	
-0.0646627	-0.0272093	0.335016	
-0.112364	-0.0877996	0.406457	
0.115537	0.0107471	0	
0.0461078	-0.0584269	0	
0.14072	-0.0839746	0	
0.153084	-0.0880453	0.135895	
0	0.5	0.1	
-0.0714313	0.379857	0.110067	
0.0540882	0.337091	0.15152	
-0.025976	0.384086	0.232401	
0.122026	0.332598	0.5	
0.196796	0.354228	0.5	
0.164071	0.275222	0.5	
0.22095	0.291034	0.346604	
0.0603793	0.0090957	0.160519	
-0.0341142	0.113867	0.250814	
-0.032045	0.00109893	0.228452	
0.000906282	0.043941	0.311068	
0.388496	0.195371	0.5	
0.308034	0.17727	0.353981	
0.439458	0.238488	0.424308	
0.362397	0.0936058	0.39874	
0.0904908	0.170765	0.159817	
0.218809	0.121581	0.250148	
0.102495	0.11997	0.264802	
0.134907	0.0287462	0.229115	
0.218809	0.121581	0.250148	
0.334086	0.0370714	0.16525	
0.327512	0.168835	0.13044	
0.364988	0.109735	0.263774	
-0.194667	-0.460548	0.26567	
-0.203684	-0.312652	0.313888	
-0.0835823	-0.340682	0.35067	
-0.106158	-0.374353	0.19291	
0.300884	0.198715	0	
0.327512	0.168835	0.13044	
0.231243	0.24169	0	
0.201932	0.155478	0.107683	
0.0404524	-0.41072	0	
0.12931	-0.356487	0.143012	
-0.00141651	-0.344659	0.156164	
-0.0438792	-0.403194	0.0910547	
-0.334634	0.00771017	0.33657	
-0.188849	-0.0237464	0.373158	
-0.262519	-0.0832944	0.5	
-0.358772	-0.11614	0.36635	
0.0362446	-0.13014	0.250465	
0.0943746	-0.140978	0.374495	
-0.0739341	-0.184055	0.34975	
0.0330605	-0.234493	0.398486	
-0.2429	0.437035	0.152631	
-0.0714313	0.379857	0.110067	
-0.16873	0.47067	0.201799	
-0.13916	0.369653	0.26307	
0.450285	0.217356	0.355302	
0.308034	0.17727	0.353981	
0.4284	0.257824	0.295024	
0.364988	0.109735	0.263774	
-0.385896	0.317937	0.065638	
-0.318983	0.261743	0	
-0.228343	0.287598	0.142133	
-0.33672	0.17128	0.12732	
0.294811	-0.207935	0.135593	
0.23319	-0.305698	0.109456	
0.307021	-0.223333	0.261668	
0.214683	-0.189052	0.238302	
0.317319	-0.386405	0.201487	
0.307021	-0.223333	0.261668	
0.294811	-0.207935	0.135593	
0.23319	-0.305698	0.109456	
0.322451	0.0144002	0.334794	
0.389379	-0.0521535	0.3951	
0.493012	0.0833019	0.344789	
0.362397	0.0936058	0.39874	
-0.416747	0.276265	0.362548	
-0.301517	0.172887	0.349578	
-0.429476	0.256028	0.291579	
-0.277293	0.260919	0.267415	
-0.235698	0.440961	0.0686036	
-0.2429	0.437035	0.152631	
-0.228343	0.287598	0.142133	
-0.13617	0.283588	0.0953011	
0.174678	0.468495	0.317109	
0.22095	0.291034	0.346604	
0.25658	0.429146	0.33124	
0.0804661	0.372171	0.377993	
-0.235698	0.440961	0.0686036	
-0.228343	0.287598	0.142133	
-0.201912	0.369986	0	
-0.13617	0.283588	0.0953011	
-0.428104	0.258315	0.196896	
-0.277293	0.260919	0.267415	
-0.354878	0.123846	0.244627	
-0.33672	0.17128	0.12732	
0.380207	-0.19708	0	
0.294811	-0.207935	0.135593	
0.436811	-0.243302	0.0936268	
0.360278	-0.0912969	0.138185	
-0.257824	-0.4284	0.204976	
-0.194667	-0.460548	0.26567	
-0.106158	-0.374353	0.19291	
-0.253565	-0.305449	0.208948	
0.308034	0.17727	0.353981	
0.374193	0.331632	0.334643	
0.315434	0.222572	0.240138	
0.294218	0.260673	0.410718	
-0.0779543	-0.0725374	0.153012	
-0.0200202	-0.20323	0.140535	
-0.0232782	-0.127584	0	
0.0349199	-0.099137	0.113215	
0.257374	-0.098487	0.223367	
0.205712	-0.0609706	0.365394	
0.322451	0.0144002	0.334794	
0.22873	0.00637727	0.265758	
-0.134825	0.0680349	0.146947	
-0.0444464	0.169104	0.125588	
-0.0341142	0.113867	0.250814	
-0.0383015	0.0232581	0.102769	
-0.0779543	-0.0725374	0.153012	
-0.115752	-0.145542	0.242419	
0.0362446	-0.13014	0.250465	
-0.032045	0.00109893	0.228452	
0.0904908	0.170765	0.159817	
0.218809	0.121581	0.250148	
0.195808	0.041614	0.135744	
0.201932	0.155478	0.107683	
0.203223	-0.215179	0.335428	
0.307193	-0.244124	0.374573	
0.238057	-0.243638	0.5	
0.163077	-0.321214	0.379886	
-0.220281	-0.031921	0.125401	
-0.147445	-0.179827	0.128956	
-0.209296	-0.0687964	0.252985	
-0.275077	-0.119224	0.102748	
0.203223	-0.215179	0.335428	
0.163077	-0.321214	0.379886	
0.0330605	-0.234493	0.398486	
0.109758	-0.214467	0.270707	
-0.42782	-0.0498056	0.5	
-0.334634	0.00771017	0.33657	
-0.355295	-0.0330772	0.5	
-0.358772	-0.11614	0.36635	
-0.444481	-0.228991	0.0919014	
-0.269341	-0.201154	0.169023	
-0.429146	-0.25658	0.16876	
-0.28242	-0.274225	0.0937223	
-0.277293	0.260919	0.267415	
-0.13916	0.369653	0.26307	
-0.176182	0.282501	0.333733	
-0.182431	0.271961	0.232942	
-0.269341	-0.201154	0.169023	
-0.209296	-0.0687964	0.252985	
-0.147445	-0.179827	0.128956	
-0.275077	-0.119224	0.102748	
-0.0779543	-0.0725374	0.153012	
-0.209296	-0.0687964	0.252985	
-0.220281	-0.031921	0.125401	
-0.147445	-0.179827	0.128956	
-0.0505573	-0.00469477	0.5	
-0.0646627	-0.0272093	0.335016	
-0.0527152	0.0950891	0.390784	
0.0390655	0.0525248	0.401715	
-0.16685	0.0883447	0	
-0.142648	-0.00714059	0	
-0.134825	0.0680349	0.146947	
-0.220281	-0.031921	0.125401	
-0.26105	0.203399	0	
-0.228343	0.287598	0.142133	
-0.318983	0.261743	0	
-0.33672	0.17128	0.12732	
0.0362446	-0.13014	0.250465	
-0.0739341	-0.184055	0.34975	
-0.0129443	-0.237884	0.253616	
0.0330605	-0.234493	0.398486	
0.0420691	0.427134	0	
0.114055	0.374109	0	
0.0704482	0.495012	0.0718447	
0.0540882	0.337091	0.15152	
-0.203684	-0.312652	0.313888	
-0.106158	-0.374353	0.19291	
-0.194667	-0.460548	0.26567	
-0.253565	-0.305449	0.208948	
0.439458	0.238488	0.424308	
0.308034	0.17727	0.353981	
0.388496	0.195371	0.5	
0.294218	0.260673	0.410718	
-0.0734441	0.0616893	0	
-0.0983601	0.156434	0	
-0.134825	0.0680349	0.146947	
-0.0444464	0.169104	0.125588	
0.315434	0.222572	0.240138	
0.173765	0.338831	0.233339	
0.227799	0.256719	0.161264	
0.222637	0.199452	0.310281	
0.22095	0.291034	0.346604	
0.0804661	0.372171	0.377993	
0.174678	0.468495	0.317109	
0.173765	0.338831	0.233339	
0.0461078	-0.0584269	0	
0.14072	-0.0839746	0	
0.153084	-0.0880453	0.135895	
0.0349199	-0.099137	0.113215	
0.0603793	0.0090957	0.160519	
0.143921	-0.0736091	0.260892	
0.134907	0.0287462	0.229115	
0.0292443	-0.0551693	0.315985	
0.0404524	-0.41072	0	
0.0248177	-0.313374	0	
-0.00141651	-0.344659	0.156164	
0.0667279	-0.268271	0.107506	
0.439458	0.238488	0.424308	
0.308034	0.17727	0.353981	
0.450285	0.217356	0.355302	
0.362397	0.0936058	0.39874	
-0.228343	0.287598	0.142133	
-0.277293	0.260919	0.267415	
-0.38078	0.324048	0.150149	
-0.33672	0.17128	0.12732	
0.0209546	0.0362755	0	
0.0461078	-0.0584269	0	
0.115537	0.0107471	0	
0.0603793	0.0090957	0.160519	
0.174678	0.468495	0.317109	
0.25658	0.429146	0.33124	
0.228991	0.444481	0.408099	
0.0804661	0.372171	0.377993	
-0.416747	0.276265	0.362548	
-0.388345	0.314941	0.420199	
-0.439384	0.238625	0.423358	
-0.276891	0.277667	0.386451	
0.0540882	0.337091	0.15152	
0.156948	0.213263	0.238247	
0.0904908	0.170765	0.159817	
0.0776161	0.251925	0.0921435	
0.0362446	-0.13014	0.250465	
0.0603793	0.0090957	0.160519	
0.0349199	-0.099137	0.113215	
-0.032045	0.00109893	0.228452	
0.439458	0.238488	0.424308	
0.415735	0.277785	0.365862	
0.450285	0.217356	0.355302	
0.308034	0.17727	0.353981	
-0.416747	0.276265	0.362548	
-0.301517	0.172887	0.349578	
-0.277293	0.260919	0.267415	
-0.276891	0.277667	0.386451	
0.203223	-0.215179	0.335428	
0.0943746	-0.140978	0.374495	
0.205712	-0.0609706	0.365394	
0.143921	-0.0736091	0.260892	
0.0462313	0.146805	0.364101	
0.00240227	0.224422	0.221344	
-0.0728851	0.200383	0.343081	
0.0163452	0.25475	0.392302	
0.203223	-0.215179	0.335428	
0.143921	-0.0736091	0.260892	
0.205712	-0.0609706	0.365394	
0.214683	-0.189052	0.238302	
-0.0739341	-0.184055	0.34975	
0.0330605	-0.234493	0.398486	
0.0943746	-0.140978	0.374495	
-0.00932629	-0.104346	0.393808	
0.0362446	-0.13014	0.250465	
0.0603793	0.0090957	0.160519	
-0.032045	0.00109893	0.228452	
0.0292443	-0.0551693	0.315985	
-0.267316	-0.203168	0.336848	
-0.209296	-0.0687964	0.252985	
-0.349306	-0.102086	0.237815	
-0.358772	-0.11614	0.36635	
0.22095	0.291034	0.346604	
0.173765	0.338831	0.233339	
0.315434	0.222572	0.240138	
0.222637	0.199452	0.310281	
0.0610825	-0.307257	0.314818	
0.0330605	-0.234493	0.398486	
0.163077	-0.321214	0.379886	
0.109758	-0.214467	0.270707	
0.0875494	0.278905	0.295246	
0.00240227	0.224422	0.221344	
0.0540882	0.337091	0.15152	
0.156948	0.213263	0.238247	
0.374193	0.331632	0.334643	
0.308034	0.17727	0.353981	
0.415735	0.277785	0.365862	
0.294218	0.260673	0.410718	
-0.0690274	-0.312061	0.5	
-0.0835823	-0.340682	0.35067	
-0.0739341	-0.184055	0.34975	
0.0330605	-0.234493	0.398486	
-0.209296	-0.0687964	0.252985	
-0.0779543	-0.0725374	0.153012	
-0.220281	-0.031921	0.125401	
-0.135945	-0.0117594	0.206744	
0.313791	-0.154465	0	
0.294811	-0.207935	0.135593	
0.380207	-0.19708	0	
0.360278	-0.0912969	0.138185	
-0.0324158	-0.223672	0.5	
-0.0690274	-0.312061	0.5	
-0.0739341	-0.184055	0.34975	
0.0330605	-0.234493	0.398486	
0.102495	0.11997	0.264802	
0.0603793	0.0090957	0.160519	
0.134907	0.0287462	0.229115	
0.000906282	0.043941	0.311068	
-0.429476	0.256028	0.291579	
-0.301517	0.172887	0.349578	
-0.450312	0.217299	0.354112	
-0.354878	0.123846	0.244627	
0.267645	-0.326424	0.5	
0.31678	-0.386847	0.395869	
0.213029	-0.381729	0.5	
0.163077	-0.321214	0.379886	
-0.235698	0.440961	0.0686036	
-0.153329	0.47591	0.0923815	
-0.2429	0.437035	0.152631	
-0.0714313	0.379857	0.110067	
0.0172234	0.375408	0.5	
-0.0383625	0.346848	0.349108	
0	0.5	0.4	
0.0804661	0.372171	0.377993	
-0.209296	-0.0687964	0.252985	
-0.147445	-0.179827	0.128956	
-0.0779543	-0.0725374	0.153012	
-0.115752	-0.145542	0.242419	
-0.16685	0.0883447	0	
-0.220281	-0.031921	0.125401	
-0.134825	0.0680349	0.146947	
-0.24789	0.08719	0.114987	
-0.439384	0.238625	0.423358	
-0.301517	0.172887	0.349578	
-0.374813	0.199394	0.5	
-0.374071	0.0973353	0.396281	
0.5	0	0.3	
0.322451	0.0144002	0.334794	
0.493012	0.0833019	0.344789	
0.364988	0.109735	0.263774	
-0.0341142	0.113867	0.250814	
-0.0444464	0.169104	0.125588	
0.0904908	0.170765	0.159817	
0.04259	0.0957748	0.0972509	
0.490343	0.0977967	0.241226	
0.334086	0.0370714	0.16525	
0.5	0	0.2	
0.364988	0.109735	0.263774	
0.218809	0.121581	0.250148	
0.22873	0.00637727	0.265758	
0.322451	0.0144002	0.334794	
0.240261	0.0350229	0.402836	
0.143921	-0.0736091	0.260892	
0.109758	-0.214467	0.270707	
0.154755	-0.229359	0.16737	
0.214683	-0.189052	0.238302	
-0.0728851	0.200383	0.343081	
-0.0527152	0.0950891	0.390784	
0.0462313	0.146805	0.364101	
0.0163452	0.25475	0.392302	
0.0362446	-0.13014	0.250465	
0.0330605	-0.234493	0.398486	
-0.0129443	-0.237884	0.253616	
0.109758	-0.214467	0.270707	
-0.495012	-0.0704482	0.428155	
-0.493437	-0.0807477	0.345776	
-0.5	0	0.4	
-0.358772	-0.11614	0.36635	
-0.122627	0.0544512	0.5	
-0.188849	-0.0237464	0.373158	
-0.159378	0.10044	0.348698	
-0.0527152	0.0950891	0.390784	
-0.302044	-0.0506462	0	
-0.237047	0.0201392	0	
-0.333403	0.0238809	0.168384	
-0.220281	-0.031921	0.125401	
0.317319	-0.386405	0.201487	
0.307021	-0.223333	0.261668	
0.180335	-0.320871	0.25933	
0.251456	-0.316364	0.331038	
-0.209296	-0.0687964	0.252985	
-0.334634	0.00771017	0.33657	
-0.333403	0.0238809	0.168384	
-0.349306	-0.102086	0.237815	
-0.247023	0.434718	0.250558	
-0.13916	0.369653	0.26307	
-0.277293	0.260919	0.267415	
-0.182431	0.271961	0.232942	
0.0172234	0.375408	0.5	
0	0.5	0.4	
0.0367592	0.441595	0.5	
0.0804661	0.372171	0.377993	
-0.0646627	-0.0272093	0.335016	
-0.00932629	-0.104346	0.393808	
-0.0739341	-0.184055	0.34975	
0.0292443	-0.0551693	0.315985	
-0.0925337	-0.196451	0	
-0.0200202	-0.20323	0.140535	
-0.0232782	-0.127584	0	
-0.147445	-0.179827	0.128956	
-0.355295	-0.0330772	0.5	
-0.334634	0.00771017	0.33657	
-0.262519	-0.0832944	0.5	
-0.358772	-0.11614	0.36635	
0.153084	-0.0880453	0.135895	
0.143921	-0.0736091	0.260892	
0.154755	-0.229359	0.16737	
0.214683	-0.189052	0.238302	
-0.235698	0.440961	0.0686036	
-0.201912	0.369986	0	
-0.153329	0.47591	0.0923815	
-0.0714313	0.379857	0.110067	
0.0209546	0.0362755	0	
0.0461078	-0.0584269	0	
0.0603793	0.0090957	0.160519	
-0.0383015	0.0232581	0.102769	
0.196796	0.354228	0.5	
0.146853	0.477948	0.415992	
0.228991	0.444481	0.408099	
0.0804661	0.372171	0.377993	
0.22095	0.291034	0.346604	
0.315434	0.222572	0.240138	
0.374193	0.331632	0.334643	
0.294218	0.260673	0.410718	
-0.493437	-0.0807477	0.345776	
-0.334634	0.00771017	0.33657	
-0.5	0	0.4	
-0.358772	-0.11614	0.36635	
0.195808	0.041614	0.135744	
0.153084	-0.0880453	0.135895	
0.22873	0.00637727	0.265758	
0.134907	0.0287462	0.229115	
0.203223	-0.215179	0.335428	
0.0330605	-0.234493	0.398486	
0.0943746	-0.140978	0.374495	
0.109758	-0.214467	0.270707	
0.218809	0.121581	0.250148	
0.334086	0.0370714	0.16525	
0.364988	0.109735	0.263774	
0.22873	0.00637727	0.265758	
-0.0734441	0.0616893	0	
-0.0444464	0.169104	0.125588	
-0.134825	0.0680349	0.146947	
-0.0383015	0.0232581	0.102769	
0.493012	0.0833019	0.344789	
0.364988	0.109735	0.263774	
0.322451	0.0144002	0.334794	
0.362397	0.0936058	0.39874	
-0.428104	0.258315	0.196896	
-0.38078	0.324048	0.150149	
-0.277293	0.260919	0.267415	
-0.33672	0.17128	0.12732	
0.322451	0.0144002	0.334794	
0.327062	-0.133702	0.350244	
0.257374	-0.098487	0.223367	
0.370375	-0.0671022	0.257475	
-0.354878	0.123846	0.244627	
-0.374071	0.0973353	0.396281	
-0.493012	0.0833019	0.344789	
-0.401703	-0.00567907	0.249917	
0.0362446	-0.13014	0.250465	
0.0349199	-0.099137	0.113215	
0.153084	-0.0880453	0.135895	
0.105136	-0.172994	0.0956717	
-0.333403	0.0238809	0.168384	
-0.354878	0.123846	0.244627	
-0.334634	0.00771017	0.33657	
-0.201798	0.0517729	0.246381	
0.0904908	0.170765	0.159817	
0.201932	0.155478	0.107683	
0.195808	0.041614	0.135744	
0.04259	0.0957748	0.0972509	
0.0362446	-0.13014	0.250465	
0.0943746	-0.140978	0.374495	
0.0330605	-0.234493	0.398486	
0.109758	-0.214467	0.270707	
0.257374	-0.098487	0.223367	
0.205712	-0.0609706	0.365394	
0.143921	-0.0736091	0.260892	
0.214683	-0.189052	0.238302	
0.0903521	0.10545	0	
0.201932	0.155478	0.107683	
0.0904908	0.170765	0.159817	
0.04259	0.0957748	0.0972509	
-0.211369	-0.0761151	0	
-0.147445	-0.179827	0.128956	
-0.220281	-0.031921	0.125401	
-0.275077	-0.119224	0.102748	
-0.118932	0.39861	0	
-0.201912	0.369986	0	
-0.138674	0.323797	0	
-0.13617	0.283588	0.0953011	
0.38078	-0.324048	0.150149	
0.294811	-0.207935	0.135593	
0.317319	-0.386405	0.201487	
0.307021	-0.223333	0.261668	
0.471122	-0.167464	0.300106	
0.307021	-0.223333	0.261668	
0.327062	-0.133702	0.350244	
0.368159	-0.173753	0.197234	
0.133074	0.264097	0	
0.201932	0.155478	0.107683	
0.227799	0.256719	0.161264	
0.0776161	0.251925	0.0921435	
0.203223	-0.215179	0.335428	
0.0943746	-0.140978	0.374495	
0.144361	-0.223672	0.5	
0.24114	-0.149085	0.404027	
0.0362446	-0.13014	0.250465	
-0.0129443	-0.237884	0.253616	
-0.0200202	-0.20323	0.140535	
0.0675207	-0.289808	0.212123	
0	0.5	0.1	
-0.0372406	0.417791	0	
0.0420691	0.427134	0	
-0.0714313	0.379857	0.110067	
-0.0810399	-0.493389	0.35285	
-0.0835823	-0.340682	0.35067	
-0.0684459	-0.495293	0.431403	
0.0372725	-0.390151	0.392733	
-0.117671	-0.10197	0	
-0.0925337	-0.196451	0	
-0.0232782	-0.127584	0	
-0.147445	-0.179827	0.128956	
-0.262519	-0.0832944	0.5	
-0.334634	0.00771017	0.33657	
-0.294862	0.0237806	0.5	
-0.188849	-0.0237464	0.373158	
-0.5	0	0.1	
-0.333403	0.0238809	0.168384	
-0.5	0	0.2	
-0.374595	-0.0873247	0.117455	
0.334086	0.0370714	0.16525	
0.22873	0.00637727	0.265758	
0.195808	0.041614	0.135744	
0.257685	-0.0506834	0.101558	
0.231243	0.24169	0	
0.327512	0.168835	0.13044	
0.227799	0.256719	0.161264	
0.201932	0.155478	0.107683	
0.0362446	-0.13014	0.250465	
0.0349199	-0.099137	0.113215	
-0.0779543	-0.0725374	0.153012	
-0.032045	0.00109893	0.228452	
-0.239764	-0.151909	0.5	
-0.307929	-0.189485	0.5	
-0.358772	-0.11614	0.36635	
-0.340496	-0.224073	0.407589	
-0.450312	0.217299	0.354112	
-0.301517	0.172887	0.349578	
-0.439384	0.238625	0.423358	
-0.374071	0.0973353	0.396281	
-0.429476	0.256028	0.291579	
-0.354878	0.123846	0.244627	
-0.428104	0.258315	0.196896	
-0.277293	0.260919	0.267415	
0.0651412	0.200096	0	
0.0903521	0.10545	0	
0.0904908	0.170765	0.159817	
0.04259	0.0957748	0.0972509	
0.317206	0.386498	0.299678	
0.374193	0.331632	0.334643	
0.22095	0.291034	0.346604	
0.315434	0.222572	0.240138	
-0.134825	0.0680349	0.146947	
-0.0341142	0.113867	0.250814	
-0.032045	0.00109893	0.228452	
-0.0383015	0.0232581	0.102769	
0.218809	0.121581	0.250148	
0.327512	0.168835	0.13044	
0.334086	0.0370714	0.16525	
0.278081	0.0866882	0.0962345	
0.0404524	-0.41072	0	
-0.00141651	-0.344659	0.156164	
0.12931	-0.356487	0.143012	
0.0667279	-0.268271	0.107506	
0.469721	0.171353	0.161666	
0.364988	0.109735	0.263774	
0.327512	0.168835	0.13044	
0.382697	0.0900146	0.0901371	
0.257374	-0.098487	0.223367	
0.22873	0.00637727	0.265758	
0.334086	0.0370714	0.16525	
0.257685	-0.0506834	0.101558	
0.0461078	-0.0584269	0	
0.0349199	-0.099137	0.113215	
0.0603793	0.0090957	0.160519	
-0.0383015	0.0232581	0.102769	
-0.142648	-0.00714059	0	
-0.0779543	-0.0725374	0.153012	
-0.048473	-0.0328568	0	
-0.0383015	0.0232581	0.102769	
0.0875494	0.278905	0.295246	
-0.025976	0.384086	0.232401	
0.00240227	0.224422	0.221344	
-0.0867488	0.283314	0.2887	
0.143921	-0.0736091	0.260892	
0.22873	0.00637727	0.265758	
0.153084	-0.0880453	0.135895	
0.134907	0.0287462	0.229115	
0.493012	0.0833019	0.344789	
0.389379	-0.0521535	0.3951	
0.5	0	0.4	
0.362397	0.0936058	0.39874	
0.386505	0.317197	0.0688254	
0.380873	0.323938	0.152261	
0.317233	0.386476	0.0904728	
0.227799	0.256719	0.161264	
0.493012	0.0833019	0.344789	
0.322451	0.0144002	0.334794	
0.5	0	0.3	
0.389379	-0.0521535	0.3951	
-0.118932	0.39861	0	
-0.0714313	0.379857	0.110067	
-0.201912	0.369986	0	
-0.13617	0.283588	0.0953011	
-0.117671	-0.10197	0	
-0.048473	-0.0328568	0	
-0.142648	-0.00714059	0	
-0.0779543	-0.0725374	0.153012	
0.231243	0.24169	0	
0.227799	0.256719	0.161264	
0.133074	0.264097	0	
0.201932	0.155478	0.107683	
0.125573	-0.41396	0	
0.0404524	-0.41072	0	
0.0704474	-0.495012	0.0718449	
0.12931	-0.356487	0.143012	
0.0651412	0.200096	0	
0.0903521	0.10545	0	
0.158056	0.171884	0	
0.0904908	0.170765	0.159817	
-0.416747	0.276265	0.362548	
-0.277293	0.260919	0.267415	
-0.373696	0.332191	0.334057	
-0.276891	0.277667	0.386451	
-0.337562	0.0547633	0	
-0.333403	0.0238809	0.168384	
-0.237047	0.0201392	0	
-0.24789	0.08719	0.114987	
0.476132	-0.152637	0.402329	
0.327062	-0.133702	0.350244	
0.415496	-0.123332	0.5	
0.389379	-0.0521535	0.3951	
-0.159378	0.10044	0.348698	
-0.188849	-0.0237464	0.373158	
-0.0646627	-0.0272093	0.335016	
-0.0527152	0.0950891	0.390784	
0.0903521	0.10545	0	
0.158056	0.171884	0	
0.0904908	0.170765	0.159817	
0.201932	0.155478	0.107683	
-0.385896	0.317937	0.065638	
-0.228343	0.287598	0.142133	
-0.38078	0.324048	0.150149	
-0.33672	0.17128	0.12732	
0.0875494	0.278905	0.295246	
-0.0383625	0.346848	0.349108	
-0.025976	0.384086	0.232401	
-0.0867488	0.283314	0.2887	
0	0.5	0.3	
0	0.5	0.4	
-0.0383625	0.346848	0.349108	
0.0804661	0.372171	0.377993	
0.174738	-0.468473	0.317184	
0.0372725	-0.390151	0.392733	
0.163077	-0.321214	0.379886	
0.0955273	-0.385908	0.250582	
0.439384	-0.238625	0.423358	
0.327062	-0.133702	0.350244	
0.450312	-0.217299	0.354112	
0.307193	-0.244124	0.374573	
0.5	0	0.2	
0.370375	-0.0671022	0.257475	
0.334086	0.0370714	0.16525	
0.400931	-0.00647911	0.10587	
-0.256554	0.429162	0.331268	
-0.276891	0.277667	0.386451	
-0.176182	0.282501	0.333733	
-0.138443	0.369144	0.39287	
0.210156	-0.0147965	0	
0.195808	0.041614	0.135744	
0.115537	0.0107471	0	
0.153084	-0.0880453	0.135895	
0.0875494	0.278905	0.295246	
0.0462313	0.146805	0.364101	
0.00240227	0.224422	0.221344	
0.102495	0.11997	0.264802	
-0.124401	-0.265319	0.22424	
-0.179346	-0.240708	0.39897	
-0.0739341	-0.184055	0.34975	
-0.20429	-0.202208	0.252162	
0.267645	-0.326424	0.5	
0.180973	-0.312061	0.5	
0.238057	-0.243638	0.5	
0.163077	-0.321214	0.379886	
-0.0341142	0.113867	0.250814	
-0.0728851	0.200383	0.343081	
0.0462313	0.146805	0.364101	
0.00240227	0.224422	0.221344	
-0.355295	-0.0330772	0.5	
-0.294862	0.0237806	0.5	
-0.262519	-0.0832944	0.5	
-0.334634	0.00771017	0.33657	
0.196796	0.354228	0.5	
0.22095	0.291034	0.346604	
0.3168	0.386831	0.395903	
0.294218	0.260673	0.410718	
0.439458	0.238488	0.424308	
0.415735	0.277785	0.365862	
0.308034	0.17727	0.353981	
0.294218	0.260673	0.410718	
0.154755	-0.229359	0.16737	
0.180335	-0.320871	0.25933	
0.23319	-0.305698	0.109456	
0.214683	-0.189052	0.238302	
-0.0779543	-0.0725374	0.153012	
-0.0200202	-0.20323	0.140535	
0.0362446	-0.13014	0.250465	
-0.115752	-0.145542	0.242419	
-0.0200202	-0.20323	0.140535	
0.0349199	-0.099137	0.113215	
0.0362446	-0.13014	0.250465	
0.105136	-0.172994	0.0956717	
-0.493378	0.0811073	0.146993	
-0.354878	0.123846	0.244627	
-0.333403	0.0238809	0.168384	
-0.391093	0.0790791	0.0957818	
0.308034	0.17727	0.353981	
0.240261	0.0350229	0.402836	
0.362397	0.0936058	0.39874	
0.225245	0.18886	0.408136	
0.0943746	-0.140978	0.374495	
0.143921	-0.0736091	0.260892	
0.203223	-0.215179	0.335428	
0.109758	-0.214467	0.270707	
-0.429476	0.256028	0.291579	
-0.301517	0.172887	0.349578	
-0.354878	0.123846	0.244627	
-0.277293	0.260919	0.267415	
0.0404524	-0.41072	0	
0.112799	-0.33356	0	
0.0248177	-0.313374	0	
0.0667279	-0.268271	0.107506	
0.327512	0.168835	0.13044	
0.364988	0.109735	0.263774	
0.334086	0.0370714	0.16525	
0.382697	0.0900146	0.0901371	
-0.261345	-0.230036	0	
-0.28242	-0.274225	0.0937223	
-0.147445	-0.179827	0.128956	
-0.275077	-0.119224	0.102748	
0.0955515	0.0190038	0.323994	
0.22873	0.00637727	0.265758	
0.17182	0.113313	0.371264	
0.14023	0.0298174	0.409574	
0.490343	0.0977967	0.241226	
0.493389	0.0810399	0.14715	
0.334086	0.0370714	0.16525	
0.364988	0.109735	0.263774	
-0.0977967	-0.490343	0.258774	
-0.194667	-0.460548	0.26567	
-0.0835823	-0.340682	0.35067	
-0.106158	-0.374353	0.19291	
-0.337562	0.0547633	0	
-0.374595	-0.0873247	0.117455	
-0.333403	0.0238809	0.168384	
-0.391093	0.0790791	0.0957818	
-0.122627	0.0544512	0.5	
-0.120671	-0.0405641	0.5	
-0.188849	-0.0237464	0.373158	
-0.112364	-0.0877996	0.406457	
-0.416747	0.276265	0.362548	
-0.450312	0.217299	0.354112	
-0.429476	0.256028	0.291579	
-0.301517	0.172887	0.349578	
-0.16685	0.0883447	0	
-0.237047	0.0201392	0	
-0.142648	-0.00714059	0	
-0.220281	-0.031921	0.125401	
-0.118932	0.39861	0	
-0.153329	0.47591	0.0923815	
-0.201912	0.369986	0	
-0.0714313	0.379857	0.110067	
-0.269341	-0.201154	0.169023	
-0.147445	-0.179827	0.128956	
-0.28242	-0.274225	0.0937223	
-0.275077	-0.119224	0.102748	
0.0875494	0.278905	0.295246	
0.00240227	0.224422	0.221344	
0.0462313	0.146805	0.364101	
0.0163452	0.25475	0.392302	
-0.191056	0.29295	0.5	
-0.201617	0.192684	0.393966	
-0.176182	0.282501	0.333733	
-0.0919101	0.279835	0.40279	
0.218809	0.121581	0.250148	
0.364988	0.109735	0.263774	
0.327512	0.168835	0.13044	
0.315434	0.222572	0.240138	
0.360278	-0.0912969	0.138185	
0.370375	-0.0671022	0.257475	
0.493378	-0.0811073	0.146993	
0.400931	-0.00647911	0.10587	
-0.0690274	-0.312061	0.5	
-0.0739341	-0.184055	0.34975	
-0.0835823	-0.340682	0.35067	
-0.179346	-0.240708	0.39897	
-0.334634	0.00771017	0.33657	
-0.349306	-0.102086	0.237815	
-0.209296	-0.0687964	0.252985	
-0.358772	-0.11614	0.36635	
0.450285	0.217356	0.355302	
0.4284	0.257824	0.295024	
0.470916	0.168043	0.300126	
0.364988	0.109735	0.263774	
-0.333403	0.0238809	0.168384	
-0.354878	0.123846	0.244627	
-0.493378	0.0811073	0.146993	
-0.401703	-0.00567907	0.249917	
0.133074	0.264097	0	
0.231243	0.24169	0	
0.189613	0.313662	0	
0.227799	0.256719	0.161264	
0.5	0	0.3	
0.490343	0.0977967	0.241226	
0.5	0	0.2	
0.364988	0.109735	0.263774	
-0.471122	0.167464	0.300106	
-0.429476	0.256028	0.291579	
-0.450312	0.217299	0.354112	
-0.354878	0.123846	0.244627	
0.261819	0.319027	0	
0.227799	0.256719	0.161264	
0.317233	0.386476	0.0904728	
0.167266	0.351716	0.112308	
0.429476	-0.256028	0.291579	
0.327062	-0.133702	0.350244	
0.471122	-0.167464	0.300106	
0.307021	-0.223333	0.261668	
-0.0372406	0.417791	0	
0.0153159	0.363557	0	
0.0420691	0.427134	0	
-0.0714313	0.379857	0.110067	
0.257374	-0.098487	0.223367	
0.153084	-0.0880453	0.135895	
0.143921	-0.0736091	0.260892	
0.22873	0.00637727	0.265758	
0.366699	-0.192277	0.5	
0.415496	-0.123332	0.5	
0.476132	-0.152637	0.402329	
0.327062	-0.133702	0.350244	
0.0704482	0.495012	0.0718447	
0.0540882	0.337091	0.15152	
0.114055	0.374109	0	
0.167266	0.351716	0.112308	
0.478516	-0.14499	0.0762896	
0.380207	-0.19708	0	
0.436811	-0.243302	0.0936268	
0.360278	-0.0912969	0.138185	
-0.247023	0.434718	0.250558	
-0.228343	0.287598	0.142133	
-0.13916	0.369653	0.26307	
-0.182431	0.271961	0.232942	
-0.209296	-0.0687964	0.252985	
-0.269341	-0.201154	0.169023	
-0.147445	-0.179827	0.128956	
-0.20429	-0.202208	0.252162	
0.218809	0.121581	0.250148	
0.195808	0.041614	0.135744	
0.334086	0.0370714	0.16525	
0.22873	0.00637727	0.265758	
-0.0983601	0.156434	0	
-0.134825	0.0680349	0.146947	
-0.0444464	0.169104	0.125588	
-0.1632	0.180339	0.117277	
0.478516	-0.14499	0.0762896	
0.394936	-0.119803	0	
0.380207	-0.19708	0	
0.360278	-0.0912969	0.138185	
0.0955515	0.0190038	0.323994	
0.17182	0.113313	0.371264	
0.22873	0.00637727	0.265758	
0.134907	0.0287462	0.229115	
-0.0341142	0.113867	0.250814	
0.00240227	0.224422	0.221344	
0.0462313	0.146805	0.364101	
0.102495	0.11997	0.264802	
0.0897768	0.149878	0.5	
0.0462313	0.146805	0.364101	
0.17182	0.113313	0.371264	
0.0390655	0.0525248	0.401715	
0.122026	0.332598	0.5	
0.22095	0.291034	0.346604	
0.164071	0.275222	0.5	
0.132706	0.223572	0.389729	
0.196796	0.354228	0.5	
0.177987	0.433818	0.5	
0.146853	0.477948	0.415992	
0.0804661	0.372171	0.377993	
0.242026	0.154212	0.5	
0.315521	0.155675	0.5	
0.242205	0.0836605	0.5	
0.225245	0.18886	0.408136	
0.490343	0.0977967	0.241226	
0.493389	0.0810399	0.14715	
0.5	0	0.2	
0.334086	0.0370714	0.16525	
-0.145646	0.149141	0.5	
-0.0572576	0.185752	0.5	
-0.0728851	0.200383	0.343081	
-0.0919101	0.279835	0.40279	
0.362397	0.0936058	0.39874	
0.240261	0.0350229	0.402836	
0.242205	0.0836605	0.5	
0.225245	0.18886	0.408136	
0.0209546	0.0362755	0	
0.0603793	0.0090957	0.160519	
0.115537	0.0107471	0	
0.04259	0.0957748	0.0972509	
-0.0200202	-0.20323	0.140535	
0.0667279	-0.268271	0.107506	
0.154755	-0.229359	0.16737	
0.0675207	-0.289808	0.212123	
0.317206	0.386498	0.299678	
0.376757	0.328716	0.246468	
0.374193	0.331632	0.334643	
0.315434	0.222572	0.240138	
0	0.5	0.4	
-0.0430682	0.437279	0.5	
-0.0690566	0.495208	0.430964	
-0.0383625	0.346848	0.349108	
-0.0572576	0.185752	0.5	
0.0462313	0.146805	0.364101	
0.00344957	0.138123	0.5	
-0.0527152	0.0950891	0.390784	
0.144361	-0.223672	0.5	
0.203223	-0.215179	0.335428	
0.238057	-0.243638	0.5	
0.163077	-0.321214	0.379886	
-0.16685	0.0883447	0	
-0.237047	0.0201392	0	
-0.220281	-0.031921	0.125401	
-0.24789	0.08719	0.114987	
0.322451	0.0144002	0.334794	
0.364988	0.109735	0.263774	
0.334086	0.0370714	0.16525	
0.22873	0.00637727	0.265758	
0.218809	0.121581	0.250148	
0.327512	0.168835	0.13044	
0.227799	0.256719	0.161264	
0.315434	0.222572	0.240138	
0	0.5	0.4	
0.0172234	0.375408	0.5	
-0.0430682	0.437279	0.5	
-0.0383625	0.346848	0.349108	
-0.294862	0.0237806	0.5	
-0.188849	-0.0237464	0.373158	
-0.334634	0.00771017	0.33657	
-0.261609	0.0749827	0.393802	
-0.416747	0.276265	0.362548	
-0.429476	0.256028	0.291579	
-0.373696	0.332191	0.334057	
-0.277293	0.260919	0.267415	
-0.334634	0.00771017	0.33657	
-0.374071	0.0973353	0.396281	
-0.354878	0.123846	0.244627	
-0.401703	-0.00567907	0.249917	
-0.0835823	-0.340682	0.35067	
-0.0129443	-0.237884	0.253616	
-0.0739341	-0.184055	0.34975	
0.0330605	-0.234493	0.398486	
-0.176182	0.282501	0.333733	
-0.276891	0.277667	0.386451	
-0.191056	0.29295	0.5	
-0.138443	0.369144	0.39287	
0.0747819	-0.266651	0.5	
0.112358	-0.334816	0.5	
0.0420567	-0.345657	0.5	
0.0330605	-0.234493	0.398486	
0.0610825	-0.307257	0.314818	
-0.0129443	-0.237884	0.253616	
-0.0835823	-0.340682	0.35067	
0.0330605	-0.234493	0.398486	
0.218809	0.121581	0.250148	
0.227799	0.256719	0.161264	
0.327512	0.168835	0.13044	
0.201932	0.155478	0.107683	
-0.5	0	0.1	
-0.333403	0.0238809	0.168384	
-0.374595	-0.0873247	0.117455	
-0.391093	0.0790791	0.0957818	
-0.0200202	-0.20323	0.140535	
0.154755	-0.229359	0.16737	
0.0667279	-0.268271	0.107506	
0.105136	-0.172994	0.0956717	
0.153328	0.47591	0.0923699	
0.0540882	0.337091	0.15152	
0.0704482	0.495012	0.0718447	
0.167266	0.351716	0.112308	
-0.0739341	-0.184055	0.34975	
-0.00932629	-0.104346	0.393808	
0.0362446	-0.13014	0.250465	
0.0292443	-0.0551693	0.315985	
-0.209296	-0.0687964	0.252985	
-0.349306	-0.102086	0.237815	
-0.220281	-0.031921	0.125401	
-0.275077	-0.119224	0.102748	
0.234372	0.286063	0.5	
0.22095	0.291034	0.346604	
0.196796	0.354228	0.5	
0.294218	0.260673	0.410718	
0.174678	0.468495	0.317109	
0.25658	0.429146	0.33124	
0.22095	0.291034	0.346604	
0.173765	0.338831	0.233339	
0.334086	0.0370714	0.16525	
0.364988	0.109735	0.263774	
0.322451	0.0144002	0.334794	
0.370375	-0.0671022	0.257475	
0.450312	-0.217299	0.354112	
0.327062	-0.133702	0.350244	
0.429476	-0.256028	0.291579	
0.307193	-0.244124	0.374573	
0.133074	0.264097	0	
0.227799	0.256719	0.161264	
0.189613	0.313662	0	
0.167266	0.351716	0.112308	
-0.145646	0.149141	0.5	
-0.0572576	0.185752	0.5	
-0.0785029	0.119253	0.5	
-0.0527152	0.0950891	0.390784	
-0.0646627	-0.0272093	0.335016	
-0.032045	0.00109893	0.228452	
-0.115752	-0.145542	0.242419	
-0.135945	-0.0117594	0.206744	
-0.16685	0.0883447	0	
-0.0734441	0.0616893	0	
-0.0983601	0.156434	0	
-0.134825	0.0680349	0.146947	
0.0704482	0.495012	0.0718447	
0.0807477	0.493437	0.154224	
0	0.5	0.1	
0.0540882	0.337091	0.15152	
0.471122	-0.167464	0.300106	
0.429476	-0.256028	0.291579	
0.450312	-0.217299	0.354112	
0.327062	-0.133702	0.350244	
0.163077	-0.321214	0.379886	
0.0372725	-0.390151	0.392733	
0.0610825	-0.307257	0.314818	
0.0955273	-0.385908	0.250582	
0.218809	0.121581	0.250148	
0.17182	0.113313	0.371264	
0.22873	0.00637727	0.265758	
0.240261	0.0350229	0.402836	
0.374193	0.331632	0.334643	
0.4284	0.257824	0.295024	
0.308034	0.17727	0.353981	
0.315434	0.222572	0.240138	
-0.0739341	-0.184055	0.34975	
-0.0835823	-0.340682	0.35067	
-0.124401	-0.265319	0.22424	
-0.0129443	-0.237884	0.253616	
0.416747	-0.276265	0.362548	
0.450312	-0.217299	0.354112	
0.429476	-0.256028	0.291579	
0.307193	-0.244124	0.374573	
0.261819	0.319027	0	
0.189613	0.313662	0	
0.231243	0.24169	0	
0.227799	0.256719	0.161264	
0.147585	-0.477722	0.416442	
0.163077	-0.321214	0.379886	
0.174738	-0.468473	0.317184	
0.0372725	-0.390151	0.392733	
0.122026	0.332598	0.5	
0.0804661	0.372171	0.377993	
0.22095	0.291034	0.346604	
0.132706	0.223572	0.389729	
-0.0324158	-0.223672	0.5	
-0.0739341	-0.184055	0.34975	
-0.0690274	-0.312061	0.5	
-0.179346	-0.240708	0.39897	
0.439467	0.0432837	0.5	
0.5	0	0.4	
0.389379	-0.0521535	0.3951	
0.362397	0.0936058	0.39874	
0.0603793	0.0090957	0.160519	
0.0904908	0.170765	0.159817	
0.102495	0.11997	0.264802	
0.134907	0.0287462	0.229115	
0.4284	0.257824	0.295024	
0.450285	0.217356	0.355302	
0.415735	0.277785	0.365862	
0.308034	0.17727	0.353981	
0.439384	-0.238625	0.423358	
0.476132	-0.152637	0.402329	
0.450312	-0.217299	0.354112	
0.327062	-0.133702	0.350244	
-0.468495	-0.174678	0.182891	
-0.429146	-0.25658	0.16876	
-0.349306	-0.102086	0.237815	
-0.326617	-0.238576	0.253202	
-0.317163	0.386533	0.299742	
-0.176182	0.282501	0.333733	
-0.256554	0.429162	0.331268	
-0.276891	0.277667	0.386451	
-0.238308	0.160613	0.208202	
-0.277293	0.260919	0.267415	
-0.228343	0.287598	0.142133	
-0.33672	0.17128	0.12732	
-0.117671	-0.10197	0	
-0.142648	-0.00714059	0	
-0.211369	-0.0761151	0	
-0.220281	-0.031921	0.125401	
0.0875494	0.278905	0.295246	
0.0540882	0.337091	0.15152	
0.173765	0.338831	0.233339	
0.156948	0.213263	0.238247	
-0.124401	-0.265319	0.22424	
-0.203684	-0.312652	0.313888	
-0.179346	-0.240708	0.39897	
-0.20429	-0.202208	0.252162	
-0.209296	-0.0687964	0.252985	
-0.349306	-0.102086	0.237815	
-0.333403	0.0238809	0.168384	
-0.220281	-0.031921	0.125401	
-0.0232782	-0.127584	0	
-0.048473	-0.0328568	0	
-0.0779543	-0.0725374	0.153012	
0.0349199	-0.099137	0.113215	
-0.354878	0.123846	0.244627	
-0.277293	0.260919	0.267415	
-0.238308	0.160613	0.208202	
-0.33672	0.17128	0.12732	
0.4284	0.257824	0.295024	
0.364988	0.109735	0.263774	
0.308034	0.17727	0.353981	
0.315434	0.222572	0.240138	
-0.239764	-0.151909	0.5	
-0.358772	-0.11614	0.36635	
-0.267316	-0.203168	0.336848	
-0.340496	-0.224073	0.407589	
-0.444481	-0.228991	0.0919014	
-0.468495	-0.174678	0.182891	
-0.429146	-0.25658	0.16876	
-0.374595	-0.0873247	0.117455	
-0.0728851	0.200383	0.343081	
0.0163452	0.25475	0.392302	
0.00240227	0.224422	0.221344	
-0.0867488	0.283314	0.2887	
0.334086	0.0370714	0.16525	
0.370375	-0.0671022	0.257475	
0.322451	0.0144002	0.334794	
0.22873	0.00637727	0.265758	
0.0362446	-0.13014	0.250465	
0.109758	-0.214467	0.270707	
-0.0129443	-0.237884	0.253616	
0.0675207	-0.289808	0.212123	
0.5	0	0.2	
0.493378	-0.0811073	0.146993	
0.370375	-0.0671022	0.257475	
0.400931	-0.00647911	0.10587	
0.227799	0.256719	0.161264	
0.167266	0.351716	0.112308	
0.133074	0.264097	0	
0.0776161	0.251925	0.0921435	
-0.209296	-0.0687964	0.252985	
-0.267316	-0.203168	0.336848	
-0.349306	-0.102086	0.237815	
-0.20429	-0.202208	0.252162	
0.218809	0.121581	0.250148	
0.334086	0.0370714	0.16525	
0.195808	0.041614	0.135744	
0.278081	0.0866882	0.0962345	
-0.145646	0.149141	0.5	
-0.0728851	0.200383	0.343081	
-0.0572576	0.185752	0.5	
-0.0527152	0.0950891	0.390784	
0.334086	0.0370714	0.16525	
0.257374	-0.098487	0.223367	
0.370375	-0.0671022	0.257475	
0.22873	0.00637727	0.265758	
0.174678	0.468495	0.317109	
0.173765	0.338831	0.233339	
0.0804661	0.372171	0.377993	
0.0772326	0.384839	0.269201	
-0.0232782	-0.127584	0	
-0.048473	-0.0328568	0	
-0.117671	-0.10197	0	
-0.0779543	-0.0725374	0.153012	
0.238057	-0.243638	0.5	
0.203223	-0.215179	0.335428	
0.144361	-0.223672	0.5	
0.24114	-0.149085	0.404027	
0.0875494	0.278905	0.295246	
0.0804661	0.372171	0.377993	
0.22095	0.291034	0.346604	
0.173765	0.338831	0.233339	
0.5	0	0.2	
0.334086	0.0370714	0.16525	
0.493389	0.0810399	0.14715	
0.400931	-0.00647911	0.10587	
0	-0.5	0.1	
0.0807376	-0.493438	0.154216	
0.0704474	-0.495012	0.0718449	
-0.0438792	-0.403194	0.0910547	
0.261819	0.319027	0	
0.189613	0.313662	0	
0.227799	0.256719	0.161264	
0.167266	0.351716	0.112308	
0.0610825	-0.307257	0.314818	
0.0372725	-0.390151	0.392733	
0.163077	-0.321214	0.379886	
0.0330605	-0.234493	0.398486	
0.173765	0.338831	0.233339	
0.156948	0.213263	0.238247	
0.227799	0.256719	0.161264	
0.222637	0.199452	0.310281	
-0.333403	0.0238809	0.168384	
-0.220281	-0.031921	0.125401	
-0.349306	-0.102086	0.237815	
-0.275077	-0.119224	0.102748	
-0.302044	-0.0506462	0	
-0.333403	0.0238809	0.168384	
-0.337562	0.0547633	0	
-0.374595	-0.0873247	0.117455	
-0.0983601	0.156434	0	
-0.16685	0.0883447	0	
-0.134825	0.0680349	0.146947	
-0.1632	0.180339	0.117277	
-0.032045	0.00109893	0.228452	
0.0292443	-0.0551693	0.315985	
0.0955515	0.0190038	0.323994	
0.000906282	0.043941	0.311068	
-0.302044	-0.0506462	0	
-0.237047	0.0201392	0	
-0.337562	0.0547633	0	
-0.333403	0.0238809	0.168384	
-0.493315	-0.0814864	0.152319	
-0.5	0	0.1	
-0.5	0	0.2	
-0.374595	-0.0873247	0.117455	
0.315521	0.155675	0.5	
0.362397	0.0936058	0.39874	
0.242205	0.0836605	0.5	
0.225245	0.18886	0.408136	
0.439467	0.0432837	0.5	
0.495101	0.0698189	0.427621	
0.5	0	0.4	
0.362397	0.0936058	0.39874	
0.0404524	-0.41072	0	
0.12931	-0.356487	0.143012	
0.112799	-0.33356	0	
0.0667279	-0.268271	0.107506	
0.471122	-0.167464	0.300106	
0.327062	-0.133702	0.350244	
0.370375	-0.0671022	0.257475	
0.368159	-0.173753	0.197234	
-0.334634	0.00771017	0.33657	
-0.354878	0.123846	0.244627	
-0.301517	0.172887	0.349578	
-0.261609	0.0749827	0.393802	
0.377032	-0.3284	0.243217	
0.38078	-0.324048	0.150149	
0.317319	-0.386405	0.201487	
0.307021	-0.223333	0.261668	
0.415496	-0.123332	0.5	
0.327062	-0.133702	0.350244	
0.338823	-0.0848934	0.5	
0.389379	-0.0521535	0.3951	
0.218809	0.121581	0.250148	
0.17182	0.113313	0.371264	
0.308034	0.17727	0.353981	
0.222637	0.199452	0.310281	
0.218809	0.121581	0.250148	
0.22873	0.00637727	0.265758	
0.17182	0.113313	0.371264	
0.134907	0.0287462	0.229115	
0.439384	-0.238625	0.423358	
0.366699	-0.192277	0.5	
0.327062	-0.133702	0.350244	
0.307193	-0.244124	0.374573	
-0.209296	-0.0687964	0.252985	
-0.0646627	-0.0272093	0.335016	
-0.115752	-0.145542	0.242419	
-0.135945	-0.0117594	0.206744	
0.0875494	0.278905	0.295246	
0.0540882	0.337091	0.15152	
0.00240227	0.224422	0.221344	
-0.025976	0.384086	0.232401	
0.238057	-0.243638	0.5	
0.307193	-0.244124	0.374573	
0.203223	-0.215179	0.335428	
0.24114	-0.149085	0.404027	
-0.0324158	-0.400449	0.5	
-0.0684459	-0.495293	0.431403	
-0.0835823	-0.340682	0.35067	
0.0372725	-0.390151	0.392733	
0.327512	0.168835	0.13044	
0.364988	0.109735	0.263774	
0.460548	0.194667	0.23433	
0.315434	0.222572	0.240138	
-0.124401	-0.265319	0.22424	
-0.183123	-0.325269	0.123125	
-0.269341	-0.201154	0.169023	
-0.147445	-0.179827	0.128956	
0.00344957	0.138123	0.5	
0.0462313	0.146805	0.364101	
-0.0572576	0.185752	0.5	
0.0163452	0.25475	0.392302	
0.0875494	0.278905	0.295246	
0.00240227	0.224422	0.221344	
0.0163452	0.25475	0.392302	
-0.0867488	0.283314	0.2887	
0.218809	0.121581	0.250148	
0.364988	0.109735	0.263774	
0.322451	0.0144002	0.334794	
0.22873	0.00637727	0.265758	
-0.0430682	0.437279	0.5	
-0.0690566	0.495208	0.430964	
-0.0383625	0.346848	0.349108	
-0.138443	0.369144	0.39287	
0.38078	-0.324048	0.150149	
0.317319	-0.386405	0.201487	
0.294811	-0.207935	0.135593	
0.23319	-0.305698	0.109456	
-0.247023	0.434718	0.250558	
-0.277293	0.260919	0.267415	
-0.317319	0.386405	0.201487	
-0.182431	0.271961	0.232942	
-0.269341	-0.201154	0.169023	
-0.183123	-0.325269	0.123125	
-0.124401	-0.265319	0.22424	
-0.253565	-0.305449	0.208948	
0.3168	0.386831	0.395903	
0.196796	0.354228	0.5	
0.228991	0.444481	0.408099	
0.22095	0.291034	0.346604	
0.0897768	0.149878	0.5	
0.17182	0.113313	0.371264	
0.153817	0.120272	0.5	
0.14023	0.0298174	0.409574	
-0.209296	-0.0687964	0.252985	
-0.115752	-0.145542	0.242419	
-0.0779543	-0.0725374	0.153012	
-0.135945	-0.0117594	0.206744	
-0.144862	-0.478555	0.421652	
-0.128733	-0.391758	0.5	
-0.0684459	-0.495293	0.431403	
-0.0835823	-0.340682	0.35067	
0.22873	0.00637727	0.265758	
0.240261	0.0350229	0.402836	
0.17182	0.113313	0.371264	
0.14023	0.0298174	0.409574	
0.212642	-0.171195	0.5	
0.238057	-0.243638	0.5	
0.144361	-0.223672	0.5	
0.24114	-0.149085	0.404027	
0.429476	-0.256028	0.291579	
0.307021	-0.223333	0.261668	
0.471122	-0.167464	0.300106	
0.368159	-0.173753	0.197234	
0.0651412	0.200096	0	
0.0904908	0.170765	0.159817	
0.158056	0.171884	0	
0.0776161	0.251925	0.0921435	
-0.209296	-0.0687964	0.252985	
-0.269341	-0.201154	0.169023	
-0.349306	-0.102086	0.237815	
-0.275077	-0.119224	0.102748	
-0.228959	0.444497	0.408094	
-0.276891	0.277667	0.386451	
-0.256554	0.429162	0.331268	
-0.138443	0.369144	0.39287	
-0.191056	0.29295	0.5	
-0.176182	0.282501	0.333733	
-0.138443	0.369144	0.39287	
-0.0919101	0.279835	0.40279	
-0.0444464	0.169104	0.125588	
0.04259	0.0957748	0.0972509	
0.0651412	0.200096	0	
0.0776161	0.251925	0.0921435	
-0.122627	0.0544512	0.5	
-0.221565	0.0908555	0.5	
-0.159378	0.10044	0.348698	
-0.261609	0.0749827	0.393802	
0.0362446	-0.13014	0.250465	
-0.0200202	-0.20323	0.140535	
-0.0779543	-0.0725374	0.153012	
0.0349199	-0.099137	0.113215	
0.346509	0.0237889	0	
0.257685	-0.0506834	0.101558	
0.400931	-0.00647911	0.10587	
0.278081	0.0866882	0.0962345	
-0.124401	-0.265319	0.22424	
-0.00141651	-0.344659	0.156164	
-0.0129443	-0.237884	0.253616	
-0.106158	-0.374353	0.19291	
0.308034	0.17727	0.353981	
0.322451	0.0144002	0.334794	
0.362397	0.0936058	0.39874	
0.240261	0.0350229	0.402836	
-0.122627	0.0544512	0.5	
-0.159378	0.10044	0.348698	
-0.188849	-0.0237464	0.373158	
-0.261609	0.0749827	0.393802	
0.294811	-0.207935	0.135593	
0.360278	-0.0912969	0.138185	
0.313791	-0.154465	0	
0.257685	-0.0506834	0.101558	
-0.490316	0.0979281	0.24092	
-0.493378	0.0811073	0.146993	
-0.354878	0.123846	0.244627	
-0.401703	-0.00567907	0.249917	
0	0.5	0.3	
0.0804661	0.372171	0.377993	
-0.0383625	0.346848	0.349108	
0.0772326	0.384839	0.269201	
0.388496	0.195371	0.5	
0.308034	0.17727	0.353981	
0.315521	0.155675	0.5	
0.294218	0.260673	0.410718	
0.0955515	0.0190038	0.323994	
0.102495	0.11997	0.264802	
0.17182	0.113313	0.371264	
0.134907	0.0287462	0.229115	
-0.317163	0.386533	0.299742	
-0.277293	0.260919	0.267415	
-0.176182	0.282501	0.333733	
-0.276891	0.277667	0.386451	
0.317319	-0.386405	0.201487	
0.377032	-0.3284	0.243217	
0.307021	-0.223333	0.261668	
0.251456	-0.316364	0.331038	
-0.0430682	0.437279	0.5	
-0.0383625	0.346848	0.349108	
-0.0572576	0.362529	0.5	
-0.138443	0.369144	0.39287	
0.0955515	0.0190038	0.323994	
0.205712	-0.0609706	0.365394	
0.22873	0.00637727	0.265758	
0.14023	0.0298174	0.409574	
-0.171353	-0.469721	0.338334	
-0.0835823	-0.340682	0.35067	
-0.194667	-0.460548	0.26567	
-0.203684	-0.312652	0.313888	
0.0747819	-0.266651	0.5	
0.163077	-0.321214	0.379886	
0.112358	-0.334816	0.5	
0.0330605	-0.234493	0.398486	
-0.186407	-0.169451	0	
-0.261345	-0.230036	0	
-0.147445	-0.179827	0.128956	
-0.275077	-0.119224	0.102748	
-0.124401	-0.265319	0.22424	
-0.0129443	-0.237884	0.253616	
-0.0131258	-0.386662	0.266725	
-0.106158	-0.374353	0.19291	
0.146853	0.477948	0.415992	
0.177987	0.433818	0.5	
0.196796	0.354228	0.5	
0.228991	0.444481	0.408099	
-0.5	0	0.2	
-0.333403	0.0238809	0.168384	
-0.5	0	0.1	
-0.391093	0.0790791	0.0957818	
-0.26105	0.203399	0	
-0.214341	0.273759	0	
-0.228343	0.287598	0.142133	
-0.1632	0.180339	0.117277	
0.0177914	0.213039	0.5	
0.0462313	0.146805	0.364101	
0.00344957	0.138123	0.5	
0.0163452	0.25475	0.392302	
0.227799	0.256719	0.161264	
0.0904908	0.170765	0.159817	
0.156948	0.213263	0.238247	
0.0776161	0.251925	0.0921435	
1.21767e-05	-0.288281	0.5	
0.0372725	-0.390151	0.392733	
-0.0835823	-0.340682	0.35067	
0.0330605	-0.234493	0.398486	
0.394936	-0.119803	0	
0.313791	-0.154465	0	
0.380207	-0.19708	0	
0.360278	-0.0912969	0.138185	
-0.333403	0.0238809	0.168384	
-0.5	0	0.2	
-0.374595	-0.0873247	0.117455	
-0.401703	-0.00567907	0.249917	
-0.0572576	0.185752	0.5	
0.0462313	0.146805	0.364101	
-0.0527152	0.0950891	0.390784	
0.0163452	0.25475	0.392302	
0.0540882	0.337091	0.15152	
0.0904908	0.170765	0.159817	
0.00240227	0.224422	0.221344	
0.0776161	0.251925	0.0921435	
0.439384	-0.238625	0.423358	
0.366699	-0.192277	0.5	
0.476132	-0.152637	0.402329	
0.327062	-0.133702	0.350244	
0.315521	0.155675	0.5	
0.308034	0.17727	0.353981	
0.388496	0.195371	0.5	
0.362397	0.0936058	0.39874	
-0.247023	0.434718	0.250558	
-0.317319	0.386405	0.201487	
-0.228343	0.287598	0.142133	
-0.182431	0.271961	0.232942	
-0.176182	0.282501	0.333733	
-0.201617	0.192684	0.393966	
-0.191056	0.29295	0.5	
-0.276891	0.277667	0.386451	
-0.209296	-0.0687964	0.252985	
-0.115752	-0.145542	0.242419	
-0.0646627	-0.0272093	0.335016	
-0.175968	-0.135992	0.338029	
-0.0835823	-0.340682	0.35067	
0.0372725	-0.390151	0.392733	
-0.0810399	-0.493389	0.35285	
-0.0131258	-0.386662	0.266725	
0.144361	-0.400449	0.5	
0.163077	-0.321214	0.379886	
0.147585	-0.477722	0.416442	
0.0372725	-0.390151	0.392733	
0.5	0	0.4	
0.493012	0.0833019	0.344789	
0.5	0	0.3	
0.389379	-0.0521535	0.3951	
-0.0341142	0.113867	0.250814	
-0.0444464	0.169104	0.125588	
-0.134825	0.0680349	0.146947	
-0.126488	0.187375	0.237913	
-0.0572576	0.185752	0.5	
-0.0527152	0.0950891	0.390784	
-0.0728851	0.200383	0.343081	
0.0163452	0.25475	0.392302	
0.144361	-0.223672	0.5	
0.163077	-0.321214	0.379886	
0.0747819	-0.266651	0.5	
0.0330605	-0.234493	0.398486	
0	-0.5	0.4	
-0.0810399	-0.493389	0.35285	
-0.0684459	-0.495293	0.431403	
0.0372725	-0.390151	0.392733	
0.267645	-0.326424	0.5	
0.31678	-0.386847	0.395869	
0.163077	-0.321214	0.379886	
0.251456	-0.316364	0.331038	
0.218809	0.121581	0.250148	
0.17182	0.113313	0.371264	
0.102495	0.11997	0.264802	
0.134907	0.0287462	0.229115	
-0.145646	0.149141	0.5	
-0.201617	0.192684	0.393966	
-0.169426	0.21818	0.5	
-0.0919101	0.279835	0.40279	
0.308034	0.17727	0.353981	
0.362397	0.0936058	0.39874	
0.315521	0.155675	0.5	
0.225245	0.18886	0.408136	
-0.00141651	-0.344659	0.156164	
-0.0131258	-0.386662	0.266725	
-0.0129443	-0.237884	0.253616	
-0.106158	-0.374353	0.19291	
0.0904908	0.170765	0.159817	
-0.0444464	0.169104	0.125588	
-0.0341142	0.113867	0.250814	
0.00240227	0.224422	0.221344	
0.163077	-0.321214	0.379886	
0.0372725	-0.390151	0.392733	
0.112358	-0.334816	0.5	
0.0330605	-0.234493	0.398486	
-0.209296	-0.0687964	0.252985	
-0.147445	-0.179827	0.128956	
-0.115752	-0.145542	0.242419	
-0.20429	-0.202208	0.252162	
-0.124401	-0.265319	0.22424	
-0.0129443	-0.237884	0.253616	
-0.0835823	-0.340682	0.35067	
-0.0131258	-0.386662	0.266725	
0.205712	-0.0609706	0.365394	
0.0955515	0.0190038	0.323994	
0.143921	-0.0736091	0.260892	
0.0752678	-0.0423877	0.407707	
-0.2429	0.437035	0.152631	
-0.247023	0.434718	0.250558	
-0.228343	0.287598	0.142133	
-0.13916	0.369653	0.26307	
-0.0200202	-0.20323	0.140535	
-0.0129443	-0.237884	0.253616	
0.0362446	-0.13014	0.250465	
-0.115752	-0.145542	0.242419	
0.322451	0.0144002	0.334794	
0.370375	-0.0671022	0.257475	
0.5	0	0.3	
0.389379	-0.0521535	0.3951	
-0.333403	0.0238809	0.168384	
-0.349306	-0.102086	0.237815	
-0.374595	-0.0873247	0.117455	
-0.275077	-0.119224	0.102748	
0.082983	-0.493066	0.348347	
0.0372725	-0.390151	0.392733	
0.174738	-0.468473	0.317184	
0.0955273	-0.385908	0.250582	
0.203223	-0.215179	0.335428	
0.109758	-0.214467	0.270707	
0.143921	-0.0736091	0.260892	
0.214683	-0.189052	0.238302	
0.0248177	-0.313374	0	
0.0404524	-0.41072	0	
-0.00141651	-0.344659	0.156164	
-0.0438792	-0.403194	0.0910547	
0.153328	0.47591	0.0923699	
0.0807477	0.493437	0.154224	
0.0704482	0.495012	0.0718447	
0.0540882	0.337091	0.15152	
-0.228343	0.287598	0.142133	
-0.1632	0.180339	0.117277	
-0.238308	0.160613	0.208202	
-0.33672	0.17128	0.12732	
0.267645	-0.326424	0.5	
0.213029	-0.381729	0.5	
0.180973	-0.312061	0.5	
0.163077	-0.321214	0.379886	
-0.238308	0.160613	0.208202	
-0.354878	0.123846	0.244627	
-0.333403	0.0238809	0.168384	
-0.201798	0.0517729	0.246381	
-0.171353	-0.469721	0.338334	
-0.0977967	-0.490343	0.258774	
-0.194667	-0.460548	0.26567	
-0.0835823	-0.340682	0.35067	
-0.401548	-0.0423374	0	
-0.374595	-0.0873247	0.117455	
-0.337562	0.0547633	0	
-0.391093	0.0790791	0.0957818	
-0.0646627	-0.0272093	0.335016	
-0.00932629	-0.104346	0.393808	
-0.0505573	-0.00469477	0.5	
-0.112364	-0.0877996	0.406457	
0.218809	0.121581	0.250148	
0.201932	0.155478	0.107683	
0.327512	0.168835	0.13044	
0.278081	0.0866882	0.0962345	
0.0712814	-0.153152	0	
0.0349199	-0.099137	0.113215	
0.00183684	-0.222331	0	
0.105136	-0.172994	0.0956717	
-0.082983	0.493066	0.348347	
-0.025976	0.384086	0.232401	
-0.0383625	0.346848	0.349108	
-0.13916	0.369653	0.26307	
0.14072	-0.0839746	0	
0.210156	-0.0147965	0	
0.115537	0.0107471	0	
0.153084	-0.0880453	0.135895	
-0.00425413	0.131001	0	
0.0651412	0.200096	0	
-0.0444464	0.169104	0.125588	
0.04259	0.0957748	0.0972509	
-0.0734441	0.0616893	0	
-0.00425413	0.131001	0	
-0.0444464	0.169104	0.125588	
-0.0383015	0.0232581	0.102769	
0.294811	-0.207935	0.135593	
0.257685	-0.0506834	0.101558	
0.313791	-0.154465	0	
0.20832	-0.16636	0.0943059	
0.436811	-0.243302	0.0936268	
0.360278	-0.0912969	0.138185	
0.294811	-0.207935	0.135593	
0.368159	-0.173753	0.197234	
-0.217356	-0.450285	0.144698	
-0.183123	-0.325269	0.123125	
-0.257824	-0.4284	0.204976	
-0.106158	-0.374353	0.19291	
0.380873	0.323938	0.152261	
0.227799	0.256719	0.161264	
0.327512	0.168835	0.13044	
0.315434	0.222572	0.240138	
0.205712	-0.0609706	0.365394	
0.143921	-0.0736091	0.260892	
0.0943746	-0.140978	0.374495	
0.0752678	-0.0423877	0.407707	
0.00183684	-0.222331	0	
0.0349199	-0.099137	0.113215	
-0.0200202	-0.20323	0.140535	
0.105136	-0.172994	0.0956717	
0.234372	0.286063	0.5	
0.196796	0.354228	0.5	
0.3168	0.386831	0.395903	
0.294218	0.260673	0.410718	
-0.228923	-0.22221	0.5	
-0.307929	-0.189485	0.5	
-0.239764	-0.151909	0.5	
-0.340496	-0.224073	0.407589	
-0.0646627	-0.0272093	0.335016	
-0.209296	-0.0687964	0.252985	
-0.10547	0.0480539	0.280485	
-0.135945	-0.0117594	0.206744	
-0.0232782	-0.127584	0	
-0.0200202	-0.20323	0.140535	
0.00183684	-0.222331	0	
0.0349199	-0.099137	0.113215	
-0.00932629	-0.104346	0.393808	
0.0752678	-0.0423877	0.407707	
-0.0646627	-0.0272093	0.335016	
0.0390655	0.0525248	0.401715	
0.213029	-0.381729	0.5	
0.31678	-0.386847	0.395869	
0.228959	-0.444497	0.408094	
0.163077	-0.321214	0.379886	
0.112358	-0.334816	0.5	
0.0372725	-0.390151	0.392733	
0.0420567	-0.345657	0.5	
0.0330605	-0.234493	0.398486	
-0.0324158	-0.400449	0.5	
-0.0684459	-0.495293	0.431403	
-0.128733	-0.391758	0.5	
-0.0835823	-0.340682	0.35067	
-0.183123	-0.325269	0.123125	
-0.147445	-0.179827	0.128956	
-0.168688	-0.281701	0	
-0.28242	-0.274225	0.0937223	
0.0153159	0.363557	0	
0.114055	0.374109	0	
0.0420691	0.427134	0	
0.0540882	0.337091	0.15152	
0	0.5	0.3	
0.0814864	0.493315	0.347681	
0	0.5	0.4	
0.0804661	0.372171	0.377993	
0.0875494	0.278905	0.295246	
0.0163452	0.25475	0.392302	
-0.0383625	0.346848	0.349108	
-0.0867488	0.283314	0.2887	
0.439384	-0.238625	0.423358	
0.450312	-0.217299	0.354112	
0.416747	-0.276265	0.362548	
0.307193	-0.244124	0.374573	
0.201164	-0.273578	0	
0.0667279	-0.268271	0.107506	
0.154755	-0.229359	0.16737	
0.105136	-0.172994	0.0956717	
-0.159378	0.10044	0.348698	
-0.0341142	0.113867	0.250814	
-0.0728851	0.200383	0.343081	
-0.0527152	0.0950891	0.390784	
-0.0835823	-0.340682	0.35067	
0.0372725	-0.390151	0.392733	
0.0610825	-0.307257	0.314818	
0.0330605	-0.234493	0.398486	
-0.0341142	0.113867	0.250814	
-0.159378	0.10044	0.348698	
-0.0728851	0.200383	0.343081	
-0.126488	0.187375	0.237913	
-0.134825	0.0680349	0.146947	
-0.220281	-0.031921	0.125401	
-0.0779543	-0.0725374	0.153012	
-0.135945	-0.0117594	0.206744	
-0.0785029	0.119253	0.5	
-0.122627	0.0544512	0.5	
-0.145646	0.149141	0.5	
-0.0527152	0.0950891	0.390784	
0	0.5	0.3	
-0.0383625	0.346848	0.349108	
-0.082983	0.493066	0.348347	
-0.025976	0.384086	0.232401	
-0.333403	0.0238809	0.168384	
-0.209296	-0.0687964	0.252985	
-0.220281	-0.031921	0.125401	
-0.201798	0.0517729	0.246381	
0.17182	0.113313	0.371264	
0.240261	0.0350229	0.402836	
0.308034	0.17727	0.353981	
0.225245	0.18886	0.408136	
-0.0779543	-0.0725374	0.153012	
0.0349199	-0.099137	0.113215	
-0.048473	-0.0328568	0	
-0.0383015	0.0232581	0.102769	
0.366699	-0.192277	0.5	
0.338823	-0.0848934	0.5	
0.415496	-0.123332	0.5	
0.327062	-0.133702	0.350244	
-0.0734441	0.0616893	0	
-0.134825	0.0680349	0.146947	
-0.142648	-0.00714059	0	
-0.0383015	0.0232581	0.102769	
-0.0341142	0.113867	0.250814	
-0.126488	0.187375	0.237913	
-0.134825	0.0680349	0.146947	
-0.10547	0.0480539	0.280485	
-0.0739341	-0.184055	0.34975	
-0.00743541	-0.147874	0.5	
0.0330605	-0.234493	0.398486	
-0.00932629	-0.104346	0.393808	
-0.0927404	0.290183	0.18898	
-0.13916	0.369653	0.26307	
-0.228343	0.287598	0.142133	
-0.182431	0.271961	0.232942	
0.317233	0.386476	0.0904728	
0.227799	0.256719	0.161264	
0.316847	0.386792	0.198616	
0.167266	0.351716	0.112308	
0.0712814	-0.153152	0	
-0.0232782	-0.127584	0	
0.00183684	-0.222331	0	
0.0349199	-0.099137	0.113215	
-0.257824	-0.4284	0.204976	
-0.106158	-0.374353	0.19291	
-0.183123	-0.325269	0.123125	
-0.253565	-0.305449	0.208948	
0.334086	0.0370714	0.16525	
0.400931	-0.00647911	0.10587	
0.257685	-0.0506834	0.101558	
0.278081	0.0866882	0.0962345	
0.373926	0.198925	0	
0.414183	0.131147	0	
0.478555	0.144862	0.0783483	
0.382697	0.0900146	0.0901371	
-0.429146	-0.25658	0.16876	
-0.269341	-0.201154	0.169023	
-0.386498	-0.317206	0.200322	
-0.28242	-0.274225	0.0937223	
-0.471122	0.167464	0.300106	
-0.493012	0.0833019	0.344789	
-0.354878	0.123846	0.244627	
-0.374071	0.0973353	0.396281	
-0.493378	0.0811073	0.146993	
-0.5	0	0.2	
-0.5	0	0.1	
-0.391093	0.0790791	0.0957818	
0.0875494	0.278905	0.295246	
0.0462313	0.146805	0.364101	
0.102495	0.11997	0.264802	
0.132706	0.223572	0.389729	
-0.0690566	0.495208	0.430964	
-0.082983	0.493066	0.348347	
0	0.5	0.4	
-0.0383625	0.346848	0.349108	
-0.0430682	0.437279	0.5	
0	0.5	0.4	
0.0367592	0.441595	0.5	
0.0172234	0.375408	0.5	
-0.0835823	-0.340682	0.35067	
-0.203684	-0.312652	0.313888	
-0.124401	-0.265319	0.22424	
-0.106158	-0.374353	0.19291	
0.322451	0.0144002	0.334794	
0.205712	-0.0609706	0.365394	
0.327062	-0.133702	0.350244	
0.29269	-0.0648902	0.412739	
-0.5	0	0.4	
-0.493437	-0.0807477	0.345776	
-0.5	0	0.3	
-0.334634	0.00771017	0.33657	
0.0807477	0.493437	0.154224	
-0.025976	0.384086	0.232401	
0.0540882	0.337091	0.15152	
0.0772326	0.384839	0.269201	
0.227799	0.256719	0.161264	
0.201932	0.155478	0.107683	
0.0904908	0.170765	0.159817	
0.0776161	0.251925	0.0921435	
-0.356684	-0.19351	0	
-0.41072	-0.12459	0	
-0.444481	-0.228991	0.0919014	
-0.374595	-0.0873247	0.117455	
-0.0341142	0.113867	0.250814	
-0.0527152	0.0950891	0.390784	
-0.159378	0.10044	0.348698	
-0.10547	0.0480539	0.280485	
-0.5	0	0.1	
-0.374595	-0.0873247	0.117455	
-0.401548	-0.0423374	0	
-0.391093	0.0790791	0.0957818	
0.082983	-0.493066	0.348347	
0.147585	-0.477722	0.416442	
0.174738	-0.468473	0.317184	
0.0372725	-0.390151	0.392733	
-0.0977967	-0.490343	0.258774	
-0.0835823	-0.340682	0.35067	
-0.0131258	-0.386662	0.266725	
-0.106158	-0.374353	0.19291	
0.112799	-0.33356	0	
0.0404524	-0.41072	0	
0.125573	-0.41396	0	
0.12931	-0.356487	0.143012	
-0.082983	0.493066	0.348347	
-0.0383625	0.346848	0.349108	
-0.0690566	0.495208	0.430964	
-0.138443	0.369144	0.39287	
0.143921	-0.0736091	0.260892	
0.0752678	-0.0423877	0.407707	
0.0955515	0.0190038	0.323994	
0.0292443	-0.0551693	0.315985	
0.168734	0.470668	0.201781	
0.0540882	0.337091	0.15152	
0.0807477	0.493437	0.154224	
0.167266	0.351716	0.112308	
-0.333403	0.0238809	0.168384	
-0.349306	-0.102086	0.237815	
-0.334634	0.00771017	0.33657	
-0.401703	-0.00567907	0.249917	
-0.377032	0.3284	0.243217	
-0.428104	0.258315	0.196896	
-0.38078	0.324048	0.150149	
-0.277293	0.260919	0.267415	
-0.124401	-0.265319	0.22424	
-0.106158	-0.374353	0.19291	
-0.203684	-0.312652	0.313888	
-0.253565	-0.305449	0.208948	
-0.334634	0.00771017	0.33657	
-0.188849	-0.0237464	0.373158	
-0.209296	-0.0687964	0.252985	
-0.201798	0.0517729	0.246381	
-0.209296	-0.0687964	0.252985	
-0.349306	-0.102086	0.237815	
-0.269341	-0.201154	0.169023	
-0.20429	-0.202208	0.252162	
0.0955515	0.0190038	0.323994	
0.134907	0.0287462	0.229115	
0.143921	-0.0736091	0.260892	
0.0292443	-0.0551693	0.315985	
-0.316581	0.126747	0.5	
-0.374813	0.199394	0.5	
-0.304559	0.211579	0.5	
-0.301517	0.172887	0.349578	
0.168734	0.470668	0.201781	
0.0540882	0.337091	0.15152	
0.167266	0.351716	0.112308	
0.173765	0.338831	0.233339	
0.205712	-0.0609706	0.365394	
0.240261	0.0350229	0.402836	
0.22873	0.00637727	0.265758	
0.14023	0.0298174	0.409574	
-0.493378	0.0811073	0.146993	
-0.333403	0.0238809	0.168384	
-0.5	0	0.2	
-0.391093	0.0790791	0.0957818	
0.327062	-0.133702	0.350244	
0.307021	-0.223333	0.261668	
0.429476	-0.256028	0.291579	
0.307193	-0.244124	0.374573	
0.0943746	-0.140978	0.374495	
0.0752678	-0.0423877	0.407707	
0.143921	-0.0736091	0.260892	
0.0292443	-0.0551693	0.315985	
0.154755	-0.229359	0.16737	
0.20832	-0.16636	0.0943059	
0.201164	-0.273578	0	
0.105136	-0.172994	0.0956717	
-0.0734441	0.0616893	0	
-0.16685	0.0883447	0	
-0.142648	-0.00714059	0	
-0.134825	0.0680349	0.146947	
-0.234034	0.362529	0.5	
-0.191056	0.29295	0.5	
-0.276891	0.277667	0.386451	
-0.138443	0.369144	0.39287	
-0.0739341	-0.184055	0.34975	
-0.0646627	-0.0272093	0.335016	
-0.115752	-0.145542	0.242419	
-0.175968	-0.135992	0.338029	
0.205712	-0.0609706	0.365394	
0.0943746	-0.140978	0.374495	
0.203223	-0.215179	0.335428	
0.24114	-0.149085	0.404027	
0	0.5	0.4	
0.0728232	0.494668	0.426459	
0.0367592	0.441595	0.5	
0.0804661	0.372171	0.377993	
-0.267316	-0.203168	0.336848	
-0.326617	-0.238576	0.253202	
-0.349306	-0.102086	0.237815	
-0.20429	-0.202208	0.252162	
-0.0444464	0.169104	0.125588	
-0.0383015	0.0232581	0.102769	
-0.00425413	0.131001	0	
0.04259	0.0957748	0.0972509	
0.0904908	0.170765	0.159817	
0.201932	0.155478	0.107683	
0.158056	0.171884	0	
0.0776161	0.251925	0.0921435	
-0.122627	0.0544512	0.5	
-0.159378	0.10044	0.348698	
-0.145646	0.149141	0.5	
-0.0527152	0.0950891	0.390784	
-0.082983	0.493066	0.348347	
0	0.5	0.3	
0	0.5	0.4	
-0.0383625	0.346848	0.349108	
-0.261345	-0.230036	0	
-0.168688	-0.281701	0	
-0.147445	-0.179827	0.128956	
-0.28242	-0.274225	0.0937223	
-0.117671	-0.10197	0	
-0.211369	-0.0761151	0	
-0.186407	-0.169451	0	
-0.147445	-0.179827	0.128956	
0.0804661	0.372171	0.377993	
0.173765	0.338831	0.233339	
0.0875494	0.278905	0.295246	
0.0772326	0.384839	0.269201	
0.307193	-0.244124	0.374573	
0.163077	-0.321214	0.379886	
0.203223	-0.215179	0.335428	
0.251456	-0.316364	0.331038	
-0.323938	-0.380873	0.347739	
-0.203684	-0.312652	0.313888	
-0.326617	-0.238576	0.253202	
-0.266966	-0.299163	0.400443	
0.334086	0.0370714	0.16525	
0.257374	-0.098487	0.223367	
0.360278	-0.0912969	0.138185	
0.370375	-0.0671022	0.257475	
0.153328	0.47591	0.0923699	
0.0704482	0.495012	0.0718447	
0.114055	0.374109	0	
0.167266	0.351716	0.112308	
0.368263	0.0160059	0.5	
0.362397	0.0936058	0.39874	
0.322451	0.0144002	0.334794	
0.240261	0.0350229	0.402836	
-0.493378	0.0811073	0.146993	
-0.469621	0.171627	0.160116	
-0.354878	0.123846	0.244627	
-0.391093	0.0790791	0.0957818	
-0.0341142	0.113867	0.250814	
0.0904908	0.170765	0.159817	
0.00240227	0.224422	0.221344	
0.102495	0.11997	0.264802	
-0.323938	-0.380873	0.347739	
-0.203684	-0.312652	0.313888	
-0.328716	-0.376757	0.253532	
-0.326617	-0.238576	0.253202	
0.373926	0.198925	0	
0.328092	0.270243	0	
0.300884	0.198715	0	
0.327512	0.168835	0.13044	
0.0209546	0.0362755	0	
-0.0383015	0.0232581	0.102769	
0.0603793	0.0090957	0.160519	
0.04259	0.0957748	0.0972509	
-0.444481	-0.228991	0.0919014	
-0.41072	-0.12459	0	
-0.477948	-0.146853	0.0840084	
-0.374595	-0.0873247	0.117455	
-0.234034	0.185752	0.5	
-0.301517	0.172887	0.349578	
-0.304559	0.211579	0.5	
-0.201617	0.192684	0.393966	
-0.0341142	0.113867	0.250814	
-0.159378	0.10044	0.348698	
-0.126488	0.187375	0.237913	
-0.10547	0.0480539	0.280485	
0.257374	-0.098487	0.223367	
0.334086	0.0370714	0.16525	
0.360278	-0.0912969	0.138185	
0.257685	-0.0506834	0.101558	
-0.134825	0.0680349	0.146947	
-0.126488	0.187375	0.237913	
-0.201798	0.0517729	0.246381	
-0.10547	0.0480539	0.280485	
-0.0430682	0.437279	0.5	
0.0172234	0.375408	0.5	
-0.0572576	0.362529	0.5	
-0.0383625	0.346848	0.349108	
0.102495	0.11997	0.264802	
0.132706	0.223572	0.389729	
0.17182	0.113313	0.371264	
0.222637	0.199452	0.310281	
0.0529867	0.308818	0.5	
0.0163452	0.25475	0.392302	
0.0804661	0.372171	0.377993	
0.132706	0.223572	0.389729	
0.0362446	-0.13014	0.250465	
-0.0129443	-0.237884	0.253616	
-0.0739341	-0.184055	0.34975	
-0.115752	-0.145542	0.242419	
-0.00743541	-0.147874	0.5	
-0.0739341	-0.184055	0.34975	
-0.0840299	-0.136867	0.5	
-0.00932629	-0.104346	0.393808	
0.368263	0.0160059	0.5	
0.240261	0.0350229	0.402836	
0.322451	0.0144002	0.334794	
0.29269	-0.0648902	0.412739	
-0.211369	-0.0761151	0	
-0.186407	-0.169451	0	
-0.147445	-0.179827	0.128956	
-0.275077	-0.119224	0.102748	
-0.318983	0.261743	0	
-0.26105	0.203399	0	
-0.214341	0.273759	0	
-0.228343	0.287598	0.142133	
0.373926	0.198925	0	
0.436762	0.243391	0.0969381	
0.328092	0.270243	0	
0.327512	0.168835	0.13044	
0	-0.5	0.3	
-0.0810399	-0.493389	0.35285	
0.0372725	-0.390151	0.392733	
-0.0131258	-0.386662	0.266725	
-0.128733	-0.391758	0.5	
-0.0835823	-0.340682	0.35067	
-0.144862	-0.478555	0.421652	
-0.172877	-0.358629	0.40341	
0.327062	-0.133702	0.350244	
0.307021	-0.223333	0.261668	
0.203223	-0.215179	0.335428	
0.214683	-0.189052	0.238302	
0.125573	-0.41396	0	
0.0704474	-0.495012	0.0718449	
0.153329	-0.47591	0.0923815	
0.12931	-0.356487	0.143012	
-0.238308	0.160613	0.208202	
-0.201798	0.0517729	0.246381	
-0.333403	0.0238809	0.168384	
-0.24789	0.08719	0.114987	
-0.0646627	-0.0272093	0.335016	
-0.209296	-0.0687964	0.252985	
-0.188849	-0.0237464	0.373158	
-0.10547	0.0480539	0.280485	
-0.00141651	-0.344659	0.156164	
-0.124401	-0.265319	0.22424	
-0.0129443	-0.237884	0.253616	
-0.0814318	-0.287732	0.10776	
-0.144862	-0.478555	0.421652	
-0.0684459	-0.495293	0.431403	
-0.0810399	-0.493389	0.35285	
-0.0835823	-0.340682	0.35067	
-0.122627	0.0544512	0.5	
-0.188849	-0.0237464	0.373158	
-0.221565	0.0908555	0.5	
-0.261609	0.0749827	0.393802	
-0.331361	-0.272953	0	
-0.356684	-0.19351	0	
-0.444481	-0.228991	0.0919014	
-0.28242	-0.274225	0.0937223	
0.0807477	0.493437	0.154224	
0	0.5	0.2	
-0.025976	0.384086	0.232401	
0.0772326	0.384839	0.269201	
0.334086	0.0370714	0.16525	
0.382697	0.0900146	0.0901371	
0.493389	0.0810399	0.14715	
0.400931	-0.00647911	0.10587	
0.0540882	0.337091	0.15152	
-0.025976	0.384086	0.232401	
0.0875494	0.278905	0.295246	
0.0772326	0.384839	0.269201	
0.490343	0.0977967	0.241226	
0.469721	0.171353	0.161666	
0.493389	0.0810399	0.14715	
0.364988	0.109735	0.263774	
0.218809	0.121581	0.250148	
0.308034	0.17727	0.353981	
0.364988	0.109735	0.263774	
0.315434	0.222572	0.240138	
0.168734	0.470668	0.201781	
0.0540882	0.337091	0.15152	
0.173765	0.338831	0.233339	
0.0772326	0.384839	0.269201	
0.154755	-0.229359	0.16737	
0.23319	-0.305698	0.109456	
0.294811	-0.207935	0.135593	
0.214683	-0.189052	0.238302	
-0.26105	0.203399	0	
-0.18644	0.1823	0	
-0.214341	0.273759	0	
-0.1632	0.180339	0.117277	
-0.493315	-0.0814864	0.152319	
-0.374595	-0.0873247	0.117455	
-0.5	0	0.2	
-0.401703	-0.00567907	0.249917	
0.0807477	0.493437	0.154224	
0.0540882	0.337091	0.15152	
0.168734	0.470668	0.201781	
0.0772326	0.384839	0.269201	
0.460548	0.194667	0.23433	
0.327512	0.168835	0.13044	
0.469721	0.171353	0.161666	
0.364988	0.109735	0.263774	
-0.0807376	0.493438	0.154216	
-0.16873	0.47067	0.201799	
-0.0714313	0.379857	0.110067	
-0.025976	0.384086	0.232401	
0.210156	-0.0147965	0	
0.195808	0.041614	0.135744	
0.153084	-0.0880453	0.135895	
0.257685	-0.0506834	0.101558	
0.322451	0.0144002	0.334794	
0.370375	-0.0671022	0.257475	
0.257374	-0.098487	0.223367	
0.22873	0.00637727	0.265758	
-0.401548	-0.0423374	0	
-0.302044	-0.0506462	0	
-0.337562	0.0547633	0	
-0.374595	-0.0873247	0.117455	
0.201164	-0.273578	0	
0.23319	-0.305698	0.109456	
0.154755	-0.229359	0.16737	
0.0667279	-0.268271	0.107506	
-0.115752	-0.145542	0.242419	
-0.032045	0.00109893	0.228452	
-0.0779543	-0.0725374	0.153012	
-0.135945	-0.0117594	0.206744	
0.257374	-0.098487	0.223367	
0.307021	-0.223333	0.261668	
0.327062	-0.133702	0.350244	
0.214683	-0.189052	0.238302	
0.234372	0.286063	0.5	
0.164071	0.275222	0.5	
0.196796	0.354228	0.5	
0.22095	0.291034	0.346604	
-0.386498	-0.317206	0.200322	
-0.269341	-0.201154	0.169023	
-0.429146	-0.25658	0.16876	
-0.326617	-0.238576	0.253202	
0.327062	-0.133702	0.350244	
0.307193	-0.244124	0.374573	
0.284773	-0.165822	0.5	
0.24114	-0.149085	0.404027	
0.0875494	0.278905	0.295246	
0.132706	0.223572	0.389729	
0.102495	0.11997	0.264802	
0.156948	0.213263	0.238247	
-0.269341	-0.201154	0.169023	
-0.253565	-0.305449	0.208948	
-0.124401	-0.265319	0.22424	
-0.20429	-0.202208	0.252162	
-0.234034	0.185752	0.5	
-0.301517	0.172887	0.349578	
-0.201617	0.192684	0.393966	
-0.261609	0.0749827	0.393802	
0.0904908	0.170765	0.159817	
0.218809	0.121581	0.250148	
0.201932	0.155478	0.107683	
0.156948	0.213263	0.238247	
-0.493012	0.0833019	0.344789	
-0.490316	0.0979281	0.24092	
-0.354878	0.123846	0.244627	
-0.401703	-0.00567907	0.249917	
-0.358772	-0.11614	0.36635	
-0.326617	-0.238576	0.253202	
-0.267316	-0.203168	0.336848	
-0.340496	-0.224073	0.407589	
-0.0383625	0.346848	0.349108	
0.0804661	0.372171	0.377993	
0.0172234	0.375408	0.5	
0.0163452	0.25475	0.392302	
0	0.5	0.3	
-0.0383625	0.346848	0.349108	
-0.025976	0.384086	0.232401	
0.0772326	0.384839	0.269201	
0.316847	0.386792	0.198616	
0.227799	0.256719	0.161264	
0.380873	0.323938	0.152261	
0.315434	0.222572	0.240138	
-0.176182	0.282501	0.333733	
-0.13916	0.369653	0.26307	
-0.256554	0.429162	0.331268	
-0.138443	0.369144	0.39287	
-0.0295403	0.225144	0	
-0.0444464	0.169104	0.125588	
0.0651412	0.200096	0	
0.0776161	0.251925	0.0921435	
-0.228923	-0.22221	0.5	
-0.239764	-0.151909	0.5	
-0.267316	-0.203168	0.336848	
-0.340496	-0.224073	0.407589	
0.102495	0.11997	0.264802	
0.156948	0.213263	0.238247	
0.132706	0.223572	0.389729	
0.222637	0.199452	0.310281	
-0.0779543	-0.0725374	0.153012	
0.0349199	-0.099137	0.113215	
0.0603793	0.0090957	0.160519	
-0.032045	0.00109893	0.228452	
-0.493437	-0.0807477	0.345776	
-0.358772	-0.11614	0.36635	
-0.349306	-0.102086	0.237815	
-0.401703	-0.00567907	0.249917	
-0.328716	-0.376757	0.253532	
-0.203684	-0.312652	0.313888	
-0.253565	-0.305449	0.208948	
-0.326617	-0.238576	0.253202	
-0.145646	0.149141	0.5	
-0.159378	0.10044	0.348698	
-0.221565	0.0908555	0.5	
-0.201617	0.192684	0.393966	
0.0807376	-0.493438	0.154216	
0.12931	-0.356487	0.143012	
-0.00141651	-0.344659	0.156164	
0.0955273	-0.385908	0.250582	
0.428195	0.258165	0.201755	
0.327512	0.168835	0.13044	
0.460548	0.194667	0.23433	
0.315434	0.222572	0.240138	
-0.262519	-0.0832944	0.5	
-0.188849	-0.0237464	0.373158	
-0.174131	-0.119906	0.5	
-0.175968	-0.135992	0.338029	
0.294811	-0.207935	0.135593	
0.257374	-0.098487	0.223367	
0.360278	-0.0912969	0.138185	
0.257685	-0.0506834	0.101558	
0.439458	0.238488	0.424308	
0.450285	0.217356	0.355302	
0.476114	0.152694	0.40246	
0.362397	0.0936058	0.39874	
0.261819	0.319027	0	
0.235698	0.440961	0.068569	
0.202324	0.378521	0	
0.167266	0.351716	0.112308	
-0.124401	-0.265319	0.22424	
-0.147445	-0.179827	0.128956	
-0.269341	-0.201154	0.169023	
-0.20429	-0.202208	0.252162	
0.12931	-0.356487	0.143012	
0.23319	-0.305698	0.109456	
0.112799	-0.33356	0	
0.0667279	-0.268271	0.107506	
0.315521	0.155675	0.5	
0.324205	0.0779192	0.5	
0.242205	0.0836605	0.5	
0.362397	0.0936058	0.39874	
-0.00743541	-0.147874	0.5	
-0.0324158	-0.223672	0.5	
-0.0739341	-0.184055	0.34975	
0.0330605	-0.234493	0.398486	
-0.493437	-0.0807477	0.345776	
-0.334634	0.00771017	0.33657	
-0.358772	-0.11614	0.36635	
-0.401703	-0.00567907	0.249917	
-0.122627	0.0544512	0.5	
-0.221565	0.0908555	0.5	
-0.145646	0.149141	0.5	
-0.159378	0.10044	0.348698	
-0.349306	-0.102086	0.237815	
-0.326617	-0.238576	0.253202	
-0.269341	-0.201154	0.169023	
-0.20429	-0.202208	0.252162	
-0.159378	0.10044	0.348698	
-0.0527152	0.0950891	0.390784	
-0.0646627	-0.0272093	0.335016	
-0.10547	0.0480539	0.280485	
-0.188849	-0.0237464	0.373158	
-0.201798	0.0517729	0.246381	
-0.334634	0.00771017	0.33657	
-0.261609	0.0749827	0.393802	
-0.349306	-0.102086	0.237815	
-0.358772	-0.11614	0.36635	
-0.470668	-0.168734	0.298219	
-0.326617	-0.238576	0.253202	
-0.350907	-0.119906	0.5	
-0.239764	-0.151909	0.5	
-0.307929	-0.189485	0.5	
-0.358772	-0.11614	0.36635	
0.218809	0.121581	0.250148	
0.195808	0.041614	0.135744	
0.201932	0.155478	0.107683	
0.278081	0.0866882	0.0962345	
-0.0200202	-0.20323	0.140535	
-0.0129443	-0.237884	0.253616	
-0.124401	-0.265319	0.22424	
-0.0814318	-0.287732	0.10776	
0.439467	0.0432837	0.5	
0.389379	-0.0521535	0.3951	
0.368263	0.0160059	0.5	
0.362397	0.0936058	0.39874	
-0.247023	0.434718	0.250558	
-0.317163	0.386533	0.299742	
-0.317319	0.386405	0.201487	
-0.277293	0.260919	0.267415	
-0.238308	0.160613	0.208202	
-0.33672	0.17128	0.12732	
-0.1632	0.180339	0.117277	
-0.24789	0.08719	0.114987	
-0.0734441	0.0616893	0	
-0.00425413	0.131001	0	
-0.0983601	0.156434	0	
-0.0444464	0.169104	0.125588	
-0.00141651	-0.344659	0.156164	
-0.0129443	-0.237884	0.253616	
-0.0200202	-0.20323	0.140535	
-0.0814318	-0.287732	0.10776	
0.267645	-0.326424	0.5	
0.307193	-0.244124	0.374573	
0.31678	-0.386847	0.395869	
0.251456	-0.316364	0.331038	
0.144361	-0.223672	0.5	
0.0943746	-0.140978	0.374495	
0.153817	-0.129728	0.5	
0.24114	-0.149085	0.404027	
-0.317319	0.386405	0.201487	
-0.277293	0.260919	0.267415	
-0.228343	0.287598	0.142133	
-0.182431	0.271961	0.232942	
-0.228959	0.444497	0.408094	
-0.31678	0.386847	0.395869	
-0.256554	0.429162	0.331268	
-0.276891	0.277667	0.386451	
0.0807376	-0.493438	0.154216	
-0.00141651	-0.344659	0.156164	
0	-0.5	0.2	
0.0955273	-0.385908	0.250582	
-0.0646627	-0.0272093	0.335016	
0.0390655	0.0525248	0.401715	
0.0752678	-0.0423877	0.407707	
0.0292443	-0.0551693	0.315985	
0.0875494	0.278905	0.295246	
0.102495	0.11997	0.264802	
0.00240227	0.224422	0.221344	
0.156948	0.213263	0.238247	
-0.0714313	0.379857	0.110067	
-0.025976	0.384086	0.232401	
-0.16873	0.47067	0.201799	
-0.13916	0.369653	0.26307	
-0.124401	-0.265319	0.22424	
-0.0131258	-0.386662	0.266725	
-0.0835823	-0.340682	0.35067	
-0.106158	-0.374353	0.19291	
-0.137519	-0.208294	0.5	
-0.0739341	-0.184055	0.34975	
-0.0324158	-0.223672	0.5	
-0.179346	-0.240708	0.39897	
0.153328	0.47591	0.0923699	
0.0807477	0.493437	0.154224	
0.0540882	0.337091	0.15152	
0.167266	0.351716	0.112308	
0.0177914	0.213039	0.5	
0.00344957	0.138123	0.5	
-0.0572576	0.185752	0.5	
0.0163452	0.25475	0.392302	
0.0943468	-0.245334	0	
0.0667279	-0.268271	0.107506	
0.201164	-0.273578	0	
0.105136	-0.172994	0.0956717	
-0.0840299	-0.136867	0.5	
-0.00743541	-0.147874	0.5	
-0.0324158	-0.223672	0.5	
-0.0739341	-0.184055	0.34975	
-0.323938	-0.380873	0.347739	
-0.326617	-0.238576	0.253202	
-0.386792	-0.316847	0.301384	
-0.266966	-0.299163	0.400443	
0.317319	-0.386405	0.201487	
0.317163	-0.386533	0.299742	
0.377032	-0.3284	0.243217	
0.251456	-0.316364	0.331038	
-0.238308	0.160613	0.208202	
-0.201798	0.0517729	0.246381	
-0.134825	0.0680349	0.146947	
-0.126488	0.187375	0.237913	
-0.124401	-0.265319	0.22424	
-0.0739341	-0.184055	0.34975	
-0.115752	-0.145542	0.242419	
-0.20429	-0.202208	0.252162	
0.0904908	0.170765	0.159817	
0.04259	0.0957748	0.0972509	
-0.0444464	0.169104	0.125588	
0.0776161	0.251925	0.0921435	
0.0897768	0.149878	0.5	
0.17182	0.113313	0.371264	
0.0462313	0.146805	0.364101	
0.132706	0.223572	0.389729	
-0.228959	0.444497	0.408094	
-0.234034	0.362529	0.5	
-0.276891	0.277667	0.386451	
-0.138443	0.369144	0.39287	
-0.0646627	-0.0272093	0.335016	
-0.175968	-0.135992	0.338029	
-0.0739341	-0.184055	0.34975	
-0.112364	-0.0877996	0.406457	
-0.082983	0.493066	0.348347	
-0.13916	0.369653	0.26307	
-0.0383625	0.346848	0.349108	
-0.138443	0.369144	0.39287	
0.471122	-0.167464	0.300106	
0.327062	-0.133702	0.350244	
0.476132	-0.152637	0.402329	
0.389379	-0.0521535	0.3951	
-0.0833019	-0.493012	0.155211	
-0.106158	-0.374353	0.19291	
-0.00141651	-0.344659	0.156164	
-0.0438792	-0.403194	0.0910547	
-0.5	0	0.2	
-0.333403	0.0238809	0.168384	
-0.493378	0.0811073	0.146993	
-0.401703	-0.00567907	0.249917	
-0.0983601	0.156434	0	
-0.0444464	0.169104	0.125588	
-0.119993	0.246691	0	
-0.1632	0.180339	0.117277	
0.0955515	0.0190038	0.323994	
0.102495	0.11997	0.264802	
0.134907	0.0287462	0.229115	
0.000906282	0.043941	0.311068	
0.294811	-0.207935	0.135593	
0.257374	-0.098487	0.223367	
0.257685	-0.0506834	0.101558	
0.20832	-0.16636	0.0943059	
-0.267316	-0.203168	0.336848	
-0.326617	-0.238576	0.253202	
-0.203684	-0.312652	0.313888	
-0.266966	-0.299163	0.400443	
-0.152694	-0.476114	0.0975404	
-0.203173	-0.373024	0	
-0.238488	-0.439458	0.0756919	
-0.183123	-0.325269	0.123125	
-0.00425413	0.131001	0	
0.0651412	0.200096	0	
-0.0295403	0.225144	0	
-0.0444464	0.169104	0.125588	
-0.344127	-0.112227	0	
-0.374595	-0.0873247	0.117455	
-0.356684	-0.19351	0	
-0.275077	-0.119224	0.102748	
0.322451	0.0144002	0.334794	
0.364988	0.109735	0.263774	
0.308034	0.17727	0.353981	
0.362397	0.0936058	0.39874	
-0.495012	-0.0704482	0.428155	
-0.42782	-0.0498056	0.5	
-0.425264	-0.131997	0.5	
-0.358772	-0.11614	0.36635	
-0.318983	0.261743	0	
-0.214341	0.273759	0	
-0.273315	0.334955	0	
-0.228343	0.287598	0.142133	
0.153817	-0.129728	0.5	
0.0943746	-0.140978	0.374495	
0.205712	-0.0609706	0.365394	
0.24114	-0.149085	0.404027	
0.328092	0.270243	0	
0.436762	0.243391	0.0969381	
0.386505	0.317197	0.0688254	
0.327512	0.168835	0.13044	
0.317206	0.386498	0.299678	
0.22095	0.291034	0.346604	
0.25658	0.429146	0.33124	
0.173765	0.338831	0.233339	
0.368263	0.0160059	0.5	
0.322451	0.0144002	0.334794	
0.389379	-0.0521535	0.3951	
0.29269	-0.0648902	0.412739	
-0.209296	-0.0687964	0.252985	
-0.0646627	-0.0272093	0.335016	
-0.188849	-0.0237464	0.373158	
-0.175968	-0.135992	0.338029	
-0.437078	-0.242822	0.347009	
-0.326617	-0.238576	0.253202	
-0.358772	-0.11614	0.36635	
-0.340496	-0.224073	0.407589	
-0.201912	0.369986	0	
-0.273315	0.334955	0	
-0.214341	0.273759	0	
-0.228343	0.287598	0.142133	
-0.468495	-0.174678	0.182891	
-0.434698	-0.247057	0.249501	
-0.429146	-0.25658	0.16876	
-0.326617	-0.238576	0.253202	
0.0904908	0.170765	0.159817	
0.0651412	0.200096	0	
0.04259	0.0957748	0.0972509	
0.0776161	0.251925	0.0921435	
-0.323938	-0.380873	0.347739	
-0.328716	-0.376757	0.253532	
-0.386792	-0.316847	0.301384	
-0.326617	-0.238576	0.253202	
-0.119993	0.246691	0	
-0.1632	0.180339	0.117277	
-0.0444464	0.169104	0.125588	
-0.13617	0.283588	0.0953011	
-0.304559	0.211579	0.5	
-0.201617	0.192684	0.393966	
-0.301517	0.172887	0.349578	
-0.276891	0.277667	0.386451	
0.242822	0.437078	0.152991	
0.317233	0.386476	0.0904728	
0.316847	0.386792	0.198616	
0.167266	0.351716	0.112308	
-0.269341	-0.201154	0.169023	
-0.147445	-0.179827	0.128956	
-0.183123	-0.325269	0.123125	
-0.28242	-0.274225	0.0937223	
0.112799	-0.33356	0	
0.23319	-0.305698	0.109456	
0.201164	-0.273578	0	
0.0667279	-0.268271	0.107506	
0.205712	-0.0609706	0.365394	
0.0943746	-0.140978	0.374495	
0.130037	-0.0606882	0.5	
0.0752678	-0.0423877	0.407707	
-0.217356	-0.450285	0.144698	
-0.277785	-0.415735	0.134138	
-0.257824	-0.4284	0.204976	
-0.183123	-0.325269	0.123125	
0.373926	0.198925	0	
0.436762	0.243391	0.0969381	
0.327512	0.168835	0.13044	
0.382697	0.0900146	0.0901371	
0.256554	-0.429162	0.331268	
0.180335	-0.320871	0.25933	
0.163077	-0.321214	0.379886	
0.251456	-0.316364	0.331038	
-0.408839	0.131788	0.5	
-0.439384	0.238625	0.423358	
-0.374813	0.199394	0.5	
-0.374071	0.0973353	0.396281	
-0.2429	0.437035	0.152631	
-0.153329	0.47591	0.0923815	
-0.16873	0.47067	0.201799	
-0.0714313	0.379857	0.110067	
-0.0646627	-0.0272093	0.335016	
0.0752678	-0.0423877	0.407707	
-0.00932629	-0.104346	0.393808	
0.0292443	-0.0551693	0.315985	
0.0462313	0.146805	0.364101	
-0.0728851	0.200383	0.343081	
-0.0341142	0.113867	0.250814	
-0.0527152	0.0950891	0.390784	
-0.267316	-0.203168	0.336848	
-0.175968	-0.135992	0.338029	
-0.239764	-0.151909	0.5	
-0.179346	-0.240708	0.39897	
0.212642	-0.171195	0.5	
0.144361	-0.223672	0.5	
0.153817	-0.129728	0.5	
0.24114	-0.149085	0.404027	
-0.0383625	0.346848	0.349108	
0.0875494	0.278905	0.295246	
-0.025976	0.384086	0.232401	
0.0772326	0.384839	0.269201	
0.368263	0.0160059	0.5	
0.389379	-0.0521535	0.3951	
0.322451	0.0144002	0.334794	
0.362397	0.0936058	0.39874	
0.324205	0.0779192	0.5	
0.362397	0.0936058	0.39874	
0.368263	0.0160059	0.5	
0.240261	0.0350229	0.402836	
-0.316581	0.126747	0.5	
-0.304559	0.211579	0.5	
-0.234034	0.185752	0.5	
-0.301517	0.172887	0.349578	
-0.0853821	0.492656	0.251348	
-0.025976	0.384086	0.232401	
-0.082983	0.493066	0.348347	
-0.13916	0.369653	0.26307	
-0.261345	-0.230036	0	
-0.278713	-0.14304	0	
-0.356684	-0.19351	0	
-0.275077	-0.119224	0.102748	
0.0814864	0.493315	0.347681	
0.0804661	0.372171	0.377993	
0	0.5	0.3	
0.0772326	0.384839	0.269201	
0.317319	-0.386405	0.201487	
0.2429	-0.437035	0.152631	
0.180335	-0.320871	0.25933	
0.23319	-0.305698	0.109456	
-0.048473	-0.0328568	0	
0.0349199	-0.099137	0.113215	
0.0461078	-0.0584269	0	
-0.0383015	0.0232581	0.102769	
-0.493437	-0.0807477	0.345776	
-0.349306	-0.102086	0.237815	
-0.492649	-0.0854243	0.248597	
-0.401703	-0.00567907	0.249917	
0.294811	-0.207935	0.135593	
0.307021	-0.223333	0.261668	
0.428104	-0.258315	0.196896	
0.368159	-0.173753	0.197234	
0.180973	-0.312061	0.5	
0.144361	-0.223672	0.5	
0.238057	-0.243638	0.5	
0.163077	-0.321214	0.379886	
-0.301517	0.172887	0.349578	
-0.354878	0.123846	0.244627	
-0.334634	0.00771017	0.33657	
-0.374071	0.0973353	0.396281	
0.082983	-0.493066	0.348347	
-0.0131258	-0.386662	0.266725	
0.0372725	-0.390151	0.392733	
0.0955273	-0.385908	0.250582	
-0.386792	-0.316847	0.301384	
-0.267316	-0.203168	0.336848	
-0.340496	-0.224073	0.407589	
-0.266966	-0.299163	0.400443	
-0.5	0	0.1	
-0.401548	-0.0423374	0	
-0.426463	0.0441363	0	
-0.391093	0.0790791	0.0957818	
-0.0341142	0.113867	0.250814	
-0.134825	0.0680349	0.146947	
-0.032045	0.00109893	0.228452	
-0.10547	0.0480539	0.280485	
0.388496	0.195371	0.5	
0.439458	0.238488	0.424308	
0.476114	0.152694	0.40246	
0.362397	0.0936058	0.39874	
-0.183123	-0.325269	0.123125	
-0.106158	-0.374353	0.19291	
-0.152694	-0.476114	0.0975404	
-0.0438792	-0.403194	0.0910547	
-0.0739341	-0.184055	0.34975	
-0.179346	-0.240708	0.39897	
-0.175968	-0.135992	0.338029	
-0.20429	-0.202208	0.252162	
-0.444481	-0.228991	0.0919014	
-0.429146	-0.25658	0.16876	
-0.386831	-0.3168	0.104097	
-0.28242	-0.274225	0.0937223	
-0.186407	-0.169451	0	
-0.261345	-0.230036	0	
-0.168688	-0.281701	0	
-0.147445	-0.179827	0.128956	
0.00183684	-0.222331	0	
0.0248177	-0.313374	0	
0.0667279	-0.268271	0.107506	
-0.0814318	-0.287732	0.10776	
-0.0835823	-0.340682	0.35067	
-0.0129443	-0.237884	0.253616	
0.0610825	-0.307257	0.314818	
-0.0131258	-0.386662	0.266725	
-0.134825	0.0680349	0.146947	
-0.1632	0.180339	0.117277	
-0.16685	0.0883447	0	
-0.24789	0.08719	0.114987	
0.0362446	-0.13014	0.250465	
0.143921	-0.0736091	0.260892	
0.0943746	-0.140978	0.374495	
0.109758	-0.214467	0.270707	
0.242205	0.0836605	0.5	
0.362397	0.0936058	0.39874	
0.324205	0.0779192	0.5	
0.240261	0.0350229	0.402836	
0.346509	0.0237889	0	
0.400931	-0.00647911	0.10587	
0.382697	0.0900146	0.0901371	
0.278081	0.0866882	0.0962345	
-0.5	0	0.3	
-0.334634	0.00771017	0.33657	
-0.493437	-0.0807477	0.345776	
-0.401703	-0.00567907	0.249917	
-0.159378	0.10044	0.348698	
-0.126488	0.187375	0.237913	
-0.201798	0.0517729	0.246381	
-0.206936	0.196576	0.295071	
0	-0.5	0.3	
-0.0810399	-0.493389	0.35285	
0	-0.5	0.4	
0.0372725	-0.390151	0.392733	
-0.344127	-0.112227	0	
-0.41072	-0.12459	0	
-0.356684	-0.19351	0	
-0.374595	-0.0873247	0.117455	
-0.239764	-0.151909	0.5	
-0.262519	-0.0832944	0.5	
-0.174131	-0.119906	0.5	
-0.175968	-0.135992	0.338029	
0.0897768	0.149878	0.5	
0.153817	0.120272	0.5	
0.0654282	0.0836605	0.5	
0.14023	0.0298174	0.409574	
-0.333403	0.0238809	0.168384	
-0.354878	0.123846	0.244627	
-0.238308	0.160613	0.208202	
-0.24789	0.08719	0.114987	
0.334086	0.0370714	0.16525	
0.370375	-0.0671022	0.257475	
0.360278	-0.0912969	0.138185	
0.400931	-0.00647911	0.10587	
0.476132	-0.152637	0.402329	
0.471122	-0.167464	0.300106	
0.450312	-0.217299	0.354112	
0.327062	-0.133702	0.350244	
-0.2429	0.437035	0.152631	
-0.247023	0.434718	0.250558	
-0.317319	0.386405	0.201487	
-0.228343	0.287598	0.142133	
0.256554	-0.429162	0.331268	
0.180335	-0.320871	0.25933	
0.174738	-0.468473	0.317184	
0.163077	-0.321214	0.379886	
0.133074	0.264097	0	
0.158056	0.171884	0	
0.201932	0.155478	0.107683	
0.0776161	0.251925	0.0921435	
0.2429	-0.437035	0.152631	
0.12931	-0.356487	0.143012	
0.180335	-0.320871	0.25933	
0.23319	-0.305698	0.109456	
0.317206	0.386498	0.299678	
0.25658	0.429146	0.33124	
0.247057	0.434698	0.250499	
0.173765	0.338831	0.233339	
0.0603793	0.0090957	0.160519	
0.143921	-0.0736091	0.260892	
0.153084	-0.0880453	0.135895	
0.134907	0.0287462	0.229115	
-0.277785	-0.415735	0.134138	
-0.253565	-0.305449	0.208948	
-0.183123	-0.325269	0.123125	
-0.28242	-0.274225	0.0937223	
-0.201798	0.0517729	0.246381	
-0.126488	0.187375	0.237913	
-0.159378	0.10044	0.348698	
-0.10547	0.0480539	0.280485	
0.196796	0.354228	0.5	
0.122026	0.332598	0.5	
0.177987	0.433818	0.5	
0.0804661	0.372171	0.377993	
-0.0444464	0.169104	0.125588	
-0.1632	0.180339	0.117277	
-0.134825	0.0680349	0.146947	
-0.126488	0.187375	0.237913	
0.0540882	0.337091	0.15152	
-0.0927404	0.290183	0.18898	
0.00240227	0.224422	0.221344	
-0.025976	0.384086	0.232401	
-0.386831	-0.3168	0.104097	
-0.331361	-0.272953	0	
-0.444481	-0.228991	0.0919014	
-0.28242	-0.274225	0.0937223	
0.22095	0.291034	0.346604	
0.0804661	0.372171	0.377993	
0.0875494	0.278905	0.295246	
0.132706	0.223572	0.389729	
-0.354878	0.123846	0.244627	
-0.33672	0.17128	0.12732	
-0.238308	0.160613	0.208202	
-0.24789	0.08719	0.114987	
-0.428104	0.258315	0.196896	
-0.429476	0.256028	0.291579	
-0.460762	0.19416	0.234059	
-0.354878	0.123846	0.244627	
0.0540882	0.337091	0.15152	
-0.0714313	0.379857	0.110067	
0.0153159	0.363557	0	
-0.0255811	0.276919	0.0997551	
0.284773	-0.165822	0.5	
0.327062	-0.133702	0.350244	
0.366699	-0.192277	0.5	
0.307193	-0.244124	0.374573	
0.439458	0.238488	0.424308	
0.388496	0.195371	0.5	
0.342318	0.251665	0.5	
0.294218	0.260673	0.410718	
-0.00141651	-0.344659	0.156164	
-0.0814318	-0.287732	0.10776	
0.0248177	-0.313374	0	
-0.0438792	-0.403194	0.0910547	
0.470916	0.168043	0.300126	
0.364988	0.109735	0.263774	
0.493012	0.0833019	0.344789	
0.362397	0.0936058	0.39874	
0.174738	-0.468473	0.317184	
0.163077	-0.321214	0.379886	
0.180335	-0.320871	0.25933	
0.0955273	-0.385908	0.250582	
-0.386792	-0.316847	0.301384	
-0.326617	-0.238576	0.253202	
-0.267316	-0.203168	0.336848	
-0.266966	-0.299163	0.400443	
0.201164	-0.273578	0	
0.154755	-0.229359	0.16737	
0.23319	-0.305698	0.109456	
0.20832	-0.16636	0.0943059	
-0.0129443	-0.237884	0.253616	
0.0330605	-0.234493	0.398486	
0.0610825	-0.307257	0.314818	
0.109758	-0.214467	0.270707	
0.17182	0.113313	0.371264	
0.102495	0.11997	0.264802	
0.0462313	0.146805	0.364101	
0.132706	0.223572	0.389729	
-0.168043	-0.470916	0.199874	
-0.217356	-0.450285	0.144698	
-0.257824	-0.4284	0.204976	
-0.106158	-0.374353	0.19291	
0.218809	0.121581	0.250148	
0.0904908	0.170765	0.159817	
0.102495	0.11997	0.264802	
0.156948	0.213263	0.238247	
-0.269341	-0.201154	0.169023	
-0.253565	-0.305449	0.208948	
-0.386498	-0.317206	0.200322	
-0.28242	-0.274225	0.0937223	
-0.0206459	0.274141	0.5	
-0.0572576	0.362529	0.5	
-0.0383625	0.346848	0.349108	
-0.0919101	0.279835	0.40279	
-0.238308	0.160613	0.208202	
-0.354878	0.123846	0.244627	
-0.301517	0.172887	0.349578	
-0.277293	0.260919	0.267415	
-0.437078	-0.242822	0.347009	
-0.470668	-0.168734	0.298219	
-0.358772	-0.11614	0.36635	
-0.326617	-0.238576	0.253202	
-0.0977967	-0.490343	0.258774	
-0.0835823	-0.340682	0.35067	
-0.0810399	-0.493389	0.35285	
-0.0131258	-0.386662	0.266725	
0.460548	0.194667	0.23433	
0.364988	0.109735	0.263774	
0.4284	0.257824	0.295024	
0.315434	0.222572	0.240138	
-0.377032	0.3284	0.243217	
-0.429476	0.256028	0.291579	
-0.428104	0.258315	0.196896	
-0.277293	0.260919	0.267415	
-0.00141651	-0.344659	0.156164	
0.0667279	-0.268271	0.107506	
0.0248177	-0.313374	0	
-0.0814318	-0.287732	0.10776	
-0.493315	-0.0814864	0.152319	
-0.349306	-0.102086	0.237815	
-0.374595	-0.0873247	0.117455	
-0.401703	-0.00567907	0.249917	
-0.0572576	0.362529	0.5	
0.0172234	0.375408	0.5	
-0.0206459	0.274141	0.5	
-0.0383625	0.346848	0.349108	
0.0603793	0.0090957	0.160519	
0.153084	-0.0880453	0.135895	
0.195808	0.041614	0.135744	
0.134907	0.0287462	0.229115	
-0.374813	0.199394	0.5	
-0.301517	0.172887	0.349578	
-0.316581	0.126747	0.5	
-0.374071	0.0973353	0.396281	
0.495101	0.0698189	0.427621	
0.493012	0.0833019	0.344789	
0.5	0	0.4	
0.362397	0.0936058	0.39874	
0.376757	0.328716	0.246468	
0.316847	0.386792	0.198616	
0.380873	0.323938	0.152261	
0.315434	0.222572	0.240138	
0.231243	0.24169	0	
0.133074	0.264097	0	
0.158056	0.171884	0	
0.201932	0.155478	0.107683	
-0.00141651	-0.344659	0.156164	
-0.0131258	-0.386662	0.266725	
0	-0.5	0.2	
0.0955273	-0.385908	0.250582	
0.227799	0.256719	0.161264	
0.201932	0.155478	0.107683	
0.218809	0.121581	0.250148	
0.156948	0.213263	0.238247	
-0.294862	0.0237806	0.5	
-0.334634	0.00771017	0.33657	
-0.355295	-0.0330772	0.5	
-0.374071	0.0973353	0.396281	
-0.470668	-0.168734	0.298219	
-0.349306	-0.102086	0.237815	
-0.493437	-0.0807477	0.345776	
-0.358772	-0.11614	0.36635	
-0.124401	-0.265319	0.22424	
-0.0129443	-0.237884	0.253616	
-0.0200202	-0.20323	0.140535	
-0.115752	-0.145542	0.242419	
-0.386498	-0.317206	0.200322	
-0.253565	-0.305449	0.208948	
-0.269341	-0.201154	0.169023	
-0.326617	-0.238576	0.253202	
-0.0835823	-0.340682	0.35067	
-0.203684	-0.312652	0.313888	
-0.171353	-0.469721	0.338334	
-0.172877	-0.358629	0.40341	
-0.468495	-0.174678	0.182891	
-0.349306	-0.102086	0.237815	
-0.434698	-0.247057	0.249501	
-0.326617	-0.238576	0.253202	
-0.228923	-0.22221	0.5	
-0.267316	-0.203168	0.336848	
-0.179346	-0.240708	0.39897	
-0.340496	-0.224073	0.407589	
-0.145646	0.149141	0.5	
-0.169426	0.21818	0.5	
-0.0572576	0.185752	0.5	
-0.0919101	0.279835	0.40279	
-0.119993	0.246691	0	
-0.0444464	0.169104	0.125588	
-0.0255811	0.276919	0.0997551	
-0.13617	0.283588	0.0953011	
0.257374	-0.098487	0.223367	
0.143921	-0.0736091	0.260892	
0.153084	-0.0880453	0.135895	
0.214683	-0.189052	0.238302	
-0.267316	-0.203168	0.336848	
-0.326617	-0.238576	0.253202	
-0.386792	-0.316847	0.301384	
-0.340496	-0.224073	0.407589	
0.164071	0.275222	0.5	
0.132706	0.223572	0.389729	
0.22095	0.291034	0.346604	
0.225245	0.18886	0.408136	
0.308034	0.17727	0.353981	
0.315434	0.222572	0.240138	
0.218809	0.121581	0.250148	
0.222637	0.199452	0.310281	
0.460762	-0.19416	0.234059	
0.429476	-0.256028	0.291579	
0.471122	-0.167464	0.300106	
0.368159	-0.173753	0.197234	
0.380873	0.323938	0.152261	
0.316847	0.386792	0.198616	
0.317233	0.386476	0.0904728	
0.227799	0.256719	0.161264	
0.22095	0.291034	0.346604	
0.156948	0.213263	0.238247	
0.173765	0.338831	0.233339	
0.222637	0.199452	0.310281	
0.0603793	0.0090957	0.160519	
0.0349199	-0.099137	0.113215	
-0.0779543	-0.0725374	0.153012	
-0.0383015	0.0232581	0.102769	
-0.171353	-0.469721	0.338334	
-0.0810399	-0.493389	0.35285	
-0.0977967	-0.490343	0.258774	
-0.0835823	-0.340682	0.35067	
0.0529867	0.308818	0.5	
0.0172234	0.375408	0.5	
0.0804661	0.372171	0.377993	
0.0163452	0.25475	0.392302	
-0.238308	0.160613	0.208202	
-0.134825	0.0680349	0.146947	
-0.1632	0.180339	0.117277	
-0.126488	0.187375	0.237913	
0.0529867	0.308818	0.5	
0.0804661	0.372171	0.377993	
0.122026	0.332598	0.5	
0.132706	0.223572	0.389729	
-0.238488	-0.439458	0.0756919	
-0.315029	-0.388274	0.0791933	
-0.277785	-0.415735	0.134138	
-0.183123	-0.325269	0.123125	
-0.16685	0.0883447	0	
-0.1632	0.180339	0.117277	
-0.18644	0.1823	0	
-0.24789	0.08719	0.114987	
0.00183684	-0.222331	0	
0.0667279	-0.268271	0.107506	
-0.0200202	-0.20323	0.140535	
-0.0814318	-0.287732	0.10776	
0.0903521	0.10545	0	
0.184962	0.0799289	0	
0.158056	0.171884	0	
0.201932	0.155478	0.107683	
0.394936	-0.119803	0	
0.360278	-0.0912969	0.138185	
0.495208	-0.0690617	0.0692099	
0.400931	-0.00647911	0.10587	
-0.38078	0.324048	0.150149	
-0.228343	0.287598	0.142133	
-0.317319	0.386405	0.201487	
-0.277293	0.260919	0.267415	
-0.261345	-0.230036	0	
-0.356684	-0.19351	0	
-0.28242	-0.274225	0.0937223	
-0.275077	-0.119224	0.102748	
-0.168688	-0.281701	0	
-0.147445	-0.179827	0.128956	
-0.183123	-0.325269	0.123125	
-0.0814318	-0.287732	0.10776	
0.0610825	-0.307257	0.314818	
0.163077	-0.321214	0.379886	
0.180335	-0.320871	0.25933	
0.109758	-0.214467	0.270707	
0.205712	-0.0609706	0.365394	
0.143921	-0.0736091	0.260892	
0.0955515	0.0190038	0.323994	
0.22873	0.00637727	0.265758	
0.450285	0.217356	0.355302	
0.470916	0.168043	0.300126	
0.476114	0.152694	0.40246	
0.362397	0.0936058	0.39874	
0.00240227	0.224422	0.221344	
0.102495	0.11997	0.264802	
0.0904908	0.170765	0.159817	
0.156948	0.213263	0.238247	
-0.333403	0.0238809	0.168384	
-0.201798	0.0517729	0.246381	
-0.220281	-0.031921	0.125401	
-0.24789	0.08719	0.114987	
-0.0444464	0.169104	0.125588	
0.00240227	0.224422	0.221344	
0.0904908	0.170765	0.159817	
0.0776161	0.251925	0.0921435	
0.180335	-0.320871	0.25933	
0.163077	-0.321214	0.379886	
0.203223	-0.215179	0.335428	
0.109758	-0.214467	0.270707	
0.164797	-0.177585	0	
0.201164	-0.273578	0	
0.20832	-0.16636	0.0943059	
0.105136	-0.172994	0.0956717	
0.0362446	-0.13014	0.250465	
-0.00932629	-0.104346	0.393808	
0.0943746	-0.140978	0.374495	
0.0292443	-0.0551693	0.315985	
-0.0505573	-0.00469477	0.5	
-0.0527152	0.0950891	0.390784	
-0.0283081	0.0695318	0.5	
0.0390655	0.0525248	0.401715	
-0.0295403	0.225144	0	
-0.0255811	0.276919	0.0997551	
-0.0444464	0.169104	0.125588	
0.0776161	0.251925	0.0921435	
-0.221565	0.0908555	0.5	
-0.201617	0.192684	0.393966	
-0.159378	0.10044	0.348698	
-0.261609	0.0749827	0.393802	
0.493012	-0.0833019	0.344789	
0.471122	-0.167464	0.300106	
0.476132	-0.152637	0.402329	
0.389379	-0.0521535	0.3951	
-0.238488	-0.439458	0.0756919	
-0.203173	-0.373024	0	
-0.315029	-0.388274	0.0791933	
-0.183123	-0.325269	0.123125	
-0.0646627	-0.0272093	0.335016	
-0.188849	-0.0237464	0.373158	
-0.159378	0.10044	0.348698	
-0.10547	0.0480539	0.280485	
-0.0833019	-0.493012	0.155211	
0	-0.5	0.2	
-0.00141651	-0.344659	0.156164	
-0.106158	-0.374353	0.19291	
0.380207	-0.19708	0	
0.314857	-0.257449	0	
0.436811	-0.243302	0.0936268	
0.294811	-0.207935	0.135593	
-0.169426	0.21818	0.5	
-0.201617	0.192684	0.393966	
-0.191056	0.29295	0.5	
-0.0919101	0.279835	0.40279	
-0.0690274	-0.312061	0.5	
-0.0835823	-0.340682	0.35067	
1.21767e-05	-0.288281	0.5	
0.0372725	-0.390151	0.392733	
0.373926	0.198925	0	
0.478555	0.144862	0.0783483	
0.436762	0.243391	0.0969381	
0.382697	0.0900146	0.0901371	
-0.114467	-0.386332	0	
-0.183123	-0.325269	0.123125	
-0.152694	-0.476114	0.0975404	
-0.0438792	-0.403194	0.0910547	
-0.122627	0.0544512	0.5	
-0.209059	-0.00395244	0.5	
-0.221565	0.0908555	0.5	
-0.188849	-0.0237464	0.373158	
0.0603793	0.0090957	0.160519	
-0.0779543	-0.0725374	0.153012	
-0.032045	0.00109893	0.228452	
-0.0383015	0.0232581	0.102769	
-0.221565	0.0908555	0.5	
-0.188849	-0.0237464	0.373158	
-0.209059	-0.00395244	0.5	
-0.261609	0.0749827	0.393802	
-0.0206459	0.274141	0.5	
-0.0383625	0.346848	0.349108	
0.0172234	0.375408	0.5	
0.0163452	0.25475	0.392302	
-0.124401	-0.265319	0.22424	
-0.183123	-0.325269	0.123125	
-0.106158	-0.374353	0.19291	
-0.253565	-0.305449	0.208948	
0.257374	-0.098487	0.223367	
0.153084	-0.0880453	0.135895	
0.20832	-0.16636	0.0943059	
0.214683	-0.189052	0.238302	
-0.471122	0.167464	0.300106	
-0.493012	0.0833019	0.344789	
-0.490316	0.0979281	0.24092	
-0.354878	0.123846	0.244627	
-0.0505573	-0.00469477	0.5	
-0.00932629	-0.104346	0.393808	
-0.0293436	-0.0762152	0.5	
-0.112364	-0.0877996	0.406457	
-0.124401	-0.265319	0.22424	
-0.0200202	-0.20323	0.140535	
-0.147445	-0.179827	0.128956	
-0.115752	-0.145542	0.242419	
0.314271	-0.0501881	0	
0.346509	0.0237889	0	
0.257685	-0.0506834	0.101558	
0.400931	-0.00647911	0.10587	
0.436811	-0.243302	0.0936268	
0.469621	-0.171627	0.160116	
0.360278	-0.0912969	0.138185	
0.368159	-0.173753	0.197234	
-0.331632	-0.374193	0.165357	
-0.253565	-0.305449	0.208948	
-0.277785	-0.415735	0.134138	
-0.28242	-0.274225	0.0937223	
-0.493437	-0.0807477	0.345776	
-0.470668	-0.168734	0.298219	
-0.492649	-0.0854243	0.248597	
-0.349306	-0.102086	0.237815	
0.228959	-0.444497	0.408094	
0.144361	-0.400449	0.5	
0.213029	-0.381729	0.5	
0.163077	-0.321214	0.379886	
0.316847	0.386792	0.198616	
0.317206	0.386498	0.299678	
0.247057	0.434698	0.250499	
0.173765	0.338831	0.233339	
-0.228923	-0.22221	0.5	
-0.267316	-0.203168	0.336848	
-0.239764	-0.151909	0.5	
-0.179346	-0.240708	0.39897	
-0.217356	-0.450285	0.144698	
-0.152694	-0.476114	0.0975404	
-0.183123	-0.325269	0.123125	
-0.106158	-0.374353	0.19291	
-0.333403	0.0238809	0.168384	
-0.33672	0.17128	0.12732	
-0.354878	0.123846	0.244627	
-0.24789	0.08719	0.114987	
-0.0833019	-0.493012	0.155211	
-0.00141651	-0.344659	0.156164	
0	-0.5	0.2	
-0.0438792	-0.403194	0.0910547	
0.0897768	0.149878	0.5	
0.00344957	0.138123	0.5	
0.0177914	0.213039	0.5	
0.0462313	0.146805	0.364101	
0.324956	-0.262938	0.5	
0.388345	-0.314941	0.420199	
0.267645	-0.326424	0.5	
0.307193	-0.244124	0.374573	
-0.334634	0.00771017	0.33657	
-0.354878	0.123846	0.244627	
-0.333403	0.0238809	0.168384	
-0.401703	-0.00567907	0.249917	
-0.389036	0.207425	0	
-0.478516	0.14499	0.0762896	
-0.404541	0.126945	0	
-0.33672	0.17128	0.12732	
-0.425264	-0.131997	0.5	
-0.47591	-0.153328	0.40763	
-0.358772	-0.11614	0.36635	
-0.340496	-0.224073	0.407589	
0	-0.5	0.2	
-0.0131258	-0.386662	0.266725	
-0.00141651	-0.344659	0.156164	
-0.106158	-0.374353	0.19291	
0.0895983	0.397206	0.5	
0.146853	0.477948	0.415992	
0.177987	0.433818	0.5	
0.0804661	0.372171	0.377993	
0.5	0	0.3	
0.493012	0.0833019	0.344789	
0.490343	0.0977967	0.241226	
0.364988	0.109735	0.263774	
-0.389036	0.207425	0	
-0.318983	0.261743	0	
-0.436811	0.243302	0.0936268	
-0.33672	0.17128	0.12732	
0.0462313	0.146805	0.364101	
0.17182	0.113313	0.371264	
0.0955515	0.0190038	0.323994	
0.102495	0.11997	0.264802	
-0.228923	-0.22221	0.5	
-0.340496	-0.224073	0.407589	
-0.179346	-0.240708	0.39897	
-0.266966	-0.299163	0.400443	
0	-0.5	0.3	
0.0372725	-0.390151	0.392733	
0.082983	-0.493066	0.348347	
-0.0131258	-0.386662	0.266725	
-0.257824	-0.4284	0.204976	
-0.194667	-0.460548	0.26567	
-0.168043	-0.470916	0.199874	
-0.106158	-0.374353	0.19291	
-0.337562	0.0547633	0	
-0.333403	0.0238809	0.168384	
-0.24789	0.08719	0.114987	
-0.391093	0.0790791	0.0957818	
-0.0295403	0.225144	0	
-0.119993	0.246691	0	
-0.0444464	0.169104	0.125588	
-0.0255811	0.276919	0.0997551	
-0.386831	-0.3168	0.104097	
-0.429146	-0.25658	0.16876	
-0.386498	-0.317206	0.200322	
-0.28242	-0.274225	0.0937223	
-0.267316	-0.203168	0.336848	
-0.358772	-0.11614	0.36635	
-0.349306	-0.102086	0.237815	
-0.326617	-0.238576	0.253202	
-0.267316	-0.203168	0.336848	
-0.209296	-0.0687964	0.252985	
-0.175968	-0.135992	0.338029	
-0.20429	-0.202208	0.252162	
-0.0295403	0.225144	0	
-0.119993	0.246691	0	
-0.0983601	0.156434	0	
-0.0444464	0.169104	0.125588	
0.428104	-0.258315	0.196896	
0.294811	-0.207935	0.135593	
0.38078	-0.324048	0.150149	
0.307021	-0.223333	0.261668	
-0.490316	0.0979281	0.24092	
-0.493378	0.0811073	0.146993	
-0.469621	0.171627	0.160116	
-0.354878	0.123846	0.244627	
0.0897768	0.149878	0.5	
0.153817	0.120272	0.5	
0.17182	0.113313	0.371264	
0.132706	0.223572	0.389729	
-0.0383625	0.346848	0.349108	
0.0163452	0.25475	0.392302	
-0.0206459	0.274141	0.5	
-0.0919101	0.279835	0.40279	
-0.11205	0.260225	0.5	
-0.0572576	0.185752	0.5	
-0.169426	0.21818	0.5	
-0.0919101	0.279835	0.40279	
-0.349306	-0.102086	0.237815	
-0.269341	-0.201154	0.169023	
-0.374595	-0.0873247	0.117455	
-0.275077	-0.119224	0.102748	
0.203223	-0.215179	0.335428	
0.214683	-0.189052	0.238302	
0.307021	-0.223333	0.261668	
0.251456	-0.316364	0.331038	
-0.434698	-0.247057	0.249501	
-0.349306	-0.102086	0.237815	
-0.470668	-0.168734	0.298219	
-0.326617	-0.238576	0.253202	
-0.234034	0.185752	0.5	
-0.316581	0.126747	0.5	
-0.301517	0.172887	0.349578	
-0.261609	0.0749827	0.393802	
-0.257824	-0.4284	0.204976	
-0.183123	-0.325269	0.123125	
-0.277785	-0.415735	0.134138	
-0.253565	-0.305449	0.208948	
-0.0853821	0.492656	0.251348	
0	0.5	0.3	
-0.082983	0.493066	0.348347	
-0.025976	0.384086	0.232401	
-0.257956	0.116321	0	
-0.16685	0.0883447	0	
-0.18644	0.1823	0	
-0.24789	0.08719	0.114987	
-0.0927404	0.290183	0.18898	
-0.1632	0.180339	0.117277	
-0.0444464	0.169104	0.125588	
-0.126488	0.187375	0.237913	
-0.328307	0.16356	0	
-0.24789	0.08719	0.114987	
-0.33672	0.17128	0.12732	
-0.391093	0.0790791	0.0957818	
0.317319	-0.386405	0.201487	
0.180335	-0.320871	0.25933	
0.317163	-0.386533	0.299742	
0.251456	-0.316364	0.331038	
-0.159378	0.10044	0.348698	
-0.201798	0.0517729	0.246381	
-0.188849	-0.0237464	0.373158	
-0.261609	0.0749827	0.393802	
-0.0779543	-0.0725374	0.153012	
-0.147445	-0.179827	0.128956	
-0.0200202	-0.20323	0.140535	
-0.115752	-0.145542	0.242419	
0.112358	-0.334816	0.5	
0.163077	-0.321214	0.379886	
0.144361	-0.400449	0.5	
0.0372725	-0.390151	0.392733	
0.0955515	0.0190038	0.323994	
0.17182	0.113313	0.371264	
0.0462313	0.146805	0.364101	
0.0390655	0.0525248	0.401715	
-0.317131	0.386559	0.0881616	
-0.38078	0.324048	0.150149	
-0.385896	0.317937	0.065638	
-0.228343	0.287598	0.142133	
-0.38078	0.324048	0.150149	
-0.317319	0.386405	0.201487	
-0.377032	0.3284	0.243217	
-0.277293	0.260919	0.267415	
0.380873	0.323938	0.152261	
0.327512	0.168835	0.13044	
0.428195	0.258165	0.201755	
0.315434	0.222572	0.240138	
0.203223	-0.215179	0.335428	
0.180335	-0.320871	0.25933	
0.214683	-0.189052	0.238302	
0.251456	-0.316364	0.331038	
-0.315029	-0.388274	0.0791933	
-0.203173	-0.373024	0	
-0.263582	-0.319413	0	
-0.183123	-0.325269	0.123125	
-0.469621	0.171627	0.160116	
-0.33672	0.17128	0.12732	
-0.354878	0.123846	0.244627	
-0.391093	0.0790791	0.0957818	
-0.0739341	-0.184055	0.34975	
-0.0129443	-0.237884	0.253616	
-0.124401	-0.265319	0.22424	
-0.115752	-0.145542	0.242419	
0.00183684	-0.222331	0	
-0.0638367	-0.295761	0	
0.0248177	-0.313374	0	
-0.0814318	-0.287732	0.10776	
-0.174131	-0.119906	0.5	
-0.175968	-0.135992	0.338029	
-0.188849	-0.0237464	0.373158	
-0.112364	-0.0877996	0.406457	
-0.0200202	-0.20323	0.140535	
0.0667279	-0.268271	0.107506	
0.00183684	-0.222331	0	
0.105136	-0.172994	0.0956717	
-0.0728851	0.200383	0.343081	
0.00240227	0.224422	0.221344	
-0.0341142	0.113867	0.250814	
-0.126488	0.187375	0.237913	
0.153084	-0.0880453	0.135895	
0.0349199	-0.099137	0.113215	
0.14072	-0.0839746	0	
0.105136	-0.172994	0.0956717	
0.302987	0.308818	0.5	
0.234372	0.286063	0.5	
0.3168	0.386831	0.395903	
0.294218	0.260673	0.410718	
1.21767e-05	-0.288281	0.5	
-0.0835823	-0.340682	0.35067	
-0.0690274	-0.312061	0.5	
0.0330605	-0.234493	0.398486	
0.247023	-0.434718	0.250558	
0.317319	-0.386405	0.201487	
0.2429	-0.437035	0.152631	
0.180335	-0.320871	0.25933	
-0.0444464	0.169104	0.125588	
-0.0255811	0.276919	0.0997551	
0.00240227	0.224422	0.221344	
0.0776161	0.251925	0.0921435	
0.0362446	-0.13014	0.250465	
0.0943746	-0.140978	0.374495	
0.143921	-0.0736091	0.260892	
0.0292443	-0.0551693	0.315985	
0.14072	-0.0839746	0	
0.153084	-0.0880453	0.135895	
0.232997	-0.11062	0	
0.257685	-0.0506834	0.101558	
0.307021	-0.223333	0.261668	
0.214683	-0.189052	0.238302	
0.180335	-0.320871	0.25933	
0.251456	-0.316364	0.331038	
0.267645	-0.326424	0.5	
0.388345	-0.314941	0.420199	
0.31678	-0.386847	0.395869	
0.307193	-0.244124	0.374573	
-0.214341	0.273759	0	
-0.201912	0.369986	0	
-0.228343	0.287598	0.142133	
-0.13617	0.283588	0.0953011	
-0.0341142	0.113867	0.250814	
0.102495	0.11997	0.264802	
0.0462313	0.146805	0.364101	
0.000906282	0.043941	0.311068	
0.232997	-0.11062	0	
0.313791	-0.154465	0	
0.257685	-0.0506834	0.101558	
0.20832	-0.16636	0.0943059	
0.00240227	0.224422	0.221344	
-0.025976	0.384086	0.232401	
-0.0927404	0.290183	0.18898	
-0.0867488	0.283314	0.2887	
-0.201798	0.0517729	0.246381	
-0.126488	0.187375	0.237913	
-0.238308	0.160613	0.208202	
-0.206936	0.196576	0.295071	
0.327062	-0.133702	0.350244	
0.24114	-0.149085	0.404027	
0.284773	-0.165822	0.5	
0.29269	-0.0648902	0.412739	
0.382697	0.0900146	0.0901371	
0.400931	-0.00647911	0.10587	
0.334086	0.0370714	0.16525	
0.278081	0.0866882	0.0962345	
0.284773	-0.165822	0.5	
0.338823	-0.0848934	0.5	
0.366699	-0.192277	0.5	
0.327062	-0.133702	0.350244	
0.493012	-0.0833019	0.344789	
0.5	0	0.3	
0.370375	-0.0671022	0.257475	
0.389379	-0.0521535	0.3951	
-0.428104	0.258315	0.196896	
-0.354878	0.123846	0.244627	
-0.460762	0.19416	0.234059	
-0.33672	0.17128	0.12732	
-0.334634	0.00771017	0.33657	
-0.261609	0.0749827	0.393802	
-0.301517	0.172887	0.349578	
-0.374071	0.0973353	0.396281	
0.0895983	0.397206	0.5	
0.177987	0.433818	0.5	
0.122026	0.332598	0.5	
0.0804661	0.372171	0.377993	
-0.209296	-0.0687964	0.252985	
-0.201798	0.0517729	0.246381	
-0.188849	-0.0237464	0.373158	
-0.10547	0.0480539	0.280485	
0.235698	-0.440961	0.0686036	
0.194604	-0.371188	0	
0.12931	-0.356487	0.143012	
0.23319	-0.305698	0.109456	
0.278817	-0.00472784	0.5	
0.240261	0.0350229	0.402836	
0.368263	0.0160059	0.5	
0.29269	-0.0648902	0.412739	
0.314857	-0.257449	0	
0.385896	-0.317937	0.065638	
0.294811	-0.207935	0.135593	
0.23319	-0.305698	0.109456	
-0.0341142	0.113867	0.250814	
0.0462313	0.146805	0.364101	
-0.0527152	0.0950891	0.390784	
0.000906282	0.043941	0.311068	
0.5	0	0.2	
0.493378	-0.0811073	0.146993	
0.490316	-0.0979281	0.24092	
0.370375	-0.0671022	0.257475	
-0.114467	-0.386332	0	
-0.0814318	-0.287732	0.10776	
-0.183123	-0.325269	0.123125	
-0.0438792	-0.403194	0.0910547	
-0.301517	0.172887	0.349578	
-0.201617	0.192684	0.393966	
-0.159378	0.10044	0.348698	
-0.206936	0.196576	0.295071	
0.338823	-0.0848934	0.5	
0.327062	-0.133702	0.350244	
0.284773	-0.165822	0.5	
0.29269	-0.0648902	0.412739	
0.436811	-0.243302	0.0936268	
0.469621	-0.171627	0.160116	
0.478516	-0.14499	0.0762896	
0.360278	-0.0912969	0.138185	
0.386505	0.317197	0.0688254	
0.436762	0.243391	0.0969381	
0.380873	0.323938	0.152261	
0.327512	0.168835	0.13044	
0.460548	0.194667	0.23433	
0.428195	0.258165	0.201755	
0.469721	0.171353	0.161666	
0.327512	0.168835	0.13044	
-0.5	0	0.4	
-0.495102	0.0698146	0.4276	
-0.400468	0.0439116	0.5	
-0.374071	0.0973353	0.396281	
0.257374	-0.098487	0.223367	
0.143921	-0.0736091	0.260892	
0.205712	-0.0609706	0.365394	
0.22873	0.00637727	0.265758	
0.164071	0.275222	0.5	
0.22095	0.291034	0.346604	
0.234372	0.286063	0.5	
0.225245	0.18886	0.408136	
-0.114467	-0.386332	0	
-0.203173	-0.373024	0	
-0.152694	-0.476114	0.0975404	
-0.183123	-0.325269	0.123125	
0.112799	-0.33356	0	
0.125573	-0.41396	0	
0.194604	-0.371188	0	
0.12931	-0.356487	0.143012	
-0.495012	-0.0704482	0.428155	
-0.425264	-0.131997	0.5	
-0.47591	-0.153328	0.40763	
-0.358772	-0.11614	0.36635	
0.314271	-0.0501881	0	
0.313791	-0.154465	0	
0.360278	-0.0912969	0.138185	
0.257685	-0.0506834	0.101558	
-0.0925337	-0.196451	0	
0.00183684	-0.222331	0	
-0.0232782	-0.127584	0	
-0.0200202	-0.20323	0.140535	
0.346509	0.0237889	0	
0.276476	0.0535537	0	
0.257685	-0.0506834	0.101558	
0.278081	0.0866882	0.0962345	
0.115537	0.0107471	0	
0.210156	-0.0147965	0	
0.184962	0.0799289	0	
0.195808	0.041614	0.135744	
0.0540882	0.337091	0.15152	
-0.0714313	0.379857	0.110067	
-0.0927404	0.290183	0.18898	
-0.025976	0.384086	0.232401	
0.261819	0.319027	0	
0.317233	0.386476	0.0904728	
0.235698	0.440961	0.068569	
0.167266	0.351716	0.112308	
-0.214341	0.273759	0	
-0.228343	0.287598	0.142133	
-0.1632	0.180339	0.117277	
-0.13617	0.283588	0.0953011	
-0.31678	0.386847	0.395869	
-0.228959	0.444497	0.408094	
-0.234034	0.362529	0.5	
-0.276891	0.277667	0.386451	
0.470916	0.168043	0.300126	
0.4284	0.257824	0.295024	
0.460548	0.194667	0.23433	
0.364988	0.109735	0.263774	
-0.0927404	0.290183	0.18898	
-0.025976	0.384086	0.232401	
-0.0714313	0.379857	0.110067	
-0.13916	0.369653	0.26307	
0.130037	-0.0606882	0.5	
0.205712	-0.0609706	0.365394	
0.153817	-0.129728	0.5	
0.0943746	-0.140978	0.374495	
-0.262519	-0.0832944	0.5	
-0.294862	0.0237806	0.5	
-0.209059	-0.00395244	0.5	
-0.188849	-0.0237464	0.373158	
0.0420567	-0.345657	0.5	
0.0372725	-0.390151	0.392733	
1.21767e-05	-0.288281	0.5	
0.0330605	-0.234493	0.398486	
0.388496	0.195371	0.5	
0.315521	0.155675	0.5	
0.342318	0.251665	0.5	
0.294218	0.260673	0.410718	
-0.315029	-0.388274	0.0791933	
-0.277785	-0.415735	0.134138	
-0.183123	-0.325269	0.123125	
-0.28242	-0.274225	0.0937223	
0.0248177	-0.313374	0	
-0.0328721	-0.370689	0	
0.0404524	-0.41072	0	
-0.0438792	-0.403194	0.0910547	
-0.0341142	0.113867	0.250814	
0.00240227	0.224422	0.221344	
-0.0444464	0.169104	0.125588	
-0.126488	0.187375	0.237913	
-0.137519	-0.208294	0.5	
-0.0324158	-0.223672	0.5	
-0.0690274	-0.312061	0.5	
-0.179346	-0.240708	0.39897	
0.00344957	0.138123	0.5	
-0.0527152	0.0950891	0.390784	
0.0462313	0.146805	0.364101	
0.0390655	0.0525248	0.401715	
0.114055	0.374109	0	
0.167266	0.351716	0.112308	
0.0540882	0.337091	0.15152	
0.0776161	0.251925	0.0921435	
-0.318983	0.261743	0	
-0.385896	0.317937	0.065638	
-0.436811	0.243302	0.0936268	
-0.33672	0.17128	0.12732	
0.147585	-0.477722	0.416442	
0.144361	-0.400449	0.5	
0.228959	-0.444497	0.408094	
0.163077	-0.321214	0.379886	
0.493378	-0.0811073	0.146993	
0.360278	-0.0912969	0.138185	
0.490316	-0.0979281	0.24092	
0.370375	-0.0671022	0.257475	
0.385896	-0.317937	0.065638	
0.38078	-0.324048	0.150149	
0.294811	-0.207935	0.135593	
0.23319	-0.305698	0.109456	
-0.220281	-0.031921	0.125401	
-0.201798	0.0517729	0.246381	
-0.134825	0.0680349	0.146947	
-0.24789	0.08719	0.114987	
0.247868	0.146306	0	
0.300884	0.198715	0	
0.231243	0.24169	0	
0.201932	0.155478	0.107683	
0.0904908	0.170765	0.159817	
0.201932	0.155478	0.107683	
0.227799	0.256719	0.161264	
0.156948	0.213263	0.238247	
-0.0739341	-0.184055	0.34975	
-0.175968	-0.135992	0.338029	
-0.115752	-0.145542	0.242419	
-0.20429	-0.202208	0.252162	
0.228959	-0.444497	0.408094	
0.163077	-0.321214	0.379886	
0.31678	-0.386847	0.395869	
0.251456	-0.316364	0.331038	
-0.183123	-0.325269	0.123125	
-0.0814318	-0.287732	0.10776	
-0.106158	-0.374353	0.19291	
-0.0438792	-0.403194	0.0910547	
-0.450312	0.217299	0.354112	
-0.439384	0.238625	0.423358	
-0.476132	0.152637	0.402329	
-0.374071	0.0973353	0.396281	
0.245477	-0.191651	0	
0.23319	-0.305698	0.109456	
0.294811	-0.207935	0.135593	
0.20832	-0.16636	0.0943059	
-0.0572576	0.185752	0.5	
0.0163452	0.25475	0.392302	
-0.0728851	0.200383	0.343081	
-0.0919101	0.279835	0.40279	
-0.301517	0.172887	0.349578	
-0.238308	0.160613	0.208202	
-0.277293	0.260919	0.267415	
-0.206936	0.196576	0.295071	
0.146853	0.477948	0.415992	
0.174678	0.468495	0.317109	
0.228991	0.444481	0.408099	
0.0804661	0.372171	0.377993	
-0.425264	-0.131997	0.5	
-0.358772	-0.11614	0.36635	
-0.350907	-0.119906	0.5	
-0.340496	-0.224073	0.407589	
0.112799	-0.33356	0	
0.12931	-0.356487	0.143012	
0.194604	-0.371188	0	
0.23319	-0.305698	0.109456	
-0.0690274	-0.312061	0.5	
-0.179346	-0.240708	0.39897	
-0.0835823	-0.340682	0.35067	
-0.172877	-0.358629	0.40341	
0.0153159	0.363557	0	
0.0401436	0.291204	0	
0.114055	0.374109	0	
0.0540882	0.337091	0.15152	
-0.0200202	-0.20323	0.140535	
-0.147445	-0.179827	0.128956	
-0.0925337	-0.196451	0	
-0.0814318	-0.287732	0.10776	
0.14072	-0.0839746	0	
0.210156	-0.0147965	0	
0.153084	-0.0880453	0.135895	
0.257685	-0.0506834	0.101558	
-0.201798	0.0517729	0.246381	
-0.10547	0.0480539	0.280485	
-0.209296	-0.0687964	0.252985	
-0.135945	-0.0117594	0.206744	
0.278817	-0.00472784	0.5	
0.324205	0.0779192	0.5	
0.368263	0.0160059	0.5	
0.240261	0.0350229	0.402836	
0.3168	0.386831	0.395903	
0.228991	0.444481	0.408099	
0.196796	0.354228	0.5	
0.266375	0.397206	0.5	
0.409478	-0.032947	0	
0.394936	-0.119803	0	
0.495208	-0.0690617	0.0692099	
0.400931	-0.00647911	0.10587	
0.385896	-0.317937	0.065638	
0.436811	-0.243302	0.0936268	
0.314857	-0.257449	0	
0.294811	-0.207935	0.135593	
0	-0.5	0.3	
-0.0131258	-0.386662	0.266725	
0.082983	-0.493066	0.348347	
0.0955273	-0.385908	0.250582	
0.164797	-0.177585	0	
0.0943468	-0.245334	0	
0.201164	-0.273578	0	
0.105136	-0.172994	0.0956717	
0.490316	-0.0979281	0.24092	
0.370375	-0.0671022	0.257475	
0.360278	-0.0912969	0.138185	
0.368159	-0.173753	0.197234	
-0.425264	-0.131997	0.5	
-0.387519	-0.208294	0.5	
-0.47591	-0.153328	0.40763	
-0.340496	-0.224073	0.407589	
0.196796	0.354228	0.5	
0.234372	0.286063	0.5	
0.3168	0.386831	0.395903	
0.266375	0.397206	0.5	
-0.0927404	0.290183	0.18898	
0.0540882	0.337091	0.15152	
0.00240227	0.224422	0.221344	
-0.0255811	0.276919	0.0997551	
-0.337562	0.0547633	0	
-0.257956	0.116321	0	
-0.328307	0.16356	0	
-0.24789	0.08719	0.114987	
-0.175968	-0.135992	0.338029	
-0.179346	-0.240708	0.39897	
-0.0739341	-0.184055	0.34975	
-0.112364	-0.0877996	0.406457	
0.257374	-0.098487	0.223367	
0.20832	-0.16636	0.0943059	
0.294811	-0.207935	0.135593	
0.214683	-0.189052	0.238302	
0.238057	-0.243638	0.5	
0.324956	-0.262938	0.5	
0.267645	-0.326424	0.5	
0.307193	-0.244124	0.374573	
0.478516	-0.14499	0.0762896	
0.495208	-0.0690617	0.0692099	
0.394936	-0.119803	0	
0.360278	-0.0912969	0.138185	
-0.0690274	-0.312061	0.5	
-0.0324158	-0.400449	0.5	
-0.0835823	-0.340682	0.35067	
0.0372725	-0.390151	0.392733	
-0.152694	-0.476114	0.0975404	
-0.238488	-0.439458	0.0756919	
-0.217356	-0.450285	0.144698	
-0.183123	-0.325269	0.123125	
-0.262519	-0.0832944	0.5	
-0.239764	-0.151909	0.5	
-0.350907	-0.119906	0.5	
-0.358772	-0.11614	0.36635	
0.153084	-0.0880453	0.135895	
0.257685	-0.0506834	0.101558	
0.257374	-0.098487	0.223367	
0.20832	-0.16636	0.0943059	
-0.385896	0.317937	0.065638	
-0.436811	0.243302	0.0936268	
-0.389036	0.207425	0	
-0.318983	0.261743	0	
-0.493315	-0.0814864	0.152319	
-0.349306	-0.102086	0.237815	
-0.468495	-0.174678	0.182891	
-0.374595	-0.0873247	0.117455	
0.0401436	0.291204	0	
0.114055	0.374109	0	
0.0540882	0.337091	0.15152	
0.0776161	0.251925	0.0921435	
0.416747	-0.276265	0.362548	
0.429476	-0.256028	0.291579	
0.373696	-0.332191	0.334057	
0.307193	-0.244124	0.374573	
0.377032	-0.3284	0.243217	
0.428104	-0.258315	0.196896	
0.38078	-0.324048	0.150149	
0.307021	-0.223333	0.261668	
-0.337562	0.0547633	0	
-0.24789	0.08719	0.114987	
-0.328307	0.16356	0	
-0.391093	0.0790791	0.0957818	
0.154755	-0.229359	0.16737	
0.23319	-0.305698	0.109456	
0.12931	-0.356487	0.143012	
0.0667279	-0.268271	0.107506	
0.17182	0.113313	0.371264	
0.0390655	0.0525248	0.401715	
0.0955515	0.0190038	0.323994	
0.14023	0.0298174	0.409574	
0.439467	0.0432837	0.5	
0.5	0	0.4	
0.428196	-0.0462647	0.5	
0.389379	-0.0521535	0.3951	
0.00183684	-0.222331	0	
-0.0200202	-0.20323	0.140535	
-0.0925337	-0.196451	0	
-0.0814318	-0.287732	0.10776	
0.338823	-0.0848934	0.5	
0.389379	-0.0521535	0.3951	
0.327062	-0.133702	0.350244	
0.29269	-0.0648902	0.412739	
-0.0927404	0.290183	0.18898	
-0.0714313	0.379857	0.110067	
0.0540882	0.337091	0.15152	
-0.0255811	0.276919	0.0997551	
-0.0728851	0.200383	0.343081	
-0.126488	0.187375	0.237913	
-0.159378	0.10044	0.348698	
-0.206936	0.196576	0.295071	
-0.5	0	0.1	
-0.494668	-0.0728232	0.0735406	
-0.401548	-0.0423374	0	
-0.374595	-0.0873247	0.117455	
0.242205	0.0836605	0.5	
0.240261	0.0350229	0.402836	
0.17182	0.113313	0.371264	
0.225245	0.18886	0.408136	
-0.0444464	0.169104	0.125588	
-0.1632	0.180339	0.117277	
-0.0927404	0.290183	0.18898	
-0.13617	0.283588	0.0953011	
-0.294862	0.0237806	0.5	
-0.261609	0.0749827	0.393802	
-0.334634	0.00771017	0.33657	
-0.374071	0.0973353	0.396281	
-0.144862	-0.478555	0.421652	
-0.0810399	-0.493389	0.35285	
-0.171353	-0.469721	0.338334	
-0.0835823	-0.340682	0.35067	
-0.0840299	-0.136867	0.5	
-0.0739341	-0.184055	0.34975	
-0.137519	-0.208294	0.5	
-0.112364	-0.0877996	0.406457	
0.154755	-0.229359	0.16737	
0.20832	-0.16636	0.0943059	
0.153084	-0.0880453	0.135895	
0.214683	-0.189052	0.238302	
0.317163	-0.386533	0.299742	
0.317319	-0.386405	0.201487	
0.247023	-0.434718	0.250558	
0.180335	-0.320871	0.25933	
-0.179346	-0.240708	0.39897	
-0.340496	-0.224073	0.407589	
-0.267316	-0.203168	0.336848	
-0.266966	-0.299163	0.400443	
-0.183123	-0.325269	0.123125	
-0.147445	-0.179827	0.128956	
-0.124401	-0.265319	0.22424	
-0.0814318	-0.287732	0.10776	
0.203223	-0.215179	0.335428	
0.307021	-0.223333	0.261668	
0.327062	-0.133702	0.350244	
0.307193	-0.244124	0.374573	
-0.124401	-0.265319	0.22424	
-0.00141651	-0.344659	0.156164	
-0.106158	-0.374353	0.19291	
-0.0814318	-0.287732	0.10776	
-0.137519	-0.208294	0.5	
-0.0739341	-0.184055	0.34975	
-0.179346	-0.240708	0.39897	
-0.112364	-0.0877996	0.406457	
0.0943468	-0.245334	0	
0.112799	-0.33356	0	
0.201164	-0.273578	0	
0.0667279	-0.268271	0.107506	
0.16873	-0.47067	0.201799	
0.247023	-0.434718	0.250558	
0.2429	-0.437035	0.152631	
0.180335	-0.320871	0.25933	
-0.159378	0.10044	0.348698	
-0.201617	0.192684	0.393966	
-0.301517	0.172887	0.349578	
-0.261609	0.0749827	0.393802	
0.0390655	0.0525248	0.401715	
0.0292443	-0.0551693	0.315985	
-0.0646627	-0.0272093	0.335016	
0.000906282	0.043941	0.311068	
-0.408839	0.131788	0.5	
-0.476132	0.152637	0.402329	
-0.439384	0.238625	0.423358	
-0.374071	0.0973353	0.396281	
-0.493315	-0.0814864	0.152319	
-0.492649	-0.0854243	0.248597	
-0.349306	-0.102086	0.237815	
-0.401703	-0.00567907	0.249917	
-0.0572576	0.362529	0.5	
-0.138443	0.369144	0.39287	
-0.0383625	0.346848	0.349108	
-0.0919101	0.279835	0.40279	
0.317163	-0.386533	0.299742	
0.180335	-0.320871	0.25933	
0.247023	-0.434718	0.250558	
0.251456	-0.316364	0.331038	
0.16873	-0.47067	0.201799	
0.180335	-0.320871	0.25933	
0.2429	-0.437035	0.152631	
0.12931	-0.356487	0.143012	
-0.437078	-0.242822	0.347009	
-0.434698	-0.247057	0.249501	
-0.470668	-0.168734	0.298219	
-0.326617	-0.238576	0.253202	
-0.0927404	0.290183	0.18898	
-0.0444464	0.169104	0.125588	
0.00240227	0.224422	0.221344	
-0.126488	0.187375	0.237913	
0.14072	-0.0839746	0	
0.232997	-0.11062	0	
0.153084	-0.0880453	0.135895	
0.20832	-0.16636	0.0943059	
0.0807477	0.493437	0.154224	
0.0854243	0.492649	0.251403	
0	0.5	0.2	
0.0772326	0.384839	0.269201	
0.218809	0.121581	0.250148	
0.102495	0.11997	0.264802	
0.17182	0.113313	0.371264	
0.222637	0.199452	0.310281	
0.0712814	-0.153152	0	
0.14072	-0.0839746	0	
0.0349199	-0.099137	0.113215	
0.105136	-0.172994	0.0956717	
0.0610825	-0.307257	0.314818	
0.0372725	-0.390151	0.392733	
-0.0835823	-0.340682	0.35067	
-0.0131258	-0.386662	0.266725	
-0.0728851	0.200383	0.343081	
-0.159378	0.10044	0.348698	
-0.201617	0.192684	0.393966	
-0.206936	0.196576	0.295071	
0.385896	-0.317937	0.065638	
0.314857	-0.257449	0	
0.268393	-0.334301	0	
0.23319	-0.305698	0.109456	
-0.174131	-0.119906	0.5	
-0.179346	-0.240708	0.39897	
-0.175968	-0.135992	0.338029	
-0.112364	-0.0877996	0.406457	
-0.00141651	-0.344659	0.156164	
-0.0129443	-0.237884	0.253616	
-0.0131258	-0.386662	0.266725	
0.0675207	-0.289808	0.212123	
0.153328	0.47591	0.0923699	
0.168734	0.470668	0.201781	
0.0807477	0.493437	0.154224	
0.167266	0.351716	0.112308	
-0.0840299	-0.136867	0.5	
-0.00932629	-0.104346	0.393808	
-0.0739341	-0.184055	0.34975	
-0.112364	-0.0877996	0.406457	
-0.350907	-0.119906	0.5	
-0.358772	-0.11614	0.36635	
-0.307929	-0.189485	0.5	
-0.340496	-0.224073	0.407589	
0.0209546	0.0362755	0	
-0.048473	-0.0328568	0	
0.0461078	-0.0584269	0	
-0.0383015	0.0232581	0.102769	
-0.0646627	-0.0272093	0.335016	
-0.0739341	-0.184055	0.34975	
-0.00932629	-0.104346	0.393808	
-0.112364	-0.0877996	0.406457	
-0.0807376	0.493438	0.154216	
-0.0853821	0.492656	0.251348	
-0.16873	0.47067	0.201799	
-0.025976	0.384086	0.232401	
0.0461078	-0.0584269	0	
0.0712814	-0.153152	0	
0.14072	-0.0839746	0	
0.0349199	-0.099137	0.113215	
-0.0324158	-0.223672	0.5	
-0.137519	-0.208294	0.5	
-0.0840299	-0.136867	0.5	
-0.0739341	-0.184055	0.34975	
0.0420567	-0.345657	0.5	
-0.0324158	-0.400449	0.5	
1.21767e-05	-0.288281	0.5	
0.0372725	-0.390151	0.392733	
0.228959	-0.444497	0.408094	
0.174738	-0.468473	0.317184	
0.147585	-0.477722	0.416442	
0.163077	-0.321214	0.379886	
0.0540882	0.337091	0.15152	
0.0875494	0.278905	0.295246	
0.173765	0.338831	0.233339	
0.0772326	0.384839	0.269201	
0.439458	0.238488	0.424308	
0.388274	0.315029	0.420807	
0.415735	0.277785	0.365862	
0.294218	0.260673	0.410718	
-0.425264	-0.131997	0.5	
-0.42782	-0.0498056	0.5	
-0.350907	-0.119906	0.5	
-0.358772	-0.11614	0.36635	
-0.0200202	-0.20323	0.140535	
-0.0129443	-0.237884	0.253616	
-0.00141651	-0.344659	0.156164	
0.0675207	-0.289808	0.212123	
-0.238308	0.160613	0.208202	
-0.134825	0.0680349	0.146947	
-0.201798	0.0517729	0.246381	
-0.24789	0.08719	0.114987	
0.17182	0.113313	0.371264	
0.225245	0.18886	0.408136	
0.308034	0.17727	0.353981	
0.222637	0.199452	0.310281	
0.399086	0.112543	0.5	
0.388496	0.195371	0.5	
0.476114	0.152694	0.40246	
0.362397	0.0936058	0.39874	
-0.0232782	-0.127584	0	
0.0461078	-0.0584269	0	
-0.048473	-0.0328568	0	
0.0349199	-0.099137	0.113215	
0.195808	0.041614	0.135744	
0.257685	-0.0506834	0.101558	
0.210156	-0.0147965	0	
0.278081	0.0866882	0.0962345	
0.385896	-0.317937	0.065638	
0.268393	-0.334301	0	
0.317131	-0.386559	0.0881616	
0.23319	-0.305698	0.109456	
0.284773	-0.165822	0.5	
0.307193	-0.244124	0.374573	
0.238057	-0.243638	0.5	
0.24114	-0.149085	0.404027	
-0.315029	-0.388274	0.0791933	
-0.183123	-0.325269	0.123125	
-0.263582	-0.319413	0	
-0.28242	-0.274225	0.0937223	
-0.082983	0.493066	0.348347	
-0.174738	0.468473	0.317184	
-0.13916	0.369653	0.26307	
-0.138443	0.369144	0.39287	
0.205712	-0.0609706	0.365394	
0.0955515	0.0190038	0.323994	
0.0752678	-0.0423877	0.407707	
0.14023	0.0298174	0.409574	
-0.469621	0.171627	0.160116	
-0.460762	0.19416	0.234059	
-0.354878	0.123846	0.244627	
-0.33672	0.17128	0.12732	
-0.5	0	0.4	
-0.493012	0.0833019	0.344789	
-0.495102	0.0698146	0.4276	
-0.374071	0.0973353	0.396281	
-0.436811	0.243302	0.0936268	
-0.478516	0.14499	0.0762896	
-0.389036	0.207425	0	
-0.33672	0.17128	0.12732	
0.314857	-0.257449	0	
0.294811	-0.207935	0.135593	
0.245477	-0.191651	0	
0.23319	-0.305698	0.109456	
0.0804661	0.372171	0.377993	
0.0163452	0.25475	0.392302	
0.0875494	0.278905	0.295246	
0.132706	0.223572	0.389729	
0.0955515	0.0190038	0.323994	
0.0462313	0.146805	0.364101	
0.102495	0.11997	0.264802	
0.000906282	0.043941	0.311068	
-0.350907	-0.119906	0.5	
-0.355295	-0.0330772	0.5	
-0.262519	-0.0832944	0.5	
-0.358772	-0.11614	0.36635	
-0.217356	-0.450285	0.144698	
-0.238488	-0.439458	0.0756919	
-0.277785	-0.415735	0.134138	
-0.183123	-0.325269	0.123125	
0.373696	-0.332191	0.334057	
0.307021	-0.223333	0.261668	
0.377032	-0.3284	0.243217	
0.251456	-0.316364	0.331038	
-0.0200202	-0.20323	0.140535	
-0.124401	-0.265319	0.22424	
-0.147445	-0.179827	0.128956	
-0.0814318	-0.287732	0.10776	
0.232997	-0.11062	0	
0.257685	-0.0506834	0.101558	
0.153084	-0.0880453	0.135895	
0.20832	-0.16636	0.0943059	
0.460762	-0.19416	0.234059	
0.471122	-0.167464	0.300106	
0.370375	-0.0671022	0.257475	
0.368159	-0.173753	0.197234	
0.180335	-0.320871	0.25933	
0.163077	-0.321214	0.379886	
0.0610825	-0.307257	0.314818	
0.0955273	-0.385908	0.250582	
-0.400468	0.0439116	0.5	
-0.294862	0.0237806	0.5	
-0.355295	-0.0330772	0.5	
-0.374071	0.0973353	0.396281	
-0.234034	0.185752	0.5	
-0.201617	0.192684	0.393966	
-0.304559	0.211579	0.5	
-0.276891	0.277667	0.386451	
-0.425264	-0.131997	0.5	
-0.350907	-0.119906	0.5	
-0.387519	-0.208294	0.5	
-0.340496	-0.224073	0.407589	
0.294811	-0.207935	0.135593	
0.257374	-0.098487	0.223367	
0.307021	-0.223333	0.261668	
0.368159	-0.173753	0.197234	
0.294811	-0.207935	0.135593	
0.307021	-0.223333	0.261668	
0.257374	-0.098487	0.223367	
0.214683	-0.189052	0.238302	
-0.171353	-0.469721	0.338334	
-0.144862	-0.478555	0.421652	
-0.0835823	-0.340682	0.35067	
-0.172877	-0.358629	0.40341	
0.315521	0.155675	0.5	
0.294218	0.260673	0.410718	
0.308034	0.17727	0.353981	
0.225245	0.18886	0.408136	
0.218809	0.121581	0.250148	
0.195808	0.041614	0.135744	
0.22873	0.00637727	0.265758	
0.134907	0.0287462	0.229115	
-0.0527152	0.0950891	0.390784	
0.0390655	0.0525248	0.401715	
-0.0646627	-0.0272093	0.335016	
0.000906282	0.043941	0.311068	
0.0875494	0.278905	0.295246	
0.0804661	0.372171	0.377993	
-0.0383625	0.346848	0.349108	
0.0163452	0.25475	0.392302	
0.294811	-0.207935	0.135593	
0.360278	-0.0912969	0.138185	
0.257374	-0.098487	0.223367	
0.368159	-0.173753	0.197234	
0.0153159	0.363557	0	
0.0401436	0.291204	0	
0.0540882	0.337091	0.15152	
-0.0255811	0.276919	0.0997551	
0.493378	-0.0811073	0.146993	
0.469621	-0.171627	0.160116	
0.490316	-0.0979281	0.24092	
0.360278	-0.0912969	0.138185	
-0.0324158	-0.223672	0.5	
1.21767e-05	-0.288281	0.5	
-0.0690274	-0.312061	0.5	
0.0330605	-0.234493	0.398486	
0.0728232	0.494668	0.426459	
0.0895983	0.397206	0.5	
0.0367592	0.441595	0.5	
0.0804661	0.372171	0.377993	
-0.386498	-0.317206	0.200322	
-0.253565	-0.305449	0.208948	
-0.331632	-0.374193	0.165357	
-0.28242	-0.274225	0.0937223	
0.205712	-0.0609706	0.365394	
0.0752678	-0.0423877	0.407707	
0.130037	-0.0606882	0.5	
0.14023	0.0298174	0.409574	
-0.0925337	-0.196451	0	
-0.147445	-0.179827	0.128956	
-0.168688	-0.281701	0	
-0.0814318	-0.287732	0.10776	
-0.176182	0.282501	0.333733	
-0.126488	0.187375	0.237913	
-0.0728851	0.200383	0.343081	
-0.206936	0.196576	0.295071	
0.490316	-0.0979281	0.24092	
0.360278	-0.0912969	0.138185	
0.469621	-0.171627	0.160116	
0.368159	-0.173753	0.197234	
-0.134825	0.0680349	0.146947	
-0.032045	0.00109893	0.228452	
-0.10547	0.0480539	0.280485	
-0.135945	-0.0117594	0.206744	
-0.0927404	0.290183	0.18898	
-0.1632	0.180339	0.117277	
-0.126488	0.187375	0.237913	
-0.182431	0.271961	0.232942	
0.0895983	0.22043	0.5	
0.0897768	0.149878	0.5	
0.0177914	0.213039	0.5	
0.0462313	0.146805	0.364101	
-0.134825	0.0680349	0.146947	
-0.0383015	0.0232581	0.102769	
-0.032045	0.00109893	0.228452	
-0.135945	-0.0117594	0.206744	
0.313791	-0.154465	0	
0.314857	-0.257449	0	
0.380207	-0.19708	0	
0.294811	-0.207935	0.135593	
0.180335	-0.320871	0.25933	
0.12931	-0.356487	0.143012	
0.154755	-0.229359	0.16737	
0.23319	-0.305698	0.109456	
0.00240227	0.224422	0.221344	
-0.126488	0.187375	0.237913	
-0.0728851	0.200383	0.343081	
-0.0867488	0.283314	0.2887	
-0.294862	0.0237806	0.5	
-0.209059	-0.00395244	0.5	
-0.188849	-0.0237464	0.373158	
-0.261609	0.0749827	0.393802	
0.314271	-0.0501881	0	
0.257685	-0.0506834	0.101558	
0.360278	-0.0912969	0.138185	
0.400931	-0.00647911	0.10587	
-0.26105	0.203399	0	
-0.318983	0.261743	0	
-0.328307	0.16356	0	
-0.33672	0.17128	0.12732	
0.187412	-0.0186436	0.5	
0.205712	-0.0609706	0.365394	
0.130037	-0.0606882	0.5	
0.14023	0.0298174	0.409574	
-0.238308	0.160613	0.208202	
-0.1632	0.180339	0.117277	
-0.134825	0.0680349	0.146947	
-0.24789	0.08719	0.114987	
0.0895983	0.22043	0.5	
0.0462313	0.146805	0.364101	
0.0177914	0.213039	0.5	
0.0163452	0.25475	0.392302	
-0.385896	0.317937	0.065638	
-0.38078	0.324048	0.150149	
-0.436811	0.243302	0.0936268	
-0.33672	0.17128	0.12732	
-0.0283081	0.0695318	0.5	
-0.0505573	-0.00469477	0.5	
-0.122627	0.0544512	0.5	
-0.0527152	0.0950891	0.390784	
-0.214341	0.273759	0	
-0.1632	0.180339	0.117277	
-0.18644	0.1823	0	
-0.13617	0.283588	0.0953011	
0.337634	0.115561	0	
0.373926	0.198925	0	
0.327512	0.168835	0.13044	
0.382697	0.0900146	0.0901371	
-0.186407	-0.169451	0	
-0.278713	-0.14304	0	
-0.261345	-0.230036	0	
-0.275077	-0.119224	0.102748	
-0.176182	0.282501	0.333733	
-0.201617	0.192684	0.393966	
-0.0728851	0.200383	0.343081	
-0.0919101	0.279835	0.40279	
0.0704474	-0.495012	0.0718449	
0.0807376	-0.493438	0.154216	
0.153329	-0.47591	0.0923815	
0.12931	-0.356487	0.143012	
0.0540882	0.337091	0.15152	
0.00240227	0.224422	0.221344	
-0.0255811	0.276919	0.0997551	
0.0776161	0.251925	0.0921435	
-0.176182	0.282501	0.333733	
-0.0728851	0.200383	0.343081	
-0.201617	0.192684	0.393966	
-0.206936	0.196576	0.295071	
0.0955515	0.0190038	0.323994	
0.22873	0.00637727	0.265758	
0.143921	-0.0736091	0.260892	
0.134907	0.0287462	0.229115	
0.374193	0.331632	0.334643	
0.376757	0.328716	0.246468	
0.4284	0.257824	0.295024	
0.315434	0.222572	0.240138	
-0.0728851	0.200383	0.343081	
-0.126488	0.187375	0.237913	
-0.176182	0.282501	0.333733	
-0.0867488	0.283314	0.2887	
0.22095	0.291034	0.346604	
0.0875494	0.278905	0.295246	
0.156948	0.213263	0.238247	
0.222637	0.199452	0.310281	
0.261819	0.319027	0	
0.202324	0.378521	0	
0.189613	0.313662	0	
0.167266	0.351716	0.112308	
0.180973	-0.312061	0.5	
0.213029	-0.381729	0.5	
0.144361	-0.400449	0.5	
0.163077	-0.321214	0.379886	
-0.253565	-0.305449	0.208948	
-0.326617	-0.238576	0.253202	
-0.203684	-0.312652	0.313888	
-0.20429	-0.202208	0.252162	
-0.469621	0.171627	0.160116	
-0.428104	0.258315	0.196896	
-0.460762	0.19416	0.234059	
-0.33672	0.17128	0.12732	
0.174678	0.468495	0.317109	
0.247057	0.434698	0.250499	
0.25658	0.429146	0.33124	
0.173765	0.338831	0.233339	
-0.0383625	0.346848	0.349108	
0.0804661	0.372171	0.377993	
0.0875494	0.278905	0.295246	
0.0772326	0.384839	0.269201	
-0.267316	-0.203168	0.336848	
-0.203684	-0.312652	0.313888	
-0.326617	-0.238576	0.253202	
-0.20429	-0.202208	0.252162	
0.385896	-0.317937	0.065638	
0.436811	-0.243302	0.0936268	
0.380207	-0.19708	0	
0.314857	-0.257449	0	
-0.2429	0.437035	0.152631	
-0.317131	0.386559	0.0881616	
-0.235698	0.440961	0.0686036	
-0.228343	0.287598	0.142133	
0.394936	-0.119803	0	
0.314271	-0.0501881	0	
0.313791	-0.154465	0	
0.360278	-0.0912969	0.138185	
-0.471122	0.167464	0.300106	
-0.460762	0.19416	0.234059	
-0.429476	0.256028	0.291579	
-0.354878	0.123846	0.244627	
0.3168	0.386831	0.395903	
0.234372	0.286063	0.5	
0.302987	0.308818	0.5	
0.266375	0.397206	0.5	
0.205712	-0.0609706	0.365394	
0.240261	0.0350229	0.402836	
0.187412	-0.0186436	0.5	
0.29269	-0.0648902	0.412739	
-0.404541	0.126945	0	
-0.33672	0.17128	0.12732	
-0.478516	0.14499	0.0762896	
-0.391093	0.0790791	0.0957818	
-0.490316	0.0979281	0.24092	
-0.5	0	0.2	
-0.493378	0.0811073	0.146993	
-0.401703	-0.00567907	0.249917	
0.327062	-0.133702	0.350244	
0.370375	-0.0671022	0.257475	
0.322451	0.0144002	0.334794	
0.389379	-0.0521535	0.3951	
-0.239764	-0.151909	0.5	
-0.175968	-0.135992	0.338029	
-0.174131	-0.119906	0.5	
-0.179346	-0.240708	0.39897	
0.3168	0.386831	0.395903	
0.228991	0.444481	0.408099	
0.25658	0.429146	0.33124	
0.22095	0.291034	0.346604	
-0.188849	-0.0237464	0.373158	
-0.175968	-0.135992	0.338029	
-0.0646627	-0.0272093	0.335016	
-0.112364	-0.0877996	0.406457	
0.0372725	-0.390151	0.392733	
-0.0131258	-0.386662	0.266725	
0.0610825	-0.307257	0.314818	
0.0955273	-0.385908	0.250582	
-0.134825	0.0680349	0.146947	
-0.201798	0.0517729	0.246381	
-0.220281	-0.031921	0.125401	
-0.135945	-0.0117594	0.206744	
0.0875494	0.278905	0.295246	
0.173765	0.338831	0.233339	
0.22095	0.291034	0.346604	
0.156948	0.213263	0.238247	
-0.169426	0.21818	0.5	
-0.191056	0.29295	0.5	
-0.11205	0.260225	0.5	
-0.0919101	0.279835	0.40279	
0.203223	-0.215179	0.335428	
0.307193	-0.244124	0.374573	
0.327062	-0.133702	0.350244	
0.24114	-0.149085	0.404027	
0.470916	0.168043	0.300126	
0.493012	0.0833019	0.344789	
0.476114	0.152694	0.40246	
0.362397	0.0936058	0.39874	
-0.0690566	0.495208	0.430964	
-0.145646	0.399141	0.5	
-0.147585	0.477722	0.416442	
-0.138443	0.369144	0.39287	
-0.317163	0.386533	0.299742	
-0.256554	0.429162	0.331268	
-0.31678	0.386847	0.395869	
-0.276891	0.277667	0.386451	
0.112358	-0.334816	0.5	
0.0747819	-0.266651	0.5	
0.144361	-0.223672	0.5	
0.163077	-0.321214	0.379886	
0.228959	-0.444497	0.408094	
0.256554	-0.429162	0.331268	
0.174738	-0.468473	0.317184	
0.163077	-0.321214	0.379886	
-0.188849	-0.0237464	0.373158	
-0.201798	0.0517729	0.246381	
-0.159378	0.10044	0.348698	
-0.10547	0.0480539	0.280485	
-0.00425413	0.131001	0	
-0.0383015	0.0232581	0.102769	
0.0209546	0.0362755	0	
0.04259	0.0957748	0.0972509	
-0.0853821	0.492656	0.251348	
-0.16873	0.47067	0.201799	
-0.025976	0.384086	0.232401	
-0.13916	0.369653	0.26307	
0.324956	-0.262938	0.5	
0.439384	-0.238625	0.423358	
0.388345	-0.314941	0.420199	
0.307193	-0.244124	0.374573	
0.0610825	-0.307257	0.314818	
-0.0131258	-0.386662	0.266725	
-0.0129443	-0.237884	0.253616	
0.0675207	-0.289808	0.212123	
-0.258165	-0.428195	0.298245	
-0.171353	-0.469721	0.338334	
-0.194667	-0.460548	0.26567	
-0.203684	-0.312652	0.313888	
-0.0734441	0.0616893	0	
0.0209546	0.0362755	0	
-0.00425413	0.131001	0	
-0.0383015	0.0232581	0.102769	
-0.134825	0.0680349	0.146947	
-0.0779543	-0.0725374	0.153012	
-0.0383015	0.0232581	0.102769	
-0.135945	-0.0117594	0.206744	
0.337634	0.115561	0	
0.414183	0.131147	0	
0.373926	0.198925	0	
0.382697	0.0900146	0.0901371	
-0.354878	0.123846	0.244627	
-0.33672	0.17128	0.12732	
-0.333403	0.0238809	0.168384	
-0.391093	0.0790791	0.0957818	
-0.0704474	0.495012	0.0718449	
-0.0372406	0.417791	0	
0	0.5	0.1	
-0.0714313	0.379857	0.110067	
-0.270646	0.274141	0.5	
-0.191056	0.29295	0.5	
-0.201617	0.192684	0.393966	
-0.276891	0.277667	0.386451	
0.0529867	0.308818	0.5	
-0.0206459	0.274141	0.5	
0.0172234	0.375408	0.5	
0.0163452	0.25475	0.392302	
0.22095	0.291034	0.346604	
0.132706	0.223572	0.389729	
0.0875494	0.278905	0.295246	
0.222637	0.199452	0.310281	
0.0654282	-0.0931162	0.5	
0.0943746	-0.140978	0.374495	
0.0559726	-0.187061	0.5	
-0.00932629	-0.104346	0.393808	
0.495208	-0.0690617	0.0692099	
0.360278	-0.0912969	0.138185	
0.493378	-0.0811073	0.146993	
0.400931	-0.00647911	0.10587	
-0.238308	0.160613	0.208202	
-0.1632	0.180339	0.117277	
-0.228343	0.287598	0.142133	
-0.182431	0.271961	0.232942	
-0.238308	0.160613	0.208202	
-0.126488	0.187375	0.237913	
-0.1632	0.180339	0.117277	
-0.182431	0.271961	0.232942	
-0.0324158	-0.400449	0.5	
0	-0.5	0.4	
-0.0684459	-0.495293	0.431403	
0.0372725	-0.390151	0.392733	
0.0895983	0.22043	0.5	
0.0462313	0.146805	0.364101	
0.0163452	0.25475	0.392302	
0.132706	0.223572	0.389729	
-0.444481	-0.228991	0.0919014	
-0.477948	-0.146853	0.0840084	
-0.468495	-0.174678	0.182891	
-0.374595	-0.0873247	0.117455	
-0.278713	-0.14304	0	
-0.344127	-0.112227	0	
-0.356684	-0.19351	0	
-0.275077	-0.119224	0.102748	
-0.468495	-0.174678	0.182891	
-0.493315	-0.0814864	0.152319	
-0.492649	-0.0854243	0.248597	
-0.349306	-0.102086	0.237815	
0.373926	0.198925	0	
0.300884	0.198715	0	
0.337634	0.115561	0	
0.327512	0.168835	0.13044	
0.180335	-0.320871	0.25933	
0.12931	-0.356487	0.143012	
0.16873	-0.47067	0.201799	
0.0955273	-0.385908	0.250582	
-0.0983601	0.156434	0	
-0.18644	0.1823	0	
-0.16685	0.0883447	0	
-0.1632	0.180339	0.117277	
-0.440961	-0.235698	0.431431	
-0.47591	-0.153328	0.40763	
-0.387519	-0.208294	0.5	
-0.340496	-0.224073	0.407589	
0.132706	0.223572	0.389729	
0.156948	0.213263	0.238247	
0.0875494	0.278905	0.295246	
0.222637	0.199452	0.310281	
-0.0690566	0.495208	0.430964	
-0.0430682	0.437279	0.5	
-0.145646	0.399141	0.5	
-0.138443	0.369144	0.39287	
0.337634	0.115561	0	
0.327512	0.168835	0.13044	
0.300884	0.198715	0	
0.278081	0.0866882	0.0962345	
0.3168	0.386831	0.395903	
0.22095	0.291034	0.346604	
0.374193	0.331632	0.334643	
0.294218	0.260673	0.410718	
0.0654282	-0.0931162	0.5	
0.0559726	-0.187061	0.5	
-0.00743541	-0.147874	0.5	
-0.00932629	-0.104346	0.393808	
-0.174738	0.468473	0.317184	
-0.256554	0.429162	0.331268	
-0.13916	0.369653	0.26307	
-0.138443	0.369144	0.39287	
0.0875494	0.278905	0.295246	
0.0163452	0.25475	0.392302	
0.0462313	0.146805	0.364101	
0.132706	0.223572	0.389729	
0.0897768	0.149878	0.5	
0.0462313	0.146805	0.364101	
0.0895983	0.22043	0.5	
0.132706	0.223572	0.389729	
0.247023	-0.434718	0.250558	
0.174738	-0.468473	0.317184	
0.256554	-0.429162	0.331268	
0.180335	-0.320871	0.25933	
0.380873	0.323938	0.152261	
0.436762	0.243391	0.0969381	
0.428195	0.258165	0.201755	
0.327512	0.168835	0.13044	
-0.437078	-0.242822	0.347009	
-0.386792	-0.316847	0.301384	
-0.326617	-0.238576	0.253202	
-0.340496	-0.224073	0.407589	
-0.183123	-0.325269	0.123125	
-0.253565	-0.305449	0.208948	
-0.269341	-0.201154	0.169023	
-0.28242	-0.274225	0.0937223	
0.234372	0.286063	0.5	
0.22095	0.291034	0.346604	
0.294218	0.260673	0.410718	
0.225245	0.18886	0.408136	
0.439384	-0.238625	0.423358	
0.324956	-0.262938	0.5	
0.366699	-0.192277	0.5	
0.307193	-0.244124	0.374573	
-0.234034	0.185752	0.5	
-0.201617	0.192684	0.393966	
-0.221565	0.0908555	0.5	
-0.261609	0.0749827	0.393802	
-0.450312	0.217299	0.354112	
-0.476132	0.152637	0.402329	
-0.471122	0.167464	0.300106	
-0.374071	0.0973353	0.396281	
-0.386792	-0.316847	0.301384	
-0.340496	-0.224073	0.407589	
-0.386476	-0.317233	0.409527	
-0.266966	-0.299163	0.400443	
-0.328307	0.16356	0	
-0.318983	0.261743	0	
-0.389036	0.207425	0	
-0.33672	0.17128	0.12732	
0.436811	-0.243302	0.0936268	
0.294811	-0.207935	0.135593	
0.428104	-0.258315	0.196896	
0.368159	-0.173753	0.197234	
0.360278	-0.0912969	0.138185	
0.257685	-0.0506834	0.101558	
0.334086	0.0370714	0.16525	
0.400931	-0.00647911	0.10587	
-0.434698	-0.247057	0.249501	
-0.468495	-0.174678	0.182891	
-0.470668	-0.168734	0.298219	
-0.349306	-0.102086	0.237815	
0.256554	-0.429162	0.331268	
0.163077	-0.321214	0.379886	
0.228959	-0.444497	0.408094	
0.251456	-0.316364	0.331038	
-0.315029	-0.388274	0.0791933	
-0.331632	-0.374193	0.165357	
-0.277785	-0.415735	0.134138	
-0.28242	-0.274225	0.0937223	
-0.0444464	0.169104	0.125588	
-0.0927404	0.290183	0.18898	
-0.0255811	0.276919	0.0997551	
-0.13617	0.283588	0.0953011	
-0.203684	-0.312652	0.313888	
-0.266966	-0.299163	0.400443	
-0.243391	-0.436762	0.403062	
-0.172877	-0.358629	0.40341	
0.14072	-0.0839746	0	
0.232997	-0.11062	0	
0.210156	-0.0147965	0	
0.257685	-0.0506834	0.101558	
0.0367592	0.441595	0.5	
0.0895983	0.397206	0.5	
0.0172234	0.375408	0.5	
0.0804661	0.372171	0.377993	
0.112799	-0.33356	0	
0.194604	-0.371188	0	
0.201164	-0.273578	0	
0.23319	-0.305698	0.109456	
-0.171353	-0.469721	0.338334	
-0.203684	-0.312652	0.313888	
-0.258165	-0.428195	0.298245	
-0.172877	-0.358629	0.40341	
-0.0341142	0.113867	0.250814	
-0.0527152	0.0950891	0.390784	
-0.10547	0.0480539	0.280485	
0.000906282	0.043941	0.311068	
0.247868	0.146306	0	
0.337634	0.115561	0	
0.300884	0.198715	0	
0.278081	0.0866882	0.0962345	
0.0853821	-0.492656	0.251348	
0	-0.5	0.3	
0.082983	-0.493066	0.348347	
0.0955273	-0.385908	0.250582	
0.184962	0.0799289	0	
0.201932	0.155478	0.107683	
0.195808	0.041614	0.135744	
0.278081	0.0866882	0.0962345	
-0.147585	0.477722	0.416442	
-0.082983	0.493066	0.348347	
-0.0690566	0.495208	0.430964	
-0.138443	0.369144	0.39287	
0.429476	-0.256028	0.291579	
0.307021	-0.223333	0.261668	
0.373696	-0.332191	0.334057	
0.307193	-0.244124	0.374573	
0.205712	-0.0609706	0.365394	
0.187412	-0.0186436	0.5	
0.240261	0.0350229	0.402836	
0.14023	0.0298174	0.409574	
0.0747819	-0.266651	0.5	
0.0420567	-0.345657	0.5	
1.21767e-05	-0.288281	0.5	
0.0330605	-0.234493	0.398486	
-0.0977967	-0.490343	0.258774	
-0.0131258	-0.386662	0.266725	
0	-0.5	0.2	
-0.106158	-0.374353	0.19291	
-0.373696	0.332191	0.334057	
-0.429476	0.256028	0.291579	
-0.377032	0.3284	0.243217	
-0.277293	0.260919	0.267415	
0.439467	0.0432837	0.5	
0.428196	-0.0462647	0.5	
0.368263	0.0160059	0.5	
0.389379	-0.0521535	0.3951	
-0.214341	0.273759	0	
-0.138674	0.323797	0	
-0.201912	0.369986	0	
-0.13617	0.283588	0.0953011	
0.373696	-0.332191	0.334057	
0.307193	-0.244124	0.374573	
0.307021	-0.223333	0.261668	
0.251456	-0.316364	0.331038	
-0.220281	-0.031921	0.125401	
-0.201798	0.0517729	0.246381	
-0.209296	-0.0687964	0.252985	
-0.135945	-0.0117594	0.206744	
0.144361	-0.223672	0.5	
0.0559726	-0.187061	0.5	
0.0943746	-0.140978	0.374495	
0.0330605	-0.234493	0.398486	
-0.032045	0.00109893	0.228452	
-0.0383015	0.0232581	0.102769	
-0.0779543	-0.0725374	0.153012	
-0.135945	-0.0117594	0.206744	
0.0559726	-0.187061	0.5	
0.0943746	-0.140978	0.374495	
0.0330605	-0.234493	0.398486	
-0.00932629	-0.104346	0.393808	
-0.0324158	-0.400449	0.5	
-0.128733	-0.391758	0.5	
-0.0690274	-0.312061	0.5	
-0.0835823	-0.340682	0.35067	
0.201164	-0.273578	0	
0.23319	-0.305698	0.109456	
0.245477	-0.191651	0	
0.20832	-0.16636	0.0943059	
0.174738	-0.468473	0.317184	
0.180335	-0.320871	0.25933	
0.247023	-0.434718	0.250558	
0.0955273	-0.385908	0.250582	
0.187412	-0.0186436	0.5	
0.242205	-0.0931162	0.5	
0.130037	-0.0606882	0.5	
0.205712	-0.0609706	0.365394	
0.14072	-0.0839746	0	
0.20832	-0.16636	0.0943059	
0.153084	-0.0880453	0.135895	
0.105136	-0.172994	0.0956717	
0.374193	0.331632	0.334643	
0.3168	0.386831	0.395903	
0.317206	0.386498	0.299678	
0.22095	0.291034	0.346604	
-0.128733	-0.391758	0.5	
-0.0690274	-0.312061	0.5	
-0.0835823	-0.340682	0.35067	
-0.172877	-0.358629	0.40341	
0.0401436	0.291204	0	
0.0540882	0.337091	0.15152	
-0.0255811	0.276919	0.0997551	
0.0776161	0.251925	0.0921435	
0.478516	-0.14499	0.0762896	
0.493378	-0.0811073	0.146993	
0.495208	-0.0690617	0.0692099	
0.360278	-0.0912969	0.138185	
-0.238308	0.160613	0.208202	
-0.228343	0.287598	0.142133	
-0.277293	0.260919	0.267415	
-0.182431	0.271961	0.232942	
-0.0833019	-0.493012	0.155211	
-0.0977967	-0.490343	0.258774	
0	-0.5	0.2	
-0.106158	-0.374353	0.19291	
0.218809	0.121581	0.250148	
0.156948	0.213263	0.238247	
0.102495	0.11997	0.264802	
0.222637	0.199452	0.310281	
0.373696	-0.332191	0.334057	
0.377032	-0.3284	0.243217	
0.317163	-0.386533	0.299742	
0.251456	-0.316364	0.331038	
0.242205	-0.0931162	0.5	
0.153817	-0.129728	0.5	
0.205712	-0.0609706	0.365394	
0.24114	-0.149085	0.404027	
0.334086	0.0370714	0.16525	
0.257685	-0.0506834	0.101558	
0.195808	0.041614	0.135744	
0.278081	0.0866882	0.0962345	
0.0559726	-0.187061	0.5	
0.0330605	-0.234493	0.398486	
-0.00743541	-0.147874	0.5	
-0.00932629	-0.104346	0.393808	
-0.0646627	-0.0272093	0.335016	
-0.10547	0.0480539	0.280485	
-0.032045	0.00109893	0.228452	
-0.135945	-0.0117594	0.206744	
-0.328716	-0.376757	0.253532	
-0.203684	-0.312652	0.313888	
-0.258165	-0.428195	0.298245	
-0.253565	-0.305449	0.208948	
0.194604	-0.371188	0	
0.235698	-0.440961	0.0686036	
0.268393	-0.334301	0	
0.23319	-0.305698	0.109456	
0.385896	-0.317937	0.065638	
0.38078	-0.324048	0.150149	
0.436811	-0.243302	0.0936268	
0.294811	-0.207935	0.135593	
0.0654282	-0.0931162	0.5	
0.0943746	-0.140978	0.374495	
-0.00932629	-0.104346	0.393808	
0.0752678	-0.0423877	0.407707	
0.313791	-0.154465	0	
0.245477	-0.191651	0	
0.294811	-0.207935	0.135593	
0.20832	-0.16636	0.0943059	
0.144361	-0.400449	0.5	
0.147585	-0.477722	0.416442	
0.0559726	-0.437061	0.5	
0.0372725	-0.390151	0.392733	
-0.262519	-0.333294	0.5	
-0.317197	-0.386505	0.431175	
-0.266966	-0.299163	0.400443	
-0.172877	-0.358629	0.40341	
-0.349306	-0.102086	0.237815	
-0.358772	-0.11614	0.36635	
-0.334634	0.00771017	0.33657	
-0.401703	-0.00567907	0.249917	
-0.0690274	-0.312061	0.5	
-0.174131	-0.296683	0.5	
-0.179346	-0.240708	0.39897	
-0.172877	-0.358629	0.40341	
0.205712	-0.0609706	0.365394	
0.322451	0.0144002	0.334794	
0.22873	0.00637727	0.265758	
0.240261	0.0350229	0.402836	
0.276476	0.0535537	0	
0.210156	-0.0147965	0	
0.257685	-0.0506834	0.101558	
0.278081	0.0866882	0.0962345	
-0.0430682	0.437279	0.5	
-0.0572576	0.362529	0.5	
-0.145646	0.399141	0.5	
-0.138443	0.369144	0.39287	
0.277785	0.415735	0	
0.261819	0.319027	0	
0.235698	0.440961	0.068569	
0.202324	0.378521	0	
-0.0728851	0.200383	0.343081	
-0.0919101	0.279835	0.40279	
0.0163452	0.25475	0.392302	
-0.0867488	0.283314	0.2887	
0.0529867	0.308818	0.5	
0.0895983	0.22043	0.5	
0.0163452	0.25475	0.392302	
0.132706	0.223572	0.389729	
-0.5	0	0.1	
-0.426463	0.0441363	0	
-0.495208	0.0690617	0.0692099	
-0.391093	0.0790791	0.0957818	
-0.350907	-0.119906	0.5	
-0.42782	-0.0498056	0.5	
-0.355295	-0.0330772	0.5	
-0.358772	-0.11614	0.36635	
-0.0734441	0.0616893	0	
-0.142648	-0.00714059	0	
-0.048473	-0.0328568	0	
-0.0383015	0.0232581	0.102769	
-0.0283081	0.0695318	0.5	
-0.0527152	0.0950891	0.390784	
0.00344957	0.138123	0.5	
0.0390655	0.0525248	0.401715	
-0.114467	-0.386332	0	
-0.168688	-0.281701	0	
-0.183123	-0.325269	0.123125	
-0.0814318	-0.287732	0.10776	
-0.404541	0.126945	0	
-0.328307	0.16356	0	
-0.389036	0.207425	0	
-0.33672	0.17128	0.12732	
-0.493315	-0.0814864	0.152319	
-0.494668	-0.0728232	0.0735406	
-0.5	0	0.1	
-0.374595	-0.0873247	0.117455	
0.238057	-0.243638	0.5	
0.284773	-0.165822	0.5	
0.324956	-0.262938	0.5	
0.307193	-0.244124	0.374573	
0.346509	0.0237889	0	
0.276476	0.0535537	0	
0.314271	-0.0501881	0	
0.257685	-0.0506834	0.101558	
-0.333403	0.0238809	0.168384	
-0.374595	-0.0873247	0.117455	
-0.349306	-0.102086	0.237815	
-0.401703	-0.00567907	0.249917	
-0.373696	0.332191	0.334057	
-0.277293	0.260919	0.267415	
-0.317163	0.386533	0.299742	
-0.276891	0.277667	0.386451	
0.144361	-0.223672	0.5	
0.180973	-0.312061	0.5	
0.112358	-0.334816	0.5	
0.163077	-0.321214	0.379886	
0.180335	-0.320871	0.25933	
0.109758	-0.214467	0.270707	
0.203223	-0.215179	0.335428	
0.214683	-0.189052	0.238302	
0.0955515	0.0190038	0.323994	
0.0390655	0.0525248	0.401715	
0.0462313	0.146805	0.364101	
0.000906282	0.043941	0.311068	
0.315521	0.155675	0.5	
0.266375	0.22043	0.5	
0.294218	0.260673	0.410718	
0.225245	0.18886	0.408136	
-0.335163	0.274889	0.5	
-0.388345	0.314941	0.420199	
-0.295892	0.334394	0.5	
-0.276891	0.277667	0.386451	
-0.2429	0.437035	0.152631	
-0.16873	0.47067	0.201799	
-0.247023	0.434718	0.250558	
-0.13916	0.369653	0.26307	
-0.142648	-0.00714059	0	
-0.237047	0.0201392	0	
-0.211369	-0.0761151	0	
-0.220281	-0.031921	0.125401	
0.247023	-0.434718	0.250558	
0.180335	-0.320871	0.25933	
0.16873	-0.47067	0.201799	
0.0955273	-0.385908	0.250582	
-0.174131	-0.119906	0.5	
-0.137519	-0.208294	0.5	
-0.179346	-0.240708	0.39897	
-0.112364	-0.0877996	0.406457	
0.439384	-0.238625	0.423358	
0.416747	-0.276265	0.362548	
0.388345	-0.314941	0.420199	
0.307193	-0.244124	0.374573	
-0.191056	0.29295	0.5	
-0.138443	0.369144	0.39287	
-0.122891	0.330526	0.5	
-0.0919101	0.279835	0.40279	
0.460548	0.194667	0.23433	
0.469721	0.171353	0.161666	
0.490343	0.0977967	0.241226	
0.364988	0.109735	0.263774	
0.436811	-0.243302	0.0936268	
0.38078	-0.324048	0.150149	
0.428104	-0.258315	0.196896	
0.294811	-0.207935	0.135593	
0.235698	-0.440961	0.0686036	
0.12931	-0.356487	0.143012	
0.2429	-0.437035	0.152631	
0.23319	-0.305698	0.109456	
-0.444481	-0.228991	0.0919014	
-0.331361	-0.272953	0	
-0.415735	-0.277785	0	
-0.356684	-0.19351	0	
0.0903521	0.10545	0	
0.0209546	0.0362755	0	
0.115537	0.0107471	0	
0.04259	0.0957748	0.0972509	
-0.316581	0.126747	0.5	
-0.301517	0.172887	0.349578	
-0.261609	0.0749827	0.393802	
-0.374071	0.0973353	0.396281	
0.0654282	-0.0931162	0.5	
0.130037	-0.0606882	0.5	
0.0943746	-0.140978	0.374495	
0.0752678	-0.0423877	0.407707	
0.257374	-0.098487	0.223367	
0.360278	-0.0912969	0.138185	
0.370375	-0.0671022	0.257475	
0.368159	-0.173753	0.197234	
-0.0295403	0.225144	0	
-0.0983601	0.156434	0	
-0.00425413	0.131001	0	
-0.0444464	0.169104	0.125588	
0.0163452	0.25475	0.392302	
-0.0919101	0.279835	0.40279	
-0.0383625	0.346848	0.349108	
-0.0867488	0.283314	0.2887	
-0.0927404	0.290183	0.18898	
0.00240227	0.224422	0.221344	
-0.0444464	0.169104	0.125588	
-0.0255811	0.276919	0.0997551	
-0.323938	-0.380873	0.347739	
-0.243391	-0.436762	0.403062	
-0.203684	-0.312652	0.313888	
-0.266966	-0.299163	0.400443	
-0.217356	-0.450285	0.144698	
-0.168043	-0.470916	0.199874	
-0.152694	-0.476114	0.0975404	
-0.106158	-0.374353	0.19291	
-0.0200202	-0.20323	0.140535	
-0.00141651	-0.344659	0.156164	
0.0667279	-0.268271	0.107506	
0.0675207	-0.289808	0.212123	
0.0690566	-0.495208	0.430964	
0.0559726	-0.437061	0.5	
0.147585	-0.477722	0.416442	
0.0372725	-0.390151	0.392733	
-0.0690274	-0.312061	0.5	
1.21767e-05	-0.288281	0.5	
-0.0324158	-0.400449	0.5	
0.0372725	-0.390151	0.392733	
-0.401548	-0.0423374	0	
-0.337562	0.0547633	0	
-0.426463	0.0441363	0	
-0.391093	0.0790791	0.0957818	
0.0404524	-0.41072	0	
0	-0.5	0.1	
0.0704474	-0.495012	0.0718449	
-0.0438792	-0.403194	0.0910547	
0.0728232	0.494668	0.426459	
0	0.5	0.4	
0.0814864	0.493315	0.347681	
0.0804661	0.372171	0.377993	
0.460762	-0.19416	0.234059	
0.370375	-0.0671022	0.257475	
0.490316	-0.0979281	0.24092	
0.368159	-0.173753	0.197234	
-0.0785029	0.119253	0.5	
-0.0572576	0.185752	0.5	
0.00344957	0.138123	0.5	
-0.0527152	0.0950891	0.390784	
0.133074	0.264097	0	
0.167266	0.351716	0.112308	
0.114055	0.374109	0	
0.0776161	0.251925	0.0921435	
-0.307929	-0.189485	0.5	
-0.228923	-0.22221	0.5	
-0.286299	-0.264255	0.5	
-0.340496	-0.224073	0.407589	
0.322451	0.0144002	0.334794	
0.327062	-0.133702	0.350244	
0.389379	-0.0521535	0.3951	
0.29269	-0.0648902	0.412739	
0.399086	0.112543	0.5	
0.315521	0.155675	0.5	
0.388496	0.195371	0.5	
0.362397	0.0936058	0.39874	
-0.33672	0.17128	0.12732	
-0.24789	0.08719	0.114987	
-0.333403	0.0238809	0.168384	
-0.391093	0.0790791	0.0957818	
0.0807477	0.493437	0.154224	
0.168734	0.470668	0.201781	
0.0854243	0.492649	0.251403	
0.0772326	0.384839	0.269201	
0.385896	-0.317937	0.065638	
0.317131	-0.386559	0.0881616	
0.38078	-0.324048	0.150149	
0.23319	-0.305698	0.109456	
-0.0555676	0.325574	0	
0.0153159	0.363557	0	
-0.0714313	0.379857	0.110067	
-0.0255811	0.276919	0.0997551	
0.245477	-0.191651	0	
0.314857	-0.257449	0	
0.313791	-0.154465	0	
0.294811	-0.207935	0.135593	
0.471122	-0.167464	0.300106	
0.490316	-0.0979281	0.24092	
0.460762	-0.19416	0.234059	
0.370375	-0.0671022	0.257475	
0.247023	-0.434718	0.250558	
0.180335	-0.320871	0.25933	
0.256554	-0.429162	0.331268	
0.251456	-0.316364	0.331038	
-0.243391	-0.436762	0.403062	
-0.258165	-0.428195	0.298245	
-0.203684	-0.312652	0.313888	
-0.172877	-0.358629	0.40341	
-0.0200202	-0.20323	0.140535	
0.0667279	-0.268271	0.107506	
-0.00141651	-0.344659	0.156164	
-0.0814318	-0.287732	0.10776	
-0.228923	-0.22221	0.5	
-0.286299	-0.264255	0.5	
-0.340496	-0.224073	0.407589	
-0.266966	-0.299163	0.400443	
-0.18644	0.1823	0	
-0.1632	0.180339	0.117277	
-0.119993	0.246691	0	
-0.13617	0.283588	0.0953011	
-0.0925337	-0.196451	0	
-0.186407	-0.169451	0	
-0.168688	-0.281701	0	
-0.147445	-0.179827	0.128956	
0.0654282	-0.0931162	0.5	
-0.00932629	-0.104346	0.393808	
-0.0293436	-0.0762152	0.5	
0.0752678	-0.0423877	0.407707	
-0.16873	0.47067	0.201799	
-0.153329	0.47591	0.0923815	
-0.0807376	0.493438	0.154216	
-0.0714313	0.379857	0.110067	
-0.0646627	-0.0272093	0.335016	
-0.10547	0.0480539	0.280485	
-0.0527152	0.0950891	0.390784	
0.000906282	0.043941	0.311068	
0.0807376	-0.493438	0.154216	
0	-0.5	0.2	
0.0853821	-0.492656	0.251348	
0.0955273	-0.385908	0.250582	
0.154755	-0.229359	0.16737	
0.109758	-0.214467	0.270707	
0.180335	-0.320871	0.25933	
0.214683	-0.189052	0.238302	
0.154755	-0.229359	0.16737	
0.12931	-0.356487	0.143012	
0.180335	-0.320871	0.25933	
0.0675207	-0.289808	0.212123	
0.399086	0.112543	0.5	
0.495101	0.0698189	0.427621	
0.439467	0.0432837	0.5	
0.362397	0.0936058	0.39874	
0.0853821	-0.492656	0.251348	
-0.0131258	-0.386662	0.266725	
0	-0.5	0.3	
0.0955273	-0.385908	0.250582	
-0.258165	-0.428195	0.298245	
-0.323938	-0.380873	0.347739	
-0.243391	-0.436762	0.403062	
-0.203684	-0.312652	0.313888	
0.242205	-0.0931162	0.5	
0.205712	-0.0609706	0.365394	
0.187412	-0.0186436	0.5	
0.29269	-0.0648902	0.412739	
0.294811	-0.207935	0.135593	
0.20832	-0.16636	0.0943059	
0.154755	-0.229359	0.16737	
0.214683	-0.189052	0.238302	
-0.211369	-0.0761151	0	
-0.220281	-0.031921	0.125401	
-0.302044	-0.0506462	0	
-0.275077	-0.119224	0.102748	
0.439458	0.238488	0.424308	
0.342318	0.251665	0.5	
0.388274	0.315029	0.420807	
0.294218	0.260673	0.410718	
-0.0638367	-0.295761	0	
0.00183684	-0.222331	0	
-0.0925337	-0.196451	0	
-0.0814318	-0.287732	0.10776	
-0.209059	-0.00395244	0.5	
-0.122627	0.0544512	0.5	
-0.120671	-0.0405641	0.5	
-0.188849	-0.0237464	0.373158	
-0.234034	0.362529	0.5	
-0.295892	0.334394	0.5	
-0.31678	0.386847	0.395869	
-0.276891	0.277667	0.386451	
-0.174131	-0.119906	0.5	
-0.188849	-0.0237464	0.373158	
-0.120671	-0.0405641	0.5	
-0.112364	-0.0877996	0.406457	
-0.234034	0.185752	0.5	
-0.304559	0.211579	0.5	
-0.270646	0.274141	0.5	
-0.276891	0.277667	0.386451	
0.314271	-0.0501881	0	
0.232997	-0.11062	0	
0.313791	-0.154465	0	
0.257685	-0.0506834	0.101558	
-0.203684	-0.312652	0.313888	
-0.267316	-0.203168	0.336848	
-0.179346	-0.240708	0.39897	
-0.20429	-0.202208	0.252162	
0.201164	-0.273578	0	
0.314857	-0.257449	0	
0.245477	-0.191651	0	
0.23319	-0.305698	0.109456	
0.153328	0.47591	0.0923699	
0.202324	0.378521	0	
0.235698	0.440961	0.068569	
0.167266	0.351716	0.112308	
-0.114467	-0.386332	0	
-0.0328721	-0.370689	0	
-0.0638367	-0.295761	0	
-0.0438792	-0.403194	0.0910547	
-0.124401	-0.265319	0.22424	
-0.253565	-0.305449	0.208948	
-0.203684	-0.312652	0.313888	
-0.20429	-0.202208	0.252162	
0.0897768	0.149878	0.5	
0.177987	0.183818	0.5	
0.153817	0.120272	0.5	
0.132706	0.223572	0.389729	
0.122026	0.332598	0.5	
0.164071	0.275222	0.5	
0.0895983	0.22043	0.5	
0.132706	0.223572	0.389729	
0.478555	0.144862	0.0783483	
0.373926	0.198925	0	
0.46194	0.191342	0	
0.414183	0.131147	0	
-0.234034	0.185752	0.5	
-0.145646	0.149141	0.5	
-0.221565	0.0908555	0.5	
-0.201617	0.192684	0.393966	
0.0728232	0.494668	0.426459	
0.146853	0.477948	0.415992	
0.0895983	0.397206	0.5	
0.0804661	0.372171	0.377993	
-0.374813	0.199394	0.5	
-0.439384	0.238625	0.423358	
-0.415735	0.277785	0.5	
-0.335163	0.274889	0.5	
-0.328716	-0.376757	0.253532	
-0.258165	-0.428195	0.298245	
-0.257824	-0.4284	0.204976	
-0.253565	-0.305449	0.208948	
0.490316	-0.0979281	0.24092	
0.471122	-0.167464	0.300106	
0.493012	-0.0833019	0.344789	
0.370375	-0.0671022	0.257475	
-0.386831	-0.3168	0.104097	
-0.331361	-0.272953	0	
-0.415735	-0.277785	0	
-0.444481	-0.228991	0.0919014	
0.5	0	0.2	
0.490316	-0.0979281	0.24092	
0.5	0	0.3	
0.370375	-0.0671022	0.257475	
-0.0983601	0.156434	0	
-0.119993	0.246691	0	
-0.18644	0.1823	0	
-0.1632	0.180339	0.117277	
-0.440961	-0.235698	0.431431	
-0.437078	-0.242822	0.347009	
-0.47591	-0.153328	0.40763	
-0.340496	-0.224073	0.407589	
-0.477948	-0.146853	0.0840084	
-0.41072	-0.12459	0	
-0.494668	-0.0728232	0.0735406	
-0.374595	-0.0873247	0.117455	
0.0610825	-0.307257	0.314818	
0.109758	-0.214467	0.270707	
0.180335	-0.320871	0.25933	
0.0675207	-0.289808	0.212123	
0.14072	-0.0839746	0	
0.164797	-0.177585	0	
0.20832	-0.16636	0.0943059	
0.105136	-0.172994	0.0956717	
-0.270646	0.274141	0.5	
-0.191056	0.29295	0.5	
-0.169426	0.21818	0.5	
-0.201617	0.192684	0.393966	
0.469721	0.171353	0.161666	
0.428195	0.258165	0.201755	
0.436762	0.243391	0.0969381	
0.327512	0.168835	0.13044	
0.31678	-0.386847	0.395869	
0.267645	-0.326424	0.5	
0.213029	-0.381729	0.5	
0.277785	-0.415735	0.5	
-0.436811	0.243302	0.0936268	
-0.38078	0.324048	0.150149	
-0.428104	0.258315	0.196896	
-0.33672	0.17128	0.12732	
-0.238488	-0.439458	0.0756919	
-0.152694	-0.476114	0.0975404	
-0.191342	-0.46194	0	
-0.203173	-0.373024	0	
0.174678	0.468495	0.317109	
0.168734	0.470668	0.201781	
0.173765	0.338831	0.233339	
0.0772326	0.384839	0.269201	
-0.124401	-0.265319	0.22424	
-0.115752	-0.145542	0.242419	
-0.147445	-0.179827	0.128956	
-0.20429	-0.202208	0.252162	
0.242822	0.437078	0.152991	
0.316847	0.386792	0.198616	
0.247057	0.434698	0.250499	
0.173765	0.338831	0.233339	
-0.323938	-0.380873	0.347739	
-0.258165	-0.428195	0.298245	
-0.328716	-0.376757	0.253532	
-0.203684	-0.312652	0.313888	
-0.124401	-0.265319	0.22424	
-0.106158	-0.374353	0.19291	
-0.183123	-0.325269	0.123125	
-0.0814318	-0.287732	0.10776	
0.5	0	0.3	
0.493012	-0.0833019	0.344789	
0.5	0	0.4	
0.389379	-0.0521535	0.3951	
-0.214341	0.273759	0	
-0.18644	0.1823	0	
-0.119993	0.246691	0	
-0.13617	0.283588	0.0953011	
-0.175968	-0.135992	0.338029	
-0.179346	-0.240708	0.39897	
-0.267316	-0.203168	0.336848	
-0.20429	-0.202208	0.252162	
0.495102	-0.0698146	0.4276	
0.476132	-0.152637	0.402329	
0.415496	-0.123332	0.5	
0.389379	-0.0521535	0.3951	
0.429476	-0.256028	0.291579	
0.377032	-0.3284	0.243217	
0.373696	-0.332191	0.334057	
0.307021	-0.223333	0.261668	
0.0807376	-0.493438	0.154216	
0.16873	-0.47067	0.201799	
0.12931	-0.356487	0.143012	
0.0955273	-0.385908	0.250582	
-0.0833019	-0.493012	0.155211	
-0.152694	-0.476114	0.0975404	
-0.106158	-0.374353	0.19291	
-0.0438792	-0.403194	0.0910547	
0.0651412	0.200096	0	
-0.00425413	0.131001	0	
0.0903521	0.10545	0	
0.04259	0.0957748	0.0972509	
-0.386831	-0.3168	0.104097	
-0.386498	-0.317206	0.200322	
-0.331632	-0.374193	0.165357	
-0.28242	-0.274225	0.0937223	
0	-0.5	0.4	
0.082983	-0.493066	0.348347	
0	-0.5	0.3	
0.0372725	-0.390151	0.392733	
0.284773	-0.165822	0.5	
0.366699	-0.192277	0.5	
0.324956	-0.262938	0.5	
0.307193	-0.244124	0.374573	
-0.0927404	0.290183	0.18898	
-0.126488	0.187375	0.237913	
0.00240227	0.224422	0.221344	
-0.0867488	0.283314	0.2887	
-0.5	0	0.3	
-0.490316	0.0979281	0.24092	
-0.493012	0.0833019	0.344789	
-0.401703	-0.00567907	0.249917	
-0.176182	0.282501	0.333733	
-0.138443	0.369144	0.39287	
-0.0919101	0.279835	0.40279	
-0.0867488	0.283314	0.2887	
0.00183684	-0.222331	0	
0.0667279	-0.268271	0.107506	
0.0943468	-0.245334	0	
0.105136	-0.172994	0.0956717	
0.0529867	0.308818	0.5	
0.122026	0.332598	0.5	
0.0895983	0.22043	0.5	
0.132706	0.223572	0.389729	
0.470916	0.168043	0.300126	
0.490343	0.0977967	0.241226	
0.493012	0.0833019	0.344789	
0.364988	0.109735	0.263774	
0.317206	0.386498	0.299678	
0.3168	0.386831	0.395903	
0.25658	0.429146	0.33124	
0.22095	0.291034	0.346604	
-0.302044	-0.0506462	0	
-0.211369	-0.0761151	0	
-0.237047	0.0201392	0	
-0.220281	-0.031921	0.125401	
0.154755	-0.229359	0.16737	
0.180335	-0.320871	0.25933	
0.109758	-0.214467	0.270707	
0.0675207	-0.289808	0.212123	
0.242205	0.0836605	0.5	
0.176571	0.0516571	0.5	
0.153817	0.120272	0.5	
0.17182	0.113313	0.371264	
0.428195	0.258165	0.201755	
0.460548	0.194667	0.23433	
0.4284	0.257824	0.295024	
0.315434	0.222572	0.240138	
-0.13916	0.369653	0.26307	
-0.138443	0.369144	0.39287	
-0.176182	0.282501	0.333733	
-0.0867488	0.283314	0.2887	
0.493389	0.0810399	0.14715	
0.382697	0.0900146	0.0901371	
0.495293	0.0684459	0.0685965	
0.400931	-0.00647911	0.10587	
0.130037	-0.0606882	0.5	
0.242205	-0.0931162	0.5	
0.153817	-0.129728	0.5	
0.205712	-0.0609706	0.365394	
-0.38078	0.324048	0.150149	
-0.317131	0.386559	0.0881616	
-0.317319	0.386405	0.201487	
-0.228343	0.287598	0.142133	
-0.0383625	0.346848	0.349108	
-0.138443	0.369144	0.39287	
-0.13916	0.369653	0.26307	
-0.0867488	0.283314	0.2887	
0.174678	0.468495	0.317109	
0.0804661	0.372171	0.377993	
0.0814864	0.493315	0.347681	
0.0772326	0.384839	0.269201	
0.294811	-0.207935	0.135593	
0.23319	-0.305698	0.109456	
0.154755	-0.229359	0.16737	
0.20832	-0.16636	0.0943059	
-0.263582	-0.319413	0	
-0.183123	-0.325269	0.123125	
-0.168688	-0.281701	0	
-0.28242	-0.274225	0.0937223	
0.0712814	-0.153152	0	
0.00183684	-0.222331	0	
0.0943468	-0.245334	0	
0.105136	-0.172994	0.0956717	
0.235698	-0.440961	0.0686036	
0.317131	-0.386559	0.0881616	
0.268393	-0.334301	0	
0.23319	-0.305698	0.109456	
-0.0853821	0.492656	0.251348	
-0.082983	0.493066	0.348347	
-0.174738	0.468473	0.317184	
-0.13916	0.369653	0.26307	
0.153328	0.47591	0.0923699	
0.114055	0.374109	0	
0.202324	0.378521	0	
0.167266	0.351716	0.112308	
-0.234034	0.185752	0.5	
-0.221565	0.0908555	0.5	
-0.316581	0.126747	0.5	
-0.261609	0.0749827	0.393802	
-0.47591	-0.153328	0.40763	
-0.493437	-0.0807477	0.345776	
-0.495012	-0.0704482	0.428155	
-0.358772	-0.11614	0.36635	
-0.302044	-0.0506462	0	
-0.374595	-0.0873247	0.117455	
-0.344127	-0.112227	0	
-0.275077	-0.119224	0.102748	
-0.490316	0.0979281	0.24092	
-0.469621	0.171627	0.160116	
-0.460762	0.19416	0.234059	
-0.354878	0.123846	0.244627	
-0.117671	-0.10197	0	
-0.186407	-0.169451	0	
-0.0925337	-0.196451	0	
-0.147445	-0.179827	0.128956	
-0.203173	-0.373024	0	
-0.114467	-0.386332	0	
-0.168688	-0.281701	0	
-0.183123	-0.325269	0.123125	
-0.0704474	0.495012	0.0718449	
-0.118932	0.39861	0	
-0.0372406	0.417791	0	
-0.0714313	0.379857	0.110067	
0	-0.5	0.1	
0.0404524	-0.41072	0	
-0.0422582	-0.437473	0	
-0.0438792	-0.403194	0.0910547	
0.414991	0.0495125	0	
0.5	0	0	
0.5	0	0.1	
0.400931	-0.00647911	0.10587	
-0.437078	-0.242822	0.347009	
-0.358772	-0.11614	0.36635	
-0.47591	-0.153328	0.40763	
-0.340496	-0.224073	0.407589	
-0.0977967	-0.490343	0.258774	
-0.0810399	-0.493389	0.35285	
0	-0.5	0.3	
-0.0131258	-0.386662	0.266725	
0.327062	-0.133702	0.350244	
0.205712	-0.0609706	0.365394	
0.24114	-0.149085	0.404027	
0.29269	-0.0648902	0.412739	
-0.401548	-0.0423374	0	
-0.494668	-0.0728232	0.0735406	
-0.41072	-0.12459	0	
-0.374595	-0.0873247	0.117455	
0.490316	-0.0979281	0.24092	
0.493012	-0.0833019	0.344789	
0.5	0	0.3	
0.370375	-0.0671022	0.257475	
-0.176182	0.282501	0.333733	
-0.126488	0.187375	0.237913	
-0.182431	0.271961	0.232942	
-0.0867488	0.283314	0.2887	
0.428196	-0.0462647	0.5	
0.495102	-0.0698146	0.4276	
0.415496	-0.123332	0.5	
0.389379	-0.0521535	0.3951	
-0.0383625	0.346848	0.349108	
-0.0919101	0.279835	0.40279	
-0.138443	0.369144	0.39287	
-0.0867488	0.283314	0.2887	
-0.356684	-0.19351	0	
-0.331361	-0.272953	0	
-0.261345	-0.230036	0	
-0.28242	-0.274225	0.0937223	
0.180335	-0.320871	0.25933	
0.203223	-0.215179	0.335428	
0.163077	-0.321214	0.379886	
0.251456	-0.316364	0.331038	
-0.377032	0.3284	0.243217	
-0.317319	0.386405	0.201487	
-0.317163	0.386533	0.299742	
-0.277293	0.260919	0.267415	
0.247868	0.146306	0	
0.201932	0.155478	0.107683	
0.184962	0.0799289	0	
0.278081	0.0866882	0.0962345	
0.0955515	0.0190038	0.323994	
0.0752678	-0.0423877	0.407707	
0.0390655	0.0525248	0.401715	
0.0292443	-0.0551693	0.315985	
-0.176182	0.282501	0.333733	
-0.182431	0.271961	0.232942	
-0.126488	0.187375	0.237913	
-0.206936	0.196576	0.295071	
-0.301517	0.172887	0.349578	
-0.277293	0.260919	0.267415	
-0.276891	0.277667	0.386451	
-0.206936	0.196576	0.295071	
0.256554	-0.429162	0.331268	
0.228959	-0.444497	0.408094	
0.31678	-0.386847	0.395869	
0.251456	-0.316364	0.331038	
0.307021	-0.223333	0.261668	
0.307193	-0.244124	0.374573	
0.203223	-0.215179	0.335428	
0.251456	-0.316364	0.331038	
-0.404541	0.126945	0	
-0.328307	0.16356	0	
-0.33672	0.17128	0.12732	
-0.391093	0.0790791	0.0957818	
0.176571	0.0516571	0.5	
0.17182	0.113313	0.371264	
0.242205	0.0836605	0.5	
0.240261	0.0350229	0.402836	
0	-0.5	0.2	
-0.0131258	-0.386662	0.266725	
0.0853821	-0.492656	0.251348	
0.0955273	-0.385908	0.250582	
-0.0372406	0.417791	0	
0	0.5	0	
0	0.5	0.1	
0.0420691	0.427134	0	
-0.243391	-0.436762	0.403062	
-0.266966	-0.299163	0.400443	
-0.317197	-0.386505	0.431175	
-0.172877	-0.358629	0.40341	
-0.46194	-0.191342	0	
-0.444481	-0.228991	0.0919014	
-0.356684	-0.19351	0	
-0.41072	-0.12459	0	
0.0559726	-0.187061	0.5	
0.153817	-0.129728	0.5	
0.144361	-0.223672	0.5	
0.0943746	-0.140978	0.374495	
-0.0785029	0.119253	0.5	
0.00344957	0.138123	0.5	
-0.0283081	0.0695318	0.5	
-0.0527152	0.0950891	0.390784	
-0.203173	-0.373024	0	
-0.168688	-0.281701	0	
-0.263582	-0.319413	0	
-0.183123	-0.325269	0.123125	
-0.416747	0.276265	0.362548	
-0.373696	0.332191	0.334057	
-0.388345	0.314941	0.420199	
-0.276891	0.277667	0.386451	
-0.00141651	-0.344659	0.156164	
0.12931	-0.356487	0.143012	
0.0675207	-0.289808	0.212123	
0.0955273	-0.385908	0.250582	
-0.471122	0.167464	0.300106	
-0.476132	0.152637	0.402329	
-0.493012	0.0833019	0.344789	
-0.374071	0.0973353	0.396281	
0.242822	0.437078	0.152991	
0.235698	0.440961	0.068569	
0.317233	0.386476	0.0904728	
0.167266	0.351716	0.112308	
0.174678	0.468495	0.317109	
0.168734	0.470668	0.201781	
0.247057	0.434698	0.250499	
0.173765	0.338831	0.233339	
0.0654282	-0.0931162	0.5	
0.153817	-0.129728	0.5	
0.0559726	-0.187061	0.5	
0.0943746	-0.140978	0.374495	
0.0461078	-0.0584269	0	
-0.0232782	-0.127584	0	
0.0712814	-0.153152	0	
0.0349199	-0.099137	0.113215	
0.414991	0.0495125	0	
0.409478	-0.032947	0	
0.5	0	0	
0.400931	-0.00647911	0.10587	
-0.492649	-0.0854243	0.248597	
-0.470668	-0.168734	0.298219	
-0.468495	-0.174678	0.182891	
-0.349306	-0.102086	0.237815	
0.277785	0.415735	0	
0.261819	0.319027	0	
0.317233	0.386476	0.0904728	
0.235698	0.440961	0.068569	
0.278817	-0.00472784	0.5	
0.187412	-0.0186436	0.5	
0.240261	0.0350229	0.402836	
0.29269	-0.0648902	0.412739	
0.082983	-0.493066	0.348347	
0.0690566	-0.495208	0.430964	
0.147585	-0.477722	0.416442	
0.0372725	-0.390151	0.392733	
-0.408839	0.131788	0.5	
-0.374813	0.199394	0.5	
-0.316581	0.126747	0.5	
-0.374071	0.0973353	0.396281	
0.174738	-0.468473	0.317184	
0.247023	-0.434718	0.250558	
0.16873	-0.47067	0.201799	
0.0955273	-0.385908	0.250582	
0.242822	0.437078	0.152991	
0.168734	0.470668	0.201781	
0.167266	0.351716	0.112308	
0.173765	0.338831	0.233339	
0.0654282	-0.0931162	0.5	
0.130037	-0.0606882	0.5	
0.153817	-0.129728	0.5	
0.0943746	-0.140978	0.374495	
-0.234034	0.185752	0.5	
-0.270646	0.274141	0.5	
-0.201617	0.192684	0.393966	
-0.276891	0.277667	0.386451	
0.0955515	0.0190038	0.323994	
0.0292443	-0.0551693	0.315985	
0.0390655	0.0525248	0.401715	
0.000906282	0.043941	0.311068	
0.144361	-0.223672	0.5	
0.0747819	-0.266651	0.5	
0.0559726	-0.187061	0.5	
0.0330605	-0.234493	0.398486	
-0.0785029	0.119253	0.5	
-0.0283081	0.0695318	0.5	
-0.122627	0.0544512	0.5	
-0.0527152	0.0950891	0.390784	
0.428104	-0.258315	0.196896	
0.307021	-0.223333	0.261668	
0.429476	-0.256028	0.291579	
0.368159	-0.173753	0.197234	
0.374193	0.331632	0.334643	
0.415735	0.277785	0.365862	
0.388274	0.315029	0.420807	
0.294218	0.260673	0.410718	
-0.331632	-0.374193	0.165357	
-0.257824	-0.4284	0.204976	
-0.277785	-0.415735	0.134138	
-0.253565	-0.305449	0.208948	
0.5	0	0.2	
0.493389	0.0810399	0.14715	
0.5	0	0.1	
0.400931	-0.00647911	0.10587	
-0.478516	0.14499	0.0762896	
-0.33672	0.17128	0.12732	
-0.469621	0.171627	0.160116	
-0.391093	0.0790791	0.0957818	
-0.0206459	0.274141	0.5	
0.0163452	0.25475	0.392302	
-0.0572576	0.185752	0.5	
-0.0919101	0.279835	0.40279	
-0.277293	0.260919	0.267415	
-0.176182	0.282501	0.333733	
-0.276891	0.277667	0.386451	
-0.206936	0.196576	0.295071	
-0.2429	0.437035	0.152631	
-0.317319	0.386405	0.201487	
-0.317131	0.386559	0.0881616	
-0.228343	0.287598	0.142133	
-0.0833019	-0.493012	0.155211	
0	-0.5	0.2	
0	-0.5	0.1	
-0.0438792	-0.403194	0.0910547	
-0.194667	-0.460548	0.26567	
-0.0977967	-0.490343	0.258774	
-0.168043	-0.470916	0.199874	
-0.106158	-0.374353	0.19291	
-0.337562	0.0547633	0	
-0.237047	0.0201392	0	
-0.257956	0.116321	0	
-0.24789	0.08719	0.114987	
-0.386792	-0.316847	0.301384	
-0.386476	-0.317233	0.409527	
-0.323938	-0.380873	0.347739	
-0.266966	-0.299163	0.400443	
-0.234034	0.362529	0.5	
-0.191056	0.29295	0.5	
-0.270646	0.274141	0.5	
-0.276891	0.277667	0.386451	
-0.439384	0.238625	0.423358	
-0.388345	0.314941	0.420199	
-0.415735	0.277785	0.5	
-0.335163	0.274889	0.5	
-0.114467	-0.386332	0	
-0.0638367	-0.295761	0	
-0.0814318	-0.287732	0.10776	
-0.0438792	-0.403194	0.0910547	
-0.0505573	-0.00469477	0.5	
-0.0283081	0.0695318	0.5	
0.0288165	-0.00472784	0.5	
0.0390655	0.0525248	0.401715	
-0.237047	0.0201392	0	
-0.16685	0.0883447	0	
-0.257956	0.116321	0	
-0.24789	0.08719	0.114987	
-0.301517	0.172887	0.349578	
-0.276891	0.277667	0.386451	
-0.201617	0.192684	0.393966	
-0.206936	0.196576	0.295071	
0.469621	-0.171627	0.160116	
0.493378	-0.0811073	0.146993	
0.478516	-0.14499	0.0762896	
0.360278	-0.0912969	0.138185	
-0.211369	-0.0761151	0	
-0.278713	-0.14304	0	
-0.186407	-0.169451	0	
-0.275077	-0.119224	0.102748	
-0.0422582	-0.437473	0	
0	-0.5	0.1	
0	-0.5	0	
0.0404524	-0.41072	0	
0.377032	-0.3284	0.243217	
0.429476	-0.256028	0.291579	
0.428104	-0.258315	0.196896	
0.307021	-0.223333	0.261668	
0.174678	0.468495	0.317109	
0.146853	0.477948	0.415992	
0.0814864	0.493315	0.347681	
0.0804661	0.372171	0.377993	
0.5	0	0.1	
0.495293	0.0684459	0.0685965	
0.414991	0.0495125	0	
0.400931	-0.00647911	0.10587	
-0.401548	-0.0423374	0	
-0.5	0	0	
-0.5	0	0.1	
-0.426463	0.0441363	0	
-0.493315	-0.0814864	0.152319	
-0.5	0	0.2	
-0.492649	-0.0854243	0.248597	
-0.401703	-0.00567907	0.249917	
0.313791	-0.154465	0	
0.232997	-0.11062	0	
0.245477	-0.191651	0	
0.20832	-0.16636	0.0943059	
-0.444481	-0.228991	0.0919014	
-0.46194	-0.191342	0	
-0.477948	-0.146853	0.0840084	
-0.41072	-0.12459	0	
-0.114467	-0.386332	0	
-0.0638367	-0.295761	0	
-0.168688	-0.281701	0	
-0.0814318	-0.287732	0.10776	
0.205712	-0.0609706	0.365394	
0.322451	0.0144002	0.334794	
0.240261	0.0350229	0.402836	
0.29269	-0.0648902	0.412739	
-0.134825	0.0680349	0.146947	
-0.10547	0.0480539	0.280485	
-0.201798	0.0517729	0.246381	
-0.135945	-0.0117594	0.206744	
-0.0835823	-0.340682	0.35067	
-0.179346	-0.240708	0.39897	
-0.203684	-0.312652	0.313888	
-0.172877	-0.358629	0.40341	
0.158056	0.171884	0	
0.247868	0.146306	0	
0.231243	0.24169	0	
0.201932	0.155478	0.107683	
0.284773	-0.165822	0.5	
0.238057	-0.243638	0.5	
0.212642	-0.171195	0.5	
0.24114	-0.149085	0.404027	
0.346509	0.0237889	0	
0.382697	0.0900146	0.0901371	
0.337634	0.115561	0	
0.278081	0.0866882	0.0962345	
0.267645	-0.326424	0.5	
0.324956	-0.262938	0.5	
0.353553	-0.353553	0.5	
0.388345	-0.314941	0.420199	
0.235698	-0.440961	0.0686036	
0.194604	-0.371188	0	
0.191342	-0.46194	0	
0.125573	-0.41396	0	
-0.00141651	-0.344659	0.156164	
0.0675207	-0.289808	0.212123	
-0.0131258	-0.386662	0.266725	
0.0955273	-0.385908	0.250582	
-0.209059	-0.00395244	0.5	
-0.174131	-0.119906	0.5	
-0.262519	-0.0832944	0.5	
-0.188849	-0.0237464	0.373158	
0.376757	0.328716	0.246468	
0.380873	0.323938	0.152261	
0.428195	0.258165	0.201755	
0.315434	0.222572	0.240138	
0.436811	-0.243302	0.0936268	
0.380207	-0.19708	0	
0.415735	-0.277785	0	
0.385896	-0.317937	0.065638	
-0.31678	0.386847	0.395869	
-0.295892	0.334394	0.5	
-0.388345	0.314941	0.420199	
-0.276891	0.277667	0.386451	
-0.0383625	0.346848	0.349108	
-0.13916	0.369653	0.26307	
-0.025976	0.384086	0.232401	
-0.0867488	0.283314	0.2887	
-0.243391	-0.436762	0.403062	
-0.171353	-0.469721	0.338334	
-0.258165	-0.428195	0.298245	
-0.172877	-0.358629	0.40341	
0.31678	-0.386847	0.395869	
0.267645	-0.326424	0.5	
0.353553	-0.353553	0.5	
0.388345	-0.314941	0.420199	
0.337634	0.115561	0	
0.382697	0.0900146	0.0901371	
0.327512	0.168835	0.13044	
0.278081	0.0866882	0.0962345	
0.38078	-0.324048	0.150149	
0.317131	-0.386559	0.0881616	
0.317319	-0.386405	0.201487	
0.23319	-0.305698	0.109456	
0.5	0	0.4	
0.495102	-0.0698146	0.4276	
0.428196	-0.0462647	0.5	
0.389379	-0.0521535	0.3951	
0.476114	0.152694	0.40246	
0.495101	0.0698189	0.427621	
0.399086	0.112543	0.5	
0.362397	0.0936058	0.39874	
0.0752678	-0.0423877	0.407707	
0.0390655	0.0525248	0.401715	
0.108407	0.0140815	0.5	
0.14023	0.0298174	0.409574	
-0.120671	-0.0405641	0.5	
-0.174131	-0.119906	0.5	
-0.209059	-0.00395244	0.5	
-0.188849	-0.0237464	0.373158	
0.154755	-0.229359	0.16737	
0.153084	-0.0880453	0.135895	
0.20832	-0.16636	0.0943059	
0.105136	-0.172994	0.0956717	
0.5	0	0.4	
0.5	0	0.5	
0.439467	0.0432837	0.5	
0.428196	-0.0462647	0.5	
-0.201617	0.192684	0.393966	
-0.276891	0.277667	0.386451	
-0.176182	0.282501	0.333733	
-0.206936	0.196576	0.295071	
0.176571	0.0516571	0.5	
0.17182	0.113313	0.371264	
0.240261	0.0350229	0.402836	
0.14023	0.0298174	0.409574	
-0.191056	0.29295	0.5	
-0.122891	0.330526	0.5	
-0.11205	0.260225	0.5	
-0.0919101	0.279835	0.40279	
-0.408839	0.131788	0.5	
-0.439384	0.238625	0.423358	
-0.46194	0.191342	0.5	
-0.374813	0.199394	0.5	
-0.0555676	0.325574	0	
-0.0255811	0.276919	0.0997551	
-0.0714313	0.379857	0.110067	
-0.13617	0.283588	0.0953011	
0.2429	-0.437035	0.152631	
0.235698	-0.440961	0.0686036	
0.153329	-0.47591	0.0923815	
0.12931	-0.356487	0.143012	
0.112358	-0.334816	0.5	
0.0559726	-0.437061	0.5	
0.0420567	-0.345657	0.5	
0.0372725	-0.390151	0.392733	
0.308034	0.17727	0.353981	
0.225245	0.18886	0.408136	
0.294218	0.260673	0.410718	
0.222637	0.199452	0.310281	
-0.377032	0.3284	0.243217	
-0.317163	0.386533	0.299742	
-0.373696	0.332191	0.334057	
-0.277293	0.260919	0.267415	
-0.0704474	0.495012	0.0718449	
-0.153329	0.47591	0.0923815	
-0.118932	0.39861	0	
-0.0714313	0.379857	0.110067	
-0.328716	-0.376757	0.253532	
-0.253565	-0.305449	0.208948	
-0.386498	-0.317206	0.200322	
-0.326617	-0.238576	0.253202	
0.495293	0.0684459	0.0685965	
0.382697	0.0900146	0.0901371	
0.414991	0.0495125	0	
0.400931	-0.00647911	0.10587	
-0.277785	0.415735	0	
-0.201912	0.369986	0	
-0.235698	0.440961	0.0686036	
-0.273315	0.334955	0	
-0.270646	0.274141	0.5	
-0.169426	0.21818	0.5	
-0.234034	0.185752	0.5	
-0.201617	0.192684	0.393966	
-0.120671	-0.0405641	0.5	
-0.0505573	-0.00469477	0.5	
-0.0293436	-0.0762152	0.5	
-0.112364	-0.0877996	0.406457	
0.0895983	0.397206	0.5	
0.0529867	0.308818	0.5	
0.0172234	0.375408	0.5	
0.0804661	0.372171	0.377993	
0.0401436	0.291204	0	
0.133074	0.264097	0	
0.114055	0.374109	0	
0.0776161	0.251925	0.0921435	
0.414183	0.131147	0	
0.414991	0.0495125	0	
0.495293	0.0684459	0.0685965	
0.382697	0.0900146	0.0901371	
-0.238488	-0.439458	0.0756919	
-0.277785	-0.415735	0	
-0.315029	-0.388274	0.0791933	
-0.203173	-0.373024	0	
-0.0555676	0.325574	0	
0.0153159	0.363557	0	
-0.0372406	0.417791	0	
-0.0714313	0.379857	0.110067	
0.317163	-0.386533	0.299742	
0.247023	-0.434718	0.250558	
0.256554	-0.429162	0.331268	
0.251456	-0.316364	0.331038	
0.0559726	-0.437061	0.5	
0	-0.5	0.4	
-0.0324158	-0.400449	0.5	
0.0372725	-0.390151	0.392733	
0.495293	0.0684459	0.0685965	
0.5	0	0	
0.5	0	0.1	
0.414991	0.0495125	0	
0.314271	-0.0501881	0	
0.409478	-0.032947	0	
0.346509	0.0237889	0	
0.400931	-0.00647911	0.10587	
-0.152694	-0.476114	0.0975404	
-0.114467	-0.386332	0	
-0.191342	-0.46194	0	
-0.203173	-0.373024	0	
0.460762	-0.19416	0.234059	
0.490316	-0.0979281	0.24092	
0.469621	-0.171627	0.160116	
0.368159	-0.173753	0.197234	
0.31678	-0.386847	0.395869	
0.213029	-0.381729	0.5	
0.228959	-0.444497	0.408094	
0.277785	-0.415735	0.5	
-0.191056	0.29295	0.5	
-0.234034	0.362529	0.5	
-0.122891	0.330526	0.5	
-0.138443	0.369144	0.39287	
0.315521	0.155675	0.5	
0.266375	0.22043	0.5	
0.342318	0.251665	0.5	
0.294218	0.260673	0.410718	
-0.0129443	-0.237884	0.253616	
0.109758	-0.214467	0.270707	
0.0610825	-0.307257	0.314818	
0.0675207	-0.289808	0.212123	
0.153817	0.120272	0.5	
0.17182	0.113313	0.371264	
0.176571	0.0516571	0.5	
0.14023	0.0298174	0.409574	
0.114055	0.374109	0	
0.133074	0.264097	0	
0.189613	0.313662	0	
0.167266	0.351716	0.112308	
0.385896	-0.317937	0.065638	
0.380207	-0.19708	0	
0.415735	-0.277785	0	
0.314857	-0.257449	0	
0.133074	0.264097	0	
0.0651412	0.200096	0	
0.158056	0.171884	0	
0.0776161	0.251925	0.0921435	
0.439384	-0.238625	0.423358	
0.415735	-0.277785	0.5	
0.324956	-0.262938	0.5	
0.388345	-0.314941	0.420199	
0.180973	-0.312061	0.5	
0.144361	-0.400449	0.5	
0.112358	-0.334816	0.5	
0.163077	-0.321214	0.379886	
-0.469621	0.171627	0.160116	
-0.478516	0.14499	0.0762896	
-0.436811	0.243302	0.0936268	
-0.33672	0.17128	0.12732	
0.0654282	-0.0931162	0.5	
-0.0293436	-0.0762152	0.5	
0.0288165	-0.00472784	0.5	
0.0752678	-0.0423877	0.407707	
-0.0704474	0.495012	0.0718449	
0	0.5	0.1	
-0.0807376	0.493438	0.154216	
-0.0714313	0.379857	0.110067	
0.112358	-0.334816	0.5	
0.144361	-0.400449	0.5	
0.0559726	-0.437061	0.5	
0.0372725	-0.390151	0.392733	
-0.0555676	0.325574	0	
-0.119993	0.246691	0	
-0.0255811	0.276919	0.0997551	
-0.13617	0.283588	0.0953011	
-0.0807376	0.493438	0.154216	
0	0.5	0.2	
-0.0853821	0.492656	0.251348	
-0.025976	0.384086	0.232401	
0.5	0	0.1	
0.493378	-0.0811073	0.146993	
0.5	0	0.2	
0.400931	-0.00647911	0.10587	
0.14072	-0.0839746	0	
0.164797	-0.177585	0	
0.232997	-0.11062	0	
0.20832	-0.16636	0.0943059	
-0.316581	0.126747	0.5	
-0.261609	0.0749827	0.393802	
-0.294862	0.0237806	0.5	
-0.374071	0.0973353	0.396281	
-0.493315	-0.0814864	0.152319	
-0.468495	-0.174678	0.182891	
-0.477948	-0.146853	0.0840084	
-0.374595	-0.0873247	0.117455	
-0.476132	0.152637	0.402329	
-0.408839	0.131788	0.5	
-0.495102	0.0698146	0.4276	
-0.374071	0.0973353	0.396281	
-0.400468	0.0439116	0.5	
-0.5	0	0.5	
-0.5	0	0.4	
-0.42782	-0.0498056	0.5	
-0.106158	-0.374353	0.19291	
-0.0814318	-0.287732	0.10776	
-0.00141651	-0.344659	0.156164	
-0.0438792	-0.403194	0.0910547	
-0.234034	0.362529	0.5	
-0.270646	0.274141	0.5	
-0.295892	0.334394	0.5	
-0.276891	0.277667	0.386451	
-0.344127	-0.112227	0	
-0.302044	-0.0506462	0	
-0.401548	-0.0423374	0	
-0.374595	-0.0873247	0.117455	
0.0610825	-0.307257	0.314818	
0.0675207	-0.289808	0.212123	
0.180335	-0.320871	0.25933	
0.0955273	-0.385908	0.250582	
-0.115752	-0.145542	0.242419	
-0.175968	-0.135992	0.338029	
-0.209296	-0.0687964	0.252985	
-0.20429	-0.202208	0.252162	
0.353553	-0.353553	0	
0.385896	-0.317937	0.065638	
0.268393	-0.334301	0	
0.317131	-0.386559	0.0881616	
0.0420691	0.427134	0	
0.0975452	0.490393	0	
0.0704482	0.495012	0.0718447	
0.114055	0.374109	0	
-0.495102	0.0698146	0.4276	
-0.408839	0.131788	0.5	
-0.400468	0.0439116	0.5	
-0.374071	0.0973353	0.396281	
-0.0131258	-0.386662	0.266725	
0.0675207	-0.289808	0.212123	
0.0610825	-0.307257	0.314818	
0.0955273	-0.385908	0.250582	
-0.0572576	0.362529	0.5	
-0.122891	0.330526	0.5	
-0.138443	0.369144	0.39287	
-0.0919101	0.279835	0.40279	
0.476114	0.152694	0.40246	
0.493012	0.0833019	0.344789	
0.495101	0.0698189	0.427621	
0.362397	0.0936058	0.39874	
-0.147585	0.477722	0.416442	
-0.0975452	0.490393	0.5	
-0.145646	0.399141	0.5	
-0.0690566	0.495208	0.430964	
-0.331361	-0.272953	0	
-0.353553	-0.353553	0	
-0.263582	-0.319413	0	
-0.28242	-0.274225	0.0937223	
0.478555	0.144862	0.0783483	
0.46194	0.191342	0	
0.373926	0.198925	0	
0.436762	0.243391	0.0969381	
-0.228923	-0.22221	0.5	
-0.239764	-0.151909	0.5	
-0.137519	-0.208294	0.5	
-0.179346	-0.240708	0.39897	
-0.176182	0.282501	0.333733	
-0.0919101	0.279835	0.40279	
-0.0728851	0.200383	0.343081	
-0.0867488	0.283314	0.2887	
0.373696	-0.332191	0.334057	
0.31678	-0.386847	0.395869	
0.307193	-0.244124	0.374573	
0.251456	-0.316364	0.331038	
-0.0840299	-0.136867	0.5	
-0.137519	-0.208294	0.5	
-0.174131	-0.119906	0.5	
-0.112364	-0.0877996	0.406457	
-0.0833019	-0.493012	0.155211	
-0.152694	-0.476114	0.0975404	
-0.168043	-0.470916	0.199874	
-0.106158	-0.374353	0.19291	
0.5	0	0.1	
0.493389	0.0810399	0.14715	
0.495293	0.0684459	0.0685965	
0.400931	-0.00647911	0.10587	
-0.147585	0.477722	0.416442	
-0.174738	0.468473	0.317184	
-0.082983	0.493066	0.348347	
-0.138443	0.369144	0.39287	
-0.0293436	-0.0762152	0.5	
0.0654282	-0.0931162	0.5	
-0.00743541	-0.147874	0.5	
-0.00932629	-0.104346	0.393808	
0.242205	-0.0931162	0.5	
0.24114	-0.149085	0.404027	
0.205712	-0.0609706	0.365394	
0.29269	-0.0648902	0.412739	
0.0462313	0.146805	0.364101	
0.0390655	0.0525248	0.401715	
-0.0527152	0.0950891	0.390784	
0.000906282	0.043941	0.311068	
0.180335	-0.320871	0.25933	
0.0675207	-0.289808	0.212123	
0.12931	-0.356487	0.143012	
0.0955273	-0.385908	0.250582	
0.327512	0.168835	0.13044	
0.382697	0.0900146	0.0901371	
0.334086	0.0370714	0.16525	
0.278081	0.0866882	0.0962345	
-0.0638367	-0.295761	0	
-0.0925337	-0.196451	0	
-0.168688	-0.281701	0	
-0.0814318	-0.287732	0.10776	
-0.263582	-0.319413	0	
-0.315029	-0.388274	0.0791933	
-0.277785	-0.415735	0	
-0.203173	-0.373024	0	
-0.436811	0.243302	0.0936268	
-0.428104	0.258315	0.196896	
-0.469621	0.171627	0.160116	
-0.33672	0.17128	0.12732	
-0.353553	0.353553	0	
-0.385896	0.317937	0.065638	
-0.318983	0.261743	0	
-0.273315	0.334955	0	
-0.0690274	-0.312061	0.5	
-0.174131	-0.296683	0.5	
-0.137519	-0.208294	0.5	
-0.179346	-0.240708	0.39897	
0.177987	0.183818	0.5	
0.132706	0.223572	0.389729	
0.164071	0.275222	0.5	
0.225245	0.18886	0.408136	
-0.5	0	0.3	
-0.493437	-0.0807477	0.345776	
-0.492649	-0.0854243	0.248597	
-0.401703	-0.00567907	0.249917	
-0.174738	0.468473	0.317184	
-0.228959	0.444497	0.408094	
-0.256554	0.429162	0.331268	
-0.138443	0.369144	0.39287	
0.368263	0.0160059	0.5	
0.399086	0.112543	0.5	
0.439467	0.0432837	0.5	
0.362397	0.0936058	0.39874	
-0.270646	0.274141	0.5	
-0.304559	0.211579	0.5	
-0.335163	0.274889	0.5	
-0.276891	0.277667	0.386451	
0.478555	0.144862	0.0783483	
0.414183	0.131147	0	
0.495293	0.0684459	0.0685965	
0.382697	0.0900146	0.0901371	
0.368263	0.0160059	0.5	
0.389379	-0.0521535	0.3951	
0.338823	-0.0848934	0.5	
0.29269	-0.0648902	0.412739	
-0.385896	0.317937	0.065638	
-0.353553	0.353553	0	
-0.317131	0.386559	0.0881616	
-0.273315	0.334955	0	
-0.317197	-0.386505	0.431175	
-0.350907	-0.296683	0.5	
-0.262519	-0.333294	0.5	
-0.266966	-0.299163	0.400443	
0.0814864	0.493315	0.347681	
0	0.5	0.3	
0.0854243	0.492649	0.251403	
0.0772326	0.384839	0.269201	
-0.247023	0.434718	0.250558	
-0.174738	0.468473	0.317184	
-0.256554	0.429162	0.331268	
-0.13916	0.369653	0.26307	
-0.317131	0.386559	0.0881616	
-0.277785	0.415735	0	
-0.235698	0.440961	0.0686036	
-0.273315	0.334955	0	
0.191342	-0.46194	0	
0.153329	-0.47591	0.0923815	
0.235698	-0.440961	0.0686036	
0.125573	-0.41396	0	
0.469721	0.171353	0.161666	
0.478555	0.144862	0.0783483	
0.493389	0.0810399	0.14715	
0.382697	0.0900146	0.0901371	
0.158056	0.171884	0	
0.184962	0.0799289	0	
0.247868	0.146306	0	
0.201932	0.155478	0.107683	
-0.00932629	-0.104346	0.393808	
0.0752678	-0.0423877	0.407707	
0.0943746	-0.140978	0.374495	
0.0292443	-0.0551693	0.315985	
0	0.5	0.3	
-0.0853821	0.492656	0.251348	
0	0.5	0.2	
-0.025976	0.384086	0.232401	
0.0559726	-0.437061	0.5	
0.0690566	-0.495208	0.430964	
0	-0.5	0.4	
0.0372725	-0.390151	0.392733	
-0.476132	0.152637	0.402329	
-0.439384	0.238625	0.423358	
-0.46194	0.191342	0.5	
-0.408839	0.131788	0.5	
-0.0430682	0.437279	0.5	
-0.145646	0.399141	0.5	
-0.0975452	0.490393	0.5	
-0.0690566	0.495208	0.430964	
-0.401548	-0.0423374	0	
-0.41072	-0.12459	0	
-0.344127	-0.112227	0	
-0.374595	-0.0873247	0.117455	
0.376757	0.328716	0.246468	
0.428195	0.258165	0.201755	
0.4284	0.257824	0.295024	
0.315434	0.222572	0.240138	
0.268393	-0.334301	0	
0.314857	-0.257449	0	
0.201164	-0.273578	0	
0.23319	-0.305698	0.109456	
0.153329	-0.47591	0.0923815	
0.0807376	-0.493438	0.154216	
0.16873	-0.47067	0.201799	
0.12931	-0.356487	0.143012	
0.153328	0.47591	0.0923699	
0.191342	0.46194	0	
0.235698	0.440961	0.068569	
0.202324	0.378521	0	
-0.353553	-0.353553	0	
-0.331361	-0.272953	0	
-0.386831	-0.3168	0.104097	
-0.28242	-0.274225	0.0937223	
-0.0295403	0.225144	0	
0.0651412	0.200096	0	
0.0401436	0.291204	0	
0.0776161	0.251925	0.0921435	
0.302987	0.308818	0.5	
0.3168	0.386831	0.395903	
0.388274	0.315029	0.420807	
0.294218	0.260673	0.410718	
-0.471122	0.167464	0.300106	
-0.490316	0.0979281	0.24092	
-0.460762	0.19416	0.234059	
-0.354878	0.123846	0.244627	
-0.025976	0.384086	0.232401	
-0.13916	0.369653	0.26307	
-0.0927404	0.290183	0.18898	
-0.0867488	0.283314	0.2887	
0.0895983	0.397206	0.5	
0.122026	0.332598	0.5	
0.0529867	0.308818	0.5	
0.0804661	0.372171	0.377993	
0.353553	-0.353553	0	
0.385896	-0.317937	0.065638	
0.314857	-0.257449	0	
0.268393	-0.334301	0	
0.366699	-0.192277	0.5	
0.415735	-0.277785	0.5	
0.324956	-0.262938	0.5	
0.439384	-0.238625	0.423358	
-0.228959	0.444497	0.408094	
-0.145646	0.399141	0.5	
-0.234034	0.362529	0.5	
-0.138443	0.369144	0.39287	
0.22095	0.291034	0.346604	
0.294218	0.260673	0.410718	
0.225245	0.18886	0.408136	
0.222637	0.199452	0.310281	
-0.243391	-0.436762	0.403062	
-0.207198	-0.382494	0.5	
-0.191342	-0.46194	0.5	
-0.172877	-0.358629	0.40341	
0.31678	-0.386847	0.395869	
0.388345	-0.314941	0.420199	
0.373696	-0.332191	0.334057	
0.307193	-0.244124	0.374573	
-0.5	0	0.1	
-0.495208	0.0690617	0.0692099	
-0.493378	0.0811073	0.146993	
-0.391093	0.0790791	0.0957818	
0.277785	-0.415735	0	
0.194604	-0.371188	0	
0.235698	-0.440961	0.0686036	
0.268393	-0.334301	0	
-0.5	0	0.5	
-0.5	0	0.4	
-0.495102	0.0698146	0.4276	
-0.400468	0.0439116	0.5	
-0.0840299	-0.136867	0.5	
-0.0293436	-0.0762152	0.5	
-0.00932629	-0.104346	0.393808	
-0.112364	-0.0877996	0.406457	
-0.0295403	0.225144	0	
0.0401436	0.291204	0	
-0.0255811	0.276919	0.0997551	
0.0776161	0.251925	0.0921435	
0.346509	0.0237889	0	
0.414991	0.0495125	0	
0.382697	0.0900146	0.0901371	
0.400931	-0.00647911	0.10587	
-0.470668	-0.168734	0.298219	
-0.493437	-0.0807477	0.345776	
-0.47591	-0.153328	0.40763	
-0.358772	-0.11614	0.36635	
-0.437078	-0.242822	0.347009	
-0.470668	-0.168734	0.298219	
-0.47591	-0.153328	0.40763	
-0.358772	-0.11614	0.36635	
-0.0684459	-0.495293	0.431403	
0	-0.5	0.5	
0	-0.5	0.4	
-0.0324158	-0.400449	0.5	
-0.119993	0.246691	0	
-0.0295403	0.225144	0	
-0.0555676	0.325574	0	
-0.0255811	0.276919	0.0997551	
-0.114467	-0.386332	0	
-0.152694	-0.476114	0.0975404	
-0.0698189	-0.495101	0.0723791	
-0.0438792	-0.403194	0.0910547	
0.17182	0.113313	0.371264	
0.132706	0.223572	0.389729	
0.225245	0.18886	0.408136	
0.222637	0.199452	0.310281	
-0.0422582	-0.437473	0	
-0.114467	-0.386332	0	
-0.0698189	-0.495101	0.0723791	
-0.0438792	-0.403194	0.0910547	
0.191342	0.46194	0	
0.153328	0.47591	0.0923699	
0.114055	0.374109	0	
0.202324	0.378521	0	
0.201164	-0.273578	0	
0.245477	-0.191651	0	
0.164797	-0.177585	0	
0.20832	-0.16636	0.0943059	
-0.269341	-0.201154	0.169023	
-0.326617	-0.238576	0.253202	
-0.253565	-0.305449	0.208948	
-0.20429	-0.202208	0.252162	
0.315521	0.155675	0.5	
0.242026	0.154212	0.5	
0.266375	0.22043	0.5	
0.225245	0.18886	0.408136	
-0.277785	-0.415735	0.5	
-0.317197	-0.386505	0.431175	
-0.262519	-0.333294	0.5	
-0.207198	-0.382494	0.5	
0.388496	0.195371	0.5	
0.46194	0.191342	0.5	
0.399086	0.112543	0.5	
0.476114	0.152694	0.40246	
-0.404541	0.126945	0	
-0.495208	0.0690617	0.0692099	
-0.426463	0.0441363	0	
-0.391093	0.0790791	0.0957818	
-0.174131	-0.296683	0.5	
-0.262519	-0.333294	0.5	
-0.266966	-0.299163	0.400443	
-0.172877	-0.358629	0.40341	
-0.385896	0.317937	0.065638	
-0.389036	0.207425	0	
-0.415735	0.277785	0	
-0.318983	0.261743	0	
0.082983	-0.493066	0.348347	
0.174738	-0.468473	0.317184	
0.0853821	-0.492656	0.251348	
0.0955273	-0.385908	0.250582	
-0.386792	-0.316847	0.301384	
-0.437078	-0.242822	0.347009	
-0.386476	-0.317233	0.409527	
-0.340496	-0.224073	0.407589	
-0.0293436	-0.0762152	0.5	
-0.00743541	-0.147874	0.5	
-0.0840299	-0.136867	0.5	
-0.00932629	-0.104346	0.393808	
0.2429	-0.437035	0.152631	
0.317319	-0.386405	0.201487	
0.317131	-0.386559	0.0881616	
0.23319	-0.305698	0.109456	
-0.386476	-0.317233	0.409527	
-0.340496	-0.224073	0.407589	
-0.350907	-0.296683	0.5	
-0.266966	-0.299163	0.400443	
0.164797	-0.177585	0	
0.14072	-0.0839746	0	
0.0712814	-0.153152	0	
0.105136	-0.172994	0.0956717	
0.12931	-0.356487	0.143012	
0.154755	-0.229359	0.16737	
0.0667279	-0.268271	0.107506	
0.0675207	-0.289808	0.212123	
0.276476	0.0535537	0	
0.210156	-0.0147965	0	
0.314271	-0.0501881	0	
0.257685	-0.0506834	0.101558	
-0.0646627	-0.0272093	0.335016	
0.0292443	-0.0551693	0.315985	
-0.032045	0.00109893	0.228452	
0.000906282	0.043941	0.311068	
0.0704474	-0.495012	0.0718449	
0	-0.5	0	
0	-0.5	0.1	
0.0404524	-0.41072	0	
0.242026	0.154212	0.5	
0.153817	0.120272	0.5	
0.177987	0.183818	0.5	
0.225245	0.18886	0.408136	
-0.238308	0.160613	0.208202	
-0.182431	0.271961	0.232942	
-0.277293	0.260919	0.267415	
-0.206936	0.196576	0.295071	
-0.0555676	0.325574	0	
-0.0372406	0.417791	0	
-0.118932	0.39861	0	
-0.0714313	0.379857	0.110067	
-0.401548	-0.0423374	0	
-0.5	0	0.1	
-0.5	0	0	
-0.494668	-0.0728232	0.0735406	
0.0654282	0.0836605	0.5	
-0.0283081	0.0695318	0.5	
0.00344957	0.138123	0.5	
0.0390655	0.0525248	0.401715	
-0.335163	0.274889	0.5	
-0.295892	0.334394	0.5	
-0.270646	0.274141	0.5	
-0.276891	0.277667	0.386451	
-0.389036	0.207425	0	
-0.46194	0.191342	0	
-0.404541	0.126945	0	
-0.478516	0.14499	0.0762896	
0.268393	-0.334301	0	
0.235698	-0.440961	0.0686036	
0.277785	-0.415735	0	
0.317131	-0.386559	0.0881616	
-0.263582	-0.319413	0	
-0.168688	-0.281701	0	
-0.261345	-0.230036	0	
-0.28242	-0.274225	0.0937223	
-0.386476	-0.317233	0.409527	
-0.350907	-0.296683	0.5	
-0.317197	-0.386505	0.431175	
-0.266966	-0.299163	0.400443	
-0.048473	-0.0328568	0	
0.0209546	0.0362755	0	
-0.0734441	0.0616893	0	
-0.0383015	0.0232581	0.102769	
-0.0572576	0.185752	0.5	
-0.0206459	0.274141	0.5	
0.0177914	0.213039	0.5	
0.0163452	0.25475	0.392302	
-0.373696	0.332191	0.334057	
-0.317163	0.386533	0.299742	
-0.31678	0.386847	0.395869	
-0.276891	0.277667	0.386451	
0	-0.5	0.3	
0.0853821	-0.492656	0.251348	
0	-0.5	0.2	
-0.0131258	-0.386662	0.266725	
0.478516	-0.14499	0.0762896	
0.380207	-0.19708	0	
0.46194	-0.191342	0	
0.436811	-0.243302	0.0936268	
0.0728232	0.494668	0.426459	
0.0814864	0.493315	0.347681	
0.146853	0.477948	0.415992	
0.0804661	0.372171	0.377993	
0.108407	0.0140815	0.5	
0.0752678	-0.0423877	0.407707	
0.0288165	-0.00472784	0.5	
0.0390655	0.0525248	0.401715	
-0.00141651	-0.344659	0.156164	
0.12931	-0.356487	0.143012	
0.0667279	-0.268271	0.107506	
0.0675207	-0.289808	0.212123	
0.46194	0.191342	0.5	
0.388496	0.195371	0.5	
0.439458	0.238488	0.424308	
0.476114	0.152694	0.40246	
0.242822	0.437078	0.152991	
0.247057	0.434698	0.250499	
0.168734	0.470668	0.201781	
0.173765	0.338831	0.233339	
0.428196	-0.0462647	0.5	
0.415496	-0.123332	0.5	
0.338823	-0.0848934	0.5	
0.389379	-0.0521535	0.3951	
-0.404541	0.126945	0	
-0.337562	0.0547633	0	
-0.328307	0.16356	0	
-0.391093	0.0790791	0.0957818	
-0.238308	0.160613	0.208202	
-0.126488	0.187375	0.237913	
-0.182431	0.271961	0.232942	
-0.206936	0.196576	0.295071	
0.460762	-0.19416	0.234059	
0.428104	-0.258315	0.196896	
0.429476	-0.256028	0.291579	
0.368159	-0.173753	0.197234	
0.0559726	-0.437061	0.5	
0	-0.5	0.4	
0	-0.5	0.5	
-0.0324158	-0.400449	0.5	
-0.436811	0.243302	0.0936268	
-0.389036	0.207425	0	
-0.415735	0.277785	0	
-0.385896	0.317937	0.065638	
0.108407	0.0140815	0.5	
0.0390655	0.0525248	0.401715	
0.0654282	0.0836605	0.5	
0.14023	0.0298174	0.409574	
-0.228923	-0.22221	0.5	
-0.179346	-0.240708	0.39897	
-0.174131	-0.296683	0.5	
-0.266966	-0.299163	0.400443	
-0.0372406	0.417791	0	
0	0.5	0.1	
0	0.5	0	
-0.0704474	0.495012	0.0718449	
-0.174131	-0.296683	0.5	
-0.207198	-0.382494	0.5	
-0.262519	-0.333294	0.5	
-0.172877	-0.358629	0.40341	
-0.328716	-0.376757	0.253532	
-0.386498	-0.317206	0.200322	
-0.386792	-0.316847	0.301384	
-0.326617	-0.238576	0.253202	
-0.0714313	0.379857	0.110067	
-0.0255811	0.276919	0.0997551	
-0.0927404	0.290183	0.18898	
-0.13617	0.283588	0.0953011	
-0.495208	0.0690617	0.0692099	
-0.426463	0.0441363	0	
-0.490393	0.0975452	0	
-0.404541	0.126945	0	
0.174678	0.468495	0.317109	
0.0854243	0.492649	0.251403	
0.168734	0.470668	0.201781	
0.0772326	0.384839	0.269201	
0.242822	0.437078	0.152991	
0.168734	0.470668	0.201781	
0.153328	0.47591	0.0923699	
0.167266	0.351716	0.112308	
-0.328716	-0.376757	0.253532	
-0.331632	-0.374193	0.165357	
-0.386498	-0.317206	0.200322	
-0.253565	-0.305449	0.208948	
0.276476	0.0535537	0	
0.346509	0.0237889	0	
0.337634	0.115561	0	
0.278081	0.0866882	0.0962345	
0.235698	-0.440961	0.0686036	
0.2429	-0.437035	0.152631	
0.317131	-0.386559	0.0881616	
0.23319	-0.305698	0.109456	
0.0975452	0.490393	0	
0.153328	0.47591	0.0923699	
0.0704482	0.495012	0.0718447	
0.114055	0.374109	0	
-0.350907	-0.119906	0.5	
-0.307929	-0.189485	0.5	
-0.387519	-0.208294	0.5	
-0.340496	-0.224073	0.407589	
0.0943468	-0.245334	0	
0.00183684	-0.222331	0	
0.0248177	-0.313374	0	
0.0667279	-0.268271	0.107506	
0.470916	0.168043	0.300126	
0.460548	0.194667	0.23433	
0.490343	0.0977967	0.241226	
0.364988	0.109735	0.263774	
0.242205	-0.0931162	0.5	
0.187412	-0.0186436	0.5	
0.278817	-0.00472784	0.5	
0.29269	-0.0648902	0.412739	
0.3168	0.386831	0.395903	
0.374193	0.331632	0.334643	
0.388274	0.315029	0.420807	
0.294218	0.260673	0.410718	
-0.400468	0.0439116	0.5	
-0.316581	0.126747	0.5	
-0.294862	0.0237806	0.5	
-0.374071	0.0973353	0.396281	
-0.434698	-0.247057	0.249501	
-0.437078	-0.242822	0.347009	
-0.386792	-0.316847	0.301384	
-0.326617	-0.238576	0.253202	
0.191342	-0.46194	0.5	
0.228959	-0.444497	0.408094	
0.144361	-0.400449	0.5	
0.213029	-0.381729	0.5	
-0.0430682	0.437279	0.5	
0	0.5	0.4	
0	0.5	0.5	
0.0367592	0.441595	0.5	
-0.46194	0.191342	0	
-0.389036	0.207425	0	
-0.436811	0.243302	0.0936268	
-0.478516	0.14499	0.0762896	
-0.0977967	-0.490343	0.258774	
0	-0.5	0.3	
0	-0.5	0.2	
-0.0131258	-0.386662	0.266725	
-0.11205	0.260225	0.5	
-0.0206459	0.274141	0.5	
-0.0572576	0.185752	0.5	
-0.0919101	0.279835	0.40279	
-0.278713	-0.14304	0	
-0.211369	-0.0761151	0	
-0.302044	-0.0506462	0	
-0.275077	-0.119224	0.102748	
0.0807376	-0.493438	0.154216	
0.0853821	-0.492656	0.251348	
0.16873	-0.47067	0.201799	
0.0955273	-0.385908	0.250582	
0.495293	0.0684459	0.0685965	
0.414183	0.131147	0	
0.490393	0.0975452	0	
0.414991	0.0495125	0	
-0.0555676	0.325574	0	
-0.138674	0.323797	0	
-0.119993	0.246691	0	
-0.13617	0.283588	0.0953011	
0.234372	0.286063	0.5	
0.294218	0.260673	0.410718	
0.266375	0.22043	0.5	
0.225245	0.18886	0.408136	
0.16873	-0.47067	0.201799	
0.2429	-0.437035	0.152631	
0.153329	-0.47591	0.0923815	
0.12931	-0.356487	0.143012	
0.177987	0.183818	0.5	
0.164071	0.275222	0.5	
0.234372	0.286063	0.5	
0.225245	0.18886	0.408136	
0.130037	-0.0606882	0.5	
0.0752678	-0.0423877	0.407707	
0.108407	0.0140815	0.5	
0.14023	0.0298174	0.409574	
-0.315029	-0.388274	0.0791933	
-0.263582	-0.319413	0	
-0.353553	-0.353553	0	
-0.28242	-0.274225	0.0937223	
-0.168043	-0.470916	0.199874	
-0.0977967	-0.490343	0.258774	
-0.0833019	-0.493012	0.155211	
-0.106158	-0.374353	0.19291	
-0.277785	-0.415735	0.5	
-0.243391	-0.436762	0.403062	
-0.317197	-0.386505	0.431175	
-0.207198	-0.382494	0.5	
-0.323938	-0.380873	0.347739	
-0.317197	-0.386505	0.431175	
-0.243391	-0.436762	0.403062	
-0.266966	-0.299163	0.400443	
-0.145646	0.399141	0.5	
-0.122891	0.330526	0.5	
-0.234034	0.362529	0.5	
-0.138443	0.369144	0.39287	
0.201164	-0.273578	0	
0.194604	-0.371188	0	
0.268393	-0.334301	0	
0.23319	-0.305698	0.109456	
-0.239764	-0.151909	0.5	
-0.174131	-0.119906	0.5	
-0.137519	-0.208294	0.5	
-0.179346	-0.240708	0.39897	
-0.0341142	0.113867	0.250814	
-0.10547	0.0480539	0.280485	
-0.032045	0.00109893	0.228452	
0.000906282	0.043941	0.311068	
-0.426463	0.0441363	0	
-0.5	0	0	
-0.5	0	0.1	
-0.495208	0.0690617	0.0692099	
-0.128733	-0.391758	0.5	
-0.174131	-0.296683	0.5	
-0.0690274	-0.312061	0.5	
-0.172877	-0.358629	0.40341	
-0.00743541	-0.147874	0.5	
0.0559726	-0.187061	0.5	
-0.0324158	-0.223672	0.5	
0.0330605	-0.234493	0.398486	
0.247868	0.146306	0	
0.184962	0.0799289	0	
0.276476	0.0535537	0	
0.278081	0.0866882	0.0962345	
-0.203684	-0.312652	0.313888	
-0.179346	-0.240708	0.39897	
-0.267316	-0.203168	0.336848	
-0.266966	-0.299163	0.400443	
0.0704482	0.495012	0.0718447	
0	0.5	0.1	
0	0.5	0	
0.0420691	0.427134	0	
0.176571	0.0516571	0.5	
0.108407	0.0140815	0.5	
0.0654282	0.0836605	0.5	
0.14023	0.0298174	0.409574	
0.0854243	0.492649	0.251403	
0.174678	0.468495	0.317109	
0.0814864	0.493315	0.347681	
0.0772326	0.384839	0.269201	
-0.243391	-0.436762	0.403062	
-0.191342	-0.46194	0.5	
-0.144862	-0.478555	0.421652	
-0.172877	-0.358629	0.40341	
-0.228959	0.444497	0.408094	
-0.147585	0.477722	0.416442	
-0.145646	0.399141	0.5	
-0.138443	0.369144	0.39287	
0.380207	-0.19708	0	
0.46194	-0.191342	0	
0.394936	-0.119803	0	
0.478516	-0.14499	0.0762896	
-0.477948	-0.146853	0.0840084	
-0.494668	-0.0728232	0.0735406	
-0.493315	-0.0814864	0.152319	
-0.374595	-0.0873247	0.117455	
0.0895983	0.22043	0.5	
0.0177914	0.213039	0.5	
0.0529867	0.308818	0.5	
0.0163452	0.25475	0.392302	
-0.174131	-0.296683	0.5	
-0.266966	-0.299163	0.400443	
-0.179346	-0.240708	0.39897	
-0.172877	-0.358629	0.40341	
0.132706	0.223572	0.389729	
0.22095	0.291034	0.346604	
0.225245	0.18886	0.408136	
0.222637	0.199452	0.310281	
0.0903521	0.10545	0	
-0.00425413	0.131001	0	
0.0209546	0.0362755	0	
0.04259	0.0957748	0.0972509	
0.436811	-0.243302	0.0936268	
0.428104	-0.258315	0.196896	
0.469621	-0.171627	0.160116	
0.368159	-0.173753	0.197234	
-0.032045	0.00109893	0.228452	
-0.10547	0.0480539	0.280485	
-0.0646627	-0.0272093	0.335016	
0.000906282	0.043941	0.311068	
0.368263	0.0160059	0.5	
0.428196	-0.0462647	0.5	
0.338823	-0.0848934	0.5	
0.389379	-0.0521535	0.3951	
-0.353553	-0.353553	0	
-0.386831	-0.3168	0.104097	
-0.315029	-0.388274	0.0791933	
-0.28242	-0.274225	0.0937223	
0.0153159	0.363557	0	
-0.0555676	0.325574	0	
0.0401436	0.291204	0	
-0.0255811	0.276919	0.0997551	
-0.228923	-0.22221	0.5	
-0.174131	-0.296683	0.5	
-0.286299	-0.264255	0.5	
-0.266966	-0.299163	0.400443	
-0.114467	-0.386332	0	
-0.0975452	-0.490393	0	
-0.0422582	-0.437473	0	
-0.0698189	-0.495101	0.0723791	
0.388345	-0.314941	0.420199	
0.416747	-0.276265	0.362548	
0.373696	-0.332191	0.334057	
0.307193	-0.244124	0.374573	
-0.128733	-0.391758	0.5	
-0.0975452	-0.490393	0.5	
-0.0684459	-0.495293	0.431403	
-0.0324158	-0.400449	0.5	
0.082983	-0.493066	0.348347	
0	-0.5	0.4	
0.0690566	-0.495208	0.430964	
0.0372725	-0.390151	0.392733	
0.242205	-0.0931162	0.5	
0.212642	-0.171195	0.5	
0.153817	-0.129728	0.5	
0.24114	-0.149085	0.404027	
-0.478516	0.14499	0.0762896	
-0.469621	0.171627	0.160116	
-0.493378	0.0811073	0.146993	
-0.391093	0.0790791	0.0957818	
-0.286299	-0.264255	0.5	
-0.350907	-0.296683	0.5	
-0.340496	-0.224073	0.407589	
-0.266966	-0.299163	0.400443	
-0.328716	-0.376757	0.253532	
-0.257824	-0.4284	0.204976	
-0.331632	-0.374193	0.165357	
-0.253565	-0.305449	0.208948	
0.187412	-0.0186436	0.5	
0.130037	-0.0606882	0.5	
0.108407	0.0140815	0.5	
0.14023	0.0298174	0.409574	
-0.144862	-0.478555	0.421652	
-0.128733	-0.391758	0.5	
-0.0975452	-0.490393	0.5	
-0.0684459	-0.495293	0.431403	
0.114055	0.374109	0	
0.189613	0.313662	0	
0.202324	0.378521	0	
0.167266	0.351716	0.112308	
-0.0698189	-0.495101	0.0723791	
0	-0.5	0.1	
-0.0422582	-0.437473	0	
-0.0438792	-0.403194	0.0910547	
0.5	0	0.5	
0.5	0	0.4	
0.495102	-0.0698146	0.4276	
0.428196	-0.0462647	0.5	
-0.386498	-0.317206	0.200322	
-0.429146	-0.25658	0.16876	
-0.434698	-0.247057	0.249501	
-0.326617	-0.238576	0.253202	
0.242205	0.0836605	0.5	
0.324205	0.0779192	0.5	
0.278817	-0.00472784	0.5	
0.240261	0.0350229	0.402836	
-0.0927404	0.290183	0.18898	
-0.182431	0.271961	0.232942	
-0.126488	0.187375	0.237913	
-0.0867488	0.283314	0.2887	
0.234372	0.286063	0.5	
0.266375	0.22043	0.5	
0.177987	0.183818	0.5	
0.225245	0.18886	0.408136	
-0.495208	0.0690617	0.0692099	
-0.404541	0.126945	0	
-0.478516	0.14499	0.0762896	
-0.391093	0.0790791	0.0957818	
0.399086	0.112543	0.5	
0.368263	0.0160059	0.5	
0.324205	0.0779192	0.5	
0.362397	0.0936058	0.39874	
-0.302044	-0.0506462	0	
-0.344127	-0.112227	0	
-0.278713	-0.14304	0	
-0.275077	-0.119224	0.102748	
0.0248177	-0.313374	0	
0.112799	-0.33356	0	
0.0943468	-0.245334	0	
0.0667279	-0.268271	0.107506	
0.495208	-0.0690617	0.0692099	
0.493378	-0.0811073	0.146993	
0.5	0	0.1	
0.400931	-0.00647911	0.10587	
0.493389	0.0810399	0.14715	
0.478555	0.144862	0.0783483	
0.495293	0.0684459	0.0685965	
0.382697	0.0900146	0.0901371	
-0.118932	0.39861	0	
-0.0372406	0.417791	0	
-0.0975452	0.490393	0	
-0.0704474	0.495012	0.0718449	
0.394936	-0.119803	0	
0.495208	-0.0690617	0.0692099	
0.490393	-0.0975452	0	
0.409478	-0.032947	0	
-0.0328721	-0.370689	0	
-0.0422582	-0.437473	0	
0.0404524	-0.41072	0	
-0.0438792	-0.403194	0.0910547	
0.177987	0.183818	0.5	
0.0897768	0.149878	0.5	
0.0895983	0.22043	0.5	
0.132706	0.223572	0.389729	
-0.0698189	-0.495101	0.0723791	
-0.114467	-0.386332	0	
-0.0975452	-0.490393	0	
-0.152694	-0.476114	0.0975404	
0.5	0	0.4	
0.493012	-0.0833019	0.344789	
0.495102	-0.0698146	0.4276	
0.389379	-0.0521535	0.3951	
0.0654282	0.0836605	0.5	
0.153817	0.120272	0.5	
0.176571	0.0516571	0.5	
0.14023	0.0298174	0.409574	
-0.176182	0.282501	0.333733	
-0.277293	0.260919	0.267415	
-0.182431	0.271961	0.232942	
-0.206936	0.196576	0.295071	
0.324205	0.0779192	0.5	
0.315521	0.155675	0.5	
0.399086	0.112543	0.5	
0.362397	0.0936058	0.39874	
-0.262519	-0.333294	0.5	
-0.286299	-0.264255	0.5	
-0.174131	-0.296683	0.5	
-0.266966	-0.299163	0.400443	
0.493012	-0.0833019	0.344789	
0.476132	-0.152637	0.402329	
0.495102	-0.0698146	0.4276	
0.389379	-0.0521535	0.3951	
-0.176182	0.282501	0.333733	
-0.182431	0.271961	0.232942	
-0.13916	0.369653	0.26307	
-0.0867488	0.283314	0.2887	
0.414183	0.131147	0	
0.490393	0.0975452	0	
0.478555	0.144862	0.0783483	
0.495293	0.0684459	0.0685965	
0.0955515	0.0190038	0.323994	
0.0390655	0.0525248	0.401715	
0.0752678	-0.0423877	0.407707	
0.14023	0.0298174	0.409574	
-0.0807376	0.493438	0.154216	
-0.153329	0.47591	0.0923815	
-0.0704474	0.495012	0.0718449	
-0.0714313	0.379857	0.110067	
-0.335163	0.274889	0.5	
-0.388345	0.314941	0.420199	
-0.353553	0.353553	0.5	
-0.295892	0.334394	0.5	
0.228959	-0.444497	0.408094	
0.144361	-0.400449	0.5	
0.147585	-0.477722	0.416442	
0.191342	-0.46194	0.5	
-0.493012	0.0833019	0.344789	
-0.476132	0.152637	0.402329	
-0.495102	0.0698146	0.4276	
-0.374071	0.0973353	0.396281	
-0.386831	-0.3168	0.104097	
-0.331632	-0.374193	0.165357	
-0.315029	-0.388274	0.0791933	
-0.28242	-0.274225	0.0937223	
0.346509	0.0237889	0	
0.409478	-0.032947	0	
0.414991	0.0495125	0	
0.400931	-0.00647911	0.10587	
0.176571	0.0516571	0.5	
0.240261	0.0350229	0.402836	
0.187412	-0.0186436	0.5	
0.14023	0.0298174	0.409574	
-0.294862	0.0237806	0.5	
-0.221565	0.0908555	0.5	
-0.209059	-0.00395244	0.5	
-0.261609	0.0749827	0.393802	
-0.147585	0.477722	0.416442	
-0.228959	0.444497	0.408094	
-0.174738	0.468473	0.317184	
-0.138443	0.369144	0.39287	
0.284773	-0.165822	0.5	
0.24114	-0.149085	0.404027	
0.242205	-0.0931162	0.5	
0.29269	-0.0648902	0.412739	
0.368263	0.0160059	0.5	
0.338823	-0.0848934	0.5	
0.278817	-0.00472784	0.5	
0.29269	-0.0648902	0.412739	
-0.0206459	0.274141	0.5	
-0.122891	0.330526	0.5	
-0.0572576	0.362529	0.5	
-0.0919101	0.279835	0.40279	
0.0895983	0.397206	0.5	
0.0728232	0.494668	0.426459	
0.0975452	0.490393	0.5	
0.146853	0.477948	0.415992	
-0.0206459	0.274141	0.5	
-0.11205	0.260225	0.5	
-0.122891	0.330526	0.5	
-0.0919101	0.279835	0.40279	
-0.31678	0.386847	0.395869	
-0.353553	0.353553	0.5	
-0.388345	0.314941	0.420199	
-0.295892	0.334394	0.5	
-0.495012	-0.0704482	0.428155	
-0.5	0	0.4	
-0.5	0	0.5	
-0.42782	-0.0498056	0.5	
-0.490393	0.0975452	0	
-0.495208	0.0690617	0.0692099	
-0.404541	0.126945	0	
-0.478516	0.14499	0.0762896	
0.210156	-0.0147965	0	
0.232997	-0.11062	0	
0.314271	-0.0501881	0	
0.257685	-0.0506834	0.101558	
-0.0975452	0.490393	0	
-0.118932	0.39861	0	
-0.0704474	0.495012	0.0718449	
-0.153329	0.47591	0.0923815	
-0.0572576	0.362529	0.5	
-0.122891	0.330526	0.5	
-0.145646	0.399141	0.5	
-0.138443	0.369144	0.39287	
0.490393	-0.0975452	0	
0.495208	-0.0690617	0.0692099	
0.394936	-0.119803	0	
0.478516	-0.14499	0.0762896	
0.0975452	-0.490393	0.5	
0.0559726	-0.437061	0.5	
0.144361	-0.400449	0.5	
0.147585	-0.477722	0.416442	
0.242822	0.437078	0.152991	
0.153328	0.47591	0.0923699	
0.235698	0.440961	0.068569	
0.167266	0.351716	0.112308	
-0.262519	-0.333294	0.5	
-0.350907	-0.296683	0.5	
-0.286299	-0.264255	0.5	
-0.266966	-0.299163	0.400443	
-0.0840299	-0.136867	0.5	
-0.120671	-0.0405641	0.5	
-0.0293436	-0.0762152	0.5	
-0.112364	-0.0877996	0.406457	
0.0559726	-0.437061	0.5	
-0.0324158	-0.400449	0.5	
0.0420567	-0.345657	0.5	
0.0372725	-0.390151	0.392733	
-0.179346	-0.240708	0.39897	
-0.266966	-0.299163	0.400443	
-0.203684	-0.312652	0.313888	
-0.172877	-0.358629	0.40341	
-0.0833019	-0.493012	0.155211	
-0.0698189	-0.495101	0.0723791	
-0.152694	-0.476114	0.0975404	
-0.0438792	-0.403194	0.0910547	
0.495101	0.0698189	0.427621	
0.399086	0.112543	0.5	
0.490393	0.0975452	0.5	
0.476114	0.152694	0.40246	
-0.0422582	-0.437473	0	
0	-0.5	0	
0	-0.5	0.1	
-0.0698189	-0.495101	0.0723791	
-0.5	0	0.3	
-0.5	0	0.2	
-0.490316	0.0979281	0.24092	
-0.401703	-0.00567907	0.249917	
-0.0853821	0.492656	0.251348	
-0.174738	0.468473	0.317184	
-0.16873	0.47067	0.201799	
-0.13916	0.369653	0.26307	
-0.316581	0.126747	0.5	
-0.400468	0.0439116	0.5	
-0.408839	0.131788	0.5	
-0.374071	0.0973353	0.396281	
0.125573	-0.41396	0	
0.0975452	-0.490393	0	
0.0704474	-0.495012	0.0718449	
0.0404524	-0.41072	0	
-0.262519	-0.333294	0.5	
-0.317197	-0.386505	0.431175	
-0.353553	-0.353553	0.5	
-0.350907	-0.296683	0.5	
-0.400468	0.0439116	0.5	
-0.495102	0.0698146	0.4276	
-0.490393	0.0975452	0.5	
-0.408839	0.131788	0.5	
-0.0927404	0.290183	0.18898	
-0.13916	0.369653	0.26307	
-0.182431	0.271961	0.232942	
-0.0867488	0.283314	0.2887	
-0.138674	0.323797	0	
-0.214341	0.273759	0	
-0.119993	0.246691	0	
-0.13617	0.283588	0.0953011	
0	-0.5	0.5	
0	-0.5	0.4	
0.0559726	-0.437061	0.5	
0.0690566	-0.495208	0.430964	
0.0559726	-0.437061	0.5	
0.0975452	-0.490393	0.5	
0.0690566	-0.495208	0.430964	
0.147585	-0.477722	0.416442	
0.302987	0.308818	0.5	
0.388274	0.315029	0.420807	
0.342318	0.251665	0.5	
0.294218	0.260673	0.410718	
-0.294862	0.0237806	0.5	
-0.316581	0.126747	0.5	
-0.221565	0.0908555	0.5	
-0.261609	0.0749827	0.393802	
-0.495102	0.0698146	0.4276	
-0.476132	0.152637	0.402329	
-0.490393	0.0975452	0.5	
-0.408839	0.131788	0.5	
0.3168	0.386831	0.395903	
0.353553	0.353553	0.5	
0.302987	0.308818	0.5	
0.388274	0.315029	0.420807	
0.0853821	-0.492656	0.251348	
0.174738	-0.468473	0.317184	
0.16873	-0.47067	0.201799	
0.0955273	-0.385908	0.250582	
0.388496	0.195371	0.5	
0.342318	0.251665	0.5	
0.415735	0.277785	0.5	
0.439458	0.238488	0.424308	
0.439458	0.238488	0.424308	
0.342318	0.251665	0.5	
0.415735	0.277785	0.5	
0.388274	0.315029	0.420807	
0.346509	0.0237889	0	
0.414991	0.0495125	0	
0.337634	0.115561	0	
0.382697	0.0900146	0.0901371	
-0.16873	0.47067	0.201799	
-0.174738	0.468473	0.317184	
-0.247023	0.434718	0.250558	
-0.13916	0.369653	0.26307	
-0.415735	-0.277785	0.5	
-0.350907	-0.296683	0.5	
-0.386476	-0.317233	0.409527	
-0.340496	-0.224073	0.407589	
0.0559726	-0.187061	0.5	
0.0747819	-0.266651	0.5	
1.21767e-05	-0.288281	0.5	
0.0330605	-0.234493	0.398486	
0.5	0	0.5	
0.5	0	0.4	
0.439467	0.0432837	0.5	
0.495101	0.0698189	0.427621	
-0.41072	-0.12459	0	
-0.401548	-0.0423374	0	
-0.490393	-0.0975452	0	
-0.494668	-0.0728232	0.0735406	
0.0728232	0.494668	0.426459	
0.0975452	0.490393	0.5	
0.0367592	0.441595	0.5	
0.0895983	0.397206	0.5	
-0.373696	0.332191	0.334057	
-0.31678	0.386847	0.395869	
-0.388345	0.314941	0.420199	
-0.276891	0.277667	0.386451	
-0.234034	0.185752	0.5	
-0.169426	0.21818	0.5	
-0.145646	0.149141	0.5	
-0.201617	0.192684	0.393966	
-0.0295403	0.225144	0	
0.0401436	0.291204	0	
-0.0555676	0.325574	0	
-0.0255811	0.276919	0.0997551	
0.0895983	0.22043	0.5	
0.164071	0.275222	0.5	
0.177987	0.183818	0.5	
0.132706	0.223572	0.389729	
-0.171353	-0.469721	0.338334	
-0.243391	-0.436762	0.403062	
-0.144862	-0.478555	0.421652	
-0.172877	-0.358629	0.40341	
-0.0206459	0.274141	0.5	
0.0529867	0.308818	0.5	
0.0177914	0.213039	0.5	
0.0163452	0.25475	0.392302	
0.439467	0.0432837	0.5	
0.399086	0.112543	0.5	
0.490393	0.0975452	0.5	
0.495101	0.0698189	0.427621	
0.353553	0.353553	0	
0.277785	0.415735	0	
0.261819	0.319027	0	
0.317233	0.386476	0.0904728	
0.0712814	-0.153152	0	
0.0943468	-0.245334	0	
0.164797	-0.177585	0	
0.105136	-0.172994	0.0956717	
0.414183	0.131147	0	
0.337634	0.115561	0	
0.414991	0.0495125	0	
0.382697	0.0900146	0.0901371	
-0.277785	0.415735	0.5	
-0.31678	0.386847	0.395869	
-0.234034	0.362529	0.5	
-0.295892	0.334394	0.5	
-0.440961	-0.235698	0.431431	
-0.415735	-0.277785	0.5	
-0.386476	-0.317233	0.409527	
-0.340496	-0.224073	0.407589	
-0.41072	-0.12459	0	
-0.490393	-0.0975452	0	
-0.477948	-0.146853	0.0840084	
-0.494668	-0.0728232	0.0735406	
0.373696	-0.332191	0.334057	
0.317163	-0.386533	0.299742	
0.31678	-0.386847	0.395869	
0.251456	-0.316364	0.331038	
0.0367592	0.441595	0.5	
0	0.5	0.4	
0	0.5	0.5	
0.0728232	0.494668	0.426459	
-0.277785	0.415735	0.5	
-0.31678	0.386847	0.395869	
-0.228959	0.444497	0.408094	
-0.234034	0.362529	0.5	
-0.145646	0.399141	0.5	
-0.191342	0.46194	0.5	
-0.147585	0.477722	0.416442	
-0.228959	0.444497	0.408094	
-0.444481	-0.228991	0.0919014	
-0.415735	-0.277785	0	
-0.46194	-0.191342	0	
-0.356684	-0.19351	0	
0.153328	0.47591	0.0923699	
0.0975452	0.490393	0	
0.191342	0.46194	0	
0.114055	0.374109	0	
-0.114467	-0.386332	0	
-0.191342	-0.46194	0	
-0.0975452	-0.490393	0	
-0.152694	-0.476114	0.0975404	
0.278817	-0.00472784	0.5	
0.187412	-0.0186436	0.5	
0.176571	0.0516571	0.5	
0.240261	0.0350229	0.402836	
-0.145646	0.399141	0.5	
-0.191342	0.46194	0.5	
-0.228959	0.444497	0.408094	
-0.234034	0.362529	0.5	
0.247868	0.146306	0	
0.276476	0.0535537	0	
0.337634	0.115561	0	
0.278081	0.0866882	0.0962345	
0.0654282	0.0836605	0.5	
0.108407	0.0140815	0.5	
0.0288165	-0.00472784	0.5	
0.0390655	0.0525248	0.401715	
0.228991	0.444481	0.408099	
0.177987	0.433818	0.5	
0.196796	0.354228	0.5	
0.266375	0.397206	0.5	
0.130037	-0.0606882	0.5	
0.0288165	-0.00472784	0.5	
0.108407	0.0140815	0.5	
0.0752678	-0.0423877	0.407707	
0.490393	-0.0975452	0.5	
0.476132	-0.152637	0.402329	
0.415496	-0.123332	0.5	
0.495102	-0.0698146	0.4276	
0.0704474	-0.495012	0.0718449	
0.153329	-0.47591	0.0923815	
0.0975452	-0.490393	0	
0.125573	-0.41396	0	
-0.386476	-0.317233	0.409527	
-0.317197	-0.386505	0.431175	
-0.323938	-0.380873	0.347739	
-0.266966	-0.299163	0.400443	
-0.307929	-0.189485	0.5	
-0.286299	-0.264255	0.5	
-0.387519	-0.208294	0.5	
-0.340496	-0.224073	0.407589	
-0.386498	-0.317206	0.200322	
-0.434698	-0.247057	0.249501	
-0.386792	-0.316847	0.301384	
-0.326617	-0.238576	0.253202	
0.415496	-0.123332	0.5	
0.490393	-0.0975452	0.5	
0.495102	-0.0698146	0.4276	
0.428196	-0.0462647	0.5	
0.353553	-0.353553	0.5	
0.267645	-0.326424	0.5	
0.31678	-0.386847	0.395869	
0.277785	-0.415735	0.5	
-0.118932	0.39861	0	
-0.0975452	0.490393	0	
-0.191342	0.46194	0	
-0.153329	0.47591	0.0923815	
0.0975452	0.490393	0.5	
0.177987	0.433818	0.5	
0.0895983	0.397206	0.5	
0.146853	0.477948	0.415992	
-0.425264	-0.131997	0.5	
-0.495012	-0.0704482	0.428155	
-0.490393	-0.0975452	0.5	
-0.42782	-0.0498056	0.5	
-0.128733	-0.391758	0.5	
-0.207198	-0.382494	0.5	
-0.174131	-0.296683	0.5	
-0.172877	-0.358629	0.40341	
-0.387519	-0.208294	0.5	
-0.350907	-0.296683	0.5	
-0.415735	-0.277785	0.5	
-0.340496	-0.224073	0.407589	
0.338823	-0.0848934	0.5	
0.284773	-0.165822	0.5	
0.242205	-0.0931162	0.5	
0.29269	-0.0648902	0.412739	
-0.495208	0.0690617	0.0692099	
-0.478516	0.14499	0.0762896	
-0.493378	0.0811073	0.146993	
-0.391093	0.0790791	0.0957818	
-0.0833019	-0.493012	0.155211	
0	-0.5	0.1	
-0.0698189	-0.495101	0.0723791	
-0.0438792	-0.403194	0.0910547	
-0.404541	0.126945	0	
-0.426463	0.0441363	0	
-0.337562	0.0547633	0	
-0.391093	0.0790791	0.0957818	
0.46194	0.191342	0	
0.415735	0.277785	0	
0.373926	0.198925	0	
0.436762	0.243391	0.0969381	
0.256554	-0.429162	0.331268	
0.31678	-0.386847	0.395869	
0.317163	-0.386533	0.299742	
0.251456	-0.316364	0.331038	
0	0.5	0.5	
0	0.5	0.4	
-0.0430682	0.437279	0.5	
-0.0690566	0.495208	0.430964	
0.0654282	0.0836605	0.5	
0.0288165	-0.00472784	0.5	
-0.0283081	0.0695318	0.5	
0.0390655	0.0525248	0.401715	
0.399086	0.112543	0.5	
0.46194	0.191342	0.5	
0.490393	0.0975452	0.5	
0.476114	0.152694	0.40246	
-0.331361	-0.272953	0	
-0.415735	-0.277785	0	
-0.353553	-0.353553	0	
-0.386831	-0.3168	0.104097	
-0.353553	-0.353553	0.5	
-0.317197	-0.386505	0.431175	
-0.386476	-0.317233	0.409527	
-0.350907	-0.296683	0.5	
0.302987	0.308818	0.5	
0.353553	0.353553	0.5	
0.3168	0.386831	0.395903	
0.266375	0.397206	0.5	
0.278817	-0.00472784	0.5	
0.176571	0.0516571	0.5	
0.242205	0.0836605	0.5	
0.240261	0.0350229	0.402836	
-0.0422582	-0.437473	0	
-0.0328721	-0.370689	0	
-0.114467	-0.386332	0	
-0.0438792	-0.403194	0.0910547	
-0.387519	-0.208294	0.5	
-0.415735	-0.277785	0.5	
-0.440961	-0.235698	0.431431	
-0.340496	-0.224073	0.407589	
0.0288165	-0.00472784	0.5	
0.130037	-0.0606882	0.5	
0.0654282	-0.0931162	0.5	
0.0752678	-0.0423877	0.407707	
-0.286299	-0.264255	0.5	
-0.350907	-0.296683	0.5	
-0.387519	-0.208294	0.5	
-0.340496	-0.224073	0.407589	
1.21767e-05	-0.288281	0.5	
-0.0324158	-0.223672	0.5	
0.0559726	-0.187061	0.5	
0.0330605	-0.234493	0.398486	
0.232997	-0.11062	0	
0.164797	-0.177585	0	
0.245477	-0.191651	0	
0.20832	-0.16636	0.0943059	
-0.440961	-0.235698	0.431431	
-0.386476	-0.317233	0.409527	
-0.437078	-0.242822	0.347009	
-0.340496	-0.224073	0.407589	
0.5	0	0	
0.490393	-0.0975452	0	
0.495208	-0.0690617	0.0692099	
0.409478	-0.032947	0	
0.380207	-0.19708	0	
0.415735	-0.277785	0	
0.46194	-0.191342	0	
0.436811	-0.243302	0.0936268	
0.415496	-0.123332	0.5	
0.46194	-0.191342	0.5	
0.476132	-0.152637	0.402329	
0.490393	-0.0975452	0.5	
-0.46194	0.191342	0.5	
-0.490393	0.0975452	0.5	
-0.476132	0.152637	0.402329	
-0.408839	0.131788	0.5	
-0.490393	-0.0975452	0.5	
-0.495012	-0.0704482	0.428155	
-0.425264	-0.131997	0.5	
-0.47591	-0.153328	0.40763	
-0.5	0	0	
-0.490393	-0.0975452	0	
-0.401548	-0.0423374	0	
-0.494668	-0.0728232	0.0735406	
-0.263582	-0.319413	0	
-0.261345	-0.230036	0	
-0.331361	-0.272953	0	
-0.28242	-0.274225	0.0937223	
0.144361	-0.400449	0.5	
0.0975452	-0.490393	0.5	
0.147585	-0.477722	0.416442	
0.191342	-0.46194	0.5	
0.108407	0.0140815	0.5	
0.176571	0.0516571	0.5	
0.187412	-0.0186436	0.5	
0.14023	0.0298174	0.409574	
0.153329	-0.47591	0.0923815	
0.191342	-0.46194	0	
0.0975452	-0.490393	0	
0.125573	-0.41396	0	
-0.0840299	-0.136867	0.5	
-0.174131	-0.119906	0.5	
-0.120671	-0.0405641	0.5	
-0.112364	-0.0877996	0.406457	
-0.5	0	0.2	
-0.5	0	0.3	
-0.492649	-0.0854243	0.248597	
-0.401703	-0.00567907	0.249917	
-0.31678	0.386847	0.395869	
-0.277785	0.415735	0.5	
-0.353553	0.353553	0.5	
-0.295892	0.334394	0.5	
0.284773	-0.165822	0.5	
0.212642	-0.171195	0.5	
0.242205	-0.0931162	0.5	
0.24114	-0.149085	0.404027	
-0.317131	0.386559	0.0881616	
-0.353553	0.353553	0	
-0.277785	0.415735	0	
-0.273315	0.334955	0	
-0.0684459	-0.495293	0.431403	
-0.0975452	-0.490393	0.5	
0	-0.5	0.5	
-0.0324158	-0.400449	0.5	
0.266375	0.22043	0.5	
0.302987	0.308818	0.5	
0.342318	0.251665	0.5	
0.294218	0.260673	0.410718	
0.213029	-0.381729	0.5	
0.191342	-0.46194	0.5	
0.228959	-0.444497	0.408094	
0.277785	-0.415735	0.5	
0.495293	0.0684459	0.0685965	
0.490393	0.0975452	0	
0.5	0	0	
0.414991	0.0495125	0	
0.366699	-0.192277	0.5	
0.46194	-0.191342	0.5	
0.415735	-0.277785	0.5	
0.439384	-0.238625	0.423358	
0.268393	-0.334301	0	
0.277785	-0.415735	0	
0.353553	-0.353553	0	
0.317131	-0.386559	0.0881616	
-0.207198	-0.382494	0.5	
-0.277785	-0.415735	0.5	
-0.243391	-0.436762	0.403062	
-0.191342	-0.46194	0.5	
0.0401436	0.291204	0	
0.0651412	0.200096	0	
0.133074	0.264097	0	
0.0776161	0.251925	0.0921435	
-0.415735	0.277785	0.5	
-0.46194	0.191342	0.5	
-0.439384	0.238625	0.423358	
-0.374813	0.199394	0.5	
-0.477948	-0.146853	0.0840084	
-0.46194	-0.191342	0	
-0.490393	-0.0975452	0	
-0.41072	-0.12459	0	
0.0975452	-0.490393	0	
0	-0.5	0	
0.0704474	-0.495012	0.0718449	
0.0404524	-0.41072	0	
-0.315029	-0.388274	0.0791933	
-0.277785	-0.415735	0	
-0.353553	-0.353553	0	
-0.263582	-0.319413	0	
-0.495102	0.0698146	0.4276	
-0.490393	0.0975452	0.5	
-0.5	0	0.5	
-0.400468	0.0439116	0.5	
0	0.5	0	
-0.0975452	0.490393	0	
-0.0372406	0.417791	0	
-0.0704474	0.495012	0.0718449	
-0.389036	0.207425	0	
-0.415735	0.277785	0	
-0.46194	0.191342	0	
-0.436811	0.243302	0.0936268	
-0.228923	-0.22221	0.5	
-0.137519	-0.208294	0.5	
-0.174131	-0.296683	0.5	
-0.179346	-0.240708	0.39897	
-0.46194	-0.191342	0.5	
-0.490393	-0.0975452	0.5	
-0.425264	-0.131997	0.5	
-0.47591	-0.153328	0.40763	
0.460762	-0.19416	0.234059	
0.469621	-0.171627	0.160116	
0.428104	-0.258315	0.196896	
0.368159	-0.173753	0.197234	
0.266375	0.22043	0.5	
0.242026	0.154212	0.5	
0.177987	0.183818	0.5	
0.225245	0.18886	0.408136	
-0.145646	0.399141	0.5	
-0.191342	0.46194	0.5	
-0.0975452	0.490393	0.5	
-0.147585	0.477722	0.416442	
-0.228959	0.444497	0.408094	
-0.191342	0.46194	0.5	
-0.277785	0.415735	0.5	
-0.234034	0.362529	0.5	
0.234372	0.286063	0.5	
0.302987	0.308818	0.5	
0.266375	0.22043	0.5	
0.294218	0.260673	0.410718	
0.342318	0.251665	0.5	
0.302987	0.308818	0.5	
0.353553	0.353553	0.5	
0.388274	0.315029	0.420807	
-0.238488	-0.439458	0.0756919	
-0.191342	-0.46194	0	
-0.277785	-0.415735	0	
-0.203173	-0.373024	0	
0.415735	-0.277785	0	
0.353553	-0.353553	0	
0.385896	-0.317937	0.065638	
0.314857	-0.257449	0	
-0.415735	0.277785	0	
-0.353553	0.353553	0	
-0.385896	0.317937	0.065638	
-0.318983	0.261743	0	
0.194604	-0.371188	0	
0.191342	-0.46194	0	
0.277785	-0.415735	0	
0.235698	-0.440961	0.0686036	
0.353553	-0.353553	0.5	
0.324956	-0.262938	0.5	
0.415735	-0.277785	0.5	
0.388345	-0.314941	0.420199	
0.394936	-0.119803	0	
0.46194	-0.191342	0	
0.490393	-0.0975452	0	
0.478516	-0.14499	0.0762896	
-0.201912	0.369986	0	
-0.191342	0.46194	0	
-0.277785	0.415735	0	
-0.235698	0.440961	0.0686036	
-0.426463	0.0441363	0	
-0.490393	0.0975452	0	
-0.5	0	0	
-0.495208	0.0690617	0.0692099	
-0.0975452	-0.490393	0.5	
-0.128733	-0.391758	0.5	
-0.144862	-0.478555	0.421652	
-0.191342	-0.46194	0.5	
-0.353553	0.353553	0.5	
-0.415735	0.277785	0.5	
-0.388345	0.314941	0.420199	
-0.335163	0.274889	0.5	
0.3168	0.386831	0.395903	
0.277785	0.415735	0.5	
0.228991	0.444481	0.408099	
0.266375	0.397206	0.5	
0.342318	0.251665	0.5	
0.353553	0.353553	0.5	
0.415735	0.277785	0.5	
0.388274	0.315029	0.420807	
-0.404541	0.126945	0	
-0.46194	0.191342	0	
-0.490393	0.0975452	0	
-0.478516	0.14499	0.0762896	
0.478555	0.144862	0.0783483	
0.46194	0.191342	0	
0.490393	0.0975452	0	
0.414183	0.131147	0	
0	0.5	0.5	
0.0975452	0.490393	0.5	
0.0367592	0.441595	0.5	
0.0728232	0.494668	0.426459	
0.388496	0.195371	0.5	
0.415735	0.277785	0.5	
0.46194	0.191342	0.5	
0.439458	0.238488	0.424308	
0.338823	-0.0848934	0.5	
0.242205	-0.0931162	0.5	
0.278817	-0.00472784	0.5	
0.29269	-0.0648902	0.412739	
0.0704482	0.495012	0.0718447	
0	0.5	0	
0.0975452	0.490393	0	
0.0420691	0.427134	0	
0.3168	0.386831	0.395903	
0.353553	0.353553	0.5	
0.277785	0.415735	0.5	
0.266375	0.397206	0.5	
0.495102	-0.0698146	0.4276	
0.490393	-0.0975452	0.5	
0.5	0	0.5	
0.428196	-0.0462647	0.5	
-0.386476	-0.317233	0.409527	
-0.415735	-0.277785	0.5	
-0.353553	-0.353553	0.5	
-0.350907	-0.296683	0.5	
0.191342	0.46194	0.5	
0.177987	0.433818	0.5	
0.228991	0.444481	0.408099	
0.266375	0.397206	0.5	
0.328092	0.270243	0	
0.415735	0.277785	0	
0.353553	0.353553	0	
0.386505	0.317197	0.0688254	
0.228991	0.444481	0.408099	
0.277785	0.415735	0.5	
0.191342	0.46194	0.5	
0.266375	0.397206	0.5	
-0.0975452	-0.490393	0	
0	-0.5	0	
-0.0422582	-0.437473	0	
-0.0698189	-0.495101	0.0723791	
-0.262519	-0.333294	0.5	
-0.317197	-0.386505	0.431175	
-0.277785	-0.415735	0.5	
-0.353553	-0.353553	0.5	
0.439467	0.0432837	0.5	
0.490393	0.0975452	0.5	
0.5	0	0.5	
0.495101	0.0698189	0.427621	
0.235698	0.440961	0.068569	
0.191342	0.46194	0	
0.277785	0.415735	0	
0.202324	0.378521	0	
-0.495012	-0.0704482	0.428155	
-0.5	0	0.5	
-0.490393	-0.0975452	0.5	
-0.42782	-0.0498056	0.5	
0.191342	0.46194	0.5	
0.177987	0.433818	0.5	
0.146853	0.477948	0.415992	
0.228991	0.444481	0.408099	
0.191342	0.46194	0.5	
0.177987	0.433818	0.5	
0.0975452	0.490393	0.5	
0.146853	0.477948	0.415992	
-0.0430682	0.437279	0.5	
-0.0975452	0.490393	0.5	
0	0.5	0.5	
-0.0690566	0.495208	0.430964	
0.0975452	-0.490393	0.5	
0	-0.5	0.5	
0.0559726	-0.437061	0.5	
0.0690566	-0.495208	0.430964	
-0.387519	-0.208294	0.5	
-0.415735	-0.277785	0.5	
-0.46194	-0.191342	0.5	
-0.440961	-0.235698	0.431431	
-0.13617	0.283588	0.0953011	
-0.2429	0.437035	0.152631	
-0.0927404	0.290183	0.18898	
-0.0714313	0.379857	0.110067	
-0.13617	0.283588	0.0953011	
-0.0927404	0.290183	0.18898	
-0.2429	0.437035	0.152631	
-0.228343	0.287598	0.142133	
-0.13916	0.369653	0.26307	
-0.0927404	0.290183	0.18898	
-0.2429	0.437035	0.152631	
-0.0714313	0.379857	0.110067	
-0.13916	0.369653	0.26307	
-0.2429	0.437035	0.152631	
-0.0927404	0.290183	0.18898	
-0.228343	0.287598	0.142133	
0.327062	-0.133702	0.350244	
0.214683	-0.189052	0.238302	
0.24114	-0.149085	0.404027	
0.257374	-0.098487	0.223367	
0.327062	-0.133702	0.350244	
0.24114	-0.149085	0.404027	
0.214683	-0.189052	0.238302	
0.203223	-0.215179	0.335428	
0.205712	-0.0609706	0.365394	
0.24114	-0.149085	0.404027	
0.214683	-0.189052	0.238302	
0.257374	-0.098487	0.223367	
0.205712	-0.0609706	0.365394	
0.214683	-0.189052	0.238302	
0.24114	-0.149085	0.404027	
0.203223	-0.215179	0.335428	
0.12931	-0.356487	0.143012	
-0.0438792	-0.403194	0.0910547	
0.0807376	-0.493438	0.154216	
-0.00141651	-0.344659	0.156164	
0.0807376	-0.493438	0.154216	
-0.0438792	-0.403194	0.0910547	
0.12931	-0.356487	0.143012	
0.0704474	-0.495012	0.0718449	
-0.025976	0.384086	0.232401	
0	0.5	0.1	
-0.0807376	0.493438	0.154216	
0	0.5	0.2	
-0.025976	0.384086	0.232401	
-0.0807376	0.493438	0.154216	
0	0.5	0.1	
-0.0714313	0.379857	0.110067	
0.327512	0.168835	0.13044	
0.231243	0.24169	0	
0.328092	0.270243	0	
0.300884	0.198715	0	
0.327512	0.168835	0.13044	
0.328092	0.270243	0	
0.231243	0.24169	0	
0.227799	0.256719	0.161264	
-0.450312	0.217299	0.354112	
-0.354878	0.123846	0.244627	
-0.374071	0.0973353	0.396281	
-0.471122	0.167464	0.300106	
-0.374071	0.0973353	0.396281	
-0.354878	0.123846	0.244627	
-0.450312	0.217299	0.354112	
-0.301517	0.172887	0.349578	
-0.253565	-0.305449	0.208948	
-0.194667	-0.460548	0.26567	
-0.258165	-0.428195	0.298245	
-0.257824	-0.4284	0.204976	
-0.253565	-0.305449	0.208948	
-0.258165	-0.428195	0.298245	
-0.194667	-0.460548	0.26567	
-0.203684	-0.312652	0.313888	
-0.439384	0.238625	0.423358	
-0.335163	0.274889	0.5	
-0.276891	0.277667	0.386451	
-0.388345	0.314941	0.420199	
-0.276891	0.277667	0.386451	
-0.335163	0.274889	0.5	
-0.439384	0.238625	0.423358	
-0.374813	0.199394	0.5	
0.364988	0.109735	0.263774	
0.450285	0.217356	0.355302	
0.362397	0.0936058	0.39874	
0.470916	0.168043	0.300126	
0.364988	0.109735	0.263774	
0.362397	0.0936058	0.39874	
0.450285	0.217356	0.355302	
0.308034	0.17727	0.353981	
-0.179346	-0.240708	0.39897	
-0.124401	-0.265319	0.22424	
-0.0835823	-0.340682	0.35067	
-0.203684	-0.312652	0.313888	
-0.179346	-0.240708	0.39897	
-0.0835823	-0.340682	0.35067	
-0.124401	-0.265319	0.22424	
-0.0739341	-0.184055	0.34975	
0.000906282	0.043941	0.311068	
0.0603793	0.0090957	0.160519	
0.0955515	0.0190038	0.323994	
-0.032045	0.00109893	0.228452	
0.000906282	0.043941	0.311068	
0.0955515	0.0190038	0.323994	
0.0603793	0.0090957	0.160519	
0.134907	0.0287462	0.229115	
0.0292443	-0.0551693	0.315985	
0.0955515	0.0190038	0.323994	
0.0603793	0.0090957	0.160519	
-0.032045	0.00109893	0.228452	
0.0292443	-0.0551693	0.315985	
0.0603793	0.0090957	0.160519	
0.0955515	0.0190038	0.323994	
0.134907	0.0287462	0.229115	
0.257685	-0.0506834	0.101558	
0.22873	0.00637727	0.265758	
0.153084	-0.0880453	0.135895	
0.257374	-0.098487	0.223367	
0.257685	-0.0506834	0.101558	
0.153084	-0.0880453	0.135895	
0.22873	0.00637727	0.265758	
0.195808	0.041614	0.135744	
-0.401703	-0.00567907	0.249917	
-0.374071	0.0973353	0.396281	
-0.5	0	0.3	
-0.334634	0.00771017	0.33657	
-0.401703	-0.00567907	0.249917	
-0.5	0	0.3	
-0.374071	0.0973353	0.396281	
-0.493012	0.0833019	0.344789	
-0.5	0	0.4	
-0.5	0	0.3	
-0.374071	0.0973353	0.396281	
-0.334634	0.00771017	0.33657	
-0.5	0	0.4	
-0.374071	0.0973353	0.396281	
-0.5	0	0.3	
-0.493012	0.0833019	0.344789	
-0.13617	0.283588	0.0953011	
-0.118932	0.39861	0	
-0.0555676	0.325574	0	
-0.138674	0.323797	0	
-0.13617	0.283588	0.0953011	
-0.0555676	0.325574	0	
-0.118932	0.39861	0	
-0.0714313	0.379857	0.110067	
-0.025976	0.384086	0.232401	
0.0807477	0.493437	0.154224	
0	0.5	0.1	
0	0.5	0.2	
-0.025976	0.384086	0.232401	
0	0.5	0.1	
0.0807477	0.493437	0.154224	
0.0540882	0.337091	0.15152	
-0.385896	0.317937	0.065638	
-0.273315	0.334955	0	
-0.228343	0.287598	0.142133	
-0.318983	0.261743	0	
-0.228343	0.287598	0.142133	
-0.273315	0.334955	0	
-0.385896	0.317937	0.065638	
-0.317131	0.386559	0.0881616	
0.389379	-0.0521535	0.3951	
0.471122	-0.167464	0.300106	
0.370375	-0.0671022	0.257475	
0.493012	-0.0833019	0.344789	
0.389379	-0.0521535	0.3951	
0.370375	-0.0671022	0.257475	
0.471122	-0.167464	0.300106	
0.327062	-0.133702	0.350244	
0.14023	0.0298174	0.409574	
0.0897768	0.149878	0.5	
0.0390655	0.0525248	0.401715	
0.0654282	0.0836605	0.5	
0.14023	0.0298174	0.409574	
0.0390655	0.0525248	0.401715	
0.0897768	0.149878	0.5	
0.17182	0.113313	0.371264	
-0.0438792	-0.403194	0.0910547	
0.0807376	-0.493438	0.154216	
0	-0.5	0.2	
0	-0.5	0.1	
-0.0438792	-0.403194	0.0910547	
0	-0.5	0.2	
0.0807376	-0.493438	0.154216	
-0.00141651	-0.344659	0.156164	
0.368159	-0.173753	0.197234	
0.327062	-0.133702	0.350244	
0.257374	-0.098487	0.223367	
0.307021	-0.223333	0.261668	
0.368159	-0.173753	0.197234	
0.257374	-0.098487	0.223367	
0.327062	-0.133702	0.350244	
0.370375	-0.0671022	0.257475	
0.316847	0.386792	0.198616	
0.167266	0.351716	0.112308	
0.173765	0.338831	0.233339	
0.242822	0.437078	0.152991	
0.173765	0.338831	0.233339	
0.167266	0.351716	0.112308	
0.316847	0.386792	0.198616	
0.227799	0.256719	0.161264	
-0.18644	0.1823	0	
-0.24789	0.08719	0.114987	
-0.26105	0.203399	0	
-0.257956	0.116321	0	
-0.26105	0.203399	0	
-0.24789	0.08719	0.114987	
-0.18644	0.1823	0	
-0.1632	0.180339	0.117277	
-0.235698	0.440961	0.0686036	
-0.273315	0.334955	0	
-0.228343	0.287598	0.142133	
-0.317131	0.386559	0.0881616	
-0.228343	0.287598	0.142133	
-0.273315	0.334955	0	
-0.235698	0.440961	0.0686036	
-0.201912	0.369986	0	
-0.374071	0.0973353	0.396281	
-0.5	0	0.4	
-0.42782	-0.0498056	0.5	
-0.400468	0.0439116	0.5	
-0.42782	-0.0498056	0.5	
-0.5	0	0.4	
-0.374071	0.0973353	0.396281	
-0.334634	0.00771017	0.33657	
-0.42782	-0.0498056	0.5	
-0.355295	-0.0330772	0.5	
-0.374071	0.0973353	0.396281	
-0.400468	0.0439116	0.5	
-0.374071	0.0973353	0.396281	
-0.355295	-0.0330772	0.5	
-0.42782	-0.0498056	0.5	
-0.334634	0.00771017	0.33657	
-0.275077	-0.119224	0.102748	
-0.333403	0.0238809	0.168384	
-0.302044	-0.0506462	0	
-0.374595	-0.0873247	0.117455	
-0.275077	-0.119224	0.102748	
-0.302044	-0.0506462	0	
-0.333403	0.0238809	0.168384	
-0.220281	-0.031921	0.125401	
0.328092	0.270243	0	
0.436762	0.243391	0.0969381	
0.415735	0.277785	0	
0.386505	0.317197	0.0688254	
0.415735	0.277785	0	
0.436762	0.243391	0.0969381	
0.328092	0.270243	0	
0.373926	0.198925	0	
0.222637	0.199452	0.310281	
0.227799	0.256719	0.161264	
0.218809	0.121581	0.250148	
0.156948	0.213263	0.238247	
0.222637	0.199452	0.310281	
0.218809	0.121581	0.250148	
0.227799	0.256719	0.161264	
0.315434	0.222572	0.240138	
0.328092	0.270243	0	
0.317233	0.386476	0.0904728	
0.353553	0.353553	0	
0.261819	0.319027	0	
0.353553	0.353553	0	
0.317233	0.386476	0.0904728	
0.328092	0.270243	0	
0.386505	0.317197	0.0688254	
-0.153329	0.47591	0.0923815	
-0.201912	0.369986	0	
-0.191342	0.46194	0	
-0.118932	0.39861	0	
-0.153329	0.47591	0.0923815	
-0.191342	0.46194	0	
-0.201912	0.369986	0	
-0.235698	0.440961	0.0686036	
0.0390655	0.0525248	0.401715	
0.0897768	0.149878	0.5	
0.00344957	0.138123	0.5	
0.0654282	0.0836605	0.5	
0.0390655	0.0525248	0.401715	
0.00344957	0.138123	0.5	
0.0897768	0.149878	0.5	
0.0462313	0.146805	0.364101	
-0.47591	-0.153328	0.40763	
-0.387519	-0.208294	0.5	
-0.46194	-0.191342	0.5	
-0.440961	-0.235698	0.431431	
-0.47591	-0.153328	0.40763	
-0.46194	-0.191342	0.5	
-0.387519	-0.208294	0.5	
-0.425264	-0.131997	0.5	
0.242205	0.0836605	0.5	
0.225245	0.18886	0.408136	
0.153817	0.120272	0.5	
0.242026	0.154212	0.5	
0.153817	0.120272	0.5	
0.225245	0.18886	0.408136	
0.242205	0.0836605	0.5	
0.17182	0.113313	0.371264	
0.300884	0.198715	0	
0.278081	0.0866882	0.0962345	
0.201932	0.155478	0.107683	
0.247868	0.146306	0	
0.201932	0.155478	0.107683	
0.278081	0.0866882	0.0962345	
0.300884	0.198715	0	
0.327512	0.168835	0.13044	
0.125573	-0.41396	0	
0.235698	-0.440961	0.0686036	
0.12931	-0.356487	0.143012	
0.153329	-0.47591	0.0923815	
0.125573	-0.41396	0	
0.12931	-0.356487	0.143012	
0.235698	-0.440961	0.0686036	
0.194604	-0.371188	0	
0.382697	0.0900146	0.0901371	
0.436762	0.243391	0.0969381	
0.469721	0.171353	0.161666	
0.478555	0.144862	0.0783483	
0.382697	0.0900146	0.0901371	
0.469721	0.171353	0.161666	
0.436762	0.243391	0.0969381	
0.327512	0.168835	0.13044	
0.476132	-0.152637	0.402329	
0.366699	-0.192277	0.5	
0.46194	-0.191342	0.5	
0.415496	-0.123332	0.5	
0.476132	-0.152637	0.402329	
0.46194	-0.191342	0.5	
0.366699	-0.192277	0.5	
0.439384	-0.238625	0.423358	
0.400931	-0.00647911	0.10587	
0.394936	-0.119803	0	
0.314271	-0.0501881	0	
0.409478	-0.032947	0	
0.400931	-0.00647911	0.10587	
0.314271	-0.0501881	0	
0.394936	-0.119803	0	
0.360278	-0.0912969	0.138185	
-0.24789	0.08719	0.114987	
-0.328307	0.16356	0	
-0.26105	0.203399	0	
-0.257956	0.116321	0	
-0.24789	0.08719	0.114987	
-0.26105	0.203399	0	
-0.328307	0.16356	0	
-0.33672	0.17128	0.12732	
0.278081	0.0866882	0.0962345	
0.210156	-0.0147965	0	
0.184962	0.0799289	0	
0.276476	0.0535537	0	
0.278081	0.0866882	0.0962345	
0.184962	0.0799289	0	
0.210156	-0.0147965	0	
0.195808	0.041614	0.135744	
-0.207198	-0.382494	0.5	
-0.317197	-0.386505	0.431175	
-0.172877	-0.358629	0.40341	
-0.243391	-0.436762	0.403062	
-0.207198	-0.382494	0.5	
-0.172877	-0.358629	0.40341	
-0.317197	-0.386505	0.431175	
-0.262519	-0.333294	0.5	
-0.0438792	-0.403194	0.0910547	
-0.0638367	-0.295761	0	
0.0248177	-0.313374	0	
-0.0328721	-0.370689	0	
-0.0438792	-0.403194	0.0910547	
0.0248177	-0.313374	0	
-0.0638367	-0.295761	0	
-0.0814318	-0.287732	0.10776	
0.0390655	0.0525248	0.401715	
0.0752678	-0.0423877	0.407707	
-0.0505573	-0.00469477	0.5	
-0.00932629	-0.104346	0.393808	
0.0390655	0.0525248	0.401715	
-0.0505573	-0.00469477	0.5	
0.0752678	-0.0423877	0.407707	
0.0288165	-0.00472784	0.5	
-0.0293436	-0.0762152	0.5	
-0.0505573	-0.00469477	0.5	
0.0752678	-0.0423877	0.407707	
-0.00932629	-0.104346	0.393808	
-0.0293436	-0.0762152	0.5	
0.0752678	-0.0423877	0.407707	
-0.0505573	-0.00469477	0.5	
0.0288165	-0.00472784	0.5	
0.0772326	0.384839	0.269201	
0	0.5	0.2	
0	0.5	0.3	
0.0854243	0.492649	0.251403	
0.0772326	0.384839	0.269201	
0	0.5	0.3	
0	0.5	0.2	
-0.025976	0.384086	0.232401	
0.222637	0.199452	0.310281	
0.294218	0.260673	0.410718	
0.315434	0.222572	0.240138	
0.22095	0.291034	0.346604	
0.222637	0.199452	0.310281	
0.315434	0.222572	0.240138	
0.294218	0.260673	0.410718	
0.308034	0.17727	0.353981	
0.400931	-0.00647911	0.10587	
0.5	0	0	
0.495208	-0.0690617	0.0692099	
0.409478	-0.032947	0	
0.400931	-0.00647911	0.10587	
0.495208	-0.0690617	0.0692099	
0.5	0	0	
0.5	0	0.1	
0.225245	0.18886	0.408136	
0.153817	0.120272	0.5	
0.132706	0.223572	0.389729	
0.17182	0.113313	0.371264	
0.225245	0.18886	0.408136	
0.132706	0.223572	0.389729	
0.153817	0.120272	0.5	
0.177987	0.183818	0.5	
-0.228343	0.287598	0.142133	
-0.0927404	0.290183	0.18898	
-0.1632	0.180339	0.117277	
-0.13617	0.283588	0.0953011	
-0.228343	0.287598	0.142133	
-0.1632	0.180339	0.117277	
-0.0927404	0.290183	0.18898	
-0.182431	0.271961	0.232942	
-0.191342	-0.46194	0.5	
-0.172877	-0.358629	0.40341	
-0.128733	-0.391758	0.5	
-0.144862	-0.478555	0.421652	
-0.128733	-0.391758	0.5	
-0.172877	-0.358629	0.40341	
-0.191342	-0.46194	0.5	
-0.207198	-0.382494	0.5	
-0.0802187	0.199602	0.860073	
-0.175427	0.309191	0.860321	
-0.0555676	0.325574	1	
-0.0738147	0.390008	0.901946	
-0.0555676	0.325574	1	
-0.0802187	0.199602	0.860073	
-0.119993	0.246691	1	
-0.175427	0.309191	0.860321	
-0.25658	0.429146	0.66876	
-0.117277	0.364618	0.76936	
-0.225501	0.288034	0.633154	
-0.112546	0.368373	0.611308	
0.133074	0.264097	1	
0.195469	0.159954	0.886309	
0.079088	0.165847	0.846387	
0.0922358	0.267303	0.814992	
0.0704482	0.495012	0.571845	
-0.00106225	0.370203	0.65	
0.0895983	0.397206	0.5	
0.159673	0.344869	0.622089	
-0.25658	0.429146	0.66876	
-0.237468	0.305606	0.754243	
-0.225501	0.288034	0.633154	
-0.117277	0.364618	0.76936	
-0.0555676	0.325574	1	
0.0166107	0.245601	0.898079	
-0.0802187	0.199602	0.860073	
-0.0738147	0.390008	0.901946	
-0.224577	0.189906	0.793765	
-0.225501	0.288034	0.633154	
-0.128722	0.176827	0.731598	
-0.203341	0.186445	0.603634	
-0.119993	0.246691	1	
-0.18644	0.1823	1	
-0.175427	0.309191	0.860321	
-0.215798	0.142373	0.897172	
-0.124427	-0.265373	0.724238	
-0.011467	-0.243815	0.75519	
-0.136098	-0.178684	0.882811	
-0.0781785	-0.271888	0.896904	
-0.0802187	0.199602	0.860073	
0.0166107	0.245601	0.898079	
-0.0183357	0.330286	0.830674	
-0.0738147	0.390008	0.901946	
0.0604118	0.00910509	0.839477	
0.0397395	-0.0938942	0.889407	
0.0209546	0.0362755	1	
-0.0877381	0.00876541	0.911432	
-0.119993	0.246691	1	
-0.175427	0.309191	0.860321	
-0.0802187	0.199602	0.860073	
-0.215798	0.142373	0.897172	
-0.124427	-0.265373	0.724238	
-0.011467	-0.243815	0.75519	
-0.10739	-0.142688	0.746667	
-0.136098	-0.178684	0.882811	
0.257355	-0.0987317	0.776667	
0.309938	-0.217964	0.736716	
0.154637	-0.229675	0.832631	
0.153146	-0.133743	0.733731	
0.133074	0.264097	1	
0.198678	0.268409	0.834396	
0.195469	0.159954	0.886309	
0.0922358	0.267303	0.814992	
-0.0123059	-0.194682	0.863671	
-0.136098	-0.178684	0.882811	
-0.011467	-0.243815	0.75519	
-0.0781785	-0.271888	0.896904	
0.154637	-0.229675	0.832631	
0.309938	-0.217964	0.736716	
0.203135	-0.21521	0.664501	
0.153146	-0.133743	0.733731	
-0.138674	0.323797	1	
-0.0555676	0.325574	1	
-0.119993	0.246691	1	
-0.175427	0.309191	0.860321	
-0.0341142	0.113867	0.749186	
0.079088	0.165847	0.846387	
0.0604118	0.00910509	0.839477	
0.100339	0.12014	0.738531	
0.0362446	-0.13014	0.749535	
-0.0497393	-0.170251	0.638216	
0.0957286	-0.225187	0.608184	
0.0917349	-0.220895	0.740016	
-0.0497393	-0.170251	0.638216	
-0.011467	-0.243815	0.75519	
0.0610361	-0.307238	0.685164	
0.0957286	-0.225187	0.608184	
-0.10739	-0.142688	0.746667	
-0.011467	-0.243815	0.75519	
-0.0123059	-0.194682	0.863671	
-0.136098	-0.178684	0.882811	
-0.257824	-0.4284	0.704976	
-0.184118	-0.326089	0.626133	
-0.239357	-0.30005	0.729626	
-0.0966341	-0.368565	0.765144	
-0.224577	0.189906	0.793765	
-0.298046	0.172945	0.653946	
-0.225501	0.288034	0.633154	
-0.203341	0.186445	0.603634	
-0.117671	-0.10197	1	
-0.227279	-0.033891	0.874484	
-0.0780607	-0.0724308	0.84691	
-0.231631	-0.136254	0.90444	
-0.011467	-0.243815	0.75519	
0.0957286	-0.225187	0.608184	
-0.0497393	-0.170251	0.638216	
0.0917349	-0.220895	0.740016	
-0.209296	-0.0687964	0.747015	
-0.145151	0.0676964	0.847554	
-0.0780607	-0.0724308	0.84691	
-0.125866	0.0341816	0.729574	
-0.322193	0.044739	0.823506	
-0.209296	-0.0687964	0.747015	
-0.34489	-0.101074	0.850415	
-0.39411	-0.0165863	0.757409	
0.0367592	0.441595	0.5	
0.0895983	0.397206	0.5	
0.0704482	0.495012	0.571845	
-0.00106225	0.370203	0.65	
0.0362446	-0.13014	0.749535	
-0.0497393	-0.170251	0.638216	
0.100517	-0.109754	0.630856	
0.0957286	-0.225187	0.608184	
0.195689	0.0416963	0.86434	
0.192412	0.00177767	0.748671	
0.0604118	0.00910509	0.839477	
0.100339	0.12014	0.738531	
0.195689	0.0416963	0.86434	
0.100339	0.12014	0.738531	
0.079088	0.165847	0.846387	
0.195469	0.159954	0.886309	
0.0604118	0.00910509	0.839477	
0.079088	0.165847	0.846387	
-0.0341142	0.113867	0.749186	
-0.0265366	0.088395	0.883809	
-0.0555676	0.325574	1	
-0.175427	0.309191	0.860321	
-0.138674	0.323797	1	
-0.0738147	0.390008	0.901946	
0.0610361	-0.307238	0.685164	
0.0957286	-0.225187	0.608184	
-0.011467	-0.243815	0.75519	
0.0917349	-0.220895	0.740016	
-0.0780607	-0.0724308	0.84691	
-0.227279	-0.033891	0.874484	
-0.117671	-0.10197	1	
-0.0877381	0.00876541	0.911432	
-0.246255	-0.212424	0.8311	
-0.34489	-0.101074	0.850415	
-0.209296	-0.0687964	0.747015	
-0.352604	-0.116449	0.71733	
0.0362446	-0.13014	0.749535	
0.153146	-0.133743	0.733731	
0.153122	-0.0879879	0.864132	
0.0968003	-0.179614	0.902873	
0.0895983	0.397206	0.5	
-0.00106225	0.370203	0.65	
0.0529867	0.308818	0.5	
0.159673	0.344869	0.622089	
0.218846	0.121291	0.749847	
0.100339	0.12014	0.738531	
0.195689	0.0416963	0.86434	
0.195469	0.159954	0.886309	
0.0529867	0.308818	0.5	
0.159673	0.344869	0.622089	
-0.00106225	0.370203	0.65	
0.000715258	0.25479	0.628643	
0.115537	0.0107471	1	
0.0604118	0.00910509	0.839477	
0.153122	-0.0879879	0.864132	
0.0397395	-0.0938942	0.889407	
0.0604118	0.00910509	0.839477	
0.115537	0.0107471	1	
0.153122	-0.0879879	0.864132	
0.105897	0.0806526	0.900017	
0.478555	0.144862	0.578348	
0.388496	0.195371	0.5	
0.396694	0.0647464	0.588567	
0.326633	0.237522	0.603331	
-0.0780607	-0.0724308	0.84691	
-0.145151	0.0676964	0.847554	
-0.209296	-0.0687964	0.747015	
-0.227279	-0.033891	0.874484	
0.079088	0.165847	0.846387	
0.0166107	0.245601	0.898079	
0.133074	0.264097	1	
0.0922358	0.267303	0.814992	
-0.257824	-0.4284	0.704976	
-0.168043	-0.470916	0.699874	
-0.184118	-0.326089	0.626133	
-0.0966341	-0.368565	0.765144	
0.0807477	0.493437	0.654224	
-0.00106225	0.370203	0.65	
0.0704482	0.495012	0.571845	
0.159673	0.344869	0.622089	
0.257355	-0.0987317	0.776667	
0.203135	-0.21521	0.664501	
0.153146	-0.133743	0.733731	
0.231926	-0.137602	0.598516	
0.279002	0.143488	0.606802	
0.396694	0.0647464	0.588567	
0.388496	0.195371	0.5	
0.326633	0.237522	0.603331	
-0.0988881	0.278177	0.686189	
0.00181727	0.225193	0.776224	
-0.00106225	0.370203	0.65	
0.0511855	0.375084	0.751646	
0.257355	-0.0987317	0.776667	
0.326691	-0.12898	0.644897	
0.203135	-0.21521	0.664501	
0.231926	-0.137602	0.598516	
0.079088	0.165847	0.846387	
0.100339	0.12014	0.738531	
0.195689	0.0416963	0.86434	
0.105897	0.0806526	0.900017	
0.257355	-0.0987317	0.776667	
0.153146	-0.133743	0.733731	
0.217579	-0.0397687	0.636314	
0.231926	-0.137602	0.598516	
-0.0183357	0.330286	0.830674	
-0.175427	0.309191	0.860321	
-0.0802187	0.199602	0.860073	
-0.0738147	0.390008	0.901946	
-0.322193	0.044739	0.823506	
-0.209296	-0.0687964	0.747015	
-0.333304	0.00409397	0.661614	
-0.224391	0.0726716	0.751498	
-0.048473	-0.0328568	1	
0.0209546	0.0362755	1	
0.0397395	-0.0938942	0.889407	
-0.0877381	0.00876541	0.911432	
-0.117671	-0.10197	1	
-0.0780607	-0.0724308	0.84691	
-0.136098	-0.178684	0.882811	
-0.231631	-0.136254	0.90444	
-0.0988881	0.278177	0.686189	
-0.0183357	0.330286	0.830674	
0.00181727	0.225193	0.776224	
0.0511855	0.375084	0.751646	
-0.246255	-0.212424	0.8311	
-0.352604	-0.116449	0.71733	
-0.209296	-0.0687964	0.747015	
-0.198738	-0.193326	0.739814	
0.338823	-0.0848934	0.5	
0.326691	-0.12898	0.644897	
0.217579	-0.0397687	0.636314	
0.231926	-0.137602	0.598516	
-0.322193	0.044739	0.823506	
-0.333304	0.00409397	0.661614	
-0.209296	-0.0687964	0.747015	
-0.39411	-0.0165863	0.757409	
-0.0341142	0.113867	0.749186	
0.00181727	0.225193	0.776224	
0.0462278	0.146831	0.635901	
-0.0842182	0.182405	0.629411	
0.195689	0.0416963	0.86434	
0.153122	-0.0879879	0.864132	
0.115537	0.0107471	1	
0.105897	0.0806526	0.900017	
-0.224577	0.189906	0.793765	
-0.225501	0.288034	0.633154	
-0.237468	0.305606	0.754243	
-0.128722	0.176827	0.731598	
-0.209296	-0.0687964	0.747015	
-0.352604	-0.116449	0.71733	
-0.34489	-0.101074	0.850415	
-0.39411	-0.0165863	0.757409	
-0.0988881	0.278177	0.686189	
-0.00106225	0.370203	0.65	
0.00181727	0.225193	0.776224	
0.000715258	0.25479	0.628643	
0.212642	-0.171195	0.5	
0.203135	-0.21521	0.664501	
0.238057	-0.243638	0.5	
0.231926	-0.137602	0.598516	
-0.0983601	0.156434	1	
-0.0802187	0.199602	0.860073	
-0.145151	0.0676964	0.847554	
-0.215798	0.142373	0.897172	
-0.145151	0.0676964	0.847554	
-0.0802187	0.199602	0.860073	
-0.0983601	0.156434	1	
-0.0265366	0.088395	0.883809	
0.195689	0.0416963	0.86434	
0.100339	0.12014	0.738531	
0.0604118	0.00910509	0.839477	
0.105897	0.0806526	0.900017	
0.257355	-0.0987317	0.776667	
0.294702	-0.208252	0.864399	
0.154637	-0.229675	0.832631	
0.309938	-0.217964	0.736716	
0.0362446	-0.13014	0.749535	
0.154637	-0.229675	0.832631	
0.153146	-0.133743	0.733731	
0.0968003	-0.179614	0.902873	
-0.0840299	-0.136867	0.5	
-0.120671	-0.0405641	0.5	
-0.170863	-0.122482	0.63474	
0.000996857	-0.0833524	0.602223	
-0.25658	0.429146	0.66876	
-0.174678	0.468495	0.682891	
-0.117277	0.364618	0.76936	
-0.112546	0.368373	0.611308	
0.338823	-0.0848934	0.5	
0.217579	-0.0397687	0.636314	
0.326691	-0.12898	0.644897	
0.39042	-0.0433488	0.606813	
-0.224577	0.189906	0.793765	
-0.225501	0.288034	0.633154	
-0.298046	0.172945	0.653946	
-0.318622	0.246893	0.724741	
0.0209546	0.0362755	1	
-0.0265366	0.088395	0.883809	
0.0604118	0.00910509	0.839477	
-0.0877381	0.00876541	0.911432	
0.238057	-0.243638	0.5	
0.16292	-0.321139	0.620031	
0.267645	-0.326424	0.5	
0.306527	-0.240421	0.616434	
0.490343	0.0977967	0.741226	
0.332994	0.0375409	0.661618	
0.364623	-0.0450159	0.747721	
0.37512	0.124368	0.792934	
0.187412	-0.0186436	0.5	
0.0786602	-0.0230096	0.587367	
0.217579	-0.0397687	0.636314	
0.243096	0.0493866	0.595389	
-0.18644	0.1823	1	
-0.214341	0.273759	1	
-0.175427	0.309191	0.860321	
-0.215798	0.142373	0.897172	
0.257355	-0.0987317	0.776667	
0.217579	-0.0397687	0.636314	
0.326691	-0.12898	0.644897	
0.231926	-0.137602	0.598516	
0.332994	0.0375409	0.661618	
0.335565	0.163368	0.703209	
0.493389	0.0810399	0.64715	
0.396694	0.0647464	0.588567	
-0.124427	-0.265373	0.724238	
-0.0143548	-0.331636	0.835577	
-0.011467	-0.243815	0.75519	
-0.0781785	-0.271888	0.896904	
-0.322193	0.044739	0.823506	
-0.34489	-0.101074	0.850415	
-0.209296	-0.0687964	0.747015	
-0.227279	-0.033891	0.874484	
0.0877841	0.277766	0.703945	
0.00181727	0.225193	0.776224	
-0.00106225	0.370203	0.65	
0.000715258	0.25479	0.628643	
-0.142648	-0.00714059	1	
-0.117671	-0.10197	1	
-0.227279	-0.033891	0.874484	
-0.0877381	0.00876541	0.911432	
-0.124427	-0.265373	0.724238	
-0.158356	-0.325914	0.851548	
-0.136098	-0.178684	0.882811	
-0.198738	-0.193326	0.739814	
-0.0341142	0.113867	0.749186	
0.100339	0.12014	0.738531	
0.0604118	0.00910509	0.839477	
0.00311865	0.0446609	0.692024	
0.203135	-0.21521	0.664501	
0.309938	-0.217964	0.736716	
0.154637	-0.229675	0.832631	
0.264677	-0.291732	0.802046	
-0.209296	-0.0687964	0.747015	
-0.136098	-0.178684	0.882811	
-0.246255	-0.212424	0.8311	
-0.198738	-0.193326	0.739814	
-0.209296	-0.0687964	0.747015	
-0.10739	-0.142688	0.746667	
-0.0780607	-0.0724308	0.84691	
-0.136098	-0.178684	0.882811	
-0.0734441	0.0616893	1	
-0.145151	0.0676964	0.847554	
-0.0983601	0.156434	1	
-0.0265366	0.088395	0.883809	
-0.0780607	-0.0724308	0.84691	
-0.0319626	0.00109562	0.771489	
-0.10739	-0.142688	0.746667	
-0.125866	0.0341816	0.729574	
-0.246255	-0.212424	0.8311	
-0.136098	-0.178684	0.882811	
-0.209296	-0.0687964	0.747015	
-0.231631	-0.136254	0.90444	
-0.00106225	0.370203	0.65	
0.00181727	0.225193	0.776224	
0.0877841	0.277766	0.703945	
0.0511855	0.375084	0.751646	
-0.209296	-0.0687964	0.747015	
-0.34489	-0.101074	0.850415	
-0.246255	-0.212424	0.8311	
-0.231631	-0.136254	0.90444	
0.0248177	-0.313374	1	
-0.0143548	-0.331636	0.835577	
-0.0328721	-0.370689	1	
-0.0781785	-0.271888	0.896904	
0.0362446	-0.13014	0.749535	
0.0957286	-0.225187	0.608184	
0.100517	-0.109754	0.630856	
0.0917349	-0.220895	0.740016	
0.133074	0.264097	1	
0.158056	0.171884	1	
0.079088	0.165847	0.846387	
0.195469	0.159954	0.886309	
-0.119993	0.246691	1	
-0.0802187	0.199602	0.860073	
-0.0555676	0.325574	1	
0.0166107	0.245601	0.898079	
0.0172234	0.375408	0.5	
0.0895983	0.397206	0.5	
0.0367592	0.441595	0.5	
-0.00106225	0.370203	0.65	
0.153122	-0.0879879	0.864132	
0.153146	-0.133743	0.733731	
0.154637	-0.229675	0.832631	
0.0968003	-0.179614	0.902873	
0.133074	0.264097	1	
0.158056	0.171884	1	
0.0651412	0.200096	1	
0.079088	0.165847	0.846387	
0.326691	-0.12898	0.644897	
0.217579	-0.0397687	0.636314	
0.257355	-0.0987317	0.776667	
0.364623	-0.0450159	0.747721	
0.195689	0.0416963	0.86434	
0.195469	0.159954	0.886309	
0.079088	0.165847	0.846387	
0.105897	0.0806526	0.900017	
-0.0497393	-0.170251	0.638216	
0.0957286	-0.225187	0.608184	
0.0610361	-0.307238	0.685164	
-0.000247605	-0.297629	0.606346	
-0.00106225	0.370203	0.65	
0.159673	0.344869	0.622089	
0.0807477	0.493437	0.654224	
0.0511855	0.375084	0.751646	
0.335565	0.163368	0.703209	
0.396694	0.0647464	0.588567	
0.279002	0.143488	0.606802	
0.326633	0.237522	0.603331	
-0.0734441	0.0616893	1	
-0.16685	0.0883447	1	
-0.0983601	0.156434	1	
-0.145151	0.0676964	0.847554	
-0.0232782	-0.127584	1	
-0.0780607	-0.0724308	0.84691	
-0.0123059	-0.194682	0.863671	
-0.136098	-0.178684	0.882811	
0.257355	-0.0987317	0.776667	
0.364623	-0.0450159	0.747721	
0.217579	-0.0397687	0.636314	
0.283277	0.0443669	0.748521	
-0.450285	0.217356	0.644698	
-0.298046	0.172945	0.653946	
-0.4284	0.257824	0.704976	
-0.342082	0.155488	0.769444	
0.469721	0.171353	0.661666	
0.396694	0.0647464	0.588567	
0.335565	0.163368	0.703209	
0.326633	0.237522	0.603331	
-0.0328721	-0.370689	1	
-0.0143548	-0.331636	0.835577	
0.0248177	-0.313374	1	
0.032794	-0.401349	0.896695	
0.388496	0.195371	0.5	
0.279002	0.143488	0.606802	
0.315521	0.155675	0.5	
0.396694	0.0647464	0.588567	
-0.124427	-0.265373	0.724238	
-0.158356	-0.325914	0.851548	
-0.0143548	-0.331636	0.835577	
-0.0781785	-0.271888	0.896904	
-0.124427	-0.265373	0.724238	
-0.136098	-0.178684	0.882811	
-0.158356	-0.325914	0.851548	
-0.0781785	-0.271888	0.896904	
0.380207	-0.19708	1	
0.436762	-0.243391	0.903062	
0.294702	-0.208252	0.864399	
0.360282	-0.0916129	0.861913	
0.00181727	0.225193	0.776224	
0.000715258	0.25479	0.628643	
0.0462278	0.146831	0.635901	
-0.0842182	0.182405	0.629411	
0.198678	0.268409	0.834396	
0.133074	0.264097	1	
0.107558	0.36211	0.8622	
0.0922358	0.267303	0.814992	
0.0604118	0.00910509	0.839477	
0.100339	0.12014	0.738531	
0.0954521	0.018975	0.675961	
0.00311865	0.0446609	0.692024	
-0.225501	0.288034	0.633154	
-0.117277	0.364618	0.76936	
-0.0988881	0.278177	0.686189	
-0.112546	0.368373	0.611308	
0.267645	-0.326424	0.5	
0.306527	-0.240421	0.616434	
0.16292	-0.321139	0.620031	
0.253502	-0.311953	0.668431	
-0.246255	-0.212424	0.8311	
-0.136098	-0.178684	0.882811	
-0.158356	-0.325914	0.851548	
-0.198738	-0.193326	0.739814	
-0.257824	-0.4284	0.704976	
-0.239357	-0.30005	0.729626	
-0.194667	-0.460548	0.76567	
-0.0966341	-0.368565	0.765144	
0.490343	0.0977967	0.741226	
0.493389	0.0810399	0.64715	
0.332994	0.0375409	0.661618	
0.335565	0.163368	0.703209	
0.388496	0.195371	0.5	
0.315521	0.155675	0.5	
0.399086	0.112543	0.5	
0.396694	0.0647464	0.588567	
-0.224577	0.189906	0.793765	
-0.237468	0.305606	0.754243	
-0.225501	0.288034	0.633154	
-0.318622	0.246893	0.724741	
0.0604118	0.00910509	0.839477	
0.0362446	-0.13014	0.749535	
0.0397395	-0.0938942	0.889407	
-0.0319626	0.00109562	0.771489	
0.233754	0.245143	0.652714	
0.292421	0.250833	0.767221	
0.316847	0.386792	0.698616	
0.162962	0.351618	0.758031	
-0.209296	-0.0687964	0.747015	
-0.10739	-0.142688	0.746667	
-0.136098	-0.178684	0.882811	
-0.198738	-0.193326	0.739814	
-0.302044	-0.0506462	1	
-0.34489	-0.101074	0.850415	
-0.404383	-0.0159907	0.861288	
-0.277483	0.0617124	0.914802	
-0.302044	-0.0506462	1	
-0.227279	-0.033891	0.874484	
-0.34489	-0.101074	0.850415	
-0.277483	0.0617124	0.914802	
0.0604118	0.00910509	0.839477	
0.100339	0.12014	0.738531	
0.192412	0.00177767	0.748671	
0.0991673	-0.046171	0.758635	
0.0604118	0.00910509	0.839477	
0.153122	-0.0879879	0.864132	
0.195689	0.0416963	0.86434	
0.105897	0.0806526	0.900017	
0.0529867	0.308818	0.5	
0.159673	0.344869	0.622089	
0.000715258	0.25479	0.628643	
0.13133	0.218843	0.607259	
0.133074	0.264097	1	
0.079088	0.165847	0.846387	
0.0651412	0.200096	1	
0.0166107	0.245601	0.898079	
-0.0983601	0.156434	1	
-0.145151	0.0676964	0.847554	
-0.16685	0.0883447	1	
-0.215798	0.142373	0.897172	
0.0461078	-0.0584269	1	
-0.048473	-0.0328568	1	
0.0209546	0.0362755	1	
0.0397395	-0.0938942	0.889407	
0.316847	0.386792	0.698616	
0.159673	0.344869	0.622089	
0.233754	0.245143	0.652714	
0.162962	0.351618	0.758031	
-0.450285	0.217356	0.644698	
-0.4284	0.257824	0.704976	
-0.470916	0.168043	0.699874	
-0.342082	0.155488	0.769444	
-0.214341	0.273759	1	
-0.119993	0.246691	1	
-0.18644	0.1823	1	
-0.175427	0.309191	0.860321	
0.0362446	-0.13014	0.749535	
-0.011467	-0.243815	0.75519	
-0.0497393	-0.170251	0.638216	
0.0917349	-0.220895	0.740016	
-0.246255	-0.212424	0.8311	
-0.324368	-0.232384	0.754222	
-0.352604	-0.116449	0.71733	
-0.198738	-0.193326	0.739814	
-0.322193	0.044739	0.823506	
-0.342082	0.155488	0.769444	
-0.490343	0.0977967	0.758774	
-0.390033	0.0787983	0.902592	
-0.0648143	-0.0272529	0.665015	
-0.10739	-0.142688	0.746667	
-0.0319626	0.00109562	0.771489	
-0.125866	0.0341816	0.729574	
-0.0780607	-0.0724308	0.84691	
-0.10739	-0.142688	0.746667	
-0.209296	-0.0687964	0.747015	
-0.125866	0.0341816	0.729574	
0.218846	0.121291	0.749847	
0.192412	0.00177767	0.748671	
0.171794	0.11325	0.628738	
0.243096	0.0493866	0.595389	
-0.0143548	-0.331636	0.835577	
-0.158356	-0.325914	0.851548	
-0.124427	-0.265373	0.724238	
-0.0966341	-0.368565	0.765144	
-0.00106225	0.370203	0.65	
-0.117277	0.364618	0.76936	
-0.0988881	0.278177	0.686189	
0.0511855	0.375084	0.751646	
-0.0840299	-0.136867	0.5	
-0.170863	-0.122482	0.63474	
-0.0497393	-0.170251	0.638216	
0.000996857	-0.0833524	0.602223	
-0.0183357	0.330286	0.830674	
-0.0988881	0.278177	0.686189	
-0.117277	0.364618	0.76936	
0.0511855	0.375084	0.751646	
0.0362446	-0.13014	0.749535	
0.153146	-0.133743	0.733731	
0.154637	-0.229675	0.832631	
0.0917349	-0.220895	0.740016	
0	0.5	0.8	
-0.0183357	0.330286	0.830674	
-0.117277	0.364618	0.76936	
0.0511855	0.375084	0.751646	
0.115537	0.0107471	1	
0.0461078	-0.0584269	1	
0.0604118	0.00910509	0.839477	
0.0397395	-0.0938942	0.889407	
-0.0341142	0.113867	0.749186	
0.0604118	0.00910509	0.839477	
-0.0319626	0.00109562	0.771489	
0.00311865	0.0446609	0.692024	
0.0362446	-0.13014	0.749535	
-0.0123059	-0.194682	0.863671	
0.0917349	-0.220895	0.740016	
0.0968003	-0.179614	0.902873	
0.217579	-0.0397687	0.636314	
0.243096	0.0493866	0.595389	
0.0786602	-0.0230096	0.587367	
0.0913968	0.0719702	0.595778	
0.469721	0.171353	0.661666	
0.493389	0.0810399	0.64715	
0.335565	0.163368	0.703209	
0.396694	0.0647464	0.588567	
0.115537	0.0107471	1	
0.153122	-0.0879879	0.864132	
0.14072	-0.0839746	1	
0.0397395	-0.0938942	0.889407	
0.5	0	0.8	
0.364623	-0.0450159	0.747721	
0.333846	0.0367661	0.834867	
0.37512	0.124368	0.792934	
0.0461078	-0.0584269	1	
0.0209546	0.0362755	1	
0.0604118	0.00910509	0.839477	
0.0397395	-0.0938942	0.889407	
0.0209546	0.0362755	1	
0.115537	0.0107471	1	
0.0461078	-0.0584269	1	
0.0604118	0.00910509	0.839477	
-0.0780607	-0.0724308	0.84691	
0.0397395	-0.0938942	0.889407	
0.0362446	-0.13014	0.749535	
-0.0319626	0.00109562	0.771489	
-0.450285	0.217356	0.644698	
-0.439458	0.238488	0.575692	
-0.298046	0.172945	0.653946	
-0.373426	0.0982193	0.605831	
0.218846	0.121291	0.749847	
0.310611	0.178263	0.85673	
0.198678	0.268409	0.834396	
0.195469	0.159954	0.886309	
-0.194667	-0.460548	0.76567	
-0.239357	-0.30005	0.729626	
-0.158356	-0.325914	0.851548	
-0.0966341	-0.368565	0.765144	
0.0362446	-0.13014	0.749535	
-0.10739	-0.142688	0.746667	
-0.0319626	0.00109562	0.771489	
0.0272687	-0.0505093	0.69136	
0.478555	0.144862	0.578348	
0.436762	0.243391	0.596938	
0.388496	0.195371	0.5	
0.326633	0.237522	0.603331	
-0.214341	0.273759	1	
-0.175427	0.309191	0.860321	
-0.215798	0.142373	0.897172	
-0.265639	0.299346	0.905431	
-0.16685	0.0883447	1	
-0.142648	-0.00714059	1	
-0.237047	0.0201392	1	
-0.145151	0.0676964	0.847554	
0.0172234	0.375408	0.5	
0.0529867	0.308818	0.5	
0.0895983	0.397206	0.5	
-0.00106225	0.370203	0.65	
-0.439458	0.238488	0.575692	
-0.450285	0.217356	0.644698	
-0.298046	0.172945	0.653946	
-0.306859	0.249519	0.591577	
-0.0497393	-0.170251	0.638216	
0.0610361	-0.307238	0.685164	
-0.011467	-0.243815	0.75519	
-0.000247605	-0.297629	0.606346	
0.415735	0.277785	0.865862	
0.310611	0.178263	0.85673	
0.439458	0.238488	0.924308	
0.287646	0.277342	0.89815	
0.198678	0.268409	0.834396	
0.107558	0.36211	0.8622	
0.133074	0.264097	1	
0.209258	0.343487	0.903692	
-0.439458	0.238488	0.575692	
-0.415735	0.277785	0.634138	
-0.450285	0.217356	0.644698	
-0.306859	0.249519	0.591577	
-0.0232782	-0.127584	1	
-0.0123059	-0.194682	0.863671	
-0.0780607	-0.0724308	0.84691	
0.0397395	-0.0938942	0.889407	
-0.322193	0.044739	0.823506	
-0.224577	0.189906	0.793765	
-0.342082	0.155488	0.769444	
-0.215798	0.142373	0.897172	
0.153122	-0.0879879	0.864132	
0.0397395	-0.0938942	0.889407	
0.0362446	-0.13014	0.749535	
0.0968003	-0.179614	0.902873	
-0.415735	0.277785	0.634138	
-0.298046	0.172945	0.653946	
-0.450285	0.217356	0.644698	
-0.306859	0.249519	0.591577	
-0.333304	0.00409397	0.661614	
-0.352604	-0.116449	0.71733	
-0.209296	-0.0687964	0.747015	
-0.39411	-0.0165863	0.757409	
0.213029	-0.381729	0.5	
0.3168	-0.386831	0.604097	
0.267645	-0.326424	0.5	
0.16292	-0.321139	0.620031	
0.195689	0.0416963	0.86434	
0.257767	-0.0505632	0.898363	
0.192412	0.00177767	0.748671	
0.283277	0.0443669	0.748521	
0.203135	-0.21521	0.664501	
0.326691	-0.12898	0.644897	
0.257355	-0.0987317	0.776667	
0.309938	-0.217964	0.736716	
-0.247057	0.434698	0.749501	
-0.237468	0.305606	0.754243	
-0.25658	0.429146	0.66876	
-0.117277	0.364618	0.76936	
0.257355	-0.0987317	0.776667	
0.192412	0.00177767	0.748671	
0.257767	-0.0505632	0.898363	
0.283277	0.0443669	0.748521	
-0.211369	-0.0761151	1	
-0.227279	-0.033891	0.874484	
-0.117671	-0.10197	1	
-0.231631	-0.136254	0.90444	
-0.142648	-0.00714059	1	
-0.117671	-0.10197	1	
-0.211369	-0.0761151	1	
-0.227279	-0.033891	0.874484	
0.0651412	0.200096	1	
-0.00425413	0.131001	1	
0.079088	0.165847	0.846387	
0.105897	0.0806526	0.900017	
0.313791	-0.154465	1	
0.380207	-0.19708	1	
0.294702	-0.208252	0.864399	
0.360282	-0.0916129	0.861913	
-0.136098	-0.178684	0.882811	
-0.257866	-0.303129	0.891677	
-0.261345	-0.230036	1	
-0.231631	-0.136254	0.90444	
0.218846	0.121291	0.749847	
0.192412	0.00177767	0.748671	
0.243096	0.0493866	0.595389	
0.283277	0.0443669	0.748521	
0.238057	-0.243638	0.5	
0.203135	-0.21521	0.664501	
0.16292	-0.321139	0.620031	
0.306527	-0.240421	0.616434	
-0.257824	-0.4284	0.704976	
-0.194667	-0.460548	0.76567	
-0.168043	-0.470916	0.699874	
-0.0966341	-0.368565	0.765144	
-0.225501	0.288034	0.633154	
-0.237468	0.305606	0.754243	
-0.0988881	0.278177	0.686189	
-0.117277	0.364618	0.76936	
-0.142648	-0.00714059	1	
-0.237047	0.0201392	1	
-0.145151	0.0676964	0.847554	
-0.227279	-0.033891	0.874484	
0.198678	0.268409	0.834396	
0.310611	0.178263	0.85673	
0.218846	0.121291	0.749847	
0.292421	0.250833	0.767221	
-0.117671	-0.10197	1	
-0.0780607	-0.0724308	0.84691	
-0.0232782	-0.127584	1	
-0.136098	-0.178684	0.882811	
-0.450285	0.217356	0.644698	
-0.415735	0.277785	0.634138	
-0.4284	0.257824	0.704976	
-0.298046	0.172945	0.653946	
-0.41072	-0.12459	1	
-0.34489	-0.101074	0.850415	
-0.344127	-0.112227	1	
-0.338	-0.218597	0.893416	
0.0651412	0.200096	1	
0.0903521	0.10545	1	
-0.00425413	0.131001	1	
0.105897	0.0806526	0.900017	
-0.0802187	0.199602	0.860073	
-0.175427	0.309191	0.860321	
-0.224577	0.189906	0.793765	
-0.215798	0.142373	0.897172	
0.332994	0.0375409	0.661618	
0.217579	-0.0397687	0.636314	
0.326691	-0.12898	0.644897	
0.364623	-0.0450159	0.747721	
-0.00425413	0.131001	1	
-0.0265366	0.088395	0.883809	
0.079088	0.165847	0.846387	
0.105897	0.0806526	0.900017	
0.0954521	0.018975	0.675961	
0.0991673	-0.046171	0.758635	
0.0604118	0.00910509	0.839477	
0.00311865	0.0446609	0.692024	
0.218846	0.121291	0.749847	
0.192412	0.00177767	0.748671	
0.195689	0.0416963	0.86434	
0.100339	0.12014	0.738531	
-0.00106225	0.370203	0.65	
-0.117277	0.364618	0.76936	
-0.0814864	0.493315	0.652319	
-0.112546	0.368373	0.611308	
0.332994	0.0375409	0.661618	
0.39042	-0.0433488	0.606813	
0.217579	-0.0397687	0.636314	
0.243096	0.0493866	0.595389	
0.00344957	0.138123	0.5	
0.0462278	0.146831	0.635901	
0.0177914	0.213039	0.5	
-0.0842182	0.182405	0.629411	
0.0362446	-0.13014	0.749535	
0.0917349	-0.220895	0.740016	
0.154637	-0.229675	0.832631	
0.0968003	-0.179614	0.902873	
-0.224577	0.189906	0.793765	
-0.0802187	0.199602	0.860073	
-0.145151	0.0676964	0.847554	
-0.128722	0.176827	0.731598	
0.153328	0.47591	0.59237	
0.0704482	0.495012	0.571845	
0.0895983	0.397206	0.5	
0.159673	0.344869	0.622089	
-0.00425413	0.131001	1	
0.079088	0.165847	0.846387	
-0.0265366	0.088395	0.883809	
0.0166107	0.245601	0.898079	
0.133074	0.264097	1	
0.0166107	0.245601	0.898079	
0.107558	0.36211	0.8622	
0.0922358	0.267303	0.814992	
-0.246255	-0.212424	0.8311	
-0.257866	-0.303129	0.891677	
-0.136098	-0.178684	0.882811	
-0.231631	-0.136254	0.90444	
0.450285	-0.217356	0.644698	
0.415735	-0.277785	0.634138	
0.4284	-0.257824	0.704976	
0.306527	-0.240421	0.616434	
-0.142648	-0.00714059	1	
-0.227279	-0.033891	0.874484	
-0.145151	0.0676964	0.847554	
-0.0877381	0.00876541	0.911432	
-0.490343	0.0977967	0.758774	
-0.342082	0.155488	0.769444	
-0.322193	0.044739	0.823506	
-0.391681	0.0802879	0.710436	
-0.209296	-0.0687964	0.747015	
-0.227279	-0.033891	0.874484	
-0.34489	-0.101074	0.850415	
-0.231631	-0.136254	0.90444	
-0.0648143	-0.0272529	0.665015	
-0.0319626	0.00109562	0.771489	
-0.10739	-0.142688	0.746667	
0.0272687	-0.0505093	0.69136	
-0.184118	-0.326089	0.626133	
-0.0585559	-0.361231	0.657485	
-0.128733	-0.391758	0.5	
-0.0945272	-0.266606	0.620808	
0.450285	-0.217356	0.644698	
0.309938	-0.217964	0.736716	
0.326691	-0.12898	0.644897	
0.306527	-0.240421	0.616434	
-0.0341142	0.113867	0.749186	
-0.145151	0.0676964	0.847554	
-0.0802187	0.199602	0.860073	
-0.128722	0.176827	0.731598	
0.257355	-0.0987317	0.776667	
0.217579	-0.0397687	0.636314	
0.192412	0.00177767	0.748671	
0.283277	0.0443669	0.748521	
0	0.5	0.8	
-0.0183357	0.330286	0.830674	
-0.0807477	0.493437	0.845776	
-0.117277	0.364618	0.76936	
0.439458	0.238488	0.924308	
0.310611	0.178263	0.85673	
0.373926	0.198925	1	
0.287646	0.277342	0.89815	
-0.168043	-0.470916	0.699874	
-0.0585559	-0.361231	0.657485	
-0.184118	-0.326089	0.626133	
-0.0966341	-0.368565	0.765144	
0.203135	-0.21521	0.664501	
0.154637	-0.229675	0.832631	
0.18031	-0.320943	0.740502	
0.264677	-0.291732	0.802046	
0.079088	0.165847	0.846387	
-0.0341142	0.113867	0.749186	
-0.0265366	0.088395	0.883809	
0.00181727	0.225193	0.776224	
-0.194667	-0.460548	0.76567	
-0.258165	-0.428195	0.798245	
-0.158356	-0.325914	0.851548	
-0.239357	-0.30005	0.729626	
0.0604118	0.00910509	0.839477	
0.0954521	0.018975	0.675961	
0.100339	0.12014	0.738531	
0.0991673	-0.046171	0.758635	
0.153328	0.47591	0.59237	
0.0807477	0.493437	0.654224	
0.0704482	0.495012	0.571845	
0.159673	0.344869	0.622089	
-0.0734441	0.0616893	1	
-0.145151	0.0676964	0.847554	
-0.0265366	0.088395	0.883809	
-0.0877381	0.00876541	0.911432	
0.332994	0.0375409	0.661618	
0.217579	-0.0397687	0.636314	
0.364623	-0.0450159	0.747721	
0.283277	0.0443669	0.748521	
-0.322193	0.044739	0.823506	
-0.342082	0.155488	0.769444	
-0.311262	0.211476	0.883807	
-0.215798	0.142373	0.897172	
-0.0143548	-0.331636	0.835577	
-0.0966341	-0.368565	0.765144	
0	-0.5	0.8	
-0.0832182	-0.39248	0.894675	
-0.374813	0.199394	0.5	
-0.439458	0.238488	0.575692	
-0.373426	0.0982193	0.605831	
-0.306859	0.249519	0.591577	
0.0954521	0.018975	0.675961	
0.100517	-0.109754	0.630856	
0.217579	-0.0397687	0.636314	
0.0991673	-0.046171	0.758635	
-0.0143548	-0.331636	0.835577	
-0.0832182	-0.39248	0.894675	
-0.0328721	-0.370689	1	
-0.0781785	-0.271888	0.896904	
0.0362446	-0.13014	0.749535	
-0.0319626	0.00109562	0.771489	
0.0604118	0.00910509	0.839477	
0.0991673	-0.046171	0.758635	
0.0362446	-0.13014	0.749535	
-0.10739	-0.142688	0.746667	
-0.0780607	-0.0724308	0.84691	
-0.0319626	0.00109562	0.771489	
-0.201912	0.369986	1	
-0.175427	0.309191	0.860321	
-0.235698	0.440961	0.931431	
-0.0738147	0.390008	0.901946	
0.0362446	-0.13014	0.749535	
-0.0123059	-0.194682	0.863671	
-0.0780607	-0.0724308	0.84691	
-0.10739	-0.142688	0.746667	
0.294702	-0.208252	0.864399	
0.154637	-0.229675	0.832631	
0.309938	-0.217964	0.736716	
0.264677	-0.291732	0.802046	
0.450285	-0.217356	0.644698	
0.4284	-0.257824	0.704976	
0.309938	-0.217964	0.736716	
0.306527	-0.240421	0.616434	
0.332994	0.0375409	0.661618	
0.490343	0.0977967	0.741226	
0.335565	0.163368	0.703209	
0.37512	0.124368	0.792934	
-0.0854243	0.492649	0.748597	
-0.117277	0.364618	0.76936	
-0.00106225	0.370203	0.65	
0.0511855	0.375084	0.751646	
-0.34489	-0.101074	0.850415	
-0.352604	-0.116449	0.71733	
-0.246255	-0.212424	0.8311	
-0.324368	-0.232384	0.754222	
0.278817	-0.00472784	0.5	
0.217579	-0.0397687	0.636314	
0.39042	-0.0433488	0.606813	
0.243096	0.0493866	0.595389	
0.0954521	0.018975	0.675961	
0.217579	-0.0397687	0.636314	
0.0786602	-0.0230096	0.587367	
0.0913968	0.0719702	0.595778	
0.338823	-0.0848934	0.5	
0.278817	-0.00472784	0.5	
0.217579	-0.0397687	0.636314	
0.39042	-0.0433488	0.606813	
-0.0854243	0.492649	0.748597	
-0.00106225	0.370203	0.65	
0	0.5	0.7	
0.0511855	0.375084	0.751646	
-0.450285	0.217356	0.644698	
-0.373426	0.0982193	0.605831	
-0.298046	0.172945	0.653946	
-0.391681	0.0802879	0.710436	
0.0704482	0.495012	0.571845	
0	0.5	0.6	
0.0367592	0.441595	0.5	
-0.00106225	0.370203	0.65	
0.257355	-0.0987317	0.776667	
0.257767	-0.0505632	0.898363	
0.333846	0.0367661	0.834867	
0.283277	0.0443669	0.748521	
0.115537	0.0107471	1	
0.14072	-0.0839746	1	
0.0461078	-0.0584269	1	
0.0397395	-0.0938942	0.889407	
-0.224577	0.189906	0.793765	
-0.322193	0.044739	0.823506	
-0.224391	0.0726716	0.751498	
-0.215798	0.142373	0.897172	
0.195689	0.0416963	0.86434	
0.333846	0.0367661	0.834867	
0.257767	-0.0505632	0.898363	
0.283277	0.0443669	0.748521	
0.238057	-0.243638	0.5	
0.180973	-0.312061	0.5	
0.267645	-0.326424	0.5	
0.16292	-0.321139	0.620031	
0.144361	-0.223672	0.5	
0.238057	-0.243638	0.5	
0.212642	-0.171195	0.5	
0.203135	-0.21521	0.664501	
-0.0988881	0.278177	0.686189	
-0.237468	0.305606	0.754243	
-0.225501	0.288034	0.633154	
-0.128722	0.176827	0.731598	
-0.217356	-0.450285	0.644698	
-0.257824	-0.4284	0.704976	
-0.168043	-0.470916	0.699874	
-0.184118	-0.326089	0.626133	
-0.00106225	0.370203	0.65	
0.159673	0.344869	0.622089	
0.0877841	0.277766	0.703945	
0.000715258	0.25479	0.628643	
-0.267995	-0.204807	0.662178	
-0.358854	-0.187212	0.601126	
-0.307929	-0.189485	0.5	
-0.28318	-0.296642	0.616188	
0.310611	0.178263	0.85673	
0.277593	0.0916628	0.90095	
0.218846	0.121291	0.749847	
0.283277	0.0443669	0.748521	
0.0362446	-0.13014	0.749535	
-0.0497393	-0.170251	0.638216	
-0.10739	-0.142688	0.746667	
0.0272687	-0.0505093	0.69136	
0.0651412	0.200096	1	
0.079088	0.165847	0.846387	
-0.00425413	0.131001	1	
0.0166107	0.245601	0.898079	
-0.0123059	-0.194682	0.863671	
0.0917349	-0.220895	0.740016	
0.054972	-0.274643	0.900622	
0.0672081	-0.306462	0.784462	
0.0462278	0.146831	0.635901	
0.100339	0.12014	0.738531	
0.0877841	0.277766	0.703945	
0.00181727	0.225193	0.776224	
0.317206	0.386498	0.799678	
0.316847	0.386792	0.698616	
0.292421	0.250833	0.767221	
0.162962	0.351618	0.758031	
0	-0.5	0.8	
-0.0966341	-0.368565	0.765144	
-0.0143548	-0.331636	0.835577	
0.0132695	-0.394263	0.743185	
0.115537	0.0107471	1	
0.0604118	0.00910509	0.839477	
0.0209546	0.0362755	1	
0.105897	0.0806526	0.900017	
0.115537	0.0107471	1	
0.195689	0.0416963	0.86434	
0.210156	-0.0147965	1	
0.153122	-0.0879879	0.864132	
0.144361	-0.223672	0.5	
0.203135	-0.21521	0.664501	
0.212642	-0.171195	0.5	
0.231926	-0.137602	0.598516	
0.0954521	0.018975	0.675961	
0.192412	0.00177767	0.748671	
0.171794	0.11325	0.628738	
0.100339	0.12014	0.738531	
-0.0572576	0.362529	0.5	
0.000715258	0.25479	0.628643	
-0.00106225	0.370203	0.65	
-0.112546	0.368373	0.611308	
-0.142648	-0.00714059	1	
-0.145151	0.0676964	0.847554	
-0.16685	0.0883447	1	
-0.0877381	0.00876541	0.911432	
-0.0648143	-0.0272529	0.665015	
-0.10739	-0.142688	0.746667	
-0.0497393	-0.170251	0.638216	
0.0272687	-0.0505093	0.69136	
0.490343	0.0977967	0.741226	
0.469721	0.171353	0.661666	
0.493389	0.0810399	0.64715	
0.335565	0.163368	0.703209	
0.490343	0.0977967	0.741226	
0.332994	0.0375409	0.661618	
0.5	0	0.7	
0.364623	-0.0450159	0.747721	
-0.0328721	-0.370689	1	
-0.0832182	-0.39248	0.894675	
-0.0143548	-0.331636	0.835577	
0.032794	-0.401349	0.896695	
0.5	0	0.8	
0.490343	0.0977967	0.741226	
0.364623	-0.0450159	0.747721	
0.37512	0.124368	0.792934	
-0.237047	0.0201392	1	
-0.16685	0.0883447	1	
-0.145151	0.0676964	0.847554	
-0.277483	0.0617124	0.914802	
0.338823	-0.0848934	0.5	
0.217579	-0.0397687	0.636314	
0.242205	-0.0931162	0.5	
0.231926	-0.137602	0.598516	
0.415735	0.277785	0.865862	
0.292421	0.250833	0.767221	
0.310611	0.178263	0.85673	
0.287646	0.277342	0.89815	
-0.209296	-0.0687964	0.747015	
-0.224391	0.0726716	0.751498	
-0.145151	0.0676964	0.847554	
-0.125866	0.0341816	0.729574	
0.439458	0.238488	0.924308	
0.415735	0.277785	0.865862	
0.450285	0.217356	0.855302	
0.310611	0.178263	0.85673	
0.333846	0.0367661	0.834867	
0.277593	0.0916628	0.90095	
0.310611	0.178263	0.85673	
0.283277	0.0443669	0.748521	
0.0604118	0.00910509	0.839477	
-0.0780607	-0.0724308	0.84691	
0.0397395	-0.0938942	0.889407	
-0.0877381	0.00876541	0.911432	
0.439458	-0.238488	0.575692	
0.450285	-0.217356	0.644698	
0.326691	-0.12898	0.644897	
0.306527	-0.240421	0.616434	
0.493012	-0.0833019	0.655211	
0.326691	-0.12898	0.644897	
0.470916	-0.168043	0.699874	
0.364623	-0.0450159	0.747721	
0.0604118	0.00910509	0.839477	
0.0397395	-0.0938942	0.889407	
0.0362446	-0.13014	0.749535	
0.0991673	-0.046171	0.758635	
-0.0341142	0.113867	0.749186	
-0.128722	0.176827	0.731598	
0.00181727	0.225193	0.776224	
-0.0842182	0.182405	0.629411	
-0.124427	-0.265373	0.724238	
-0.136098	-0.178684	0.882811	
-0.10739	-0.142688	0.746667	
-0.198738	-0.193326	0.739814	
-0.209296	-0.0687964	0.747015	
-0.227279	-0.033891	0.874484	
-0.145151	0.0676964	0.847554	
-0.224391	0.0726716	0.751498	
-0.0854243	0.492649	0.748597	
0	0.5	0.8	
-0.117277	0.364618	0.76936	
0.0511855	0.375084	0.751646	
0.380207	-0.19708	1	
0.478555	-0.144862	0.921652	
0.436762	-0.243391	0.903062	
0.360282	-0.0916129	0.861913	
-0.0802187	0.199602	0.860073	
-0.0265366	0.088395	0.883809	
-0.0341142	0.113867	0.749186	
0.00181727	0.225193	0.776224	
-0.237047	0.0201392	1	
-0.145151	0.0676964	0.847554	
-0.227279	-0.033891	0.874484	
-0.277483	0.0617124	0.914802	
0.0954521	0.018975	0.675961	
0.243096	0.0493866	0.595389	
0.217579	-0.0397687	0.636314	
0.0913968	0.0719702	0.595778	
0.100517	-0.109754	0.630856	
0.153146	-0.133743	0.733731	
0.217579	-0.0397687	0.636314	
0.0991673	-0.046171	0.758635	
-0.311262	0.211476	0.883807	
-0.342082	0.155488	0.769444	
-0.224577	0.189906	0.793765	
-0.215798	0.142373	0.897172	
-0.152694	-0.476114	0.59754	
-0.217356	-0.450285	0.644698	
-0.168043	-0.470916	0.699874	
-0.184118	-0.326089	0.626133	
-0.0497393	-0.170251	0.638216	
-0.170863	-0.122482	0.63474	
-0.0648143	-0.0272529	0.665015	
0.000996857	-0.0833524	0.602223	
-0.0341142	0.113867	0.749186	
0.100339	0.12014	0.738531	
0.0462278	0.146831	0.635901	
0.00181727	0.225193	0.776224	
0.168734	0.470668	0.701781	
0.0807477	0.493437	0.654224	
0.159673	0.344869	0.622089	
0.0511855	0.375084	0.751646	
-0.145646	0.149141	0.5	
-0.157178	0.100595	0.650339	
-0.0785029	0.119253	0.5	
-0.0842182	0.182405	0.629411	
-0.157178	0.100595	0.650339	
-0.0470393	0.078068	0.615792	
-0.0785029	0.119253	0.5	
-0.0842182	0.182405	0.629411	
-0.048473	-0.0328568	1	
-0.0232782	-0.127584	1	
-0.0780607	-0.0724308	0.84691	
0.0397395	-0.0938942	0.889407	
-0.0648143	-0.0272529	0.665015	
-0.209296	-0.0687964	0.747015	
-0.10739	-0.142688	0.746667	
-0.125866	0.0341816	0.729574	
0.154637	-0.229675	0.832631	
0.153122	-0.0879879	0.864132	
0.257355	-0.0987317	0.776667	
0.153146	-0.133743	0.733731	
0.493012	-0.0833019	0.655211	
0.326691	-0.12898	0.644897	
0.364623	-0.0450159	0.747721	
0.39042	-0.0433488	0.606813	
-0.0810399	-0.493389	0.85285	
0	-0.5	0.8	
-0.0966341	-0.368565	0.765144	
-0.0832182	-0.39248	0.894675	
0.257355	-0.0987317	0.776667	
0.203135	-0.21521	0.664501	
0.309938	-0.217964	0.736716	
0.153146	-0.133743	0.733731	
0.0954521	0.018975	0.675961	
0.171794	0.11325	0.628738	
0.243096	0.0493866	0.595389	
0.0913968	0.0719702	0.595778	
0.0559726	-0.187061	0.5	
-0.00743541	-0.147874	0.5	
-0.0497393	-0.170251	0.638216	
0.000996857	-0.0833524	0.602223	
-0.0734441	0.0616893	1	
-0.16685	0.0883447	1	
-0.145151	0.0676964	0.847554	
-0.0877381	0.00876541	0.911432	
-0.298046	0.172945	0.653946	
-0.224391	0.0726716	0.751498	
-0.342082	0.155488	0.769444	
-0.391681	0.0802879	0.710436	
0.187412	-0.0186436	0.5	
0.176571	0.0516571	0.5	
0.0786602	-0.0230096	0.587367	
0.243096	0.0493866	0.595389	
-0.128733	-0.391758	0.5	
-0.184118	-0.326089	0.626133	
-0.152694	-0.476114	0.59754	
-0.0585559	-0.361231	0.657485	
0.380207	-0.19708	1	
0.394936	-0.119803	1	
0.478555	-0.144862	0.921652	
0.360282	-0.0916129	0.861913	
-0.145151	0.0676964	0.847554	
-0.0802187	0.199602	0.860073	
-0.224577	0.189906	0.793765	
-0.215798	0.142373	0.897172	
0.238057	-0.243638	0.5	
0.203135	-0.21521	0.664501	
0.144361	-0.223672	0.5	
0.16292	-0.321139	0.620031	
-0.201912	0.369986	1	
-0.118932	0.39861	1	
-0.138674	0.323797	1	
-0.0738147	0.390008	0.901946	
-0.0123059	-0.194682	0.863671	
0.154637	-0.229675	0.832631	
0.054972	-0.274643	0.900622	
0.0917349	-0.220895	0.740016	
0.317206	0.386498	0.799678	
0.292421	0.250833	0.767221	
0.198678	0.268409	0.834396	
0.162962	0.351618	0.758031	
0.0559726	-0.187061	0.5	
-0.0497393	-0.170251	0.638216	
0.0957286	-0.225187	0.608184	
0.000996857	-0.0833524	0.602223	
-0.333304	0.00409397	0.661614	
-0.373426	0.0982193	0.605831	
-0.5	0	0.6	
-0.391681	0.0802879	0.710436	
0.133074	0.264097	1	
0.198678	0.268409	0.834396	
0.231243	0.24169	1	
0.195469	0.159954	0.886309	
0.0943468	-0.245334	1	
0.154637	-0.229675	0.832631	
0.054972	-0.274643	0.900622	
0.0968003	-0.179614	0.902873	
-0.26105	0.203399	1	
-0.214341	0.273759	1	
-0.215798	0.142373	0.897172	
-0.265639	0.299346	0.905431	
-0.478555	0.144862	0.921652	
-0.389036	0.207425	1	
-0.404541	0.126945	1	
-0.390033	0.0787983	0.902592	
0.4284	0.257824	0.795024	
0.310611	0.178263	0.85673	
0.415735	0.277785	0.865862	
0.292421	0.250833	0.767221	
0.218846	0.121291	0.749847	
0.243096	0.0493866	0.595389	
0.279002	0.143488	0.606802	
0.283277	0.0443669	0.748521	
-0.298046	0.172945	0.653946	
-0.373426	0.0982193	0.605831	
-0.439458	0.238488	0.575692	
-0.306859	0.249519	0.591577	
0.0954521	0.018975	0.675961	
0.217579	-0.0397687	0.636314	
0.192412	0.00177767	0.748671	
0.0991673	-0.046171	0.758635	
-0.0854243	0.492649	0.748597	
-0.0814864	0.493315	0.652319	
-0.00106225	0.370203	0.65	
-0.117277	0.364618	0.76936	
-0.493012	0.0833019	0.655211	
-0.5	0	0.6	
-0.373426	0.0982193	0.605831	
-0.391681	0.0802879	0.710436	
0.00344957	0.138123	0.5	
-0.0470393	0.078068	0.615792	
0.0462278	0.146831	0.635901	
-0.0842182	0.182405	0.629411	
0.364623	-0.0450159	0.747721	
0.37512	0.124368	0.792934	
0.332994	0.0375409	0.661618	
0.283277	0.0443669	0.748521	
-0.124427	-0.265373	0.724238	
-0.239357	-0.30005	0.729626	
-0.184118	-0.326089	0.626133	
-0.0966341	-0.368565	0.765144	
-0.389036	0.207425	1	
-0.436762	0.243391	0.903062	
-0.311262	0.211476	0.883807	
-0.390033	0.0787983	0.902592	
0.388496	0.195371	0.5	
0.399086	0.112543	0.5	
0.478555	0.144862	0.578348	
0.396694	0.0647464	0.588567	
-0.470916	0.168043	0.699874	
-0.373426	0.0982193	0.605831	
-0.450285	0.217356	0.644698	
-0.391681	0.0802879	0.710436	
-0.380873	0.323938	0.847739	
-0.237468	0.305606	0.754243	
-0.311262	0.211476	0.883807	
-0.318622	0.246893	0.724741	
0.154637	-0.229675	0.832631	
0.0917349	-0.220895	0.740016	
-0.0123059	-0.194682	0.863671	
0.0968003	-0.179614	0.902873	
-0.0840299	-0.136867	0.5	
-0.0293436	-0.0762152	0.5	
-0.120671	-0.0405641	0.5	
0.000996857	-0.0833524	0.602223	
0.192412	0.00177767	0.748671	
0.100339	0.12014	0.738531	
0.0954521	0.018975	0.675961	
0.0991673	-0.046171	0.758635	
-0.323938	-0.380873	0.847739	
-0.239357	-0.30005	0.729626	
-0.324368	-0.232384	0.754222	
-0.257866	-0.303129	0.891677	
0.218846	0.121291	0.749847	
0.171794	0.11325	0.628738	
0.192412	0.00177767	0.748671	
0.100339	0.12014	0.738531	
-0.0341142	0.113867	0.749186	
-0.0802187	0.199602	0.860073	
-0.145151	0.0676964	0.847554	
-0.0265366	0.088395	0.883809	
0.079088	0.165847	0.846387	
-0.0265366	0.088395	0.883809	
-0.0802187	0.199602	0.860073	
0.00181727	0.225193	0.776224	
0.317233	0.386476	0.590473	
0.233754	0.245143	0.652714	
0.316847	0.386792	0.698616	
0.159673	0.344869	0.622089	
-0.00425413	0.131001	1	
-0.0265366	0.088395	0.883809	
-0.0802187	0.199602	0.860073	
0.0166107	0.245601	0.898079	
-0.124427	-0.265373	0.724238	
-0.239357	-0.30005	0.729626	
-0.158356	-0.325914	0.851548	
-0.198738	-0.193326	0.739814	
-0.175427	0.309191	0.860321	
-0.224577	0.189906	0.793765	
-0.215798	0.142373	0.897172	
-0.265639	0.299346	0.905431	
-0.322193	0.044739	0.823506	
-0.215798	0.142373	0.897172	
-0.311262	0.211476	0.883807	
-0.277483	0.0617124	0.914802	
-0.18644	0.1823	1	
-0.26105	0.203399	1	
-0.214341	0.273759	1	
-0.215798	0.142373	0.897172	
-0.145151	0.0676964	0.847554	
-0.224391	0.0726716	0.751498	
-0.227279	-0.033891	0.874484	
-0.277483	0.0617124	0.914802	
-0.117671	-0.10197	1	
-0.048473	-0.0328568	1	
-0.0232782	-0.127584	1	
-0.0780607	-0.0724308	0.84691	
0.0288165	-0.00472784	0.5	
-0.0470393	0.078068	0.615792	
0.000996857	-0.0833524	0.602223	
0.0786602	-0.0230096	0.587367	
-0.0785029	0.119253	0.5	
-0.157178	0.100595	0.650339	
-0.122627	0.0544512	0.5	
-0.0470393	0.078068	0.615792	
0.388496	0.195371	0.5	
0.315521	0.155675	0.5	
0.279002	0.143488	0.606802	
0.326633	0.237522	0.603331	
-0.0780607	-0.0724308	0.84691	
-0.0123059	-0.194682	0.863671	
0.0362446	-0.13014	0.749535	
0.0397395	-0.0938942	0.889407	
0.0651412	0.200096	1	
0.079088	0.165847	0.846387	
0.158056	0.171884	1	
0.105897	0.0806526	0.900017	
-0.311262	0.211476	0.883807	
-0.237468	0.305606	0.754243	
-0.380873	0.323938	0.847739	
-0.265639	0.299346	0.905431	
0.217579	-0.0397687	0.636314	
0.153146	-0.133743	0.733731	
0.192412	0.00177767	0.748671	
0.0991673	-0.046171	0.758635	
-0.201912	0.369986	1	
-0.138674	0.323797	1	
-0.175427	0.309191	0.860321	
-0.0738147	0.390008	0.901946	
0.242822	0.437078	0.652991	
0.159673	0.344869	0.622089	
0.316847	0.386792	0.698616	
0.162962	0.351618	0.758031	
-0.0295403	0.225144	1	
-0.0802187	0.199602	0.860073	
-0.119993	0.246691	1	
0.0166107	0.245601	0.898079	
0.154637	-0.229675	0.832631	
0.294702	-0.208252	0.864399	
0.257355	-0.0987317	0.776667	
0.208315	-0.166389	0.905666	
0.317233	0.386476	0.590473	
0.196796	0.354228	0.5	
0.234372	0.286063	0.5	
0.159673	0.344869	0.622089	
-0.122627	0.0544512	0.5	
-0.0785029	0.119253	0.5	
-0.145646	0.149141	0.5	
-0.157178	0.100595	0.650339	
-0.247057	0.434698	0.749501	
-0.25658	0.429146	0.66876	
-0.174678	0.468495	0.682891	
-0.117277	0.364618	0.76936	
0.476114	-0.152694	0.59754	
0.439458	-0.238488	0.575692	
0.450285	-0.217356	0.644698	
0.326691	-0.12898	0.644897	
-0.0143548	-0.331636	0.835577	
-0.0832182	-0.39248	0.894675	
0	-0.5	0.8	
0.032794	-0.401349	0.896695	
-0.0505573	-0.00469477	0.5	
0.0288165	-0.00472784	0.5	
-0.0470393	0.078068	0.615792	
0.000996857	-0.0833524	0.602223	
0.154637	-0.229675	0.832631	
0.257355	-0.0987317	0.776667	
0.153122	-0.0879879	0.864132	
0.208315	-0.166389	0.905666	
0.0362446	-0.13014	0.749535	
0.0397395	-0.0938942	0.889407	
-0.0123059	-0.194682	0.863671	
0.0968003	-0.179614	0.902873	
-0.0295403	0.225144	1	
-0.119993	0.246691	1	
-0.0555676	0.325574	1	
0.0166107	0.245601	0.898079	
-0.145151	0.0676964	0.847554	
-0.0319626	0.00109562	0.771489	
-0.0780607	-0.0724308	0.84691	
-0.125866	0.0341816	0.729574	
0.25658	0.429146	0.83124	
0.317206	0.386498	0.799678	
0.198678	0.268409	0.834396	
0.162962	0.351618	0.758031	
0.300884	0.198715	1	
0.310611	0.178263	0.85673	
0.195469	0.159954	0.886309	
0.287646	0.277342	0.89815	
-0.0341142	0.113867	0.749186	
0.0604118	0.00910509	0.839477	
-0.0265366	0.088395	0.883809	
-0.0319626	0.00109562	0.771489	
0.218846	0.121291	0.749847	
0.37512	0.124368	0.792934	
0.310611	0.178263	0.85673	
0.283277	0.0443669	0.748521	
0.201164	-0.273578	1	
0.154637	-0.229675	0.832631	
0.21926	-0.328264	0.896532	
0.054972	-0.274643	0.900622	
0.310611	0.178263	0.85673	
0.37512	0.124368	0.792934	
0.333846	0.0367661	0.834867	
0.283277	0.0443669	0.748521	
0.100517	-0.109754	0.630856	
0.0957286	-0.225187	0.608184	
-0.0497393	-0.170251	0.638216	
0.000996857	-0.0833524	0.602223	
0.373926	0.198925	1	
0.310611	0.178263	0.85673	
0.300884	0.198715	1	
0.287646	0.277342	0.89815	
0.415735	0.277785	0.865862	
0.374193	0.331632	0.834643	
0.292421	0.250833	0.767221	
0.287646	0.277342	0.89815	
-0.389036	0.207425	1	
-0.328307	0.16356	1	
-0.404541	0.126945	1	
-0.390033	0.0787983	0.902592	
-0.490343	0.0977967	0.758774	
-0.322193	0.044739	0.823506	
-0.39411	-0.0165863	0.757409	
-0.391681	0.0802879	0.710436	
-0.267995	-0.204807	0.662178	
-0.209296	-0.0687964	0.747015	
-0.352604	-0.116449	0.71733	
-0.198738	-0.193326	0.739814	
-0.158356	-0.325914	0.851548	
-0.239357	-0.30005	0.729626	
-0.258165	-0.428195	0.798245	
-0.257866	-0.303129	0.891677	
-0.168688	-0.281701	1	
-0.261345	-0.230036	1	
-0.136098	-0.178684	0.882811	
-0.257866	-0.303129	0.891677	
0.470916	-0.168043	0.699874	
0.364623	-0.0450159	0.747721	
0.326691	-0.12898	0.644897	
0.371228	-0.144256	0.774162	
0.176571	0.0516571	0.5	
0.0786602	-0.0230096	0.587367	
0.243096	0.0493866	0.595389	
0.0913968	0.0719702	0.595778	
-0.158356	-0.325914	0.851548	
-0.239357	-0.30005	0.729626	
-0.246255	-0.212424	0.8311	
-0.198738	-0.193326	0.739814	
-0.0123059	-0.194682	0.863671	
-0.10739	-0.142688	0.746667	
0.0362446	-0.13014	0.749535	
-0.011467	-0.243815	0.75519	
-0.0143548	-0.331636	0.835577	
-0.124427	-0.265373	0.724238	
-0.011467	-0.243815	0.75519	
-0.0966341	-0.368565	0.765144	
0.154637	-0.229675	0.832631	
0.054972	-0.274643	0.900622	
0.0917349	-0.220895	0.740016	
0.0672081	-0.306462	0.784462	
0.0362446	-0.13014	0.749535	
0.0397395	-0.0938942	0.889407	
0.153122	-0.0879879	0.864132	
0.0991673	-0.046171	0.758635	
0.122026	0.332598	0.5	
0.0895983	0.397206	0.5	
0.0529867	0.308818	0.5	
0.159673	0.344869	0.622089	
0.4284	0.257824	0.795024	
0.450285	0.217356	0.855302	
0.415735	0.277785	0.865862	
0.310611	0.178263	0.85673	
-0.469721	0.171353	0.838334	
-0.342082	0.155488	0.769444	
-0.311262	0.211476	0.883807	
-0.390033	0.0787983	0.902592	
0.313791	-0.154465	1	
0.360282	-0.0916129	0.861913	
0.294702	-0.208252	0.864399	
0.257767	-0.0505632	0.898363	
-0.145151	0.0676964	0.847554	
-0.215798	0.142373	0.897172	
-0.224391	0.0726716	0.751498	
-0.277483	0.0617124	0.914802	
0.346509	0.0237889	1	
0.257767	-0.0505632	0.898363	
0.277593	0.0916628	0.90095	
0.397985	-0.0056	0.902207	
0	0.5	0.8	
-0.0738147	0.390008	0.901946	
-0.0183357	0.330286	0.830674	
0.025786	0.402982	0.903855	
-0.209296	-0.0687964	0.747015	
-0.322193	0.044739	0.823506	
-0.227279	-0.033891	0.874484	
-0.224391	0.0726716	0.751498	
-0.0780607	-0.0724308	0.84691	
0.0604118	0.00910509	0.839477	
-0.0319626	0.00109562	0.771489	
-0.0877381	0.00876541	0.911432	
-0.401548	-0.0423374	1	
-0.34489	-0.101074	0.850415	
-0.41072	-0.12459	1	
-0.404383	-0.0159907	0.861288	
0.317233	0.386476	0.590473	
0.234372	0.286063	0.5	
0.233754	0.245143	0.652714	
0.159673	0.344869	0.622089	
-0.5	0	0.6	
-0.373426	0.0982193	0.605831	
-0.333304	0.00409397	0.661614	
-0.393057	-0.0716576	0.611801	
0.0462278	0.146831	0.635901	
0.0877841	0.277766	0.703945	
0.100339	0.12014	0.738531	
0.157953	0.210834	0.75219	
-0.0341142	0.113867	0.749186	
-0.145151	0.0676964	0.847554	
-0.128722	0.176827	0.731598	
-0.125866	0.0341816	0.729574	
0.153122	-0.0879879	0.864132	
0.153146	-0.133743	0.733731	
0.0362446	-0.13014	0.749535	
0.0991673	-0.046171	0.758635	
0.302987	0.308818	0.5	
0.317233	0.386476	0.590473	
0.234372	0.286063	0.5	
0.326633	0.237522	0.603331	
0.144361	-0.223672	0.5	
0.16292	-0.321139	0.620031	
0.203135	-0.21521	0.664501	
0.0957286	-0.225187	0.608184	
-0.0807477	0.493437	0.845776	
-0.0183357	0.330286	0.830674	
0	0.5	0.8	
-0.0738147	0.390008	0.901946	
0.153122	-0.0879879	0.864132	
0.192412	0.00177767	0.748671	
0.195689	0.0416963	0.86434	
0.257767	-0.0505632	0.898363	
0.133074	0.264097	1	
0.231243	0.24169	1	
0.198678	0.268409	0.834396	
0.209258	0.343487	0.903692	
0.0248177	-0.313374	1	
0.054972	-0.274643	0.900622	
-0.0143548	-0.331636	0.835577	
-0.0781785	-0.271888	0.896904	
0.0462278	0.146831	0.635901	
0.000715258	0.25479	0.628643	
0.0177914	0.213039	0.5	
-0.0842182	0.182405	0.629411	
0.079088	0.165847	0.846387	
0.0604118	0.00910509	0.839477	
0.100339	0.12014	0.738531	
0.105897	0.0806526	0.900017	
-0.437078	-0.242822	0.847009	
-0.324368	-0.232384	0.754222	
-0.34489	-0.101074	0.850415	
-0.338	-0.218597	0.893416	
0.218846	0.121291	0.749847	
0.171794	0.11325	0.628738	
0.279002	0.143488	0.606802	
0.243096	0.0493866	0.595389	
-0.47591	-0.153328	0.90763	
-0.34489	-0.101074	0.850415	
-0.41072	-0.12459	1	
-0.338	-0.218597	0.893416	
-0.120671	-0.0405641	0.5	
-0.213242	-0.007813	0.640954	
-0.170863	-0.122482	0.63474	
-0.125208	0.0156787	0.594569	
-0.0341142	0.113867	0.749186	
-0.0265366	0.088395	0.883809	
-0.145151	0.0676964	0.847554	
-0.0319626	0.00109562	0.771489	
0.257355	-0.0987317	0.776667	
0.192412	0.00177767	0.748671	
0.153122	-0.0879879	0.864132	
0.257767	-0.0505632	0.898363	
0.0877841	0.277766	0.703945	
0.000715258	0.25479	0.628643	
0.159673	0.344869	0.622089	
0.13133	0.218843	0.607259	
0.195689	0.0416963	0.86434	
0.153122	-0.0879879	0.864132	
0.0604118	0.00910509	0.839477	
0.0991673	-0.046171	0.758635	
-0.227279	-0.033891	0.874484	
-0.224391	0.0726716	0.751498	
-0.322193	0.044739	0.823506	
-0.277483	0.0617124	0.914802	
0.203135	-0.21521	0.664501	
0.306527	-0.240421	0.616434	
0.238057	-0.243638	0.5	
0.231926	-0.137602	0.598516	
0.415496	-0.123332	0.5	
0.326691	-0.12898	0.644897	
0.476114	-0.152694	0.59754	
0.39042	-0.0433488	0.606813	
-0.124427	-0.265373	0.724238	
-0.10739	-0.142688	0.746667	
-0.0497393	-0.170251	0.638216	
-0.170863	-0.122482	0.63474	
-0.128733	-0.391758	0.5	
-0.152694	-0.476114	0.59754	
-0.0698189	-0.495101	0.572379	
-0.0585559	-0.361231	0.657485	
0.203135	-0.21521	0.664501	
0.154637	-0.229675	0.832631	
0.153146	-0.133743	0.733731	
0.0917349	-0.220895	0.740016	
0.326691	-0.12898	0.644897	
0.217579	-0.0397687	0.636314	
0.332994	0.0375409	0.661618	
0.39042	-0.0433488	0.606813	
-0.224577	0.189906	0.793765	
-0.224391	0.0726716	0.751498	
-0.322193	0.044739	0.823506	
-0.342082	0.155488	0.769444	
0.154637	-0.229675	0.832631	
-0.0123059	-0.194682	0.863671	
0.054972	-0.274643	0.900622	
0.0968003	-0.179614	0.902873	
0.201164	-0.273578	1	
0.0943468	-0.245334	1	
0.154637	-0.229675	0.832631	
0.054972	-0.274643	0.900622	
0.235698	0.440961	0.568569	
0.196796	0.354228	0.5	
0.317233	0.386476	0.590473	
0.159673	0.344869	0.622089	
0.198678	0.268409	0.834396	
0.292421	0.250833	0.767221	
0.218846	0.121291	0.749847	
0.157953	0.210834	0.75219	
0.00181727	0.225193	0.776224	
-0.128722	0.176827	0.731598	
-0.0988881	0.278177	0.686189	
-0.0842182	0.182405	0.629411	
0.218846	0.121291	0.749847	
0.195469	0.159954	0.886309	
0.198678	0.268409	0.834396	
0.157953	0.210834	0.75219	
0.313791	-0.154465	1	
0.394936	-0.119803	1	
0.380207	-0.19708	1	
0.360282	-0.0916129	0.861913	
-0.00425413	0.131001	1	
-0.0983601	0.156434	1	
-0.0802187	0.199602	0.860073	
-0.0265366	0.088395	0.883809	
-0.401548	-0.0423374	1	
-0.41072	-0.12459	1	
-0.495012	-0.0704482	0.928155	
-0.404383	-0.0159907	0.861288	
0.5	0	0.7	
0.490343	0.0977967	0.741226	
0.493389	0.0810399	0.64715	
0.332994	0.0375409	0.661618	
-0.201912	0.369986	1	
-0.235698	0.440961	0.931431	
-0.153328	0.47591	0.90763	
-0.0738147	0.390008	0.901946	
0.3168	-0.386831	0.604097	
0.267645	-0.326424	0.5	
0.16292	-0.321139	0.620031	
0.253502	-0.311953	0.668431	
-0.311262	0.211476	0.883807	
-0.342082	0.155488	0.769444	
-0.322193	0.044739	0.823506	
-0.390033	0.0787983	0.902592	
0.25658	0.429146	0.83124	
0.198678	0.268409	0.834396	
0.317206	0.386498	0.799678	
0.209258	0.343487	0.903692	
-0.286299	-0.264255	0.5	
-0.228923	-0.22221	0.5	
-0.307929	-0.189485	0.5	
-0.28318	-0.296642	0.616188	
-0.239764	-0.151909	0.5	
-0.267995	-0.204807	0.662178	
-0.307929	-0.189485	0.5	
-0.188154	-0.225182	0.596871	
-0.470668	-0.168734	0.798219	
-0.352604	-0.116449	0.71733	
-0.34489	-0.101074	0.850415	
-0.324368	-0.232384	0.754222	
-0.389036	0.207425	1	
-0.311262	0.211476	0.883807	
-0.328307	0.16356	1	
-0.390033	0.0787983	0.902592	
0.313791	-0.154465	1	
0.257767	-0.0505632	0.898363	
0.294702	-0.208252	0.864399	
0.208315	-0.166389	0.905666	
0.333846	0.0367661	0.834867	
0.37512	0.124368	0.792934	
0.364623	-0.0450159	0.747721	
0.283277	0.0443669	0.748521	
0.213029	-0.381729	0.5	
0.267645	-0.326424	0.5	
0.180973	-0.312061	0.5	
0.16292	-0.321139	0.620031	
0.279002	0.143488	0.606802	
0.243096	0.0493866	0.595389	
0.332994	0.0375409	0.661618	
0.283277	0.0443669	0.748521	
0.0362446	-0.13014	0.749535	
0.100517	-0.109754	0.630856	
-0.0497393	-0.170251	0.638216	
0.000996857	-0.0833524	0.602223	
0.317206	0.386498	0.799678	
0.247057	0.434698	0.750499	
0.316847	0.386792	0.698616	
0.162962	0.351618	0.758031	
0.144361	-0.223672	0.5	
0.0957286	-0.225187	0.608184	
0.203135	-0.21521	0.664501	
0.231926	-0.137602	0.598516	
0.373926	0.198925	1	
0.310611	0.178263	0.85673	
0.439458	0.238488	0.924308	
0.378621	0.110033	0.901946	
-0.0780607	-0.0724308	0.84691	
-0.048473	-0.0328568	1	
0.0397395	-0.0938942	0.889407	
-0.0877381	0.00876541	0.911432	
-0.386498	-0.317206	0.700322	
-0.429146	-0.25658	0.66876	
-0.267995	-0.204807	0.662178	
-0.28318	-0.296642	0.616188	
0.203135	-0.21521	0.664501	
0.18031	-0.320943	0.740502	
0.154637	-0.229675	0.832631	
0.0917349	-0.220895	0.740016	
-0.0143548	-0.331636	0.835577	
0.054972	-0.274643	0.900622	
0.0248177	-0.313374	1	
0.032794	-0.401349	0.896695	
0.14072	-0.0839746	1	
0.115537	0.0107471	1	
0.210156	-0.0147965	1	
0.153122	-0.0879879	0.864132	
-0.246255	-0.212424	0.8311	
-0.324368	-0.232384	0.754222	
-0.239357	-0.30005	0.729626	
-0.257866	-0.303129	0.891677	
0.201164	-0.273578	1	
0.154637	-0.229675	0.832631	
0.0943468	-0.245334	1	
0.0968003	-0.179614	0.902873	
-0.41072	-0.12459	1	
-0.401548	-0.0423374	1	
-0.344127	-0.112227	1	
-0.34489	-0.101074	0.850415	
-0.168688	-0.281701	1	
-0.136098	-0.178684	0.882811	
-0.158356	-0.325914	0.851548	
-0.257866	-0.303129	0.891677	
0.195689	0.0416963	0.86434	
0.192412	0.00177767	0.748671	
0.153122	-0.0879879	0.864132	
0.0991673	-0.046171	0.758635	
0.228991	-0.444481	0.591901	
0.3168	-0.386831	0.604097	
0.213029	-0.381729	0.5	
0.16292	-0.321139	0.620031	
-0.0123059	-0.194682	0.863671	
-0.011467	-0.243815	0.75519	
0.0917349	-0.220895	0.740016	
0.0672081	-0.306462	0.784462	
0.0604118	0.00910509	0.839477	
-0.0265366	0.088395	0.883809	
0.0209546	0.0362755	1	
0.105897	0.0806526	0.900017	
-0.152694	-0.476114	0.59754	
-0.184118	-0.326089	0.626133	
-0.168043	-0.470916	0.699874	
-0.0585559	-0.361231	0.657485	
0.0462278	0.146831	0.635901	
0.100339	0.12014	0.738531	
0.13133	0.218843	0.607259	
0.157953	0.210834	0.75219	
-0.4284	0.257824	0.704976	
-0.298046	0.172945	0.653946	
-0.415735	0.277785	0.634138	
-0.318622	0.246893	0.724741	
-0.0265366	0.088395	0.883809	
-0.0319626	0.00109562	0.771489	
0.0604118	0.00910509	0.839477	
-0.0877381	0.00876541	0.911432	
0.217579	-0.0397687	0.636314	
0.243096	0.0493866	0.595389	
0.192412	0.00177767	0.748671	
0.283277	0.0443669	0.748521	
0.00181727	0.225193	0.776224	
-0.0988881	0.278177	0.686189	
0.000715258	0.25479	0.628643	
-0.0842182	0.182405	0.629411	
-0.311262	0.211476	0.883807	
-0.215798	0.142373	0.897172	
-0.224577	0.189906	0.793765	
-0.265639	0.299346	0.905431	
-0.224577	0.189906	0.793765	
-0.311262	0.211476	0.883807	
-0.237468	0.305606	0.754243	
-0.318622	0.246893	0.724741	
0.079088	0.165847	0.846387	
0.195469	0.159954	0.886309	
0.158056	0.171884	1	
0.105897	0.0806526	0.900017	
0.439458	-0.238488	0.575692	
0.326691	-0.12898	0.644897	
0.366699	-0.192277	0.5	
0.306527	-0.240421	0.616434	
0.292421	0.250833	0.767221	
0.162962	0.351618	0.758031	
0.233754	0.245143	0.652714	
0.157953	0.210834	0.75219	
-0.356684	-0.19351	1	
-0.41072	-0.12459	1	
-0.344127	-0.112227	1	
-0.338	-0.218597	0.893416	
-0.209296	-0.0687964	0.747015	
-0.267995	-0.204807	0.662178	
-0.352604	-0.116449	0.71733	
-0.287784	-0.0964438	0.621465	
-0.0505573	-0.00469477	0.5	
-0.120671	-0.0405641	0.5	
-0.0293436	-0.0762152	0.5	
0.000996857	-0.0833524	0.602223	
0.300884	0.198715	1	
0.310611	0.178263	0.85673	
0.247868	0.146306	1	
0.195469	0.159954	0.886309	
-0.478555	0.144862	0.921652	
-0.436762	0.243391	0.903062	
-0.389036	0.207425	1	
-0.390033	0.0787983	0.902592	
0.203135	-0.21521	0.664501	
0.0957286	-0.225187	0.608184	
0.0610361	-0.307238	0.685164	
0.0917349	-0.220895	0.740016	
-0.322193	0.044739	0.823506	
-0.311262	0.211476	0.883807	
-0.390033	0.0787983	0.902592	
-0.277483	0.0617124	0.914802	
0.0462278	0.146831	0.635901	
0.00181727	0.225193	0.776224	
0.0877841	0.277766	0.703945	
0.000715258	0.25479	0.628643	
-0.4284	0.257824	0.704976	
-0.342082	0.155488	0.769444	
-0.298046	0.172945	0.653946	
-0.318622	0.246893	0.724741	
0.493389	-0.0810399	0.85285	
0.5	0	0.8	
0.360282	-0.0916129	0.861913	
0.397985	-0.0056	0.902207	
0.203135	-0.21521	0.664501	
0.0610361	-0.307238	0.685164	
0.18031	-0.320943	0.740502	
0.0917349	-0.220895	0.740016	
-0.261345	-0.230036	1	
-0.186407	-0.169451	1	
-0.136098	-0.178684	0.882811	
-0.231631	-0.136254	0.90444	
0.0610361	-0.307238	0.685164	
0.203135	-0.21521	0.664501	
0.16292	-0.321139	0.620031	
0.0957286	-0.225187	0.608184	
-0.333304	0.00409397	0.661614	
-0.224391	0.0726716	0.751498	
-0.209296	-0.0687964	0.747015	
-0.213242	-0.007813	0.640954	
0.493012	0.0833019	0.844789	
0.5	0	0.8	
0.333846	0.0367661	0.834867	
0.37512	0.124368	0.792934	
-0.0802187	0.199602	0.860073	
-0.175427	0.309191	0.860321	
-0.0183357	0.330286	0.830674	
-0.115688	0.262969	0.786818	
0.195689	0.0416963	0.86434	
0.0604118	0.00910509	0.839477	
0.192412	0.00177767	0.748671	
0.0991673	-0.046171	0.758635	
-0.0698189	-0.495101	0.572379	
-0.0324158	-0.400449	0.5	
-0.128733	-0.391758	0.5	
-0.0585559	-0.361231	0.657485	
0.203135	-0.21521	0.664501	
0.18031	-0.320943	0.740502	
0.0610361	-0.307238	0.685164	
0.16292	-0.321139	0.620031	
-0.0295403	0.225144	1	
-0.00425413	0.131001	1	
-0.0802187	0.199602	0.860073	
0.0166107	0.245601	0.898079	
-0.0183357	0.330286	0.830674	
-0.0988881	0.278177	0.686189	
0.00181727	0.225193	0.776224	
-0.115688	0.262969	0.786818	
-0.322193	0.044739	0.823506	
-0.224391	0.0726716	0.751498	
-0.333304	0.00409397	0.661614	
-0.391681	0.0802879	0.710436	
-0.0206459	0.274141	0.5	
0.000715258	0.25479	0.628643	
-0.0572576	0.362529	0.5	
-0.112546	0.368373	0.611308	
-0.0648143	-0.0272529	0.665015	
-0.10739	-0.142688	0.746667	
-0.209296	-0.0687964	0.747015	
-0.170863	-0.122482	0.63474	
0.112358	-0.334816	0.5	
0.0957286	-0.225187	0.608184	
0.0747819	-0.266651	0.5	
-0.000247605	-0.297629	0.606346	
-0.0854243	0.492649	0.748597	
0	0.5	0.8	
-0.0807477	0.493437	0.845776	
-0.117277	0.364618	0.76936	
-0.209296	-0.0687964	0.747015	
-0.0648143	-0.0272529	0.665015	
-0.213242	-0.007813	0.640954	
-0.125866	0.0341816	0.729574	
-0.429146	-0.25658	0.66876	
-0.358854	-0.187212	0.601126	
-0.267995	-0.204807	0.662178	
-0.28318	-0.296642	0.616188	
-0.5	0	0.7	
-0.333304	0.00409397	0.661614	
-0.5	0	0.6	
-0.391681	0.0802879	0.710436	
-0.224391	0.0726716	0.751498	
-0.215798	0.142373	0.897172	
-0.322193	0.044739	0.823506	
-0.277483	0.0617124	0.914802	
-0.201912	0.369986	1	
-0.153328	0.47591	0.90763	
-0.118932	0.39861	1	
-0.0738147	0.390008	0.901946	
-0.0505573	-0.00469477	0.5	
-0.120671	-0.0405641	0.5	
0.000996857	-0.0833524	0.602223	
-0.125208	0.0156787	0.594569	
0.0903521	0.10545	1	
0.0651412	0.200096	1	
0.158056	0.171884	1	
0.105897	0.0806526	0.900017	
0.187412	-0.0186436	0.5	
0.176571	0.0516571	0.5	
0.108407	0.0140815	0.5	
0.0786602	-0.0230096	0.587367	
-0.323938	-0.380873	0.847739	
-0.324368	-0.232384	0.754222	
-0.386792	-0.316847	0.801384	
-0.257866	-0.303129	0.891677	
-0.307929	-0.189485	0.5	
-0.267995	-0.204807	0.662178	
-0.239764	-0.151909	0.5	
-0.358854	-0.187212	0.601126	
-0.224577	0.189906	0.793765	
-0.145151	0.0676964	0.847554	
-0.224391	0.0726716	0.751498	
-0.128722	0.176827	0.731598	
-0.429146	-0.25658	0.66876	
-0.352604	-0.116449	0.71733	
-0.324368	-0.232384	0.754222	
-0.358854	-0.187212	0.601126	
0.201164	-0.273578	1	
0.208315	-0.166389	0.905666	
0.154637	-0.229675	0.832631	
0.0968003	-0.179614	0.902873	
0.0604118	0.00910509	0.839477	
0.0991673	-0.046171	0.758635	
-0.0319626	0.00109562	0.771489	
0.00311865	0.0446609	0.692024	
-0.170863	-0.122482	0.63474	
-0.188154	-0.225182	0.596871	
-0.124427	-0.265373	0.724238	
-0.198738	-0.193326	0.739814	
-0.386498	-0.317206	0.700322	
-0.267995	-0.204807	0.662178	
-0.429146	-0.25658	0.66876	
-0.324368	-0.232384	0.754222	
-0.0807477	0.493437	0.845776	
-0.117277	0.364618	0.76936	
-0.0183357	0.330286	0.830674	
-0.0738147	0.390008	0.901946	
0.242822	0.437078	0.652991	
0.317233	0.386476	0.590473	
0.316847	0.386792	0.698616	
0.159673	0.344869	0.622089	
0.168734	0.470668	0.701781	
0.159673	0.344869	0.622089	
0.162962	0.351618	0.758031	
0.0511855	0.375084	0.751646	
0.0166107	0.245601	0.898079	
-0.0738147	0.390008	0.901946	
-0.0555676	0.325574	1	
0.025786	0.402982	0.903855	
0.144361	-0.400449	0.5	
0.146853	-0.477948	0.584008	
0.16292	-0.321139	0.620031	
0.0409643	-0.389072	0.60666	
-0.235698	0.440961	0.931431	
-0.175427	0.309191	0.860321	
-0.153328	0.47591	0.90763	
-0.0738147	0.390008	0.901946	
-0.0572576	0.185752	0.5	
0.00344957	0.138123	0.5	
0.0177914	0.213039	0.5	
-0.0842182	0.182405	0.629411	
-0.237468	0.305606	0.754243	
-0.128722	0.176827	0.731598	
-0.0988881	0.278177	0.686189	
-0.115688	0.262969	0.786818	
-0.0183357	0.330286	0.830674	
-0.0738147	0.390008	0.901946	
0.0166107	0.245601	0.898079	
0.025786	0.402982	0.903855	
0.0462278	0.146831	0.635901	
-0.0470393	0.078068	0.615792	
0.00344957	0.138123	0.5	
0.0913968	0.0719702	0.595778	
-0.124427	-0.265373	0.724238	
-0.10739	-0.142688	0.746667	
-0.170863	-0.122482	0.63474	
-0.198738	-0.193326	0.739814	
-0.16685	0.0883447	1	
-0.215798	0.142373	0.897172	
-0.145151	0.0676964	0.847554	
-0.277483	0.0617124	0.914802	
-0.145151	0.0676964	0.847554	
-0.227279	-0.033891	0.874484	
-0.0780607	-0.0724308	0.84691	
-0.0877381	0.00876541	0.911432	
0.130037	-0.0606882	0.5	
0.217579	-0.0397687	0.636314	
0.100517	-0.109754	0.630856	
0.231926	-0.137602	0.598516	
-0.5	0	0.6	
-0.400468	0.0439116	0.5	
-0.373426	0.0982193	0.605831	
-0.393057	-0.0716576	0.611801	
0.386505	-0.317197	0.931175	
0.294702	-0.208252	0.864399	
0.380873	-0.323938	0.847739	
0.21926	-0.328264	0.896532	
-0.294862	0.0237806	0.5	
-0.213242	-0.007813	0.640954	
-0.333304	0.00409397	0.661614	
-0.287784	-0.0964438	0.621465	
0.314857	-0.257449	1	
0.294702	-0.208252	0.864399	
0.386505	-0.317197	0.931175	
0.21926	-0.328264	0.896532	
0.439458	-0.238488	0.575692	
0.415735	-0.277785	0.634138	
0.450285	-0.217356	0.644698	
0.306527	-0.240421	0.616434	
-0.0295403	0.225144	1	
-0.00425413	0.131001	1	
-0.0983601	0.156434	1	
-0.0802187	0.199602	0.860073	
0.300884	0.198715	1	
0.195469	0.159954	0.886309	
0.231243	0.24169	1	
0.287646	0.277342	0.89815	
0.0153159	0.363557	1	
0.0166107	0.245601	0.898079	
-0.0555676	0.325574	1	
0.025786	0.402982	0.903855	
0.493389	-0.0810399	0.85285	
0.360282	-0.0916129	0.861913	
0.5	0	0.8	
0.364623	-0.0450159	0.747721	
-0.243391	-0.436762	0.903062	
-0.158356	-0.325914	0.851548	
-0.203173	-0.373024	1	
-0.0832182	-0.39248	0.894675	
0.333846	0.0367661	0.834867	
0.277593	0.0916628	0.90095	
0.257767	-0.0505632	0.898363	
0.397985	-0.0056	0.902207	
0.218846	0.121291	0.749847	
0.310611	0.178263	0.85673	
0.195469	0.159954	0.886309	
0.277593	0.0916628	0.90095	
-0.224577	0.189906	0.793765	
-0.298046	0.172945	0.653946	
-0.224391	0.0726716	0.751498	
-0.342082	0.155488	0.769444	
0.198678	0.268409	0.834396	
0.287646	0.277342	0.89815	
0.317206	0.386498	0.799678	
0.209258	0.343487	0.903692	
-0.437078	-0.242822	0.847009	
-0.470668	-0.168734	0.798219	
-0.34489	-0.101074	0.850415	
-0.324368	-0.232384	0.754222	
0.317233	0.386476	0.590473	
0.233754	0.245143	0.652714	
0.234372	0.286063	0.5	
0.326633	0.237522	0.603331	
0	0.5	0.8	
-0.0183357	0.330286	0.830674	
0.0511855	0.375084	0.751646	
0.025786	0.402982	0.903855	
-0.228923	-0.22221	0.5	
-0.239764	-0.151909	0.5	
-0.307929	-0.189485	0.5	
-0.188154	-0.225182	0.596871	
0.218846	0.121291	0.749847	
0.279002	0.143488	0.606802	
0.335565	0.163368	0.703209	
0.283277	0.0443669	0.748521	
0.388274	0.315029	0.920807	
0.415735	0.277785	0.865862	
0.439458	0.238488	0.924308	
0.287646	0.277342	0.89815	
-0.0470393	0.078068	0.615792	
0.00311865	0.0446609	0.692024	
0.0786602	-0.0230096	0.587367	
0.0913968	0.0719702	0.595778	
-0.224577	0.189906	0.793765	
-0.237468	0.305606	0.754243	
-0.311262	0.211476	0.883807	
-0.265639	0.299346	0.905431	
-0.0232782	-0.127584	1	
0.0712814	-0.153152	1	
-0.0123059	-0.194682	0.863671	
0.0397395	-0.0938942	0.889407	
0.100517	-0.109754	0.630856	
0.0957286	-0.225187	0.608184	
0.153817	-0.129728	0.5	
0.231926	-0.137602	0.598516	
0.0529867	0.308818	0.5	
-0.00106225	0.370203	0.65	
0.0172234	0.375408	0.5	
0.000715258	0.25479	0.628643	
-0.224577	0.189906	0.793765	
-0.175427	0.309191	0.860321	
-0.0802187	0.199602	0.860073	
-0.115688	0.262969	0.786818	
-0.207198	-0.382494	0.5	
-0.238488	-0.439458	0.575692	
-0.128733	-0.391758	0.5	
-0.184118	-0.326089	0.626133	
0.0401436	0.291204	1	
0.107558	0.36211	0.8622	
0.133074	0.264097	1	
0.0166107	0.245601	0.898079	
0.217579	-0.0397687	0.636314	
0.257355	-0.0987317	0.776667	
0.192412	0.00177767	0.748671	
0.153146	-0.133743	0.733731	
-0.267995	-0.204807	0.662178	
-0.352604	-0.116449	0.71733	
-0.324368	-0.232384	0.754222	
-0.198738	-0.193326	0.739814	
-0.00743541	-0.147874	0.5	
-0.0324158	-0.223672	0.5	
0.0559726	-0.187061	0.5	
-0.0497393	-0.170251	0.638216	
0.0877841	0.277766	0.703945	
0.159673	0.344869	0.622089	
-0.00106225	0.370203	0.65	
0.0511855	0.375084	0.751646	
0.000715258	0.25479	0.628643	
-0.112546	0.368373	0.611308	
-0.0206459	0.274141	0.5	
-0.136825	0.25987	0.596211	
0.0604118	0.00910509	0.839477	
0.0397395	-0.0938942	0.889407	
-0.0780607	-0.0724308	0.84691	
-0.0319626	0.00109562	0.771489	
0.310611	0.178263	0.85673	
0.335565	0.163368	0.703209	
0.218846	0.121291	0.749847	
0.292421	0.250833	0.767221	
0.000996857	-0.0833524	0.602223	
0.0272687	-0.0505093	0.69136	
0.0786602	-0.0230096	0.587367	
0.00311865	0.0446609	0.692024	
-0.0854243	0.492649	0.748597	
0	0.5	0.7	
0	0.5	0.8	
0.0511855	0.375084	0.751646	
-0.26105	0.203399	1	
-0.215798	0.142373	0.897172	
-0.311262	0.211476	0.883807	
-0.265639	0.299346	0.905431	
0.218846	0.121291	0.749847	
0.335565	0.163368	0.703209	
0.310611	0.178263	0.85673	
0.37512	0.124368	0.792934	
-0.0807477	0.493437	0.845776	
-0.0738147	0.390008	0.901946	
0	0.5	0.8	
0.025786	0.402982	0.903855	
0.0462278	0.146831	0.635901	
0.13133	0.218843	0.607259	
0.0877841	0.277766	0.703945	
0.157953	0.210834	0.75219	
0.198678	0.268409	0.834396	
0.25658	0.429146	0.83124	
0.162962	0.351618	0.758031	
0.209258	0.343487	0.903692	
0.218846	0.121291	0.749847	
0.277593	0.0916628	0.90095	
0.195689	0.0416963	0.86434	
0.283277	0.0443669	0.748521	
-0.209296	-0.0687964	0.747015	
-0.0648143	-0.0272529	0.665015	
-0.170863	-0.122482	0.63474	
-0.213242	-0.007813	0.640954	
-0.234034	0.362529	0.5	
-0.225501	0.288034	0.633154	
-0.191056	0.29295	0.5	
-0.112546	0.368373	0.611308	
0.153328	-0.47591	0.90763	
0.125573	-0.41396	1	
0.194604	-0.371188	1	
0.11687	-0.357533	0.85392	
-0.191056	0.29295	0.5	
-0.112546	0.368373	0.611308	
-0.225501	0.288034	0.633154	
-0.136825	0.25987	0.596211	
-0.5	0	0.6	
-0.333304	0.00409397	0.661614	
-0.5	0	0.7	
-0.393057	-0.0716576	0.611801	
0	-0.5	0.8	
0.0132695	-0.394263	0.743185	
-0.0143548	-0.331636	0.835577	
0.032794	-0.401349	0.896695	
0.373926	0.198925	1	
0.328092	0.270243	1	
0.439458	0.238488	0.924308	
0.287646	0.277342	0.89815	
0.317206	0.386498	0.799678	
0.198678	0.268409	0.834396	
0.292421	0.250833	0.767221	
0.287646	0.277342	0.89815	
-0.337562	0.0547633	1	
-0.302044	-0.0506462	1	
-0.404383	-0.0159907	0.861288	
-0.277483	0.0617124	0.914802	
0.198678	0.268409	0.834396	
0.231243	0.24169	1	
0.195469	0.159954	0.886309	
0.287646	0.277342	0.89815	
0.332994	0.0375409	0.661618	
0.396694	0.0647464	0.588567	
0.368263	0.0160059	0.5	
0.243096	0.0493866	0.595389	
0.335565	0.163368	0.703209	
0.292421	0.250833	0.767221	
0.428195	0.258165	0.701755	
0.326633	0.237522	0.603331	
0.0362446	-0.13014	0.749535	
-0.10739	-0.142688	0.746667	
-0.0497393	-0.170251	0.638216	
-0.011467	-0.243815	0.75519	
0.133074	0.264097	1	
0.189613	0.313662	1	
0.231243	0.24169	1	
0.209258	0.343487	0.903692	
0.0559726	-0.187061	0.5	
0.0957286	-0.225187	0.608184	
0.100517	-0.109754	0.630856	
0.000996857	-0.0833524	0.602223	
-0.493012	0.0833019	0.655211	
-0.5	0	0.7	
-0.5	0	0.6	
-0.391681	0.0802879	0.710436	
0.5	0	0.8	
0.364623	-0.0450159	0.747721	
0.360282	-0.0916129	0.861913	
0.397985	-0.0056	0.902207	
-0.158356	-0.325914	0.851548	
-0.136098	-0.178684	0.882811	
-0.246255	-0.212424	0.8311	
-0.257866	-0.303129	0.891677	
-0.224391	0.0726716	0.751498	
-0.128722	0.176827	0.731598	
-0.145151	0.0676964	0.847554	
-0.125866	0.0341816	0.729574	
0.198678	0.268409	0.834396	
0.162962	0.351618	0.758031	
0.292421	0.250833	0.767221	
0.157953	0.210834	0.75219	
0.450285	0.217356	0.855302	
0.439458	0.238488	0.924308	
0.310611	0.178263	0.85673	
0.378621	0.110033	0.901946	
0.217579	-0.0397687	0.636314	
0.153146	-0.133743	0.733731	
0.100517	-0.109754	0.630856	
0.231926	-0.137602	0.598516	
0.192412	0.00177767	0.748671	
0.153146	-0.133743	0.733731	
0.153122	-0.0879879	0.864132	
0.0991673	-0.046171	0.758635	
0.16292	-0.321139	0.620031	
0.306527	-0.240421	0.616434	
0.203135	-0.21521	0.664501	
0.253502	-0.311953	0.668431	
0.201164	-0.273578	1	
0.21926	-0.328264	0.896532	
0.112799	-0.33356	1	
0.054972	-0.274643	0.900622	
-0.0854243	0.492649	0.748597	
-0.0814864	0.493315	0.652319	
0	0.5	0.7	
-0.00106225	0.370203	0.65	
-0.0341142	0.113867	0.749186	
-0.0319626	0.00109562	0.771489	
-0.145151	0.0676964	0.847554	
-0.125866	0.0341816	0.729574	
-0.174678	0.468495	0.682891	
-0.0814864	0.493315	0.652319	
-0.117277	0.364618	0.76936	
-0.112546	0.368373	0.611308	
-0.429146	-0.25658	0.66876	
-0.324368	-0.232384	0.754222	
-0.267995	-0.204807	0.662178	
-0.358854	-0.187212	0.601126	
-0.0690274	-0.312061	0.5	
-0.128733	-0.391758	0.5	
-0.0585559	-0.361231	0.657485	
-0.0945272	-0.266606	0.620808	
0.5	0	0.7	
0.332994	0.0375409	0.661618	
0.493389	0.0810399	0.64715	
0.396694	0.0647464	0.588567	
0.0712814	-0.153152	1	
0.00183684	-0.222331	1	
-0.0232782	-0.127584	1	
-0.0123059	-0.194682	0.863671	
0.338823	-0.0848934	0.5	
0.278817	-0.00472784	0.5	
0.242205	-0.0931162	0.5	
0.217579	-0.0397687	0.636314	
0.187412	-0.0186436	0.5	
0.217579	-0.0397687	0.636314	
0.130037	-0.0606882	0.5	
0.231926	-0.137602	0.598516	
0.210156	-0.0147965	1	
0.153122	-0.0879879	0.864132	
0.195689	0.0416963	0.86434	
0.257767	-0.0505632	0.898363	
-0.117671	-0.10197	1	
-0.048473	-0.0328568	1	
-0.0780607	-0.0724308	0.84691	
-0.0877381	0.00876541	0.911432	
-0.257824	-0.4284	0.704976	
-0.184118	-0.326089	0.626133	
-0.277785	-0.415735	0.634138	
-0.239357	-0.30005	0.729626	
0.338823	-0.0848934	0.5	
0.326691	-0.12898	0.644897	
0.415496	-0.123332	0.5	
0.39042	-0.0433488	0.606813	
-0.0497393	-0.170251	0.638216	
-0.011467	-0.243815	0.75519	
-0.0945272	-0.266606	0.620808	
-0.000247605	-0.297629	0.606346	
0.0362446	-0.13014	0.749535	
0.100517	-0.109754	0.630856	
0.000996857	-0.0833524	0.602223	
0.0272687	-0.0505093	0.69136	
0.0854243	-0.492649	0.748597	
0.0132695	-0.394263	0.743185	
0.11687	-0.357533	0.85392	
0.0978756	-0.400914	0.688925	
0.333846	0.0367661	0.834867	
0.257355	-0.0987317	0.776667	
0.360282	-0.0916129	0.861913	
0.257767	-0.0505632	0.898363	
-0.374813	0.199394	0.5	
-0.316581	0.126747	0.5	
-0.304559	0.211579	0.5	
-0.306859	0.249519	0.591577	
0.257355	-0.0987317	0.776667	
0.153122	-0.0879879	0.864132	
0.192412	0.00177767	0.748671	
0.153146	-0.133743	0.733731	
0.11687	-0.357533	0.85392	
0.0132695	-0.394263	0.743185	
0.0807477	-0.493437	0.845776	
0.032794	-0.401349	0.896695	
-0.0232782	-0.127584	1	
-0.0123059	-0.194682	0.863671	
-0.0925337	-0.196451	1	
-0.136098	-0.178684	0.882811	
0.5	0	0.8	
0.333846	0.0367661	0.834867	
0.364623	-0.0450159	0.747721	
0.397985	-0.0056	0.902207	
-0.0341142	0.113867	0.749186	
0.079088	0.165847	0.846387	
0.100339	0.12014	0.738531	
0.00181727	0.225193	0.776224	
-0.124427	-0.265373	0.724238	
-0.188154	-0.225182	0.596871	
-0.239357	-0.30005	0.729626	
-0.198738	-0.193326	0.739814	
0.203135	-0.21521	0.664501	
0.0957286	-0.225187	0.608184	
0.100517	-0.109754	0.630856	
0.231926	-0.137602	0.598516	
-0.277785	-0.415735	0.634138	
-0.239357	-0.30005	0.729626	
-0.184118	-0.326089	0.626133	
-0.28318	-0.296642	0.616188	
0.0712814	-0.153152	1	
-0.0123059	-0.194682	0.863671	
0.0397395	-0.0938942	0.889407	
0.0968003	-0.179614	0.902873	
-0.298046	0.172945	0.653946	
-0.157178	0.100595	0.650339	
-0.224391	0.0726716	0.751498	
-0.264287	0.0818172	0.601453	
-0.323938	-0.380873	0.847739	
-0.258165	-0.428195	0.798245	
-0.239357	-0.30005	0.729626	
-0.257866	-0.303129	0.891677	
-0.011467	-0.243815	0.75519	
-0.0966341	-0.368565	0.765144	
-0.0585559	-0.361231	0.657485	
0.0132695	-0.394263	0.743185	
0.176571	0.0516571	0.5	
0.108407	0.0140815	0.5	
0.0786602	-0.0230096	0.587367	
0.0913968	0.0719702	0.595778	
-0.34489	-0.101074	0.850415	
-0.352604	-0.116449	0.71733	
-0.470668	-0.168734	0.798219	
-0.39411	-0.0165863	0.757409	
0.171794	0.11325	0.628738	
0.13133	0.218843	0.607259	
0.100339	0.12014	0.738531	
0.157953	0.210834	0.75219	
0.0288165	-0.00472784	0.5	
-0.0470393	0.078068	0.615792	
0.0786602	-0.0230096	0.587367	
0.0913968	0.0719702	0.595778	
0.4284	0.257824	0.795024	
0.415735	0.277785	0.865862	
0.374193	0.331632	0.834643	
0.292421	0.250833	0.767221	
0.16292	-0.321139	0.620031	
0.0957286	-0.225187	0.608184	
0.112358	-0.334816	0.5	
-0.000247605	-0.297629	0.606346	
-0.168688	-0.281701	1	
-0.158356	-0.325914	0.851548	
-0.136098	-0.178684	0.882811	
-0.0781785	-0.271888	0.896904	
-0.184118	-0.326089	0.626133	
-0.0585559	-0.361231	0.657485	
-0.124427	-0.265373	0.724238	
-0.0966341	-0.368565	0.765144	
0.257355	-0.0987317	0.776667	
0.294702	-0.208252	0.864399	
0.360282	-0.0916129	0.861913	
0.257767	-0.0505632	0.898363	
-0.0780607	-0.0724308	0.84691	
-0.10739	-0.142688	0.746667	
-0.0123059	-0.194682	0.863671	
-0.136098	-0.178684	0.882811	
0.4284	0.257824	0.795024	
0.310611	0.178263	0.85673	
0.292421	0.250833	0.767221	
0.37512	0.124368	0.792934	
0.0362446	-0.13014	0.749535	
-0.0123059	-0.194682	0.863671	
-0.011467	-0.243815	0.75519	
0.0917349	-0.220895	0.740016	
-0.209059	-0.00395244	0.5	
-0.213242	-0.007813	0.640954	
-0.120671	-0.0405641	0.5	
-0.125208	0.0156787	0.594569	
-0.333304	0.00409397	0.661614	
-0.213242	-0.007813	0.640954	
-0.294862	0.0237806	0.5	
-0.264287	0.0818172	0.601453	
0.231243	0.24169	1	
0.287646	0.277342	0.89815	
0.198678	0.268409	0.834396	
0.209258	0.343487	0.903692	
-0.209296	-0.0687964	0.747015	
-0.352604	-0.116449	0.71733	
-0.333304	0.00409397	0.661614	
-0.287784	-0.0964438	0.621465	
-0.124427	-0.265373	0.724238	
-0.011467	-0.243815	0.75519	
-0.0585559	-0.361231	0.657485	
-0.0945272	-0.266606	0.620808	
0.218846	0.121291	0.749847	
0.233754	0.245143	0.652714	
0.171794	0.11325	0.628738	
0.157953	0.210834	0.75219	
-0.175427	0.309191	0.860321	
-0.117277	0.364618	0.76936	
-0.168734	0.470668	0.798219	
-0.0738147	0.390008	0.901946	
-0.322193	0.044739	0.823506	
-0.342082	0.155488	0.769444	
-0.224391	0.0726716	0.751498	
-0.391681	0.0802879	0.710436	
-0.184118	-0.326089	0.626133	
-0.239357	-0.30005	0.729626	
-0.124427	-0.265373	0.724238	
-0.188154	-0.225182	0.596871	
-0.0638367	-0.295761	1	
0.0248177	-0.313374	1	
-0.0328721	-0.370689	1	
-0.0781785	-0.271888	0.896904	
0.218846	0.121291	0.749847	
0.171794	0.11325	0.628738	
0.233754	0.245143	0.652714	
0.279002	0.143488	0.606802	
0.245477	-0.191651	1	
0.294702	-0.208252	0.864399	
0.201164	-0.273578	1	
0.208315	-0.166389	0.905666	
-0.0341142	0.113867	0.749186	
-0.0470393	0.078068	0.615792	
-0.157178	0.100595	0.650339	
-0.0842182	0.182405	0.629411	
0.373926	0.198925	1	
0.300884	0.198715	1	
0.310611	0.178263	0.85673	
0.378621	0.110033	0.901946	
0.332994	0.0375409	0.661618	
0.39042	-0.0433488	0.606813	
0.368263	0.0160059	0.5	
0.396694	0.0647464	0.588567	
-0.122627	0.0544512	0.5	
-0.0470393	0.078068	0.615792	
-0.157178	0.100595	0.650339	
-0.125208	0.0156787	0.594569	
0.428195	-0.258165	0.798245	
0.294702	-0.208252	0.864399	
0.436762	-0.243391	0.903062	
0.371228	-0.144256	0.774162	
-0.344127	-0.112227	1	
-0.34489	-0.101074	0.850415	
-0.302044	-0.0506462	1	
-0.231631	-0.136254	0.90444	
-0.0585559	-0.361231	0.657485	
-0.0945272	-0.266606	0.620808	
-0.011467	-0.243815	0.75519	
-0.000247605	-0.297629	0.606346	
0.316847	0.386792	0.698616	
0.233754	0.245143	0.652714	
0.380873	0.323938	0.652261	
0.292421	0.250833	0.767221	
-0.5	0	0.8	
-0.39411	-0.0165863	0.757409	
-0.493389	0.0810399	0.85285	
-0.404383	-0.0159907	0.861288	
-0.286299	-0.264255	0.5	
-0.307929	-0.189485	0.5	
-0.358854	-0.187212	0.601126	
-0.28318	-0.296642	0.616188	
-0.157178	0.100595	0.650339	
-0.0470393	0.078068	0.615792	
-0.0341142	0.113867	0.749186	
-0.125866	0.0341816	0.729574	
0.0610361	-0.307238	0.685164	
-0.011467	-0.243815	0.75519	
-0.0585559	-0.361231	0.657485	
0.0132695	-0.394263	0.743185	
-0.337562	0.0547633	1	
-0.404383	-0.0159907	0.861288	
-0.390033	0.0787983	0.902592	
-0.277483	0.0617124	0.914802	
0.203135	-0.21521	0.664501	
0.153146	-0.133743	0.733731	
0.0957286	-0.225187	0.608184	
0.0917349	-0.220895	0.740016	
-0.267995	-0.204807	0.662178	
-0.239357	-0.30005	0.729626	
-0.188154	-0.225182	0.596871	
-0.198738	-0.193326	0.739814	
-0.298046	0.172945	0.653946	
-0.306859	0.249519	0.591577	
-0.415735	0.277785	0.634138	
-0.318622	0.246893	0.724741	
-0.0341142	0.113867	0.749186	
0.0462278	0.146831	0.635901	
-0.0470393	0.078068	0.615792	
-0.0842182	0.182405	0.629411	
-0.0810399	-0.493389	0.85285	
0	-0.5	0.8	
-0.0832182	-0.39248	0.894675	
0.032794	-0.401349	0.896695	
0.5	0	0.7	
0.39042	-0.0433488	0.606813	
0.332994	0.0375409	0.661618	
0.396694	0.0647464	0.588567	
0.0362446	-0.13014	0.749535	
0.000996857	-0.0833524	0.602223	
-0.0497393	-0.170251	0.638216	
0.0272687	-0.0505093	0.69136	
-0.0802187	0.199602	0.860073	
-0.0265366	0.088395	0.883809	
0.079088	0.165847	0.846387	
0.0166107	0.245601	0.898079	
0.0877841	0.277766	0.703945	
0.00181727	0.225193	0.776224	
0.100339	0.12014	0.738531	
0.157953	0.210834	0.75219	
0.317233	-0.386476	0.909527	
0.386505	-0.317197	0.931175	
0.380873	-0.323938	0.847739	
0.21926	-0.328264	0.896532	
0.079088	0.165847	0.846387	
-0.0265366	0.088395	0.883809	
0.0604118	0.00910509	0.839477	
0.105897	0.0806526	0.900017	
-0.294862	0.0237806	0.5	
-0.333304	0.00409397	0.661614	
-0.355295	-0.0330772	0.5	
-0.287784	-0.0964438	0.621465	
-0.25658	0.429146	0.66876	
-0.225501	0.288034	0.633154	
-0.228991	0.444481	0.591901	
-0.112546	0.368373	0.611308	
0.257355	-0.0987317	0.776667	
0.294702	-0.208252	0.864399	
0.257767	-0.0505632	0.898363	
0.208315	-0.166389	0.905666	
0	0.5	0.8	
0.0511855	0.375084	0.751646	
0.0814864	0.493315	0.847681	
0.025786	0.402982	0.903855	
-0.0698189	-0.495101	0.572379	
-0.0585559	-0.361231	0.657485	
0	-0.5	0.6	
0.0409643	-0.389072	0.60666	
-0.238488	-0.439458	0.575692	
-0.207198	-0.382494	0.5	
-0.262519	-0.333294	0.5	
-0.184118	-0.326089	0.626133	
-0.386792	-0.316847	0.801384	
-0.257866	-0.303129	0.891677	
-0.324368	-0.232384	0.754222	
-0.338	-0.218597	0.893416	
-0.0698189	-0.495101	0.572379	
-0.0324158	-0.400449	0.5	
-0.0585559	-0.361231	0.657485	
0.0409643	-0.389072	0.60666	
-0.380873	0.323938	0.847739	
-0.376757	0.328716	0.753532	
-0.237468	0.305606	0.754243	
-0.318622	0.246893	0.724741	
0.0132695	-0.394263	0.743185	
0.0672081	-0.306462	0.784462	
0.11687	-0.357533	0.85392	
0.0978756	-0.400914	0.688925	
0.335565	0.163368	0.703209	
0.279002	0.143488	0.606802	
0.332994	0.0375409	0.661618	
0.283277	0.0443669	0.748521	
0.5	0	0.8	
0.490343	0.0977967	0.741226	
0.5	0	0.7	
0.364623	-0.0450159	0.747721	
-0.355295	-0.0330772	0.5	
-0.333304	0.00409397	0.661614	
-0.294862	0.0237806	0.5	
-0.373426	0.0982193	0.605831	
-0.408839	0.131788	0.5	
-0.374813	0.199394	0.5	
-0.439458	0.238488	0.575692	
-0.373426	0.0982193	0.605831	
-0.221565	0.0908555	0.5	
-0.122627	0.0544512	0.5	
-0.145646	0.149141	0.5	
-0.157178	0.100595	0.650339	
-0.324368	-0.232384	0.754222	
-0.257866	-0.303129	0.891677	
-0.246255	-0.212424	0.8311	
-0.338	-0.218597	0.893416	
0.368263	0.0160059	0.5	
0.396694	0.0647464	0.588567	
0.324205	0.0779192	0.5	
0.243096	0.0493866	0.595389	
0.450285	0.217356	0.855302	
0.310611	0.178263	0.85673	
0.4284	0.257824	0.795024	
0.37512	0.124368	0.792934	
-0.0648143	-0.0272529	0.665015	
0.0272687	-0.0505093	0.69136	
0.000996857	-0.0833524	0.602223	
0.00311865	0.0446609	0.692024	
0.194604	-0.371188	1	
0.125573	-0.41396	1	
0.112799	-0.33356	1	
0.11687	-0.357533	0.85392	
0.415496	-0.123332	0.5	
0.338823	-0.0848934	0.5	
0.366699	-0.192277	0.5	
0.326691	-0.12898	0.644897	
-0.168688	-0.281701	1	
-0.261345	-0.230036	1	
-0.186407	-0.169451	1	
-0.136098	-0.178684	0.882811	
0.5	0	0.7	
0.364623	-0.0450159	0.747721	
0.332994	0.0375409	0.661618	
0.39042	-0.0433488	0.606813	
0.130037	-0.0606882	0.5	
0.100517	-0.109754	0.630856	
0.217579	-0.0397687	0.636314	
0.0786602	-0.0230096	0.587367	
0.100517	-0.109754	0.630856	
0.0957286	-0.225187	0.608184	
0.203135	-0.21521	0.664501	
0.153146	-0.133743	0.733731	
-0.41072	-0.12459	1	
-0.356684	-0.19351	1	
-0.440961	-0.235698	0.931431	
-0.338	-0.218597	0.893416	
0.0957286	-0.225187	0.608184	
0.153146	-0.133743	0.733731	
0.100517	-0.109754	0.630856	
0.0917349	-0.220895	0.740016	
-0.0206459	0.274141	0.5	
-0.112546	0.368373	0.611308	
-0.0572576	0.362529	0.5	
-0.136825	0.25987	0.596211	
-0.469721	0.171353	0.838334	
-0.311262	0.211476	0.883807	
-0.436762	0.243391	0.903062	
-0.390033	0.0787983	0.902592	
0.218846	0.121291	0.749847	
0.195469	0.159954	0.886309	
0.195689	0.0416963	0.86434	
0.277593	0.0916628	0.90095	
0.0807477	-0.493437	0.845776	
0.11687	-0.357533	0.85392	
0.0854243	-0.492649	0.748597	
0.0132695	-0.394263	0.743185	
-0.0785029	0.119253	0.5	
0.00344957	0.138123	0.5	
-0.0572576	0.185752	0.5	
-0.0470393	0.078068	0.615792	
-0.209296	-0.0687964	0.747015	
-0.170863	-0.122482	0.63474	
-0.267995	-0.204807	0.662178	
-0.287784	-0.0964438	0.621465	
0.16292	-0.321139	0.620031	
0.112358	-0.334816	0.5	
0.0409643	-0.389072	0.60666	
-0.000247605	-0.297629	0.606346	
-0.302044	-0.0506462	1	
-0.34489	-0.101074	0.850415	
-0.227279	-0.033891	0.874484	
-0.231631	-0.136254	0.90444	
-0.153328	0.47591	0.90763	
-0.175427	0.309191	0.860321	
-0.168734	0.470668	0.798219	
-0.0738147	0.390008	0.901946	
0.168734	-0.470668	0.798219	
0.11687	-0.357533	0.85392	
0.18031	-0.320943	0.740502	
0.0978756	-0.400914	0.688925	
0.201164	-0.273578	1	
0.112799	-0.33356	1	
0.0943468	-0.245334	1	
0.054972	-0.274643	0.900622	
-0.145151	0.0676964	0.847554	
-0.0780607	-0.0724308	0.84691	
-0.0319626	0.00109562	0.771489	
-0.0877381	0.00876541	0.911432	
-0.0585559	-0.361231	0.657485	
-0.011467	-0.243815	0.75519	
-0.124427	-0.265373	0.724238	
-0.0966341	-0.368565	0.765144	
-0.145151	0.0676964	0.847554	
-0.0319626	0.00109562	0.771489	
-0.0265366	0.088395	0.883809	
-0.0877381	0.00876541	0.911432	
-0.316581	0.126747	0.5	
-0.374813	0.199394	0.5	
-0.373426	0.0982193	0.605831	
-0.306859	0.249519	0.591577	
0.0462278	0.146831	0.635901	
0.100339	0.12014	0.738531	
0.171794	0.11325	0.628738	
0.13133	0.218843	0.607259	
0.146853	-0.477948	0.584008	
0.16292	-0.321139	0.620031	
0.0409643	-0.389072	0.60666	
0.0978756	-0.400914	0.688925	
0.493012	0.0833019	0.844789	
0.333846	0.0367661	0.834867	
0.5	0	0.8	
0.397985	-0.0056	0.902207	
-0.209296	-0.0687964	0.747015	
-0.267995	-0.204807	0.662178	
-0.170863	-0.122482	0.63474	
-0.198738	-0.193326	0.739814	
0.00183684	-0.222331	1	
-0.0123059	-0.194682	0.863671	
0.0712814	-0.153152	1	
0.0968003	-0.179614	0.902873	
0.333846	0.0367661	0.834867	
0.360282	-0.0916129	0.861913	
0.257355	-0.0987317	0.776667	
0.364623	-0.0450159	0.747721	
-0.262519	-0.0832944	0.5	
-0.170863	-0.122482	0.63474	
-0.213242	-0.007813	0.640954	
-0.287784	-0.0964438	0.621465	
0.380873	0.323938	0.652261	
0.428195	0.258165	0.701755	
0.292421	0.250833	0.767221	
0.326633	0.237522	0.603331	
-0.224577	0.189906	0.793765	
-0.128722	0.176827	0.731598	
-0.237468	0.305606	0.754243	
-0.115688	0.262969	0.786818	
-0.0648143	-0.0272529	0.665015	
-0.0497393	-0.170251	0.638216	
-0.10739	-0.142688	0.746667	
-0.170863	-0.122482	0.63474	
0.3168	-0.386831	0.604097	
0.306527	-0.240421	0.616434	
0.267645	-0.326424	0.5	
0.253502	-0.311953	0.668431	
0.300884	0.198715	1	
0.247868	0.146306	1	
0.231243	0.24169	1	
0.195469	0.159954	0.886309	
-0.0183357	0.330286	0.830674	
-0.117277	0.364618	0.76936	
-0.0988881	0.278177	0.686189	
-0.115688	0.262969	0.786818	
0.18031	-0.320943	0.740502	
0.11687	-0.357533	0.85392	
0.0672081	-0.306462	0.784462	
0.0978756	-0.400914	0.688925	
0.380873	-0.323938	0.847739	
0.21926	-0.328264	0.896532	
0.294702	-0.208252	0.864399	
0.264677	-0.291732	0.802046	
0.180973	-0.312061	0.5	
0.238057	-0.243638	0.5	
0.144361	-0.223672	0.5	
0.16292	-0.321139	0.620031	
0.100339	0.12014	0.738531	
0.00181727	0.225193	0.776224	
0.079088	0.165847	0.846387	
0.157953	0.210834	0.75219	
-0.316847	0.386792	0.801384	
-0.380873	0.323938	0.847739	
-0.237468	0.305606	0.754243	
-0.265639	0.299346	0.905431	
-0.267995	-0.204807	0.662178	
-0.324368	-0.232384	0.754222	
-0.352604	-0.116449	0.71733	
-0.358854	-0.187212	0.601126	
0.107558	0.36211	0.8622	
0.0166107	0.245601	0.898079	
0.0401436	0.291204	1	
0.025786	0.402982	0.903855	
0.112799	-0.33356	1	
0.21926	-0.328264	0.896532	
0.11687	-0.357533	0.85392	
0.054972	-0.274643	0.900622	
-0.0341142	0.113867	0.749186	
-0.157178	0.100595	0.650339	
-0.128722	0.176827	0.731598	
-0.0842182	0.182405	0.629411	
-0.194667	-0.460548	0.76567	
-0.257824	-0.4284	0.704976	
-0.258165	-0.428195	0.798245	
-0.239357	-0.30005	0.729626	
-0.0585559	-0.361231	0.657485	
-0.011467	-0.243815	0.75519	
0.0610361	-0.307238	0.685164	
-0.000247605	-0.297629	0.606346	
0.122026	0.332598	0.5	
0.159673	0.344869	0.622089	
0.0529867	0.308818	0.5	
0.13133	0.218843	0.607259	
0.4284	-0.257824	0.704976	
0.415735	-0.277785	0.634138	
0.374193	-0.331632	0.665357	
0.306527	-0.240421	0.616434	
0.0209546	0.0362755	1	
-0.0265366	0.088395	0.883809	
-0.00425413	0.131001	1	
0.105897	0.0806526	0.900017	
-0.144862	-0.478555	0.921652	
-0.243391	-0.436762	0.903062	
-0.203173	-0.373024	1	
-0.0832182	-0.39248	0.894675	
-0.302044	-0.0506462	1	
-0.344127	-0.112227	1	
-0.401548	-0.0423374	1	
-0.34489	-0.101074	0.850415	
-0.221565	0.0908555	0.5	
-0.157178	0.100595	0.650339	
-0.145646	0.149141	0.5	
-0.203341	0.186445	0.603634	
-0.428195	0.258165	0.798245	
-0.311262	0.211476	0.883807	
-0.342082	0.155488	0.769444	
-0.318622	0.246893	0.724741	
0.233754	0.245143	0.652714	
0.162962	0.351618	0.758031	
0.0877841	0.277766	0.703945	
0.157953	0.210834	0.75219	
0.187412	-0.0186436	0.5	
0.130037	-0.0606882	0.5	
0.217579	-0.0397687	0.636314	
0.0786602	-0.0230096	0.587367	
0.201164	-0.273578	1	
0.164797	-0.177585	1	
0.208315	-0.166389	0.905666	
0.0968003	-0.179614	0.902873	
0.174678	-0.468495	0.682891	
0.18031	-0.320943	0.740502	
0.25658	-0.429146	0.66876	
0.16292	-0.321139	0.620031	
-0.137519	-0.208294	0.5	
-0.0497393	-0.170251	0.638216	
-0.170863	-0.122482	0.63474	
-0.188154	-0.225182	0.596871	
-0.0988881	0.278177	0.686189	
-0.117277	0.364618	0.76936	
-0.00106225	0.370203	0.65	
-0.112546	0.368373	0.611308	
0.233754	0.245143	0.652714	
0.380873	0.323938	0.652261	
0.292421	0.250833	0.767221	
0.326633	0.237522	0.603331	
-0.0430682	0.437279	0.5	
-0.0572576	0.362529	0.5	
-0.00106225	0.370203	0.65	
-0.112546	0.368373	0.611308	
0.217579	-0.0397687	0.636314	
0.100517	-0.109754	0.630856	
0.0954521	0.018975	0.675961	
0.0786602	-0.0230096	0.587367	
0.242026	0.154212	0.5	
0.266375	0.22043	0.5	
0.177987	0.183818	0.5	
0.279002	0.143488	0.606802	
0.0288165	-0.00472784	0.5	
-0.0283081	0.0695318	0.5	
-0.0470393	0.078068	0.615792	
0.0913968	0.0719702	0.595778	
-0.158356	-0.325914	0.851548	
-0.239357	-0.30005	0.729626	
-0.124427	-0.265373	0.724238	
-0.0966341	-0.368565	0.765144	
-0.246255	-0.212424	0.8311	
-0.239357	-0.30005	0.729626	
-0.158356	-0.325914	0.851548	
-0.257866	-0.303129	0.891677	
0.0610361	-0.307238	0.685164	
0.0957286	-0.225187	0.608184	
0.16292	-0.321139	0.620031	
-0.000247605	-0.297629	0.606346	
0.450285	-0.217356	0.644698	
0.470916	-0.168043	0.699874	
0.476114	-0.152694	0.59754	
0.326691	-0.12898	0.644897	
0.100517	-0.109754	0.630856	
0.153146	-0.133743	0.733731	
0.203135	-0.21521	0.664501	
0.231926	-0.137602	0.598516	
-0.331632	-0.374193	0.665357	
-0.239357	-0.30005	0.729626	
-0.277785	-0.415735	0.634138	
-0.28318	-0.296642	0.616188	
-0.0430682	0.437279	0.5	
0	0.5	0.6	
-0.0728232	0.494668	0.573541	
-0.00106225	0.370203	0.65	
-0.267995	-0.204807	0.662178	
-0.239764	-0.151909	0.5	
-0.287784	-0.0964438	0.621465	
-0.188154	-0.225182	0.596871	
0.428195	-0.258165	0.798245	
0.436762	-0.243391	0.903062	
0.469721	-0.171353	0.838334	
0.371228	-0.144256	0.774162	
-0.386498	-0.317206	0.700322	
-0.267995	-0.204807	0.662178	
-0.324368	-0.232384	0.754222	
-0.28318	-0.296642	0.616188	
0.4284	0.257824	0.795024	
0.292421	0.250833	0.767221	
0.335565	0.163368	0.703209	
0.37512	0.124368	0.792934	
-0.224577	0.189906	0.793765	
-0.175427	0.309191	0.860321	
-0.237468	0.305606	0.754243	
-0.265639	0.299346	0.905431	
0.187412	-0.0186436	0.5	
0.242205	-0.0931162	0.5	
0.217579	-0.0397687	0.636314	
0.231926	-0.137602	0.598516	
-0.0430682	0.437279	0.5	
-0.00106225	0.370203	0.65	
-0.0728232	0.494668	0.573541	
-0.112546	0.368373	0.611308	
0.317233	0.386476	0.590473	
0.380873	0.323938	0.652261	
0.316847	0.386792	0.698616	
0.233754	0.245143	0.652714	
-0.34489	-0.101074	0.850415	
-0.324368	-0.232384	0.754222	
-0.246255	-0.212424	0.8311	
-0.338	-0.218597	0.893416	
0.247868	0.146306	1	
0.310611	0.178263	0.85673	
0.300884	0.198715	1	
0.277593	0.0916628	0.90095	
0.233754	0.245143	0.652714	
0.159673	0.344869	0.622089	
0.0877841	0.277766	0.703945	
0.162962	0.351618	0.758031	
-0.228991	0.444481	0.591901	
-0.225501	0.288034	0.633154	
-0.234034	0.362529	0.5	
-0.112546	0.368373	0.611308	
-0.380873	0.323938	0.847739	
-0.311262	0.211476	0.883807	
-0.428195	0.258165	0.798245	
-0.318622	0.246893	0.724741	
0.0177914	0.213039	0.5	
0.000715258	0.25479	0.628643	
0.0462278	0.146831	0.635901	
0.13133	0.218843	0.607259	
0.428195	-0.258165	0.798245	
0.294702	-0.208252	0.864399	
0.309938	-0.217964	0.736716	
0.264677	-0.291732	0.802046	
-0.262519	-0.0832944	0.5	
-0.213242	-0.007813	0.640954	
-0.294862	0.0237806	0.5	
-0.287784	-0.0964438	0.621465	
0.218846	0.121291	0.749847	
0.233754	0.245143	0.652714	
0.335565	0.163368	0.703209	
0.279002	0.143488	0.606802	
0.11687	-0.357533	0.85392	
0.21926	-0.328264	0.896532	
0.154637	-0.229675	0.832631	
0.054972	-0.274643	0.900622	
-0.0497393	-0.170251	0.638216	
-0.10739	-0.142688	0.746667	
-0.124427	-0.265373	0.724238	
-0.011467	-0.243815	0.75519	
-0.0143548	-0.331636	0.835577	
-0.011467	-0.243815	0.75519	
-0.0123059	-0.194682	0.863671	
0.0672081	-0.306462	0.784462	
0.380873	0.323938	0.652261	
0.233754	0.245143	0.652714	
0.317233	0.386476	0.590473	
0.326633	0.237522	0.603331	
-0.302044	-0.0506462	1	
-0.34489	-0.101074	0.850415	
-0.401548	-0.0423374	1	
-0.404383	-0.0159907	0.861288	
0.242822	-0.437078	0.847009	
0.18031	-0.320943	0.740502	
0.11687	-0.357533	0.85392	
0.21926	-0.328264	0.896532	
0.218846	0.121291	0.749847	
0.335565	0.163368	0.703209	
0.233754	0.245143	0.652714	
0.292421	0.250833	0.767221	
-0.355295	-0.0330772	0.5	
-0.287784	-0.0964438	0.621465	
-0.333304	0.00409397	0.661614	
-0.393057	-0.0716576	0.611801	
0.0903521	0.10545	1	
0.0209546	0.0362755	1	
-0.00425413	0.131001	1	
0.105897	0.0806526	0.900017	
-0.0143548	-0.331636	0.835577	
-0.0966341	-0.368565	0.765144	
-0.011467	-0.243815	0.75519	
0.0132695	-0.394263	0.743185	
0.0529867	0.308818	0.5	
0.0172234	0.375408	0.5	
-0.0206459	0.274141	0.5	
0.000715258	0.25479	0.628643	
-0.41072	-0.12459	1	
-0.440961	-0.235698	0.931431	
-0.47591	-0.153328	0.90763	
-0.338	-0.218597	0.893416	
-0.428195	0.258165	0.798245	
-0.311262	0.211476	0.883807	
-0.469721	0.171353	0.838334	
-0.342082	0.155488	0.769444	
0.346509	0.0237889	1	
0.257767	-0.0505632	0.898363	
0.276476	0.0535537	1	
0.277593	0.0916628	0.90095	
-0.221565	0.0908555	0.5	
-0.122627	0.0544512	0.5	
-0.157178	0.100595	0.650339	
-0.125208	0.0156787	0.594569	
-0.315029	-0.388274	0.579193	
-0.277785	-0.415735	0.634138	
-0.238488	-0.439458	0.575692	
-0.184118	-0.326089	0.626133	
0.0610361	-0.307238	0.685164	
0.16292	-0.321139	0.620031	
0.0409643	-0.389072	0.60666	
-0.000247605	-0.297629	0.606346	
-0.34489	-0.101074	0.850415	
-0.39411	-0.0165863	0.757409	
-0.493437	-0.0807477	0.845776	
-0.404383	-0.0159907	0.861288	
0.470916	-0.168043	0.699874	
0.493012	-0.0833019	0.655211	
0.476114	-0.152694	0.59754	
0.326691	-0.12898	0.644897	
-0.298046	0.172945	0.653946	
-0.373426	0.0982193	0.605831	
-0.264287	0.0818172	0.601453	
-0.391681	0.0802879	0.710436	
0.257355	-0.0987317	0.776667	
0.333846	0.0367661	0.834867	
0.364623	-0.0450159	0.747721	
0.283277	0.0443669	0.748521	
0.154637	-0.229675	0.832631	
0.201164	-0.273578	1	
0.21926	-0.328264	0.896532	
0.208315	-0.166389	0.905666	
-0.235698	0.440961	0.931431	
-0.175427	0.309191	0.860321	
-0.201912	0.369986	1	
-0.265639	0.299346	0.905431	
0.245477	-0.191651	1	
0.314857	-0.257449	1	
0.201164	-0.273578	1	
0.294702	-0.208252	0.864399	
0.25658	-0.429146	0.66876	
0.16292	-0.321139	0.620031	
0.18031	-0.320943	0.740502	
0.253502	-0.311953	0.668431	
-0.429146	-0.25658	0.66876	
-0.352604	-0.116449	0.71733	
-0.434698	-0.247057	0.749501	
-0.324368	-0.232384	0.754222	
0.476114	-0.152694	0.59754	
0.326691	-0.12898	0.644897	
0.493012	-0.0833019	0.655211	
0.39042	-0.0433488	0.606813	
-0.0572576	0.362529	0.5	
-0.112546	0.368373	0.611308	
-0.122891	0.330526	0.5	
-0.136825	0.25987	0.596211	
0.218846	0.121291	0.749847	
0.292421	0.250833	0.767221	
0.233754	0.245143	0.652714	
0.157953	0.210834	0.75219	
0.294702	-0.208252	0.864399	
0.21926	-0.328264	0.896532	
0.201164	-0.273578	1	
0.208315	-0.166389	0.905666	
-0.257824	-0.4284	0.704976	
-0.217356	-0.450285	0.644698	
-0.277785	-0.415735	0.634138	
-0.184118	-0.326089	0.626133	
0.337634	0.115561	1	
0.300884	0.198715	1	
0.310611	0.178263	0.85673	
0.277593	0.0916628	0.90095	
-0.224577	0.189906	0.793765	
-0.224391	0.0726716	0.751498	
-0.145151	0.0676964	0.847554	
-0.215798	0.142373	0.897172	
-0.267995	-0.204807	0.662178	
-0.287784	-0.0964438	0.621465	
-0.239764	-0.151909	0.5	
-0.358854	-0.187212	0.601126	
0.266375	0.22043	0.5	
0.233754	0.245143	0.652714	
0.234372	0.286063	0.5	
0.13133	0.218843	0.607259	
0.373926	0.198925	1	
0.300884	0.198715	1	
0.328092	0.270243	1	
0.287646	0.277342	0.89815	
0.314857	-0.257449	1	
0.380207	-0.19708	1	
0.436762	-0.243391	0.903062	
0.294702	-0.208252	0.864399	
-0.137519	-0.208294	0.5	
-0.0497393	-0.170251	0.638216	
-0.0840299	-0.136867	0.5	
-0.170863	-0.122482	0.63474	
0.388274	0.315029	0.920807	
0.439458	0.238488	0.924308	
0.328092	0.270243	1	
0.287646	0.277342	0.89815	
-0.262519	-0.0832944	0.5	
-0.170863	-0.122482	0.63474	
-0.174131	-0.119906	0.5	
-0.213242	-0.007813	0.640954	
-0.0925337	-0.196451	1	
-0.117671	-0.10197	1	
-0.0232782	-0.127584	1	
-0.136098	-0.178684	0.882811	
0.0420567	-0.345657	0.5	
0.112358	-0.334816	0.5	
0.0747819	-0.266651	0.5	
-0.000247605	-0.297629	0.606346	
0.247868	0.146306	1	
0.195469	0.159954	0.886309	
0.310611	0.178263	0.85673	
0.277593	0.0916628	0.90095	
-0.0341142	0.113867	0.749186	
-0.0802187	0.199602	0.860073	
0.00181727	0.225193	0.776224	
-0.128722	0.176827	0.731598	
-0.128733	-0.391758	0.5	
-0.238488	-0.439458	0.575692	
-0.152694	-0.476114	0.59754	
-0.184118	-0.326089	0.626133	
-0.493389	0.0810399	0.85285	
-0.5	0	0.8	
-0.490343	0.0977967	0.758774	
-0.39411	-0.0165863	0.757409	
0.332994	0.0375409	0.661618	
0.364623	-0.0450159	0.747721	
0.326691	-0.12898	0.644897	
0.39042	-0.0433488	0.606813	
-0.315029	-0.388274	0.579193	
-0.238488	-0.439458	0.575692	
-0.262519	-0.333294	0.5	
-0.184118	-0.326089	0.626133	
0.247057	0.434698	0.750499	
0.242822	0.437078	0.652991	
0.316847	0.386792	0.698616	
0.162962	0.351618	0.758031	
-0.124427	-0.265373	0.724238	
-0.0497393	-0.170251	0.638216	
-0.011467	-0.243815	0.75519	
-0.0945272	-0.266606	0.620808	
0.144361	-0.223672	0.5	
0.153817	-0.129728	0.5	
0.0957286	-0.225187	0.608184	
0.231926	-0.137602	0.598516	
-0.221565	0.0908555	0.5	
-0.157178	0.100595	0.650339	
-0.264287	0.0818172	0.601453	
-0.125208	0.0156787	0.594569	
-0.242822	0.437078	0.847009	
-0.175427	0.309191	0.860321	
-0.237468	0.305606	0.754243	
-0.117277	0.364618	0.76936	
0.242822	-0.437078	0.847009	
0.18031	-0.320943	0.740502	
0.21926	-0.328264	0.896532	
0.264677	-0.291732	0.802046	
0.168734	-0.470668	0.798219	
0.0854243	-0.492649	0.748597	
0.11687	-0.357533	0.85392	
0.0978756	-0.400914	0.688925	
0.333846	0.0367661	0.834867	
0.195689	0.0416963	0.86434	
0.277593	0.0916628	0.90095	
0.283277	0.0443669	0.748521	
-0.242822	0.437078	0.847009	
-0.237468	0.305606	0.754243	
-0.247057	0.434698	0.749501	
-0.117277	0.364618	0.76936	
-0.493315	-0.0814864	0.652319	
-0.39411	-0.0165863	0.757409	
-0.352604	-0.116449	0.71733	
-0.393057	-0.0716576	0.611801	
-0.492649	-0.0854243	0.748597	
-0.470668	-0.168734	0.798219	
-0.352604	-0.116449	0.71733	
-0.39411	-0.0165863	0.757409	
0.184962	0.0799289	1	
0.195689	0.0416963	0.86434	
0.115537	0.0107471	1	
0.105897	0.0806526	0.900017	
0.0814864	0.493315	0.847681	
0.0511855	0.375084	0.751646	
0.107558	0.36211	0.8622	
0.025786	0.402982	0.903855	
-0.311262	0.211476	0.883807	
-0.328307	0.16356	1	
-0.390033	0.0787983	0.902592	
-0.277483	0.0617124	0.914802	
0.0877841	0.277766	0.703945	
0.162962	0.351618	0.758031	
0.159673	0.344869	0.622089	
0.0511855	0.375084	0.751646	
-0.333304	0.00409397	0.661614	
-0.264287	0.0818172	0.601453	
-0.373426	0.0982193	0.605831	
-0.391681	0.0802879	0.710436	
0.144361	-0.223672	0.5	
0.212642	-0.171195	0.5	
0.153817	-0.129728	0.5	
0.231926	-0.137602	0.598516	
0.332994	0.0375409	0.661618	
0.243096	0.0493866	0.595389	
0.217579	-0.0397687	0.636314	
0.283277	0.0443669	0.748521	
-0.114467	-0.386332	1	
-0.0832182	-0.39248	0.894675	
-0.158356	-0.325914	0.851548	
-0.0781785	-0.271888	0.896904	
-0.209296	-0.0687964	0.747015	
-0.333304	0.00409397	0.661614	
-0.213242	-0.007813	0.640954	
-0.287784	-0.0964438	0.621465	
-0.168043	-0.470916	0.699874	
-0.0833019	-0.493012	0.655211	
-0.0585559	-0.361231	0.657485	
-0.0966341	-0.368565	0.765144	
0.0177914	0.213039	0.5	
0.00344957	0.138123	0.5	
0.0897768	0.149878	0.5	
0.0462278	0.146831	0.635901	
-0.157178	0.100595	0.650339	
-0.0842182	0.182405	0.629411	
-0.145646	0.149141	0.5	
-0.203341	0.186445	0.603634	
-0.331632	-0.374193	0.665357	
-0.257824	-0.4284	0.704976	
-0.277785	-0.415735	0.634138	
-0.239357	-0.30005	0.729626	
0.133074	0.264097	1	
0.231243	0.24169	1	
0.158056	0.171884	1	
0.195469	0.159954	0.886309	
0.228991	-0.444481	0.591901	
0.213029	-0.381729	0.5	
0.144361	-0.400449	0.5	
0.16292	-0.321139	0.620031	
-0.316581	0.126747	0.5	
-0.373426	0.0982193	0.605831	
-0.298046	0.172945	0.653946	
-0.306859	0.249519	0.591577	
-0.203173	-0.373024	1	
-0.158356	-0.325914	0.851548	
-0.243391	-0.436762	0.903062	
-0.257866	-0.303129	0.891677	
0.394936	-0.119803	1	
0.495293	-0.0684459	0.931403	
0.360282	-0.0916129	0.861913	
0.397985	-0.0056	0.902207	
-0.0143548	-0.331636	0.835577	
0.0132695	-0.394263	0.743185	
0.11687	-0.357533	0.85392	
0.032794	-0.401349	0.896695	
-0.0143548	-0.331636	0.835577	
-0.0123059	-0.194682	0.863671	
-0.011467	-0.243815	0.75519	
-0.0781785	-0.271888	0.896904	
0.337634	0.115561	1	
0.310611	0.178263	0.85673	
0.300884	0.198715	1	
0.378621	0.110033	0.901946	
-0.0143548	-0.331636	0.835577	
-0.0123059	-0.194682	0.863671	
0.054972	-0.274643	0.900622	
0.0672081	-0.306462	0.784462	
0.233754	0.245143	0.652714	
0.13133	0.218843	0.607259	
0.171794	0.11325	0.628738	
0.157953	0.210834	0.75219	
-0.224391	0.0726716	0.751498	
-0.213242	-0.007813	0.640954	
-0.333304	0.00409397	0.661614	
-0.264287	0.0818172	0.601453	
0.18031	-0.320943	0.740502	
0.16292	-0.321139	0.620031	
0.174678	-0.468495	0.682891	
0.0978756	-0.400914	0.688925	
0.079088	0.165847	0.846387	
0.157953	0.210834	0.75219	
0.00181727	0.225193	0.776224	
0.0922358	0.267303	0.814992	
-0.0341142	0.113867	0.749186	
-0.125866	0.0341816	0.729574	
-0.0470393	0.078068	0.615792	
0.00311865	0.0446609	0.692024	
0.493389	-0.0810399	0.85285	
0.490343	-0.0977967	0.758774	
0.360282	-0.0916129	0.861913	
0.364623	-0.0450159	0.747721	
-0.157178	0.100595	0.650339	
-0.0341142	0.113867	0.749186	
-0.128722	0.176827	0.731598	
-0.125866	0.0341816	0.729574	
-0.337562	0.0547633	1	
-0.302044	-0.0506462	1	
-0.401548	-0.0423374	1	
-0.404383	-0.0159907	0.861288	
-0.495101	0.0698189	0.572379	
-0.5	0	0.6	
-0.400468	0.0439116	0.5	
-0.373426	0.0982193	0.605831	
0.316847	0.386792	0.698616	
0.380873	0.323938	0.652261	
0.376757	0.328716	0.746468	
0.292421	0.250833	0.767221	
-0.0854243	0.492649	0.748597	
-0.174678	0.468495	0.682891	
-0.0814864	0.493315	0.652319	
-0.117277	0.364618	0.76936	
-0.0842182	0.182405	0.629411	
-0.203341	0.186445	0.603634	
-0.128722	0.176827	0.731598	
-0.136825	0.25987	0.596211	
0.460548	0.194667	0.73433	
0.335565	0.163368	0.703209	
0.490343	0.0977967	0.741226	
0.37512	0.124368	0.792934	
0.079088	0.165847	0.846387	
0.00181727	0.225193	0.776224	
-0.0802187	0.199602	0.860073	
0.0166107	0.245601	0.898079	
0.153817	0.120272	0.5	
0.171794	0.11325	0.628738	
0.0897768	0.149878	0.5	
0.0913968	0.0719702	0.595778	
-0.138674	0.323797	1	
-0.119993	0.246691	1	
-0.214341	0.273759	1	
-0.175427	0.309191	0.860321	
0.130037	-0.0606882	0.5	
0.100517	-0.109754	0.630856	
0.153817	-0.129728	0.5	
0.231926	-0.137602	0.598516	
-0.0572576	0.362529	0.5	
0.0172234	0.375408	0.5	
-0.0430682	0.437279	0.5	
-0.00106225	0.370203	0.65	
-0.175427	0.309191	0.860321	
-0.316847	0.386792	0.801384	
-0.237468	0.305606	0.754243	
-0.265639	0.299346	0.905431	
0.5	0	0.7	
0.493389	0.0810399	0.64715	
0.5	0	0.6	
0.396694	0.0647464	0.588567	
-0.0497393	-0.170251	0.638216	
0.000996857	-0.0833524	0.602223	
-0.0648143	-0.0272529	0.665015	
0.0272687	-0.0505093	0.69136	
-0.224577	0.189906	0.793765	
-0.0802187	0.199602	0.860073	
-0.128722	0.176827	0.731598	
-0.115688	0.262969	0.786818	
-0.316847	0.386792	0.801384	
-0.380873	0.323938	0.847739	
-0.376757	0.328716	0.753532	
-0.237468	0.305606	0.754243	
0.5	0	0.7	
0.5	0	0.6	
0.39042	-0.0433488	0.606813	
0.396694	0.0647464	0.588567	
0.00344957	0.138123	0.5	
-0.0572576	0.185752	0.5	
-0.0470393	0.078068	0.615792	
-0.0842182	0.182405	0.629411	
0.11687	-0.357533	0.85392	
0.0132695	-0.394263	0.743185	
-0.0143548	-0.331636	0.835577	
0.0672081	-0.306462	0.784462	
-0.267995	-0.204807	0.662178	
-0.239357	-0.30005	0.729626	
-0.184118	-0.326089	0.626133	
-0.188154	-0.225182	0.596871	
0.0747819	-0.266651	0.5	
0.0957286	-0.225187	0.608184	
0.0559726	-0.187061	0.5	
-0.000247605	-0.297629	0.606346	
0.493012	0.0833019	0.844789	
0.490343	0.0977967	0.741226	
0.5	0	0.8	
0.37512	0.124368	0.792934	
-0.224577	0.189906	0.793765	
-0.342082	0.155488	0.769444	
-0.311262	0.211476	0.883807	
-0.318622	0.246893	0.724741	
-0.278713	-0.14304	1	
-0.344127	-0.112227	1	
-0.302044	-0.0506462	1	
-0.231631	-0.136254	0.90444	
-0.317206	0.386498	0.700322	
-0.374193	0.331632	0.665357	
-0.225501	0.288034	0.633154	
-0.318622	0.246893	0.724741	
-0.5	0	0.7	
-0.333304	0.00409397	0.661614	
-0.39411	-0.0165863	0.757409	
-0.393057	-0.0716576	0.611801	
0.194604	-0.371188	1	
0.235698	-0.440961	0.931431	
0.153328	-0.47591	0.90763	
0.21926	-0.328264	0.896532	
0.194604	-0.371188	1	
0.153328	-0.47591	0.90763	
0.11687	-0.357533	0.85392	
0.21926	-0.328264	0.896532	
0.428195	-0.258165	0.798245	
0.309938	-0.217964	0.736716	
0.376757	-0.328716	0.753532	
0.264677	-0.291732	0.802046	
0.171794	0.11325	0.628738	
0.279002	0.143488	0.606802	
0.177987	0.183818	0.5	
0.13133	0.218843	0.607259	
0.218846	0.121291	0.749847	
0.171794	0.11325	0.628738	
0.100339	0.12014	0.738531	
0.157953	0.210834	0.75219	
0.493012	-0.0833019	0.655211	
0.470916	-0.168043	0.699874	
0.490343	-0.0977967	0.758774	
0.364623	-0.0450159	0.747721	
0.112799	-0.33356	1	
0.11687	-0.357533	0.85392	
0.125573	-0.41396	1	
0.032794	-0.401349	0.896695	
0.493012	0.0833019	0.844789	
0.378621	0.110033	0.901946	
0.333846	0.0367661	0.834867	
0.397985	-0.0056	0.902207	
-0.137519	-0.208294	0.5	
-0.0945272	-0.266606	0.620808	
-0.0497393	-0.170251	0.638216	
-0.188154	-0.225182	0.596871	
0.313791	-0.154465	1	
0.232997	-0.11062	1	
0.257767	-0.0505632	0.898363	
0.208315	-0.166389	0.905666	
-0.0505573	-0.00469477	0.5	
0.0288165	-0.00472784	0.5	
-0.0283081	0.0695318	0.5	
-0.0470393	0.078068	0.615792	
0.232997	-0.11062	1	
0.153122	-0.0879879	0.864132	
0.14072	-0.0839746	1	
0.257767	-0.0505632	0.898363	
-0.242822	0.437078	0.847009	
-0.168734	0.470668	0.798219	
-0.153328	0.47591	0.90763	
-0.175427	0.309191	0.860321	
-0.0319626	0.00109562	0.771489	
0.0991673	-0.046171	0.758635	
0.0362446	-0.13014	0.749535	
0.0272687	-0.0505093	0.69136	
-0.203173	-0.373024	1	
-0.158356	-0.325914	0.851548	
-0.114467	-0.386332	1	
-0.0832182	-0.39248	0.894675	
-0.470668	-0.168734	0.798219	
-0.434698	-0.247057	0.749501	
-0.352604	-0.116449	0.71733	
-0.324368	-0.232384	0.754222	
0	-0.5	0.7	
0	-0.5	0.6	
-0.0585559	-0.361231	0.657485	
0.0409643	-0.389072	0.60666	
-0.333304	0.00409397	0.661614	
-0.294862	0.0237806	0.5	
-0.373426	0.0982193	0.605831	
-0.264287	0.0818172	0.601453	
0.326691	-0.12898	0.644897	
0.257355	-0.0987317	0.776667	
0.309938	-0.217964	0.736716	
0.371228	-0.144256	0.774162	
-0.0341142	0.113867	0.749186	
0.0462278	0.146831	0.635901	
0.100339	0.12014	0.738531	
0.00311865	0.0446609	0.692024	
0	-0.5	0.8	
0.0807477	-0.493437	0.845776	
0.0132695	-0.394263	0.743185	
0.032794	-0.401349	0.896695	
-0.323938	-0.380873	0.847739	
-0.258165	-0.428195	0.798245	
-0.328716	-0.376757	0.753532	
-0.239357	-0.30005	0.729626	
-0.0785029	0.119253	0.5	
-0.0470393	0.078068	0.615792	
-0.0572576	0.185752	0.5	
-0.0842182	0.182405	0.629411	
0.14072	-0.0839746	1	
0.0397395	-0.0938942	0.889407	
0.153122	-0.0879879	0.864132	
0.0968003	-0.179614	0.902873	
0.242822	-0.437078	0.847009	
0.18031	-0.320943	0.740502	
0.168734	-0.470668	0.798219	
0.11687	-0.357533	0.85392	
-0.0341142	0.113867	0.749186	
-0.0470393	0.078068	0.615792	
0.0462278	0.146831	0.635901	
0.00311865	0.0446609	0.692024	
0.201164	-0.273578	1	
0.294702	-0.208252	0.864399	
0.314857	-0.257449	1	
0.21926	-0.328264	0.896532	
0.174678	0.468495	0.817109	
0.107558	0.36211	0.8622	
0.0814864	0.493315	0.847681	
0.0511855	0.375084	0.751646	
0.324205	0.0779192	0.5	
0.396694	0.0647464	0.588567	
0.279002	0.143488	0.606802	
0.243096	0.0493866	0.595389	
-0.298046	0.172945	0.653946	
-0.264287	0.0818172	0.601453	
-0.316581	0.126747	0.5	
-0.203341	0.186445	0.603634	
0.0420567	-0.345657	0.5	
0.0409643	-0.389072	0.60666	
0.112358	-0.334816	0.5	
-0.000247605	-0.297629	0.606346	
0.333846	0.0367661	0.834867	
0.378621	0.110033	0.901946	
0.493012	0.0833019	0.844789	
0.37512	0.124368	0.792934	
0.201164	-0.273578	1	
0.0943468	-0.245334	1	
0.164797	-0.177585	1	
0.0968003	-0.179614	0.902873	
0.242822	-0.437078	0.847009	
0.247057	-0.434698	0.749501	
0.18031	-0.320943	0.740502	
0.264677	-0.291732	0.802046	
-0.386498	-0.317206	0.700322	
-0.324368	-0.232384	0.754222	
-0.239357	-0.30005	0.729626	
-0.28318	-0.296642	0.616188	
0.0897768	0.149878	0.5	
0.171794	0.11325	0.628738	
0.13133	0.218843	0.607259	
0.0913968	0.0719702	0.595778	
0.450285	0.217356	0.855302	
0.378621	0.110033	0.901946	
0.310611	0.178263	0.85673	
0.37512	0.124368	0.792934	
-0.234034	0.185752	0.5	
-0.316581	0.126747	0.5	
-0.264287	0.0818172	0.601453	
-0.203341	0.186445	0.603634	
-0.0833019	-0.493012	0.655211	
0	-0.5	0.6	
-0.0698189	-0.495101	0.572379	
-0.0585559	-0.361231	0.657485	
0.0559726	-0.187061	0.5	
0.100517	-0.109754	0.630856	
0.0654282	-0.0931162	0.5	
0.000996857	-0.0833524	0.602223	
-0.315029	-0.388274	0.579193	
-0.184118	-0.326089	0.626133	
-0.262519	-0.333294	0.5	
-0.28318	-0.296642	0.616188	
-0.267995	-0.204807	0.662178	
-0.287784	-0.0964438	0.621465	
-0.170863	-0.122482	0.63474	
-0.188154	-0.225182	0.596871	
0.177987	0.183818	0.5	
0.266375	0.22043	0.5	
0.234372	0.286063	0.5	
0.13133	0.218843	0.607259	
-0.468495	-0.174678	0.682891	
-0.352604	-0.116449	0.71733	
-0.429146	-0.25658	0.66876	
-0.358854	-0.187212	0.601126	
-0.0810399	-0.493389	0.85285	
0	-0.5	0.8	
-0.0977967	-0.490343	0.758774	
-0.0966341	-0.368565	0.765144	
0.0362446	-0.13014	0.749535	
0.100517	-0.109754	0.630856	
0.153146	-0.133743	0.733731	
0.0917349	-0.220895	0.740016	
-0.277785	-0.415735	0.634138	
-0.184118	-0.326089	0.626133	
-0.315029	-0.388274	0.579193	
-0.28318	-0.296642	0.616188	
-0.221565	0.0908555	0.5	
-0.264287	0.0818172	0.601453	
-0.157178	0.100595	0.650339	
-0.203341	0.186445	0.603634	
0.317206	0.386498	0.799678	
0.292421	0.250833	0.767221	
0.374193	0.331632	0.834643	
0.287646	0.277342	0.89815	
0.0704482	0.495012	0.571845	
0.0807477	0.493437	0.654224	
0	0.5	0.6	
-0.00106225	0.370203	0.65	
0.332994	0.0375409	0.661618	
0.279002	0.143488	0.606802	
0.335565	0.163368	0.703209	
0.396694	0.0647464	0.588567	
0.313791	-0.154465	1	
0.314271	-0.0501881	1	
0.360282	-0.0916129	0.861913	
0.257767	-0.0505632	0.898363	
-0.295892	0.334394	0.5	
-0.225501	0.288034	0.633154	
-0.3168	0.386831	0.604097	
-0.306859	0.249519	0.591577	
0.324956	-0.262938	0.5	
0.267645	-0.326424	0.5	
0.388274	-0.315029	0.579193	
0.306527	-0.240421	0.616434	
0.115537	0.0107471	1	
0.184962	0.0799289	1	
0.210156	-0.0147965	1	
0.195689	0.0416963	0.86434	
0.428195	-0.258165	0.798245	
0.309938	-0.217964	0.736716	
0.294702	-0.208252	0.864399	
0.371228	-0.144256	0.774162	
0.146853	-0.477948	0.584008	
0.228991	-0.444481	0.591901	
0.144361	-0.400449	0.5	
0.16292	-0.321139	0.620031	
-0.0206459	0.274141	0.5	
-0.0572576	0.362529	0.5	
-0.122891	0.330526	0.5	
-0.136825	0.25987	0.596211	
0.25658	0.429146	0.83124	
0.247057	0.434698	0.750499	
0.317206	0.386498	0.799678	
0.162962	0.351618	0.758031	
0.0897768	0.149878	0.5	
0.171794	0.11325	0.628738	
0.153817	0.120272	0.5	
0.13133	0.218843	0.607259	
0.493012	-0.0833019	0.655211	
0.364623	-0.0450159	0.747721	
0.5	0	0.7	
0.39042	-0.0433488	0.606813	
-0.0988881	0.278177	0.686189	
-0.112546	0.368373	0.611308	
0.000715258	0.25479	0.628643	
-0.136825	0.25987	0.596211	
0.469721	-0.171353	0.838334	
0.436762	-0.243391	0.903062	
0.478555	-0.144862	0.921652	
0.360282	-0.0916129	0.861913	
-0.0988881	0.278177	0.686189	
-0.0842182	0.182405	0.629411	
-0.128722	0.176827	0.731598	
-0.136825	0.25987	0.596211	
-0.469721	0.171353	0.838334	
-0.436762	0.243391	0.903062	
-0.478555	0.144862	0.921652	
-0.390033	0.0787983	0.902592	
0.428195	-0.258165	0.798245	
0.380873	-0.323938	0.847739	
0.294702	-0.208252	0.864399	
0.264677	-0.291732	0.802046	
-0.152694	-0.476114	0.59754	
-0.168043	-0.470916	0.699874	
-0.0833019	-0.493012	0.655211	
-0.0585559	-0.361231	0.657485	
-0.242822	0.437078	0.847009	
-0.153328	0.47591	0.90763	
-0.235698	0.440961	0.931431	
-0.175427	0.309191	0.860321	
0.414183	0.131147	1	
0.373926	0.198925	1	
0.439458	0.238488	0.924308	
0.378621	0.110033	0.901946	
0	0.5	0.7	
-0.00106225	0.370203	0.65	
0.0807477	0.493437	0.654224	
0.0511855	0.375084	0.751646	
-0.450285	0.217356	0.644698	
-0.476114	0.152694	0.59754	
-0.439458	0.238488	0.575692	
-0.373426	0.0982193	0.605831	
0.469721	0.171353	0.661666	
0.490343	0.0977967	0.741226	
0.460548	0.194667	0.73433	
0.335565	0.163368	0.703209	
0.314857	-0.257449	1	
0.436762	-0.243391	0.903062	
0.386505	-0.317197	0.931175	
0.294702	-0.208252	0.864399	
0.366699	-0.192277	0.5	
0.326691	-0.12898	0.644897	
0.284773	-0.165822	0.5	
0.306527	-0.240421	0.616434	
0.284773	-0.165822	0.5	
0.306527	-0.240421	0.616434	
0.326691	-0.12898	0.644897	
0.231926	-0.137602	0.598516	
-0.322193	0.044739	0.823506	
-0.333304	0.00409397	0.661614	
-0.39411	-0.0165863	0.757409	
-0.391681	0.0802879	0.710436	
0.0991673	-0.046171	0.758635	
0.0272687	-0.0505093	0.69136	
-0.0319626	0.00109562	0.771489	
0.00311865	0.0446609	0.692024	
0.373926	0.198925	1	
0.337634	0.115561	1	
0.300884	0.198715	1	
0.378621	0.110033	0.901946	
0.388274	-0.315029	0.579193	
0.267645	-0.326424	0.5	
0.3168	-0.386831	0.604097	
0.306527	-0.240421	0.616434	
0.125573	-0.41396	1	
0.11687	-0.357533	0.85392	
0.153328	-0.47591	0.90763	
0.032794	-0.401349	0.896695	
-0.238488	-0.439458	0.575692	
-0.217356	-0.450285	0.644698	
-0.152694	-0.476114	0.59754	
-0.184118	-0.326089	0.626133	
-0.209059	-0.00395244	0.5	
-0.262519	-0.0832944	0.5	
-0.174131	-0.119906	0.5	
-0.213242	-0.007813	0.640954	
0.247057	-0.434698	0.749501	
0.317206	-0.386498	0.700322	
0.18031	-0.320943	0.740502	
0.264677	-0.291732	0.802046	
0.14072	-0.0839746	1	
0.153122	-0.0879879	0.864132	
0.210156	-0.0147965	1	
0.257767	-0.0505632	0.898363	
-0.386831	-0.3168	0.604097	
-0.358854	-0.187212	0.601126	
-0.429146	-0.25658	0.66876	
-0.28318	-0.296642	0.616188	
-0.0983601	0.156434	1	
-0.16685	0.0883447	1	
-0.18644	0.1823	1	
-0.215798	0.142373	0.897172	
0.0604118	0.00910509	0.839477	
0.153122	-0.0879879	0.864132	
0.0397395	-0.0938942	0.889407	
0.0991673	-0.046171	0.758635	
0.218846	0.121291	0.749847	
0.335565	0.163368	0.703209	
0.37512	0.124368	0.792934	
0.283277	0.0443669	0.748521	
0.346509	0.0237889	1	
0.277593	0.0916628	0.90095	
0.378621	0.110033	0.901946	
0.397985	-0.0056	0.902207	
0.4284	0.257824	0.795024	
0.335565	0.163368	0.703209	
0.460548	0.194667	0.73433	
0.37512	0.124368	0.792934	
0.376757	0.328716	0.746468	
0.380873	0.323938	0.652261	
0.428195	0.258165	0.701755	
0.292421	0.250833	0.767221	
0.317206	-0.386498	0.700322	
0.18031	-0.320943	0.740502	
0.264677	-0.291732	0.802046	
0.253502	-0.311953	0.668431	
-0.203173	-0.373024	1	
-0.168688	-0.281701	1	
-0.158356	-0.325914	0.851548	
-0.257866	-0.303129	0.891677	
-0.0814864	0.493315	0.652319	
-0.0728232	0.494668	0.573541	
-0.00106225	0.370203	0.65	
-0.112546	0.368373	0.611308	
-0.25658	0.429146	0.66876	
-0.317206	0.386498	0.700322	
-0.225501	0.288034	0.633154	
-0.237468	0.305606	0.754243	
0.495293	-0.0684459	0.931403	
0.478555	-0.144862	0.921652	
0.394936	-0.119803	1	
0.360282	-0.0916129	0.861913	
0.276476	0.0535537	1	
0.257767	-0.0505632	0.898363	
0.195689	0.0416963	0.86434	
0.277593	0.0916628	0.90095	
-0.138674	0.323797	1	
-0.214341	0.273759	1	
-0.201912	0.369986	1	
-0.175427	0.309191	0.860321	
-0.170863	-0.122482	0.63474	
-0.287784	-0.0964438	0.621465	
-0.239764	-0.151909	0.5	
-0.188154	-0.225182	0.596871	
0.0153159	0.363557	1	
0.0401436	0.291204	1	
0.0166107	0.245601	0.898079	
0.025786	0.402982	0.903855	
0.177987	0.183818	0.5	
0.234372	0.286063	0.5	
0.164071	0.275222	0.5	
0.13133	0.218843	0.607259	
0.314271	-0.0501881	1	
0.257767	-0.0505632	0.898363	
0.346509	0.0237889	1	
0.397985	-0.0056	0.902207	
-0.0183357	0.330286	0.830674	
0.0166107	0.245601	0.898079	
0.107558	0.36211	0.8622	
0.025786	0.402982	0.903855	
0.0897768	0.149878	0.5	
0.13133	0.218843	0.607259	
0.0462278	0.146831	0.635901	
0.0913968	0.0719702	0.595778	
-0.374193	0.331632	0.665357	
-0.415735	0.277785	0.634138	
-0.306859	0.249519	0.591577	
-0.318622	0.246893	0.724741	
0.146853	-0.477948	0.584008	
0.174678	-0.468495	0.682891	
0.16292	-0.321139	0.620031	
0.0978756	-0.400914	0.688925	
0.233754	0.245143	0.652714	
0.292421	0.250833	0.767221	
0.335565	0.163368	0.703209	
0.326633	0.237522	0.603331	
0.326691	-0.12898	0.644897	
0.364623	-0.0450159	0.747721	
0.257355	-0.0987317	0.776667	
0.371228	-0.144256	0.774162	
-0.374193	0.331632	0.665357	
-0.306859	0.249519	0.591577	
-0.225501	0.288034	0.633154	
-0.318622	0.246893	0.724741	
-0.5	0	0.6	
-0.42782	-0.0498056	0.5	
-0.400468	0.0439116	0.5	
-0.393057	-0.0716576	0.611801	
0.187412	-0.0186436	0.5	
0.130037	-0.0606882	0.5	
0.242205	-0.0931162	0.5	
0.231926	-0.137602	0.598516	
0.278817	-0.00472784	0.5	
0.368263	0.0160059	0.5	
0.324205	0.0779192	0.5	
0.243096	0.0493866	0.595389	
-0.0232782	-0.127584	1	
0.00183684	-0.222331	1	
-0.0925337	-0.196451	1	
-0.0123059	-0.194682	0.863671	
0.154637	-0.229675	0.832631	
0.11687	-0.357533	0.85392	
0.18031	-0.320943	0.740502	
0.21926	-0.328264	0.896532	
-0.0690274	-0.312061	0.5	
-0.128733	-0.391758	0.5	
-0.0324158	-0.400449	0.5	
-0.0585559	-0.361231	0.657485	
0.196796	0.354228	0.5	
0.235698	0.440961	0.568569	
0.317233	0.386476	0.590473	
0.266375	0.397206	0.5	
0.189613	0.313662	1	
0.133074	0.264097	1	
0.114055	0.374109	1	
0.209258	0.343487	0.903692	
0.154637	-0.229675	0.832631	
0.21926	-0.328264	0.896532	
0.294702	-0.208252	0.864399	
0.208315	-0.166389	0.905666	
-0.408839	0.131788	0.5	
-0.439458	0.238488	0.575692	
-0.476114	0.152694	0.59754	
-0.373426	0.0982193	0.605831	
0.133074	0.264097	1	
0.107558	0.36211	0.8622	
0.114055	0.374109	1	
0.209258	0.343487	0.903692	
0.376757	-0.328716	0.753532	
0.264677	-0.291732	0.802046	
0.309938	-0.217964	0.736716	
0.253502	-0.311953	0.668431	
-0.355295	-0.0330772	0.5	
-0.294862	0.0237806	0.5	
-0.400468	0.0439116	0.5	
-0.373426	0.0982193	0.605831	
0.257355	-0.0987317	0.776667	
0.257767	-0.0505632	0.898363	
0.153122	-0.0879879	0.864132	
0.208315	-0.166389	0.905666	
0.428195	0.258165	0.701755	
0.335565	0.163368	0.703209	
0.4284	0.257824	0.795024	
0.292421	0.250833	0.767221	
0.360282	-0.0916129	0.861913	
0.364623	-0.0450159	0.747721	
0.333846	0.0367661	0.834867	
0.397985	-0.0056	0.902207	
0.144361	-0.400449	0.5	
0.16292	-0.321139	0.620031	
0.112358	-0.334816	0.5	
0.0409643	-0.389072	0.60666	
0.490343	-0.0977967	0.758774	
0.493389	-0.0810399	0.85285	
0.360282	-0.0916129	0.861913	
0.371228	-0.144256	0.774162	
0.360282	-0.0916129	0.861913	
0.364623	-0.0450159	0.747721	
0.490343	-0.0977967	0.758774	
0.371228	-0.144256	0.774162	
0.114055	0.374109	1	
0.146853	0.477948	0.915992	
0.202324	0.378521	1	
0.209258	0.343487	0.903692	
-0.317206	0.386498	0.700322	
-0.225501	0.288034	0.633154	
-0.237468	0.305606	0.754243	
-0.318622	0.246893	0.724741	
0.3168	-0.386831	0.604097	
0.16292	-0.321139	0.620031	
0.228991	-0.444481	0.591901	
0.253502	-0.311953	0.668431	
0.233754	0.245143	0.652714	
0.279002	0.143488	0.606802	
0.171794	0.11325	0.628738	
0.13133	0.218843	0.607259	
-0.492649	-0.0854243	0.748597	
-0.352604	-0.116449	0.71733	
-0.493315	-0.0814864	0.652319	
-0.39411	-0.0165863	0.757409	
0.326691	-0.12898	0.644897	
0.309938	-0.217964	0.736716	
0.203135	-0.21521	0.664501	
0.306527	-0.240421	0.616434	
-0.298046	0.172945	0.653946	
-0.342082	0.155488	0.769444	
-0.224577	0.189906	0.793765	
-0.318622	0.246893	0.724741	
-0.168688	-0.281701	1	
-0.114467	-0.386332	1	
-0.158356	-0.325914	0.851548	
-0.0781785	-0.271888	0.896904	
-0.242822	0.437078	0.847009	
-0.316847	0.386792	0.801384	
-0.175427	0.309191	0.860321	
-0.265639	0.299346	0.905431	
0.284773	-0.165822	0.5	
0.326691	-0.12898	0.644897	
0.338823	-0.0848934	0.5	
0.231926	-0.137602	0.598516	
-0.257956	0.116321	1	
-0.328307	0.16356	1	
-0.215798	0.142373	0.897172	
-0.277483	0.0617124	0.914802	
-0.0728232	0.494668	0.573541	
0	0.5	0.6	
-0.0814864	0.493315	0.652319	
-0.00106225	0.370203	0.65	
0.0954521	0.018975	0.675961	
0.0786602	-0.0230096	0.587367	
0.00311865	0.0446609	0.692024	
0.0913968	0.0719702	0.595778	
-0.311262	0.211476	0.883807	
-0.215798	0.142373	0.897172	
-0.328307	0.16356	1	
-0.277483	0.0617124	0.914802	
-0.437078	-0.242822	0.847009	
-0.34489	-0.101074	0.850415	
-0.47591	-0.153328	0.90763	
-0.338	-0.218597	0.893416	
-0.495101	0.0698189	0.572379	
-0.493012	0.0833019	0.655211	
-0.5	0	0.6	
-0.373426	0.0982193	0.605831	
0.154637	-0.229675	0.832631	
0.21926	-0.328264	0.896532	
0.18031	-0.320943	0.740502	
0.264677	-0.291732	0.802046	
0.470916	-0.168043	0.699874	
0.490343	-0.0977967	0.758774	
0.364623	-0.0450159	0.747721	
0.371228	-0.144256	0.774162	
0.317233	-0.386476	0.909527	
0.21926	-0.328264	0.896532	
0.380873	-0.323938	0.847739	
0.264677	-0.291732	0.802046	
0	-0.5	0.7	
0.0409643	-0.389072	0.60666	
-0.0585559	-0.361231	0.657485	
0.0132695	-0.394263	0.743185	
-0.152694	-0.476114	0.59754	
-0.0833019	-0.493012	0.655211	
-0.0698189	-0.495101	0.572379	
-0.0585559	-0.361231	0.657485	
0.133074	0.264097	1	
0.0401436	0.291204	1	
0.114055	0.374109	1	
0.107558	0.36211	0.8622	
0.242822	-0.437078	0.847009	
0.247057	-0.434698	0.749501	
0.168734	-0.470668	0.798219	
0.18031	-0.320943	0.740502	
0	-0.5	0.7	
0	-0.5	0.6	
-0.0833019	-0.493012	0.655211	
-0.0585559	-0.361231	0.657485	
-0.122891	0.330526	0.5	
-0.11205	0.260225	0.5	
-0.0206459	0.274141	0.5	
-0.136825	0.25987	0.596211	
0.184962	0.0799289	1	
0.195469	0.159954	0.886309	
0.195689	0.0416963	0.86434	
0.105897	0.0806526	0.900017	
-0.174131	-0.119906	0.5	
-0.0840299	-0.136867	0.5	
-0.120671	-0.0405641	0.5	
-0.170863	-0.122482	0.63474	
-0.429146	-0.25658	0.66876	
-0.468495	-0.174678	0.682891	
-0.434698	-0.247057	0.749501	
-0.352604	-0.116449	0.71733	
0.310611	0.178263	0.85673	
0.378621	0.110033	0.901946	
0.337634	0.115561	1	
0.277593	0.0916628	0.90095	
-0.0840299	-0.136867	0.5	
-0.0497393	-0.170251	0.638216	
-0.00743541	-0.147874	0.5	
0.000996857	-0.0833524	0.602223	
-0.5	0	0.7	
-0.39411	-0.0165863	0.757409	
-0.333304	0.00409397	0.661614	
-0.391681	0.0802879	0.710436	
0.232997	-0.11062	1	
0.14072	-0.0839746	1	
0.153122	-0.0879879	0.864132	
0.208315	-0.166389	0.905666	
0.315521	0.155675	0.5	
0.279002	0.143488	0.606802	
0.324205	0.0779192	0.5	
0.396694	0.0647464	0.588567	
-0.114467	-0.386332	1	
-0.203173	-0.373024	1	
-0.168688	-0.281701	1	
-0.158356	-0.325914	0.851548	
-0.0295403	0.225144	1	
-0.0983601	0.156434	1	
-0.119993	0.246691	1	
-0.0802187	0.199602	0.860073	
-0.5	0	0.7	
-0.39411	-0.0165863	0.757409	
-0.493315	-0.0814864	0.652319	
-0.393057	-0.0716576	0.611801	
-0.262519	-0.0832944	0.5	
-0.209059	-0.00395244	0.5	
-0.294862	0.0237806	0.5	
-0.213242	-0.007813	0.640954	
0.174678	0.468495	0.817109	
0.162962	0.351618	0.758031	
0.107558	0.36211	0.8622	
0.0511855	0.375084	0.751646	
-0.191056	0.29295	0.5	
-0.225501	0.288034	0.633154	
-0.203341	0.186445	0.603634	
-0.136825	0.25987	0.596211	
0.168734	-0.470668	0.798219	
0.0854243	-0.492649	0.748597	
0.0807477	-0.493437	0.845776	
0.11687	-0.357533	0.85392	
0.332994	0.0375409	0.661618	
0.37512	0.124368	0.792934	
0.335565	0.163368	0.703209	
0.283277	0.0443669	0.748521	
-0.0324158	-0.400449	0.5	
-0.0585559	-0.361231	0.657485	
0.0409643	-0.389072	0.60666	
-0.000247605	-0.297629	0.606346	
-0.144862	-0.478555	0.921652	
-0.203173	-0.373024	1	
-0.114467	-0.386332	1	
-0.0832182	-0.39248	0.894675	
-0.0810399	-0.493389	0.85285	
0	-0.5	0.9	
0	-0.5	0.8	
0.032794	-0.401349	0.896695	
0.376757	-0.328716	0.753532	
0.309938	-0.217964	0.736716	
0.374193	-0.331632	0.665357	
0.253502	-0.311953	0.668431	
0.14072	-0.0839746	1	
0.0712814	-0.153152	1	
0.0397395	-0.0938942	0.889407	
0.0968003	-0.179614	0.902873	
0.284773	-0.165822	0.5	
0.238057	-0.243638	0.5	
0.306527	-0.240421	0.616434	
0.231926	-0.137602	0.598516	
0.242026	0.154212	0.5	
0.177987	0.183818	0.5	
0.171794	0.11325	0.628738	
0.279002	0.143488	0.606802	
0.0954521	0.018975	0.675961	
0.100339	0.12014	0.738531	
0.0462278	0.146831	0.635901	
0.00311865	0.0446609	0.692024	
-0.337562	0.0547633	1	
-0.401548	-0.0423374	1	
-0.390033	0.0787983	0.902592	
-0.404383	-0.0159907	0.861288	
0.242026	0.154212	0.5	
0.153817	0.120272	0.5	
0.242205	0.0836605	0.5	
0.171794	0.11325	0.628738	
-0.242822	0.437078	0.847009	
-0.175427	0.309191	0.860321	
-0.316847	0.386792	0.801384	
-0.237468	0.305606	0.754243	
0.228991	-0.444481	0.591901	
0.146853	-0.477948	0.584008	
0.174678	-0.468495	0.682891	
0.16292	-0.321139	0.620031	
-0.0807477	0.493437	0.845776	
0	0.5	0.8	
0	0.5	0.9	
0.025786	0.402982	0.903855	
0	-0.5	0.7	
-0.0585559	-0.361231	0.657485	
-0.0833019	-0.493012	0.655211	
0.0132695	-0.394263	0.743185	
-0.0324158	-0.223672	0.5	
-0.0497393	-0.170251	0.638216	
-0.0945272	-0.266606	0.620808	
-0.000247605	-0.297629	0.606346	
-0.194667	-0.460548	0.76567	
-0.158356	-0.325914	0.851548	
-0.171353	-0.469721	0.838334	
-0.0966341	-0.368565	0.765144	
0.112799	-0.33356	1	
0.194604	-0.371188	1	
0.11687	-0.357533	0.85392	
0.21926	-0.328264	0.896532	
-0.170863	-0.122482	0.63474	
-0.213242	-0.007813	0.640954	
-0.0648143	-0.0272529	0.665015	
-0.125208	0.0156787	0.594569	
0.0954521	0.018975	0.675961	
0.100339	0.12014	0.738531	
0.171794	0.11325	0.628738	
0.0913968	0.0719702	0.595778	
0.0895983	0.22043	0.5	
0.0177914	0.213039	0.5	
0.0462278	0.146831	0.635901	
0.13133	0.218843	0.607259	
-0.493437	-0.0807477	0.845776	
-0.47591	-0.153328	0.90763	
-0.34489	-0.101074	0.850415	
-0.404383	-0.0159907	0.861288	
-0.234034	0.362529	0.5	
-0.191056	0.29295	0.5	
-0.122891	0.330526	0.5	
-0.112546	0.368373	0.611308	
0.257355	-0.0987317	0.776667	
0.360282	-0.0916129	0.861913	
0.294702	-0.208252	0.864399	
0.371228	-0.144256	0.774162	
-0.0324158	-0.223672	0.5	
-0.0497393	-0.170251	0.638216	
-0.137519	-0.208294	0.5	
-0.0945272	-0.266606	0.620808	
0.4284	-0.257824	0.704976	
0.374193	-0.331632	0.665357	
0.309938	-0.217964	0.736716	
0.306527	-0.240421	0.616434	
0.493389	-0.0810399	0.85285	
0.5	0	0.8	
0.490343	-0.0977967	0.758774	
0.364623	-0.0450159	0.747721	
-0.048473	-0.0328568	1	
0.0461078	-0.0584269	1	
-0.0232782	-0.127584	1	
0.0397395	-0.0938942	0.889407	
-0.469721	0.171353	0.838334	
-0.428195	0.258165	0.798245	
-0.436762	0.243391	0.903062	
-0.311262	0.211476	0.883807	
-0.157178	0.100595	0.650339	
-0.213242	-0.007813	0.640954	
-0.224391	0.0726716	0.751498	
-0.264287	0.0818172	0.601453	
0.202324	0.378521	1	
0.146853	0.477948	0.915992	
0.228991	0.444481	0.908099	
0.209258	0.343487	0.903692	
0.0559726	-0.187061	0.5	
0.0654282	-0.0931162	0.5	
-0.00743541	-0.147874	0.5	
0.000996857	-0.0833524	0.602223	
0.257355	-0.0987317	0.776667	
0.294702	-0.208252	0.864399	
0.309938	-0.217964	0.736716	
0.371228	-0.144256	0.774162	
-0.243391	-0.436762	0.903062	
-0.158356	-0.325914	0.851548	
-0.258165	-0.428195	0.798245	
-0.257866	-0.303129	0.891677	
-0.171353	-0.469721	0.838334	
-0.158356	-0.325914	0.851548	
-0.243391	-0.436762	0.903062	
-0.0832182	-0.39248	0.894675	
-0.0143548	-0.331636	0.835577	
0.0132695	-0.394263	0.743185	
-0.011467	-0.243815	0.75519	
0.0672081	-0.306462	0.784462	
0.428195	-0.258165	0.798245	
0.376757	-0.328716	0.753532	
0.380873	-0.323938	0.847739	
0.264677	-0.291732	0.802046	
-0.239357	-0.30005	0.729626	
-0.324368	-0.232384	0.754222	
-0.267995	-0.204807	0.662178	
-0.28318	-0.296642	0.616188	
0.195689	0.0416963	0.86434	
0.195469	0.159954	0.886309	
0.184962	0.0799289	1	
0.277593	0.0916628	0.90095	
0.0153159	0.363557	1	
0.0401436	0.291204	1	
-0.0555676	0.325574	1	
0.0166107	0.245601	0.898079	
-0.350907	-0.296683	0.5	
-0.358854	-0.187212	0.601126	
-0.386831	-0.3168	0.604097	
-0.28318	-0.296642	0.616188	
0.394936	-0.119803	1	
0.409478	-0.032947	1	
0.495293	-0.0684459	0.931403	
0.397985	-0.0056	0.902207	
0.366699	-0.192277	0.5	
0.338823	-0.0848934	0.5	
0.284773	-0.165822	0.5	
0.326691	-0.12898	0.644897	
0.174678	0.468495	0.817109	
0.0814864	0.493315	0.847681	
0.0854243	0.492649	0.751403	
0.0511855	0.375084	0.751646	
0.00183684	-0.222331	1	
0.054972	-0.274643	0.900622	
0.0248177	-0.313374	1	
-0.0781785	-0.271888	0.896904	
0.232997	-0.11062	1	
0.153122	-0.0879879	0.864132	
0.257767	-0.0505632	0.898363	
0.208315	-0.166389	0.905666	
0.266375	0.22043	0.5	
0.233754	0.245143	0.652714	
0.279002	0.143488	0.606802	
0.326633	0.237522	0.603331	
-0.5	0	0.9	
-0.390033	0.0787983	0.902592	
-0.426463	0.0441363	1	
-0.404383	-0.0159907	0.861288	
-0.0183357	0.330286	0.830674	
0.00181727	0.225193	0.776224	
0.0511855	0.375084	0.751646	
0.0922358	0.267303	0.814992	
0.114055	0.374109	1	
0.107558	0.36211	0.8622	
0.0401436	0.291204	1	
0.025786	0.402982	0.903855	
0.153122	-0.0879879	0.864132	
0.208315	-0.166389	0.905666	
0.14072	-0.0839746	1	
0.0968003	-0.179614	0.902873	
-0.386498	-0.317206	0.700322	
-0.386831	-0.3168	0.604097	
-0.429146	-0.25658	0.66876	
-0.28318	-0.296642	0.616188	
-0.0988881	0.278177	0.686189	
-0.128722	0.176827	0.731598	
0.00181727	0.225193	0.776224	
-0.115688	0.262969	0.786818	
0.153328	0.47591	0.59237	
0.168734	0.470668	0.701781	
0.0807477	0.493437	0.654224	
0.159673	0.344869	0.622089	
-0.294862	0.0237806	0.5	
-0.355295	-0.0330772	0.5	
-0.262519	-0.0832944	0.5	
-0.287784	-0.0964438	0.621465	
0.00181727	0.225193	0.776224	
0.157953	0.210834	0.75219	
0.0877841	0.277766	0.703945	
0.0922358	0.267303	0.814992	
0.242026	0.154212	0.5	
0.171794	0.11325	0.628738	
0.242205	0.0836605	0.5	
0.279002	0.143488	0.606802	
-0.191056	0.29295	0.5	
-0.225501	0.288034	0.633154	
-0.270646	0.274141	0.5	
-0.203341	0.186445	0.603634	
0.376757	-0.328716	0.753532	
0.317206	-0.386498	0.700322	
0.264677	-0.291732	0.802046	
0.253502	-0.311953	0.668431	
-0.00106225	0.370203	0.65	
0.000715258	0.25479	0.628643	
-0.0988881	0.278177	0.686189	
-0.112546	0.368373	0.611308	
-0.238488	-0.439458	0.575692	
-0.277785	-0.415735	0.634138	
-0.217356	-0.450285	0.644698	
-0.184118	-0.326089	0.626133	
0.0877841	0.277766	0.703945	
0.0511855	0.375084	0.751646	
0.00181727	0.225193	0.776224	
0.0922358	0.267303	0.814992	
-0.437078	-0.242822	0.847009	
-0.434698	-0.247057	0.749501	
-0.470668	-0.168734	0.798219	
-0.324368	-0.232384	0.754222	
-0.26105	0.203399	1	
-0.257956	0.116321	1	
-0.328307	0.16356	1	
-0.215798	0.142373	0.897172	
0.171794	0.11325	0.628738	
0.100339	0.12014	0.738531	
0.0462278	0.146831	0.635901	
0.0913968	0.0719702	0.595778	
-0.3168	0.386831	0.604097	
-0.295892	0.334394	0.5	
-0.234034	0.362529	0.5	
-0.225501	0.288034	0.633154	
-0.331632	-0.374193	0.665357	
-0.386498	-0.317206	0.700322	
-0.239357	-0.30005	0.729626	
-0.28318	-0.296642	0.616188	
0.114055	0.374109	1	
0.107558	0.36211	0.8622	
0.146853	0.477948	0.915992	
0.209258	0.343487	0.903692	
0.0954521	0.018975	0.675961	
0.0462278	0.146831	0.635901	
0.100339	0.12014	0.738531	
0.0913968	0.0719702	0.595778	
0.276476	0.0535537	1	
0.195689	0.0416963	0.86434	
0.184962	0.0799289	1	
0.277593	0.0916628	0.90095	
0.198678	0.268409	0.834396	
0.195469	0.159954	0.886309	
0.310611	0.178263	0.85673	
0.287646	0.277342	0.89815	
0.210156	-0.0147965	1	
0.195689	0.0416963	0.86434	
0.276476	0.0535537	1	
0.257767	-0.0505632	0.898363	
0.314857	-0.257449	1	
0.313791	-0.154465	1	
0.380207	-0.19708	1	
0.294702	-0.208252	0.864399	
-0.0638367	-0.295761	1	
-0.0328721	-0.370689	1	
-0.0832182	-0.39248	0.894675	
-0.0781785	-0.271888	0.896904	
-0.344127	-0.112227	1	
-0.278713	-0.14304	1	
-0.356684	-0.19351	1	
-0.338	-0.218597	0.893416	
0.3168	0.386831	0.895903	
0.317206	0.386498	0.799678	
0.287646	0.277342	0.89815	
0.209258	0.343487	0.903692	
-0.168043	-0.470916	0.699874	
-0.0977967	-0.490343	0.758774	
-0.0833019	-0.493012	0.655211	
-0.0966341	-0.368565	0.765144	
-0.157178	0.100595	0.650339	
-0.128722	0.176827	0.731598	
-0.224391	0.0726716	0.751498	
-0.125866	0.0341816	0.729574	
-0.273315	0.334955	1	
-0.235698	0.440961	0.931431	
-0.201912	0.369986	1	
-0.265639	0.299346	0.905431	
0.00181727	0.225193	0.776224	
-0.128722	0.176827	0.731598	
-0.0802187	0.199602	0.860073	
-0.115688	0.262969	0.786818	
0.0897768	0.149878	0.5	
0.0895983	0.22043	0.5	
0.0177914	0.213039	0.5	
0.0462278	0.146831	0.635901	
-0.0572576	0.185752	0.5	
-0.0206459	0.274141	0.5	
-0.11205	0.260225	0.5	
-0.136825	0.25987	0.596211	
-0.00743541	-0.147874	0.5	
-0.0840299	-0.136867	0.5	
-0.0324158	-0.223672	0.5	
-0.0497393	-0.170251	0.638216	
0.284773	-0.165822	0.5	
0.212642	-0.171195	0.5	
0.238057	-0.243638	0.5	
0.231926	-0.137602	0.598516	
-0.493437	-0.0807477	0.845776	
-0.495012	-0.0704482	0.928155	
-0.47591	-0.153328	0.90763	
-0.404383	-0.0159907	0.861288	
-0.137519	-0.208294	0.5	
-0.0324158	-0.223672	0.5	
-0.0840299	-0.136867	0.5	
-0.0497393	-0.170251	0.638216	
-0.0183357	0.330286	0.830674	
-0.117277	0.364618	0.76936	
-0.175427	0.309191	0.860321	
-0.0738147	0.390008	0.901946	
-0.122891	0.330526	0.5	
-0.112546	0.368373	0.611308	
-0.191056	0.29295	0.5	
-0.136825	0.25987	0.596211	
0.0954521	0.018975	0.675961	
0.0272687	-0.0505093	0.69136	
0.0991673	-0.046171	0.758635	
0.00311865	0.0446609	0.692024	
0.168734	-0.470668	0.798219	
0.247057	-0.434698	0.749501	
0.174678	-0.468495	0.682891	
0.18031	-0.320943	0.740502	
-0.26105	0.203399	1	
-0.328307	0.16356	1	
-0.311262	0.211476	0.883807	
-0.215798	0.142373	0.897172	
-0.145646	0.149141	0.5	
-0.203341	0.186445	0.603634	
-0.0842182	0.182405	0.629411	
-0.136825	0.25987	0.596211	
-0.0925337	-0.196451	1	
-0.0123059	-0.194682	0.863671	
0.00183684	-0.222331	1	
-0.0781785	-0.271888	0.896904	
-0.318983	0.261743	1	
-0.389036	0.207425	1	
-0.386505	0.317197	0.931175	
-0.311262	0.211476	0.883807	
-0.0698189	-0.495101	0.572379	
0	-0.5	0.6	
-0.0324158	-0.400449	0.5	
0.0409643	-0.389072	0.60666	
0.168734	-0.470668	0.798219	
0.18031	-0.320943	0.740502	
0.174678	-0.468495	0.682891	
0.0978756	-0.400914	0.688925	
0.335565	0.163368	0.703209	
0.292421	0.250833	0.767221	
0.310611	0.178263	0.85673	
0.37512	0.124368	0.792934	
0.0559726	-0.187061	0.5	
0.153817	-0.129728	0.5	
0.100517	-0.109754	0.630856	
0.0957286	-0.225187	0.608184	
0.00183684	-0.222331	1	
-0.0123059	-0.194682	0.863671	
0.054972	-0.274643	0.900622	
-0.0781785	-0.271888	0.896904	
-0.270646	0.274141	0.5	
-0.225501	0.288034	0.633154	
-0.295892	0.334394	0.5	
-0.306859	0.249519	0.591577	
0.218846	0.121291	0.749847	
0.195689	0.0416963	0.86434	
0.192412	0.00177767	0.748671	
0.283277	0.0443669	0.748521	
0	-0.5	0.8	
-0.0977967	-0.490343	0.758774	
-0.0966341	-0.368565	0.765144	
0.0132695	-0.394263	0.743185	
-0.242822	0.437078	0.847009	
-0.175427	0.309191	0.860321	
-0.235698	0.440961	0.931431	
-0.265639	0.299346	0.905431	
0.234372	0.286063	0.5	
0.196796	0.354228	0.5	
0.317233	0.386476	0.590473	
0.266375	0.397206	0.5	
-0.350907	-0.296683	0.5	
-0.286299	-0.264255	0.5	
-0.358854	-0.187212	0.601126	
-0.28318	-0.296642	0.616188	
0.180973	-0.312061	0.5	
0.144361	-0.400449	0.5	
0.213029	-0.381729	0.5	
0.16292	-0.321139	0.620031	
0.228991	-0.444481	0.591901	
0.16292	-0.321139	0.620031	
0.25658	-0.429146	0.66876	
0.253502	-0.311953	0.668431	
-0.258165	-0.428195	0.798245	
-0.171353	-0.469721	0.838334	
-0.194667	-0.460548	0.76567	
-0.158356	-0.325914	0.851548	
-0.184118	-0.326089	0.626133	
-0.239357	-0.30005	0.729626	
-0.267995	-0.204807	0.662178	
-0.28318	-0.296642	0.616188	
-0.00425413	0.131001	1	
-0.0734441	0.0616893	1	
-0.0983601	0.156434	1	
-0.0265366	0.088395	0.883809	
0.100517	-0.109754	0.630856	
0.0991673	-0.046171	0.758635	
0.0954521	0.018975	0.675961	
0.0272687	-0.0505093	0.69136	
-0.201912	0.369986	1	
-0.175427	0.309191	0.860321	
-0.214341	0.273759	1	
-0.265639	0.299346	0.905431	
-0.0283081	0.0695318	0.5	
0.00344957	0.138123	0.5	
-0.0785029	0.119253	0.5	
-0.0470393	0.078068	0.615792	
0.247057	-0.434698	0.749501	
0.18031	-0.320943	0.740502	
0.317206	-0.386498	0.700322	
0.253502	-0.311953	0.668431	
0.00183684	-0.222331	1	
0.0248177	-0.313374	1	
-0.0638367	-0.295761	1	
-0.0781785	-0.271888	0.896904	
-0.157178	0.100595	0.650339	
-0.264287	0.0818172	0.601453	
-0.298046	0.172945	0.653946	
-0.203341	0.186445	0.603634	
-0.401548	-0.0423374	1	
-0.426463	0.0441363	1	
-0.390033	0.0787983	0.902592	
-0.404383	-0.0159907	0.861288	
-0.209296	-0.0687964	0.747015	
-0.213242	-0.007813	0.640954	
-0.224391	0.0726716	0.751498	
-0.125866	0.0341816	0.729574	
0.326691	-0.12898	0.644897	
0.306527	-0.240421	0.616434	
0.203135	-0.21521	0.664501	
0.231926	-0.137602	0.598516	
0.0362446	-0.13014	0.749535	
0.153146	-0.133743	0.733731	
0.100517	-0.109754	0.630856	
0.0991673	-0.046171	0.758635	
-0.460548	0.194667	0.76567	
-0.469721	0.171353	0.838334	
-0.490343	0.0977967	0.758774	
-0.342082	0.155488	0.769444	
-0.470916	0.168043	0.699874	
-0.4284	0.257824	0.704976	
-0.460548	0.194667	0.76567	
-0.342082	0.155488	0.769444	
0.0786602	-0.0230096	0.587367	
0.0272687	-0.0505093	0.69136	
0.0954521	0.018975	0.675961	
0.00311865	0.0446609	0.692024	
-0.0810399	-0.493389	0.85285	
-0.0966341	-0.368565	0.765144	
-0.171353	-0.469721	0.838334	
-0.0832182	-0.39248	0.894675	
-0.390033	0.0787983	0.902592	
-0.404383	-0.0159907	0.861288	
-0.322193	0.044739	0.823506	
-0.277483	0.0617124	0.914802	
0.314271	-0.0501881	1	
0.394936	-0.119803	1	
0.313791	-0.154465	1	
0.360282	-0.0916129	0.861913	
0.0610361	-0.307238	0.685164	
-0.011467	-0.243815	0.75519	
0.0132695	-0.394263	0.743185	
0.0672081	-0.306462	0.784462	
0.279002	0.143488	0.606802	
0.396694	0.0647464	0.588567	
0.332994	0.0375409	0.661618	
0.243096	0.0493866	0.595389	
0.228991	-0.444481	0.591901	
0.174678	-0.468495	0.682891	
0.25658	-0.429146	0.66876	
0.16292	-0.321139	0.620031	
0.00183684	-0.222331	1	
0.054972	-0.274643	0.900622	
-0.0123059	-0.194682	0.863671	
0.0968003	-0.179614	0.902873	
-0.168734	0.470668	0.798219	
-0.117277	0.364618	0.76936	
-0.0807477	0.493437	0.845776	
-0.0738147	0.390008	0.901946	
-0.168734	0.470668	0.798219	
-0.175427	0.309191	0.860321	
-0.242822	0.437078	0.847009	
-0.117277	0.364618	0.76936	
0.428195	0.258165	0.701755	
0.460548	0.194667	0.73433	
0.4284	0.257824	0.795024	
0.335565	0.163368	0.703209	
0.374193	-0.331632	0.665357	
0.309938	-0.217964	0.736716	
0.306527	-0.240421	0.616434	
0.253502	-0.311953	0.668431	
-0.0977967	-0.490343	0.758774	
0	-0.5	0.7	
-0.0833019	-0.493012	0.655211	
0.0132695	-0.394263	0.743185	
-0.401548	-0.0423374	1	
-0.5	0	0.9	
-0.426463	0.0441363	1	
-0.404383	-0.0159907	0.861288	
0.314271	-0.0501881	1	
0.394936	-0.119803	1	
0.360282	-0.0916129	0.861913	
0.397985	-0.0056	0.902207	
-0.0925337	-0.196451	1	
-0.136098	-0.178684	0.882811	
-0.0123059	-0.194682	0.863671	
-0.0781785	-0.271888	0.896904	
0.5	0	0.6	
0.439467	0.0432837	0.5	
0.428196	-0.0462647	0.5	
0.39042	-0.0433488	0.606813	
0.158056	0.171884	1	
0.195469	0.159954	0.886309	
0.184962	0.0799289	1	
0.105897	0.0806526	0.900017	
-0.0810399	-0.493389	0.85285	
-0.0832182	-0.39248	0.894675	
0	-0.5	0.9	
0.032794	-0.401349	0.896695	
0.154637	-0.229675	0.832631	
0.294702	-0.208252	0.864399	
0.21926	-0.328264	0.896532	
0.264677	-0.291732	0.802046	
-0.174678	0.468495	0.682891	
-0.25658	0.429146	0.66876	
-0.228991	0.444481	0.591901	
-0.112546	0.368373	0.611308	
0.0362446	-0.13014	0.749535	
0.0991673	-0.046171	0.758635	
0.100517	-0.109754	0.630856	
0.0272687	-0.0505093	0.69136	
-0.0648143	-0.0272529	0.665015	
-0.0470393	0.078068	0.615792	
-0.125866	0.0341816	0.729574	
0.00311865	0.0446609	0.692024	
0.184962	0.0799289	1	
0.276476	0.0535537	1	
0.210156	-0.0147965	1	
0.195689	0.0416963	0.86434	
0.164071	0.275222	0.5	
0.234372	0.286063	0.5	
0.196796	0.354228	0.5	
0.159673	0.344869	0.622089	
-0.0988881	0.278177	0.686189	
-0.117277	0.364618	0.76936	
-0.237468	0.305606	0.754243	
-0.115688	0.262969	0.786818	
0.247057	-0.434698	0.749501	
0.316847	-0.386792	0.801384	
0.317206	-0.386498	0.700322	
0.264677	-0.291732	0.802046	
0.469721	-0.171353	0.838334	
0.360282	-0.0916129	0.861913	
0.493389	-0.0810399	0.85285	
0.371228	-0.144256	0.774162	
-0.380873	0.323938	0.847739	
-0.428195	0.258165	0.798245	
-0.376757	0.328716	0.753532	
-0.318622	0.246893	0.724741	
0.399086	0.112543	0.5	
0.315521	0.155675	0.5	
0.324205	0.0779192	0.5	
0.396694	0.0647464	0.588567	
-0.374813	0.199394	0.5	
-0.335163	0.274889	0.5	
-0.439458	0.238488	0.575692	
-0.306859	0.249519	0.591577	
-0.386792	-0.316847	0.801384	
-0.386476	-0.317233	0.909527	
-0.257866	-0.303129	0.891677	
-0.338	-0.218597	0.893416	
0.242205	0.0836605	0.5	
0.279002	0.143488	0.606802	
0.171794	0.11325	0.628738	
0.243096	0.0493866	0.595389	
0.495293	-0.0684459	0.931403	
0.493389	-0.0810399	0.85285	
0.360282	-0.0916129	0.861913	
0.397985	-0.0056	0.902207	
-0.175427	0.309191	0.860321	
-0.117277	0.364618	0.76936	
-0.0183357	0.330286	0.830674	
-0.115688	0.262969	0.786818	
-0.470668	-0.168734	0.798219	
-0.47591	-0.153328	0.90763	
-0.437078	-0.242822	0.847009	
-0.34489	-0.101074	0.850415	
-0.144862	-0.478555	0.921652	
-0.171353	-0.469721	0.838334	
-0.243391	-0.436762	0.903062	
-0.0832182	-0.39248	0.894675	
-0.184118	-0.326089	0.626133	
-0.188154	-0.225182	0.596871	
-0.174131	-0.296683	0.5	
-0.28318	-0.296642	0.616188	
-0.352604	-0.116449	0.71733	
-0.358854	-0.187212	0.601126	
-0.468495	-0.174678	0.682891	
-0.393057	-0.0716576	0.611801	
-0.262519	-0.333294	0.5	
-0.184118	-0.326089	0.626133	
-0.174131	-0.296683	0.5	
-0.28318	-0.296642	0.616188	
0.0747819	-0.266651	0.5	
0.0559726	-0.187061	0.5	
1.21767e-05	-0.288281	0.5	
-0.000247605	-0.297629	0.606346	
0.112799	-0.33356	1	
0.054972	-0.274643	0.900622	
0.11687	-0.357533	0.85392	
0.032794	-0.401349	0.896695	
0.0461078	-0.0584269	1	
0.14072	-0.0839746	1	
0.0712814	-0.153152	1	
0.0397395	-0.0938942	0.889407	
0.122026	0.332598	0.5	
0.164071	0.275222	0.5	
0.159673	0.344869	0.622089	
0.13133	0.218843	0.607259	
-0.145646	0.399141	0.5	
-0.228991	0.444481	0.591901	
-0.234034	0.362529	0.5	
-0.112546	0.368373	0.611308	
-0.171353	-0.469721	0.838334	
-0.0966341	-0.368565	0.765144	
-0.158356	-0.325914	0.851548	
-0.0832182	-0.39248	0.894675	
0.0807477	0.493437	0.654224	
0.168734	0.470668	0.701781	
0.0854243	0.492649	0.751403	
0.0511855	0.375084	0.751646	
0.316847	0.386792	0.698616	
0.376757	0.328716	0.746468	
0.317206	0.386498	0.799678	
0.292421	0.250833	0.767221	
0.314271	-0.0501881	1	
0.409478	-0.032947	1	
0.394936	-0.119803	1	
0.397985	-0.0056	0.902207	
0.324956	-0.262938	0.5	
0.238057	-0.243638	0.5	
0.267645	-0.326424	0.5	
0.306527	-0.240421	0.616434	
-0.234034	0.362529	0.5	
-0.228991	0.444481	0.591901	
-0.3168	0.386831	0.604097	
-0.225501	0.288034	0.633154	
0.0153159	0.363557	1	
0.114055	0.374109	1	
0.0401436	0.291204	1	
0.025786	0.402982	0.903855	
-0.0648143	-0.0272529	0.665015	
-0.213242	-0.007813	0.640954	
-0.125866	0.0341816	0.729574	
-0.125208	0.0156787	0.594569	
-0.0324158	-0.400449	0.5	
-0.0690274	-0.312061	0.5	
-0.0585559	-0.361231	0.657485	
-0.000247605	-0.297629	0.606346	
0.242822	0.437078	0.652991	
0.235698	0.440961	0.568569	
0.317233	0.386476	0.590473	
0.159673	0.344869	0.622089	
0.247057	-0.434698	0.749501	
0.25658	-0.429146	0.66876	
0.174678	-0.468495	0.682891	
0.18031	-0.320943	0.740502	
0.5	0	0.6	
0.439467	0.0432837	0.5	
0.39042	-0.0433488	0.606813	
0.396694	0.0647464	0.588567	
-0.426463	0.0441363	1	
-0.5	0	0.9	
-0.495293	0.0684459	0.931403	
-0.390033	0.0787983	0.902592	
-0.34489	-0.101074	0.850415	
-0.338	-0.218597	0.893416	
-0.246255	-0.212424	0.8311	
-0.231631	-0.136254	0.90444	
-0.436762	0.243391	0.903062	
-0.386505	0.317197	0.931175	
-0.389036	0.207425	1	
-0.311262	0.211476	0.883807	
-0.267995	-0.204807	0.662178	
-0.188154	-0.225182	0.596871	
-0.184118	-0.326089	0.626133	
-0.28318	-0.296642	0.616188	
0.232997	-0.11062	1	
0.14072	-0.0839746	1	
0.210156	-0.0147965	1	
0.257767	-0.0505632	0.898363	
0.378621	0.110033	0.901946	
0.277593	0.0916628	0.90095	
0.333846	0.0367661	0.834867	
0.397985	-0.0056	0.902207	
0.0877841	0.277766	0.703945	
0.159673	0.344869	0.622089	
0.233754	0.245143	0.652714	
0.13133	0.218843	0.607259	
-0.0648143	-0.0272529	0.665015	
-0.125866	0.0341816	0.729574	
-0.0470393	0.078068	0.615792	
-0.125208	0.0156787	0.594569	
-0.221565	0.0908555	0.5	
-0.264287	0.0818172	0.601453	
-0.209059	-0.00395244	0.5	
-0.125208	0.0156787	0.594569	
0.164797	-0.177585	1	
0.14072	-0.0839746	1	
0.208315	-0.166389	0.905666	
0.0968003	-0.179614	0.902873	
-0.0183357	0.330286	0.830674	
0.107558	0.36211	0.8622	
0.0166107	0.245601	0.898079	
0.0922358	0.267303	0.814992	
0.234372	0.286063	0.5	
0.233754	0.245143	0.652714	
0.266375	0.22043	0.5	
0.326633	0.237522	0.603331	
-0.142648	-0.00714059	1	
-0.211369	-0.0761151	1	
-0.237047	0.0201392	1	
-0.227279	-0.033891	0.874484	
0.174678	0.468495	0.817109	
0.0854243	0.492649	0.751403	
0.162962	0.351618	0.758031	
0.0511855	0.375084	0.751646	
-0.0690274	-0.312061	0.5	
-0.0945272	-0.266606	0.620808	
-0.0585559	-0.361231	0.657485	
-0.000247605	-0.297629	0.606346	
0.0651412	0.200096	1	
-0.00425413	0.131001	1	
-0.0295403	0.225144	1	
0.0166107	0.245601	0.898079	
-0.124427	-0.265373	0.724238	
-0.0585559	-0.361231	0.657485	
-0.184118	-0.326089	0.626133	
-0.0945272	-0.266606	0.620808	
-0.261345	-0.230036	1	
-0.338	-0.218597	0.893416	
-0.278713	-0.14304	1	
-0.231631	-0.136254	0.90444	
0.0897768	0.149878	0.5	
0.0895983	0.22043	0.5	
0.0462278	0.146831	0.635901	
0.13133	0.218843	0.607259	
0.0462278	0.146831	0.635901	
0.000715258	0.25479	0.628643	
0.0877841	0.277766	0.703945	
0.13133	0.218843	0.607259	
0.187412	-0.0186436	0.5	
0.217579	-0.0397687	0.636314	
0.278817	-0.00472784	0.5	
0.243096	0.0493866	0.595389	
-0.470916	0.168043	0.699874	
-0.476114	0.152694	0.59754	
-0.450285	0.217356	0.644698	
-0.373426	0.0982193	0.605831	
0.0248177	-0.313374	1	
0.054972	-0.274643	0.900622	
0.112799	-0.33356	1	
0.032794	-0.401349	0.896695	
0.450285	0.217356	0.855302	
0.470916	0.168043	0.800126	
0.378621	0.110033	0.901946	
0.37512	0.124368	0.792934	
-0.0422582	-0.437473	1	
-0.0684459	-0.495293	0.931403	
-0.0832182	-0.39248	0.894675	
0.032794	-0.401349	0.896695	
0.125573	-0.41396	1	
0.153328	-0.47591	0.90763	
0.0704482	-0.495012	0.928155	
0.032794	-0.401349	0.896695	
-0.0470393	0.078068	0.615792	
-0.125866	0.0341816	0.729574	
-0.157178	0.100595	0.650339	
-0.125208	0.0156787	0.594569	
0.146853	0.477948	0.915992	
0.107558	0.36211	0.8622	
0.114055	0.374109	1	
0.025786	0.402982	0.903855	
0.0877841	0.277766	0.703945	
0.13133	0.218843	0.607259	
0.233754	0.245143	0.652714	
0.157953	0.210834	0.75219	
0.242822	-0.437078	0.847009	
0.316847	-0.386792	0.801384	
0.247057	-0.434698	0.749501	
0.264677	-0.291732	0.802046	
0.314271	-0.0501881	1	
0.360282	-0.0916129	0.861913	
0.257767	-0.0505632	0.898363	
0.397985	-0.0056	0.902207	
0.153817	-0.129728	0.5	
0.0654282	-0.0931162	0.5	
0.0559726	-0.187061	0.5	
0.100517	-0.109754	0.630856	
-0.0572576	0.185752	0.5	
-0.145646	0.149141	0.5	
-0.0842182	0.182405	0.629411	
-0.136825	0.25987	0.596211	
0.0462278	0.146831	0.635901	
0.13133	0.218843	0.607259	
0.171794	0.11325	0.628738	
0.0913968	0.0719702	0.595778	
-0.34489	-0.101074	0.850415	
-0.322193	0.044739	0.823506	
-0.39411	-0.0165863	0.757409	
-0.404383	-0.0159907	0.861288	
-0.0422582	-0.437473	1	
-0.0832182	-0.39248	0.894675	
-0.0328721	-0.370689	1	
0.032794	-0.401349	0.896695	
0.176571	0.0516571	0.5	
0.243096	0.0493866	0.595389	
0.171794	0.11325	0.628738	
0.0913968	0.0719702	0.595778	
0.195689	0.0416963	0.86434	
0.257767	-0.0505632	0.898363	
0.333846	0.0367661	0.834867	
0.277593	0.0916628	0.90095	
0.495293	-0.0684459	0.931403	
0.493389	-0.0810399	0.85285	
0.478555	-0.144862	0.921652	
0.360282	-0.0916129	0.861913	
-0.0734441	0.0616893	1	
-0.0265366	0.088395	0.883809	
0.0209546	0.0362755	1	
-0.0877381	0.00876541	0.911432	
-0.3168	0.386831	0.604097	
-0.228991	0.444481	0.591901	
-0.25658	0.429146	0.66876	
-0.225501	0.288034	0.633154	
-0.374193	0.331632	0.665357	
-0.3168	0.386831	0.604097	
-0.317206	0.386498	0.700322	
-0.225501	0.288034	0.633154	
0.107558	0.36211	0.8622	
0.0511855	0.375084	0.751646	
-0.0183357	0.330286	0.830674	
0.025786	0.402982	0.903855	
-0.3168	0.386831	0.604097	
-0.225501	0.288034	0.633154	
-0.374193	0.331632	0.665357	
-0.306859	0.249519	0.591577	
0	0.5	0.6	
0	0.5	0.7	
-0.0814864	0.493315	0.652319	
-0.00106225	0.370203	0.65	
-0.209059	-0.00395244	0.5	
-0.264287	0.0818172	0.601453	
-0.213242	-0.007813	0.640954	
-0.125208	0.0156787	0.594569	
-0.247057	0.434698	0.749501	
-0.168734	0.470668	0.798219	
-0.242822	0.437078	0.847009	
-0.117277	0.364618	0.76936	
-0.0470393	0.078068	0.615792	
0.0462278	0.146831	0.635901	
0.00311865	0.0446609	0.692024	
0.0913968	0.0719702	0.595778	
0.313791	-0.154465	1	
0.294702	-0.208252	0.864399	
0.245477	-0.191651	1	
0.208315	-0.166389	0.905666	
-0.124427	-0.265373	0.724238	
-0.0945272	-0.266606	0.620808	
-0.184118	-0.326089	0.626133	
-0.188154	-0.225182	0.596871	
-0.425264	-0.131997	0.5	
-0.477948	-0.146853	0.584008	
-0.358854	-0.187212	0.601126	
-0.393057	-0.0716576	0.611801	
0.0807477	0.493437	0.654224	
0	0.5	0.7	
0	0.5	0.6	
-0.00106225	0.370203	0.65	
0.3168	0.386831	0.895903	
0.25658	0.429146	0.83124	
0.317206	0.386498	0.799678	
0.209258	0.343487	0.903692	
-0.0422582	-0.437473	1	
0	-0.5	0.9	
-0.0684459	-0.495293	0.931403	
0.032794	-0.401349	0.896695	
-0.386498	-0.317206	0.700322	
-0.328716	-0.376757	0.753532	
-0.239357	-0.30005	0.729626	
-0.324368	-0.232384	0.754222	
-0.262519	-0.0832944	0.5	
-0.239764	-0.151909	0.5	
-0.170863	-0.122482	0.63474	
-0.287784	-0.0964438	0.621465	
-0.224577	0.189906	0.793765	
-0.237468	0.305606	0.754243	
-0.175427	0.309191	0.860321	
-0.115688	0.262969	0.786818	
0.337634	0.115561	1	
0.247868	0.146306	1	
0.300884	0.198715	1	
0.277593	0.0916628	0.90095	
0.302987	0.308818	0.5	
0.386505	0.317197	0.568825	
0.317233	0.386476	0.590473	
0.326633	0.237522	0.603331	
0.153817	0.120272	0.5	
0.242026	0.154212	0.5	
0.177987	0.183818	0.5	
0.171794	0.11325	0.628738	
0.198678	0.268409	0.834396	
0.162962	0.351618	0.758031	
0.107558	0.36211	0.8622	
0.209258	0.343487	0.903692	
-0.302044	-0.0506462	1	
-0.227279	-0.033891	0.874484	
-0.211369	-0.0761151	1	
-0.231631	-0.136254	0.90444	
0.317233	0.386476	0.590473	
0.302987	0.308818	0.5	
0.234372	0.286063	0.5	
0.266375	0.397206	0.5	
-0.117671	-0.10197	1	
-0.136098	-0.178684	0.882811	
-0.186407	-0.169451	1	
-0.231631	-0.136254	0.90444	
-0.0505573	-0.00469477	0.5	
-0.0470393	0.078068	0.615792	
-0.0283081	0.0695318	0.5	
-0.125208	0.0156787	0.594569	
0.153328	0.47591	0.59237	
0.0895983	0.397206	0.5	
0.177987	0.433818	0.5	
0.159673	0.344869	0.622089	
0.310611	0.178263	0.85673	
0.292421	0.250833	0.767221	
0.198678	0.268409	0.834396	
0.287646	0.277342	0.89815	
-0.0183357	0.330286	0.830674	
0.00181727	0.225193	0.776224	
-0.0802187	0.199602	0.860073	
-0.115688	0.262969	0.786818	
-0.316581	0.126747	0.5	
-0.298046	0.172945	0.653946	
-0.373426	0.0982193	0.605831	
-0.264287	0.0818172	0.601453	
-0.0807477	0.493437	0.845776	
0	0.5	0.9	
-0.0738147	0.390008	0.901946	
0.025786	0.402982	0.903855	
0.114055	0.374109	1	
0.0420691	0.427134	1	
0.0728232	0.494668	0.926459	
0.025786	0.402982	0.903855	
0.414183	0.131147	1	
0.439458	0.238488	0.924308	
0.476114	0.152694	0.90246	
0.378621	0.110033	0.901946	
-0.128722	0.176827	0.731598	
-0.0842182	0.182405	0.629411	
-0.157178	0.100595	0.650339	
-0.203341	0.186445	0.603634	
0.18031	-0.320943	0.740502	
0.11687	-0.357533	0.85392	
0.154637	-0.229675	0.832631	
0.0672081	-0.306462	0.784462	
0.380873	-0.323938	0.847739	
0.386505	-0.317197	0.931175	
0.436762	-0.243391	0.903062	
0.294702	-0.208252	0.864399	
-0.401548	-0.0423374	1	
-0.426463	0.0441363	1	
-0.337562	0.0547633	1	
-0.390033	0.0787983	0.902592	
0.436762	-0.243391	0.903062	
0.428195	-0.258165	0.798245	
0.380873	-0.323938	0.847739	
0.294702	-0.208252	0.864399	
-0.493315	-0.0814864	0.652319	
-0.5	0	0.6	
-0.5	0	0.7	
-0.393057	-0.0716576	0.611801	
-0.0802187	0.199602	0.860073	
0.00181727	0.225193	0.776224	
-0.0183357	0.330286	0.830674	
0.0166107	0.245601	0.898079	
0.184962	0.0799289	1	
0.195469	0.159954	0.886309	
0.247868	0.146306	1	
0.277593	0.0916628	0.90095	
0.0954521	0.018975	0.675961	
0.00311865	0.0446609	0.692024	
0.0462278	0.146831	0.635901	
0.0913968	0.0719702	0.595778	
0.495101	-0.0698189	0.572379	
0.415496	-0.123332	0.5	
0.476114	-0.152694	0.59754	
0.39042	-0.0433488	0.606813	
0.346509	0.0237889	1	
0.314271	-0.0501881	1	
0.276476	0.0535537	1	
0.257767	-0.0505632	0.898363	
0.0288165	-0.00472784	0.5	
0.0654282	0.0836605	0.5	
-0.0283081	0.0695318	0.5	
0.0913968	0.0719702	0.595778	
-0.234034	0.362529	0.5	
-0.295892	0.334394	0.5	
-0.270646	0.274141	0.5	
-0.225501	0.288034	0.633154	
0.144361	-0.223672	0.5	
0.112358	-0.334816	0.5	
0.180973	-0.312061	0.5	
0.16292	-0.321139	0.620031	
0.333846	0.0367661	0.834867	
0.257767	-0.0505632	0.898363	
0.360282	-0.0916129	0.861913	
0.397985	-0.0056	0.902207	
-0.470668	-0.168734	0.798219	
-0.493437	-0.0807477	0.845776	
-0.47591	-0.153328	0.90763	
-0.34489	-0.101074	0.850415	
0.324956	-0.262938	0.5	
0.388274	-0.315029	0.579193	
0.439458	-0.238488	0.575692	
0.306527	-0.240421	0.616434	
0.242822	0.437078	0.652991	
0.168734	0.470668	0.701781	
0.159673	0.344869	0.622089	
0.162962	0.351618	0.758031	
-0.273315	0.334955	1	
-0.317233	0.386476	0.909527	
-0.235698	0.440961	0.931431	
-0.265639	0.299346	0.905431	
-0.263582	-0.319413	1	
-0.317197	-0.386505	0.931175	
-0.331361	-0.272953	1	
-0.257866	-0.303129	0.891677	
-0.331361	-0.272953	1	
-0.317197	-0.386505	0.931175	
-0.386476	-0.317233	0.909527	
-0.257866	-0.303129	0.891677	
-0.493315	-0.0814864	0.652319	
-0.352604	-0.116449	0.71733	
-0.468495	-0.174678	0.682891	
-0.393057	-0.0716576	0.611801	
-0.213242	-0.007813	0.640954	
-0.264287	0.0818172	0.601453	
-0.157178	0.100595	0.650339	
-0.125208	0.0156787	0.594569	
-0.331632	-0.374193	0.665357	
-0.386498	-0.317206	0.700322	
-0.328716	-0.376757	0.753532	
-0.239357	-0.30005	0.729626	
-0.224391	0.0726716	0.751498	
-0.213242	-0.007813	0.640954	
-0.157178	0.100595	0.650339	
-0.125866	0.0341816	0.729574	
0.242205	-0.0931162	0.5	
0.130037	-0.0606882	0.5	
0.153817	-0.129728	0.5	
0.231926	-0.137602	0.598516	
-0.490343	0.0977967	0.758774	
-0.460548	0.194667	0.76567	
-0.342082	0.155488	0.769444	
-0.391681	0.0802879	0.710436	
-0.0585559	-0.361231	0.657485	
0.0409643	-0.389072	0.60666	
0.0610361	-0.307238	0.685164	
0.0132695	-0.394263	0.743185	
0.112799	-0.33356	1	
0.125573	-0.41396	1	
0.0404524	-0.41072	1	
0.032794	-0.401349	0.896695	
-0.267995	-0.204807	0.662178	
-0.188154	-0.225182	0.596871	
-0.170863	-0.122482	0.63474	
-0.198738	-0.193326	0.739814	
0	0.5	0.7	
0.0807477	0.493437	0.654224	
0.0854243	0.492649	0.751403	
0.0511855	0.375084	0.751646	
0	0.5	0.8	
0.0854243	0.492649	0.751403	
0.0814864	0.493315	0.847681	
0.0511855	0.375084	0.751646	
0.493012	-0.0833019	0.655211	
0.490343	-0.0977967	0.758774	
0.5	0	0.7	
0.364623	-0.0450159	0.747721	
-0.171353	-0.469721	0.838334	
-0.258165	-0.428195	0.798245	
-0.243391	-0.436762	0.903062	
-0.158356	-0.325914	0.851548	
-0.209296	-0.0687964	0.747015	
-0.213242	-0.007813	0.640954	
-0.170863	-0.122482	0.63474	
-0.287784	-0.0964438	0.621465	
0.187412	-0.0186436	0.5	
0.242205	-0.0931162	0.5	
0.278817	-0.00472784	0.5	
0.217579	-0.0397687	0.636314	
0.247057	-0.434698	0.749501	
0.25658	-0.429146	0.66876	
0.18031	-0.320943	0.740502	
0.253502	-0.311953	0.668431	
-0.352604	-0.116449	0.71733	
-0.39411	-0.0165863	0.757409	
-0.333304	0.00409397	0.661614	
-0.393057	-0.0716576	0.611801	
0.235698	0.440961	0.568569	
0.177987	0.433818	0.5	
0.196796	0.354228	0.5	
0.159673	0.344869	0.622089	
-0.270646	0.274141	0.5	
-0.203341	0.186445	0.603634	
-0.225501	0.288034	0.633154	
-0.306859	0.249519	0.591577	
0.268393	-0.334301	1	
0.201164	-0.273578	1	
0.314857	-0.257449	1	
0.21926	-0.328264	0.896532	
-0.468495	-0.174678	0.682891	
-0.358854	-0.187212	0.601126	
-0.477948	-0.146853	0.584008	
-0.393057	-0.0716576	0.611801	
0.376757	0.328716	0.746468	
0.428195	0.258165	0.701755	
0.4284	0.257824	0.795024	
0.292421	0.250833	0.767221	
-0.191056	0.29295	0.5	
-0.203341	0.186445	0.603634	
-0.169426	0.21818	0.5	
-0.136825	0.25987	0.596211	
0.376757	-0.328716	0.753532	
0.4284	-0.257824	0.704976	
0.374193	-0.331632	0.665357	
0.309938	-0.217964	0.736716	
0.0409643	-0.389072	0.60666	
0.0132695	-0.394263	0.743185	
0	-0.5	0.7	
0.0978756	-0.400914	0.688925	
-0.145646	0.149141	0.5	
-0.0785029	0.119253	0.5	
-0.0572576	0.185752	0.5	
-0.0842182	0.182405	0.629411	
0.376757	-0.328716	0.753532	
0.374193	-0.331632	0.665357	
0.317206	-0.386498	0.700322	
0.253502	-0.311953	0.668431	
-0.158356	-0.325914	0.851548	
-0.0966341	-0.368565	0.765144	
-0.0143548	-0.331636	0.835577	
-0.0832182	-0.39248	0.894675	
-0.261345	-0.230036	1	
-0.257866	-0.303129	0.891677	
-0.331361	-0.272953	1	
-0.338	-0.218597	0.893416	
-0.386476	-0.317233	0.909527	
-0.331361	-0.272953	1	
-0.257866	-0.303129	0.891677	
-0.338	-0.218597	0.893416	
-0.225501	0.288034	0.633154	
-0.112546	0.368373	0.611308	
-0.0988881	0.278177	0.686189	
-0.136825	0.25987	0.596211	
0.122026	0.332598	0.5	
0.196796	0.354228	0.5	
0.177987	0.433818	0.5	
0.159673	0.344869	0.622089	
-0.263582	-0.319413	1	
-0.203173	-0.373024	1	
-0.317197	-0.386505	0.931175	
-0.257866	-0.303129	0.891677	
-0.207198	-0.382494	0.5	
-0.128733	-0.391758	0.5	
-0.174131	-0.296683	0.5	
-0.184118	-0.326089	0.626133	
-0.388274	0.315029	0.579193	
-0.439458	0.238488	0.575692	
-0.335163	0.274889	0.5	
-0.306859	0.249519	0.591577	
-0.294862	0.0237806	0.5	
-0.213242	-0.007813	0.640954	
-0.209059	-0.00395244	0.5	
-0.264287	0.0818172	0.601453	
-0.174131	-0.296683	0.5	
-0.262519	-0.333294	0.5	
-0.207198	-0.382494	0.5	
-0.184118	-0.326089	0.626133	
-0.400468	0.0439116	0.5	
-0.42782	-0.0498056	0.5	
-0.355295	-0.0330772	0.5	
-0.393057	-0.0716576	0.611801	
0.0728232	0.494668	0.926459	
0.146853	0.477948	0.915992	
0.114055	0.374109	1	
0.025786	0.402982	0.903855	
0.245477	-0.191651	1	
0.313791	-0.154465	1	
0.314857	-0.257449	1	
0.294702	-0.208252	0.864399	
0.324956	-0.262938	0.5	
0.439458	-0.238488	0.575692	
0.366699	-0.192277	0.5	
0.306527	-0.240421	0.616434	
-0.145646	0.399141	0.5	
-0.234034	0.362529	0.5	
-0.122891	0.330526	0.5	
-0.112546	0.368373	0.611308	
-0.168688	-0.281701	1	
-0.0638367	-0.295761	1	
-0.114467	-0.386332	1	
-0.0781785	-0.271888	0.896904	
0.146853	0.477948	0.915992	
0.107558	0.36211	0.8622	
0.228991	0.444481	0.908099	
0.209258	0.343487	0.903692	
0.450285	0.217356	0.855302	
0.4284	0.257824	0.795024	
0.470916	0.168043	0.800126	
0.37512	0.124368	0.792934	
0.144361	-0.400449	0.5	
0.0559726	-0.437061	0.5	
0.146853	-0.477948	0.584008	
0.0409643	-0.389072	0.60666	
0.174678	0.468495	0.817109	
0.228991	0.444481	0.908099	
0.107558	0.36211	0.8622	
0.209258	0.343487	0.903692	
0.0903521	0.10545	1	
0.158056	0.171884	1	
0.184962	0.0799289	1	
0.105897	0.0806526	0.900017	
-0.286299	-0.264255	0.5	
-0.262519	-0.333294	0.5	
-0.174131	-0.296683	0.5	
-0.28318	-0.296642	0.616188	
0.490343	-0.0977967	0.758774	
0.469721	-0.171353	0.838334	
0.493389	-0.0810399	0.85285	
0.371228	-0.144256	0.774162	
-0.237047	0.0201392	1	
-0.227279	-0.033891	0.874484	
-0.302044	-0.0506462	1	
-0.277483	0.0617124	0.914802	
-0.243391	-0.436762	0.903062	
-0.317197	-0.386505	0.931175	
-0.203173	-0.373024	1	
-0.257866	-0.303129	0.891677	
-0.0638367	-0.295761	1	
-0.0832182	-0.39248	0.894675	
-0.114467	-0.386332	1	
-0.0781785	-0.271888	0.896904	
-0.191056	0.29295	0.5	
-0.270646	0.274141	0.5	
-0.169426	0.21818	0.5	
-0.203341	0.186445	0.603634	
-0.335163	0.274889	0.5	
-0.295892	0.334394	0.5	
-0.388274	0.315029	0.579193	
-0.306859	0.249519	0.591577	
-0.25658	0.429146	0.66876	
-0.317206	0.386498	0.700322	
-0.3168	0.386831	0.604097	
-0.225501	0.288034	0.633154	
0.168734	0.470668	0.701781	
0.162962	0.351618	0.758031	
0.0854243	0.492649	0.751403	
0.0511855	0.375084	0.751646	
0.122026	0.332598	0.5	
0.0895983	0.22043	0.5	
0.164071	0.275222	0.5	
0.13133	0.218843	0.607259	
-0.492649	-0.0854243	0.748597	
-0.468495	-0.174678	0.682891	
-0.493315	-0.0814864	0.652319	
-0.352604	-0.116449	0.71733	
-0.168688	-0.281701	1	
-0.136098	-0.178684	0.882811	
-0.0925337	-0.196451	1	
-0.0781785	-0.271888	0.896904	
0.388274	-0.315029	0.579193	
0.415735	-0.277785	0.634138	
0.439458	-0.238488	0.575692	
0.306527	-0.240421	0.616434	
0.428196	-0.0462647	0.5	
0.415496	-0.123332	0.5	
0.495101	-0.0698189	0.572379	
0.39042	-0.0433488	0.606813	
-0.468495	-0.174678	0.682891	
-0.470668	-0.168734	0.798219	
-0.434698	-0.247057	0.749501	
-0.352604	-0.116449	0.71733	
0.428195	-0.258165	0.798245	
0.4284	-0.257824	0.704976	
0.309938	-0.217964	0.736716	
0.371228	-0.144256	0.774162	
0.18031	-0.320943	0.740502	
0.154637	-0.229675	0.832631	
0.0917349	-0.220895	0.740016	
0.0672081	-0.306462	0.784462	
0.470916	-0.168043	0.699874	
0.4284	-0.257824	0.704976	
0.460548	-0.194667	0.76567	
0.371228	-0.144256	0.774162	
-0.0143548	-0.331636	0.835577	
0.054972	-0.274643	0.900622	
-0.0123059	-0.194682	0.863671	
-0.0781785	-0.271888	0.896904	
-0.428195	0.258165	0.798245	
-0.342082	0.155488	0.769444	
-0.4284	0.257824	0.704976	
-0.318622	0.246893	0.724741	
-0.350907	-0.296683	0.5	
-0.387519	-0.208294	0.5	
-0.386831	-0.3168	0.604097	
-0.358854	-0.187212	0.601126	
0.313791	-0.154465	1	
0.232997	-0.11062	1	
0.314271	-0.0501881	1	
0.257767	-0.0505632	0.898363	
-0.242822	0.437078	0.847009	
-0.316847	0.386792	0.801384	
-0.247057	0.434698	0.749501	
-0.237468	0.305606	0.754243	
-0.209296	-0.0687964	0.747015	
-0.170863	-0.122482	0.63474	
-0.10739	-0.142688	0.746667	
-0.198738	-0.193326	0.739814	
-0.153328	0.47591	0.90763	
-0.168734	0.470668	0.798219	
-0.0807477	0.493437	0.845776	
-0.0738147	0.390008	0.901946	
0.3168	-0.386831	0.604097	
0.228991	-0.444481	0.591901	
0.25658	-0.429146	0.66876	
0.253502	-0.311953	0.668431	
-0.0810399	-0.493389	0.85285	
-0.0977967	-0.490343	0.758774	
-0.171353	-0.469721	0.838334	
-0.0966341	-0.368565	0.765144	
0.450285	0.217356	0.855302	
0.470916	0.168043	0.800126	
0.476114	0.152694	0.90246	
0.378621	0.110033	0.901946	
0	-0.5	0.8	
0.0807477	-0.493437	0.845776	
0.0854243	-0.492649	0.748597	
0.0132695	-0.394263	0.743185	
0.0610361	-0.307238	0.685164	
0.18031	-0.320943	0.740502	
0.0672081	-0.306462	0.784462	
0.0978756	-0.400914	0.688925	
-0.0785029	0.119253	0.5	
-0.122627	0.0544512	0.5	
-0.0283081	0.0695318	0.5	
-0.0470393	0.078068	0.615792	
-0.211369	-0.0761151	1	
-0.117671	-0.10197	1	
-0.186407	-0.169451	1	
-0.231631	-0.136254	0.90444	
-0.323938	-0.380873	0.847739	
-0.386792	-0.316847	0.801384	
-0.386476	-0.317233	0.909527	
-0.257866	-0.303129	0.891677	
-0.428195	0.258165	0.798245	
-0.460548	0.194667	0.76567	
-0.4284	0.257824	0.704976	
-0.342082	0.155488	0.769444	
0.174678	0.468495	0.817109	
0.25658	0.429146	0.83124	
0.228991	0.444481	0.908099	
0.209258	0.343487	0.903692	
0.0814864	-0.493315	0.652319	
0.0409643	-0.389072	0.60666	
0	-0.5	0.7	
0.0978756	-0.400914	0.688925	
-0.374813	0.199394	0.5	
-0.415735	0.277785	0.5	
-0.439458	0.238488	0.575692	
-0.335163	0.274889	0.5	
-0.25658	0.429146	0.66876	
-0.247057	0.434698	0.749501	
-0.317206	0.386498	0.700322	
-0.237468	0.305606	0.754243	
-0.0324158	-0.400449	0.5	
0.0409643	-0.389072	0.60666	
0.0420567	-0.345657	0.5	
-0.000247605	-0.297629	0.606346	
0.3168	-0.386831	0.604097	
0.213029	-0.381729	0.5	
0.267645	-0.326424	0.5	
0.277785	-0.415735	0.5	
-0.470916	0.168043	0.699874	
-0.493012	0.0833019	0.655211	
-0.373426	0.0982193	0.605831	
-0.391681	0.0802879	0.710436	
-0.191056	0.29295	0.5	
-0.234034	0.362529	0.5	
-0.270646	0.274141	0.5	
-0.225501	0.288034	0.633154	
0.0814864	0.493315	0.847681	
0.107558	0.36211	0.8622	
0.146853	0.477948	0.915992	
0.025786	0.402982	0.903855	
-0.174131	-0.119906	0.5	
-0.137519	-0.208294	0.5	
-0.0840299	-0.136867	0.5	
-0.170863	-0.122482	0.63474	
-0.0293436	-0.0762152	0.5	
-0.0840299	-0.136867	0.5	
-0.00743541	-0.147874	0.5	
0.000996857	-0.0833524	0.602223	
-0.0324158	-0.223672	0.5	
1.21767e-05	-0.288281	0.5	
0.0559726	-0.187061	0.5	
-0.000247605	-0.297629	0.606346	
-0.388274	0.315029	0.579193	
-0.295892	0.334394	0.5	
-0.3168	0.386831	0.604097	
-0.306859	0.249519	0.591577	
0.495101	0.0698189	0.927621	
0.378621	0.110033	0.901946	
0.493012	0.0833019	0.844789	
0.397985	-0.0056	0.902207	
0.0610361	-0.307238	0.685164	
0.16292	-0.321139	0.620031	
0.18031	-0.320943	0.740502	
0.0978756	-0.400914	0.688925	
0.368263	0.0160059	0.5	
0.428196	-0.0462647	0.5	
0.439467	0.0432837	0.5	
0.39042	-0.0433488	0.606813	
-0.460548	0.194667	0.76567	
-0.428195	0.258165	0.798245	
-0.469721	0.171353	0.838334	
-0.342082	0.155488	0.769444	
0.122026	0.332598	0.5	
0.0529867	0.308818	0.5	
0.0895983	0.22043	0.5	
0.13133	0.218843	0.607259	
-0.158356	-0.325914	0.851548	
-0.0832182	-0.39248	0.894675	
-0.0143548	-0.331636	0.835577	
-0.0781785	-0.271888	0.896904	
-0.386792	-0.316847	0.801384	
-0.324368	-0.232384	0.754222	
-0.437078	-0.242822	0.847009	
-0.338	-0.218597	0.893416	
0.247868	0.146306	1	
0.158056	0.171884	1	
0.231243	0.24169	1	
0.195469	0.159954	0.886309	
0.346509	0.0237889	1	
0.337634	0.115561	1	
0.378621	0.110033	0.901946	
0.277593	0.0916628	0.90095	
0.0610361	-0.307238	0.685164	
0.0409643	-0.389072	0.60666	
0.16292	-0.321139	0.620031	
0.0978756	-0.400914	0.688925	
0.0401436	0.291204	1	
0.133074	0.264097	1	
0.0651412	0.200096	1	
0.0166107	0.245601	0.898079	
-0.0728232	0.494668	0.573541	
-0.146853	0.477948	0.584008	
-0.145646	0.399141	0.5	
-0.112546	0.368373	0.611308	
-0.169426	0.21818	0.5	
-0.203341	0.186445	0.603634	
-0.145646	0.149141	0.5	
-0.136825	0.25987	0.596211	
-0.243391	-0.436762	0.903062	
-0.258165	-0.428195	0.798245	
-0.323938	-0.380873	0.847739	
-0.257866	-0.303129	0.891677	
0.450285	0.217356	0.855302	
0.476114	0.152694	0.90246	
0.439458	0.238488	0.924308	
0.378621	0.110033	0.901946	
0.0610361	-0.307238	0.685164	
0.18031	-0.320943	0.740502	
0.0917349	-0.220895	0.740016	
0.0672081	-0.306462	0.784462	
-0.00425413	0.131001	1	
0.0209546	0.0362755	1	
-0.0734441	0.0616893	1	
-0.0265366	0.088395	0.883809	
-0.0183357	0.330286	0.830674	
0.0511855	0.375084	0.751646	
0.107558	0.36211	0.8622	
0.0922358	0.267303	0.814992	
-0.0341142	0.113867	0.749186	
-0.0319626	0.00109562	0.771489	
-0.125866	0.0341816	0.729574	
0.00311865	0.0446609	0.692024	
0.0654282	-0.0931162	0.5	
0.000996857	-0.0833524	0.602223	
0.100517	-0.109754	0.630856	
0.0786602	-0.0230096	0.587367	
-0.401548	-0.0423374	1	
-0.495012	-0.0704482	0.928155	
-0.5	0	0.9	
-0.404383	-0.0159907	0.861288	
0.177987	0.183818	0.5	
0.153817	0.120272	0.5	
0.171794	0.11325	0.628738	
0.13133	0.218843	0.607259	
-0.122627	0.0544512	0.5	
-0.0505573	-0.00469477	0.5	
-0.0283081	0.0695318	0.5	
-0.125208	0.0156787	0.594569	
0.122026	0.332598	0.5	
0.177987	0.433818	0.5	
0.0895983	0.397206	0.5	
0.159673	0.344869	0.622089	
0.470916	0.168043	0.800126	
0.493012	0.0833019	0.844789	
0.378621	0.110033	0.901946	
0.37512	0.124368	0.792934	
-0.184118	-0.326089	0.626133	
-0.0945272	-0.266606	0.620808	
-0.174131	-0.296683	0.5	
-0.188154	-0.225182	0.596871	
-0.117671	-0.10197	1	
-0.142648	-0.00714059	1	
-0.048473	-0.0328568	1	
-0.0877381	0.00876541	0.911432	
0.176571	0.0516571	0.5	
0.242205	0.0836605	0.5	
0.153817	0.120272	0.5	
0.171794	0.11325	0.628738	
0.187412	-0.0186436	0.5	
0.108407	0.0140815	0.5	
0.130037	-0.0606882	0.5	
0.0786602	-0.0230096	0.587367	
0.415735	0.277785	1	
0.439458	0.238488	0.924308	
0.373926	0.198925	1	
0.328092	0.270243	1	
0.125573	-0.41396	1	
0.0704482	-0.495012	0.928155	
0.0404524	-0.41072	1	
0.032794	-0.401349	0.896695	
-0.328716	-0.376757	0.753532	
-0.258165	-0.428195	0.798245	
-0.257824	-0.4284	0.704976	
-0.239357	-0.30005	0.729626	
-0.444481	-0.228991	0.591901	
-0.425264	-0.131997	0.5	
-0.477948	-0.146853	0.584008	
-0.358854	-0.187212	0.601126	
-0.122627	0.0544512	0.5	
-0.0283081	0.0695318	0.5	
-0.0470393	0.078068	0.615792	
-0.125208	0.0156787	0.594569	
0.146853	-0.477948	0.584008	
0.0559726	-0.437061	0.5	
0.0728232	-0.494668	0.573541	
0.0409643	-0.389072	0.60666	
-0.242822	0.437078	0.847009	
-0.235698	0.440961	0.931431	
-0.317233	0.386476	0.909527	
-0.265639	0.299346	0.905431	
0.368263	0.0160059	0.5	
0.278817	-0.00472784	0.5	
0.338823	-0.0848934	0.5	
0.39042	-0.0433488	0.606813	
0.414183	0.131147	1	
0.46194	0.191342	1	
0.439458	0.238488	0.924308	
0.373926	0.198925	1	
0.310611	0.178263	0.85673	
0.378621	0.110033	0.901946	
0.333846	0.0367661	0.834867	
0.37512	0.124368	0.792934	
0.439467	0.0432837	0.5	
0.368263	0.0160059	0.5	
0.39042	-0.0433488	0.606813	
0.396694	0.0647464	0.588567	
0.310611	0.178263	0.85673	
0.333846	0.0367661	0.834867	
0.378621	0.110033	0.901946	
0.277593	0.0916628	0.90095	
-0.225501	0.288034	0.633154	
-0.306859	0.249519	0.591577	
-0.298046	0.172945	0.653946	
-0.318622	0.246893	0.724741	
0.0814864	0.493315	0.847681	
0.146853	0.477948	0.915992	
0.0728232	0.494668	0.926459	
0.025786	0.402982	0.903855	
-0.262519	-0.0832944	0.5	
-0.239764	-0.151909	0.5	
-0.174131	-0.119906	0.5	
-0.170863	-0.122482	0.63474	
0	0.5	0.7	
0.0854243	0.492649	0.751403	
0	0.5	0.8	
0.0511855	0.375084	0.751646	
-0.0430682	0.437279	0.5	
-0.0728232	0.494668	0.573541	
-0.145646	0.399141	0.5	
-0.112546	0.368373	0.611308	
0.428195	-0.258165	0.798245	
0.460548	-0.194667	0.76567	
0.4284	-0.257824	0.704976	
0.371228	-0.144256	0.774162	
0	-0.5	0.9	
-0.0832182	-0.39248	0.894675	
-0.0684459	-0.495293	0.931403	
0.032794	-0.401349	0.896695	
0.203135	-0.21521	0.664501	
0.306527	-0.240421	0.616434	
0.309938	-0.217964	0.736716	
0.253502	-0.311953	0.668431	
-0.221565	0.0908555	0.5	
-0.234034	0.185752	0.5	
-0.264287	0.0818172	0.601453	
-0.203341	0.186445	0.603634	
-0.352604	-0.116449	0.71733	
-0.287784	-0.0964438	0.621465	
-0.267995	-0.204807	0.662178	
-0.358854	-0.187212	0.601126	
0.146853	-0.477948	0.584008	
0.0409643	-0.389072	0.60666	
0.0814864	-0.493315	0.652319	
0.0978756	-0.400914	0.688925	
0	0.5	0.9	
0.0420691	0.427134	1	
-0.0372406	0.417791	1	
0.025786	0.402982	0.903855	
-0.234034	0.185752	0.5	
-0.203341	0.186445	0.603634	
-0.270646	0.274141	0.5	
-0.306859	0.249519	0.591577	
0.415496	-0.123332	0.5	
0.476114	-0.152694	0.59754	
0.439458	-0.238488	0.575692	
0.46194	-0.191342	0.5	
-0.5	0	0.7	
-0.492649	-0.0854243	0.748597	
-0.493315	-0.0814864	0.652319	
-0.39411	-0.0165863	0.757409	
-0.316581	0.126747	0.5	
-0.374813	0.199394	0.5	
-0.408839	0.131788	0.5	
-0.373426	0.0982193	0.605831	
0.366699	-0.192277	0.5	
0.415496	-0.123332	0.5	
0.439458	-0.238488	0.575692	
0.46194	-0.191342	0.5	
-0.0572576	0.185752	0.5	
-0.169426	0.21818	0.5	
-0.145646	0.149141	0.5	
-0.136825	0.25987	0.596211	
0.228991	0.444481	0.908099	
0.146853	0.477948	0.915992	
0.174678	0.468495	0.817109	
0.107558	0.36211	0.8622	
-0.257956	0.116321	1	
-0.215798	0.142373	0.897172	
-0.16685	0.0883447	1	
-0.277483	0.0617124	0.914802	
0.247057	-0.434698	0.749501	
0.317206	-0.386498	0.700322	
0.25658	-0.429146	0.66876	
0.253502	-0.311953	0.668431	
-0.0422582	-0.437473	1	
0.0404524	-0.41072	1	
0	-0.5	0.9	
0.032794	-0.401349	0.896695	
0.0404524	-0.41072	1	
0.0248177	-0.313374	1	
0.112799	-0.33356	1	
0.032794	-0.401349	0.896695	
0.154637	-0.229675	0.832631	
0.11687	-0.357533	0.85392	
0.054972	-0.274643	0.900622	
0.0672081	-0.306462	0.784462	
-0.242822	0.437078	0.847009	
-0.317233	0.386476	0.909527	
-0.316847	0.386792	0.801384	
-0.265639	0.299346	0.905431	
0.284773	-0.165822	0.5	
0.338823	-0.0848934	0.5	
0.242205	-0.0931162	0.5	
0.231926	-0.137602	0.598516	
0.198678	0.268409	0.834396	
0.162962	0.351618	0.758031	
0.157953	0.210834	0.75219	
0.0922358	0.267303	0.814992	
0.176571	0.0516571	0.5	
0.242205	0.0836605	0.5	
0.171794	0.11325	0.628738	
0.243096	0.0493866	0.595389	
-0.157178	0.100595	0.650339	
-0.125866	0.0341816	0.729574	
-0.213242	-0.007813	0.640954	
-0.125208	0.0156787	0.594569	
-0.0206459	0.274141	0.5	
0.0177914	0.213039	0.5	
0.0529867	0.308818	0.5	
0.000715258	0.25479	0.628643	
-0.237047	0.0201392	1	
-0.211369	-0.0761151	1	
-0.302044	-0.0506462	1	
-0.227279	-0.033891	0.874484	
0.493012	0.0833019	0.844789	
0.5	0	0.8	
0.5	0	0.9	
0.397985	-0.0056	0.902207	
-0.494668	-0.0728232	0.573541	
-0.42782	-0.0498056	0.5	
-0.5	0	0.6	
-0.393057	-0.0716576	0.611801	
-0.470916	0.168043	0.699874	
-0.342082	0.155488	0.769444	
-0.460548	0.194667	0.76567	
-0.391681	0.0802879	0.710436	
-0.355295	-0.0330772	0.5	
-0.350907	-0.119906	0.5	
-0.287784	-0.0964438	0.621465	
-0.393057	-0.0716576	0.611801	
0.376757	-0.328716	0.753532	
0.317206	-0.386498	0.700322	
0.316847	-0.386792	0.801384	
0.264677	-0.291732	0.802046	
-0.11205	0.260225	0.5	
-0.169426	0.21818	0.5	
-0.0572576	0.185752	0.5	
-0.136825	0.25987	0.596211	
-0.307929	-0.189485	0.5	
-0.387519	-0.208294	0.5	
-0.286299	-0.264255	0.5	
-0.358854	-0.187212	0.601126	
0.18031	-0.320943	0.740502	
0.16292	-0.321139	0.620031	
0.203135	-0.21521	0.664501	
0.253502	-0.311953	0.668431	
-0.048473	-0.0328568	1	
-0.0734441	0.0616893	1	
0.0209546	0.0362755	1	
-0.0877381	0.00876541	0.911432	
-0.317206	0.386498	0.700322	
-0.237468	0.305606	0.754243	
-0.376757	0.328716	0.753532	
-0.318622	0.246893	0.724741	
0.100517	-0.109754	0.630856	
0.0954521	0.018975	0.675961	
0.0786602	-0.0230096	0.587367	
0.0272687	-0.0505093	0.69136	
0.4284	0.257824	0.795024	
0.374193	0.331632	0.834643	
0.376757	0.328716	0.746468	
0.292421	0.250833	0.767221	
0.360282	-0.0916129	0.861913	
0.257355	-0.0987317	0.776667	
0.364623	-0.0450159	0.747721	
0.371228	-0.144256	0.774162	
0.189613	0.313662	1	
0.261819	0.319027	1	
0.231243	0.24169	1	
0.209258	0.343487	0.903692	
0	-0.5	0.7	
0.0814864	-0.493315	0.652319	
0	-0.5	0.6	
0.0409643	-0.389072	0.60666	
-0.350907	-0.119906	0.5	
-0.425264	-0.131997	0.5	
-0.358854	-0.187212	0.601126	
-0.393057	-0.0716576	0.611801	
0.261819	0.319027	1	
0.287646	0.277342	0.89815	
0.231243	0.24169	1	
0.209258	0.343487	0.903692	
-0.207198	-0.382494	0.5	
-0.128733	-0.391758	0.5	
-0.238488	-0.439458	0.575692	
-0.191342	-0.46194	0.5	
0.174678	0.468495	0.817109	
0.0854243	0.492649	0.751403	
0.168734	0.470668	0.701781	
0.162962	0.351618	0.758031	
-0.0734441	0.0616893	1	
-0.142648	-0.00714059	1	
-0.16685	0.0883447	1	
-0.0877381	0.00876541	0.911432	
-0.337562	0.0547633	1	
-0.390033	0.0787983	0.902592	
-0.328307	0.16356	1	
-0.277483	0.0617124	0.914802	
-0.137519	-0.208294	0.5	
-0.170863	-0.122482	0.63474	
-0.174131	-0.119906	0.5	
-0.188154	-0.225182	0.596871	
-0.262519	-0.333294	0.5	
-0.350907	-0.296683	0.5	
-0.315029	-0.388274	0.579193	
-0.28318	-0.296642	0.616188	
0.0903521	0.10545	1	
0.115537	0.0107471	1	
0.0209546	0.0362755	1	
0.105897	0.0806526	0.900017	
0.0877841	0.277766	0.703945	
0.157953	0.210834	0.75219	
0.162962	0.351618	0.758031	
0.0922358	0.267303	0.814992	
-0.0232782	-0.127584	1	
0.0461078	-0.0584269	1	
0.0712814	-0.153152	1	
0.0397395	-0.0938942	0.889407	
0	0.5	0.8	
0.0814864	0.493315	0.847681	
0	0.5	0.9	
0.025786	0.402982	0.903855	
0.247868	0.146306	1	
0.184962	0.0799289	1	
0.158056	0.171884	1	
0.195469	0.159954	0.886309	
-0.470916	0.168043	0.699874	
-0.493012	0.0833019	0.655211	
-0.476114	0.152694	0.59754	
-0.373426	0.0982193	0.605831	
-0.356684	-0.19351	1	
-0.331361	-0.272953	1	
-0.440961	-0.235698	0.931431	
-0.338	-0.218597	0.893416	
0.153122	-0.0879879	0.864132	
0.154637	-0.229675	0.832631	
0.208315	-0.166389	0.905666	
0.0968003	-0.179614	0.902873	
-0.386476	-0.317233	0.909527	
-0.440961	-0.235698	0.931431	
-0.331361	-0.272953	1	
-0.338	-0.218597	0.893416	
-0.388274	0.315029	0.579193	
-0.415735	0.277785	0.634138	
-0.439458	0.238488	0.575692	
-0.306859	0.249519	0.591577	
-0.203173	-0.373024	1	
-0.263582	-0.319413	1	
-0.168688	-0.281701	1	
-0.257866	-0.303129	0.891677	
0.164797	-0.177585	1	
0.0712814	-0.153152	1	
0.14072	-0.0839746	1	
0.0968003	-0.179614	0.902873	
-0.0372406	0.417791	1	
0	0.5	0.9	
0	0.5	1	
0.0420691	0.427134	1	
-0.374193	0.331632	0.665357	
-0.4284	0.257824	0.704976	
-0.415735	0.277785	0.634138	
-0.318622	0.246893	0.724741	
0	-0.5	1	
-0.0422582	-0.437473	1	
0.0404524	-0.41072	1	
0	-0.5	0.9	
0.493389	-0.0810399	0.85285	
0.5	0	0.9	
0.5	0	0.8	
0.397985	-0.0056	0.902207	
0.490343	-0.0977967	0.758774	
0.5	0	0.8	
0.5	0	0.7	
0.364623	-0.0450159	0.747721	
0.4284	-0.257824	0.704976	
0.376757	-0.328716	0.753532	
0.428195	-0.258165	0.798245	
0.309938	-0.217964	0.736716	
-0.239357	-0.30005	0.729626	
-0.324368	-0.232384	0.754222	
-0.246255	-0.212424	0.8311	
-0.198738	-0.193326	0.739814	
0.176571	0.0516571	0.5	
0.171794	0.11325	0.628738	
0.153817	0.120272	0.5	
0.0913968	0.0719702	0.595778	
-0.388274	0.315029	0.579193	
-0.439458	0.238488	0.575692	
-0.415735	0.277785	0.5	
-0.335163	0.274889	0.5	
-0.5	0	1	
-0.426463	0.0441363	1	
-0.401548	-0.0423374	1	
-0.5	0	0.9	
-0.437078	-0.242822	0.847009	
-0.47591	-0.153328	0.90763	
-0.440961	-0.235698	0.931431	
-0.338	-0.218597	0.893416	
0.317206	0.386498	0.799678	
0.376757	0.328716	0.746468	
0.374193	0.331632	0.834643	
0.292421	0.250833	0.767221	
0.232997	-0.11062	1	
0.313791	-0.154465	1	
0.245477	-0.191651	1	
0.208315	-0.166389	0.905666	
0.242822	0.437078	0.652991	
0.247057	0.434698	0.750499	
0.168734	0.470668	0.701781	
0.162962	0.351618	0.758031	
-0.328716	-0.376757	0.753532	
-0.257824	-0.4284	0.704976	
-0.331632	-0.374193	0.665357	
-0.239357	-0.30005	0.729626	
-0.386505	0.317197	0.931175	
-0.318983	0.261743	1	
-0.311262	0.211476	0.883807	
-0.265639	0.299346	0.905431	
0.414183	0.131147	1	
0.495101	0.0698189	0.927621	
0.414991	0.0495125	1	
0.378621	0.110033	0.901946	
0.153328	-0.47591	0.90763	
0.11687	-0.357533	0.85392	
0.0807477	-0.493437	0.845776	
0.032794	-0.401349	0.896695	
0.284773	-0.165822	0.5	
0.238057	-0.243638	0.5	
0.324956	-0.262938	0.5	
0.306527	-0.240421	0.616434	
0.469721	-0.171353	0.838334	
0.478555	-0.144862	0.921652	
0.493389	-0.0810399	0.85285	
0.360282	-0.0916129	0.861913	
-0.302044	-0.0506462	1	
-0.211369	-0.0761151	1	
-0.278713	-0.14304	1	
-0.231631	-0.136254	0.90444	
0.107558	0.36211	0.8622	
0.0511855	0.375084	0.751646	
0.162962	0.351618	0.758031	
0.0922358	0.267303	0.814992	
-0.0648143	-0.0272529	0.665015	
-0.125866	0.0341816	0.729574	
-0.0319626	0.00109562	0.771489	
0.00311865	0.0446609	0.692024	
0.470916	0.168043	0.800126	
0.4284	0.257824	0.795024	
0.460548	0.194667	0.73433	
0.37512	0.124368	0.792934	
-0.0572576	0.362529	0.5	
-0.0430682	0.437279	0.5	
-0.145646	0.399141	0.5	
-0.112546	0.368373	0.611308	
0.268393	-0.334301	1	
0.353553	-0.353553	1	
0.317233	-0.386476	0.909527	
0.386505	-0.317197	0.931175	
-0.492649	-0.0854243	0.748597	
-0.470668	-0.168734	0.798219	
-0.468495	-0.174678	0.682891	
-0.352604	-0.116449	0.71733	
-0.270646	0.274141	0.5	
-0.234034	0.185752	0.5	
-0.169426	0.21818	0.5	
-0.203341	0.186445	0.603634	
0.107558	0.36211	0.8622	
0.162962	0.351618	0.758031	
0.198678	0.268409	0.834396	
0.0922358	0.267303	0.814992	
-0.221565	0.0908555	0.5	
-0.209059	-0.00395244	0.5	
-0.122627	0.0544512	0.5	
-0.125208	0.0156787	0.594569	
-0.273315	0.334955	1	
-0.318983	0.261743	1	
-0.386505	0.317197	0.931175	
-0.265639	0.299346	0.905431	
-0.267995	-0.204807	0.662178	
-0.324368	-0.232384	0.754222	
-0.239357	-0.30005	0.729626	
-0.198738	-0.193326	0.739814	
0.414991	0.0495125	1	
0.378621	0.110033	0.901946	
0.495101	0.0698189	0.927621	
0.397985	-0.0056	0.902207	
-0.380873	0.323938	0.847739	
-0.436762	0.243391	0.903062	
-0.428195	0.258165	0.798245	
-0.311262	0.211476	0.883807	
0.3168	-0.386831	0.604097	
0.374193	-0.331632	0.665357	
0.306527	-0.240421	0.616434	
0.253502	-0.311953	0.668431	
-0.0925337	-0.196451	1	
-0.168688	-0.281701	1	
-0.186407	-0.169451	1	
-0.136098	-0.178684	0.882811	
0.122026	0.332598	0.5	
0.164071	0.275222	0.5	
0.196796	0.354228	0.5	
0.159673	0.344869	0.622089	
0.388274	-0.315029	0.579193	
0.324956	-0.262938	0.5	
0.353553	-0.353553	0.5	
0.267645	-0.326424	0.5	
0.11687	-0.357533	0.85392	
0.054972	-0.274643	0.900622	
-0.0143548	-0.331636	0.835577	
0.032794	-0.401349	0.896695	
0.3168	0.386831	0.895903	
0.317206	0.386498	0.799678	
0.374193	0.331632	0.834643	
0.287646	0.277342	0.89815	
0.5	0	0.5	
0.5	0	0.6	
0.439467	0.0432837	0.5	
0.428196	-0.0462647	0.5	
-0.0183357	0.330286	0.830674	
0.0166107	0.245601	0.898079	
0.00181727	0.225193	0.776224	
0.0922358	0.267303	0.814992	
0.3168	-0.386831	0.604097	
0.388274	-0.315029	0.579193	
0.353553	-0.353553	0.5	
0.267645	-0.326424	0.5	
-0.26105	0.203399	1	
-0.311262	0.211476	0.883807	
-0.318983	0.261743	1	
-0.265639	0.299346	0.905431	
0.0610361	-0.307238	0.685164	
0.0132695	-0.394263	0.743185	
0.0409643	-0.389072	0.60666	
0.0978756	-0.400914	0.688925	
-0.387519	-0.208294	0.5	
-0.444481	-0.228991	0.591901	
-0.386831	-0.3168	0.604097	
-0.358854	-0.187212	0.601126	
0.130037	-0.0606882	0.5	
0.0654282	-0.0931162	0.5	
0.100517	-0.109754	0.630856	
0.0786602	-0.0230096	0.587367	
0.493012	-0.0833019	0.655211	
0.5	0	0.7	
0.5	0	0.6	
0.39042	-0.0433488	0.606813	
0.235698	0.440961	0.568569	
0.153328	0.47591	0.59237	
0.177987	0.433818	0.5	
0.159673	0.344869	0.622089	
0.316847	-0.386792	0.801384	
0.21926	-0.328264	0.896532	
0.317233	-0.386476	0.909527	
0.264677	-0.291732	0.802046	
-0.440961	-0.235698	0.931431	
-0.415735	-0.277785	1	
-0.386476	-0.317233	0.909527	
-0.331361	-0.272953	1	
0	0.5	0.9	
-0.0372406	0.417791	1	
-0.0704482	0.495012	0.928155	
0.025786	0.402982	0.903855	
0.242205	0.0836605	0.5	
0.324205	0.0779192	0.5	
0.279002	0.143488	0.606802	
0.243096	0.0493866	0.595389	
0.316847	-0.386792	0.801384	
0.317233	-0.386476	0.909527	
0.380873	-0.323938	0.847739	
0.264677	-0.291732	0.802046	
0.177987	0.183818	0.5	
0.0897768	0.149878	0.5	
0.153817	0.120272	0.5	
0.13133	0.218843	0.607259	
-0.350907	-0.296683	0.5	
-0.286299	-0.264255	0.5	
-0.387519	-0.208294	0.5	
-0.358854	-0.187212	0.601126	
0.414991	0.0495125	1	
0.346509	0.0237889	1	
0.378621	0.110033	0.901946	
0.397985	-0.0056	0.902207	
0.476114	0.152694	0.90246	
0.470916	0.168043	0.800126	
0.493012	0.0833019	0.844789	
0.378621	0.110033	0.901946	
0.302987	0.308818	0.5	
0.234372	0.286063	0.5	
0.266375	0.22043	0.5	
0.326633	0.237522	0.603331	
0.0559726	-0.187061	0.5	
0.144361	-0.223672	0.5	
0.153817	-0.129728	0.5	
0.0957286	-0.225187	0.608184	
-0.237468	0.305606	0.754243	
-0.117277	0.364618	0.76936	
-0.175427	0.309191	0.860321	
-0.115688	0.262969	0.786818	
-0.261345	-0.230036	1	
-0.356684	-0.19351	1	
-0.278713	-0.14304	1	
-0.338	-0.218597	0.893416	
-0.247057	0.434698	0.749501	
-0.174678	0.468495	0.682891	
-0.168734	0.470668	0.798219	
-0.117277	0.364618	0.76936	
-0.0328721	-0.370689	1	
0.0248177	-0.313374	1	
0.0404524	-0.41072	1	
0.032794	-0.401349	0.896695	
-0.0372406	0.417791	1	
-0.0738147	0.390008	0.901946	
-0.0704482	0.495012	0.928155	
0.025786	0.402982	0.903855	
0.000715258	0.25479	0.628643	
-0.0842182	0.182405	0.629411	
-0.0988881	0.278177	0.686189	
-0.136825	0.25987	0.596211	
-0.439458	0.238488	0.575692	
-0.408839	0.131788	0.5	
-0.46194	0.191342	0.5	
-0.374813	0.199394	0.5	
0.5	0	0.9	
0.5	0	1	
0.414991	0.0495125	1	
0.397985	-0.0056	0.902207	
-0.221565	0.0908555	0.5	
-0.145646	0.149141	0.5	
-0.234034	0.185752	0.5	
-0.203341	0.186445	0.603634	
-0.146853	0.477948	0.584008	
-0.228991	0.444481	0.591901	
-0.145646	0.399141	0.5	
-0.112546	0.368373	0.611308	
0.439458	0.238488	0.924308	
0.415735	0.277785	1	
0.388274	0.315029	0.920807	
0.328092	0.270243	1	
0.493389	0.0810399	0.64715	
0.469721	0.171353	0.661666	
0.478555	0.144862	0.578348	
0.396694	0.0647464	0.588567	
0.242822	-0.437078	0.847009	
0.21926	-0.328264	0.896532	
0.316847	-0.386792	0.801384	
0.264677	-0.291732	0.802046	
-0.493437	-0.0807477	0.845776	
-0.39411	-0.0165863	0.757409	
-0.5	0	0.8	
-0.404383	-0.0159907	0.861288	
-0.408839	0.131788	0.5	
-0.476114	0.152694	0.59754	
-0.495101	0.0698189	0.572379	
-0.373426	0.0982193	0.605831	
0.0943468	-0.245334	1	
0.054972	-0.274643	0.900622	
0.00183684	-0.222331	1	
0.0968003	-0.179614	0.902873	
-0.408839	0.131788	0.5	
-0.495101	0.0698189	0.572379	
-0.400468	0.0439116	0.5	
-0.373426	0.0982193	0.605831	
0	-0.5	0.6	
0.0559726	-0.437061	0.5	
-0.0324158	-0.400449	0.5	
0.0409643	-0.389072	0.60666	
0.162962	0.351618	0.758031	
0.0511855	0.375084	0.751646	
0.0877841	0.277766	0.703945	
0.0922358	0.267303	0.814992	
-0.0422582	-0.437473	1	
-0.0328721	-0.370689	1	
0.0404524	-0.41072	1	
0.032794	-0.401349	0.896695	
0.335565	0.163368	0.703209	
0.279002	0.143488	0.606802	
0.233754	0.245143	0.652714	
0.326633	0.237522	0.603331	
-0.239764	-0.151909	0.5	
-0.174131	-0.119906	0.5	
-0.170863	-0.122482	0.63474	
-0.188154	-0.225182	0.596871	
-0.353553	-0.353553	1	
-0.386476	-0.317233	0.909527	
-0.331361	-0.272953	1	
-0.317197	-0.386505	0.931175	
-0.387519	-0.208294	0.5	
-0.425264	-0.131997	0.5	
-0.444481	-0.228991	0.591901	
-0.358854	-0.187212	0.601126	
-0.415735	-0.277785	1	
-0.440961	-0.235698	0.931431	
-0.356684	-0.19351	1	
-0.331361	-0.272953	1	
-0.273315	0.334955	1	
-0.386505	0.317197	0.931175	
-0.317233	0.386476	0.909527	
-0.265639	0.299346	0.905431	
-0.287784	-0.0964438	0.621465	
-0.358854	-0.187212	0.601126	
-0.352604	-0.116449	0.71733	
-0.393057	-0.0716576	0.611801	
0.11687	-0.357533	0.85392	
-0.0143548	-0.331636	0.835577	
0.054972	-0.274643	0.900622	
0.0672081	-0.306462	0.784462	
0.213029	-0.381729	0.5	
0.3168	-0.386831	0.604097	
0.228991	-0.444481	0.591901	
0.277785	-0.415735	0.5	
0.194604	-0.371188	1	
0.268393	-0.334301	1	
0.235698	-0.440961	0.931431	
0.21926	-0.328264	0.896532	
-0.386505	0.317197	0.931175	
-0.311262	0.211476	0.883807	
-0.380873	0.323938	0.847739	
-0.265639	0.299346	0.905431	
-0.0505573	-0.00469477	0.5	
-0.0293436	-0.0762152	0.5	
0.0288165	-0.00472784	0.5	
0.000996857	-0.0833524	0.602223	
-0.331361	-0.272953	1	
-0.263582	-0.319413	1	
-0.353553	-0.353553	1	
-0.317197	-0.386505	0.931175	
-0.262519	-0.0832944	0.5	
-0.355295	-0.0330772	0.5	
-0.350907	-0.119906	0.5	
-0.287784	-0.0964438	0.621465	
-0.353553	0.353553	1	
-0.273315	0.334955	1	
-0.386505	0.317197	0.931175	
-0.317233	0.386476	0.909527	
-0.0807477	0.493437	0.845776	
-0.168734	0.470668	0.798219	
-0.0854243	0.492649	0.748597	
-0.117277	0.364618	0.76936	
0.00181727	0.225193	0.776224	
0.0166107	0.245601	0.898079	
0.079088	0.165847	0.846387	
0.0922358	0.267303	0.814992	
-0.386498	-0.317206	0.700322	
-0.386792	-0.316847	0.801384	
-0.328716	-0.376757	0.753532	
-0.324368	-0.232384	0.754222	
-0.235698	0.440961	0.931431	
-0.277785	0.415735	1	
-0.273315	0.334955	1	
-0.201912	0.369986	1	
0.144361	-0.400449	0.5	
0.180973	-0.312061	0.5	
0.112358	-0.334816	0.5	
0.16292	-0.321139	0.620031	
-0.5	0	0.9	
-0.493389	0.0810399	0.85285	
-0.390033	0.0787983	0.902592	
-0.404383	-0.0159907	0.861288	
0.0610361	-0.307238	0.685164	
0.0409643	-0.389072	0.60666	
-0.0585559	-0.361231	0.657485	
-0.000247605	-0.297629	0.606346	
0.380873	0.323938	0.652261	
0.317233	0.386476	0.590473	
0.386505	0.317197	0.568825	
0.326633	0.237522	0.603331	
0.374193	-0.331632	0.665357	
0.388274	-0.315029	0.579193	
0.3168	-0.386831	0.604097	
0.306527	-0.240421	0.616434	
-0.331361	-0.272953	1	
-0.261345	-0.230036	1	
-0.263582	-0.319413	1	
-0.257866	-0.303129	0.891677	
-0.114467	-0.386332	1	
-0.0638367	-0.295761	1	
-0.0328721	-0.370689	1	
-0.0832182	-0.39248	0.894675	
0.415735	-0.277785	0.5	
0.388274	-0.315029	0.579193	
0.439458	-0.238488	0.575692	
0.324956	-0.262938	0.5	
0.5	0	0.6	
0.495293	0.0684459	0.568597	
0.439467	0.0432837	0.5	
0.396694	0.0647464	0.588567	
-0.316581	0.126747	0.5	
-0.373426	0.0982193	0.605831	
-0.294862	0.0237806	0.5	
-0.264287	0.0818172	0.601453	
0.0401436	0.291204	1	
-0.0295403	0.225144	1	
-0.0555676	0.325574	1	
0.0166107	0.245601	0.898079	
0.232997	-0.11062	1	
0.164797	-0.177585	1	
0.14072	-0.0839746	1	
0.208315	-0.166389	0.905666	
0.439458	0.238488	0.924308	
0.46194	0.191342	1	
0.414183	0.131147	1	
0.476114	0.152694	0.90246	
0.5	0	0.6	
0.428196	-0.0462647	0.5	
0.495101	-0.0698189	0.572379	
0.39042	-0.0433488	0.606813	
0.5	0	0.9	
0.495101	0.0698189	0.927621	
0.493012	0.0833019	0.844789	
0.397985	-0.0056	0.902207	
-0.0324158	-0.400449	0.5	
0.0420567	-0.345657	0.5	
1.21767e-05	-0.288281	0.5	
-0.000247605	-0.297629	0.606346	
-0.477948	-0.146853	0.584008	
-0.468495	-0.174678	0.682891	
-0.444481	-0.228991	0.591901	
-0.358854	-0.187212	0.601126	
-0.353553	0.353553	1	
-0.273315	0.334955	1	
-0.318983	0.261743	1	
-0.386505	0.317197	0.931175	
0.202324	0.378521	1	
0.277785	0.415735	1	
0.261819	0.319027	1	
0.209258	0.343487	0.903692	
-0.317206	0.386498	0.700322	
-0.316847	0.386792	0.801384	
-0.376757	0.328716	0.753532	
-0.237468	0.305606	0.754243	
-0.5	0	0.6	
-0.5	0	0.5	
-0.400468	0.0439116	0.5	
-0.42782	-0.0498056	0.5	
-0.333304	0.00409397	0.661614	
-0.287784	-0.0964438	0.621465	
-0.352604	-0.116449	0.71733	
-0.393057	-0.0716576	0.611801	
0.5	0	0.9	
0.414991	0.0495125	1	
0.495101	0.0698189	0.927621	
0.397985	-0.0056	0.902207	
0.146853	-0.477948	0.584008	
0.0728232	-0.494668	0.573541	
0.0814864	-0.493315	0.652319	
0.0409643	-0.389072	0.60666	
0.428196	-0.0462647	0.5	
0.338823	-0.0848934	0.5	
0.415496	-0.123332	0.5	
0.39042	-0.0433488	0.606813	
0.108407	0.0140815	0.5	
0.0288165	-0.00472784	0.5	
0.0786602	-0.0230096	0.587367	
0.0913968	0.0719702	0.595778	
0.266375	0.22043	0.5	
0.279002	0.143488	0.606802	
0.315521	0.155675	0.5	
0.326633	0.237522	0.603331	
-0.494668	-0.0728232	0.573541	
-0.477948	-0.146853	0.584008	
-0.425264	-0.131997	0.5	
-0.393057	-0.0716576	0.611801	
0.0943468	-0.245334	1	
0.00183684	-0.222331	1	
0.0712814	-0.153152	1	
0.0968003	-0.179614	0.902873	
-0.317206	0.386498	0.700322	
-0.376757	0.328716	0.753532	
-0.374193	0.331632	0.665357	
-0.318622	0.246893	0.724741	
0.174678	0.468495	0.817109	
0.146853	0.477948	0.915992	
0.0814864	0.493315	0.847681	
0.107558	0.36211	0.8622	
-0.273315	0.334955	1	
-0.201912	0.369986	1	
-0.214341	0.273759	1	
-0.265639	0.299346	0.905431	
0.353553	-0.353553	1	
0.268393	-0.334301	1	
0.314857	-0.257449	1	
0.386505	-0.317197	0.931175	
0.469721	0.171353	0.661666	
0.460548	0.194667	0.73433	
0.428195	0.258165	0.701755	
0.335565	0.163368	0.703209	
0.373926	0.198925	1	
0.414183	0.131147	1	
0.337634	0.115561	1	
0.378621	0.110033	0.901946	
0.112799	-0.33356	1	
0.201164	-0.273578	1	
0.194604	-0.371188	1	
0.21926	-0.328264	0.896532	
-0.494668	-0.0728232	0.573541	
-0.425264	-0.131997	0.5	
-0.42782	-0.0498056	0.5	
-0.393057	-0.0716576	0.611801	
-0.328307	0.16356	1	
-0.389036	0.207425	1	
-0.318983	0.261743	1	
-0.311262	0.211476	0.883807	
0.409478	-0.032947	1	
0.414991	0.0495125	1	
0.5	0	1	
0.397985	-0.0056	0.902207	
0.346509	0.0237889	1	
0.276476	0.0535537	1	
0.337634	0.115561	1	
0.277593	0.0916628	0.90095	
0.317233	-0.386476	0.909527	
0.235698	-0.440961	0.931431	
0.268393	-0.334301	1	
0.21926	-0.328264	0.896532	
0.374193	0.331632	0.834643	
0.415735	0.277785	0.865862	
0.388274	0.315029	0.920807	
0.287646	0.277342	0.89815	
0.130037	-0.0606882	0.5	
0.0654282	-0.0931162	0.5	
0.153817	-0.129728	0.5	
0.100517	-0.109754	0.630856	
-0.238488	-0.439458	0.575692	
-0.277785	-0.415735	0.5	
-0.262519	-0.333294	0.5	
-0.207198	-0.382494	0.5	
-0.444481	-0.228991	0.591901	
-0.468495	-0.174678	0.682891	
-0.429146	-0.25658	0.66876	
-0.358854	-0.187212	0.601126	
-0.350907	-0.119906	0.5	
-0.358854	-0.187212	0.601126	
-0.287784	-0.0964438	0.621465	
-0.393057	-0.0716576	0.611801	
-0.490343	0.0977967	0.758774	
-0.39411	-0.0165863	0.757409	
-0.5	0	0.7	
-0.391681	0.0802879	0.710436	
0.0420567	-0.345657	0.5	
0.0559726	-0.437061	0.5	
0.112358	-0.334816	0.5	
0.0409643	-0.389072	0.60666	
0.5	0	1	
0.5	0	0.9	
0.414991	0.0495125	1	
0.495101	0.0698189	0.927621	
-0.273315	0.334955	1	
-0.317233	0.386476	0.909527	
-0.277785	0.415735	1	
-0.235698	0.440961	0.931431	
-0.495293	0.0684459	0.931403	
-0.5	0	0.9	
-0.493389	0.0810399	0.85285	
-0.390033	0.0787983	0.902592	
-0.243391	-0.436762	0.903062	
-0.191342	-0.46194	1	
-0.144862	-0.478555	0.921652	
-0.203173	-0.373024	1	
-0.495293	0.0684459	0.931403	
-0.404541	0.126945	1	
-0.426463	0.0441363	1	
-0.390033	0.0787983	0.902592	
-0.350907	-0.296683	0.5	
-0.387519	-0.208294	0.5	
-0.415735	-0.277785	0.5	
-0.386831	-0.3168	0.604097	
-0.174678	0.468495	0.682891	
-0.228991	0.444481	0.591901	
-0.146853	0.477948	0.584008	
-0.112546	0.368373	0.611308	
-0.440961	-0.235698	0.931431	
-0.356684	-0.19351	1	
-0.41072	-0.12459	1	
-0.46194	-0.191342	1	
-0.221565	0.0908555	0.5	
-0.234034	0.185752	0.5	
-0.316581	0.126747	0.5	
-0.264287	0.0818172	0.601453	
0.3168	0.386831	0.895903	
0.287646	0.277342	0.89815	
0.261819	0.319027	1	
0.209258	0.343487	0.903692	
-0.425264	-0.131997	0.5	
-0.46194	-0.191342	0.5	
-0.444481	-0.228991	0.591901	
-0.477948	-0.146853	0.584008	
0.114055	0.374109	1	
0.202324	0.378521	1	
0.146853	0.477948	0.915992	
0.191342	0.46194	1	
0.242822	-0.437078	0.847009	
0.168734	-0.470668	0.798219	
0.153328	-0.47591	0.90763	
0.11687	-0.357533	0.85392	
0.5	0	0.9	
0.409478	-0.032947	1	
0.5	0	1	
0.397985	-0.0056	0.902207	
-0.0977967	-0.490343	0.758774	
-0.194667	-0.460548	0.76567	
-0.171353	-0.469721	0.838334	
-0.0966341	-0.368565	0.765144	
0.0747819	-0.266651	0.5	
1.21767e-05	-0.288281	0.5	
0.0420567	-0.345657	0.5	
-0.000247605	-0.297629	0.606346	
0.0903521	0.10545	1	
0.184962	0.0799289	1	
0.115537	0.0107471	1	
0.105897	0.0806526	0.900017	
-0.374193	0.331632	0.665357	
-0.415735	0.277785	0.634138	
-0.388274	0.315029	0.579193	
-0.306859	0.249519	0.591577	
-0.137519	-0.208294	0.5	
-0.174131	-0.296683	0.5	
-0.0945272	-0.266606	0.620808	
-0.188154	-0.225182	0.596871	
-0.350907	-0.119906	0.5	
-0.239764	-0.151909	0.5	
-0.262519	-0.0832944	0.5	
-0.287784	-0.0964438	0.621465	
0.366699	-0.192277	0.5	
0.284773	-0.165822	0.5	
0.324956	-0.262938	0.5	
0.306527	-0.240421	0.616434	
0.0807477	-0.493437	0.845776	
0.153328	-0.47591	0.90763	
0.168734	-0.470668	0.798219	
0.11687	-0.357533	0.85392	
-0.237047	0.0201392	1	
-0.257956	0.116321	1	
-0.16685	0.0883447	1	
-0.277483	0.0617124	0.914802	
0.202324	0.378521	1	
0.228991	0.444481	0.908099	
0.146853	0.477948	0.915992	
0.191342	0.46194	1	
0.0728232	0.494668	0.926459	
0.0420691	0.427134	1	
0.114055	0.374109	1	
0.0975452	0.490393	1	
0	-0.5	0.9	
0.0807477	-0.493437	0.845776	
0	-0.5	0.8	
0.032794	-0.401349	0.896695	
-0.261345	-0.230036	1	
-0.168688	-0.281701	1	
-0.263582	-0.319413	1	
-0.257866	-0.303129	0.891677	
-0.493315	-0.0814864	0.652319	
-0.468495	-0.174678	0.682891	
-0.477948	-0.146853	0.584008	
-0.393057	-0.0716576	0.611801	
0.414183	0.131147	1	
0.476114	0.152694	0.90246	
0.495101	0.0698189	0.927621	
0.378621	0.110033	0.901946	
-0.191342	-0.46194	0.5	
-0.128733	-0.391758	0.5	
-0.238488	-0.439458	0.575692	
-0.152694	-0.476114	0.59754	
-0.0690274	-0.312061	0.5	
-0.0324158	-0.223672	0.5	
-0.0945272	-0.266606	0.620808	
-0.000247605	-0.297629	0.606346	
0.114055	0.374109	1	
0.202324	0.378521	1	
0.189613	0.313662	1	
0.209258	0.343487	0.903692	
0.261819	0.319027	1	
0.353553	0.353553	1	
0.328092	0.270243	1	
0.287646	0.277342	0.89815	
-0.493437	-0.0807477	0.845776	
-0.492649	-0.0854243	0.748597	
-0.5	0	0.8	
-0.39411	-0.0165863	0.757409	
-0.304559	0.211579	0.5	
-0.335163	0.274889	0.5	
-0.374813	0.199394	0.5	
-0.306859	0.249519	0.591577	
-0.225501	0.288034	0.633154	
-0.203341	0.186445	0.603634	
-0.298046	0.172945	0.653946	
-0.306859	0.249519	0.591577	
-0.174678	0.468495	0.682891	
-0.146853	0.477948	0.584008	
-0.0814864	0.493315	0.652319	
-0.112546	0.368373	0.611308	
0.144361	-0.400449	0.5	
0.112358	-0.334816	0.5	
0.0559726	-0.437061	0.5	
0.0409643	-0.389072	0.60666	
-0.439458	0.238488	0.575692	
-0.46194	0.191342	0.5	
-0.408839	0.131788	0.5	
-0.476114	0.152694	0.59754	
0.0610361	-0.307238	0.685164	
0.0672081	-0.306462	0.784462	
0.0132695	-0.394263	0.743185	
0.0978756	-0.400914	0.688925	
0.409478	-0.032947	1	
0.5	0	0.9	
0.495293	-0.0684459	0.931403	
0.397985	-0.0056	0.902207	
0.174678	0.468495	0.817109	
0.247057	0.434698	0.750499	
0.25658	0.429146	0.83124	
0.162962	0.351618	0.758031	
-0.386831	-0.3168	0.604097	
-0.444481	-0.228991	0.591901	
-0.429146	-0.25658	0.66876	
-0.358854	-0.187212	0.601126	
-0.5	0	0.8	
-0.5	0	0.7	
-0.490343	0.0977967	0.758774	
-0.39411	-0.0165863	0.757409	
0.388496	0.195371	0.5	
0.342318	0.251665	0.5	
0.315521	0.155675	0.5	
0.326633	0.237522	0.603331	
-0.0684459	-0.495293	0.931403	
0	-0.5	0.9	
-0.0810399	-0.493389	0.85285	
-0.0832182	-0.39248	0.894675	
-0.0684459	-0.495293	0.931403	
-0.114467	-0.386332	1	
-0.0422582	-0.437473	1	
-0.0832182	-0.39248	0.894675	
0.153328	0.47591	0.59237	
0.242822	0.437078	0.652991	
0.168734	0.470668	0.701781	
0.159673	0.344869	0.622089	
-0.5	0	0.6	
-0.400468	0.0439116	0.5	
-0.5	0	0.5	
-0.495101	0.0698189	0.572379	
-0.388274	0.315029	0.579193	
-0.3168	0.386831	0.604097	
-0.374193	0.331632	0.665357	
-0.306859	0.249519	0.591577	
-0.380873	0.323938	0.847739	
-0.386505	0.317197	0.931175	
-0.436762	0.243391	0.903062	
-0.311262	0.211476	0.883807	
-0.0555676	0.325574	1	
-0.138674	0.323797	1	
-0.118932	0.39861	1	
-0.0738147	0.390008	0.901946	
0.415735	-0.277785	0.5	
0.439458	-0.238488	0.575692	
0.366699	-0.192277	0.5	
0.324956	-0.262938	0.5	
-0.495012	-0.0704482	0.928155	
-0.5	0	1	
-0.401548	-0.0423374	1	
-0.5	0	0.9	
-0.317233	0.386476	0.909527	
-0.380873	0.323938	0.847739	
-0.316847	0.386792	0.801384	
-0.265639	0.299346	0.905431	
0.5	0	1	
0.495293	-0.0684459	0.931403	
0.409478	-0.032947	1	
0.5	0	0.9	
0.0704482	-0.495012	0.928155	
0	-0.5	0.9	
0.0404524	-0.41072	1	
0.032794	-0.401349	0.896695	
0.164797	-0.177585	1	
0.245477	-0.191651	1	
0.201164	-0.273578	1	
0.208315	-0.166389	0.905666	
0.388496	0.195371	0.5	
0.436762	0.243391	0.596938	
0.342318	0.251665	0.5	
0.326633	0.237522	0.603331	
0.261819	0.319027	1	
0.3168	0.386831	0.895903	
0.353553	0.353553	1	
0.287646	0.277342	0.89815	
0.3168	0.386831	0.895903	
0.261819	0.319027	1	
0.277785	0.415735	1	
0.209258	0.343487	0.903692	
-0.0814864	0.493315	0.652319	
-0.146853	0.477948	0.584008	
-0.0728232	0.494668	0.573541	
-0.112546	0.368373	0.611308	
-0.0925337	-0.196451	1	
0.00183684	-0.222331	1	
-0.0638367	-0.295761	1	
-0.0781785	-0.271888	0.896904	
0.235698	-0.440961	0.931431	
0.277785	-0.415735	1	
0.317233	-0.386476	0.909527	
0.268393	-0.334301	1	
-0.315029	-0.388274	0.579193	
-0.350907	-0.296683	0.5	
-0.386831	-0.3168	0.604097	
-0.28318	-0.296642	0.616188	
-0.47591	-0.153328	0.90763	
-0.440961	-0.235698	0.931431	
-0.41072	-0.12459	1	
-0.46194	-0.191342	1	
-0.0975452	0.490393	0.5	
-0.145646	0.399141	0.5	
-0.0728232	0.494668	0.573541	
-0.146853	0.477948	0.584008	
0.315521	0.155675	0.5	
0.242205	0.0836605	0.5	
0.324205	0.0779192	0.5	
0.279002	0.143488	0.606802	
-0.118932	0.39861	1	
-0.0704482	0.495012	0.928155	
-0.0372406	0.417791	1	
-0.0738147	0.390008	0.901946	
0.0704482	-0.495012	0.928155	
0.153328	-0.47591	0.90763	
0.0807477	-0.493437	0.845776	
0.032794	-0.401349	0.896695	
0	-0.5	0.8	
0	-0.5	0.7	
-0.0977967	-0.490343	0.758774	
0.0132695	-0.394263	0.743185	
0.277785	-0.415735	1	
0.235698	-0.440961	0.931431	
0.194604	-0.371188	1	
0.268393	-0.334301	1	
-0.337562	0.0547633	1	
-0.404541	0.126945	1	
-0.328307	0.16356	1	
-0.390033	0.0787983	0.902592	
0	-0.5	0.9	
0.0404524	-0.41072	1	
0	-0.5	1	
0.0704482	-0.495012	0.928155	
-0.257956	0.116321	1	
-0.26105	0.203399	1	
-0.18644	0.1823	1	
-0.215798	0.142373	0.897172	
0.210156	-0.0147965	1	
0.276476	0.0535537	1	
0.314271	-0.0501881	1	
0.257767	-0.0505632	0.898363	
0.0288165	-0.00472784	0.5	
0.000996857	-0.0833524	0.602223	
0.0654282	-0.0931162	0.5	
0.0786602	-0.0230096	0.587367	
0.342318	0.251665	0.5	
0.302987	0.308818	0.5	
0.266375	0.22043	0.5	
0.326633	0.237522	0.603331	
-0.490343	0.0977967	0.758774	
-0.470916	0.168043	0.699874	
-0.460548	0.194667	0.76567	
-0.391681	0.0802879	0.710436	
-0.415735	0.277785	1	
-0.386505	0.317197	0.931175	
-0.318983	0.261743	1	
-0.389036	0.207425	1	
-0.389036	0.207425	1	
-0.46194	0.191342	1	
-0.478555	0.144862	0.921652	
-0.404541	0.126945	1	
0.46194	-0.191342	1	
0.380207	-0.19708	1	
0.478555	-0.144862	0.921652	
0.436762	-0.243391	0.903062	
-0.194667	-0.460548	0.76567	
-0.0977967	-0.490343	0.758774	
-0.168043	-0.470916	0.699874	
-0.0966341	-0.368565	0.765144	
0	-0.5	0.5	
-0.0324158	-0.400449	0.5	
-0.0698189	-0.495101	0.572379	
0	-0.5	0.6	
-0.386792	-0.316847	0.801384	
-0.434698	-0.247057	0.749501	
-0.437078	-0.242822	0.847009	
-0.324368	-0.232384	0.754222	
-0.0854243	0.492649	0.748597	
-0.168734	0.470668	0.798219	
-0.174678	0.468495	0.682891	
-0.117277	0.364618	0.76936	
-0.400468	0.0439116	0.5	
-0.294862	0.0237806	0.5	
-0.316581	0.126747	0.5	
-0.373426	0.0982193	0.605831	
-0.0430682	0.437279	0.5	
-0.0975452	0.490393	0.5	
-0.145646	0.399141	0.5	
-0.0728232	0.494668	0.573541	
-0.0925337	-0.196451	1	
-0.186407	-0.169451	1	
-0.117671	-0.10197	1	
-0.136098	-0.178684	0.882811	
-0.0324158	-0.223672	0.5	
-0.137519	-0.208294	0.5	
-0.0690274	-0.312061	0.5	
-0.0945272	-0.266606	0.620808	
-0.261345	-0.230036	1	
-0.331361	-0.272953	1	
-0.356684	-0.19351	1	
-0.338	-0.218597	0.893416	
-0.286299	-0.264255	0.5	
-0.350907	-0.296683	0.5	
-0.262519	-0.333294	0.5	
-0.28318	-0.296642	0.616188	
-0.00743541	-0.147874	0.5	
0.0654282	-0.0931162	0.5	
-0.0293436	-0.0762152	0.5	
0.000996857	-0.0833524	0.602223	
0.388274	-0.315029	0.579193	
0.374193	-0.331632	0.665357	
0.415735	-0.277785	0.634138	
0.306527	-0.240421	0.616434	
-0.234034	0.185752	0.5	
-0.270646	0.274141	0.5	
-0.304559	0.211579	0.5	
-0.306859	0.249519	0.591577	
0.228991	0.444481	0.908099	
0.277785	0.415735	1	
0.202324	0.378521	1	
0.209258	0.343487	0.903692	
-0.318983	0.261743	1	
-0.26105	0.203399	1	
-0.328307	0.16356	1	
-0.311262	0.211476	0.883807	
-0.386498	-0.317206	0.700322	
-0.429146	-0.25658	0.66876	
-0.434698	-0.247057	0.749501	
-0.324368	-0.232384	0.754222	
-0.315029	-0.388274	0.579193	
-0.277785	-0.415735	0.5	
-0.262519	-0.333294	0.5	
-0.238488	-0.439458	0.575692	
-0.404541	0.126945	1	
-0.490393	0.0975452	1	
-0.495293	0.0684459	0.931403	
-0.426463	0.0441363	1	
0.242822	-0.437078	0.847009	
0.317233	-0.386476	0.909527	
0.316847	-0.386792	0.801384	
0.21926	-0.328264	0.896532	
0.0728232	-0.494668	0.573541	
0.0559726	-0.437061	0.5	
0	-0.5	0.6	
0.0409643	-0.389072	0.60666	
-0.0324158	-0.400449	0.5	
0	-0.5	0.5	
0.0559726	-0.437061	0.5	
0	-0.5	0.6	
0.276476	0.0535537	1	
0.184962	0.0799289	1	
0.247868	0.146306	1	
0.277593	0.0916628	0.90095	
0	0.5	0.9	
-0.0704482	0.495012	0.928155	
-0.0738147	0.390008	0.901946	
0.025786	0.402982	0.903855	
-0.16685	0.0883447	1	
-0.257956	0.116321	1	
-0.18644	0.1823	1	
-0.215798	0.142373	0.897172	
-0.114467	-0.386332	1	
-0.144862	-0.478555	0.921652	
-0.191342	-0.46194	1	
-0.203173	-0.373024	1	
-0.243391	-0.436762	0.903062	
-0.317197	-0.386505	0.931175	
-0.277785	-0.415735	1	
-0.203173	-0.373024	1	
0.470916	0.168043	0.800126	
0.490343	0.0977967	0.741226	
0.493012	0.0833019	0.844789	
0.37512	0.124368	0.792934	
0.337634	0.115561	1	
0.414991	0.0495125	1	
0.346509	0.0237889	1	
0.378621	0.110033	0.901946	
0.328092	0.270243	1	
0.353553	0.353553	1	
0.388274	0.315029	0.920807	
0.287646	0.277342	0.89815	
-0.46194	-0.191342	0.5	
-0.387519	-0.208294	0.5	
-0.425264	-0.131997	0.5	
-0.444481	-0.228991	0.591901	
-0.263582	-0.319413	1	
-0.277785	-0.415735	1	
-0.317197	-0.386505	0.931175	
-0.203173	-0.373024	1	
-0.214341	0.273759	1	
-0.26105	0.203399	1	
-0.318983	0.261743	1	
-0.265639	0.299346	0.905431	
-0.0807477	0.493437	0.845776	
0	0.5	0.9	
-0.0704482	0.495012	0.928155	
-0.0738147	0.390008	0.901946	
-0.316847	0.386792	0.801384	
-0.317206	0.386498	0.700322	
-0.247057	0.434698	0.749501	
-0.237468	0.305606	0.754243	
-0.386831	-0.3168	0.604097	
-0.387519	-0.208294	0.5	
-0.415735	-0.277785	0.5	
-0.444481	-0.228991	0.591901	
-0.386505	0.317197	0.931175	
-0.415735	0.277785	1	
-0.436762	0.243391	0.903062	
-0.389036	0.207425	1	
-0.0422582	-0.437473	1	
-0.114467	-0.386332	1	
-0.0684459	-0.495293	0.931403	
-0.0975452	-0.490393	1	
0.328092	0.270243	1	
0.300884	0.198715	1	
0.231243	0.24169	1	
0.287646	0.277342	0.89815	
-0.350907	-0.119906	0.5	
-0.42782	-0.0498056	0.5	
-0.425264	-0.131997	0.5	
-0.393057	-0.0716576	0.611801	
0.153328	0.47591	0.59237	
0.235698	0.440961	0.568569	
0.242822	0.437078	0.652991	
0.159673	0.344869	0.622089	
0.0975452	0.490393	1	
0.114055	0.374109	1	
0.0728232	0.494668	0.926459	
0.146853	0.477948	0.915992	
-0.478555	0.144862	0.921652	
-0.436762	0.243391	0.903062	
-0.46194	0.191342	1	
-0.389036	0.207425	1	
0.100517	-0.109754	0.630856	
0.0786602	-0.0230096	0.587367	
0.000996857	-0.0833524	0.602223	
0.0272687	-0.0505093	0.69136	
-0.153328	0.47591	0.90763	
-0.0704482	0.495012	0.928155	
-0.118932	0.39861	1	
-0.0738147	0.390008	0.901946	
-0.0704482	0.495012	0.928155	
0	0.5	0.9	
0	0.5	1	
-0.0372406	0.417791	1	
0.495293	-0.0684459	0.931403	
0.5	0	0.9	
0.493389	-0.0810399	0.85285	
0.397985	-0.0056	0.902207	
0.191342	-0.46194	0.5	
0.144361	-0.400449	0.5	
0.228991	-0.444481	0.591901	
0.213029	-0.381729	0.5	
0.266375	0.22043	0.5	
0.242026	0.154212	0.5	
0.315521	0.155675	0.5	
0.279002	0.143488	0.606802	
0.469721	-0.171353	0.838334	
0.460548	-0.194667	0.76567	
0.428195	-0.258165	0.798245	
0.371228	-0.144256	0.774162	
0	0.5	0.6	
-0.0430682	0.437279	0.5	
0	0.5	0.5	
0.0367592	0.441595	0.5	
-0.257956	0.116321	1	
-0.337562	0.0547633	1	
-0.328307	0.16356	1	
-0.277483	0.0617124	0.914802	
-0.0293436	-0.0762152	0.5	
0.0654282	-0.0931162	0.5	
0.0288165	-0.00472784	0.5	
0.000996857	-0.0833524	0.602223	
-0.168688	-0.281701	1	
-0.0925337	-0.196451	1	
-0.0638367	-0.295761	1	
-0.0781785	-0.271888	0.896904	
0.0420691	0.427134	1	
0	0.5	0.9	
0.0728232	0.494668	0.926459	
0.025786	0.402982	0.903855	
0.315521	0.155675	0.5	
0.242026	0.154212	0.5	
0.242205	0.0836605	0.5	
0.279002	0.143488	0.606802	
-0.0690274	-0.312061	0.5	
-0.137519	-0.208294	0.5	
-0.174131	-0.296683	0.5	
-0.0945272	-0.266606	0.620808	
0.476114	-0.152694	0.59754	
0.493012	-0.0833019	0.655211	
0.495101	-0.0698189	0.572379	
0.39042	-0.0433488	0.606813	
0.388274	0.315029	0.920807	
0.353553	0.353553	1	
0.3168	0.386831	0.895903	
0.287646	0.277342	0.89815	
-0.426463	0.0441363	1	
-0.5	0	1	
-0.495293	0.0684459	0.931403	
-0.5	0	0.9	
-0.5	0	0.9	
-0.5	0	0.8	
-0.493389	0.0810399	0.85285	
-0.404383	-0.0159907	0.861288	
0.409478	-0.032947	1	
0.314271	-0.0501881	1	
0.346509	0.0237889	1	
0.397985	-0.0056	0.902207	
0.0610361	-0.307238	0.685164	
0.0917349	-0.220895	0.740016	
-0.011467	-0.243815	0.75519	
0.0672081	-0.306462	0.784462	
0.174678	0.468495	0.817109	
0.168734	0.470668	0.701781	
0.247057	0.434698	0.750499	
0.162962	0.351618	0.758031	
-0.353553	-0.353553	0.5	
-0.315029	-0.388274	0.579193	
-0.262519	-0.333294	0.5	
-0.350907	-0.296683	0.5	
-0.469721	0.171353	0.838334	
-0.478555	0.144862	0.921652	
-0.493389	0.0810399	0.85285	
-0.390033	0.0787983	0.902592	
-0.404541	0.126945	1	
-0.495293	0.0684459	0.931403	
-0.478555	0.144862	0.921652	
-0.390033	0.0787983	0.902592	
-0.0319626	0.00109562	0.771489	
0.0272687	-0.0505093	0.69136	
-0.0648143	-0.0272529	0.665015	
0.00311865	0.0446609	0.692024	
0.436762	0.243391	0.596938	
0.342318	0.251665	0.5	
0.415735	0.277785	0.5	
0.388496	0.195371	0.5	
0.478555	-0.144862	0.921652	
0.380207	-0.19708	1	
0.46194	-0.191342	1	
0.394936	-0.119803	1	
-0.386476	-0.317233	0.909527	
-0.386792	-0.316847	0.801384	
-0.437078	-0.242822	0.847009	
-0.338	-0.218597	0.893416	
0.266375	0.22043	0.5	
0.315521	0.155675	0.5	
0.342318	0.251665	0.5	
0.326633	0.237522	0.603331	
-0.0975452	-0.490393	0.5	
-0.128733	-0.391758	0.5	
-0.152694	-0.476114	0.59754	
-0.0698189	-0.495101	0.572379	
0.114055	0.374109	1	
0.0153159	0.363557	1	
0.0420691	0.427134	1	
0.025786	0.402982	0.903855	
0.368263	0.0160059	0.5	
0.338823	-0.0848934	0.5	
0.428196	-0.0462647	0.5	
0.39042	-0.0433488	0.606813	
0.478555	0.144862	0.578348	
0.436762	0.243391	0.596938	
0.46194	0.191342	0.5	
0.388496	0.195371	0.5	
-0.278713	-0.14304	1	
-0.186407	-0.169451	1	
-0.261345	-0.230036	1	
-0.231631	-0.136254	0.90444	
-0.0684459	-0.495293	0.931403	
-0.144862	-0.478555	0.921652	
-0.114467	-0.386332	1	
-0.0832182	-0.39248	0.894675	
-0.128733	-0.391758	0.5	
-0.0975452	-0.490393	0.5	
-0.0324158	-0.400449	0.5	
-0.0698189	-0.495101	0.572379	
0.0704482	0.495012	0.571845	
0.0975452	0.490393	0.5	
0.153328	0.47591	0.59237	
0.0895983	0.397206	0.5	
0.108407	0.0140815	0.5	
0.0654282	0.0836605	0.5	
0.0288165	-0.00472784	0.5	
0.0913968	0.0719702	0.595778	
0.399086	0.112543	0.5	
0.439467	0.0432837	0.5	
0.495293	0.0684459	0.568597	
0.396694	0.0647464	0.588567	
0.470916	0.168043	0.800126	
0.460548	0.194667	0.73433	
0.490343	0.0977967	0.741226	
0.37512	0.124368	0.792934	
-0.376757	0.328716	0.753532	
-0.428195	0.258165	0.798245	
-0.4284	0.257824	0.704976	
-0.318622	0.246893	0.724741	
0.428195	0.258165	0.701755	
0.380873	0.323938	0.652261	
0.436762	0.243391	0.596938	
0.326633	0.237522	0.603331	
-0.137519	-0.208294	0.5	
-0.239764	-0.151909	0.5	
-0.228923	-0.22221	0.5	
-0.188154	-0.225182	0.596871	
0.342318	0.251665	0.5	
0.386505	0.317197	0.568825	
0.302987	0.308818	0.5	
0.326633	0.237522	0.603331	
0.5	0	0.6	
0.5	0	0.5	
0.495101	-0.0698189	0.572379	
0.428196	-0.0462647	0.5	
0.342318	0.251665	0.5	
0.436762	0.243391	0.596938	
0.386505	0.317197	0.568825	
0.326633	0.237522	0.603331	
0.228991	0.444481	0.908099	
0.3168	0.386831	0.895903	
0.277785	0.415735	1	
0.209258	0.343487	0.903692	
-0.237047	0.0201392	1	
-0.302044	-0.0506462	1	
-0.337562	0.0547633	1	
-0.277483	0.0617124	0.914802	
0.168734	-0.470668	0.798219	
0.174678	-0.468495	0.682891	
0.0854243	-0.492649	0.748597	
0.0978756	-0.400914	0.688925	
0.394936	-0.119803	1	
0.490393	-0.0975452	1	
0.495293	-0.0684459	0.931403	
0.409478	-0.032947	1	
-0.118932	0.39861	1	
-0.0704482	0.495012	0.928155	
-0.0975452	0.490393	1	
-0.0372406	0.417791	1	
0.0420691	0.427134	1	
0	0.5	0.9	
0	0.5	1	
0.0728232	0.494668	0.926459	
-0.335163	0.274889	0.5	
-0.270646	0.274141	0.5	
-0.295892	0.334394	0.5	
-0.306859	0.249519	0.591577	
-0.0324158	-0.400449	0.5	
1.21767e-05	-0.288281	0.5	
-0.0690274	-0.312061	0.5	
-0.000247605	-0.297629	0.606346	
0.493389	0.0810399	0.64715	
0.495293	0.0684459	0.568597	
0.5	0	0.6	
0.396694	0.0647464	0.588567	
0.146853	-0.477948	0.584008	
0.0814864	-0.493315	0.652319	
0.174678	-0.468495	0.682891	
0.0978756	-0.400914	0.688925	
-0.323938	-0.380873	0.847739	
-0.317197	-0.386505	0.931175	
-0.243391	-0.436762	0.903062	
-0.257866	-0.303129	0.891677	
0	-0.5	0.7	
0.0132695	-0.394263	0.743185	
0.0854243	-0.492649	0.748597	
0.0978756	-0.400914	0.688925	
-0.476114	0.152694	0.59754	
-0.493012	0.0833019	0.655211	
-0.495101	0.0698189	0.572379	
-0.373426	0.0982193	0.605831	
0.414991	0.0495125	1	
0.337634	0.115561	1	
0.414183	0.131147	1	
0.378621	0.110033	0.901946	
-0.221565	0.0908555	0.5	
-0.294862	0.0237806	0.5	
-0.209059	-0.00395244	0.5	
-0.264287	0.0818172	0.601453	
0.144361	-0.400449	0.5	
0.228991	-0.444481	0.591901	
0.146853	-0.477948	0.584008	
0.191342	-0.46194	0.5	
0.376757	-0.328716	0.753532	
0.316847	-0.386792	0.801384	
0.380873	-0.323938	0.847739	
0.264677	-0.291732	0.802046	
0.399086	0.112543	0.5	
0.478555	0.144862	0.578348	
0.46194	0.191342	0.5	
0.388496	0.195371	0.5	
0.470916	-0.168043	0.699874	
0.460548	-0.194667	0.76567	
0.490343	-0.0977967	0.758774	
0.371228	-0.144256	0.774162	
0.469721	-0.171353	0.838334	
0.490343	-0.0977967	0.758774	
0.460548	-0.194667	0.76567	
0.371228	-0.144256	0.774162	
-0.0422582	-0.437473	1	
0	-0.5	1	
-0.0684459	-0.495293	0.931403	
0	-0.5	0.9	
0.176571	0.0516571	0.5	
0.0654282	0.0836605	0.5	
0.108407	0.0140815	0.5	
0.0913968	0.0719702	0.595778	
-0.0975452	-0.490393	1	
-0.114467	-0.386332	1	
-0.0684459	-0.495293	0.931403	
-0.144862	-0.478555	0.921652	
-0.335163	0.274889	0.5	
-0.353553	0.353553	0.5	
-0.388274	0.315029	0.579193	
-0.295892	0.334394	0.5	
-0.114467	-0.386332	1	
-0.0328721	-0.370689	1	
-0.0422582	-0.437473	1	
-0.0832182	-0.39248	0.894675	
-0.400468	0.0439116	0.5	
-0.316581	0.126747	0.5	
-0.408839	0.131788	0.5	
-0.373426	0.0982193	0.605831	
0.478555	0.144862	0.578348	
0.399086	0.112543	0.5	
0.495293	0.0684459	0.568597	
0.396694	0.0647464	0.588567	
0.342318	0.251665	0.5	
0.415735	0.277785	0.5	
0.386505	0.317197	0.568825	
0.436762	0.243391	0.596938	
-0.478555	0.144862	0.921652	
-0.404541	0.126945	1	
-0.490393	0.0975452	1	
-0.495293	0.0684459	0.931403	
-0.386831	-0.3168	0.604097	
-0.386498	-0.317206	0.700322	
-0.331632	-0.374193	0.665357	
-0.28318	-0.296642	0.616188	
0.0728232	-0.494668	0.573541	
0	-0.5	0.6	
0.0814864	-0.493315	0.652319	
0.0409643	-0.389072	0.60666	
0.490393	0.0975452	1	
0.495101	0.0698189	0.927621	
0.414991	0.0495125	1	
0.414183	0.131147	1	
-0.0690274	-0.312061	0.5	
1.21767e-05	-0.288281	0.5	
-0.0324158	-0.223672	0.5	
-0.000247605	-0.297629	0.606346	
-0.494668	-0.0728232	0.573541	
-0.5	0	0.6	
-0.493315	-0.0814864	0.652319	
-0.393057	-0.0716576	0.611801	
0.0814864	-0.493315	0.652319	
0	-0.5	0.7	
0.0854243	-0.492649	0.748597	
0.0978756	-0.400914	0.688925	
0.490393	-0.0975452	1	
0.495293	-0.0684459	0.931403	
0.478555	-0.144862	0.921652	
0.394936	-0.119803	1	
-0.493012	0.0833019	0.655211	
-0.490343	0.0977967	0.758774	
-0.5	0	0.7	
-0.391681	0.0802879	0.710436	
0.328092	0.270243	1	
0.231243	0.24169	1	
0.261819	0.319027	1	
0.287646	0.277342	0.89815	
-0.386476	-0.317233	0.909527	
-0.317197	-0.386505	0.931175	
-0.323938	-0.380873	0.847739	
-0.257866	-0.303129	0.891677	
0.232997	-0.11062	1	
0.210156	-0.0147965	1	
0.314271	-0.0501881	1	
0.257767	-0.0505632	0.898363	
-0.353553	0.353553	0.5	
-0.3168	0.386831	0.604097	
-0.388274	0.315029	0.579193	
-0.295892	0.334394	0.5	
0.5	0	0.6	
0.495101	-0.0698189	0.572379	
0.493012	-0.0833019	0.655211	
0.39042	-0.0433488	0.606813	
-0.0704482	0.495012	0.928155	
-0.0975452	0.490393	1	
-0.153328	0.47591	0.90763	
-0.118932	0.39861	1	
-0.386505	0.317197	0.931175	
-0.380873	0.323938	0.847739	
-0.317233	0.386476	0.909527	
-0.265639	0.299346	0.905431	
0.495293	0.0684459	0.568597	
0.5	0	0.5	
0.5	0	0.6	
0.439467	0.0432837	0.5	
0.144361	-0.400449	0.5	
0.146853	-0.477948	0.584008	
0.0559726	-0.437061	0.5	
0.0975452	-0.490393	0.5	
0.476114	0.152694	0.90246	
0.493012	0.0833019	0.844789	
0.495101	0.0698189	0.927621	
0.378621	0.110033	0.901946	
0.0248177	-0.313374	1	
0.00183684	-0.222331	1	
0.0943468	-0.245334	1	
0.054972	-0.274643	0.900622	
0.324205	0.0779192	0.5	
0.242205	0.0836605	0.5	
0.278817	-0.00472784	0.5	
0.243096	0.0493866	0.595389	
-0.0372406	0.417791	1	
-0.0555676	0.325574	1	
-0.118932	0.39861	1	
-0.0738147	0.390008	0.901946	
0.0559726	-0.437061	0.5	
0.0420567	-0.345657	0.5	
-0.0324158	-0.400449	0.5	
0.0409643	-0.389072	0.60666	
-0.355295	-0.0330772	0.5	
-0.42782	-0.0498056	0.5	
-0.350907	-0.119906	0.5	
-0.393057	-0.0716576	0.611801	
0.0975452	-0.490393	1	
0.0404524	-0.41072	1	
0.125573	-0.41396	1	
0.0704482	-0.495012	0.928155	
-0.495101	0.0698189	0.572379	
-0.400468	0.0439116	0.5	
-0.490393	0.0975452	0.5	
-0.408839	0.131788	0.5	
-0.4284	0.257824	0.704976	
-0.374193	0.331632	0.665357	
-0.376757	0.328716	0.753532	
-0.318622	0.246893	0.724741	
-0.386792	-0.316847	0.801384	
-0.386498	-0.317206	0.700322	
-0.434698	-0.247057	0.749501	
-0.324368	-0.232384	0.754222	
-0.5	0	0.5	
-0.5	0	0.6	
-0.494668	-0.0728232	0.573541	
-0.42782	-0.0498056	0.5	
0.0704482	0.495012	0.571845	
0.0367592	0.441595	0.5	
0.0975452	0.490393	0.5	
0.0895983	0.397206	0.5	
-0.277785	-0.415735	0.634138	
-0.315029	-0.388274	0.579193	
-0.331632	-0.374193	0.665357	
-0.28318	-0.296642	0.616188	
0.0401436	0.291204	1	
0.0651412	0.200096	1	
-0.0295403	0.225144	1	
0.0166107	0.245601	0.898079	
-0.408839	0.131788	0.5	
-0.490393	0.0975452	0.5	
-0.495101	0.0698189	0.572379	
-0.476114	0.152694	0.59754	
-0.273315	0.334955	1	
-0.214341	0.273759	1	
-0.318983	0.261743	1	
-0.265639	0.299346	0.905431	
0.0747819	-0.266651	0.5	
0.144361	-0.223672	0.5	
0.0559726	-0.187061	0.5	
0.0957286	-0.225187	0.608184	
0.414183	0.131147	1	
0.490393	0.0975452	1	
0.495101	0.0698189	0.927621	
0.476114	0.152694	0.90246	
-0.387519	-0.208294	0.5	
-0.350907	-0.119906	0.5	
-0.425264	-0.131997	0.5	
-0.358854	-0.187212	0.601126	
0.187412	-0.0186436	0.5	
0.278817	-0.00472784	0.5	
0.176571	0.0516571	0.5	
0.243096	0.0493866	0.595389	
0.0654282	0.0836605	0.5	
0.153817	0.120272	0.5	
0.0897768	0.149878	0.5	
0.0913968	0.0719702	0.595778	
0.176571	0.0516571	0.5	
0.153817	0.120272	0.5	
0.0654282	0.0836605	0.5	
0.0913968	0.0719702	0.595778	
-0.171353	-0.469721	0.838334	
-0.144862	-0.478555	0.921652	
-0.0810399	-0.493389	0.85285	
-0.0832182	-0.39248	0.894675	
0.0943468	-0.245334	1	
0.0712814	-0.153152	1	
0.164797	-0.177585	1	
0.0968003	-0.179614	0.902873	
0.112799	-0.33356	1	
0.0248177	-0.313374	1	
0.0943468	-0.245334	1	
0.054972	-0.274643	0.900622	
-0.122891	0.330526	0.5	
-0.191056	0.29295	0.5	
-0.11205	0.260225	0.5	
-0.136825	0.25987	0.596211	
-0.350907	-0.296683	0.5	
-0.353553	-0.353553	0.5	
-0.315029	-0.388274	0.579193	
-0.386831	-0.3168	0.604097	
0.0897768	0.149878	0.5	
0.177987	0.183818	0.5	
0.0895983	0.22043	0.5	
0.13133	0.218843	0.607259	
0.212642	-0.171195	0.5	
0.242205	-0.0931162	0.5	
0.153817	-0.129728	0.5	
0.231926	-0.137602	0.598516	
0.276476	0.0535537	1	
0.247868	0.146306	1	
0.337634	0.115561	1	
0.277593	0.0916628	0.90095	
0.399086	0.112543	0.5	
0.490393	0.0975452	0.5	
0.495293	0.0684459	0.568597	
0.439467	0.0432837	0.5	
-0.0734441	0.0616893	1	
-0.048473	-0.0328568	1	
-0.142648	-0.00714059	1	
-0.0877381	0.00876541	0.911432	
0.153328	0.47591	0.59237	
0.0975452	0.490393	0.5	
0.177987	0.433818	0.5	
0.0895983	0.397206	0.5	
0.3168	-0.386831	0.604097	
0.317206	-0.386498	0.700322	
0.374193	-0.331632	0.665357	
0.253502	-0.311953	0.668431	
-0.401548	-0.0423374	1	
-0.41072	-0.12459	1	
-0.490393	-0.0975452	1	
-0.495012	-0.0704482	0.928155	
0.201164	-0.273578	1	
0.268393	-0.334301	1	
0.194604	-0.371188	1	
0.21926	-0.328264	0.896532	
0	0.5	0.5	
0	0.5	0.6	
0.0367592	0.441595	0.5	
0.0704482	0.495012	0.571845	
-0.495012	-0.0704482	0.928155	
-0.493437	-0.0807477	0.845776	
-0.5	0	0.9	
-0.404383	-0.0159907	0.861288	
0.146853	-0.477948	0.584008	
0.0728232	-0.494668	0.573541	
0.0559726	-0.437061	0.5	
0.0975452	-0.490393	0.5	
0.261819	0.319027	1	
0.3168	0.386831	0.895903	
0.277785	0.415735	1	
0.353553	0.353553	1	
-0.3168	0.386831	0.604097	
-0.277785	0.415735	0.5	
-0.234034	0.362529	0.5	
-0.295892	0.334394	0.5	
-0.239764	-0.151909	0.5	
-0.137519	-0.208294	0.5	
-0.174131	-0.119906	0.5	
-0.188154	-0.225182	0.596871	
-0.146853	0.477948	0.584008	
-0.191342	0.46194	0.5	
-0.145646	0.399141	0.5	
-0.228991	0.444481	0.591901	
-0.0505573	-0.00469477	0.5	
-0.122627	0.0544512	0.5	
-0.120671	-0.0405641	0.5	
-0.125208	0.0156787	0.594569	
-0.41072	-0.12459	1	
-0.490393	-0.0975452	1	
-0.495012	-0.0704482	0.928155	
-0.47591	-0.153328	0.90763	
-0.228991	0.444481	0.591901	
-0.277785	0.415735	0.5	
-0.234034	0.362529	0.5	
-0.3168	0.386831	0.604097	
0.3168	0.386831	0.895903	
0.374193	0.331632	0.834643	
0.388274	0.315029	0.920807	
0.287646	0.277342	0.89815	
-0.234034	0.362529	0.5	
-0.145646	0.399141	0.5	
-0.191342	0.46194	0.5	
-0.228991	0.444481	0.591901	
0.235698	-0.440961	0.931431	
0.317233	-0.386476	0.909527	
0.242822	-0.437078	0.847009	
0.21926	-0.328264	0.896532	
-0.186407	-0.169451	1	
-0.278713	-0.14304	1	
-0.211369	-0.0761151	1	
-0.231631	-0.136254	0.90444	
0.164071	0.275222	0.5	
0.0895983	0.22043	0.5	
0.177987	0.183818	0.5	
0.13133	0.218843	0.607259	
0.3168	0.386831	0.895903	
0.228991	0.444481	0.908099	
0.25658	0.429146	0.83124	
0.209258	0.343487	0.903692	
0.493389	0.0810399	0.64715	
0.478555	0.144862	0.578348	
0.495293	0.0684459	0.568597	
0.396694	0.0647464	0.588567	
0	-0.5	0.8	
0.0854243	-0.492649	0.748597	
0	-0.5	0.7	
0.0132695	-0.394263	0.743185	
-0.316581	0.126747	0.5	
-0.294862	0.0237806	0.5	
-0.221565	0.0908555	0.5	
-0.264287	0.0818172	0.601453	
0.476114	-0.152694	0.59754	
0.415496	-0.123332	0.5	
0.495101	-0.0698189	0.572379	
0.490393	-0.0975452	0.5	
-0.5	0	0.9	
-0.493437	-0.0807477	0.845776	
-0.5	0	0.8	
-0.404383	-0.0159907	0.861288	
0.125573	-0.41396	1	
0.153328	-0.47591	0.90763	
0.0975452	-0.490393	1	
0.0704482	-0.495012	0.928155	
-0.337562	0.0547633	1	
-0.426463	0.0441363	1	
-0.404541	0.126945	1	
-0.390033	0.0787983	0.902592	
0.3168	-0.386831	0.604097	
0.25658	-0.429146	0.66876	
0.317206	-0.386498	0.700322	
0.253502	-0.311953	0.668431	
-0.122891	0.330526	0.5	
-0.0572576	0.362529	0.5	
-0.145646	0.399141	0.5	
-0.112546	0.368373	0.611308	
-0.478555	0.144862	0.921652	
-0.495293	0.0684459	0.931403	
-0.493389	0.0810399	0.85285	
-0.390033	0.0787983	0.902592	
0	-0.5	0.6	
0	-0.5	0.5	
0.0559726	-0.437061	0.5	
0.0728232	-0.494668	0.573541	
0.146853	0.477948	0.915992	
0.0975452	0.490393	1	
0.114055	0.374109	1	
0.191342	0.46194	1	
-0.0372406	0.417791	1	
0.0420691	0.427134	1	
0.0153159	0.363557	1	
0.025786	0.402982	0.903855	
-0.470916	0.168043	0.699874	
-0.490343	0.0977967	0.758774	
-0.493012	0.0833019	0.655211	
-0.391681	0.0802879	0.710436	
0.490393	-0.0975452	0.5	
0.415496	-0.123332	0.5	
0.495101	-0.0698189	0.572379	
0.428196	-0.0462647	0.5	
0.267645	-0.326424	0.5	
0.353553	-0.353553	0.5	
0.3168	-0.386831	0.604097	
0.277785	-0.415735	0.5	
-0.5	0	0.8	
-0.492649	-0.0854243	0.748597	
-0.5	0	0.7	
-0.39411	-0.0165863	0.757409	
-0.191342	0.46194	1	
-0.153328	0.47591	0.90763	
-0.0975452	0.490393	1	
-0.118932	0.39861	1	
0.176571	0.0516571	0.5	
0.278817	-0.00472784	0.5	
0.242205	0.0836605	0.5	
0.243096	0.0493866	0.595389	
0.495293	0.0684459	0.568597	
0.478555	0.144862	0.578348	
0.490393	0.0975452	0.5	
0.399086	0.112543	0.5	
-0.122627	0.0544512	0.5	
-0.209059	-0.00395244	0.5	
-0.120671	-0.0405641	0.5	
-0.125208	0.0156787	0.594569	
-0.169426	0.21818	0.5	
-0.234034	0.185752	0.5	
-0.145646	0.149141	0.5	
-0.203341	0.186445	0.603634	
0.108407	0.0140815	0.5	
0.0288165	-0.00472784	0.5	
0.130037	-0.0606882	0.5	
0.0786602	-0.0230096	0.587367	
0.0728232	0.494668	0.926459	
0	0.5	0.9	
0.0814864	0.493315	0.847681	
0.025786	0.402982	0.903855	
0.202324	0.378521	1	
0.261819	0.319027	1	
0.189613	0.313662	1	
0.209258	0.343487	0.903692	
-0.153328	0.47591	0.90763	
-0.0807477	0.493437	0.845776	
-0.0704482	0.495012	0.928155	
-0.0738147	0.390008	0.901946	
-0.0975452	-0.490393	0.5	
-0.128733	-0.391758	0.5	
-0.191342	-0.46194	0.5	
-0.152694	-0.476114	0.59754	
-0.191056	0.29295	0.5	
-0.169426	0.21818	0.5	
-0.11205	0.260225	0.5	
-0.136825	0.25987	0.596211	
-0.494668	-0.0728232	0.573541	
-0.425264	-0.131997	0.5	
-0.490393	-0.0975452	0.5	
-0.42782	-0.0498056	0.5	
0.0704482	-0.495012	0.928155	
0.0807477	-0.493437	0.845776	
0	-0.5	0.9	
0.032794	-0.401349	0.896695	
0.414991	0.0495125	1	
0.409478	-0.032947	1	
0.346509	0.0237889	1	
0.397985	-0.0056	0.902207	
0.386505	0.317197	0.568825	
0.353553	0.353553	0.5	
0.302987	0.308818	0.5	
0.317233	0.386476	0.590473	
-0.415735	-0.277785	1	
-0.386476	-0.317233	0.909527	
-0.331361	-0.272953	1	
-0.353553	-0.353553	1	
-0.440961	-0.235698	0.931431	
-0.386476	-0.317233	0.909527	
-0.437078	-0.242822	0.847009	
-0.338	-0.218597	0.893416	
0.380207	-0.19708	1	
0.46194	-0.191342	1	
0.415735	-0.277785	1	
0.436762	-0.243391	0.903062	
-0.494668	-0.0728232	0.573541	
-0.493315	-0.0814864	0.652319	
-0.477948	-0.146853	0.584008	
-0.393057	-0.0716576	0.611801	
0.245477	-0.191651	1	
0.164797	-0.177585	1	
0.232997	-0.11062	1	
0.208315	-0.166389	0.905666	
0.212642	-0.171195	0.5	
0.284773	-0.165822	0.5	
0.242205	-0.0931162	0.5	
0.231926	-0.137602	0.598516	
-0.0810399	-0.493389	0.85285	
-0.144862	-0.478555	0.921652	
-0.0684459	-0.495293	0.931403	
-0.0832182	-0.39248	0.894675	
0.490393	0.0975452	1	
0.414183	0.131147	1	
0.46194	0.191342	1	
0.476114	0.152694	0.90246	
0.368263	0.0160059	0.5	
0.399086	0.112543	0.5	
0.324205	0.0779192	0.5	
0.396694	0.0647464	0.588567	
0.386505	0.317197	0.568825	
0.436762	0.243391	0.596938	
0.380873	0.323938	0.652261	
0.326633	0.237522	0.603331	
0	0.5	0.5	
-0.0430682	0.437279	0.5	
0	0.5	0.6	
-0.0728232	0.494668	0.573541	
-0.243391	-0.436762	0.903062	
-0.277785	-0.415735	1	
-0.191342	-0.46194	1	
-0.203173	-0.373024	1	
0.415496	-0.123332	0.5	
0.476114	-0.152694	0.59754	
0.46194	-0.191342	0.5	
0.490393	-0.0975452	0.5	
0.490393	-0.0975452	1	
0.5	0	1	
0.495293	-0.0684459	0.931403	
0.409478	-0.032947	1	
0.353553	-0.353553	1	
0.317233	-0.386476	0.909527	
0.277785	-0.415735	1	
0.268393	-0.334301	1	
-0.353553	0.353553	1	
-0.273315	0.334955	1	
-0.317233	0.386476	0.909527	
-0.277785	0.415735	1	
0.130037	-0.0606882	0.5	
0.0288165	-0.00472784	0.5	
0.0654282	-0.0931162	0.5	
0.0786602	-0.0230096	0.587367	
-0.46194	0.191342	0.5	
-0.490393	0.0975452	0.5	
-0.408839	0.131788	0.5	
-0.476114	0.152694	0.59754	
0.0975452	-0.490393	0.5	
0.144361	-0.400449	0.5	
0.146853	-0.477948	0.584008	
0.191342	-0.46194	0.5	
0.415735	0.277785	0.5	
0.46194	0.191342	0.5	
0.436762	0.243391	0.596938	
0.388496	0.195371	0.5	
-0.228923	-0.22221	0.5	
-0.174131	-0.296683	0.5	
-0.137519	-0.208294	0.5	
-0.188154	-0.225182	0.596871	
-0.0324158	-0.400449	0.5	
-0.0975452	-0.490393	0.5	
0	-0.5	0.5	
-0.0698189	-0.495101	0.572379	
0.191342	-0.46194	1	
0.153328	-0.47591	0.90763	
0.0975452	-0.490393	1	
0.125573	-0.41396	1	
-0.477948	-0.146853	0.584008	
-0.425264	-0.131997	0.5	
-0.490393	-0.0975452	0.5	
-0.494668	-0.0728232	0.573541	
0.399086	0.112543	0.5	
0.368263	0.0160059	0.5	
0.439467	0.0432837	0.5	
0.396694	0.0647464	0.588567	
-0.46194	-0.191342	1	
-0.440961	-0.235698	0.931431	
-0.356684	-0.19351	1	
-0.415735	-0.277785	1	
-0.353553	0.353553	0.5	
-0.277785	0.415735	0.5	
-0.3168	0.386831	0.604097	
-0.295892	0.334394	0.5	
-0.387519	-0.208294	0.5	
-0.307929	-0.189485	0.5	
-0.350907	-0.119906	0.5	
-0.358854	-0.187212	0.601126	
-0.41072	-0.12459	1	
-0.490393	-0.0975452	1	
-0.47591	-0.153328	0.90763	
-0.46194	-0.191342	1	
0.46194	0.191342	1	
0.439458	0.238488	0.924308	
0.373926	0.198925	1	
0.415735	0.277785	1	
0.228991	-0.444481	0.591901	
0.191342	-0.46194	0.5	
0.213029	-0.381729	0.5	
0.277785	-0.415735	0.5	
-0.5	0	1	
-0.401548	-0.0423374	1	
-0.490393	-0.0975452	1	
-0.495012	-0.0704482	0.928155	
-0.315029	-0.388274	0.579193	
-0.386831	-0.3168	0.604097	
-0.331632	-0.374193	0.665357	
-0.28318	-0.296642	0.616188	
-0.337562	0.0547633	1	
-0.257956	0.116321	1	
-0.237047	0.0201392	1	
-0.277483	0.0617124	0.914802	
0.46194	-0.191342	0.5	
0.439458	-0.238488	0.575692	
0.366699	-0.192277	0.5	
0.415735	-0.277785	0.5	
0.0814864	-0.493315	0.652319	
0.0854243	-0.492649	0.748597	
0.174678	-0.468495	0.682891	
0.0978756	-0.400914	0.688925	
0.0404524	-0.41072	1	
0.0975452	-0.490393	1	
0	-0.5	1	
0.0704482	-0.495012	0.928155	
-0.46194	0.191342	1	
-0.436762	0.243391	0.903062	
-0.415735	0.277785	1	
-0.389036	0.207425	1	
-0.439458	0.238488	0.575692	
-0.46194	0.191342	0.5	
-0.415735	0.277785	0.5	
-0.374813	0.199394	0.5	
-0.490393	0.0975452	0.5	
-0.5	0	0.5	
-0.400468	0.0439116	0.5	
-0.495101	0.0698189	0.572379	
-0.350907	-0.296683	0.5	
-0.415735	-0.277785	0.5	
-0.353553	-0.353553	0.5	
-0.386831	-0.3168	0.604097	
-0.144862	-0.478555	0.921652	
-0.0975452	-0.490393	1	
-0.114467	-0.386332	1	
-0.191342	-0.46194	1	
-0.145646	0.399141	0.5	
-0.0975452	0.490393	0.5	
-0.191342	0.46194	0.5	
-0.146853	0.477948	0.584008	
-0.0704482	0.495012	0.928155	
0	0.5	1	
-0.0975452	0.490393	1	
-0.0372406	0.417791	1	
0.353553	-0.353553	1	
0.314857	-0.257449	1	
0.415735	-0.277785	1	
0.386505	-0.317197	0.931175	
-0.234034	0.362529	0.5	
-0.191342	0.46194	0.5	
-0.277785	0.415735	0.5	
-0.228991	0.444481	0.591901	
0.202324	0.378521	1	
0.228991	0.444481	0.908099	
0.191342	0.46194	1	
0.277785	0.415735	1	
0.495101	0.0698189	0.927621	
0.414991	0.0495125	1	
0.5	0	1	
0.490393	0.0975452	1	
-0.386505	0.317197	0.931175	
-0.318983	0.261743	1	
-0.353553	0.353553	1	
-0.415735	0.277785	1	
-0.277785	-0.415735	1	
-0.353553	-0.353553	1	
-0.263582	-0.319413	1	
-0.317197	-0.386505	0.931175	
0.317233	0.386476	0.590473	
0.353553	0.353553	0.5	
0.302987	0.308818	0.5	
0.266375	0.397206	0.5	
0.490393	-0.0975452	1	
0.478555	-0.144862	0.921652	
0.46194	-0.191342	1	
0.394936	-0.119803	1	
0.324956	-0.262938	0.5	
0.415735	-0.277785	0.5	
0.388274	-0.315029	0.579193	
0.353553	-0.353553	0.5	
0.191342	-0.46194	1	
0.235698	-0.440961	0.931431	
0.194604	-0.371188	1	
0.277785	-0.415735	1	
-0.495293	0.0684459	0.931403	
-0.490393	0.0975452	1	
-0.5	0	1	
-0.426463	0.0441363	1	
-0.46194	-0.191342	0.5	
-0.425264	-0.131997	0.5	
-0.490393	-0.0975452	0.5	
-0.477948	-0.146853	0.584008	
-0.270646	0.274141	0.5	
-0.335163	0.274889	0.5	
-0.304559	0.211579	0.5	
-0.306859	0.249519	0.591577	
-0.235698	0.440961	0.931431	
-0.191342	0.46194	1	
-0.277785	0.415735	1	
-0.201912	0.369986	1	
0.177987	0.433818	0.5	
0.235698	0.440961	0.568569	
0.196796	0.354228	0.5	
0.266375	0.397206	0.5	
0.46194	0.191342	0.5	
0.490393	0.0975452	0.5	
0.478555	0.144862	0.578348	
0.399086	0.112543	0.5	
-0.388274	0.315029	0.579193	
-0.415735	0.277785	0.5	
-0.353553	0.353553	0.5	
-0.335163	0.274889	0.5	
-0.315029	-0.388274	0.579193	
-0.262519	-0.333294	0.5	
-0.277785	-0.415735	0.5	
-0.353553	-0.353553	0.5	
-0.404541	0.126945	1	
-0.46194	0.191342	1	
-0.478555	0.144862	0.921652	
-0.490393	0.0975452	1	
0.415735	0.277785	1	
0.388274	0.315029	0.920807	
0.328092	0.270243	1	
0.353553	0.353553	1	
0.0728232	0.494668	0.926459	
0	0.5	1	
0.0420691	0.427134	1	
0.0975452	0.490393	1	
0.0367592	0.441595	0.5	
0.0975452	0.490393	0.5	
0	0.5	0.5	
0.0704482	0.495012	0.571845	
0.302987	0.308818	0.5	
0.353553	0.353553	0.5	
0.386505	0.317197	0.568825	
0.342318	0.251665	0.5	
0.495101	-0.0698189	0.572379	
0.5	0	0.5	
0.490393	-0.0975452	0.5	
0.428196	-0.0462647	0.5	
-0.0422582	-0.437473	1	
-0.0684459	-0.495293	0.931403	
0	-0.5	1	
-0.0975452	-0.490393	1	
0.0975452	0.490393	0.5	
0.177987	0.433818	0.5	
0.191342	0.46194	0.5	
0.153328	0.47591	0.59237	
-0.207198	-0.382494	0.5	
-0.238488	-0.439458	0.575692	
-0.277785	-0.415735	0.5	
-0.191342	-0.46194	0.5	
-0.46194	-0.191342	0.5	
-0.415735	-0.277785	0.5	
-0.387519	-0.208294	0.5	
-0.444481	-0.228991	0.591901	
0.386505	0.317197	0.568825	
0.353553	0.353553	0.5	
0.415735	0.277785	0.5	
0.342318	0.251665	0.5	
-0.494668	-0.0728232	0.573541	
-0.490393	-0.0975452	0.5	
-0.5	0	0.5	
-0.42782	-0.0498056	0.5	
0.495293	0.0684459	0.568597	
0.490393	0.0975452	0.5	
0.5	0	0.5	
0.439467	0.0432837	0.5	
-0.0430682	0.437279	0.5	
0	0.5	0.5	
-0.0975452	0.490393	0.5	
-0.0728232	0.494668	0.573541	
0.0728232	-0.494668	0.573541	
0	-0.5	0.5	
0.0559726	-0.437061	0.5	
0.0975452	-0.490393	0.5	
0.153328	0.47591	0.59237	
0.177987	0.433818	0.5	
0.191342	0.46194	0.5	
0.235698	0.440961	0.568569	
0.317233	0.386476	0.590473	
0.277785	0.415735	0.5	
0.353553	0.353553	0.5	
0.266375	0.397206	0.5	
0.235698	0.440961	0.568569	
0.277785	0.415735	0.5	
0.317233	0.386476	0.590473	
0.266375	0.397206	0.5	
0.235698	0.440961	0.568569	
0.177987	0.433818	0.5	
0.191342	0.46194	0.5	
0.266375	0.397206	0.5	
0.191342	0.46194	0.5	
0.277785	0.415735	0.5	
0.235698	0.440961	0.568569	
0.266375	0.397206	0.5	
-0.215798	0.142373	0.897172	
-0.119993	0.246691	1	
-0.0983601	0.156434	1	
-0.0802187	0.199602	0.860073	
-0.215798	0.142373	0.897172	
-0.0983601	0.156434	1	
-0.119993	0.246691	1	
-0.18644	0.1823	1	
0.000996857	-0.0833524	0.602223	
-0.125208	0.0156787	0.594569	
-0.170863	-0.122482	0.63474	
-0.0648143	-0.0272529	0.665015	
-0.170863	-0.122482	0.63474	
-0.125208	0.0156787	0.594569	
0.000996857	-0.0833524	0.602223	
-0.120671	-0.0405641	0.5	
-0.203341	0.186445	0.603634	
-0.224577	0.189906	0.793765	
-0.157178	0.100595	0.650339	
-0.128722	0.176827	0.731598	
-0.203341	0.186445	0.603634	
-0.157178	0.100595	0.650339	
-0.224577	0.189906	0.793765	
-0.298046	0.172945	0.653946	
-0.224391	0.0726716	0.751498	
-0.157178	0.100595	0.650339	
-0.224577	0.189906	0.793765	
-0.128722	0.176827	0.731598	
-0.224391	0.0726716	0.751498	
-0.224577	0.189906	0.793765	
-0.157178	0.100595	0.650339	
-0.298046	0.172945	0.653946	
-0.277483	0.0617124	0.914802	
-0.34489	-0.101074	0.850415	
-0.322193	0.044739	0.823506	
-0.227279	-0.033891	0.874484	
-0.277483	0.0617124	0.914802	
-0.322193	0.044739	0.823506	
-0.34489	-0.101074	0.850415	
-0.404383	-0.0159907	0.861288	
0.195469	0.159954	0.886309	
0.100339	0.12014	0.738531	
0.157953	0.210834	0.75219	
0.218846	0.121291	0.749847	
0.195469	0.159954	0.886309	
0.157953	0.210834	0.75219	
0.100339	0.12014	0.738531	
0.079088	0.165847	0.846387	
-0.307929	-0.189485	0.5	
-0.188154	-0.225182	0.596871	
-0.28318	-0.296642	0.616188	
-0.228923	-0.22221	0.5	
-0.28318	-0.296642	0.616188	
-0.188154	-0.225182	0.596871	
-0.307929	-0.189485	0.5	
-0.267995	-0.204807	0.662178	
-0.490343	0.0977967	0.758774	
-0.390033	0.0787983	0.902592	
-0.469721	0.171353	0.838334	
-0.493389	0.0810399	0.85285	
-0.469721	0.171353	0.838334	
-0.390033	0.0787983	0.902592	
-0.490343	0.0977967	0.758774	
-0.342082	0.155488	0.769444	
-0.404383	-0.0159907	0.861288	
-0.390033	0.0787983	0.902592	
-0.39411	-0.0165863	0.757409	
-0.493389	0.0810399	0.85285	
-0.404383	-0.0159907	0.861288	
-0.39411	-0.0165863	0.757409	
-0.390033	0.0787983	0.902592	
-0.322193	0.044739	0.823506	
-0.490343	0.0977967	0.758774	
-0.39411	-0.0165863	0.757409	
-0.390033	0.0787983	0.902592	
-0.493389	0.0810399	0.85285	
-0.490343	0.0977967	0.758774	
-0.390033	0.0787983	0.902592	
-0.39411	-0.0165863	0.757409	
-0.322193	0.044739	0.823506	
0.326633	0.237522	0.603331	
0.478555	0.144862	0.578348	
0.469721	0.171353	0.661666	
0.396694	0.0647464	0.588567	
0.326633	0.237522	0.603331	
0.469721	0.171353	0.661666	
0.478555	0.144862	0.578348	
0.436762	0.243391	0.596938	
0.309938	-0.217964	0.736716	
0.450285	-0.217356	0.644698	
0.371228	-0.144256	0.774162	
0.4284	-0.257824	0.704976	
0.309938	-0.217964	0.736716	
0.371228	-0.144256	0.774162	
0.450285	-0.217356	0.644698	
0.326691	-0.12898	0.644897	
0.470916	-0.168043	0.699874	
0.371228	-0.144256	0.774162	
0.450285	-0.217356	0.644698	
0.4284	-0.257824	0.704976	
0.470916	-0.168043	0.699874	
0.450285	-0.217356	0.644698	
0.371228	-0.144256	0.774162	
0.326691	-0.12898	0.644897	
-0.450285	0.217356	0.644698	
-0.391681	0.0802879	0.710436	
-0.342082	0.155488	0.769444	
-0.470916	0.168043	0.699874	
-0.342082	0.155488	0.769444	
-0.391681	0.0802879	0.710436	
-0.450285	0.217356	0.644698	
-0.298046	0.172945	0.653946	
0.000996857	-0.0833524	0.602223	
0.00311865	0.0446609	0.692024	
-0.0470393	0.078068	0.615792	
-0.0648143	-0.0272529	0.665015	
-0.0470393	0.078068	0.615792	
0.00311865	0.0446609	0.692024	
0.000996857	-0.0833524	0.602223	
0.0786602	-0.0230096	0.587367	
0.243096	0.0493866	0.595389	
0.0954521	0.018975	0.675961	
0.192412	0.00177767	0.748671	
0.171794	0.11325	0.628738	
0.243096	0.0493866	0.595389	
0.192412	0.00177767	0.748671	
0.0954521	0.018975	0.675961	
0.217579	-0.0397687	0.636314	
-0.00106225	0.370203	0.65	
0.0367592	0.441595	0.5	
-0.0430682	0.437279	0.5	
0	0.5	0.6	
-0.00106225	0.370203	0.65	
-0.0430682	0.437279	0.5	
0.0367592	0.441595	0.5	
0.0172234	0.375408	0.5	
0.195469	0.159954	0.886309	
0.0922358	0.267303	0.814992	
0.157953	0.210834	0.75219	
0.079088	0.165847	0.846387	
0.157953	0.210834	0.75219	
0.0922358	0.267303	0.814992	
0.195469	0.159954	0.886309	
0.198678	0.268409	0.834396	
-0.324368	-0.232384	0.754222	
-0.328716	-0.376757	0.753532	
-0.323938	-0.380873	0.847739	
-0.386792	-0.316847	0.801384	
-0.324368	-0.232384	0.754222	
-0.323938	-0.380873	0.847739	
-0.328716	-0.376757	0.753532	
-0.239357	-0.30005	0.729626	
-0.231631	-0.136254	0.90444	
-0.0780607	-0.0724308	0.84691	
-0.209296	-0.0687964	0.747015	
-0.227279	-0.033891	0.874484	
-0.231631	-0.136254	0.90444	
-0.209296	-0.0687964	0.747015	
-0.0780607	-0.0724308	0.84691	
-0.136098	-0.178684	0.882811	
-0.231631	-0.136254	0.90444	
-0.344127	-0.112227	1	
-0.338	-0.218597	0.893416	
-0.278713	-0.14304	1	
-0.231631	-0.136254	0.90444	
-0.338	-0.218597	0.893416	
-0.344127	-0.112227	1	
-0.34489	-0.101074	0.850415	
0.000715258	0.25479	0.628643	
-0.0572576	0.362529	0.5	
0.0172234	0.375408	0.5	
-0.0206459	0.274141	0.5	
0.000715258	0.25479	0.628643	
0.0172234	0.375408	0.5	
-0.0572576	0.362529	0.5	
-0.00106225	0.370203	0.65	
0.000996857	-0.0833524	0.602223	
-0.125208	0.0156787	0.594569	
-0.0470393	0.078068	0.615792	
-0.0505573	-0.00469477	0.5	
-0.0470393	0.078068	0.615792	
-0.125208	0.0156787	0.594569	
0.000996857	-0.0833524	0.602223	
-0.0648143	-0.0272529	0.665015	
-0.128722	0.176827	0.731598	
-0.136825	0.25987	0.596211	
-0.225501	0.288034	0.633154	
-0.0988881	0.278177	0.686189	
-0.225501	0.288034	0.633154	
-0.136825	0.25987	0.596211	
-0.128722	0.176827	0.731598	
-0.203341	0.186445	0.603634	
-0.306859	0.249519	0.591577	
-0.298046	0.172945	0.653946	
-0.234034	0.185752	0.5	
-0.203341	0.186445	0.603634	
-0.316581	0.126747	0.5	
-0.234034	0.185752	0.5	
-0.298046	0.172945	0.653946	
-0.203341	0.186445	0.603634	
-0.264287	0.0818172	0.601453	
-0.391681	0.0802879	0.710436	
-0.224391	0.0726716	0.751498	
-0.298046	0.172945	0.653946	
-0.224391	0.0726716	0.751498	
-0.391681	0.0802879	0.710436	
-0.264287	0.0818172	0.601453	
-0.333304	0.00409397	0.661614	
0.268393	-0.334301	1	
0.386505	-0.317197	0.931175	
0.21926	-0.328264	0.896532	
0.314857	-0.257449	1	
0.21926	-0.328264	0.896532	
0.386505	-0.317197	0.931175	
0.268393	-0.334301	1	
0.317233	-0.386476	0.909527	
-0.231631	-0.136254	0.90444	
-0.257866	-0.303129	0.891677	
-0.338	-0.218597	0.893416	
-0.246255	-0.212424	0.8311	
-0.231631	-0.136254	0.90444	
-0.338	-0.218597	0.893416	
-0.257866	-0.303129	0.891677	
-0.261345	-0.230036	1	
0.39042	-0.0433488	0.606813	
0.243096	0.0493866	0.595389	
0.368263	0.0160059	0.5	
0.278817	-0.00472784	0.5	
0.368263	0.0160059	0.5	
0.243096	0.0493866	0.595389	
0.39042	-0.0433488	0.606813	
0.332994	0.0375409	0.661618	
0.371228	-0.144256	0.774162	
0.436762	-0.243391	0.903062	
0.360282	-0.0916129	0.861913	
0.294702	-0.208252	0.864399	
0.371228	-0.144256	0.774162	
0.360282	-0.0916129	0.861913	
0.436762	-0.243391	0.903062	
0.469721	-0.171353	0.838334	
-0.0945272	-0.266606	0.620808	
-0.128733	-0.391758	0.5	
-0.174131	-0.296683	0.5	
-0.0690274	-0.312061	0.5	
-0.0945272	-0.266606	0.620808	
-0.174131	-0.296683	0.5	
-0.128733	-0.391758	0.5	
-0.184118	-0.326089	0.626133	
-0.188154	-0.225182	0.596871	
-0.0497393	-0.170251	0.638216	
-0.124427	-0.265373	0.724238	
-0.0945272	-0.266606	0.620808	
-0.188154	-0.225182	0.596871	
-0.124427	-0.265373	0.724238	
-0.0497393	-0.170251	0.638216	
-0.170863	-0.122482	0.63474	
-0.373426	0.0982193	0.605831	
-0.355295	-0.0330772	0.5	
-0.393057	-0.0716576	0.611801	
-0.400468	0.0439116	0.5	
-0.373426	0.0982193	0.605831	
-0.393057	-0.0716576	0.611801	
-0.355295	-0.0330772	0.5	
-0.333304	0.00409397	0.661614	
0.264677	-0.291732	0.802046	
0.203135	-0.21521	0.664501	
0.253502	-0.311953	0.668431	
0.18031	-0.320943	0.740502	
0.264677	-0.291732	0.802046	
0.253502	-0.311953	0.668431	
0.203135	-0.21521	0.664501	
0.309938	-0.217964	0.736716	
-0.404383	-0.0159907	0.861288	
-0.47591	-0.153328	0.90763	
-0.41072	-0.12459	1	
-0.495012	-0.0704482	0.928155	
-0.404383	-0.0159907	0.861288	
-0.41072	-0.12459	1	
-0.47591	-0.153328	0.90763	
-0.34489	-0.101074	0.850415	
-0.39411	-0.0165863	0.757409	
-0.470668	-0.168734	0.798219	
-0.493437	-0.0807477	0.845776	
-0.492649	-0.0854243	0.748597	
-0.39411	-0.0165863	0.757409	
-0.493437	-0.0807477	0.845776	
-0.470668	-0.168734	0.798219	
-0.34489	-0.101074	0.850415	
0.13133	0.218843	0.607259	
0.266375	0.22043	0.5	
0.279002	0.143488	0.606802	
0.177987	0.183818	0.5	
0.13133	0.218843	0.607259	
0.279002	0.143488	0.606802	
0.266375	0.22043	0.5	
0.233754	0.245143	0.652714	
-0.0842182	0.182405	0.629411	
-0.136825	0.25987	0.596211	
-0.0206459	0.274141	0.5	
-0.0572576	0.185752	0.5	
-0.0206459	0.274141	0.5	
-0.136825	0.25987	0.596211	
-0.0842182	0.182405	0.629411	
0.000715258	0.25479	0.628643	
-0.0206459	0.274141	0.5	
0.0177914	0.213039	0.5	
-0.0842182	0.182405	0.629411	
-0.0572576	0.185752	0.5	
-0.0842182	0.182405	0.629411	
0.0177914	0.213039	0.5	
-0.0206459	0.274141	0.5	
0.000715258	0.25479	0.628643	
-0.306859	0.249519	0.591577	
-0.316581	0.126747	0.5	
-0.234034	0.185752	0.5	
-0.298046	0.172945	0.653946	
-0.306859	0.249519	0.591577	
-0.234034	0.185752	0.5	
-0.316581	0.126747	0.5	
-0.304559	0.211579	0.5	
0.0559726	-0.187061	0.5	
-0.000247605	-0.297629	0.606346	
-0.0497393	-0.170251	0.638216	
-0.0324158	-0.223672	0.5	
-0.0497393	-0.170251	0.638216	
-0.000247605	-0.297629	0.606346	
0.0559726	-0.187061	0.5	
0.0957286	-0.225187	0.608184	
0.326633	0.237522	0.603331	
0.469721	0.171353	0.661666	
0.428195	0.258165	0.701755	
0.335565	0.163368	0.703209	
0.326633	0.237522	0.603331	
0.428195	0.258165	0.701755	
0.469721	0.171353	0.661666	
0.436762	0.243391	0.596938	
-0.174131	-0.119906	0.5	
-0.213242	-0.007813	0.640954	
-0.120671	-0.0405641	0.5	
-0.209059	-0.00395244	0.5	
-0.120671	-0.0405641	0.5	
-0.213242	-0.007813	0.640954	
-0.174131	-0.119906	0.5	
-0.170863	-0.122482	0.63474	
0.13133	0.218843	0.607259	
0.234372	0.286063	0.5	
0.159673	0.344869	0.622089	
0.233754	0.245143	0.652714	
0.13133	0.218843	0.607259	
0.159673	0.344869	0.622089	
0.234372	0.286063	0.5	
0.164071	0.275222	0.5	
0.209258	0.343487	0.903692	
0.174678	0.468495	0.817109	
0.162962	0.351618	0.758031	
0.107558	0.36211	0.8622	
0.209258	0.343487	0.903692	
0.162962	0.351618	0.758031	
0.174678	0.468495	0.817109	
0.25658	0.429146	0.83124	
0.0913968	0.0719702	0.595778	
-0.0283081	0.0695318	0.5	
0.00344957	0.138123	0.5	
0.0654282	0.0836605	0.5	
0.0913968	0.0719702	0.595778	
0.00344957	0.138123	0.5	
-0.0283081	0.0695318	0.5	
-0.0470393	0.078068	0.615792	
0.0957286	-0.225187	0.608184	
0.112358	-0.334816	0.5	
0.144361	-0.223672	0.5	
0.16292	-0.321139	0.620031	
0.0957286	-0.225187	0.608184	
0.144361	-0.223672	0.5	
0.112358	-0.334816	0.5	
0.0747819	-0.266651	0.5	
-0.0966341	-0.368565	0.765144	
-0.0833019	-0.493012	0.655211	
0.0132695	-0.394263	0.743185	
-0.0977967	-0.490343	0.758774	
-0.0966341	-0.368565	0.765144	
0.0132695	-0.394263	0.743185	
-0.0833019	-0.493012	0.655211	
-0.0585559	-0.361231	0.657485	
0.436762	-0.243391	0.903062	
0.314857	-0.257449	1	
0.415735	-0.277785	1	
0.380207	-0.19708	1	
0.436762	-0.243391	0.903062	
0.415735	-0.277785	1	
0.314857	-0.257449	1	
0.386505	-0.317197	0.931175	
-0.0555676	0.325574	1	
0.025786	0.402982	0.903855	
-0.0372406	0.417791	1	
0.0153159	0.363557	1	
-0.0372406	0.417791	1	
0.025786	0.402982	0.903855	
-0.0555676	0.325574	1	
-0.0738147	0.390008	0.901946	
-0.201912	0.369986	1	
-0.153328	0.47591	0.90763	
-0.191342	0.46194	1	
-0.118932	0.39861	1	
-0.201912	0.369986	1	
-0.191342	0.46194	1	
-0.153328	0.47591	0.90763	
-0.235698	0.440961	0.931431	
0.153328	-0.47591	0.90763	
0.194604	-0.371188	1	
0.191342	-0.46194	1	
0.235698	-0.440961	0.931431	
0.153328	-0.47591	0.90763	
0.191342	-0.46194	1	
0.194604	-0.371188	1	
0.125573	-0.41396	1	
0.415496	-0.123332	0.5	
0.439458	-0.238488	0.575692	
0.326691	-0.12898	0.644897	
0.366699	-0.192277	0.5	
0.326691	-0.12898	0.644897	
0.439458	-0.238488	0.575692	
0.415496	-0.123332	0.5	
0.476114	-0.152694	0.59754	
0.13133	0.218843	0.607259	
0.0177914	0.213039	0.5	
0.0529867	0.308818	0.5	
0.0895983	0.22043	0.5	
0.13133	0.218843	0.607259	
0.0529867	0.308818	0.5	
0.0177914	0.213039	0.5	
0.000715258	0.25479	0.628643	
0.0913968	0.0719702	0.595778	
0.00344957	0.138123	0.5	
0.0897768	0.149878	0.5	
0.0654282	0.0836605	0.5	
0.0913968	0.0719702	0.595778	
0.0897768	0.149878	0.5	
0.00344957	0.138123	0.5	
0.0462278	0.146831	0.635901	
-0.239764	-0.151909	0.5	
-0.358854	-0.187212	0.601126	
-0.350907	-0.119906	0.5	
-0.307929	-0.189485	0.5	
-0.350907	-0.119906	0.5	
-0.358854	-0.187212	0.601126	
-0.239764	-0.151909	0.5	
-0.287784	-0.0964438	0.621465	
0.21926	-0.328264	0.896532	
0.153328	-0.47591	0.90763	
0.242822	-0.437078	0.847009	
0.235698	-0.440961	0.931431	
0.21926	-0.328264	0.896532	
0.242822	-0.437078	0.847009	
0.153328	-0.47591	0.90763	
0.11687	-0.357533	0.85392	
-0.28318	-0.296642	0.616188	
-0.228923	-0.22221	0.5	
-0.174131	-0.296683	0.5	
-0.286299	-0.264255	0.5	
-0.28318	-0.296642	0.616188	
-0.174131	-0.296683	0.5	
-0.228923	-0.22221	0.5	
-0.188154	-0.225182	0.596871	
CELLS 4370 21850
4	0	1	2	3	
4	4	5	6	7	
4	8	9	10	11	
4	12	13	14	15	
4	16	17	18	19	
4	20	21	22	23	
4	24	25	26	27	
4	28	29	30	31	
4	32	33	34	35	
4	36	37	38	39	
4	40	41	42	43	
4	44	45	46	47	
4	48	49	50	51	
4	52	53	54	55	
4	56	57	58	59	
4	60	61	62	63	
4	64	65	66	67	
4	68	69	70	71	
4	72	73	74	75	
4	76	77	78	79	
4	80	81	82	83	
4	84	85	86	87	
4	88	89	90	91	
4	92	93	94	95	
4	96	97	98	99	
4	100	101	102	103	
4	104	105	106	107	
4	108	109	110	111	
4	112	113	114	115	
4	116	117	118	119	
4	120	121	122	123	
4	124	125	126	127	
4	128	129	130	131	
4	132	133	134	135	
4	136	137	138	139	
4	140	141	142	143	
4	144	145	146	147	
4	148	149	150	151	
4	152	153	154	155	
4	156	157	158	159	
4	160	161	162	163	
4	164	165	166	167	
4	168	169	170	171	
4	172	173	174	175	
4	176	177	178	179	
4	180	181	182	183	
4	184	185	186	187	
4	188	189	190	191	
4	192	193	194	195	
4	196	197	198	199	
4	200	201	202	203	
4	204	205	206	207	
4	208	209	210	211	
4	212	213	214	215	
4	216	217	218	219	
4	220	221	222	223	
4	224	225	226	227	
4	228	229	230	231	
4	232	233	234	235	
4	236	237	238	239	
4	240	241	242	243	
4	244	245	246	247	
4	248	249	250	251	
4	252	253	254	255	
4	256	257	258	259	
4	260	261	262	263	
4	264	265	266	267	
4	268	269	270	271	
4	272	273	274	275	
4	276	277	278	279	
4	280	281	282	283	
4	284	285	286	287	
4	288	289	290	291	
4	292	293	294	295	
4	296	297	298	299	
4	300	301	302	303	
4	304	305	306	307	
4	308	309	310	311	
4	312	313	314	315	
4	316	317	318	319	
4	320	321	322	323	
4	324	325	326	327	
4	328	329	330	331	
4	332	333	334	335	
4	336	337	338	339	
4	340	341	342	343	
4	344	345	346	347	
4	348	349	350	351	
4	352	353	354	355	
4	356	357	358	359	
4	360	361	362	363	
4	364	365	366	367	
4	368	369	370	371	
4	372	373	374	375	
4	376	377	378	379	
4	380	381	382	383	
4	384	385	386	387	
4	388	389	390	391	
4	392	393	394	395	
4	396	397	398	399	
4	400	401	402	403	
4	404	405	406	407	
4	408	409	410	411	
4	412	413	414	415	
4	416	417	418	419	
4	420	421	422	423	
4	424	425	426	427	
4	428	429	430	431	
4	432	433	434	435	
4	436	437	438	439	
4	440	441	442	443	
4	444	445	446	447	
4	448	449	450	451	
4	452	453	454	455	
4	456	457	458	459	
4	460	461	462	463	
4	464	465	466	467	
4	468	469	470	471	
4	472	473	474	475	
4	476	477	478	479	
4	480	481	482	483	
4	484	485	486	487	
4	488	489	490	491	
4	492	493	494	495	
4	496	497	498	499	
4	500	501	502	503	
4	504	505	506	507	
4	508	509	510	511	
4	512	513	514	515	
4	516	517	518	519	
4	520	521	522	523	
4	524	525	526	527	
4	528	529	530	531	
4	532	533	534	535	
4	536	537	538	539	
4	540	541	542	543	
4	544	545	546	547	
4	548	549	550	551	
4	552	553	554	555	
4	556	557	558	559	
4	560	561	562	563	
4	564	565	566	567	
4	568	569	570	571	
4	572	573	574	575	
4	576	577	578	579	
4	580	581	582	583	
4	584	585	586	587	
4	588	589	590	591	
4	592	593	594	595	
4	596	597	598	599	
4	600	601	602	603	
4	604	605	606	607	
4	608	609	610	611	
4	612	613	614	615	
4	616	617	618	619	
4	620	621	622	623	
4	624	625	626	627	
4	628	629	630	631	
4	632	633	634	635	
4	636	637	638	639	
4	640	641	642	643	
4	644	645	646	647	
4	648	649	650	651	
4	652	653	654	655	
4	656	657	658	659	
4	660	661	662	663	
4	664	665	666	667	
4	668	669	670	671	
4	672	673	674	675	
4	676	677	678	679	
4	680	681	682	683	
4	684	685	686	687	
4	688	689	690	691	
4	692	693	694	695	
4	696	697	698	699	
4	700	701	702	703	
4	704	705	706	707	
4	708	709	710	711	
4	712	713	714	715	
4	716	717	718	719	
4	720	721	722	723	
4	724	725	726	727	
4	728	729	730	731	
4	732	733	734	735	
4	736	737	738	739	
4	740	741	742	743	
4	744	745	746	747	
4	748	749	750	751	
4	752	753	754	755	
4	756	757	758	759	
4	760	761	762	763	
4	764	765	766	767	
4	768	769	770	771	
4	772	773	774	775	
4	776	777	778	779	
4	780	781	782	783	
4	784	785	786	787	
4	788	789	790	791	
4	792	793	794	795	
4	796	797	798	799	
4	800	801	802	803	
4	804	805	806	807	
4	808	809	810	811	
4	812	813	814	815	
4	816	817	818	819	
4	820	821	822	823	
4	824	825	826	827	
4	828	829	830	831	
4	832	833	834	835	
4	836	837	838	839	
4	840	841	842	843	
4	844	845	846	847	
4	848	849	850	851	
4	852	853	854	855	
4	856	857	858	859	
4	860	861	862	863	
4	864	865	866	867	
4	868	869	870	871	
4	872	873	874	875	
4	876	877	878	879	
4	880	881	882	883	
4	884	885	886	887	
4	888	889	890	891	
4	892	893	894	895	
4	896	897	898	899	
4	900	901	902	903	
4	904	905	906	907	
4	908	909	910	911	
4	912	913	914	915	
4	916	917	918	919	
4	920	921	922	923	
4	924	925	926	927	
4	928	929	930	931	
4	932	933	934	935	
4	936	937	938	939	
4	940	941	942	943	
4	944	945	946	947	
4	948	949	950	951	
4	952	953	954	955	
4	956	957	958	959	
4	960	961	962	963	
4	964	965	966	967	
4	968	969	970	971	
4	972	973	974	975	
4	976	977	978	979	
4	980	981	982	983	
4	984	985	986	987	
4	988	989	990	991	
4	992	993	994	995	
4	996	997	998	999	
4	1000	1001	1002	1003	
4	1004	1005	1006	1007	
4	1008	1009	1010	1011	
4	1012	1013	1014	1015	
4	1016	1017	1018	1019	
4	1020	1021	1022	1023	
4	1024	1025	1026	1027	
4	1028	1029	1030	1031	
4	1032	1033	1034	1035	
4	1036	1037	1038	1039	
4	1040	1041	1042	1043	
4	1044	1045	1046	1047	
4	1048	1049	1050	1051	
4	1052	1053	1054	1055	
4	1056	1057	1058	1059	
4	1060	1061	1062	1063	
4	1064	1065	1066	1067	
4	1068	1069	1070	1071	
4	1072	1073	1074	1075	
4	1076	1077	1078	1079	
4	1080	1081	1082	1083	
4	1084	1085	1086	1087	
4	1088	1089	1090	1091	
4	1092	1093	1094	1095	
4	1096	1097	1098	1099	
4	1100	1101	1102	1103	
4	1104	1105	1106	1107	
4	1108	1109	1110	1111	
4	1112	1113	1114	1115	
4	1116	1117	1118	1119	
4	1120	1121	1122	1123	
4	1124	1125	1126	1127	
4	1128	1129	1130	1131	
4	1132	1133	1134	1135	
4	1136	1137	1138	1139	
4	1140	1141	1142	1143	
4	1144	1145	1146	1147	
4	1148	1149	1150	1151	
4	1152	1153	1154	1155	
4	1156	1157	1158	1159	
4	1160	1161	1162	1163	
4	1164	1165	1166	1167	
4	1168	1169	1170	1171	
4	1172	1173	1174	1175	
4	1176	1177	1178	1179	
4	1180	1181	1182	1183	
4	1184	1185	1186	1187	
4	1188	1189	1190	1191	
4	1192	1193	1194	1195	
4	1196	1197	1198	1199	
4	1200	1201	1202	1203	
4	1204	1205	1206	1207	
4	1208	1209	1210	1211	
4	1212	1213	1214	1215	
4	1216	1217	1218	1219	
4	1220	1221	1222	1223	
4	1224	1225	1226	1227	
4	1228	1229	1230	1231	
4	1232	1233	1234	1235	
4	1236	1237	1238	1239	
4	1240	1241	1242	1243	
4	1244	1245	1246	1247	
4	1248	1249	1250	1251	
4	1252	1253	1254	1255	
4	1256	1257	1258	1259	
4	1260	1261	1262	1263	
4	1264	1265	1266	1267	
4	1268	1269	1270	1271	
4	1272	1273	1274	1275	
4	1276	1277	1278	1279	
4	1280	1281	1282	1283	
4	1284	1285	1286	1287	
4	1288	1289	1290	1291	
4	1292	1293	1294	1295	
4	1296	1297	1298	1299	
4	1300	1301	1302	1303	
4	1304	1305	1306	1307	
4	1308	1309	1310	1311	
4	1312	1313	1314	1315	
4	1316	1317	1318	1319	
4	1320	1321	1322	1323	
4	1324	1325	1326	1327	
4	1328	1329	1330	1331	
4	1332	1333	1334	1335	
4	1336	1337	1338	1339	
4	1340	1341	1342	1343	
4	1344	1345	1346	1347	
4	1348	1349	1350	1351	
4	1352	1353	1354	1355	
4	1356	1357	1358	1359	
4	1360	1361	1362	1363	
4	1364	1365	1366	1367	
4	1368	1369	1370	1371	
4	1372	1373	1374	1375	
4	1376	1377	1378	1379	
4	1380	1381	1382	1383	
4	1384	1385	1386	1387	
4	1388	1389	1390	1391	
4	1392	1393	1394	1395	
4	1396	1397	1398	1399	
4	1400	1401	1402	1403	
4	1404	1405	1406	1407	
4	1408	1409	1410	1411	
4	1412	1413	1414	1415	
4	1416	1417	1418	1419	
4	1420	1421	1422	1423	
4	1424	1425	1426	1427	
4	1428	1429	1430	1431	
4	1432	1433	1434	1435	
4	1436	1437	1438	1439	
4	1440	1441	1442	1443	
4	1444	1445	1446	1447	
4	1448	1449	1450	1451	
4	1452	1453	1454	1455	
4	1456	1457	1458	1459	
4	1460	1461	1462	1463	
4	1464	1465	1466	1467	
4	1468	1469	1470	1471	
4	1472	1473	1474	1475	
4	1476	1477	1478	1479	
4	1480	1481	1482	1483	
4	1484	1485	1486	1487	
4	1488	1489	1490	1491	
4	1492	1493	1494	1495	
4	1496	1497	1498	1499	
4	1500	1501	1502	1503	
4	1504	1505	1506	1507	
4	1508	1509	1510	1511	
4	1512	1513	1514	1515	
4	1516	1517	1518	1519	
4	1520	1521	1522	1523	
4	1524	1525	1526	1527	
4	1528	1529	1530	1531	
4	1532	1533	1534	1535	
4	1536	1537	1538	1539	
4	1540	1541	1542	1543	
4	1544	1545	1546	1547	
4	1548	1549	1550	1551	
4	1552	1553	1554	1555	
4	1556	1557	1558	1559	
4	1560	1561	1562	1563	
4	1564	1565	1566	1567	
4	1568	1569	1570	1571	
4	1572	1573	1574	1575	
4	1576	1577	1578	1579	
4	1580	1581	1582	1583	
4	1584	1585	1586	1587	
4	1588	1589	1590	1591	
4	1592	1593	1594	1595	
4	1596	1597	1598	1599	
4	1600	1601	1602	1603	
4	1604	1605	1606	1607	
4	1608	1609	1610	1611	
4	1612	1613	1614	1615	
4	1616	1617	1618	1619	
4	1620	1621	1622	1623	
4	1624	1625	1626	1627	
4	1628	1629	1630	1631	
4	1632	1633	1634	1635	
4	1636	1637	1638	1639	
4	1640	1641	1642	1643	
4	1644	1645	1646	1647	
4	1648	1649	1650	1651	
4	1652	1653	1654	1655	
4	1656	1657	1658	1659	
4	1660	1661	1662	1663	
4	1664	1665	1666	1667	
4	1668	1669	1670	1671	
4	1672	1673	1674	1675	
4	1676	1677	1678	1679	
4	1680	1681	1682	1683	
4	1684	1685	1686	1687	
4	1688	1689	1690	1691	
4	1692	1693	1694	1695	
4	1696	1697	1698	1699	
4	1700	1701	1702	1703	
4	1704	1705	1706	1707	
4	1708	1709	1710	1711	
4	1712	1713	1714	1715	
4	1716	1717	1718	1719	
4	1720	1721	1722	1723	
4	1724	1725	1726	1727	
4	1728	1729	1730	1731	
4	1732	1733	1734	1735	
4	1736	1737	1738	1739	
4	1740	1741	1742	1743	
4	1744	1745	1746	1747	
4	1748	1749	1750	1751	
4	1752	1753	1754	1755	
4	1756	1757	1758	1759	
4	1760	1761	1762	1763	
4	1764	1765	1766	1767	
4	1768	1769	1770	1771	
4	1772	1773	1774	1775	
4	1776	1777	1778	1779	
4	1780	1781	1782	1783	
4	1784	1785	1786	1787	
4	1788	1789	1790	1791	
4	1792	1793	1794	1795	
4	1796	1797	1798	1799	
4	1800	1801	1802	1803	
4	1804	1805	1806	1807	
4	1808	1809	1810	1811	
4	1812	1813	1814	1815	
4	1816	1817	1818	1819	
4	1820	1821	1822	1823	
4	1824	1825	1826	1827	
4	1828	1829	1830	1831	
4	1832	1833	1834	1835	
4	1836	1837	1838	1839	
4	1840	1841	1842	1843	
4	1844	1845	1846	1847	
4	1848	1849	1850	1851	
4	1852	1853	1854	1855	
4	1856	1857	1858	1859	
4	1860	1861	1862	1863	
4	1864	1865	1866	1867	
4	1868	1869	1870	1871	
4	1872	1873	1874	1875	
4	1876	1877	1878	1879	
4	1880	1881	1882	1883	
4	1884	1885	1886	1887	
4	1888	1889	1890	1891	
4	1892	1893	1894	1895	
4	1896	1897	1898	1899	
4	1900	1901	1902	1903	
4	1904	1905	1906	1907	
4	1908	1909	1910	1911	
4	1912	1913	1914	1915	
4	1916	1917	1918	1919	
4	1920	1921	1922	1923	
4	1924	1925	1926	1927	
4	1928	1929	1930	1931	
4	1932	1933	1934	1935	
4	1936	1937	1938	1939	
4	1940	1941	1942	1943	
4	1944	1945	1946	1947	
4	1948	1949	1950	1951	
4	1952	1953	1954	1955	
4	1956	1957	1958	1959	
4	1960	1961	1962	1963	
4	1964	1965	1966	1967	
4	1968	1969	1970	1971	
4	1972	1973	1974	1975	
4	1976	1977	1978	1979	
4	1980	1981	1982	1983	
4	1984	1985	1986	1987	
4	1988	1989	1990	1991	
4	1992	1993	1994	1995	
4	1996	1997	1998	1999	
4	2000	2001	2002	2003	
4	2004	2005	2006	2007	
4	2008	2009	2010	2011	
4	2012	2013	2014	2015	
4	2016	2017	2018	2019	
4	2020	2021	2022	2023	
4	2024	2025	2026	2027	
4	2028	2029	2030	2031	
4	2032	2033	2034	2035	
4	2036	2037	2038	2039	
4	2040	2041	2042	2043	
4	2044	2045	2046	2047	
4	2048	2049	2050	2051	
4	2052	2053	2054	2055	
4	2056	2057	2058	2059	
4	2060	2061	2062	2063	
4	2064	2065	2066	2067	
4	2068	2069	2070	2071	
4	2072	2073	2074	2075	
4	2076	2077	2078	2079	
4	2080	2081	2082	2083	
4	2084	2085	2086	2087	
4	2088	2089	2090	2091	
4	2092	2093	2094	2095	
4	2096	2097	2098	2099	
4	2100	2101	2102	2103	
4	2104	2105	2106	2107	
4	2108	2109	2110	2111	
4	2112	2113	2114	2115	
4	2116	2117	2118	2119	
4	2120	2121	2122	2123	
4	2124	2125	2126	2127	
4	2128	2129	2130	2131	
4	2132	2133	2134	2135	
4	2136	2137	2138	2139	
4	2140	2141	2142	2143	
4	2144	2145	2146	2147	
4	2148	2149	2150	2151	
4	2152	2153	2154	2155	
4	2156	2157	2158	2159	
4	2160	2161	2162	2163	
4	2164	2165	2166	2167	
4	2168	2169	2170	2171	
4	2172	2173	2174	2175	
4	2176	2177	2178	2179	
4	2180	2181	2182	2183	
4	2184	2185	2186	2187	
4	2188	2189	2190	2191	
4	2192	2193	2194	2195	
4	2196	2197	2198	2199	
4	2200	2201	2202	2203	
4	2204	2205	2206	2207	
4	2208	2209	2210	2211	
4	2212	2213	2214	2215	
4	2216	2217	2218	2219	
4	2220	2221	2222	2223	
4	2224	2225	2226	2227	
4	2228	2229	2230	2231	
4	2232	2233	2234	2235	
4	2236	2237	2238	2239	
4	2240	2241	2242	2243	
4	2244	2245	2246	2247	
4	2248	2249	2250	2251	
4	2252	2253	2254	2255	
4	2256	2257	2258	2259	
4	2260	2261	2262	2263	
4	2264	2265	2266	2267	
4	2268	2269	2270	2271	
4	2272	2273	2274	2275	
4	2276	2277	2278	2279	
4	2280	2281	2282	2283	
4	2284	2285	2286	2287	
4	2288	2289	2290	2291	
4	2292	2293	2294	2295	
4	2296	2297	2298	2299	
4	2300	2301	2302	2303	
4	2304	2305	2306	2307	
4	2308	2309	2310	2311	
4	2312	2313	2314	2315	
4	2316	2317	2318	2319	
4	2320	2321	2322	2323	
4	2324	2325	2326	2327	
4	2328	2329	2330	2331	
4	2332	2333	2334	2335	
4	2336	2337	2338	2339	
4	2340	2341	2342	2343	
4	2344	2345	2346	2347	
4	2348	2349	2350	2351	
4	2352	2353	2354	2355	
4	2356	2357	2358	2359	
4	2360	2361	2362	2363	
4	2364	2365	2366	2367	
4	2368	2369	2370	2371	
4	2372	2373	2374	2375	
4	2376	2377	2378	2379	
4	2380	2381	2382	2383	
4	2384	2385	2386	2387	
4	2388	2389	2390	2391	
4	2392	2393	2394	2395	
4	2396	2397	2398	2399	
4	2400	2401	2402	2403	
4	2404	2405	2406	2407	
4	2408	2409	2410	2411	
4	2412	2413	2414	2415	
4	2416	2417	2418	2419	
4	2420	2421	2422	2423	
4	2424	2425	2426	2427	
4	2428	2429	2430	2431	
4	2432	2433	2434	2435	
4	2436	2437	2438	2439	
4	2440	2441	2442	2443	
4	2444	2445	2446	2447	
4	2448	2449	2450	2451	
4	2452	2453	2454	2455	
4	2456	2457	2458	2459	
4	2460	2461	2462	2463	
4	2464	2465	2466	2467	
4	2468	2469	2470	2471	
4	2472	2473	2474	2475	
4	2476	2477	2478	2479	
4	2480	2481	2482	2483	
4	2484	2485	2486	2487	
4	2488	2489	2490	2491	
4	2492	2493	2494	2495	
4	2496	2497	2498	2499	
4	2500	2501	2502	2503	
4	2504	2505	2506	2507	
4	2508	2509	2510	2511	
4	2512	2513	2514	2515	
4	2516	2517	2518	2519	
4	2520	2521	2522	2523	
4	2524	2525	2526	2527	
4	2528	2529	2530	2531	
4	2532	2533	2534	2535	
4	2536	2537	2538	2539	
4	2540	2541	2542	2543	
4	2544	2545	2546	2547	
4	2548	2549	2550	2551	
4	2552	2553	2554	2555	
4	2556	2557	2558	2559	
4	2560	2561	2562	2563	
4	2564	2565	2566	2567	
4	2568	2569	2570	2571	
4	2572	2573	2574	2575	
4	2576	2577	2578	2579	
4	2580	2581	2582	2583	
4	2584	2585	2586	2587	
4	2588	2589	2590	2591	
4	2592	2593	2594	2595	
4	2596	2597	2598	2599	
4	2600	2601	2602	2603	
4	2604	2605	2606	2607	
4	2608	2609	2610	2611	
4	2612	2613	2614	2615	
4	2616	2617	2618	2619	
4	2620	2621	2622	2623	
4	2624	2625	2626	2627	
4	2628	2629	2630	2631	
4	2632	2633	2634	2635	
4	2636	2637	2638	2639	
4	2640	2641	2642	2643	
4	2644	2645	2646	2647	
4	2648	2649	2650	2651	
4	2652	2653	2654	2655	
4	2656	2657	2658	2659	
4	2660	2661	2662	2663	
4	2664	2665	2666	2667	
4	2668	2669	2670	2671	
4	2672	2673	2674	2675	
4	2676	2677	2678	2679	
4	2680	2681	2682	2683	
4	2684	2685	2686	2687	
4	2688	2689	2690	2691	
4	2692	2693	2694	2695	
4	2696	2697	2698	2699	
4	2700	2701	2702	2703	
4	2704	2705	2706	2707	
4	2708	2709	2710	2711	
4	2712	2713	2714	2715	
4	2716	2717	2718	2719	
4	2720	2721	2722	2723	
4	2724	2725	2726	2727	
4	2728	2729	2730	2731	
4	2732	2733	2734	2735	
4	2736	2737	2738	2739	
4	2740	2741	2742	2743	
4	2744	2745	2746	2747	
4	2748	2749	2750	2751	
4	2752	2753	2754	2755	
4	2756	2757	2758	2759	
4	2760	2761	2762	2763	
4	2764	2765	2766	2767	
4	2768	2769	2770	2771	
4	2772	2773	2774	2775	
4	2776	2777	2778	2779	
4	2780	2781	2782	2783	
4	2784	2785	2786	2787	
4	2788	2789	2790	2791	
4	2792	2793	2794	2795	
4	2796	2797	2798	2799	
4	2800	2801	2802	2803	
4	2804	2805	2806	2807	
4	2808	2809	2810	2811	
4	2812	2813	2814	2815	
4	2816	2817	2818	2819	
4	2820	2821	2822	2823	
4	2824	2825	2826	2827	
4	2828	2829	2830	2831	
4	2832	2833	2834	2835	
4	2836	2837	2838	2839	
4	2840	2841	2842	2843	
4	2844	2845	2846	2847	
4	2848	2849	2850	2851	
4	2852	2853	2854	2855	
4	2856	2857	2858	2859	
4	2860	2861	2862	2863	
4	2864	2865	2866	2867	
4	2868	2869	2870	2871	
4	2872	2873	2874	2875	
4	2876	2877	2878	2879	
4	2880	2881	2882	2883	
4	2884	2885	2886	2887	
4	2888	2889	2890	2891	
4	2892	2893	2894	2895	
4	2896	2897	2898	2899	
4	2900	2901	2902	2903	
4	2904	2905	2906	2907	
4	2908	2909	2910	2911	
4	2912	2913	2914	2915	
4	2916	2917	2918	2919	
4	2920	2921	2922	2923	
4	2924	2925	2926	2927	
4	2928	2929	2930	2931	
4	2932	2933	2934	2935	
4	2936	2937	2938	2939	
4	2940	2941	2942	2943	
4	2944	2945	2946	2947	
4	2948	2949	2950	2951	
4	2952	2953	2954	2955	
4	2956	2957	2958	2959	
4	2960	2961	2962	2963	
4	2964	2965	2966	2967	
4	2968	2969	2970	2971	
4	2972	2973	2974	2975	
4	2976	2977	2978	2979	
4	2980	2981	2982	2983	
4	2984	2985	2986	2987	
4	2988	2989	2990	2991	
4	2992	2993	2994	2995	
4	2996	2997	2998	2999	
4	3000	3001	3002	3003	
4	3004	3005	3006	3007	
4	3008	3009	3010	3011	
4	3012	3013	3014	3015	
4	3016	3017	3018	3019	
4	3020	3021	3022	3023	
4	3024	3025	3026	3027	
4	3028	3029	3030	3031	
4	3032	3033	3034	3035	
4	3036	3037	3038	3039	
4	3040	3041	3042	3043	
4	3044	3045	3046	3047	
4	3048	3049	3050	3051	
4	3052	3053	3054	3055	
4	3056	3057	3058	3059	
4	3060	3061	3062	3063	
4	3064	3065	3066	3067	
4	3068	3069	3070	3071	
4	3072	3073	3074	3075	
4	3076	3077	3078	3079	
4	3080	3081	3082	3083	
4	3084	3085	3086	3087	
4	3088	3089	3090	3091	
4	3092	3093	3094	3095	
4	3096	3097	3098	3099	
4	3100	3101	3102	3103	
4	3104	3105	3106	3107	
4	3108	3109	3110	3111	
4	3112	3113	3114	3115	
4	3116	3117	3118	3119	
4	3120	3121	3122	3123	
4	3124	3125	3126	3127	
4	3128	3129	3130	3131	
4	3132	3133	3134	3135	
4	3136	3137	3138	3139	
4	3140	3141	3142	3143	
4	3144	3145	3146	3147	
4	3148	3149	3150	3151	
4	3152	3153	3154	3155	
4	3156	3157	3158	3159	
4	3160	3161	3162	3163	
4	3164	3165	3166	3167	
4	3168	3169	3170	3171	
4	3172	3173	3174	3175	
4	3176	3177	3178	3179	
4	3180	3181	3182	3183	
4	3184	3185	3186	3187	
4	3188	3189	3190	3191	
4	3192	3193	3194	3195	
4	3196	3197	3198	3199	
4	3200	3201	3202	3203	
4	3204	3205	3206	3207	
4	3208	3209	3210	3211	
4	3212	3213	3214	3215	
4	3216	3217	3218	3219	
4	3220	3221	3222	3223	
4	3224	3225	3226	3227	
4	3228	3229	3230	3231	
4	3232	3233	3234	3235	
4	3236	3237	3238	3239	
4	3240	3241	3242	3243	
4	3244	3245	3246	3247	
4	3248	3249	3250	3251	
4	3252	3253	3254	3255	
4	3256	3257	3258	3259	
4	3260	3261	3262	3263	
4	3264	3265	3266	3267	
4	3268	3269	3270	3271	
4	3272	3273	3274	3275	
4	3276	3277	3278	3279	
4	3280	3281	3282	3283	
4	3284	3285	3286	3287	
4	3288	3289	3290	3291	
4	3292	3293	3294	3295	
4	3296	3297	3298	3299	
4	3300	3301	3302	3303	
4	3304	3305	3306	3307	
4	3308	3309	3310	3311	
4	3312	3313	3314	3315	
4	3316	3317	3318	3319	
4	3320	3321	3322	3323	
4	3324	3325	3326	3327	
4	3328	3329	3330	3331	
4	3332	3333	3334	3335	
4	3336	3337	3338	3339	
4	3340	3341	3342	3343	
4	3344	3345	3346	3347	
4	3348	3349	3350	3351	
4	3352	3353	3354	3355	
4	3356	3357	3358	3359	
4	3360	3361	3362	3363	
4	3364	3365	3366	3367	
4	3368	3369	3370	3371	
4	3372	3373	3374	3375	
4	3376	3377	3378	3379	
4	3380	3381	3382	3383	
4	3384	3385	3386	3387	
4	3388	3389	3390	3391	
4	3392	3393	3394	3395	
4	3396	3397	3398	3399	
4	3400	3401	3402	3403	
4	3404	3405	3406	3407	
4	3408	3409	3410	3411	
4	3412	3413	3414	3415	
4	3416	3417	3418	3419	
4	3420	3421	3422	3423	
4	3424	3425	3426	3427	
4	3428	3429	3430	3431	
4	3432	3433	3434	3435	
4	3436	3437	3438	3439	
4	3440	3441	3442	3443	
4	3444	3445	3446	3447	
4	3448	3449	3450	3451	
4	3452	3453	3454	3455	
4	3456	3457	3458	3459	
4	3460	3461	3462	3463	
4	3464	3465	3466	3467	
4	3468	3469	3470	3471	
4	3472	3473	3474	3475	
4	3476	3477	3478	3479	
4	3480	3481	3482	3483	
4	3484	3485	3486	3487	
4	3488	3489	3490	3491	
4	3492	3493	3494	3495	
4	3496	3497	3498	3499	
4	3500	3501	3502	3503	
4	3504	3505	3506	3507	
4	3508	3509	3510	3511	
4	3512	3513	3514	3515	
4	3516	3517	3518	3519	
4	3520	3521	3522	3523	
4	3524	3525	3526	3527	
4	3528	3529	3530	3531	
4	3532	3533	3534	3535	
4	3536	3537	3538	3539	
4	3540	3541	3542	3543	
4	3544	3545	3546	3547	
4	3548	3549	3550	3551	
4	3552	3553	3554	3555	
4	3556	3557	3558	3559	
4	3560	3561	3562	3563	
4	3564	3565	3566	3567	
4	3568	3569	3570	3571	
4	3572	3573	3574	3575	
4	3576	3577	3578	3579	
4	3580	3581	3582	3583	
4	3584	3585	3586	3587	
4	3588	3589	3590	3591	
4	3592	3593	3594	3595	
4	3596	3597	3598	3599	
4	3600	3601	3602	3603	
4	3604	3605	3606	3607	
4	3608	3609	3610	3611	
4	3612	3613	3614	3615	
4	3616	3617	3618	3619	
4	3620	3621	3622	3623	
4	3624	3625	3626	3627	
4	3628	3629	3630	3631	
4	3632	3633	3634	3635	
4	3636	3637	3638	3639	
4	3640	3641	3642	3643	
4	3644	3645	3646	3647	
4	3648	3649	3650	3651	
4	3652	3653	3654	3655	
4	3656	3657	3658	3659	
4	3660	3661	3662	3663	
4	3664	3665	3666	3667	
4	3668	3669	3670	3671	
4	3672	3673	3674	3675	
4	3676	3677	3678	3679	
4	3680	3681	3682	3683	
4	3684	3685	3686	3687	
4	3688	3689	3690	3691	
4	3692	3693	3694	3695	
4	3696	3697	3698	3699	
4	3700	3701	3702	3703	
4	3704	3705	3706	3707	
4	3708	3709	3710	3711	
4	3712	3713	3714	3715	
4	3716	3717	3718	3719	
4	3720	3721	3722	3723	
4	3724	3725	3726	3727	
4	3728	3729	3730	3731	
4	3732	3733	3734	3735	
4	3736	3737	3738	3739	
4	3740	3741	3742	3743	
4	3744	3745	3746	3747	
4	3748	3749	3750	3751	
4	3752	3753	3754	3755	
4	3756	3757	3758	3759	
4	3760	3761	3762	3763	
4	3764	3765	3766	3767	
4	3768	3769	3770	3771	
4	3772	3773	3774	3775	
4	3776	3777	3778	3779	
4	3780	3781	3782	3783	
4	3784	3785	3786	3787	
4	3788	3789	3790	3791	
4	3792	3793	3794	3795	
4	3796	3797	3798	3799	
4	3800	3801	3802	3803	
4	3804	3805	3806	3807	
4	3808	3809	3810	3811	
4	3812	3813	3814	3815	
4	3816	3817	3818	3819	
4	3820	3821	3822	3823	
4	3824	3825	3826	3827	
4	3828	3829	3830	3831	
4	3832	3833	3834	3835	
4	3836	3837	3838	3839	
4	3840	3841	3842	3843	
4	3844	3845	3846	3847	
4	3848	3849	3850	3851	
4	3852	3853	3854	3855	
4	3856	3857	3858	3859	
4	3860	3861	3862	3863	
4	3864	3865	3866	3867	
4	3868	3869	3870	3871	
4	3872	3873	3874	3875	
4	3876	3877	3878	3879	
4	3880	3881	3882	3883	
4	3884	3885	3886	3887	
4	3888	3889	3890	3891	
4	3892	3893	3894	3895	
4	3896	3897	3898	3899	
4	3900	3901	3902	3903	
4	3904	3905	3906	3907	
4	3908	3909	3910	3911	
4	3912	3913	3914	3915	
4	3916	3917	3918	3919	
4	3920	3921	3922	3923	
4	3924	3925	3926	3927	
4	3928	3929	3930	3931	
4	3932	3933	3934	3935	
4	3936	3937	3938	3939	
4	3940	3941	3942	3943	
4	3944	3945	3946	3947	
4	3948	3949	3950	3951	
4	3952	3953	3954	3955	
4	3956	3957	3958	3959	
4	3960	3961	3962	3963	
4	3964	3965	3966	3967	
4	3968	3969	3970	3971	
4	3972	3973	3974	3975	
4	3976	3977	3978	3979	
4	3980	3981	3982	3983	
4	3984	3985	3986	3987	
4	3988	3989	3990	3991	
4	3992	3993	3994	3995	
4	3996	3997	3998	3999	
4	4000	4001	4002	4003	
4	4004	4005	4006	4007	
4	4008	4009	4010	4011	
4	4012	4013	4014	4015	
4	4016	4017	4018	4019	
4	4020	4021	4022	4023	
4	4024	4025	4026	4027	
4	4028	4029	4030	4031	
4	4032	4033	4034	4035	
4	4036	4037	4038	4039	
4	4040	4041	4042	4043	
4	4044	4045	4046	4047	
4	4048	4049	4050	4051	
4	4052	4053	4054	4055	
4	4056	4057	4058	4059	
4	4060	4061	4062	4063	
4	4064	4065	4066	4067	
4	4068	4069	4070	4071	
4	4072	4073	4074	4075	
4	4076	4077	4078	4079	
4	4080	4081	4082	4083	
4	4084	4085	4086	4087	
4	4088	4089	4090	4091	
4	4092	4093	4094	4095	
4	4096	4097	4098	4099	
4	4100	4101	4102	4103	
4	4104	4105	4106	4107	
4	4108	4109	4110	4111	
4	4112	4113	4114	4115	
4	4116	4117	4118	4119	
4	4120	4121	4122	4123	
4	4124	4125	4126	4127	
4	4128	4129	4130	4131	
4	4132	4133	4134	4135	
4	4136	4137	4138	4139	
4	4140	4141	4142	4143	
4	4144	4145	4146	4147	
4	4148	4149	4150	4151	
4	4152	4153	4154	4155	
4	4156	4157	4158	4159	
4	4160	4161	4162	4163	
4	4164	4165	4166	4167	
4	4168	4169	4170	4171	
4	4172	4173	4174	4175	
4	4176	4177	4178	4179	
4	4180	4181	4182	4183	
4	4184	4185	4186	4187	
4	4188	4189	4190	4191	
4	4192	4193	4194	4195	
4	4196	4197	4198	4199	
4	4200	4201	4202	4203	
4	4204	4205	4206	4207	
4	4208	4209	4210	4211	
4	4212	4213	4214	4215	
4	4216	4217	4218	4219	
4	4220	4221	4222	4223	
4	4224	4225	4226	4227	
4	4228	4229	4230	4231	
4	4232	4233	4234	4235	
4	4236	4237	4238	4239	
4	4240	4241	4242	4243	
4	4244	4245	4246	4247	
4	4248	4249	4250	4251	
4	4252	4253	4254	4255	
4	4256	4257	4258	4259	
4	4260	4261	4262	4263	
4	4264	4265	4266	4267	
4	4268	4269	4270	4271	
4	4272	4273	4274	4275	
4	4276	4277	4278	4279	
4	4280	4281	4282	4283	
4	4284	4285	4286	4287	
4	4288	4289	4290	4291	
4	4292	4293	4294	4295	
4	4296	4297	4298	4299	
4	4300	4301	4302	4303	
4	4304	4305	4306	4307	
4	4308	4309	4310	4311	
4	4312	4313	4314	4315	
4	4316	4317	4318	4319	
4	4320	4321	4322	4323	
4	4324	4325	4326	4327	
4	4328	4329	4330	4331	
4	4332	4333	4334	4335	
4	4336	4337	4338	4339	
4	4340	4341	4342	4343	
4	4344	4345	4346	4347	
4	4348	4349	4350	4351	
4	4352	4353	4354	4355	
4	4356	4357	4358	4359	
4	4360	4361	4362	4363	
4	4364	4365	4366	4367	
4	4368	4369	4370	4371	
4	4372	4373	4374	4375	
4	4376	4377	4378	4379	
4	4380	4381	4382	4383	
4	4384	4385	4386	4387	
4	4388	4389	4390	4391	
4	4392	4393	4394	4395	
4	4396	4397	4398	4399	
4	4400	4401	4402	4403	
4	4404	4405	4406	4407	
4	4408	4409	4410	4411	
4	4412	4413	4414	4415	
4	4416	4417	4418	4419	
4	4420	4421	4422	4423	
4	4424	4425	4426	4427	
4	4428	4429	4430	4431	
4	4432	4433	4434	4435	
4	4436	4437	4438	4439	
4	4440	4441	4442	4443	
4	4444	4445	4446	4447	
4	4448	4449	4450	4451	
4	4452	4453	4454	4455	
4	4456	4457	4458	4459	
4	4460	4461	4462	4463	
4	4464	4465	4466	4467	
4	4468	4469	4470	4471	
4	4472	4473	4474	4475	
4	4476	4477	4478	4479	
4	4480	4481	4482	4483	
4	4484	4485	4486	4487	
4	4488	4489	4490	4491	
4	4492	4493	4494	4495	
4	4496	4497	4498	4499	
4	4500	4501	4502	4503	
4	4504	4505	4506	4507	
4	4508	4509	4510	4511	
4	4512	4513	4514	4515	
4	4516	4517	4518	4519	
4	4520	4521	4522	4523	
4	4524	4525	4526	4527	
4	4528	4529	4530	4531	
4	4532	4533	4534	4535	
4	4536	4537	4538	4539	
4	4540	4541	4542	4543	
4	4544	4545	4546	4547	
4	4548	4549	4550	4551	
4	4552	4553	4554	4555	
4	4556	4557	4558	4559	
4	4560	4561	4562	4563	
4	4564	4565	4566	4567	
4	4568	4569	4570	4571	
4	4572	4573	4574	4575	
4	4576	4577	4578	4579	
4	4580	4581	4582	4583	
4	4584	4585	4586	4587	
4	4588	4589	4590	4591	
4	4592	4593	4594	4595	
4	4596	4597	4598	4599	
4	4600	4601	4602	4603	
4	4604	4605	4606	4607	
4	4608	4609	4610	4611	
4	4612	4613	4614	4615	
4	4616	4617	4618	4619	
4	4620	4621	4622	4623	
4	4624	4625	4626	4627	
4	4628	4629	4630	4631	
4	4632	4633	4634	4635	
4	4636	4637	4638	4639	
4	4640	4641	4642	4643	
4	4644	4645	4646	4647	
4	4648	4649	4650	4651	
4	4652	4653	4654	4655	
4	4656	4657	4658	4659	
4	4660	4661	4662	4663	
4	4664	4665	4666	4667	
4	4668	4669	4670	4671	
4	4672	4673	4674	4675	
4	4676	4677	4678	4679	
4	4680	4681	4682	4683	
4	4684	4685	4686	4687	
4	4688	4689	4690	4691	
4	4692	4693	4694	4695	
4	4696	4697	4698	4699	
4	4700	4701	4702	4703	
4	4704	4705	4706	4707	
4	4708	4709	4710	4711	
4	4712	4713	4714	4715	
4	4716	4717	4718	4719	
4	4720	4721	4722	4723	
4	4724	4725	4726	4727	
4	4728	4729	4730	4731	
4	4732	4733	4734	4735	
4	4736	4737	4738	4739	
4	4740	4741	4742	4743	
4	4744	4745	4746	4747	
4	4748	4749	4750	4751	
4	4752	4753	4754	4755	
4	4756	4757	4758	4759	
4	4760	4761	4762	4763	
4	4764	4765	4766	4767	
4	4768	4769	4770	4771	
4	4772	4773	4774	4775	
4	4776	4777	4778	4779	
4	4780	4781	4782	4783	
4	4784	4785	4786	4787	
4	4788	4789	4790	4791	
4	4792	4793	4794	4795	
4	4796	4797	4798	4799	
4	4800	4801	4802	4803	
4	4804	4805	4806	4807	
4	4808	4809	4810	4811	
4	4812	4813	4814	4815	
4	4816	4817	4818	4819	
4	4820	4821	4822	4823	
4	4824	4825	4826	4827	
4	4828	4829	4830	4831	
4	4832	4833	4834	4835	
4	4836	4837	4838	4839	
4	4840	4841	4842	4843	
4	4844	4845	4846	4847	
4	4848	4849	4850	4851	
4	4852	4853	4854	4855	
4	4856	4857	4858	4859	
4	4860	4861	4862	4863	
4	4864	4865	4866	4867	
4	4868	4869	4870	4871	
4	4872	4873	4874	4875	
4	4876	4877	4878	4879	
4	4880	4881	4882	4883	
4	4884	4885	4886	4887	
4	4888	4889	4890	4891	
4	4892	4893	4894	4895	
4	4896	4897	4898	4899	
4	4900	4901	4902	4903	
4	4904	4905	4906	4907	
4	4908	4909	4910	4911	
4	4912	4913	4914	4915	
4	4916	4917	4918	4919	
4	4920	4921	4922	4923	
4	4924	4925	4926	4927	
4	4928	4929	4930	4931	
4	4932	4933	4934	4935	
4	4936	4937	4938	4939	
4	4940	4941	4942	4943	
4	4944	4945	4946	4947	
4	4948	4949	4950	4951	
4	4952	4953	4954	4955	
4	4956	4957	4958	4959	
4	4960	4961	4962	4963	
4	4964	4965	4966	4967	
4	4968	4969	4970	4971	
4	4972	4973	4974	4975	
4	4976	4977	4978	4979	
4	4980	4981	4982	4983	
4	4984	4985	4986	4987	
4	4988	4989	4990	4991	
4	4992	4993	4994	4995	
4	4996	4997	4998	4999	
4	5000	5001	5002	5003	
4	5004	5005	5006	5007	
4	5008	5009	5010	5011	
4	5012	5013	5014	5015	
4	5016	5017	5018	5019	
4	5020	5021	5022	5023	
4	5024	5025	5026	5027	
4	5028	5029	5030	5031	
4	5032	5033	5034	5035	
4	5036	5037	5038	5039	
4	5040	5041	5042	5043	
4	5044	5045	5046	5047	
4	5048	5049	5050	5051	
4	5052	5053	5054	5055	
4	5056	5057	5058	5059	
4	5060	5061	5062	5063	
4	5064	5065	5066	5067	
4	5068	5069	5070	5071	
4	5072	5073	5074	5075	
4	5076	5077	5078	5079	
4	5080	5081	5082	5083	
4	5084	5085	5086	5087	
4	5088	5089	5090	5091	
4	5092	5093	5094	5095	
4	5096	5097	5098	5099	
4	5100	5101	5102	5103	
4	5104	5105	5106	5107	
4	5108	5109	5110	5111	
4	5112	5113	5114	5115	
4	5116	5117	5118	5119	
4	5120	5121	5122	5123	
4	5124	5125	5126	5127	
4	5128	5129	5130	5131	
4	5132	5133	5134	5135	
4	5136	5137	5138	5139	
4	5140	5141	5142	5143	
4	5144	5145	5146	5147	
4	5148	5149	5150	5151	
4	5152	5153	5154	5155	
4	5156	5157	5158	5159	
4	5160	5161	5162	5163	
4	5164	5165	5166	5167	
4	5168	5169	5170	5171	
4	5172	5173	5174	5175	
4	5176	5177	5178	5179	
4	5180	5181	5182	5183	
4	5184	5185	5186	5187	
4	5188	5189	5190	5191	
4	5192	5193	5194	5195	
4	5196	5197	5198	5199	
4	5200	5201	5202	5203	
4	5204	5205	5206	5207	
4	5208	5209	5210	5211	
4	5212	5213	5214	5215	
4	5216	5217	5218	5219	
4	5220	5221	5222	5223	
4	5224	5225	5226	5227	
4	5228	5229	5230	5231	
4	5232	5233	5234	5235	
4	5236	5237	5238	5239	
4	5240	5241	5242	5243	
4	5244	5245	5246	5247	
4	5248	5249	5250	5251	
4	5252	5253	5254	5255	
4	5256	5257	5258	5259	
4	5260	5261	5262	5263	
4	5264	5265	5266	5267	
4	5268	5269	5270	5271	
4	5272	5273	5274	5275	
4	5276	5277	5278	5279	
4	5280	5281	5282	5283	
4	5284	5285	5286	5287	
4	5288	5289	5290	5291	
4	5292	5293	5294	5295	
4	5296	5297	5298	5299	
4	5300	5301	5302	5303	
4	5304	5305	5306	5307	
4	5308	5309	5310	5311	
4	5312	5313	5314	5315	
4	5316	5317	5318	5319	
4	5320	5321	5322	5323	
4	5324	5325	5326	5327	
4	5328	5329	5330	5331	
4	5332	5333	5334	5335	
4	5336	5337	5338	5339	
4	5340	5341	5342	5343	
4	5344	5345	5346	5347	
4	5348	5349	5350	5351	
4	5352	5353	5354	5355	
4	5356	5357	5358	5359	
4	5360	5361	5362	5363	
4	5364	5365	5366	5367	
4	5368	5369	5370	5371	
4	5372	5373	5374	5375	
4	5376	5377	5378	5379	
4	5380	5381	5382	5383	
4	5384	5385	5386	5387	
4	5388	5389	5390	5391	
4	5392	5393	5394	5395	
4	5396	5397	5398	5399	
4	5400	5401	5402	5403	
4	5404	5405	5406	5407	
4	5408	5409	5410	5411	
4	5412	5413	5414	5415	
4	5416	5417	5418	5419	
4	5420	5421	5422	5423	
4	5424	5425	5426	5427	
4	5428	5429	5430	5431	
4	5432	5433	5434	5435	
4	5436	5437	5438	5439	
4	5440	5441	5442	5443	
4	5444	5445	5446	5447	
4	5448	5449	5450	5451	
4	5452	5453	5454	5455	
4	5456	5457	5458	5459	
4	5460	5461	5462	5463	
4	5464	5465	5466	5467	
4	5468	5469	5470	5471	
4	5472	5473	5474	5475	
4	5476	5477	5478	5479	
4	5480	5481	5482	5483	
4	5484	5485	5486	5487	
4	5488	5489	5490	5491	
4	5492	5493	5494	5495	
4	5496	5497	5498	5499	
4	5500	5501	5502	5503	
4	5504	5505	5506	5507	
4	5508	5509	5510	5511	
4	5512	5513	5514	5515	
4	5516	5517	5518	5519	
4	5520	5521	5522	5523	
4	5524	5525	5526	5527	
4	5528	5529	5530	5531	
4	5532	5533	5534	5535	
4	5536	5537	5538	5539	
4	5540	5541	5542	5543	
4	5544	5545	5546	5547	
4	5548	5549	5550	5551	
4	5552	5553	5554	5555	
4	5556	5557	5558	5559	
4	5560	5561	5562	5563	
4	5564	5565	5566	5567	
4	5568	5569	5570	5571	
4	5572	5573	5574	5575	
4	5576	5577	5578	5579	
4	5580	5581	5582	5583	
4	5584	5585	5586	5587	
4	5588	5589	5590	5591	
4	5592	5593	5594	5595	
4	5596	5597	5598	5599	
4	5600	5601	5602	5603	
4	5604	5605	5606	5607	
4	5608	5609	5610	5611	
4	5612	5613	5614	5615	
4	5616	5617	5618	5619	
4	5620	5621	5622	5623	
4	5624	5625	5626	5627	
4	5628	5629	5630	5631	
4	5632	5633	5634	5635	
4	5636	5637	5638	5639	
4	5640	5641	5642	5643	
4	5644	5645	5646	5647	
4	5648	5649	5650	5651	
4	5652	5653	5654	5655	
4	5656	5657	5658	5659	
4	5660	5661	5662	5663	
4	5664	5665	5666	5667	
4	5668	5669	5670	5671	
4	5672	5673	5674	5675	
4	5676	5677	5678	5679	
4	5680	5681	5682	5683	
4	5684	5685	5686	5687	
4	5688	5689	5690	5691	
4	5692	5693	5694	5695	
4	5696	5697	5698	5699	
4	5700	5701	5702	5703	
4	5704	5705	5706	5707	
4	5708	5709	5710	5711	
4	5712	5713	5714	5715	
4	5716	5717	5718	5719	
4	5720	5721	5722	5723	
4	5724	5725	5726	5727	
4	5728	5729	5730	5731	
4	5732	5733	5734	5735	
4	5736	5737	5738	5739	
4	5740	5741	5742	5743	
4	5744	5745	5746	5747	
4	5748	5749	5750	5751	
4	5752	5753	5754	5755	
4	5756	5757	5758	5759	
4	5760	5761	5762	5763	
4	5764	5765	5766	5767	
4	5768	5769	5770	5771	
4	5772	5773	5774	5775	
4	5776	5777	5778	5779	
4	5780	5781	5782	5783	
4	5784	5785	5786	5787	
4	5788	5789	5790	5791	
4	5792	5793	5794	5795	
4	5796	5797	5798	5799	
4	5800	5801	5802	5803	
4	5804	5805	5806	5807	
4	5808	5809	5810	5811	
4	5812	5813	5814	5815	
4	5816	5817	5818	5819	
4	5820	5821	5822	5823	
4	5824	5825	5826	5827	
4	5828	5829	5830	5831	
4	5832	5833	5834	5835	
4	5836	5837	5838	5839	
4	5840	5841	5842	5843	
4	5844	5845	5846	5847	
4	5848	5849	5850	5851	
4	5852	5853	5854	5855	
4	5856	5857	5858	5859	
4	5860	5861	5862	5863	
4	5864	5865	5866	5867	
4	5868	5869	5870	5871	
4	5872	5873	5874	5875	
4	5876	5877	5878	5879	
4	5880	5881	5882	5883	
4	5884	5885	5886	5887	
4	5888	5889	5890	5891	
4	5892	5893	5894	5895	
4	5896	5897	5898	5899	
4	5900	5901	5902	5903	
4	5904	5905	5906	5907	
4	5908	5909	5910	5911	
4	5912	5913	5914	5915	
4	5916	5917	5918	5919	
4	5920	5921	5922	5923	
4	5924	5925	5926	5927	
4	5928	5929	5930	5931	
4	5932	5933	5934	5935	
4	5936	5937	5938	5939	
4	5940	5941	5942	5943	
4	5944	5945	5946	5947	
4	5948	5949	5950	5951	
4	5952	5953	5954	5955	
4	5956	5957	5958	5959	
4	5960	5961	5962	5963	
4	5964	5965	5966	5967	
4	5968	5969	5970	5971	
4	5972	5973	5974	5975	
4	5976	5977	5978	5979	
4	5980	5981	5982	5983	
4	5984	5985	5986	5987	
4	5988	5989	5990	5991	
4	5992	5993	5994	5995	
4	5996	5997	5998	5999	
4	6000	6001	6002	6003	
4	6004	6005	6006	6007	
4	6008	6009	6010	6011	
4	6012	6013	6014	6015	
4	6016	6017	6018	6019	
4	6020	6021	6022	6023	
4	6024	6025	6026	6027	
4	6028	6029	6030	6031	
4	6032	6033	6034	6035	
4	6036	6037	6038	6039	
4	6040	6041	6042	6043	
4	6044	6045	6046	6047	
4	6048	6049	6050	6051	
4	6052	6053	6054	6055	
4	6056	6057	6058	6059	
4	6060	6061	6062	6063	
4	6064	6065	6066	6067	
4	6068	6069	6070	6071	
4	6072	6073	6074	6075	
4	6076	6077	6078	6079	
4	6080	6081	6082	6083	
4	6084	6085	6086	6087	
4	6088	6089	6090	6091	
4	6092	6093	6094	6095	
4	6096	6097	6098	6099	
4	6100	6101	6102	6103	
4	6104	6105	6106	6107	
4	6108	6109	6110	6111	
4	6112	6113	6114	6115	
4	6116	6117	6118	6119	
4	6120	6121	6122	6123	
4	6124	6125	6126	6127	
4	6128	6129	6130	6131	
4	6132	6133	6134	6135	
4	6136	6137	6138	6139	
4	6140	6141	6142	6143	
4	6144	6145	6146	6147	
4	6148	6149	6150	6151	
4	6152	6153	6154	6155	
4	6156	6157	6158	6159	
4	6160	6161	6162	6163	
4	6164	6165	6166	6167	
4	6168	6169	6170	6171	
4	6172	6173	6174	6175	
4	6176	6177	6178	6179	
4	6180	6181	6182	6183	
4	6184	6185	6186	6187	
4	6188	6189	6190	6191	
4	6192	6193	6194	6195	
4	6196	6197	6198	6199	
4	6200	6201	6202	6203	
4	6204	6205	6206	6207	
4	6208	6209	6210	6211	
4	6212	6213	6214	6215	
4	6216	6217	6218	6219	
4	6220	6221	6222	6223	
4	6224	6225	6226	6227	
4	6228	6229	6230	6231	
4	6232	6233	6234	6235	
4	6236	6237	6238	6239	
4	6240	6241	6242	6243	
4	6244	6245	6246	6247	
4	6248	6249	6250	6251	
4	6252	6253	6254	6255	
4	6256	6257	6258	6259	
4	6260	6261	6262	6263	
4	6264	6265	6266	6267	
4	6268	6269	6270	6271	
4	6272	6273	6274	6275	
4	6276	6277	6278	6279	
4	6280	6281	6282	6283	
4	6284	6285	6286	6287	
4	6288	6289	6290	6291	
4	6292	6293	6294	6295	
4	6296	6297	6298	6299	
4	6300	6301	6302	6303	
4	6304	6305	6306	6307	
4	6308	6309	6310	6311	
4	6312	6313	6314	6315	
4	6316	6317	6318	6319	
4	6320	6321	6322	6323	
4	6324	6325	6326	6327	
4	6328	6329	6330	6331	
4	6332	6333	6334	6335	
4	6336	6337	6338	6339	
4	6340	6341	6342	6343	
4	6344	6345	6346	6347	
4	6348	6349	6350	6351	
4	6352	6353	6354	6355	
4	6356	6357	6358	6359	
4	6360	6361	6362	6363	
4	6364	6365	6366	6367	
4	6368	6369	6370	6371	
4	6372	6373	6374	6375	
4	6376	6377	6378	6379	
4	6380	6381	6382	6383	
4	6384	6385	6386	6387	
4	6388	6389	6390	6391	
4	6392	6393	6394	6395	
4	6396	6397	6398	6399	
4	6400	6401	6402	6403	
4	6404	6405	6406	6407	
4	6408	6409	6410	6411	
4	6412	6413	6414	6415	
4	6416	6417	6418	6419	
4	6420	6421	6422	6423	
4	6424	6425	6426	6427	
4	6428	6429	6430	6431	
4	6432	6433	6434	6435	
4	6436	6437	6438	6439	
4	6440	6441	6442	6443	
4	6444	6445	6446	6447	
4	6448	6449	6450	6451	
4	6452	6453	6454	6455	
4	6456	6457	6458	6459	
4	6460	6461	6462	6463	
4	6464	6465	6466	6467	
4	6468	6469	6470	6471	
4	6472	6473	6474	6475	
4	6476	6477	6478	6479	
4	6480	6481	6482	6483	
4	6484	6485	6486	6487	
4	6488	6489	6490	6491	
4	6492	6493	6494	6495	
4	6496	6497	6498	6499	
4	6500	6501	6502	6503	
4	6504	6505	6506	6507	
4	6508	6509	6510	6511	
4	6512	6513	6514	6515	
4	6516	6517	6518	6519	
4	6520	6521	6522	6523	
4	6524	6525	6526	6527	
4	6528	6529	6530	6531	
4	6532	6533	6534	6535	
4	6536	6537	6538	6539	
4	6540	6541	6542	6543	
4	6544	6545	6546	6547	
4	6548	6549	6550	6551	
4	6552	6553	6554	6555	
4	6556	6557	6558	6559	
4	6560	6561	6562	6563	
4	6564	6565	6566	6567	
4	6568	6569	6570	6571	
4	6572	6573	6574	6575	
4	6576	6577	6578	6579	
4	6580	6581	6582	6583	
4	6584	6585	6586	6587	
4	6588	6589	6590	6591	
4	6592	6593	6594	6595	
4	6596	6597	6598	6599	
4	6600	6601	6602	6603	
4	6604	6605	6606	6607	
4	6608	6609	6610	6611	
4	6612	6613	6614	6615	
4	6616	6617	6618	6619	
4	6620	6621	6622	6623	
4	6624	6625	6626	6627	
4	6628	6629	6630	6631	
4	6632	6633	6634	6635	
4	6636	6637	6638	6639	
4	6640	6641	6642	6643	
4	6644	6645	6646	6647	
4	6648	6649	6650	6651	
4	6652	6653	6654	6655	
4	6656	6657	6658	6659	
4	6660	6661	6662	6663	
4	6664	6665	6666	6667	
4	6668	6669	6670	6671	
4	6672	6673	6674	6675	
4	6676	6677	6678	6679	
4	6680	6681	6682	6683	
4	6684	6685	6686	6687	
4	6688	6689	6690	6691	
4	6692	6693	6694	6695	
4	6696	6697	6698	6699	
4	6700	6701	6702	6703	
4	6704	6705	6706	6707	
4	6708	6709	6710	6711	
4	6712	6713	6714	6715	
4	6716	6717	6718	6719	
4	6720	6721	6722	6723	
4	6724	6725	6726	6727	
4	6728	6729	6730	6731	
4	6732	6733	6734	6735	
4	6736	6737	6738	6739	
4	6740	6741	6742	6743	
4	6744	6745	6746	6747	
4	6748	6749	6750	6751	
4	6752	6753	6754	6755	
4	6756	6757	6758	6759	
4	6760	6761	6762	6763	
4	6764	6765	6766	6767	
4	6768	6769	6770	6771	
4	6772	6773	6774	6775	
4	6776	6777	6778	6779	
4	6780	6781	6782	6783	
4	6784	6785	6786	6787	
4	6788	6789	6790	6791	
4	6792	6793	6794	6795	
4	6796	6797	6798	6799	
4	6800	6801	6802	6803	
4	6804	6805	6806	6807	
4	6808	6809	6810	6811	
4	6812	6813	6814	6815	
4	6816	6817	6818	6819	
4	6820	6821	6822	6823	
4	6824	6825	6826	6827	
4	6828	6829	6830	6831	
4	6832	6833	6834	6835	
4	6836	6837	6838	6839	
4	6840	6841	6842	6843	
4	6844	6845	6846	6847	
4	6848	6849	6850	6851	
4	6852	6853	6854	6855	
4	6856	6857	6858	6859	
4	6860	6861	6862	6863	
4	6864	6865	6866	6867	
4	6868	6869	6870	6871	
4	6872	6873	6874	6875	
4	6876	6877	6878	6879	
4	6880	6881	6882	6883	
4	6884	6885	6886	6887	
4	6888	6889	6890	6891	
4	6892	6893	6894	6895	
4	6896	6897	6898	6899	
4	6900	6901	6902	6903	
4	6904	6905	6906	6907	
4	6908	6909	6910	6911	
4	6912	6913	6914	6915	
4	6916	6917	6918	6919	
4	6920	6921	6922	6923	
4	6924	6925	6926	6927	
4	6928	6929	6930	6931	
4	6932	6933	6934	6935	
4	6936	6937	6938	6939	
4	6940	6941	6942	6943	
4	6944	6945	6946	6947	
4	6948	6949	6950	6951	
4	6952	6953	6954	6955	
4	6956	6957	6958	6959	
4	6960	6961	6962	6963	
4	6964	6965	6966	6967	
4	6968	6969	6970	6971	
4	6972	6973	6974	6975	
4	6976	6977	6978	6979	
4	6980	6981	6982	6983	
4	6984	6985	6986	6987	
4	6988	6989	6990	6991	
4	6992	6993	6994	6995	
4	6996	6997	6998	6999	
4	7000	7001	7002	7003	
4	7004	7005	7006	7007	
4	7008	7009	7010	7011	
4	7012	7013	7014	7015	
4	7016	7017	7018	7019	
4	7020	7021	7022	7023	
4	7024	7025	7026	7027	
4	7028	7029	7030	7031	
4	7032	7033	7034	7035	
4	7036	7037	7038	7039	
4	7040	7041	7042	7043	
4	7044	7045	7046	7047	
4	7048	7049	7050	7051	
4	7052	7053	7054	7055	
4	7056	7057	7058	7059	
4	7060	7061	7062	7063	
4	7064	7065	7066	7067	
4	7068	7069	7070	7071	
4	7072	7073	7074	7075	
4	7076	7077	7078	7079	
4	7080	7081	7082	7083	
4	7084	7085	7086	7087	
4	7088	7089	7090	7091	
4	7092	7093	7094	7095	
4	7096	7097	7098	7099	
4	7100	7101	7102	7103	
4	7104	7105	7106	7107	
4	7108	7109	7110	7111	
4	7112	7113	7114	7115	
4	7116	7117	7118	7119	
4	7120	7121	7122	7123	
4	7124	7125	7126	7127	
4	7128	7129	7130	7131	
4	7132	7133	7134	7135	
4	7136	7137	7138	7139	
4	7140	7141	7142	7143	
4	7144	7145	7146	7147	
4	7148	7149	7150	7151	
4	7152	7153	7154	7155	
4	7156	7157	7158	7159	
4	7160	7161	7162	7163	
4	7164	7165	7166	7167	
4	7168	7169	7170	7171	
4	7172	7173	7174	7175	
4	7176	7177	7178	7179	
4	7180	7181	7182	7183	
4	7184	7185	7186	7187	
4	7188	7189	7190	7191	
4	7192	7193	7194	7195	
4	7196	7197	7198	7199	
4	7200	7201	7202	7203	
4	7204	7205	7206	7207	
4	7208	7209	7210	7211	
4	7212	7213	7214	7215	
4	7216	7217	7218	7219	
4	7220	7221	7222	7223	
4	7224	7225	7226	7227	
4	7228	7229	7230	7231	
4	7232	7233	7234	7235	
4	7236	7237	7238	7239	
4	7240	7241	7242	7243	
4	7244	7245	7246	7247	
4	7248	7249	7250	7251	
4	7252	7253	7254	7255	
4	7256	7257	7258	7259	
4	7260	7261	7262	7263	
4	7264	7265	7266	7267	
4	7268	7269	7270	7271	
4	7272	7273	7274	7275	
4	7276	7277	7278	7279	
4	7280	7281	7282	7283	
4	7284	7285	7286	7287	
4	7288	7289	7290	7291	
4	7292	7293	7294	7295	
4	7296	7297	7298	7299	
4	7300	7301	7302	7303	
4	7304	7305	7306	7307	
4	7308	7309	7310	7311	
4	7312	7313	7314	7315	
4	7316	7317	7318	7319	
4	7320	7321	7322	7323	
4	7324	7325	7326	7327	
4	7328	7329	7330	7331	
4	7332	7333	7334	7335	
4	7336	7337	7338	7339	
4	7340	7341	7342	7343	
4	7344	7345	7346	7347	
4	7348	7349	7350	7351	
4	7352	7353	7354	7355	
4	7356	7357	7358	7359	
4	7360	7361	7362	7363	
4	7364	7365	7366	7367	
4	7368	7369	7370	7371	
4	7372	7373	7374	7375	
4	7376	7377	7378	7379	
4	7380	7381	7382	7383	
4	7384	7385	7386	7387	
4	7388	7389	7390	7391	
4	7392	7393	7394	7395	
4	7396	7397	7398	7399	
4	7400	7401	7402	7403	
4	7404	7405	7406	7407	
4	7408	7409	7410	7411	
4	7412	7413	7414	7415	
4	7416	7417	7418	7419	
4	7420	7421	7422	7423	
4	7424	7425	7426	7427	
4	7428	7429	7430	7431	
4	7432	7433	7434	7435	
4	7436	7437	7438	7439	
4	7440	7441	7442	7443	
4	7444	7445	7446	7447	
4	7448	7449	7450	7451	
4	7452	7453	7454	7455	
4	7456	7457	7458	7459	
4	7460	7461	7462	7463	
4	7464	7465	7466	7467	
4	7468	7469	7470	7471	
4	7472	7473	7474	7475	
4	7476	7477	7478	7479	
4	7480	7481	7482	7483	
4	7484	7485	7486	7487	
4	7488	7489	7490	7491	
4	7492	7493	7494	7495	
4	7496	7497	7498	7499	
4	7500	7501	7502	7503	
4	7504	7505	7506	7507	
4	7508	7509	7510	7511	
4	7512	7513	7514	7515	
4	7516	7517	7518	7519	
4	7520	7521	7522	7523	
4	7524	7525	7526	7527	
4	7528	7529	7530	7531	
4	7532	7533	7534	7535	
4	7536	7537	7538	7539	
4	7540	7541	7542	7543	
4	7544	7545	7546	7547	
4	7548	7549	7550	7551	
4	7552	7553	7554	7555	
4	7556	7557	7558	7559	
4	7560	7561	7562	7563	
4	7564	7565	7566	7567	
4	7568	7569	7570	7571	
4	7572	7573	7574	7575	
4	7576	7577	7578	7579	
4	7580	7581	7582	7583	
4	7584	7585	7586	7587	
4	7588	7589	7590	7591	
4	7592	7593	7594	7595	
4	7596	7597	7598	7599	
4	7600	7601	7602	7603	
4	7604	7605	7606	7607	
4	7608	7609	7610	7611	
4	7612	7613	7614	7615	
4	7616	7617	7618	7619	
4	7620	7621	7622	7623	
4	7624	7625	7626	7627	
4	7628	7629	7630	7631	
4	7632	7633	7634	7635	
4	7636	7637	7638	7639	
4	7640	7641	7642	7643	
4	7644	7645	7646	7647	
4	7648	7649	7650	7651	
4	7652	7653	7654	7655	
4	7656	7657	7658	7659	
4	7660	7661	7662	7663	
4	7664	7665	7666	7667	
4	7668	7669	7670	7671	
4	7672	7673	7674	7675	
4	7676	7677	7678	7679	
4	7680	7681	7682	7683	
4	7684	7685	7686	7687	
4	7688	7689	7690	7691	
4	7692	7693	7694	7695	
4	7696	7697	7698	7699	
4	7700	7701	7702	7703	
4	7704	7705	7706	7707	
4	7708	7709	7710	7711	
4	7712	7713	7714	7715	
4	7716	7717	7718	7719	
4	7720	7721	7722	7723	
4	7724	7725	7726	7727	
4	7728	7729	7730	7731	
4	7732	7733	7734	7735	
4	7736	7737	7738	7739	
4	7740	7741	7742	7743	
4	7744	7745	7746	7747	
4	7748	7749	7750	7751	
4	7752	7753	7754	7755	
4	7756	7757	7758	7759	
4	7760	7761	7762	7763	
4	7764	7765	7766	7767	
4	7768	7769	7770	7771	
4	7772	7773	7774	7775	
4	7776	7777	7778	7779	
4	7780	7781	7782	7783	
4	7784	7785	7786	7787	
4	7788	7789	7790	7791	
4	7792	7793	7794	7795	
4	7796	7797	7798	7799	
4	7800	7801	7802	7803	
4	7804	7805	7806	7807	
4	7808	7809	7810	7811	
4	7812	7813	7814	7815	
4	7816	7817	7818	7819	
4	7820	7821	7822	7823	
4	7824	7825	7826	7827	
4	7828	7829	7830	7831	
4	7832	7833	7834	7835	
4	7836	7837	7838	7839	
4	7840	7841	7842	7843	
4	7844	7845	7846	7847	
4	7848	7849	7850	7851	
4	7852	7853	7854	7855	
4	7856	7857	7858	7859	
4	7860	7861	7862	7863	
4	7864	7865	7866	7867	
4	7868	7869	7870	7871	
4	7872	7873	7874	7875	
4	7876	7877	7878	7879	
4	7880	7881	7882	7883	
4	7884	7885	7886	7887	
4	7888	7889	7890	7891	
4	7892	7893	7894	7895	
4	7896	7897	7898	7899	
4	7900	7901	7902	7903	
4	7904	7905	7906	7907	
4	7908	7909	7910	7911	
4	7912	7913	7914	7915	
4	7916	7917	7918	7919	
4	7920	7921	7922	7923	
4	7924	7925	7926	7927	
4	7928	7929	7930	7931	
4	7932	7933	7934	7935	
4	7936	7937	7938	7939	
4	7940	7941	7942	7943	
4	7944	7945	7946	7947	
4	7948	7949	7950	7951	
4	7952	7953	7954	7955	
4	7956	7957	7958	7959	
4	7960	7961	7962	7963	
4	7964	7965	7966	7967	
4	7968	7969	7970	7971	
4	7972	7973	7974	7975	
4	7976	7977	7978	7979	
4	7980	7981	7982	7983	
4	7984	7985	7986	7987	
4	7988	7989	7990	7991	
4	7992	7993	7994	7995	
4	7996	7997	7998	7999	
4	8000	8001	8002	8003	
4	8004	8005	8006	8007	
4	8008	8009	8010	8011	
4	8012	8013	8014	8015	
4	8016	8017	8018	8019	
4	8020	8021	8022	8023	
4	8024	8025	8026	8027	
4	8028	8029	8030	8031	
4	8032	8033	8034	8035	
4	8036	8037	8038	8039	
4	8040	8041	8042	8043	
4	8044	8045	8046	8047	
4	8048	8049	8050	8051	
4	8052	8053	8054	8055	
4	8056	8057	8058	8059	
4	8060	8061	8062	8063	
4	8064	8065	8066	8067	
4	8068	8069	8070	8071	
4	8072	8073	8074	8075	
4	8076	8077	8078	8079	
4	8080	8081	8082	8083	
4	8084	8085	8086	8087	
4	8088	8089	8090	8091	
4	8092	8093	8094	8095	
4	8096	8097	8098	8099	
4	8100	8101	8102	8103	
4	8104	8105	8106	8107	
4	8108	8109	8110	8111	
4	8112	8113	8114	8115	
4	8116	8117	8118	8119	
4	8120	8121	8122	8123	
4	8124	8125	8126	8127	
4	8128	8129	8130	8131	
4	8132	8133	8134	8135	
4	8136	8137	8138	8139	
4	8140	8141	8142	8143	
4	8144	8145	8146	8147	
4	8148	8149	8150	8151	
4	8152	8153	8154	8155	
4	8156	8157	8158	8159	
4	8160	8161	8162	8163	
4	8164	8165	8166	8167	
4	8168	8169	8170	8171	
4	8172	8173	8174	8175	
4	8176	8177	8178	8179	
4	8180	8181	8182	8183	
4	8184	8185	8186	8187	
4	8188	8189	8190	8191	
4	8192	8193	8194	8195	
4	8196	8197	8198	8199	
4	8200	8201	8202	8203	
4	8204	8205	8206	8207	
4	8208	8209	8210	8211	
4	8212	8213	8214	8215	
4	8216	8217	8218	8219	
4	8220	8221	8222	8223	
4	8224	8225	8226	8227	
4	8228	8229	8230	8231	
4	8232	8233	8234	8235	
4	8236	8237	8238	8239	
4	8240	8241	8242	8243	
4	8244	8245	8246	8247	
4	8248	8249	8250	8251	
4	8252	8253	8254	8255	
4	8256	8257	8258	8259	
4	8260	8261	8262	8263	
4	8264	8265	8266	8267	
4	8268	8269	8270	8271	
4	8272	8273	8274	8275	
4	8276	8277	8278	8279	
4	8280	8281	8282	8283	
4	8284	8285	8286	8287	
4	8288	8289	8290	8291	
4	8292	8293	8294	8295	
4	8296	8297	8298	8299	
4	8300	8301	8302	8303	
4	8304	8305	8306	8307	
4	8308	8309	8310	8311	
4	8312	8313	8314	8315	
4	8316	8317	8318	8319	
4	8320	8321	8322	8323	
4	8324	8325	8326	8327	
4	8328	8329	8330	8331	
4	8332	8333	8334	8335	
4	8336	8337	8338	8339	
4	8340	8341	8342	8343	
4	8344	8345	8346	8347	
4	8348	8349	8350	8351	
4	8352	8353	8354	8355	
4	8356	8357	8358	8359	
4	8360	8361	8362	8363	
4	8364	8365	8366	8367	
4	8368	8369	8370	8371	
4	8372	8373	8374	8375	
4	8376	8377	8378	8379	
4	8380	8381	8382	8383	
4	8384	8385	8386	8387	
4	8388	8389	8390	8391	
4	8392	8393	8394	8395	
4	8396	8397	8398	8399	
4	8400	8401	8402	8403	
4	8404	8405	8406	8407	
4	8408	8409	8410	8411	
4	8412	8413	8414	8415	
4	8416	8417	8418	8419	
4	8420	8421	8422	8423	
4	8424	8425	8426	8427	
4	8428	8429	8430	8431	
4	8432	8433	8434	8435	
4	8436	8437	8438	8439	
4	8440	8441	8442	8443	
4	8444	8445	8446	8447	
4	8448	8449	8450	8451	
4	8452	8453	8454	8455	
4	8456	8457	8458	8459	
4	8460	8461	8462	8463	
4	8464	8465	8466	8467	
4	8468	8469	8470	8471	
4	8472	8473	8474	8475	
4	8476	8477	8478	8479	
4	8480	8481	8482	8483	
4	8484	8485	8486	8487	
4	8488	8489	8490	8491	
4	8492	8493	8494	8495	
4	8496	8497	8498	8499	
4	8500	8501	8502	8503	
4	8504	8505	8506	8507	
4	8508	8509	8510	8511	
4	8512	8513	8514	8515	
4	8516	8517	8518	8519	
4	8520	8521	8522	8523	
4	8524	8525	8526	8527	
4	8528	8529	8530	8531	
4	8532	8533	8534	8535	
4	8536	8537	8538	8539	
4	8540	8541	8542	8543	
4	8544	8545	8546	8547	
4	8548	8549	8550	8551	
4	8552	8553	8554	8555	
4	8556	8557	8558	8559	
4	8560	8561	8562	8563	
4	8564	8565	8566	8567	
4	8568	8569	8570	8571	
4	8572	8573	8574	8575	
4	8576	8577	8578	8579	
4	8580	8581	8582	8583	
4	8584	8585	8586	8587	
4	8588	8589	8590	8591	
4	8592	8593	8594	8595	
4	8596	8597	8598	8599	
4	8600	8601	8602	8603	
4	8604	8605	8606	8607	
4	8608	8609	8610	8611	
4	8612	8613	8614	8615	
4	8616	8617	8618	8619	
4	8620	8621	8622	8623	
4	8624	8625	8626	8627	
4	8628	8629	8630	8631	
4	8632	8633	8634	8635	
4	8636	8637	8638	8639	
4	8640	8641	8642	8643	
4	8644	8645	8646	8647	
4	8648	8649	8650	8651	
4	8652	8653	8654	8655	
4	8656	8657	8658	8659	
4	8660	8661	8662	8663	
4	8664	8665	8666	8667	
4	8668	8669	8670	8671	
4	8672	8673	8674	8675	
4	8676	8677	8678	8679	
4	8680	8681	8682	8683	
4	8684	8685	8686	8687	
4	8688	8689	8690	8691	
4	8692	8693	8694	8695	
4	8696	8697	8698	8699	
4	8700	8701	8702	8703	
4	8704	8705	8706	8707	
4	8708	8709	8710	8711	
4	8712	8713	8714	8715	
4	8716	8717	8718	8719	
4	8720	8721	8722	8723	
4	8724	8725	8726	8727	
4	8728	8729	8730	8731	
4	8732	8733	8734	8735	
4	8736	8737	8738	8739	
4	8740	8741	8742	8743	
4	8744	8745	8746	8747	
4	8748	8749	8750	8751	
4	8752	8753	8754	8755	
4	8756	8757	8758	8759	
4	8760	8761	8762	8763	
4	8764	8765	8766	8767	
4	8768	8769	8770	8771	
4	8772	8773	8774	8775	
4	8776	8777	8778	8779	
4	8780	8781	8782	8783	
4	8784	8785	8786	8787	
4	8788	8789	8790	8791	
4	8792	8793	8794	8795	
4	8796	8797	8798	8799	
4	8800	8801	8802	8803	
4	8804	8805	8806	8807	
4	8808	8809	8810	8811	
4	8812	8813	8814	8815	
4	8816	8817	8818	8819	
4	8820	8821	8822	8823	
4	8824	8825	8826	8827	
4	8828	8829	8830	8831	
4	8832	8833	8834	8835	
4	8836	8837	8838	8839	
4	8840	8841	8842	8843	
4	8844	8845	8846	8847	
4	8848	8849	8850	8851	
4	8852	8853	8854	8855	
4	8856	8857	8858	8859	
4	8860	8861	8862	8863	
4	8864	8865	8866	8867	
4	8868	8869	8870	8871	
4	8872	8873	8874	8875	
4	8876	8877	8878	8879	
4	8880	8881	8882	8883	
4	8884	8885	8886	8887	
4	8888	8889	8890	8891	
4	8892	8893	8894	8895	
4	8896	8897	8898	8899	
4	8900	8901	8902	8903	
4	8904	8905	8906	8907	
4	8908	8909	8910	8911	
4	8912	8913	8914	8915	
4	8916	8917	8918	8919	
4	8920	8921	8922	8923	
4	8924	8925	8926	8927	
4	8928	8929	8930	8931	
4	8932	8933	8934	8935	
4	8936	8937	8938	8939	
4	8940	8941	8942	8943	
4	8944	8945	8946	8947	
4	8948	8949	8950	8951	
4	8952	8953	8954	8955	
4	8956	8957	8958	8959	
4	8960	8961	8962	8963	
4	8964	8965	8966	8967	
4	8968	8969	8970	8971	
4	8972	8973	8974	8975	
4	8976	8977	8978	8979	
4	8980	8981	8982	8983	
4	8984	8985	8986	8987	
4	8988	8989	8990	8991	
4	8992	8993	8994	8995	
4	8996	8997	8998	8999	
4	9000	9001	9002	9003	
4	9004	9005	9006	9007	
4	9008	9009	9010	9011	
4	9012	9013	9014	9015	
4	9016	9017	9018	9019	
4	9020	9021	9022	9023	
4	9024	9025	9026	9027	
4	9028	9029	9030	9031	
4	9032	9033	9034	9035	
4	9036	9037	9038	9039	
4	9040	9041	9042	9043	
4	9044	9045	9046	9047	
4	9048	9049	9050	9051	
4	9052	9053	9054	9055	
4	9056	9057	9058	9059	
4	9060	9061	9062	9063	
4	9064	9065	9066	9067	
4	9068	9069	9070	9071	
4	9072	9073	9074	9075	
4	9076	9077	9078	9079	
4	9080	9081	9082	9083	
4	9084	9085	9086	9087	
4	9088	9089	9090	9091	
4	9092	9093	9094	9095	
4	9096	9097	9098	9099	
4	9100	9101	9102	9103	
4	9104	9105	9106	9107	
4	9108	9109	9110	9111	
4	9112	9113	9114	9115	
4	9116	9117	9118	9119	
4	9120	9121	9122	9123	
4	9124	9125	9126	9127	
4	9128	9129	9130	9131	
4	9132	9133	9134	9135	
4	9136	9137	9138	9139	
4	9140	9141	9142	9143	
4	9144	9145	9146	9147	
4	9148	9149	9150	9151	
4	9152	9153	9154	9155	
4	9156	9157	9158	9159	
4	9160	9161	9162	9163	
4	9164	9165	9166	9167	
4	9168	9169	9170	9171	
4	9172	9173	9174	9175	
4	9176	9177	9178	9179	
4	9180	9181	9182	9183	
4	9184	9185	9186	9187	
4	9188	9189	9190	9191	
4	9192	9193	9194	9195	
4	9196	9197	9198	9199	
4	9200	9201	9202	9203	
4	9204	9205	9206	9207	
4	9208	9209	9210	9211	
4	9212	9213	9214	9215	
4	9216	9217	9218	9219	
4	9220	9221	9222	9223	
4	9224	9225	9226	9227	
4	9228	9229	9230	9231	
4	9232	9233	9234	9235	
4	9236	9237	9238	9239	
4	9240	9241	9242	9243	
4	9244	9245	9246	9247	
4	9248	9249	9250	9251	
4	9252	9253	9254	9255	
4	9256	9257	9258	9259	
4	9260	9261	9262	9263	
4	9264	9265	9266	9267	
4	9268	9269	9270	9271	
4	9272	9273	9274	9275	
4	9276	9277	9278	9279	
4	9280	9281	9282	9283	
4	9284	9285	9286	9287	
4	9288	9289	9290	9291	
4	9292	9293	9294	9295	
4	9296	9297	9298	9299	
4	9300	9301	9302	9303	
4	9304	9305	9306	9307	
4	9308	9309	9310	9311	
4	9312	9313	9314	9315	
4	9316	9317	9318	9319	
4	9320	9321	9322	9323	
4	9324	9325	9326	9327	
4	9328	9329	9330	9331	
4	9332	9333	9334	9335	
4	9336	9337	9338	9339	
4	9340	9341	9342	9343	
4	9344	9345	9346	9347	
4	9348	9349	9350	9351	
4	9352	9353	9354	9355	
4	9356	9357	9358	9359	
4	9360	9361	9362	9363	
4	9364	9365	9366	9367	
4	9368	9369	9370	9371	
4	9372	9373	9374	9375	
4	9376	9377	9378	9379	
4	9380	9381	9382	9383	
4	9384	9385	9386	9387	
4	9388	9389	9390	9391	
4	9392	9393	9394	9395	
4	9396	9397	9398	9399	
4	9400	9401	9402	9403	
4	9404	9405	9406	9407	
4	9408	9409	9410	9411	
4	9412	9413	9414	9415	
4	9416	9417	9418	9419	
4	9420	9421	9422	9423	
4	9424	9425	9426	9427	
4	9428	9429	9430	9431	
4	9432	9433	9434	9435	
4	9436	9437	9438	9439	
4	9440	9441	9442	9443	
4	9444	9445	9446	9447	
4	9448	9449	9450	9451	
4	9452	9453	9454	9455	
4	9456	9457	9458	9459	
4	9460	9461	9462	9463	
4	9464	9465	9466	9467	
4	9468	9469	9470	9471	
4	9472	9473	9474	9475	
4	9476	9477	9478	9479	
4	9480	9481	9482	9483	
4	9484	9485	9486	9487	
4	9488	9489	9490	9491	
4	9492	9493	9494	9495	
4	9496	9497	9498	9499	
4	9500	9501	9502	9503	
4	9504	9505	9506	9507	
4	9508	9509	9510	9511	
4	9512	9513	9514	9515	
4	9516	9517	9518	9519	
4	9520	9521	9522	9523	
4	9524	9525	9526	9527	
4	9528	9529	9530	9531	
4	9532	9533	9534	9535	
4	9536	9537	9538	9539	
4	9540	9541	9542	9543	
4	9544	9545	9546	9547	
4	9548	9549	9550	9551	
4	9552	9553	9554	9555	
4	9556	9557	9558	9559	
4	9560	9561	9562	9563	
4	9564	9565	9566	9567	
4	9568	9569	9570	9571	
4	9572	9573	9574	9575	
4	9576	9577	9578	9579	
4	9580	9581	9582	9583	
4	9584	9585	9586	9587	
4	9588	9589	9590	9591	
4	9592	9593	9594	9595	
4	9596	9597	9598	9599	
4	9600	9601	9602	9603	
4	9604	9605	9606	9607	
4	9608	9609	9610	9611	
4	9612	9613	9614	9615	
4	9616	9617	9618	9619	
4	9620	9621	9622	9623	
4	9624	9625	9626	9627	
4	9628	9629	9630	9631	
4	9632	9633	9634	9635	
4	9636	9637	9638	9639	
4	9640	9641	9642	9643	
4	9644	9645	9646	9647	
4	9648	9649	9650	9651	
4	9652	9653	9654	9655	
4	9656	9657	9658	9659	
4	9660	9661	9662	9663	
4	9664	9665	9666	9667	
4	9668	9669	9670	9671	
4	9672	9673	9674	9675	
4	9676	9677	9678	9679	
4	9680	9681	9682	9683	
4	9684	9685	9686	9687	
4	9688	9689	9690	9691	
4	9692	9693	9694	9695	
4	9696	9697	9698	9699	
4	9700	9701	9702	9703	
4	9704	9705	9706	9707	
4	9708	9709	9710	9711	
4	9712	9713	9714	9715	
4	9716	9717	9718	9719	
4	9720	9721	9722	9723	
4	9724	9725	9726	9727	
4	9728	9729	9730	9731	
4	9732	9733	9734	9735	
4	9736	9737	9738	9739	
4	9740	9741	9742	9743	
4	9744	9745	9746	9747	
4	9748	9749	9750	9751	
4	9752	9753	9754	9755	
4	9756	9757	9758	9759	
4	9760	9761	9762	9763	
4	9764	9765	9766	9767	
4	9768	9769	9770	9771	
4	9772	9773	9774	9775	
4	9776	9777	9778	9779	
4	9780	9781	9782	9783	
4	9784	9785	9786	9787	
4	9788	9789	9790	9791	
4	9792	9793	9794	9795	
4	9796	9797	9798	9799	
4	9800	9801	9802	9803	
4	9804	9805	9806	9807	
4	9808	9809	9810	9811	
4	9812	9813	9814	9815	
4	9816	9817	9818	9819	
4	9820	9821	9822	9823	
4	9824	9825	9826	9827	
4	9828	9829	9830	9831	
4	9832	9833	9834	9835	
4	9836	9837	9838	9839	
4	9840	9841	9842	9843	
4	9844	9845	9846	9847	
4	9848	9849	9850	9851	
4	9852	9853	9854	9855	
4	9856	9857	9858	9859	
4	9860	9861	9862	9863	
4	9864	9865	9866	9867	
4	9868	9869	9870	9871	
4	9872	9873	9874	9875	
4	9876	9877	9878	9879	
4	9880	9881	9882	9883	
4	9884	9885	9886	9887	
4	9888	9889	9890	9891	
4	9892	9893	9894	9895	
4	9896	9897	9898	9899	
4	9900	9901	9902	9903	
4	9904	9905	9906	9907	
4	9908	9909	9910	9911	
4	9912	9913	9914	9915	
4	9916	9917	9918	9919	
4	9920	9921	9922	9923	
4	9924	9925	9926	9927	
4	9928	9929	9930	9931	
4	9932	9933	9934	9935	
4	9936	9937	9938	9939	
4	9940	9941	9942	9943	
4	9944	9945	9946	9947	
4	9948	9949	9950	9951	
4	9952	9953	9954	9955	
4	9956	9957	9958	9959	
4	9960	9961	9962	9963	
4	9964	9965	9966	9967	
4	9968	9969	9970	9971	
4	9972	9973	9974	9975	
4	9976	9977	9978	9979	
4	9980	9981	9982	9983	
4	9984	9985	9986	9987	
4	9988	9989	9990	9991	
4	9992	9993	9994	9995	
4	9996	9997	9998	9999	
4	10000	10001	10002	10003	
4	10004	10005	10006	10007	
4	10008	10009	10010	10011	
4	10012	10013	10014	10015	
4	10016	10017	10018	10019	
4	10020	10021	10022	10023	
4	10024	10025	10026	10027	
4	10028	10029	10030	10031	
4	10032	10033	10034	10035	
4	10036	10037	10038	10039	
4	10040	10041	10042	10043	
4	10044	10045	10046	10047	
4	10048	10049	10050	10051	
4	10052	10053	10054	10055	
4	10056	10057	10058	10059	
4	10060	10061	10062	10063	
4	10064	10065	10066	10067	
4	10068	10069	10070	10071	
4	10072	10073	10074	10075	
4	10076	10077	10078	10079	
4	10080	10081	10082	10083	
4	10084	10085	10086	10087	
4	10088	10089	10090	10091	
4	10092	10093	10094	10095	
4	10096	10097	10098	10099	
4	10100	10101	10102	10103	
4	10104	10105	10106	10107	
4	10108	10109	10110	10111	
4	10112	10113	10114	10115	
4	10116	10117	10118	10119	
4	10120	10121	10122	10123	
4	10124	10125	10126	10127	
4	10128	10129	10130	10131	
4	10132	10133	10134	10135	
4	10136	10137	10138	10139	
4	10140	10141	10142	10143	
4	10144	10145	10146	10147	
4	10148	10149	10150	10151	
4	10152	10153	10154	10155	
4	10156	10157	10158	10159	
4	10160	10161	10162	10163	
4	10164	10165	10166	10167	
4	10168	10169	10170	10171	
4	10172	10173	10174	10175	
4	10176	10177	10178	10179	
4	10180	10181	10182	10183	
4	10184	10185	10186	10187	
4	10188	10189	10190	10191	
4	10192	10193	10194	10195	
4	10196	10197	10198	10199	
4	10200	10201	10202	10203	
4	10204	10205	10206	10207	
4	10208	10209	10210	10211	
4	10212	10213	10214	10215	
4	10216	10217	10218	10219	
4	10220	10221	10222	10223	
4	10224	10225	10226	10227	
4	10228	10229	10230	10231	
4	10232	10233	10234	10235	
4	10236	10237	10238	10239	
4	10240	10241	10242	10243	
4	10244	10245	10246	10247	
4	10248	10249	10250	10251	
4	10252	10253	10254	10255	
4	10256	10257	10258	10259	
4	10260	10261	10262	10263	
4	10264	10265	10266	10267	
4	10268	10269	10270	10271	
4	10272	10273	10274	10275	
4	10276	10277	10278	10279	
4	10280	10281	10282	10283	
4	10284	10285	10286	10287	
4	10288	10289	10290	10291	
4	10292	10293	10294	10295	
4	10296	10297	10298	10299	
4	10300	10301	10302	10303	
4	10304	10305	10306	10307	
4	10308	10309	10310	10311	
4	10312	10313	10314	10315	
4	10316	10317	10318	10319	
4	10320	10321	10322	10323	
4	10324	10325	10326	10327	
4	10328	10329	10330	10331	
4	10332	10333	10334	10335	
4	10336	10337	10338	10339	
4	10340	10341	10342	10343	
4	10344	10345	10346	10347	
4	10348	10349	10350	10351	
4	10352	10353	10354	10355	
4	10356	10357	10358	10359	
4	10360	10361	10362	10363	
4	10364	10365	10366	10367	
4	10368	10369	10370	10371	
4	10372	10373	10374	10375	
4	10376	10377	10378	10379	
4	10380	10381	10382	10383	
4	10384	10385	10386	10387	
4	10388	10389	10390	10391	
4	10392	10393	10394	10395	
4	10396	10397	10398	10399	
4	10400	10401	10402	10403	
4	10404	10405	10406	10407	
4	10408	10409	10410	10411	
4	10412	10413	10414	10415	
4	10416	10417	10418	10419	
4	10420	10421	10422	10423	
4	10424	10425	10426	10427	
4	10428	10429	10430	10431	
4	10432	10433	10434	10435	
4	10436	10437	10438	10439	
4	10440	10441	10442	10443	
4	10444	10445	10446	10447	
4	10448	10449	10450	10451	
4	10452	10453	10454	10455	
4	10456	10457	10458	10459	
4	10460	10461	10462	10463	
4	10464	10465	10466	10467	
4	10468	10469	10470	10471	
4	10472	10473	10474	10475	
4	10476	10477	10478	10479	
4	10480	10481	10482	10483	
4	10484	10485	10486	10487	
4	10488	10489	10490	10491	
4	10492	10493	10494	10495	
4	10496	10497	10498	10499	
4	10500	10501	10502	10503	
4	10504	10505	10506	10507	
4	10508	10509	10510	10511	
4	10512	10513	10514	10515	
4	10516	10517	10518	10519	
4	10520	10521	10522	10523	
4	10524	10525	10526	10527	
4	10528	10529	10530	10531	
4	10532	10533	10534	10535	
4	10536	10537	10538	10539	
4	10540	10541	10542	10543	
4	10544	10545	10546	10547	
4	10548	10549	10550	10551	
4	10552	10553	10554	10555	
4	10556	10557	10558	10559	
4	10560	10561	10562	10563	
4	10564	10565	10566	10567	
4	10568	10569	10570	10571	
4	10572	10573	10574	10575	
4	10576	10577	10578	10579	
4	10580	10581	10582	10583	
4	10584	10585	10586	10587	
4	10588	10589	10590	10591	
4	10592	10593	10594	10595	
4	10596	10597	10598	10599	
4	10600	10601	10602	10603	
4	10604	10605	10606	10607	
4	10608	10609	10610	10611	
4	10612	10613	10614	10615	
4	10616	10617	10618	10619	
4	10620	10621	10622	10623	
4	10624	10625	10626	10627	
4	10628	10629	10630	10631	
4	10632	10633	10634	10635	
4	10636	10637	10638	10639	
4	10640	10641	10642	10643	
4	10644	10645	10646	10647	
4	10648	10649	10650	10651	
4	10652	10653	10654	10655	
4	10656	10657	10658	10659	
4	10660	10661	10662	10663	
4	10664	10665	10666	10667	
4	10668	10669	10670	10671	
4	10672	10673	10674	10675	
4	10676	10677	10678	10679	
4	10680	10681	10682	10683	
4	10684	10685	10686	10687	
4	10688	10689	10690	10691	
4	10692	10693	10694	10695	
4	10696	10697	10698	10699	
4	10700	10701	10702	10703	
4	10704	10705	10706	10707	
4	10708	10709	10710	10711	
4	10712	10713	10714	10715	
4	10716	10717	10718	10719	
4	10720	10721	10722	10723	
4	10724	10725	10726	10727	
4	10728	10729	10730	10731	
4	10732	10733	10734	10735	
4	10736	10737	10738	10739	
4	10740	10741	10742	10743	
4	10744	10745	10746	10747	
4	10748	10749	10750	10751	
4	10752	10753	10754	10755	
4	10756	10757	10758	10759	
4	10760	10761	10762	10763	
4	10764	10765	10766	10767	
4	10768	10769	10770	10771	
4	10772	10773	10774	10775	
4	10776	10777	10778	10779	
4	10780	10781	10782	10783	
4	10784	10785	10786	10787	
4	10788	10789	10790	10791	
4	10792	10793	10794	10795	
4	10796	10797	10798	10799	
4	10800	10801	10802	10803	
4	10804	10805	10806	10807	
4	10808	10809	10810	10811	
4	10812	10813	10814	10815	
4	10816	10817	10818	10819	
4	10820	10821	10822	10823	
4	10824	10825	10826	10827	
4	10828	10829	10830	10831	
4	10832	10833	10834	10835	
4	10836	10837	10838	10839	
4	10840	10841	10842	10843	
4	10844	10845	10846	10847	
4	10848	10849	10850	10851	
4	10852	10853	10854	10855	
4	10856	10857	10858	10859	
4	10860	10861	10862	10863	
4	10864	10865	10866	10867	
4	10868	10869	10870	10871	
4	10872	10873	10874	10875	
4	10876	10877	10878	10879	
4	10880	10881	10882	10883	
4	10884	10885	10886	10887	
4	10888	10889	10890	10891	
4	10892	10893	10894	10895	
4	10896	10897	10898	10899	
4	10900	10901	10902	10903	
4	10904	10905	10906	10907	
4	10908	10909	10910	10911	
4	10912	10913	10914	10915	
4	10916	10917	10918	10919	
4	10920	10921	10922	10923	
4	10924	10925	10926	10927	
4	10928	10929	10930	10931	
4	10932	10933	10934	10935	
4	10936	10937	10938	10939	
4	10940	10941	10942	10943	
4	10944	10945	10946	10947	
4	10948	10949	10950	10951	
4	10952	10953	10954	10955	
4	10956	10957	10958	10959	
4	10960	10961	10962	10963	
4	10964	10965	10966	10967	
4	10968	10969	10970	10971	
4	10972	10973	10974	10975	
4	10976	10977	10978	10979	
4	10980	10981	10982	10983	
4	10984	10985	10986	10987	
4	10988	10989	10990	10991	
4	10992	10993	10994	10995	
4	10996	10997	10998	10999	
4	11000	11001	11002	11003	
4	11004	11005	11006	11007	
4	11008	11009	11010	11011	
4	11012	11013	11014	11015	
4	11016	11017	11018	11019	
4	11020	11021	11022	11023	
4	11024	11025	11026	11027	
4	11028	11029	11030	11031	
4	11032	11033	11034	11035	
4	11036	11037	11038	11039	
4	11040	11041	11042	11043	
4	11044	11045	11046	11047	
4	11048	11049	11050	11051	
4	11052	11053	11054	11055	
4	11056	11057	11058	11059	
4	11060	11061	11062	11063	
4	11064	11065	11066	11067	
4	11068	11069	11070	11071	
4	11072	11073	11074	11075	
4	11076	11077	11078	11079	
4	11080	11081	11082	11083	
4	11084	11085	11086	11087	
4	11088	11089	11090	11091	
4	11092	11093	11094	11095	
4	11096	11097	11098	11099	
4	11100	11101	11102	11103	
4	11104	11105	11106	11107	
4	11108	11109	11110	11111	
4	11112	11113	11114	11115	
4	11116	11117	11118	11119	
4	11120	11121	11122	11123	
4	11124	11125	11126	11127	
4	11128	11129	11130	11131	
4	11132	11133	11134	11135	
4	11136	11137	11138	11139	
4	11140	11141	11142	11143	
4	11144	11145	11146	11147	
4	11148	11149	11150	11151	
4	11152	11153	11154	11155	
4	11156	11157	11158	11159	
4	11160	11161	11162	11163	
4	11164	11165	11166	11167	
4	11168	11169	11170	11171	
4	11172	11173	11174	11175	
4	11176	11177	11178	11179	
4	11180	11181	11182	11183	
4	11184	11185	11186	11187	
4	11188	11189	11190	11191	
4	11192	11193	11194	11195	
4	11196	11197	11198	11199	
4	11200	11201	11202	11203	
4	11204	11205	11206	11207	
4	11208	11209	11210	11211	
4	11212	11213	11214	11215	
4	11216	11217	11218	11219	
4	11220	11221	11222	11223	
4	11224	11225	11226	11227	
4	11228	11229	11230	11231	
4	11232	11233	11234	11235	
4	11236	11237	11238	11239	
4	11240	11241	11242	11243	
4	11244	11245	11246	11247	
4	11248	11249	11250	11251	
4	11252	11253	11254	11255	
4	11256	11257	11258	11259	
4	11260	11261	11262	11263	
4	11264	11265	11266	11267	
4	11268	11269	11270	11271	
4	11272	11273	11274	11275	
4	11276	11277	11278	11279	
4	11280	11281	11282	11283	
4	11284	11285	11286	11287	
4	11288	11289	11290	11291	
4	11292	11293	11294	11295	
4	11296	11297	11298	11299	
4	11300	11301	11302	11303	
4	11304	11305	11306	11307	
4	11308	11309	11310	11311	
4	11312	11313	11314	11315	
4	11316	11317	11318	11319	
4	11320	11321	11322	11323	
4	11324	11325	11326	11327	
4	11328	11329	11330	11331	
4	11332	11333	11334	11335	
4	11336	11337	11338	11339	
4	11340	11341	11342	11343	
4	11344	11345	11346	11347	
4	11348	11349	11350	11351	
4	11352	11353	11354	11355	
4	11356	11357	11358	11359	
4	11360	11361	11362	11363	
4	11364	11365	11366	11367	
4	11368	11369	11370	11371	
4	11372	11373	11374	11375	
4	11376	11377	11378	11379	
4	11380	11381	11382	11383	
4	11384	11385	11386	11387	
4	11388	11389	11390	11391	
4	11392	11393	11394	11395	
4	11396	11397	11398	11399	
4	11400	11401	11402	11403	
4	11404	11405	11406	11407	
4	11408	11409	11410	11411	
4	11412	11413	11414	11415	
4	11416	11417	11418	11419	
4	11420	11421	11422	11423	
4	11424	11425	11426	11427	
4	11428	11429	11430	11431	
4	11432	11433	11434	11435	
4	11436	11437	11438	11439	
4	11440	11441	11442	11443	
4	11444	11445	11446	11447	
4	11448	11449	11450	11451	
4	11452	11453	11454	11455	
4	11456	11457	11458	11459	
4	11460	11461	11462	11463	
4	11464	11465	11466	11467	
4	11468	11469	11470	11471	
4	11472	11473	11474	11475	
4	11476	11477	11478	11479	
4	11480	11481	11482	11483	
4	11484	11485	11486	11487	
4	11488	11489	11490	11491	
4	11492	11493	11494	11495	
4	11496	11497	11498	11499	
4	11500	11501	11502	11503	
4	11504	11505	11506	11507	
4	11508	11509	11510	11511	
4	11512	11513	11514	11515	
4	11516	11517	11518	11519	
4	11520	11521	11522	11523	
4	11524	11525	11526	11527	
4	11528	11529	11530	11531	
4	11532	11533	11534	11535	
4	11536	11537	11538	11539	
4	11540	11541	11542	11543	
4	11544	11545	11546	11547	
4	11548	11549	11550	11551	
4	11552	11553	11554	11555	
4	11556	11557	11558	11559	
4	11560	11561	11562	11563	
4	11564	11565	11566	11567	
4	11568	11569	11570	11571	
4	11572	11573	11574	11575	
4	11576	11577	11578	11579	
4	11580	11581	11582	11583	
4	11584	11585	11586	11587	
4	11588	11589	11590	11591	
4	11592	11593	11594	11595	
4	11596	11597	11598	11599	
4	11600	11601	11602	11603	
4	11604	11605	11606	11607	
4	11608	11609	11610	11611	
4	11612	11613	11614	11615	
4	11616	11617	11618	11619	
4	11620	11621	11622	11623	
4	11624	11625	11626	11627	
4	11628	11629	11630	11631	
4	11632	11633	11634	11635	
4	11636	11637	11638	11639	
4	11640	11641	11642	11643	
4	11644	11645	11646	11647	
4	11648	11649	11650	11651	
4	11652	11653	11654	11655	
4	11656	11657	11658	11659	
4	11660	11661	11662	11663	
4	11664	11665	11666	11667	
4	11668	11669	11670	11671	
4	11672	11673	11674	11675	
4	11676	11677	11678	11679	
4	11680	11681	11682	11683	
4	11684	11685	11686	11687	
4	11688	11689	11690	11691	
4	11692	11693	11694	11695	
4	11696	11697	11698	11699	
4	11700	11701	11702	11703	
4	11704	11705	11706	11707	
4	11708	11709	11710	11711	
4	11712	11713	11714	11715	
4	11716	11717	11718	11719	
4	11720	11721	11722	11723	
4	11724	11725	11726	11727	
4	11728	11729	11730	11731	
4	11732	11733	11734	11735	
4	11736	11737	11738	11739	
4	11740	11741	11742	11743	
4	11744	11745	11746	11747	
4	11748	11749	11750	11751	
4	11752	11753	11754	11755	
4	11756	11757	11758	11759	
4	11760	11761	11762	11763	
4	11764	11765	11766	11767	
4	11768	11769	11770	11771	
4	11772	11773	11774	11775	
4	11776	11777	11778	11779	
4	11780	11781	11782	11783	
4	11784	11785	11786	11787	
4	11788	11789	11790	11791	
4	11792	11793	11794	11795	
4	11796	11797	11798	11799	
4	11800	11801	11802	11803	
4	11804	11805	11806	11807	
4	11808	11809	11810	11811	
4	11812	11813	11814	11815	
4	11816	11817	11818	11819	
4	11820	11821	11822	11823	
4	11824	11825	11826	11827	
4	11828	11829	11830	11831	
4	11832	11833	11834	11835	
4	11836	11837	11838	11839	
4	11840	11841	11842	11843	
4	11844	11845	11846	11847	
4	11848	11849	11850	11851	
4	11852	11853	11854	11855	
4	11856	11857	11858	11859	
4	11860	11861	11862	11863	
4	11864	11865	11866	11867	
4	11868	11869	11870	11871	
4	11872	11873	11874	11875	
4	11876	11877	11878	11879	
4	11880	11881	11882	11883	
4	11884	11885	11886	11887	
4	11888	11889	11890	11891	
4	11892	11893	11894	11895	
4	11896	11897	11898	11899	
4	11900	11901	11902	11903	
4	11904	11905	11906	11907	
4	11908	11909	11910	11911	
4	11912	11913	11914	11915	
4	11916	11917	11918	11919	
4	11920	11921	11922	11923	
4	11924	11925	11926	11927	
4	11928	11929	11930	11931	
4	11932	11933	11934	11935	
4	11936	11937	11938	11939	
4	11940	11941	11942	11943	
4	11944	11945	11946	11947	
4	11948	11949	11950	11951	
4	11952	11953	11954	11955	
4	11956	11957	11958	11959	
4	11960	11961	11962	11963	
4	11964	11965	11966	11967	
4	11968	11969	11970	11971	
4	11972	11973	11974	11975	
4	11976	11977	11978	11979	
4	11980	11981	11982	11983	
4	11984	11985	11986	11987	
4	11988	11989	11990	11991	
4	11992	11993	11994	11995	
4	11996	11997	11998	11999	
4	12000	12001	12002	12003	
4	12004	12005	12006	12007	
4	12008	12009	12010	12011	
4	12012	12013	12014	12015	
4	12016	12017	12018	12019	
4	12020	12021	12022	12023	
4	12024	12025	12026	12027	
4	12028	12029	12030	12031	
4	12032	12033	12034	12035	
4	12036	12037	12038	12039	
4	12040	12041	12042	12043	
4	12044	12045	12046	12047	
4	12048	12049	12050	12051	
4	12052	12053	12054	12055	
4	12056	12057	12058	12059	
4	12060	12061	12062	12063	
4	12064	12065	12066	12067	
4	12068	12069	12070	12071	
4	12072	12073	12074	12075	
4	12076	12077	12078	12079	
4	12080	12081	12082	12083	
4	12084	12085	12086	12087	
4	12088	12089	12090	12091	
4	12092	12093	12094	12095	
4	12096	12097	12098	12099	
4	12100	12101	12102	12103	
4	12104	12105	12106	12107	
4	12108	12109	12110	12111	
4	12112	12113	12114	12115	
4	12116	12117	12118	12119	
4	12120	12121	12122	12123	
4	12124	12125	12126	12127	
4	12128	12129	12130	12131	
4	12132	12133	12134	12135	
4	12136	12137	12138	12139	
4	12140	12141	12142	12143	
4	12144	12145	12146	12147	
4	12148	12149	12150	12151	
4	12152	12153	12154	12155	
4	12156	12157	12158	12159	
4	12160	12161	12162	12163	
4	12164	12165	12166	12167	
4	12168	12169	12170	12171	
4	12172	12173	12174	12175	
4	12176	12177	12178	12179	
4	12180	12181	12182	12183	
4	12184	12185	12186	12187	
4	12188	12189	12190	12191	
4	12192	12193	12194	12195	
4	12196	12197	12198	12199	
4	12200	12201	12202	12203	
4	12204	12205	12206	12207	
4	12208	12209	12210	12211	
4	12212	12213	12214	12215	
4	12216	12217	12218	12219	
4	12220	12221	12222	12223	
4	12224	12225	12226	12227	
4	12228	12229	12230	12231	
4	12232	12233	12234	12235	
4	12236	12237	12238	12239	
4	12240	12241	12242	12243	
4	12244	12245	12246	12247	
4	12248	12249	12250	12251	
4	12252	12253	12254	12255	
4	12256	12257	12258	12259	
4	12260	12261	12262	12263	
4	12264	12265	12266	12267	
4	12268	12269	12270	12271	
4	12272	12273	12274	12275	
4	12276	12277	12278	12279	
4	12280	12281	12282	12283	
4	12284	12285	12286	12287	
4	12288	12289	12290	12291	
4	12292	12293	12294	12295	
4	12296	12297	12298	12299	
4	12300	12301	12302	12303	
4	12304	12305	12306	12307	
4	12308	12309	12310	12311	
4	12312	12313	12314	12315	
4	12316	12317	12318	12319	
4	12320	12321	12322	12323	
4	12324	12325	12326	12327	
4	12328	12329	12330	12331	
4	12332	12333	12334	12335	
4	12336	12337	12338	12339	
4	12340	12341	12342	12343	
4	12344	12345	12346	12347	
4	12348	12349	12350	12351	
4	12352	12353	12354	12355	
4	12356	12357	12358	12359	
4	12360	12361	12362	12363	
4	12364	12365	12366	12367	
4	12368	12369	12370	12371	
4	12372	12373	12374	12375	
4	12376	12377	12378	12379	
4	12380	12381	12382	12383	
4	12384	12385	12386	12387	
4	12388	12389	12390	12391	
4	12392	12393	12394	12395	
4	12396	12397	12398	12399	
4	12400	12401	12402	12403	
4	12404	12405	12406	12407	
4	12408	12409	12410	12411	
4	12412	12413	12414	12415	
4	12416	12417	12418	12419	
4	12420	12421	12422	12423	
4	12424	12425	12426	12427	
4	12428	12429	12430	12431	
4	12432	12433	12434	12435	
4	12436	12437	12438	12439	
4	12440	12441	12442	12443	
4	12444	12445	12446	12447	
4	12448	12449	12450	12451	
4	12452	12453	12454	12455	
4	12456	12457	12458	12459	
4	12460	12461	12462	12463	
4	12464	12465	12466	12467	
4	12468	12469	12470	12471	
4	12472	12473	12474	12475	
4	12476	12477	12478	12479	
4	12480	12481	12482	12483	
4	12484	12485	12486	12487	
4	12488	12489	12490	12491	
4	12492	12493	12494	12495	
4	12496	12497	12498	12499	
4	12500	12501	12502	12503	
4	12504	12505	12506	12507	
4	12508	12509	12510	12511	
4	12512	12513	12514	12515	
4	12516	12517	12518	12519	
4	12520	12521	12522	12523	
4	12524	12525	12526	12527	
4	12528	12529	12530	12531	
4	12532	12533	12534	12535	
4	12536	12537	12538	12539	
4	12540	12541	12542	12543	
4	12544	12545	12546	12547	
4	12548	12549	12550	12551	
4	12552	12553	12554	12555	
4	12556	12557	12558	12559	
4	12560	12561	12562	12563	
4	12564	12565	12566	12567	
4	12568	12569	12570	12571	
4	12572	12573	12574	12575	
4	12576	12577	12578	12579	
4	12580	12581	12582	12583	
4	12584	12585	12586	12587	
4	12588	12589	12590	12591	
4	12592	12593	12594	12595	
4	12596	12597	12598	12599	
4	12600	12601	12602	12603	
4	12604	12605	12606	12607	
4	12608	12609	12610	12611	
4	12612	12613	12614	12615	
4	12616	12617	12618	12619	
4	12620	12621	12622	12623	
4	12624	12625	12626	12627	
4	12628	12629	12630	12631	
4	12632	12633	12634	12635	
4	12636	12637	12638	12639	
4	12640	12641	12642	12643	
4	12644	12645	12646	12647	
4	12648	12649	12650	12651	
4	12652	12653	12654	12655	
4	12656	12657	12658	12659	
4	12660	12661	12662	12663	
4	12664	12665	12666	12667	
4	12668	12669	12670	12671	
4	12672	12673	12674	12675	
4	12676	12677	12678	12679	
4	12680	12681	12682	12683	
4	12684	12685	12686	12687	
4	12688	12689	12690	12691	
4	12692	12693	12694	12695	
4	12696	12697	12698	12699	
4	12700	12701	12702	12703	
4	12704	12705	12706	12707	
4	12708	12709	12710	12711	
4	12712	12713	12714	12715	
4	12716	12717	12718	12719	
4	12720	12721	12722	12723	
4	12724	12725	12726	12727	
4	12728	12729	12730	12731	
4	12732	12733	12734	12735	
4	12736	12737	12738	12739	
4	12740	12741	12742	12743	
4	12744	12745	12746	12747	
4	12748	12749	12750	12751	
4	12752	12753	12754	12755	
4	12756	12757	12758	12759	
4	12760	12761	12762	12763	
4	12764	12765	12766	12767	
4	12768	12769	12770	12771	
4	12772	12773	12774	12775	
4	12776	12777	12778	12779	
4	12780	12781	12782	12783	
4	12784	12785	12786	12787	
4	12788	12789	12790	12791	
4	12792	12793	12794	12795	
4	12796	12797	12798	12799	
4	12800	12801	12802	12803	
4	12804	12805	12806	12807	
4	12808	12809	12810	12811	
4	12812	12813	12814	12815	
4	12816	12817	12818	12819	
4	12820	12821	12822	12823	
4	12824	12825	12826	12827	
4	12828	12829	12830	12831	
4	12832	12833	12834	12835	
4	12836	12837	12838	12839	
4	12840	12841	12842	12843	
4	12844	12845	12846	12847	
4	12848	12849	12850	12851	
4	12852	12853	12854	12855	
4	12856	12857	12858	12859	
4	12860	12861	12862	12863	
4	12864	12865	12866	12867	
4	12868	12869	12870	12871	
4	12872	12873	12874	12875	
4	12876	12877	12878	12879	
4	12880	12881	12882	12883	
4	12884	12885	12886	12887	
4	12888	12889	12890	12891	
4	12892	12893	12894	12895	
4	12896	12897	12898	12899	
4	12900	12901	12902	12903	
4	12904	12905	12906	12907	
4	12908	12909	12910	12911	
4	12912	12913	12914	12915	
4	12916	12917	12918	12919	
4	12920	12921	12922	12923	
4	12924	12925	12926	12927	
4	12928	12929	12930	12931	
4	12932	12933	12934	12935	
4	12936	12937	12938	12939	
4	12940	12941	12942	12943	
4	12944	12945	12946	12947	
4	12948	12949	12950	12951	
4	12952	12953	12954	12955	
4	12956	12957	12958	12959	
4	12960	12961	12962	12963	
4	12964	12965	12966	12967	
4	12968	12969	12970	12971	
4	12972	12973	12974	12975	
4	12976	12977	12978	12979	
4	12980	12981	12982	12983	
4	12984	12985	12986	12987	
4	12988	12989	12990	12991	
4	12992	12993	12994	12995	
4	12996	12997	12998	12999	
4	13000	13001	13002	13003	
4	13004	13005	13006	13007	
4	13008	13009	13010	13011	
4	13012	13013	13014	13015	
4	13016	13017	13018	13019	
4	13020	13021	13022	13023	
4	13024	13025	13026	13027	
4	13028	13029	13030	13031	
4	13032	13033	13034	13035	
4	13036	13037	13038	13039	
4	13040	13041	13042	13043	
4	13044	13045	13046	13047	
4	13048	13049	13050	13051	
4	13052	13053	13054	13055	
4	13056	13057	13058	13059	
4	13060	13061	13062	13063	
4	13064	13065	13066	13067	
4	13068	13069	13070	13071	
4	13072	13073	13074	13075	
4	13076	13077	13078	13079	
4	13080	13081	13082	13083	
4	13084	13085	13086	13087	
4	13088	13089	13090	13091	
4	13092	13093	13094	13095	
4	13096	13097	13098	13099	
4	13100	13101	13102	13103	
4	13104	13105	13106	13107	
4	13108	13109	13110	13111	
4	13112	13113	13114	13115	
4	13116	13117	13118	13119	
4	13120	13121	13122	13123	
4	13124	13125	13126	13127	
4	13128	13129	13130	13131	
4	13132	13133	13134	13135	
4	13136	13137	13138	13139	
4	13140	13141	13142	13143	
4	13144	13145	13146	13147	
4	13148	13149	13150	13151	
4	13152	13153	13154	13155	
4	13156	13157	13158	13159	
4	13160	13161	13162	13163	
4	13164	13165	13166	13167	
4	13168	13169	13170	13171	
4	13172	13173	13174	13175	
4	13176	13177	13178	13179	
4	13180	13181	13182	13183	
4	13184	13185	13186	13187	
4	13188	13189	13190	13191	
4	13192	13193	13194	13195	
4	13196	13197	13198	13199	
4	13200	13201	13202	13203	
4	13204	13205	13206	13207	
4	13208	13209	13210	13211	
4	13212	13213	13214	13215	
4	13216	13217	13218	13219	
4	13220	13221	13222	13223	
4	13224	13225	13226	13227	
4	13228	13229	13230	13231	
4	13232	13233	13234	13235	
4	13236	13237	13238	13239	
4	13240	13241	13242	13243	
4	13244	13245	13246	13247	
4	13248	13249	13250	13251	
4	13252	13253	13254	13255	
4	13256	13257	13258	13259	
4	13260	13261	13262	13263	
4	13264	13265	13266	13267	
4	13268	13269	13270	13271	
4	13272	13273	13274	13275	
4	13276	13277	13278	13279	
4	13280	13281	13282	13283	
4	13284	13285	13286	13287	
4	13288	13289	13290	13291	
4	13292	13293	13294	13295	
4	13296	13297	13298	13299	
4	13300	13301	13302	13303	
4	13304	13305	13306	13307	
4	13308	13309	13310	13311	
4	13312	13313	13314	13315	
4	13316	13317	13318	13319	
4	13320	13321	13322	13323	
4	13324	13325	13326	13327	
4	13328	13329	13330	13331	
4	13332	13333	13334	13335	
4	13336	13337	13338	13339	
4	13340	13341	13342	13343	
4	13344	13345	13346	13347	
4	13348	13349	13350	13351	
4	13352	13353	13354	13355	
4	13356	13357	13358	13359	
4	13360	13361	13362	13363	
4	13364	13365	13366	13367	
4	13368	13369	13370	13371	
4	13372	13373	13374	13375	
4	13376	13377	13378	13379	
4	13380	13381	13382	13383	
4	13384	13385	13386	13387	
4	13388	13389	13390	13391	
4	13392	13393	13394	13395	
4	13396	13397	13398	13399	
4	13400	13401	13402	13403	
4	13404	13405	13406	13407	
4	13408	13409	13410	13411	
4	13412	13413	13414	13415	
4	13416	13417	13418	13419	
4	13420	13421	13422	13423	
4	13424	13425	13426	13427	
4	13428	13429	13430	13431	
4	13432	13433	13434	13435	
4	13436	13437	13438	13439	
4	13440	13441	13442	13443	
4	13444	13445	13446	13447	
4	13448	13449	13450	13451	
4	13452	13453	13454	13455	
4	13456	13457	13458	13459	
4	13460	13461	13462	13463	
4	13464	13465	13466	13467	
4	13468	13469	13470	13471	
4	13472	13473	13474	13475	
4	13476	13477	13478	13479	
4	13480	13481	13482	13483	
4	13484	13485	13486	13487	
4	13488	13489	13490	13491	
4	13492	13493	13494	13495	
4	13496	13497	13498	13499	
4	13500	13501	13502	13503	
4	13504	13505	13506	13507	
4	13508	13509	13510	13511	
4	13512	13513	13514	13515	
4	13516	13517	13518	13519	
4	13520	13521	13522	13523	
4	13524	13525	13526	13527	
4	13528	13529	13530	13531	
4	13532	13533	13534	13535	
4	13536	13537	13538	13539	
4	13540	13541	13542	13543	
4	13544	13545	13546	13547	
4	13548	13549	13550	13551	
4	13552	13553	13554	13555	
4	13556	13557	13558	13559	
4	13560	13561	13562	13563	
4	13564	13565	13566	13567	
4	13568	13569	13570	13571	
4	13572	13573	13574	13575	
4	13576	13577	13578	13579	
4	13580	13581	13582	13583	
4	13584	13585	13586	13587	
4	13588	13589	13590	13591	
4	13592	13593	13594	13595	
4	13596	13597	13598	13599	
4	13600	13601	13602	13603	
4	13604	13605	13606	13607	
4	13608	13609	13610	13611	
4	13612	13613	13614	13615	
4	13616	13617	13618	13619	
4	13620	13621	13622	13623	
4	13624	13625	13626	13627	
4	13628	13629	13630	13631	
4	13632	13633	13634	13635	
4	13636	13637	13638	13639	
4	13640	13641	13642	13643	
4	13644	13645	13646	13647	
4	13648	13649	13650	13651	
4	13652	13653	13654	13655	
4	13656	13657	13658	13659	
4	13660	13661	13662	13663	
4	13664	13665	13666	13667	
4	13668	13669	13670	13671	
4	13672	13673	13674	13675	
4	13676	13677	13678	13679	
4	13680	13681	13682	13683	
4	13684	13685	13686	13687	
4	13688	13689	13690	13691	
4	13692	13693	13694	13695	
4	13696	13697	13698	13699	
4	13700	13701	13702	13703	
4	13704	13705	13706	13707	
4	13708	13709	13710	13711	
4	13712	13713	13714	13715	
4	13716	13717	13718	13719	
4	13720	13721	13722	13723	
4	13724	13725	13726	13727	
4	13728	13729	13730	13731	
4	13732	13733	13734	13735	
4	13736	13737	13738	13739	
4	13740	13741	13742	13743	
4	13744	13745	13746	13747	
4	13748	13749	13750	13751	
4	13752	13753	13754	13755	
4	13756	13757	13758	13759	
4	13760	13761	13762	13763	
4	13764	13765	13766	13767	
4	13768	13769	13770	13771	
4	13772	13773	13774	13775	
4	13776	13777	13778	13779	
4	13780	13781	13782	13783	
4	13784	13785	13786	13787	
4	13788	13789	13790	13791	
4	13792	13793	13794	13795	
4	13796	13797	13798	13799	
4	13800	13801	13802	13803	
4	13804	13805	13806	13807	
4	13808	13809	13810	13811	
4	13812	13813	13814	13815	
4	13816	13817	13818	13819	
4	13820	13821	13822	13823	
4	13824	13825	13826	13827	
4	13828	13829	13830	13831	
4	13832	13833	13834	13835	
4	13836	13837	13838	13839	
4	13840	13841	13842	13843	
4	13844	13845	13846	13847	
4	13848	13849	13850	13851	
4	13852	13853	13854	13855	
4	13856	13857	13858	13859	
4	13860	13861	13862	13863	
4	13864	13865	13866	13867	
4	13868	13869	13870	13871	
4	13872	13873	13874	13875	
4	13876	13877	13878	13879	
4	13880	13881	13882	13883	
4	13884	13885	13886	13887	
4	13888	13889	13890	13891	
4	13892	13893	13894	13895	
4	13896	13897	13898	13899	
4	13900	13901	13902	13903	
4	13904	13905	13906	13907	
4	13908	13909	13910	13911	
4	13912	13913	13914	13915	
4	13916	13917	13918	13919	
4	13920	13921	13922	13923	
4	13924	13925	13926	13927	
4	13928	13929	13930	13931	
4	13932	13933	13934	13935	
4	13936	13937	13938	13939	
4	13940	13941	13942	13943	
4	13944	13945	13946	13947	
4	13948	13949	13950	13951	
4	13952	13953	13954	13955	
4	13956	13957	13958	13959	
4	13960	13961	13962	13963	
4	13964	13965	13966	13967	
4	13968	13969	13970	13971	
4	13972	13973	13974	13975	
4	13976	13977	13978	13979	
4	13980	13981	13982	13983	
4	13984	13985	13986	13987	
4	13988	13989	13990	13991	
4	13992	13993	13994	13995	
4	13996	13997	13998	13999	
4	14000	14001	14002	14003	
4	14004	14005	14006	14007	
4	14008	14009	14010	14011	
4	14012	14013	14014	14015	
4	14016	14017	14018	14019	
4	14020	14021	14022	14023	
4	14024	14025	14026	14027	
4	14028	14029	14030	14031	
4	14032	14033	14034	14035	
4	14036	14037	14038	14039	
4	14040	14041	14042	14043	
4	14044	14045	14046	14047	
4	14048	14049	14050	14051	
4	14052	14053	14054	14055	
4	14056	14057	14058	14059	
4	14060	14061	14062	14063	
4	14064	14065	14066	14067	
4	14068	14069	14070	14071	
4	14072	14073	14074	14075	
4	14076	14077	14078	14079	
4	14080	14081	14082	14083	
4	14084	14085	14086	14087	
4	14088	14089	14090	14091	
4	14092	14093	14094	14095	
4	14096	14097	14098	14099	
4	14100	14101	14102	14103	
4	14104	14105	14106	14107	
4	14108	14109	14110	14111	
4	14112	14113	14114	14115	
4	14116	14117	14118	14119	
4	14120	14121	14122	14123	
4	14124	14125	14126	14127	
4	14128	14129	14130	14131	
4	14132	14133	14134	14135	
4	14136	14137	14138	14139	
4	14140	14141	14142	14143	
4	14144	14145	14146	14147	
4	14148	14149	14150	14151	
4	14152	14153	14154	14155	
4	14156	14157	14158	14159	
4	14160	14161	14162	14163	
4	14164	14165	14166	14167	
4	14168	14169	14170	14171	
4	14172	14173	14174	14175	
4	14176	14177	14178	14179	
4	14180	14181	14182	14183	
4	14184	14185	14186	14187	
4	14188	14189	14190	14191	
4	14192	14193	14194	14195	
4	14196	14197	14198	14199	
4	14200	14201	14202	14203	
4	14204	14205	14206	14207	
4	14208	14209	14210	14211	
4	14212	14213	14214	14215	
4	14216	14217	14218	14219	
4	14220	14221	14222	14223	
4	14224	14225	14226	14227	
4	14228	14229	14230	14231	
4	14232	14233	14234	14235	
4	14236	14237	14238	14239	
4	14240	14241	14242	14243	
4	14244	14245	14246	14247	
4	14248	14249	14250	14251	
4	14252	14253	14254	14255	
4	14256	14257	14258	14259	
4	14260	14261	14262	14263	
4	14264	14265	14266	14267	
4	14268	14269	14270	14271	
4	14272	14273	14274	14275	
4	14276	14277	14278	14279	
4	14280	14281	14282	14283	
4	14284	14285	14286	14287	
4	14288	14289	14290	14291	
4	14292	14293	14294	14295	
4	14296	14297	14298	14299	
4	14300	14301	14302	14303	
4	14304	14305	14306	14307	
4	14308	14309	14310	14311	
4	14312	14313	14314	14315	
4	14316	14317	14318	14319	
4	14320	14321	14322	14323	
4	14324	14325	14326	14327	
4	14328	14329	14330	14331	
4	14332	14333	14334	14335	
4	14336	14337	14338	14339	
4	14340	14341	14342	14343	
4	14344	14345	14346	14347	
4	14348	14349	14350	14351	
4	14352	14353	14354	14355	
4	14356	14357	14358	14359	
4	14360	14361	14362	14363	
4	14364	14365	14366	14367	
4	14368	14369	14370	14371	
4	14372	14373	14374	14375	
4	14376	14377	14378	14379	
4	14380	14381	14382	14383	
4	14384	14385	14386	14387	
4	14388	14389	14390	14391	
4	14392	14393	14394	14395	
4	14396	14397	14398	14399	
4	14400	14401	14402	14403	
4	14404	14405	14406	14407	
4	14408	14409	14410	14411	
4	14412	14413	14414	14415	
4	14416	14417	14418	14419	
4	14420	14421	14422	14423	
4	14424	14425	14426	14427	
4	14428	14429	14430	14431	
4	14432	14433	14434	14435	
4	14436	14437	14438	14439	
4	14440	14441	14442	14443	
4	14444	14445	14446	14447	
4	14448	14449	14450	14451	
4	14452	14453	14454	14455	
4	14456	14457	14458	14459	
4	14460	14461	14462	14463	
4	14464	14465	14466	14467	
4	14468	14469	14470	14471	
4	14472	14473	14474	14475	
4	14476	14477	14478	14479	
4	14480	14481	14482	14483	
4	14484	14485	14486	14487	
4	14488	14489	14490	14491	
4	14492	14493	14494	14495	
4	14496	14497	14498	14499	
4	14500	14501	14502	14503	
4	14504	14505	14506	14507	
4	14508	14509	14510	14511	
4	14512	14513	14514	14515	
4	14516	14517	14518	14519	
4	14520	14521	14522	14523	
4	14524	14525	14526	14527	
4	14528	14529	14530	14531	
4	14532	14533	14534	14535	
4	14536	14537	14538	14539	
4	14540	14541	14542	14543	
4	14544	14545	14546	14547	
4	14548	14549	14550	14551	
4	14552	14553	14554	14555	
4	14556	14557	14558	14559	
4	14560	14561	14562	14563	
4	14564	14565	14566	14567	
4	14568	14569	14570	14571	
4	14572	14573	14574	14575	
4	14576	14577	14578	14579	
4	14580	14581	14582	14583	
4	14584	14585	14586	14587	
4	14588	14589	14590	14591	
4	14592	14593	14594	14595	
4	14596	14597	14598	14599	
4	14600	14601	14602	14603	
4	14604	14605	14606	14607	
4	14608	14609	14610	14611	
4	14612	14613	14614	14615	
4	14616	14617	14618	14619	
4	14620	14621	14622	14623	
4	14624	14625	14626	14627	
4	14628	14629	14630	14631	
4	14632	14633	14634	14635	
4	14636	14637	14638	14639	
4	14640	14641	14642	14643	
4	14644	14645	14646	14647	
4	14648	14649	14650	14651	
4	14652	14653	14654	14655	
4	14656	14657	14658	14659	
4	14660	14661	14662	14663	
4	14664	14665	14666	14667	
4	14668	14669	14670	14671	
4	14672	14673	14674	14675	
4	14676	14677	14678	14679	
4	14680	14681	14682	14683	
4	14684	14685	14686	14687	
4	14688	14689	14690	14691	
4	14692	14693	14694	14695	
4	14696	14697	14698	14699	
4	14700	14701	14702	14703	
4	14704	14705	14706	14707	
4	14708	14709	14710	14711	
4	14712	14713	14714	14715	
4	14716	14717	14718	14719	
4	14720	14721	14722	14723	
4	14724	14725	14726	14727	
4	14728	14729	14730	14731	
4	14732	14733	14734	14735	
4	14736	14737	14738	14739	
4	14740	14741	14742	14743	
4	14744	14745	14746	14747	
4	14748	14749	14750	14751	
4	14752	14753	14754	14755	
4	14756	14757	14758	14759	
4	14760	14761	14762	14763	
4	14764	14765	14766	14767	
4	14768	14769	14770	14771	
4	14772	14773	14774	14775	
4	14776	14777	14778	14779	
4	14780	14781	14782	14783	
4	14784	14785	14786	14787	
4	14788	14789	14790	14791	
4	14792	14793	14794	14795	
4	14796	14797	14798	14799	
4	14800	14801	14802	14803	
4	14804	14805	14806	14807	
4	14808	14809	14810	14811	
4	14812	14813	14814	14815	
4	14816	14817	14818	14819	
4	14820	14821	14822	14823	
4	14824	14825	14826	14827	
4	14828	14829	14830	14831	
4	14832	14833	14834	14835	
4	14836	14837	14838	14839	
4	14840	14841	14842	14843	
4	14844	14845	14846	14847	
4	14848	14849	14850	14851	
4	14852	14853	14854	14855	
4	14856	14857	14858	14859	
4	14860	14861	14862	14863	
4	14864	14865	14866	14867	
4	14868	14869	14870	14871	
4	14872	14873	14874	14875	
4	14876	14877	14878	14879	
4	14880	14881	14882	14883	
4	14884	14885	14886	14887	
4	14888	14889	14890	14891	
4	14892	14893	14894	14895	
4	14896	14897	14898	14899	
4	14900	14901	14902	14903	
4	14904	14905	14906	14907	
4	14908	14909	14910	14911	
4	14912	14913	14914	14915	
4	14916	14917	14918	14919	
4	14920	14921	14922	14923	
4	14924	14925	14926	14927	
4	14928	14929	14930	14931	
4	14932	14933	14934	14935	
4	14936	14937	14938	14939	
4	14940	14941	14942	14943	
4	14944	14945	14946	14947	
4	14948	14949	14950	14951	
4	14952	14953	14954	14955	
4	14956	14957	14958	14959	
4	14960	14961	14962	14963	
4	14964	14965	14966	14967	
4	14968	14969	14970	14971	
4	14972	14973	14974	14975	
4	14976	14977	14978	14979	
4	14980	14981	14982	14983	
4	14984	14985	14986	14987	
4	14988	14989	14990	14991	
4	14992	14993	14994	14995	
4	14996	14997	14998	14999	
4	15000	15001	15002	15003	
4	15004	15005	15006	15007	
4	15008	15009	15010	15011	
4	15012	15013	15014	15015	
4	15016	15017	15018	15019	
4	15020	15021	15022	15023	
4	15024	15025	15026	15027	
4	15028	15029	15030	15031	
4	15032	15033	15034	15035	
4	15036	15037	15038	15039	
4	15040	15041	15042	15043	
4	15044	15045	15046	15047	
4	15048	15049	15050	15051	
4	15052	15053	15054	15055	
4	15056	15057	15058	15059	
4	15060	15061	15062	15063	
4	15064	15065	15066	15067	
4	15068	15069	15070	15071	
4	15072	15073	15074	15075	
4	15076	15077	15078	15079	
4	15080	15081	15082	15083	
4	15084	15085	15086	15087	
4	15088	15089	15090	15091	
4	15092	15093	15094	15095	
4	15096	15097	15098	15099	
4	15100	15101	15102	15103	
4	15104	15105	15106	15107	
4	15108	15109	15110	15111	
4	15112	15113	15114	15115	
4	15116	15117	15118	15119	
4	15120	15121	15122	15123	
4	15124	15125	15126	15127	
4	15128	15129	15130	15131	
4	15132	15133	15134	15135	
4	15136	15137	15138	15139	
4	15140	15141	15142	15143	
4	15144	15145	15146	15147	
4	15148	15149	15150	15151	
4	15152	15153	15154	15155	
4	15156	15157	15158	15159	
4	15160	15161	15162	15163	
4	15164	15165	15166	15167	
4	15168	15169	15170	15171	
4	15172	15173	15174	15175	
4	15176	15177	15178	15179	
4	15180	15181	15182	15183	
4	15184	15185	15186	15187	
4	15188	15189	15190	15191	
4	15192	15193	15194	15195	
4	15196	15197	15198	15199	
4	15200	15201	15202	15203	
4	15204	15205	15206	15207	
4	15208	15209	15210	15211	
4	15212	15213	15214	15215	
4	15216	15217	15218	15219	
4	15220	15221	15222	15223	
4	15224	15225	15226	15227	
4	15228	15229	15230	15231	
4	15232	15233	15234	15235	
4	15236	15237	15238	15239	
4	15240	15241	15242	15243	
4	15244	15245	15246	15247	
4	15248	15249	15250	15251	
4	15252	15253	15254	15255	
4	15256	15257	15258	15259	
4	15260	15261	15262	15263	
4	15264	15265	15266	15267	
4	15268	15269	15270	15271	
4	15272	15273	15274	15275	
4	15276	15277	15278	15279	
4	15280	15281	15282	15283	
4	15284	15285	15286	15287	
4	15288	15289	15290	15291	
4	15292	15293	15294	15295	
4	15296	15297	15298	15299	
4	15300	15301	15302	15303	
4	15304	15305	15306	15307	
4	15308	15309	15310	15311	
4	15312	15313	15314	15315	
4	15316	15317	15318	15319	
4	15320	15321	15322	15323	
4	15324	15325	15326	15327	
4	15328	15329	15330	15331	
4	15332	15333	15334	15335	
4	15336	15337	15338	15339	
4	15340	15341	15342	15343	
4	15344	15345	15346	15347	
4	15348	15349	15350	15351	
4	15352	15353	15354	15355	
4	15356	15357	15358	15359	
4	15360	15361	15362	15363	
4	15364	15365	15366	15367	
4	15368	15369	15370	15371	
4	15372	15373	15374	15375	
4	15376	15377	15378	15379	
4	15380	15381	15382	15383	
4	15384	15385	15386	15387	
4	15388	15389	15390	15391	
4	15392	15393	15394	15395	
4	15396	15397	15398	15399	
4	15400	15401	15402	15403	
4	15404	15405	15406	15407	
4	15408	15409	15410	15411	
4	15412	15413	15414	15415	
4	15416	15417	15418	15419	
4	15420	15421	15422	15423	
4	15424	15425	15426	15427	
4	15428	15429	15430	15431	
4	15432	15433	15434	15435	
4	15436	15437	15438	15439	
4	15440	15441	15442	15443	
4	15444	15445	15446	15447	
4	15448	15449	15450	15451	
4	15452	15453	15454	15455	
4	15456	15457	15458	15459	
4	15460	15461	15462	15463	
4	15464	15465	15466	15467	
4	15468	15469	15470	15471	
4	15472	15473	15474	15475	
4	15476	15477	15478	15479	
4	15480	15481	15482	15483	
4	15484	15485	15486	15487	
4	15488	15489	15490	15491	
4	15492	15493	15494	15495	
4	15496	15497	15498	15499	
4	15500	15501	15502	15503	
4	15504	15505	15506	15507	
4	15508	15509	15510	15511	
4	15512	15513	15514	15515	
4	15516	15517	15518	15519	
4	15520	15521	15522	15523	
4	15524	15525	15526	15527	
4	15528	15529	15530	15531	
4	15532	15533	15534	15535	
4	15536	15537	15538	15539	
4	15540	15541	15542	15543	
4	15544	15545	15546	15547	
4	15548	15549	15550	15551	
4	15552	15553	15554	15555	
4	15556	15557	15558	15559	
4	15560	15561	15562	15563	
4	15564	15565	15566	15567	
4	15568	15569	15570	15571	
4	15572	15573	15574	15575	
4	15576	15577	15578	15579	
4	15580	15581	15582	15583	
4	15584	15585	15586	15587	
4	15588	15589	15590	15591	
4	15592	15593	15594	15595	
4	15596	15597	15598	15599	
4	15600	15601	15602	15603	
4	15604	15605	15606	15607	
4	15608	15609	15610	15611	
4	15612	15613	15614	15615	
4	15616	15617	15618	15619	
4	15620	15621	15622	15623	
4	15624	15625	15626	15627	
4	15628	15629	15630	15631	
4	15632	15633	15634	15635	
4	15636	15637	15638	15639	
4	15640	15641	15642	15643	
4	15644	15645	15646	15647	
4	15648	15649	15650	15651	
4	15652	15653	15654	15655	
4	15656	15657	15658	15659	
4	15660	15661	15662	15663	
4	15664	15665	15666	15667	
4	15668	15669	15670	15671	
4	15672	15673	15674	15675	
4	15676	15677	15678	15679	
4	15680	15681	15682	15683	
4	15684	15685	15686	15687	
4	15688	15689	15690	15691	
4	15692	15693	15694	15695	
4	15696	15697	15698	15699	
4	15700	15701	15702	15703	
4	15704	15705	15706	15707	
4	15708	15709	15710	15711	
4	15712	15713	15714	15715	
4	15716	15717	15718	15719	
4	15720	15721	15722	15723	
4	15724	15725	15726	15727	
4	15728	15729	15730	15731	
4	15732	15733	15734	15735	
4	15736	15737	15738	15739	
4	15740	15741	15742	15743	
4	15744	15745	15746	15747	
4	15748	15749	15750	15751	
4	15752	15753	15754	15755	
4	15756	15757	15758	15759	
4	15760	15761	15762	15763	
4	15764	15765	15766	15767	
4	15768	15769	15770	15771	
4	15772	15773	15774	15775	
4	15776	15777	15778	15779	
4	15780	15781	15782	15783	
4	15784	15785	15786	15787	
4	15788	15789	15790	15791	
4	15792	15793	15794	15795	
4	15796	15797	15798	15799	
4	15800	15801	15802	15803	
4	15804	15805	15806	15807	
4	15808	15809	15810	15811	
4	15812	15813	15814	15815	
4	15816	15817	15818	15819	
4	15820	15821	15822	15823	
4	15824	15825	15826	15827	
4	15828	15829	15830	15831	
4	15832	15833	15834	15835	
4	15836	15837	15838	15839	
4	15840	15841	15842	15843	
4	15844	15845	15846	15847	
4	15848	15849	15850	15851	
4	15852	15853	15854	15855	
4	15856	15857	15858	15859	
4	15860	15861	15862	15863	
4	15864	15865	15866	15867	
4	15868	15869	15870	15871	
4	15872	15873	15874	15875	
4	15876	15877	15878	15879	
4	15880	15881	15882	15883	
4	15884	15885	15886	15887	
4	15888	15889	15890	15891	
4	15892	15893	15894	15895	
4	15896	15897	15898	15899	
4	15900	15901	15902	15903	
4	15904	15905	15906	15907	
4	15908	15909	15910	15911	
4	15912	15913	15914	15915	
4	15916	15917	15918	15919	
4	15920	15921	15922	15923	
4	15924	15925	15926	15927	
4	15928	15929	15930	15931	
4	15932	15933	15934	15935	
4	15936	15937	15938	15939	
4	15940	15941	15942	15943	
4	15944	15945	15946	15947	
4	15948	15949	15950	15951	
4	15952	15953	15954	15955	
4	15956	15957	15958	15959	
4	15960	15961	15962	15963	
4	15964	15965	15966	15967	
4	15968	15969	15970	15971	
4	15972	15973	15974	15975	
4	15976	15977	15978	15979	
4	15980	15981	15982	15983	
4	15984	15985	15986	15987	
4	15988	15989	15990	15991	
4	15992	15993	15994	15995	
4	15996	15997	15998	15999	
4	16000	16001	16002	16003	
4	16004	16005	16006	16007	
4	16008	16009	16010	16011	
4	16012	16013	16014	16015	
4	16016	16017	16018	16019	
4	16020	16021	16022	16023	
4	16024	16025	16026	16027	
4	16028	16029	16030	16031	
4	16032	16033	16034	16035	
4	16036	16037	16038	16039	
4	16040	16041	16042	16043	
4	16044	16045	16046	16047	
4	16048	16049	16050	16051	
4	16052	16053	16054	16055	
4	16056	16057	16058	16059	
4	16060	16061	16062	16063	
4	16064	16065	16066	16067	
4	16068	16069	16070	16071	
4	16072	16073	16074	16075	
4	16076	16077	16078	16079	
4	16080	16081	16082	16083	
4	16084	16085	16086	16087	
4	16088	16089	16090	16091	
4	16092	16093	16094	16095	
4	16096	16097	16098	16099	
4	16100	16101	16102	16103	
4	16104	16105	16106	16107	
4	16108	16109	16110	16111	
4	16112	16113	16114	16115	
4	16116	16117	16118	16119	
4	16120	16121	16122	16123	
4	16124	16125	16126	16127	
4	16128	16129	16130	16131	
4	16132	16133	16134	16135	
4	16136	16137	16138	16139	
4	16140	16141	16142	16143	
4	16144	16145	16146	16147	
4	16148	16149	16150	16151	
4	16152	16153	16154	16155	
4	16156	16157	16158	16159	
4	16160	16161	16162	16163	
4	16164	16165	16166	16167	
4	16168	16169	16170	16171	
4	16172	16173	16174	16175	
4	16176	16177	16178	16179	
4	16180	16181	16182	16183	
4	16184	16185	16186	16187	
4	16188	16189	16190	16191	
4	16192	16193	16194	16195	
4	16196	16197	16198	16199	
4	16200	16201	16202	16203	
4	16204	16205	16206	16207	
4	16208	16209	16210	16211	
4	16212	16213	16214	16215	
4	16216	16217	16218	16219	
4	16220	16221	16222	16223	
4	16224	16225	16226	16227	
4	16228	16229	16230	16231	
4	16232	16233	16234	16235	
4	16236	16237	16238	16239	
4	16240	16241	16242	16243	
4	16244	16245	16246	16247	
4	16248	16249	16250	16251	
4	16252	16253	16254	16255	
4	16256	16257	16258	16259	
4	16260	16261	16262	16263	
4	16264	16265	16266	16267	
4	16268	16269	16270	16271	
4	16272	16273	16274	16275	
4	16276	16277	16278	16279	
4	16280	16281	16282	16283	
4	16284	16285	16286	16287	
4	16288	16289	16290	16291	
4	16292	16293	16294	16295	
4	16296	16297	16298	16299	
4	16300	16301	16302	16303	
4	16304	16305	16306	16307	
4	16308	16309	16310	16311	
4	16312	16313	16314	16315	
4	16316	16317	16318	16319	
4	16320	16321	16322	16323	
4	16324	16325	16326	16327	
4	16328	16329	16330	16331	
4	16332	16333	16334	16335	
4	16336	16337	16338	16339	
4	16340	16341	16342	16343	
4	16344	16345	16346	16347	
4	16348	16349	16350	16351	
4	16352	16353	16354	16355	
4	16356	16357	16358	16359	
4	16360	16361	16362	16363	
4	16364	16365	16366	16367	
4	16368	16369	16370	16371	
4	16372	16373	16374	16375	
4	16376	16377	16378	16379	
4	16380	16381	16382	16383	
4	16384	16385	16386	16387	
4	16388	16389	16390	16391	
4	16392	16393	16394	16395	
4	16396	16397	16398	16399	
4	16400	16401	16402	16403	
4	16404	16405	16406	16407	
4	16408	16409	16410	16411	
4	16412	16413	16414	16415	
4	16416	16417	16418	16419	
4	16420	16421	16422	16423	
4	16424	16425	16426	16427	
4	16428	16429	16430	16431	
4	16432	16433	16434	16435	
4	16436	16437	16438	16439	
4	16440	16441	16442	16443	
4	16444	16445	16446	16447	
4	16448	16449	16450	16451	
4	16452	16453	16454	16455	
4	16456	16457	16458	16459	
4	16460	16461	16462	16463	
4	16464	16465	16466	16467	
4	16468	16469	16470	16471	
4	16472	16473	16474	16475	
4	16476	16477	16478	16479	
4	16480	16481	16482	16483	
4	16484	16485	16486	16487	
4	16488	16489	16490	16491	
4	16492	16493	16494	16495	
4	16496	16497	16498	16499	
4	16500	16501	16502	16503	
4	16504	16505	16506	16507	
4	16508	16509	16510	16511	
4	16512	16513	16514	16515	
4	16516	16517	16518	16519	
4	16520	16521	16522	16523	
4	16524	16525	16526	16527	
4	16528	16529	16530	16531	
4	16532	16533	16534	16535	
4	16536	16537	16538	16539	
4	16540	16541	16542	16543	
4	16544	16545	16546	16547	
4	16548	16549	16550	16551	
4	16552	16553	16554	16555	
4	16556	16557	16558	16559	
4	16560	16561	16562	16563	
4	16564	16565	16566	16567	
4	16568	16569	16570	16571	
4	16572	16573	16574	16575	
4	16576	16577	16578	16579	
4	16580	16581	16582	16583	
4	16584	16585	16586	16587	
4	16588	16589	16590	16591	
4	16592	16593	16594	16595	
4	16596	16597	16598	16599	
4	16600	16601	16602	16603	
4	16604	16605	16606	16607	
4	16608	16609	16610	16611	
4	16612	16613	16614	16615	
4	16616	16617	16618	16619	
4	16620	16621	16622	16623	
4	16624	16625	16626	16627	
4	16628	16629	16630	16631	
4	16632	16633	16634	16635	
4	16636	16637	16638	16639	
4	16640	16641	16642	16643	
4	16644	16645	16646	16647	
4	16648	16649	16650	16651	
4	16652	16653	16654	16655	
4	16656	16657	16658	16659	
4	16660	16661	16662	16663	
4	16664	16665	16666	16667	
4	16668	16669	16670	16671	
4	16672	16673	16674	16675	
4	16676	16677	16678	16679	
4	16680	16681	16682	16683	
4	16684	16685	16686	16687	
4	16688	16689	16690	16691	
4	16692	16693	16694	16695	
4	16696	16697	16698	16699	
4	16700	16701	16702	16703	
4	16704	16705	16706	16707	
4	16708	16709	16710	16711	
4	16712	16713	16714	16715	
4	16716	16717	16718	16719	
4	16720	16721	16722	16723	
4	16724	16725	16726	16727	
4	16728	16729	16730	16731	
4	16732	16733	16734	16735	
4	16736	16737	16738	16739	
4	16740	16741	16742	16743	
4	16744	16745	16746	16747	
4	16748	16749	16750	16751	
4	16752	16753	16754	16755	
4	16756	16757	16758	16759	
4	16760	16761	16762	16763	
4	16764	16765	16766	16767	
4	16768	16769	16770	16771	
4	16772	16773	16774	16775	
4	16776	16777	16778	16779	
4	16780	16781	16782	16783	
4	16784	16785	16786	16787	
4	16788	16789	16790	16791	
4	16792	16793	16794	16795	
4	16796	16797	16798	16799	
4	16800	16801	16802	16803	
4	16804	16805	16806	16807	
4	16808	16809	16810	16811	
4	16812	16813	16814	16815	
4	16816	16817	16818	16819	
4	16820	16821	16822	16823	
4	16824	16825	16826	16827	
4	16828	16829	16830	16831	
4	16832	16833	16834	16835	
4	16836	16837	16838	16839	
4	16840	16841	16842	16843	
4	16844	16845	16846	16847	
4	16848	16849	16850	16851	
4	16852	16853	16854	16855	
4	16856	16857	16858	16859	
4	16860	16861	16862	16863	
4	16864	16865	16866	16867	
4	16868	16869	16870	16871	
4	16872	16873	16874	16875	
4	16876	16877	16878	16879	
4	16880	16881	16882	16883	
4	16884	16885	16886	16887	
4	16888	16889	16890	16891	
4	16892	16893	16894	16895	
4	16896	16897	16898	16899	
4	16900	16901	16902	16903	
4	16904	16905	16906	16907	
4	16908	16909	16910	16911	
4	16912	16913	16914	16915	
4	16916	16917	16918	16919	
4	16920	16921	16922	16923	
4	16924	16925	16926	16927	
4	16928	16929	16930	16931	
4	16932	16933	16934	16935	
4	16936	16937	16938	16939	
4	16940	16941	16942	16943	
4	16944	16945	16946	16947	
4	16948	16949	16950	16951	
4	16952	16953	16954	16955	
4	16956	16957	16958	16959	
4	16960	16961	16962	16963	
4	16964	16965	16966	16967	
4	16968	16969	16970	16971	
4	16972	16973	16974	16975	
4	16976	16977	16978	16979	
4	16980	16981	16982	16983	
4	16984	16985	16986	16987	
4	16988	16989	16990	16991	
4	16992	16993	16994	16995	
4	16996	16997	16998	16999	
4	17000	17001	17002	17003	
4	17004	17005	17006	17007	
4	17008	17009	17010	17011	
4	17012	17013	17014	17015	
4	17016	17017	17018	17019	
4	17020	17021	17022	17023	
4	17024	17025	17026	17027	
4	17028	17029	17030	17031	
4	17032	17033	17034	17035	
4	17036	17037	17038	17039	
4	17040	17041	17042	17043	
4	17044	17045	17046	17047	
4	17048	17049	17050	17051	
4	17052	17053	17054	17055	
4	17056	17057	17058	17059	
4	17060	17061	17062	17063	
4	17064	17065	17066	17067	
4	17068	17069	17070	17071	
4	17072	17073	17074	17075	
4	17076	17077	17078	17079	
4	17080	17081	17082	17083	
4	17084	17085	17086	17087	
4	17088	17089	17090	17091	
4	17092	17093	17094	17095	
4	17096	17097	17098	17099	
4	17100	17101	17102	17103	
4	17104	17105	17106	17107	
4	17108	17109	17110	17111	
4	17112	17113	17114	17115	
4	17116	17117	17118	17119	
4	17120	17121	17122	17123	
4	17124	17125	17126	17127	
4	17128	17129	17130	17131	
4	17132	17133	17134	17135	
4	17136	17137	17138	17139	
4	17140	17141	17142	17143	
4	17144	17145	17146	17147	
4	17148	17149	17150	17151	
4	17152	17153	17154	17155	
4	17156	17157	17158	17159	
4	17160	17161	17162	17163	
4	17164	17165	17166	17167	
4	17168	17169	17170	17171	
4	17172	17173	17174	17175	
4	17176	17177	17178	17179	
4	17180	17181	17182	17183	
4	17184	17185	17186	17187	
4	17188	17189	17190	17191	
4	17192	17193	17194	17195	
4	17196	17197	17198	17199	
4	17200	17201	17202	17203	
4	17204	17205	17206	17207	
4	17208	17209	17210	17211	
4	17212	17213	17214	17215	
4	17216	17217	17218	17219	
4	17220	17221	17222	17223	
4	17224	17225	17226	17227	
4	17228	17229	17230	17231	
4	17232	17233	17234	17235	
4	17236	17237	17238	17239	
4	17240	17241	17242	17243	
4	17244	17245	17246	17247	
4	17248	17249	17250	17251	
4	17252	17253	17254	17255	
4	17256	17257	17258	17259	
4	17260	17261	17262	17263	
4	17264	17265	17266	17267	
4	17268	17269	17270	17271	
4	17272	17273	17274	17275	
4	17276	17277	17278	17279	
4	17280	17281	17282	17283	
4	17284	17285	17286	17287	
4	17288	17289	17290	17291	
4	17292	17293	17294	17295	
4	17296	17297	17298	17299	
4	17300	17301	17302	17303	
4	17304	17305	17306	17307	
4	17308	17309	17310	17311	
4	17312	17313	17314	17315	
4	17316	17317	17318	17319	
4	17320	17321	17322	17323	
4	17324	17325	17326	17327	
4	17328	17329	17330	17331	
4	17332	17333	17334	17335	
4	17336	17337	17338	17339	
4	17340	17341	17342	17343	
4	17344	17345	17346	17347	
4	17348	17349	17350	17351	
4	17352	17353	17354	17355	
4	17356	17357	17358	17359	
4	17360	17361	17362	17363	
4	17364	17365	17366	17367	
4	17368	17369	17370	17371	
4	17372	17373	17374	17375	
4	17376	17377	17378	17379	
4	17380	17381	17382	17383	
4	17384	17385	17386	17387	
4	17388	17389	17390	17391	
4	17392	17393	17394	17395	
4	17396	17397	17398	17399	
4	17400	17401	17402	17403	
4	17404	17405	17406	17407	
4	17408	17409	17410	17411	
4	17412	17413	17414	17415	
4	17416	17417	17418	17419	
4	17420	17421	17422	17423	
4	17424	17425	17426	17427	
4	17428	17429	17430	17431	
4	17432	17433	17434	17435	
4	17436	17437	17438	17439	
4	17440	17441	17442	17443	
4	17444	17445	17446	17447	
4	17448	17449	17450	17451	
4	17452	17453	17454	17455	
4	17456	17457	17458	17459	
4	17460	17461	17462	17463	
4	17464	17465	17466	17467	
4	17468	17469	17470	17471	
4	17472	17473	17474	17475	
4	17476	17477	17478	17479	
CELL_TYPES 4370
10
10
10
10
10
10
10
10
10
10
10
10
10
10
10
10
10
10
10
10
10
10
10
10
10
10
10
10
10
10
10
10
10
10
10
10
10
10
10
10
10
10
10
10
10
10
10
10
10
10
10
10
10
10
10
10
10
10
10
10
10
10
10
10
10
10
10
10
10
10
10
10
10
10
10
10
10
10
10
10
10
10
10
10
10
10
10
10
10
10
10
10
10
10
10
10
10
10
10
10
10
10
10
10
10
10
10
10
10
10
10
10
10
10
10
10
10
10
10
10
10
10
10
10
10
10
10
10
10
10
10
10
10
10
10
10
10
10
10
10
10
10
10
10
10
10
10
10
10
10
10
10
10
10
10
10
10
10
10
10
10
10
10
10
10
10
10
10
10
10
10
10
10
10
10
10
10
10
10
10
10
10
10
10
10
10
10
10
10
10
10
10
10
10
10
10
10
10
10
10
10
10
10
10
10
10
10
10
10
10
10
10
10
10
10
10
10
10
10
10
10
10
10
10
10
10
10
10
10
10
10
10
10
10
10
10
10
10
10
10
10
10
10
10
10
10
10
10
10
10
10
10
10
10
10
10
10
10
10
10
10
10
10
10
10
10
10
10
10
10
10
10
10
10
10
10
10
10
10
10
10
10
10
10
10
10
10
10
10
10
10
10
10
10
10
10
10
10
10
10
10
10
10
10
10
10
10
10
10
10
10
10
10
10
10
10
10
10
10
10
10
10
10
10
10
10
10
10
10
10
10
10
10
10
10
10
10
10
10
10
10
10
10
10
10
10
10
10
10
10
10
10
10
10
10
10
10
10
10
10
10
10
10
10
10
10
10
10
10
10
10
10
10
10
10
10
10
10
10
10
10
10
10
10
10
10
10
10
10
10
10
10
10
10
10
10
10
10
10
10
10
10
10
10
10
10
10
10
10
10
10
10
10
10
10
10
10
10
10
10
10
10
10
10
10
10
10
10
10
10
10
10
10
10
10
10
10
10
10
10
10
10
10
10
10
10
10
10
10
10
10
10
10
10
10
10
10
10
10
10
10
10
10
10
10
10
10
10
10
10
10
10
10
10
10
10
10
10
10
10
10
10
10
10
10
10
10
10
10
10
10
10
10
10
10
10
10
10
10
10
10
10
10
10
10
10
10
10
10
10
10
10
10
10
10
10
10
10
10
10
10
10
10
10
10
10
10
10
10
10
10
10
10
10
10
10
10
10
10
10
10
10
10
10
10
10
10
10
10
10
10
10
10
10
10
10
10
10
10
10
10
10
10
10
10
10
10
10
10
10
10
10
10
10
10
10
10
10
10
10
10
10
10
10
10
10
10
10
10
10
10
10
10
10
10
10
10
10
10
10
10
10
10
10
10
10
10
10
10
10
10
10
10
10
10
10
10
10
10
10
10
10
10
10
10
10
10
10
10
10
10
10
10
10
10
10
10
10
10
10
10
10
10
10
10
10
10
10
10
10
10
10
10
10
10
10
10
10
10
10
10
10
10
10
10
10
10
10
10
10
10
10
10
10
10
10
10
10
10
10
10
10
10
10
10
10
10
10
10
10
10
10
10
10
10
10
10
10
10
10
10
10
10
10
10
10
10
10
10
10
10
10
10
10
10
10
10
10
10
10
10
10
10
10
10
10
10
10
10
10
10
10
10
10
10
10
10
10
10
10
10
10
10
10
10
10
10
10
10
10
10
10
10
10
10
10
10
10
10
10
10
10
10
10
10
10
10
10
10
10
10
10
10
10
10
10
10
10
10
10
10
10
10
10
10
10
10
10
10
10
10
10
10
10
10
10
10
10
10
10
10
10
10
10
10
10
10
10
10
10
10
10
10
10
10
10
10
10
10
10
10
10
10
10
10
10
10
10
10
10
10
10
10
10
10
10
10
10
10
10
10
10
10
10
10
10
10
10
10
10
10
10
10
10
10
10
10
10
10
10
10
10
10
10
10
10
10
10
10
10
10
10
10
10
10
10
10
10
10
10
10
10
10
10
10
10
10
10
10
10
10
10
10
10
10
10
10
10
10
10
10
10
10
10
10
10
10
10
10
10
10
10
10
10
10
10
10
10
10
10
10
10
10
10
10
10
10
10
10
10
10
10
10
10
10
10
10
10
10
10
10
10
10
10
10
10
10
10
10
10
10
10
10
10
10
10
10
10
10
10
10
10
10
10
10
10
10
10
10
10
10
10
10
10
10
10
10
10
10
10
10
10
10
10
10
10
10
10
10
10
10
10
10
10
10
10
10
10
10
10
10
10
10
10
10
10
10
10
10
10
10
10
10
10
10
10
10
10
10
10
10
10
10
10
10
10
10
10
10
10
10
10
10
10
10
10
10
10
10
10
10
10
10
10
10
10
10
10
10
10
10
10
10
10
10
10
10
10
10
10
10
10
10
10
10
10
10
10
10
10
10
10
10
10
10
10
10
10
10
10
10
10
10
10
10
10
10
10
10
10
10
10
10
10
10
10
10
10
10
10
10
10
10
10
10
10
10
10
10
10
10
10
10
10
10
10
10
10
10
10
10
10
10
10
10
10
10
10
10
10
10
10
10
10
10
10
10
10
10
10
10
10
10
10
10
10
10
10
10
10
10
10
10
10
10
10
10
10
10
10
10
10
10
10
10
10
10
10
10
10
10
10
10
10
10
10
10
10
10
10
10
10
10
10
10
10
10
10
10
10
10
10
10
10
10
10
10
10
10
10
10
10
10
10
10
10
10
10
10
10
10
10
10
10
10
10
10
10
10
10
10
10
10
10
10
10
10
10
10
10
10
10
10
10
10
10
10
10
10
10
10
10
10
10
10
10
10
10
10
10
10
10
10
10
10
10
10
10
10
10
10
10
10
10
10
10
10
10
10
10
10
10
10
10
10
10
10
10
10
10
10
10
10
10
10
10
10
10
10
10
10
10
10
10
10
10
10
10
10
10
10
10
10
10
10
10
10
10
10
10
10
10
10
10
10
10
10
10
10
10
10
10
10
10
10
10
10
10
10
10
10
10
10
10
10
10
10
10
10
10
10
10
10
10
10
10
10
10
10
10
10
10
10
10
10
10
10
10
10
10
10
10
10
10
10
10
10
10
10
10
10
10
10
10
10
10
10
10
10
10
10
10
10
10
10
10
10
10
10
10
10
10
10
10
10
10
10
10
10
10
10
10
10
10
10
10
10
10
10
10
10
10
10
10
10
10
10
10
10
10
10
10
10
10
10
10
10
10
10
10
10
10
10
10
10
10
10
10
10
10
10
10
10
10
10
10
10
10
10
10
10
10
10
10
10
10
10
10
10
10
10
10
10
10
10
10
10
10
10
10
10
10
10
10
10
10
10
10
10
10
10
10
10
10
10
10
10
10
10
10
10
10
10
10
10
10
10
10
10
10
10
10
10
10
10
10
10
10
10
10
10
10
10
10
10
10
10
10
10
10
10
10
10
10
10
10
10
10
10
10
10
10
10
10
10
10
10
10
10
10
10
10
10
10
10
10
10
10
10
10
10
10
10
10
10
10
10
10
10
10
10
10
10
10
10
10
10
10
10
10
10
10
10
10
10
10
10
10
10
10
10
10
10
10
10
10
10
10
10
10
10
10
10
10
10
10
10
10
10
10
10
10
10
10
10
10
10
10
10
10
10
10
10
10
10
10
10
10
10
10
10
10
10
10
10
10
10
10
10
10
10
10
10
10
10
10
10
10
10
10
10
10
10
10
10
10
10
10
10
10
10
10
10
10
10
10
10
10
10
10
10
10
10
10
10
10
10
10
10
10
10
10
10
10
10
10
10
10
10
10
10
10
10
10
10
10
10
10
10
10
10
10
10
10
10
10
10
10
10
10
10
10
10
10
10
10
10
10
10
10
10
10
10
10
10
10
10
10
10
10
10
10
10
10
10
10
10
10
10
10
10
10
10
10
10
10
10
10
10
10
10
10
10
10
10
10
10
10
10
10
10
10
10
10
10
10
10
10
10
10
10
10
10
10
10
10
10
10
10
10
10
10
10
10
10
10
10
10
10
10
10
10
10
10
10
10
10
10
10
10
10
10
10
10
10
10
10
10
10
10
10
10
10
10
10
10
10
10
10
10
10
10
10
10
10
10
10
10
10
10
10
10
10
10
10
10
10
10
10
10
10
10
10
10
10
10
10
10
10
10
10
10
10
10
10
10
10
10
10
10
10
10
10
10
10
10
10
10
10
10
10
10
10
10
10
10
10
10
10
10
10
10
10
10
10
10
10
10
10
10
10
10
10
10
10
10
10
10
10
10
10
10
10
10
10
10
10
10
10
10
10
10
10
10
10
10
10
10
10
10
10
10
10
10
10
10
10
10
10
10
10
10
10
10
10
10
10
10
10
10
10
10
10
10
10
10
10
10
10
10
10
10
10
10
10
10
10
10
10
10
10
10
10
10
10
10
10
10
10
10
10
10
10
10
10
10
10
10
10
10
10
10
10
10
10
10
10
10
10
10
10
10
10
10
10
10
10
10
10
10
10
10
10
10
10
10
10
10
10
10
10
10
10
10
10
10
10
10
10
10
10
10
10
10
10
10
10
10
10
10
10
10
10
10
10
10
10
10
10
10
10
10
10
10
10
10
10
10
10
10
10
10
10
10
10
10
10
10
10
10
10
10
10
10
10
10
10
10
10
10
10
10
10
10
10
10
10
10
10
10
10
10
10
10
10
10
10
10
10
10
10
10
10
10
10
10
10
10
10
10
10
10
10
10
10
10
10
10
10
10
10
10
10
10
10
10
10
10
10
10
10
10
10
10
10
10
10
10
10
10
10
10
10
10
10
10
10
10
10
10
10
10
10
10
10
10
10
10
10
10
10
10
10
10
10
10
10
10
10
10
10
10
10
10
10
10
10
10
10
10
10
10
10
10
10
10
10
10
10
10
10
10
10
10
10
10
10
10
10
10
10
10
10
10
10
10
10
10
10
10
10
10
10
10
10
10
10
10
10
10
10
10
10
10
10
10
10
10
10
10
10
10
10
10
10
10
10
10
10
10
10
10
10
10
10
10
10
10
10
10
10
10
10
10
10
10
10
10
10
10
10
10
10
10
10
10
10
10
10
10
10
10
10
10
10
10
10
10
10
10
10
10
10
10
10
10
10
10
10
10
10
10
10
10
10
10
10
10
10
10
10
10
10
10
10
10
10
10
10
10
10
10
10
10
10
10
10
10
10
10
10
10
10
10
10
10
10
10
10
10
10
10
10
10
10
10
10
10
10
10
10
10
10
10
10
10
10
10
10
10
10
10
10
10
10
10
10
10
10
10
10
10
10
10
10
10
10
10
10
10
10
10
10
10
10
10
10
10
10
10
10
10
10
10
10
10
10
10
10
10
10
10
10
10
10
10
10
10
10
10
10
10
10
10
10
10
10
10
10
10
10
10
10
10
10
10
10
10
10
10
10
10
10
10
10
10
10
10
10
10
10
10
10
10
10
10
10
10
10
10
10
10
10
10
10
10
10
10
10
10
10
10
10
10
10
10
10
10
10
10
10
10
10
10
10
10
10
10
10
10
10
10
10
10
10
10
10
10
10
10
10
10
10
10
10
10
10
10
10
10
10
10
10
10
10
10
10
10
10
10
10
10
10
10
10
10
10
10
10
10
10
10
10
10
10
10
10
10
10
10
10
10
10
10
10
10
10
10
10
10
10
10
10
10
10
10
10
10
10
10
10
10
10
10
10
10
10
10
10
10
10
10
10
10
10
10
10
10
10
10
10
10
10
10
10
10
10
10
10
10
10
10
10
10
10
10
10
10
10
10
10
10
10
10
10
10
10
10
10
10
10
10
10
10
10
10
10
10
10
10
10
10
10
10
10
10
10
10
10
10
10
10
10
10
10
10
10
10
10
10
10
10
10
10
10
10
10
10
10
10
10
10
10
10
10
10
10
10
10
10
10
10
10
10
10
10
10
10
10
10
10
10
10
10
10
10
10
10
10
10
10
10
10
10
10
10
10
10
10
10
10
10
10
10
10
10
10
10
10
10
10
10
10
10
10
10
10
10
10
10
10
10
10
10
10
10
10
10
10
10
10
10
10
10
10
10
10
10
10
10
10
10
10
10
10
10
10
10
10
10
10
10
10
10
10
10
10
10
10
10
10
10
10
10
10
10
10
10
10
10
10
10
10
10
10
10
10
10
10
10
10
10
10
10
10
10
10
10
10
10
10
10
10
10
10
10
10
10
10
10
10
10
10
10
10
10
10
10
10
10
10
10
10
10
10
10
10
10
10
10
10
10
10
10
10
10
10
10
10
10
10
10
10
10
10
10
10
10
10
10
10
10
10
10
10
10
10
10
10
10
10
10
10
10
10
10
10
10
10
10
10
10
10
10
10
10
10
10
10
10
10
10
10
10
10
10
10
10
10
10
10
10
10
10
10
10
10
10
10
10
10
10
10
10
10
10
10
10
10
10
10
10
10
10
10
10
10
10
10
10
10
10
10
10
10
10
10
10
10
10
10
10
10
10
10
10
10
10
10
10
10
10
10
10
10
10
10
10
10
10
10
10
10
10
10
10
10
10
10
10
10
10
10
10
10
10
10
10
10
10
10
10
10
10
10
10
10
10
10
10
10
10
10
10
10
10
10
10
10
10
10
10
10
10
10
10
10
10
10
10
10
10
10
10
10
10
10
10
10
10
10
10
10
10
10
10
10
10
10
10
10
10
10
10
10
10
10
10
10
10
10
10
10
10
10
10
10
10
10
10
10
10
10
10
10
10
10
10
10
10
10
10
10
10
10
10
10
10
10
10
10
10
10
10
10
10
10
10
10
10
10
10
10
10
10
10
10
10
10
10
10
10
10
10
10
10
10
10
10
10
10
10
10
10
10
10
10
10
10
10
10
10
10
10
10
10
10
10
10
10
10
10
10
10
10
10
10
10
10
10
10
10
10
10
10
10
10
10
10
10
10
10
10
10
10
10
10
10
10
10
10
10
10
10
10
10
10
10
10
10
10
10
10
10
10
10
10
10
10
10
10
10
10
10
10
10
10
10
10
10
10
10
10
10
10
10
10
10
10
10
10
10
10
10
10
10
10
10
10
10
10
10
10
10
10
10
10
10
10
10
10
10
10
10
10
10
10
10
10
10
10
10
10
10
10
10
10
10
10
10
10
10
10
10
10
10
10
10
10
10
10
10
10
10
10
10
10
10
10
10
10
10
10
10
10
10
10
10
10
10
10
10
10
10
10
10
10
10
10
10
10
10
10
10
10
10
10
10
10
10
10
10
10
10
10
10
10
10
10
10
10
10
10
10
10
10
10
10
10
10
10
10
10
10
10
10
10
10
10
10
10
10
10
10
10
10
10
10
10
10
10
10
10
10
10
10
10
10
10
10
10
10
10
10
10
10
10
10
10
10
10
10
10
10
10
10
10
10
10
10
10
10
10
10
10
10
10
10
10
10
10
10
10
10
10
10
10
10
10
10
10
10
10
10
10
10
10
10
10
10
10
10
10
10
10
10
10
10
10
10
10
10
10
10
10
10
10
10
10
10
10
10
10
10
10
10
10
10
10
10
10
10
10
10
10
10
10
10
10
10
10
10
10
10
10
10
10
10
10
10
10
10
10
10
10
10
10
10
10
10
10
10
10
10
10
10
10
10
10
10
10
10
10
10
10
10
10
10
10
10
10
10
10
10
10
10
10
10
10
10
10
10
10
10
10
10
10
10
10
10
10
10
10
10
10
10
10
10
10
10
10
10
10
10
10
10
10
10
10
10
10
10
10
10
10
10
10
10
10
10
10
10
10
10
10
10
10
10
10
10
10
10
10
10
10
10
10
10
10
10
10
10
10
10
10
10
10
10
10
10
10
10
10
10
10
10
10
10
10
10
10
10
10
10
10
10
10
10
10
10
10
10
10
10
10
10
10
10
10
10
10
10
10
10
10
10
10
10
10
10
10
10
10
10
10
10
10
10
10
10
10
10
10
10
10
10
10
10
10
10
10
10
10
10
10
10
10
10
10
10
10
10
10
10
10
10
10
10
10
10
10
10
10
10
10
10
10
10
10
10
10
10
10
10
10
10
10
10
10
10
10
10
10
10
10
10
10
10
10
10
10
10
10
10
10
10
10
10
10
10
10
10
10
10
10
10
10
10
10
10
10
10
10
10
10
10
10
10
10
10
10
10
10
10
10
10
10
10
10
10
10
10
10
10
10
10
10
10
10
10
10
10
10
10
10
10
10
10
10
10
10
10
10
10
10
10
10
10
10
10
10
10
10
10
10
10
10
10
10
10
10
10
10
10
10
10
10
10
10
10
10
10
10
10
10
10
10
10
10
10
10
10
10
10
10
10
10
10
10
10
10
10
10
10
10
10
10
10
10
10
10
10
10
10
10
10
10
10
10
10
10
10
10
10
10
10
10
10
10
10
10
10
10
10
10
10
10
10
10
10
10
10
10
10
10
10
10
10
10
10
10
10
10
10
10
10
10
10
10
10
10
10
10
10
10
10
10
10
10
10
10
10
10
10
10
10
10
10
10
10
10
10
10
10
10
10
10
10
10
10
10
10
10
10
10
10
10
10
10
10
10
10
10
10
10
10
10
10
10
10
10
10
10
10
10
10
10
10
10
10
10
10
10
10
10
10
10
10
10
10
10
10
10
10
10
10
10
10
10
10
10
10
10
10
10
10
10
10
10
10
10
10
10
10
10
10
10
10
10
10
10
10
10
10
10
10
10
10
10
10
10
10
10
10
10
10
10
10
10
10
10
10
10
10
10
10
10
10
10
10
10
10
10
10
10
10
10
10
10
10
10
10
10
10
10
10
10
10
10
10
10
10
10
10
10
10
10
10
10
10
10
10
10
10
10
10
10
10
10
10
10
10
10
10
10
10
10
10
10
10
10
10
10
10
10
10
10
10
10
10
10
10
10
10
10
10
10
10
10
10
10
10
10
10
10
10
10
10
10
10
10
10
10
10
10
10
10
10
10
10
10
10
10
10
10
10
10
10
10
10
10
10
10
10
10
10
10
10
10
10
10
10
10
10
10
10
10
10
10
10
10
10
10
10
10
10
10
10
10
10
10
10
10
10
10
10
10
10
10
10
10
10
10
10
10
10
10
10
10
10
10
10
10
10
10
10
10
10
10
10
10
10
10
10
10
10
10
10
10
10
10
10
10
10
10
10
10
10
10
10
10
10
10
10
10
10
10
10
10
10
10
10
10
10
10
10
10
10
10
10
10
10
10
10
10
10
10
10
10
10
10
10
10
10
10
10
10
10
10
10
10
10
10
10
10
10
10
10
10
10
10
10
10
10
10
10
10
10
10
10
10
10
10
10
10
10
10
10
10
10
10
10
10
10
10
10
10
10
10
10
10
10
10
10
10
10
10
10
10
10
10
10
10
10
10
10
10
10
10
10
10
10
10
10
10
10
10
10
10
10
10
10
10
10
10
10
10
10
10
10
10
10
10
10
10
10
10
10
10
10
10
10
10
10
10
10
10
10
10
10
10
10
10
10
10
10
10
10
10
10
10
10
10
10
10
10
10
10
10
10
10
10
10
10
10
10
10
10
10
10
10
10
10
10
10
10
10
10
10
10
10
10
10
10
10
10
10
10
10
10
10
10
10
10
10
10
10
10
10
10
10
10
10
10
10
10
10
10
10
10
10
10
10
10
10
10
10
10
10
10
10
10
10
10
10
10
10
10
10
10
10
10
10
10
10
10
10
10
10
10
10
10
10
10
10
10
10
10
10
10
10
10
10
10
10
10
10
10
10
10
10
10
10
10
10
10
10
10
10
10
10
10
10
10
10
10
10
10
10
10
10
10
10
10
10
10
10
10
10
10
10
10
10
10
10
10
10
10
10
10
10
10
10
10
10
10
10
10
10
10
CELL_DATA 4370
POINT_DATA 17480
SCALARS Pressure float 
LOOKUP_TABLE default
9.51377 9.51377 9.51377 9.51377 9.53394 9.53394 9.53394 9.53394 9.75437 9.75437 9.75437 9.75437 6.5842 6.5842 6.5842 6.5842 9.74083 9.74083 9.74083 9.74083 9.59401 9.59401 9.59401 9.59401 9.50902 9.50902 9.50902 9.50902 9.78354 9.78354 9.78354 9.78354 8.7398 8.7398 8.7398 8.7398 9.69999 9.69999 9.69999 9.69999 9.60574 9.60574 9.60574 9.60574 9.13008 9.13008 9.13008 9.13008 9.59429 9.59429 9.59429 9.59429 10.3661 10.3661 10.3661 10.3661 9.76873 9.76873 9.76873 9.76873 9.60799 9.60799 9.60799 9.60799 9.80627 9.80627 9.80627 9.80627 8.97589 8.97589 8.97589 8.97589 9.08868 9.08868 9.08868 9.08868 9.77316 9.77316 9.77316 9.77316 9.69879 9.69879 9.69879 9.69879 9.8134 9.8134 9.8134 9.8134 9.53604 9.53604 9.53604 9.53604 9.58337 9.58337 9.58337 9.58337 9.74493 9.74493 9.74493 9.74493 10.4531 10.4531 10.4531 10.4531 9.51747 9.51747 9.51747 9.51747 9.74978 9.74978 9.74978 9.74978 9.63235 9.63235 9.63235 9.63235 9.39165 9.39165 9.39165 9.39165 9.78096 9.78096 9.78096 9.78096 9.75542 9.75542 9.75542 9.75542 9.75432 9.75432 9.75432 9.75432 9.8046 9.8046 9.8046 9.8046 9.82651 9.82651 9.82651 9.82651 9.82492 9.82492 9.82492 9.82492 9.30473 9.30473 9.30473 9.30473 9.42728 9.42728 9.42728 9.42728 9.46009 9.46009 9.46009 9.46009 9.45155 9.45155 9.45155 9.45155 6.58287 6.58287 6.58287 6.58287 9.7754 9.7754 9.7754 9.7754 9.83633 9.83633 9.83633 9.83633 9.70203 9.70203 9.70203 9.70203 9.50978 9.50978 9.50978 9.50978 9.02976 9.02976 9.02976 9.02976 9.50615 9.50615 9.50615 9.50615 9.63364 9.63364 9.63364 9.63364 9.48669 9.48669 9.48669 9.48669 9.52748 9.52748 9.52748 9.52748 9.7564 9.7564 9.7564 9.7564 9.76265 9.76265 9.76265 9.76265 9.60935 9.60935 9.60935 9.60935 9.52826 9.52826 9.52826 9.52826 9.01345 9.01345 9.01345 9.01345 9.73555 9.73555 9.73555 9.73555 8.71013 8.71013 8.71013 8.71013 10.4374 10.4374 10.4374 10.4374 9.8373 9.8373 9.8373 9.8373 9.64579 9.64579 9.64579 9.64579 9.86568 9.86568 9.86568 9.86568 9.74536 9.74536 9.74536 9.74536 9.54522 9.54522 9.54522 9.54522 9.64291 9.64291 9.64291 9.64291 9.81388 9.81388 9.81388 9.81388 9.20203 9.20203 9.20203 9.20203 9.56489 9.56489 9.56489 9.56489 10.1409 10.1409 10.1409 10.1409 9.38999 9.38999 9.38999 9.38999 10.1076 10.1076 10.1076 10.1076 9.82305 9.82305 9.82305 9.82305 9.41732 9.41732 9.41732 9.41732 10.9187 10.9187 10.9187 10.9187 9.58448 9.58448 9.58448 9.58448 9.84414 9.84414 9.84414 9.84414 9.32087 9.32087 9.32087 9.32087 6.19242 6.19242 6.19242 6.19242 9.49392 9.49392 9.49392 9.49392 9.59827 9.59827 9.59827 9.59827 9.35806 9.35806 9.35806 9.35806 9.32084 9.32084 9.32084 9.32084 9.40527 9.40527 9.40527 9.40527 9.43614 9.43614 9.43614 9.43614 9.27148 9.27148 9.27148 9.27148 9.53729 9.53729 9.53729 9.53729 7.54836 7.54836 7.54836 7.54836 9.48789 9.48789 9.48789 9.48789 9.82256 9.82256 9.82256 9.82256 9.52549 9.52549 9.52549 9.52549 9.4963 9.4963 9.4963 9.4963 9.92983 9.92983 9.92983 9.92983 9.26653 9.26653 9.26653 9.26653 9.01091 9.01091 9.01091 9.01091 9.61665 9.61665 9.61665 9.61665 9.23479 9.23479 9.23479 9.23479 9.66145 9.66145 9.66145 9.66145 9.49286 9.49286 9.49286 9.49286 9.65402 9.65402 9.65402 9.65402 5.30556 5.30556 5.30556 5.30556 9.95322 9.95322 9.95322 9.95322 9.6191 9.6191 9.6191 9.6191 9.84908 9.84908 9.84908 9.84908 9.68009 9.68009 9.68009 9.68009 8.52807 8.52807 8.52807 8.52807 9.49655 9.49655 9.49655 9.49655 7.35673 7.35673 7.35673 7.35673 9.58605 9.58605 9.58605 9.58605 9.11687 9.11687 9.11687 9.11687 7.92846 7.92846 7.92846 7.92846 9.63209 9.63209 9.63209 9.63209 9.32787 9.32787 9.32787 9.32787 9.38571 9.38571 9.38571 9.38571 9.65042 9.65042 9.65042 9.65042 9.06298 9.06298 9.06298 9.06298 9.56296 9.56296 9.56296 9.56296 9.94525 9.94525 9.94525 9.94525 9.60762 9.60762 9.60762 9.60762 9.51005 9.51005 9.51005 9.51005 9.73737 9.73737 9.73737 9.73737 9.8123 9.8123 9.8123 9.8123 9.5961 9.5961 9.5961 9.5961 9.61308 9.61308 9.61308 9.61308 9.80835 9.80835 9.80835 9.80835 9.31994 9.31994 9.31994 9.31994 8.52622 8.52622 8.52622 8.52622 9.4098 9.4098 9.4098 9.4098 9.64853 9.64853 9.64853 9.64853 10.0934 10.0934 10.0934 10.0934 9.92648 9.92648 9.92648 9.92648 9.60346 9.60346 9.60346 9.60346 2.77744 2.77744 2.77744 2.77744 9.64698 9.64698 9.64698 9.64698 9.60272 9.60272 9.60272 9.60272 9.25944 9.25944 9.25944 9.25944 9.51104 9.51104 9.51104 9.51104 9.25978 9.25978 9.25978 9.25978 9.83473 9.83473 9.83473 9.83473 9.60812 9.60812 9.60812 9.60812 9.14929 9.14929 9.14929 9.14929 9.6733 9.6733 9.6733 9.6733 9.46304 9.46304 9.46304 9.46304 9.4976 9.4976 9.4976 9.4976 9.79997 9.79997 9.79997 9.79997 9.59323 9.59323 9.59323 9.59323 9.53051 9.53051 9.53051 9.53051 9.54589 9.54589 9.54589 9.54589 9.31746 9.31746 9.31746 9.31746 9.67665 9.67665 9.67665 9.67665 7.98809 7.98809 7.98809 7.98809 9.7733 9.7733 9.7733 9.7733 9.59043 9.59043 9.59043 9.59043 9.79265 9.79265 9.79265 9.79265 9.30692 9.30692 9.30692 9.30692 9.40265 9.40265 9.40265 9.40265 9.76348 9.76348 9.76348 9.76348 9.37396 9.37396 9.37396 9.37396 9.61101 9.61101 9.61101 9.61101 9.6336 9.6336 9.6336 9.6336 9.54194 9.54194 9.54194 9.54194 9.46075 9.46075 9.46075 9.46075 9.61336 9.61336 9.61336 9.61336 8.70546 8.70546 8.70546 8.70546 9.85043 9.85043 9.85043 9.85043 9.61117 9.61117 9.61117 9.61117 9.20684 9.20684 9.20684 9.20684 9.47481 9.47481 9.47481 9.47481 9.62591 9.62591 9.62591 9.62591 10.2989 10.2989 10.2989 10.2989 9.85869 9.85869 9.85869 9.85869 9.86154 9.86154 9.86154 9.86154 9.5347 9.5347 9.5347 9.5347 9.83345 9.83345 9.83345 9.83345 9.2374 9.2374 9.2374 9.2374 9.67384 9.67384 9.67384 9.67384 9.8229 9.8229 9.8229 9.8229 9.19787 9.19787 9.19787 9.19787 8.15834 8.15834 8.15834 8.15834 9.86777 9.86777 9.86777 9.86777 9.22375 9.22375 9.22375 9.22375 9.82104 9.82104 9.82104 9.82104 9.57474 9.57474 9.57474 9.57474 9.63795 9.63795 9.63795 9.63795 9.91165 9.91165 9.91165 9.91165 7.7192 7.7192 7.7192 7.7192 9.43635 9.43635 9.43635 9.43635 9.48682 9.48682 9.48682 9.48682 9.57757 9.57757 9.57757 9.57757 9.28845 9.28845 9.28845 9.28845 9.37475 9.37475 9.37475 9.37475 9.09945 9.09945 9.09945 9.09945 9.28618 9.28618 9.28618 9.28618 9.34628 9.34628 9.34628 9.34628 9.60349 9.60349 9.60349 9.60349 9.59005 9.59005 9.59005 9.59005 8.85207 8.85207 8.85207 8.85207 9.31472 9.31472 9.31472 9.31472 8.22357 8.22357 8.22357 8.22357 9.31779 9.31779 9.31779 9.31779 9.31989 9.31989 9.31989 9.31989 8.21445 8.21445 8.21445 8.21445 9.72826 9.72826 9.72826 9.72826 9.84995 9.84995 9.84995 9.84995 7.81391 7.81391 7.81391 7.81391 9.34292 9.34292 9.34292 9.34292 9.60035 9.60035 9.60035 9.60035 9.54102 9.54102 9.54102 9.54102 9.71349 9.71349 9.71349 9.71349 9.27775 9.27775 9.27775 9.27775 9.53943 9.53943 9.53943 9.53943 9.81277 9.81277 9.81277 9.81277 9.74476 9.74476 9.74476 9.74476 9.57618 9.57618 9.57618 9.57618 9.57021 9.57021 9.57021 9.57021 9.53322 9.53322 9.53322 9.53322 9.60118 9.60118 9.60118 9.60118 9.51447 9.51447 9.51447 9.51447 8.96641 8.96641 8.96641 8.96641 9.28002 9.28002 9.28002 9.28002 9.4998 9.4998 9.4998 9.4998 10.1865 10.1865 10.1865 10.1865 9.82567 9.82567 9.82567 9.82567 9.39103 9.39103 9.39103 9.39103 9.38356 9.38356 9.38356 9.38356 9.0564 9.0564 9.0564 9.0564 9.62361 9.62361 9.62361 9.62361 9.41847 9.41847 9.41847 9.41847 9.84109 9.84109 9.84109 9.84109 9.94492 9.94492 9.94492 9.94492 9.47639 9.47639 9.47639 9.47639 9.84016 9.84016 9.84016 9.84016 9.8447 9.8447 9.8447 9.8447 6.88004 6.88004 6.88004 6.88004 8.60172 8.60172 8.60172 8.60172 9.67244 9.67244 9.67244 9.67244 9.43202 9.43202 9.43202 9.43202 9.50338 9.50338 9.50338 9.50338 9.45296 9.45296 9.45296 9.45296 9.80268 9.80268 9.80268 9.80268 9.53552 9.53552 9.53552 9.53552 9.65237 9.65237 9.65237 9.65237 9.45701 9.45701 9.45701 9.45701 9.59157 9.59157 9.59157 9.59157 9.64939 9.64939 9.64939 9.64939 9.63003 9.63003 9.63003 9.63003 9.71024 9.71024 9.71024 9.71024 9.46664 9.46664 9.46664 9.46664 9.52511 9.52511 9.52511 9.52511 9.74042 9.74042 9.74042 9.74042 9.76726 9.76726 9.76726 9.76726 9.93206 9.93206 9.93206 9.93206 9.51864 9.51864 9.51864 9.51864 9.59289 9.59289 9.59289 9.59289 9.69896 9.69896 9.69896 9.69896 9.78063 9.78063 9.78063 9.78063 9.37747 9.37747 9.37747 9.37747 9.82804 9.82804 9.82804 9.82804 8.53826 8.53826 8.53826 8.53826 9.93911 9.93911 9.93911 9.93911 10.572 10.572 10.572 10.572 9.70328 9.70328 9.70328 9.70328 9.64119 9.64119 9.64119 9.64119 9.72442 9.72442 9.72442 9.72442 9.66489 9.66489 9.66489 9.66489 4.71041 4.71041 4.71041 4.71041 9.71006 9.71006 9.71006 9.71006 9.54745 9.54745 9.54745 9.54745 9.83961 9.83961 9.83961 9.83961 8.92649 8.92649 8.92649 8.92649 9.70584 9.70584 9.70584 9.70584 9.62229 9.62229 9.62229 9.62229 9.69795 9.69795 9.69795 9.69795 9.60582 9.60582 9.60582 9.60582 9.59316 9.59316 9.59316 9.59316 9.82297 9.82297 9.82297 9.82297 9.88849 9.88849 9.88849 9.88849 9.32528 9.32528 9.32528 9.32528 9.34278 9.34278 9.34278 9.34278 9.67443 9.67443 9.67443 9.67443 9.66425 9.66425 9.66425 9.66425 9.61382 9.61382 9.61382 9.61382 9.83709 9.83709 9.83709 9.83709 9.88343 9.88343 9.88343 9.88343 9.81859 9.81859 9.81859 9.81859 9.84898 9.84898 9.84898 9.84898 9.92349 9.92349 9.92349 9.92349 9.29848 9.29848 9.29848 9.29848 9.88895 9.88895 9.88895 9.88895 9.76807 9.76807 9.76807 9.76807 9.78614 9.78614 9.78614 9.78614 9.80091 9.80091 9.80091 9.80091 9.70773 9.70773 9.70773 9.70773 8.92655 8.92655 8.92655 8.92655 9.14455 9.14455 9.14455 9.14455 8.23551 8.23551 8.23551 8.23551 9.79302 9.79302 9.79302 9.79302 9.61849 9.61849 9.61849 9.61849 8.07692 8.07692 8.07692 8.07692 9.87792 9.87792 9.87792 9.87792 9.12659 9.12659 9.12659 9.12659 9.07248 9.07248 9.07248 9.07248 11.2916 11.2916 11.2916 11.2916 9.56134 9.56134 9.56134 9.56134 10.6238 10.6238 10.6238 10.6238 6.905 6.905 6.905 6.905 9.55209 9.55209 9.55209 9.55209 9.53443 9.53443 9.53443 9.53443 9.62634 9.62634 9.62634 9.62634 9.63136 9.63136 9.63136 9.63136 9.72691 9.72691 9.72691 9.72691 9.70928 9.70928 9.70928 9.70928 8.90669 8.90669 8.90669 8.90669 9.3252 9.3252 9.3252 9.3252 9.93185 9.93185 9.93185 9.93185 9.63755 9.63755 9.63755 9.63755 9.74181 9.74181 9.74181 9.74181 9.63626 9.63626 9.63626 9.63626 9.57738 9.57738 9.57738 9.57738 9.12065 9.12065 9.12065 9.12065 9.77949 9.77949 9.77949 9.77949 10.6301 10.6301 10.6301 10.6301 9.48181 9.48181 9.48181 9.48181 9.93794 9.93794 9.93794 9.93794 9.85632 9.85632 9.85632 9.85632 9.76137 9.76137 9.76137 9.76137 9.30631 9.30631 9.30631 9.30631 6.52601 6.52601 6.52601 6.52601 9.45044 9.45044 9.45044 9.45044 9.64448 9.64448 9.64448 9.64448 9.4897 9.4897 9.4897 9.4897 9.58847 9.58847 9.58847 9.58847 9.41454 9.41454 9.41454 9.41454 9.69224 9.69224 9.69224 9.69224 9.93881 9.93881 9.93881 9.93881 9.51012 9.51012 9.51012 9.51012 9.49782 9.49782 9.49782 9.49782 9.71278 9.71278 9.71278 9.71278 9.50816 9.50816 9.50816 9.50816 9.94301 9.94301 9.94301 9.94301 9.42207 9.42207 9.42207 9.42207 9.79346 9.79346 9.79346 9.79346 9.72251 9.72251 9.72251 9.72251 9.80631 9.80631 9.80631 9.80631 9.14136 9.14136 9.14136 9.14136 9.41511 9.41511 9.41511 9.41511 9.58143 9.58143 9.58143 9.58143 9.76137 9.76137 9.76137 9.76137 9.87315 9.87315 9.87315 9.87315 8.88816 8.88816 8.88816 8.88816 9.16022 9.16022 9.16022 9.16022 9.29787 9.29787 9.29787 9.29787 5.38566 5.38566 5.38566 5.38566 5.75893 5.75893 5.75893 5.75893 12.126 12.126 12.126 12.126 9.60289 9.60289 9.60289 9.60289 6.47717 6.47717 6.47717 6.47717 9.83033 9.83033 9.83033 9.83033 9.87253 9.87253 9.87253 9.87253 9.58708 9.58708 9.58708 9.58708 9.08422 9.08422 9.08422 9.08422 9.26979 9.26979 9.26979 9.26979 11.0211 11.0211 11.0211 11.0211 9.93031 9.93031 9.93031 9.93031 9.88048 9.88048 9.88048 9.88048 9.41052 9.41052 9.41052 9.41052 9.44391 9.44391 9.44391 9.44391 9.711 9.711 9.711 9.711 10.0458 10.0458 10.0458 10.0458 9.12634 9.12634 9.12634 9.12634 9.61171 9.61171 9.61171 9.61171 9.07318 9.07318 9.07318 9.07318 7.75299 7.75299 7.75299 7.75299 2.49614 2.49614 2.49614 2.49614 8.47989 8.47989 8.47989 8.47989 9.56486 9.56486 9.56486 9.56486 9.73934 9.73934 9.73934 9.73934 9.60726 9.60726 9.60726 9.60726 9.68202 9.68202 9.68202 9.68202 9.58097 9.58097 9.58097 9.58097 9.47992 9.47992 9.47992 9.47992 5.3146 5.3146 5.3146 5.3146 8.38689 8.38689 8.38689 8.38689 9.62448 9.62448 9.62448 9.62448 9.67129 9.67129 9.67129 9.67129 9.79854 9.79854 9.79854 9.79854 12.777 12.777 12.777 12.777 9.43563 9.43563 9.43563 9.43563 9.89499 9.89499 9.89499 9.89499 9.63859 9.63859 9.63859 9.63859 9.62838 9.62838 9.62838 9.62838 8.06421 8.06421 8.06421 8.06421 8.6431 8.6431 8.6431 8.6431 9.13158 9.13158 9.13158 9.13158 8.83684 8.83684 8.83684 8.83684 9.61235 9.61235 9.61235 9.61235 9.94345 9.94345 9.94345 9.94345 7.9803 7.9803 7.9803 7.9803 7.34798 7.34798 7.34798 7.34798 10.044 10.044 10.044 10.044 9.81094 9.81094 9.81094 9.81094 9.3959 9.3959 9.3959 9.3959 9.33184 9.33184 9.33184 9.33184 9.71949 9.71949 9.71949 9.71949 9.42233 9.42233 9.42233 9.42233 8.55087 8.55087 8.55087 8.55087 9.53816 9.53816 9.53816 9.53816 9.92224 9.92224 9.92224 9.92224 9.14218 9.14218 9.14218 9.14218 8.80938 8.80938 8.80938 8.80938 9.49003 9.49003 9.49003 9.49003 9.82726 9.82726 9.82726 9.82726 9.54273 9.54273 9.54273 9.54273 9.3285 9.3285 9.3285 9.3285 6.98042 6.98042 6.98042 6.98042 9.71012 9.71012 9.71012 9.71012 8.81462 8.81462 8.81462 8.81462 9.43386 9.43386 9.43386 9.43386 9.16232 9.16232 9.16232 9.16232 9.6091 9.6091 9.6091 9.6091 9.63576 9.63576 9.63576 9.63576 9.31357 9.31357 9.31357 9.31357 9.62416 9.62416 9.62416 9.62416 9.35096 9.35096 9.35096 9.35096 9.56891 9.56891 9.56891 9.56891 8.74718 8.74718 8.74718 8.74718 9.88309 9.88309 9.88309 9.88309 10.7062 10.7062 10.7062 10.7062 8.35089 8.35089 8.35089 8.35089 9.66129 9.66129 9.66129 9.66129 9.7227 9.7227 9.7227 9.7227 9.78519 9.78519 9.78519 9.78519 7.37059 7.37059 7.37059 7.37059 9.15399 9.15399 9.15399 9.15399 9.69717 9.69717 9.69717 9.69717 9.82083 9.82083 9.82083 9.82083 9.82869 9.82869 9.82869 9.82869 9.32157 9.32157 9.32157 9.32157 9.90122 9.90122 9.90122 9.90122 9.66817 9.66817 9.66817 9.66817 10.954 10.954 10.954 10.954 9.82594 9.82594 9.82594 9.82594 9.80801 9.80801 9.80801 9.80801 9.56721 9.56721 9.56721 9.56721 9.56592 9.56592 9.56592 9.56592 9.53714 9.53714 9.53714 9.53714 9.90259 9.90259 9.90259 9.90259 9.19957 9.19957 9.19957 9.19957 9.15029 9.15029 9.15029 9.15029 9.83406 9.83406 9.83406 9.83406 9.4245 9.4245 9.4245 9.4245 9.30389 9.30389 9.30389 9.30389 9.8903 9.8903 9.8903 9.8903 8.66036 8.66036 8.66036 8.66036 9.52119 9.52119 9.52119 9.52119 9.53712 9.53712 9.53712 9.53712 10.8236 10.8236 10.8236 10.8236 8.91973 8.91973 8.91973 8.91973 9.42119 9.42119 9.42119 9.42119 9.24931 9.24931 9.24931 9.24931 9.63042 9.63042 9.63042 9.63042 9.08284 9.08284 9.08284 9.08284 9.38362 9.38362 9.38362 9.38362 6.71106 6.71106 6.71106 6.71106 9.38852 9.38852 9.38852 9.38852 9.52231 9.52231 9.52231 9.52231 9.14853 9.14853 9.14853 9.14853 8.64107 8.64107 8.64107 8.64107 11.6849 11.6849 11.6849 11.6849 9.54704 9.54704 9.54704 9.54704 9.81989 9.81989 9.81989 9.81989 9.35934 9.35934 9.35934 9.35934 8.02068 8.02068 8.02068 8.02068 6.56103 6.56103 6.56103 6.56103 9.78941 9.78941 9.78941 9.78941 10.2952 10.2952 10.2952 10.2952 9.61361 9.61361 9.61361 9.61361 9.82269 9.82269 9.82269 9.82269 9.33952 9.33952 9.33952 9.33952 9.71159 9.71159 9.71159 9.71159 10.1079 10.1079 10.1079 10.1079 9.79462 9.79462 9.79462 9.79462 9.70183 9.70183 9.70183 9.70183 9.1901 9.1901 9.1901 9.1901 9.95797 9.95797 9.95797 9.95797 8.99148 8.99148 8.99148 8.99148 8.66912 8.66912 8.66912 8.66912 9.50426 9.50426 9.50426 9.50426 9.54784 9.54784 9.54784 9.54784 8.816 8.816 8.816 8.816 9.20939 9.20939 9.20939 9.20939 5.34869 5.34869 5.34869 5.34869 9.84973 9.84973 9.84973 9.84973 9.30581 9.30581 9.30581 9.30581 5.19104 5.19104 5.19104 5.19104 9.73616 9.73616 9.73616 9.73616 9.82405 9.82405 9.82405 9.82405 11.0425 11.0425 11.0425 11.0425 9.58253 9.58253 9.58253 9.58253 7.15143 7.15143 7.15143 7.15143 9.91803 9.91803 9.91803 9.91803 9.64562 9.64562 9.64562 9.64562 9.36055 9.36055 9.36055 9.36055 9.48955 9.48955 9.48955 9.48955 9.77837 9.77837 9.77837 9.77837 9.81364 9.81364 9.81364 9.81364 9.26906 9.26906 9.26906 9.26906 7.87301 7.87301 7.87301 7.87301 9.73091 9.73091 9.73091 9.73091 8.67145 8.67145 8.67145 8.67145 8.07424 8.07424 8.07424 8.07424 9.6575 9.6575 9.6575 9.6575 9.59969 9.59969 9.59969 9.59969 9.90285 9.90285 9.90285 9.90285 5.95795 5.95795 5.95795 5.95795 8.55758 8.55758 8.55758 8.55758 9.5594 9.5594 9.5594 9.5594 9.30595 9.30595 9.30595 9.30595 5.39419 5.39419 5.39419 5.39419 9.57182 9.57182 9.57182 9.57182 9.24887 9.24887 9.24887 9.24887 9.50246 9.50246 9.50246 9.50246 6.92974 6.92974 6.92974 6.92974 9.41096 9.41096 9.41096 9.41096 9.02777 9.02777 9.02777 9.02777 8.39323 8.39323 8.39323 8.39323 9.29423 9.29423 9.29423 9.29423 9.53908 9.53908 9.53908 9.53908 9.5622 9.5622 9.5622 9.5622 9.71054 9.71054 9.71054 9.71054 8.71305 8.71305 8.71305 8.71305 9.2642 9.2642 9.2642 9.2642 9.86424 9.86424 9.86424 9.86424 9.65847 9.65847 9.65847 9.65847 9.62306 9.62306 9.62306 9.62306 11.2556 11.2556 11.2556 11.2556 9.51635 9.51635 9.51635 9.51635 9.06647 9.06647 9.06647 9.06647 9.90956 9.90956 9.90956 9.90956 10.4324 10.4324 10.4324 10.4324 9.64357 9.64357 9.64357 9.64357 9.843 9.843 9.843 9.843 8.81129 8.81129 8.81129 8.81129 9.93074 9.93074 9.93074 9.93074 9.8699 9.8699 9.8699 9.8699 9.8904 9.8904 9.8904 9.8904 9.79686 9.79686 9.79686 9.79686 9.68925 9.68925 9.68925 9.68925 9.51556 9.51556 9.51556 9.51556 9.51964 9.51964 9.51964 9.51964 8.67021 8.67021 8.67021 8.67021 9.78328 9.78328 9.78328 9.78328 5.08066 5.08066 5.08066 5.08066 2.5737 2.5737 2.5737 2.5737 9.69004 9.69004 9.69004 9.69004 9.87493 9.87493 9.87493 9.87493 9.13594 9.13594 9.13594 9.13594 9.1642 9.1642 9.1642 9.1642 4.63194 4.63194 4.63194 4.63194 10.09 10.09 10.09 10.09 9.69253 9.69253 9.69253 9.69253 9.94545 9.94545 9.94545 9.94545 8.73827 8.73827 8.73827 8.73827 8.48196 8.48196 8.48196 8.48196 9.67225 9.67225 9.67225 9.67225 9.76403 9.76403 9.76403 9.76403 9.43189 9.43189 9.43189 9.43189 8.33581 8.33581 8.33581 8.33581 9.35139 9.35139 9.35139 9.35139 9.64734 9.64734 9.64734 9.64734 11.5294 11.5294 11.5294 11.5294 8.90264 8.90264 8.90264 8.90264 9.73355 9.73355 9.73355 9.73355 9.2449 9.2449 9.2449 9.2449 9.81472 9.81472 9.81472 9.81472 9.95746 9.95746 9.95746 9.95746 9.84675 9.84675 9.84675 9.84675 9.55226 9.55226 9.55226 9.55226 10.094 10.094 10.094 10.094 9.27869 9.27869 9.27869 9.27869 9.57186 9.57186 9.57186 9.57186 9.94866 9.94866 9.94866 9.94866 9.45992 9.45992 9.45992 9.45992 9.74071 9.74071 9.74071 9.74071 9.8897 9.8897 9.8897 9.8897 9.4712 9.4712 9.4712 9.4712 9.5308 9.5308 9.5308 9.5308 9.74595 9.74595 9.74595 9.74595 9.20065 9.20065 9.20065 9.20065 8.8664 8.8664 8.8664 8.8664 10.5191 10.5191 10.5191 10.5191 9.27015 9.27015 9.27015 9.27015 9.17002 9.17002 9.17002 9.17002 9.49032 9.49032 9.49032 9.49032 9.45462 9.45462 9.45462 9.45462 9.61249 9.61249 9.61249 9.61249 9.844 9.844 9.844 9.844 9.65015 9.65015 9.65015 9.65015 9.85065 9.85065 9.85065 9.85065 8.1942 8.1942 8.1942 8.1942 9.02324 9.02324 9.02324 9.02324 9.96148 9.96148 9.96148 9.96148 8.70838 8.70838 8.70838 8.70838 9.44658 9.44658 9.44658 9.44658 9.51417 9.51417 9.51417 9.51417 9.50135 9.50135 9.50135 9.50135 9.43645 9.43645 9.43645 9.43645 9.21554 9.21554 9.21554 9.21554 9.43431 9.43431 9.43431 9.43431 9.38391 9.38391 9.38391 9.38391 9.37568 9.37568 9.37568 9.37568 10.3984 10.3984 10.3984 10.3984 9.44407 9.44407 9.44407 9.44407 7.85627 7.85627 7.85627 7.85627 9.71647 9.71647 9.71647 9.71647 9.55603 9.55603 9.55603 9.55603 9.62235 9.62235 9.62235 9.62235 9.80748 9.80748 9.80748 9.80748 9.88888 9.88888 9.88888 9.88888 5.82545 5.82545 5.82545 5.82545 9.77167 9.77167 9.77167 9.77167 8.94187 8.94187 8.94187 8.94187 9.01406 9.01406 9.01406 9.01406 9.30826 9.30826 9.30826 9.30826 9.83328 9.83328 9.83328 9.83328 9.69194 9.69194 9.69194 9.69194 10.8268 10.8268 10.8268 10.8268 8.79002 8.79002 8.79002 8.79002 9.82135 9.82135 9.82135 9.82135 9.93903 9.93903 9.93903 9.93903 8.93123 8.93123 8.93123 8.93123 9.50207 9.50207 9.50207 9.50207 8.83866 8.83866 8.83866 8.83866 9.6136 9.6136 9.6136 9.6136 9.80266 9.80266 9.80266 9.80266 9.88482 9.88482 9.88482 9.88482 9.66021 9.66021 9.66021 9.66021 9.4854 9.4854 9.4854 9.4854 8.7822 8.7822 8.7822 8.7822 9.92905 9.92905 9.92905 9.92905 9.79661 9.79661 9.79661 9.79661 9.81601 9.81601 9.81601 9.81601 9.64212 9.64212 9.64212 9.64212 9.50981 9.50981 9.50981 9.50981 9.67476 9.67476 9.67476 9.67476 9.5446 9.5446 9.5446 9.5446 11.5099 11.5099 11.5099 11.5099 9.38685 9.38685 9.38685 9.38685 8.68873 8.68873 8.68873 8.68873 9.23883 9.23883 9.23883 9.23883 10.9271 10.9271 10.9271 10.9271 9.58567 9.58567 9.58567 9.58567 9.83937 9.83937 9.83937 9.83937 9.95447 9.95447 9.95447 9.95447 9.84906 9.84906 9.84906 9.84906 8.74553 8.74553 8.74553 8.74553 9.54085 9.54085 9.54085 9.54085 9.46083 9.46083 9.46083 9.46083 9.77213 9.77213 9.77213 9.77213 9.59918 9.59918 9.59918 9.59918 9.58602 9.58602 9.58602 9.58602 9.37355 9.37355 9.37355 9.37355 9.09124 9.09124 9.09124 9.09124 10.4206 10.4206 10.4206 10.4206 9.901 9.901 9.901 9.901 9.37723 9.37723 9.37723 9.37723 9.70468 9.70468 9.70468 9.70468 9.0972 9.0972 9.0972 9.0972 9.58345 9.58345 9.58345 9.58345 9.24867 9.24867 9.24867 9.24867 9.28481 9.28481 9.28481 9.28481 9.59169 9.59169 9.59169 9.59169 9.92729 9.92729 9.92729 9.92729 9.57298 9.57298 9.57298 9.57298 9.4151 9.4151 9.4151 9.4151 9.51925 9.51925 9.51925 9.51925 9.4874 9.4874 9.4874 9.4874 9.76896 9.76896 9.76896 9.76896 9.51932 9.51932 9.51932 9.51932 9.95481 9.95481 9.95481 9.95481 9.69968 9.69968 9.69968 9.69968 9.67092 9.67092 9.67092 9.67092 9.4769 9.4769 9.4769 9.4769 2.78377 2.78377 2.78377 2.78377 9.47724 9.47724 9.47724 9.47724 9.96085 9.96085 9.96085 9.96085 9.17013 9.17013 9.17013 9.17013 9.39178 9.39178 9.39178 9.39178 9.60645 9.60645 9.60645 9.60645 9.50142 9.50142 9.50142 9.50142 9.65925 9.65925 9.65925 9.65925 8.29658 8.29658 8.29658 8.29658 8.75287 8.75287 8.75287 8.75287 9.04006 9.04006 9.04006 9.04006 9.39739 9.39739 9.39739 9.39739 8.3593 8.3593 8.3593 8.3593 9.83228 9.83228 9.83228 9.83228 4.62389 4.62389 4.62389 4.62389 9.08201 9.08201 9.08201 9.08201 9.56583 9.56583 9.56583 9.56583 9.44659 9.44659 9.44659 9.44659 8.97378 8.97378 8.97378 8.97378 10.0057 10.0057 10.0057 10.0057 9.4964 9.4964 9.4964 9.4964 9.51821 9.51821 9.51821 9.51821 9.39136 9.39136 9.39136 9.39136 9.70051 9.70051 9.70051 9.70051 9.63813 9.63813 9.63813 9.63813 9.88379 9.88379 9.88379 9.88379 9.47172 9.47172 9.47172 9.47172 9.71024 9.71024 9.71024 9.71024 11.4203 11.4203 11.4203 11.4203 9.92907 9.92907 9.92907 9.92907 9.57489 9.57489 9.57489 9.57489 11.1391 11.1391 11.1391 11.1391 9.11703 9.11703 9.11703 9.11703 9.69399 9.69399 9.69399 9.69399 9.61729 9.61729 9.61729 9.61729 9.042 9.042 9.042 9.042 3.87993 3.87993 3.87993 3.87993 9.64803 9.64803 9.64803 9.64803 9.58575 9.58575 9.58575 9.58575 9.89997 9.89997 9.89997 9.89997 9.10432 9.10432 9.10432 9.10432 9.71216 9.71216 9.71216 9.71216 9.93263 9.93263 9.93263 9.93263 9.54549 9.54549 9.54549 9.54549 9.52757 9.52757 9.52757 9.52757 11.5575 11.5575 11.5575 11.5575 9.31033 9.31033 9.31033 9.31033 8.47678 8.47678 8.47678 8.47678 9.36348 9.36348 9.36348 9.36348 9.28145 9.28145 9.28145 9.28145 9.35326 9.35326 9.35326 9.35326 9.35248 9.35248 9.35248 9.35248 9.02748 9.02748 9.02748 9.02748 11.0298 11.0298 11.0298 11.0298 9.60095 9.60095 9.60095 9.60095 11.9357 11.9357 11.9357 11.9357 9.8664 9.8664 9.8664 9.8664 11.7549 11.7549 11.7549 11.7549 8.70273 8.70273 8.70273 8.70273 9.40666 9.40666 9.40666 9.40666 9.5462 9.5462 9.5462 9.5462 9.21297 9.21297 9.21297 9.21297 9.72517 9.72517 9.72517 9.72517 9.66834 9.66834 9.66834 9.66834 8.2277 8.2277 8.2277 8.2277 9.45359 9.45359 9.45359 9.45359 8.83272 8.83272 8.83272 8.83272 9.68584 9.68584 9.68584 9.68584 9.50983 9.50983 9.50983 9.50983 9.59664 9.59664 9.59664 9.59664 9.82107 9.82107 9.82107 9.82107 9.6562 9.6562 9.6562 9.6562 9.70268 9.70268 9.70268 9.70268 8.29781 8.29781 8.29781 8.29781 9.7808 9.7808 9.7808 9.7808 9.92467 9.92467 9.92467 9.92467 9.87029 9.87029 9.87029 9.87029 9.63993 9.63993 9.63993 9.63993 9.53108 9.53108 9.53108 9.53108 9.95659 9.95659 9.95659 9.95659 9.55454 9.55454 9.55454 9.55454 9.79709 9.79709 9.79709 9.79709 8.64497 8.64497 8.64497 8.64497 9.8037 9.8037 9.8037 9.8037 9.66072 9.66072 9.66072 9.66072 8.60396 8.60396 8.60396 8.60396 9.95272 9.95272 9.95272 9.95272 9.29811 9.29811 9.29811 9.29811 9.77174 9.77174 9.77174 9.77174 8.95344 8.95344 8.95344 8.95344 9.74116 9.74116 9.74116 9.74116 8.99268 8.99268 8.99268 8.99268 9.58246 9.58246 9.58246 9.58246 9.65214 9.65214 9.65214 9.65214 9.84078 9.84078 9.84078 9.84078 7.99054 7.99054 7.99054 7.99054 9.57454 9.57454 9.57454 9.57454 9.81083 9.81083 9.81083 9.81083 9.28598 9.28598 9.28598 9.28598 9.82433 9.82433 9.82433 9.82433 9.59436 9.59436 9.59436 9.59436 9.90147 9.90147 9.90147 9.90147 9.53908 9.53908 9.53908 9.53908 7.36974 7.36974 7.36974 7.36974 12.94 12.94 12.94 12.94 8.9573 8.9573 8.9573 8.9573 9.75391 9.75391 9.75391 9.75391 9.9788 9.9788 9.9788 9.9788 10.9412 10.9412 10.9412 10.9412 8.98791 8.98791 8.98791 8.98791 9.94291 9.94291 9.94291 9.94291 8.72633 8.72633 8.72633 8.72633 9.58274 9.58274 9.58274 9.58274 9.89078 9.89078 9.89078 9.89078 9.46658 9.46658 9.46658 9.46658 9.55312 9.55312 9.55312 9.55312 11.0364 11.0364 11.0364 11.0364 9.83754 9.83754 9.83754 9.83754 8.88655 8.88655 8.88655 8.88655 7.66834 7.66834 7.66834 7.66834 9.89306 9.89306 9.89306 9.89306 9.59189 9.59189 9.59189 9.59189 9.71747 9.71747 9.71747 9.71747 9.68381 9.68381 9.68381 9.68381 9.11556 9.11556 9.11556 9.11556 9.7405 9.7405 9.7405 9.7405 9.9403 9.9403 9.9403 9.9403 9.8489 9.8489 9.8489 9.8489 8.76558 8.76558 8.76558 8.76558 9.77191 9.77191 9.77191 9.77191 9.15632 9.15632 9.15632 9.15632 9.96887 9.96887 9.96887 9.96887 9.82323 9.82323 9.82323 9.82323 9.40005 9.40005 9.40005 9.40005 9.28358 9.28358 9.28358 9.28358 8.21653 8.21653 8.21653 8.21653 9.94843 9.94843 9.94843 9.94843 5.12976 5.12976 5.12976 5.12976 11.0155 11.0155 11.0155 11.0155 9.6861 9.6861 9.6861 9.6861 9.67162 9.67162 9.67162 9.67162 9.7076 9.7076 9.7076 9.7076 9.50238 9.50238 9.50238 9.50238 9.08993 9.08993 9.08993 9.08993 9.85019 9.85019 9.85019 9.85019 9.54337 9.54337 9.54337 9.54337 8.93333 8.93333 8.93333 8.93333 9.56839 9.56839 9.56839 9.56839 9.63944 9.63944 9.63944 9.63944 9.48954 9.48954 9.48954 9.48954 3.26101 3.26101 3.26101 3.26101 9.70339 9.70339 9.70339 9.70339 9.26716 9.26716 9.26716 9.26716 9.7878 9.7878 9.7878 9.7878 7.76474 7.76474 7.76474 7.76474 9.69469 9.69469 9.69469 9.69469 9.55687 9.55687 9.55687 9.55687 9.71868 9.71868 9.71868 9.71868 9.98829 9.98829 9.98829 9.98829 9.61656 9.61656 9.61656 9.61656 9.75911 9.75911 9.75911 9.75911 9.46686 9.46686 9.46686 9.46686 8.97317 8.97317 8.97317 8.97317 7.8368 7.8368 7.8368 7.8368 9.77187 9.77187 9.77187 9.77187 8.8932 8.8932 8.8932 8.8932 9.59734 9.59734 9.59734 9.59734 9.4347 9.4347 9.4347 9.4347 9.27431 9.27431 9.27431 9.27431 9.38703 9.38703 9.38703 9.38703 6.66823 6.66823 6.66823 6.66823 9.34734 9.34734 9.34734 9.34734 8.70793 8.70793 8.70793 8.70793 8.77998 8.77998 8.77998 8.77998 9.38471 9.38471 9.38471 9.38471 9.38374 9.38374 9.38374 9.38374 9.68041 9.68041 9.68041 9.68041 9.64877 9.64877 9.64877 9.64877 11.2284 11.2284 11.2284 11.2284 9.67081 9.67081 9.67081 9.67081 10.0066 10.0066 10.0066 10.0066 9.77741 9.77741 9.77741 9.77741 9.39566 9.39566 9.39566 9.39566 9.94768 9.94768 9.94768 9.94768 9.19336 9.19336 9.19336 9.19336 9.36851 9.36851 9.36851 9.36851 9.90667 9.90667 9.90667 9.90667 9.3685 9.3685 9.3685 9.3685 9.41308 9.41308 9.41308 9.41308 9.44939 9.44939 9.44939 9.44939 8.97152 8.97152 8.97152 8.97152 9.14022 9.14022 9.14022 9.14022 6.60349 6.60349 6.60349 6.60349 3.05761 3.05761 3.05761 3.05761 9.73532 9.73532 9.73532 9.73532 9.50441 9.50441 9.50441 9.50441 7.93459 7.93459 7.93459 7.93459 7.44334 7.44334 7.44334 7.44334 9.16227 9.16227 9.16227 9.16227 9.50377 9.50377 9.50377 9.50377 9.58094 9.58094 9.58094 9.58094 9.36337 9.36337 9.36337 9.36337 9.69905 9.69905 9.69905 9.69905 8.88809 8.88809 8.88809 8.88809 10.8568 10.8568 10.8568 10.8568 9.63428 9.63428 9.63428 9.63428 5.70783 5.70783 5.70783 5.70783 9.70635 9.70635 9.70635 9.70635 9.8807 9.8807 9.8807 9.8807 9.69729 9.69729 9.69729 9.69729 9.93903 9.93903 9.93903 9.93903 9.82843 9.82843 9.82843 9.82843 9.46498 9.46498 9.46498 9.46498 9.85665 9.85665 9.85665 9.85665 9.68725 9.68725 9.68725 9.68725 8.77846 8.77846 8.77846 8.77846 9.04318 9.04318 9.04318 9.04318 9.68202 9.68202 9.68202 9.68202 9.43347 9.43347 9.43347 9.43347 9.59993 9.59993 9.59993 9.59993 9.63296 9.63296 9.63296 9.63296 9.40621 9.40621 9.40621 9.40621 9.86515 9.86515 9.86515 9.86515 9.20414 9.20414 9.20414 9.20414 10.5627 10.5627 10.5627 10.5627 9.73592 9.73592 9.73592 9.73592 10.0194 10.0194 10.0194 10.0194 9.68908 9.68908 9.68908 9.68908 9.79327 9.79327 9.79327 9.79327 9.97683 9.97683 9.97683 9.97683 9.42765 9.42765 9.42765 9.42765 9.867 9.867 9.867 9.867 4.73187 4.73187 4.73187 4.73187 5.78046 5.78046 5.78046 5.78046 9.81833 9.81833 9.81833 9.81833 9.75067 9.75067 9.75067 9.75067 10.5711 10.5711 10.5711 10.5711 9.57189 9.57189 9.57189 9.57189 10.413 10.413 10.413 10.413 10.6439 10.6439 10.6439 10.6439 9.33287 9.33287 9.33287 9.33287 9.58203 9.58203 9.58203 9.58203 9.59038 9.59038 9.59038 9.59038 10.7531 10.7531 10.7531 10.7531 9.40067 9.40067 9.40067 9.40067 9.87324 9.87324 9.87324 9.87324 9.66872 9.66872 9.66872 9.66872 9.5896 9.5896 9.5896 9.5896 9.17985 9.17985 9.17985 9.17985 9.6694 9.6694 9.6694 9.6694 9.12921 9.12921 9.12921 9.12921 5.31453 5.31453 5.31453 5.31453 9.61336 9.61336 9.61336 9.61336 9.69238 9.69238 9.69238 9.69238 9.42229 9.42229 9.42229 9.42229 11.5074 11.5074 11.5074 11.5074 9.83408 9.83408 9.83408 9.83408 9.58274 9.58274 9.58274 9.58274 9.90597 9.90597 9.90597 9.90597 8.58869 8.58869 8.58869 8.58869 9.44139 9.44139 9.44139 9.44139 7.79553 7.79553 7.79553 7.79553 9.52126 9.52126 9.52126 9.52126 9.86695 9.86695 9.86695 9.86695 8.99045 8.99045 8.99045 8.99045 6.21511 6.21511 6.21511 6.21511 8.7564 8.7564 8.7564 8.7564 9.36066 9.36066 9.36066 9.36066 9.83874 9.83874 9.83874 9.83874 9.81982 9.81982 9.81982 9.81982 9.6034 9.6034 9.6034 9.6034 8.75259 8.75259 8.75259 8.75259 8.98868 8.98868 8.98868 8.98868 9.92518 9.92518 9.92518 9.92518 9.58142 9.58142 9.58142 9.58142 9.65261 9.65261 9.65261 9.65261 10.1678 10.1678 10.1678 10.1678 8.21313 8.21313 8.21313 8.21313 3.0536 3.0536 3.0536 3.0536 9.5807 9.5807 9.5807 9.5807 9.34614 9.34614 9.34614 9.34614 9.12255 9.12255 9.12255 9.12255 10.5807 10.5807 10.5807 10.5807 9.52095 9.52095 9.52095 9.52095 9.04367 9.04367 9.04367 9.04367 9.9411 9.9411 9.9411 9.9411 9.50467 9.50467 9.50467 9.50467 9.84095 9.84095 9.84095 9.84095 9.19518 9.19518 9.19518 9.19518 9.79462 9.79462 9.79462 9.79462 9.61199 9.61199 9.61199 9.61199 5.57029 5.57029 5.57029 5.57029 9.02682 9.02682 9.02682 9.02682 9.72936 9.72936 9.72936 9.72936 9.39413 9.39413 9.39413 9.39413 9.5611 9.5611 9.5611 9.5611 9.25832 9.25832 9.25832 9.25832 9.86203 9.86203 9.86203 9.86203 9.67635 9.67635 9.67635 9.67635 9.22785 9.22785 9.22785 9.22785 9.94573 9.94573 9.94573 9.94573 10.2593 10.2593 10.2593 10.2593 9.74761 9.74761 9.74761 9.74761 9.48148 9.48148 9.48148 9.48148 9.78709 9.78709 9.78709 9.78709 6.55501 6.55501 6.55501 6.55501 6.45273 6.45273 6.45273 6.45273 9.39523 9.39523 9.39523 9.39523 9.65379 9.65379 9.65379 9.65379 9.27167 9.27167 9.27167 9.27167 9.86997 9.86997 9.86997 9.86997 9.35669 9.35669 9.35669 9.35669 9.56901 9.56901 9.56901 9.56901 9.86474 9.86474 9.86474 9.86474 9.31719 9.31719 9.31719 9.31719 9.90365 9.90365 9.90365 9.90365 9.30591 9.30591 9.30591 9.30591 9.61429 9.61429 9.61429 9.61429 9.91275 9.91275 9.91275 9.91275 9.73525 9.73525 9.73525 9.73525 10.0585 10.0585 10.0585 10.0585 9.51916 9.51916 9.51916 9.51916 9.58828 9.58828 9.58828 9.58828 9.60186 9.60186 9.60186 9.60186 3.62775 3.62775 3.62775 3.62775 9.55012 9.55012 9.55012 9.55012 9.77157 9.77157 9.77157 9.77157 10.3937 10.3937 10.3937 10.3937 9.81444 9.81444 9.81444 9.81444 9.54457 9.54457 9.54457 9.54457 9.58447 9.58447 9.58447 9.58447 9.73714 9.73714 9.73714 9.73714 9.71142 9.71142 9.71142 9.71142 10.3106 10.3106 10.3106 10.3106 9.74818 9.74818 9.74818 9.74818 9.68414 9.68414 9.68414 9.68414 9.51071 9.51071 9.51071 9.51071 9.81899 9.81899 9.81899 9.81899 9.39456 9.39456 9.39456 9.39456 5.3276 5.3276 5.3276 5.3276 9.83089 9.83089 9.83089 9.83089 9.9616 9.9616 9.9616 9.9616 9.22023 9.22023 9.22023 9.22023 9.86032 9.86032 9.86032 9.86032 9.93604 9.93604 9.93604 9.93604 9.88268 9.88268 9.88268 9.88268 9.94143 9.94143 9.94143 9.94143 9.40939 9.40939 9.40939 9.40939 9.8361 9.8361 9.8361 9.8361 9.73548 9.73548 9.73548 9.73548 8.37613 8.37613 8.37613 8.37613 9.463 9.463 9.463 9.463 9.31188 9.31188 9.31188 9.31188 7.11385 7.11385 7.11385 7.11385 11.1182 11.1182 11.1182 11.1182 4.58247 4.58247 4.58247 4.58247 10.302 10.302 10.302 10.302 9.67061 9.67061 9.67061 9.67061 9.95117 9.95117 9.95117 9.95117 9.45152 9.45152 9.45152 9.45152 12.7316 12.7316 12.7316 12.7316 10.3063 10.3063 10.3063 10.3063 9.72829 9.72829 9.72829 9.72829 9.8223 9.8223 9.8223 9.8223 8.61375 8.61375 8.61375 8.61375 9.6044 9.6044 9.6044 9.6044 9.74397 9.74397 9.74397 9.74397 9.64197 9.64197 9.64197 9.64197 9.94387 9.94387 9.94387 9.94387 9.5145 9.5145 9.5145 9.5145 9.20214 9.20214 9.20214 9.20214 9.31263 9.31263 9.31263 9.31263 9.64213 9.64213 9.64213 9.64213 9.68831 9.68831 9.68831 9.68831 9.78934 9.78934 9.78934 9.78934 8.31683 8.31683 8.31683 8.31683 9.2771 9.2771 9.2771 9.2771 8.01316 8.01316 8.01316 8.01316 8.87282 8.87282 8.87282 8.87282 9.83424 9.83424 9.83424 9.83424 9.39959 9.39959 9.39959 9.39959 9.96529 9.96529 9.96529 9.96529 9.70644 9.70644 9.70644 9.70644 9.83999 9.83999 9.83999 9.83999 9.64547 9.64547 9.64547 9.64547 11.4302 11.4302 11.4302 11.4302 5.1874 5.1874 5.1874 5.1874 9.9023 9.9023 9.9023 9.9023 9.82213 9.82213 9.82213 9.82213 8.8516 8.8516 8.8516 8.8516 9.94101 9.94101 9.94101 9.94101 9.58616 9.58616 9.58616 9.58616 8.62157 8.62157 8.62157 8.62157 3.00629 3.00629 3.00629 3.00629 9.44514 9.44514 9.44514 9.44514 9.9349 9.9349 9.9349 9.9349 9.01989 9.01989 9.01989 9.01989 9.63577 9.63577 9.63577 9.63577 10.0825 10.0825 10.0825 10.0825 9.83174 9.83174 9.83174 9.83174 6.91038 6.91038 6.91038 6.91038 9.6863 9.6863 9.6863 9.6863 4.94863 4.94863 4.94863 4.94863 9.63751 9.63751 9.63751 9.63751 9.8985 9.8985 9.8985 9.8985 9.57784 9.57784 9.57784 9.57784 9.83379 9.83379 9.83379 9.83379 9.58098 9.58098 9.58098 9.58098 9.54298 9.54298 9.54298 9.54298 9.87401 9.87401 9.87401 9.87401 9.62343 9.62343 9.62343 9.62343 9.03619 9.03619 9.03619 9.03619 9.81704 9.81704 9.81704 9.81704 9.81055 9.81055 9.81055 9.81055 10.123 10.123 10.123 10.123 9.60016 9.60016 9.60016 9.60016 9.14002 9.14002 9.14002 9.14002 9.84962 9.84962 9.84962 9.84962 9.51984 9.51984 9.51984 9.51984 9.67416 9.67416 9.67416 9.67416 10.0278 10.0278 10.0278 10.0278 8.91715 8.91715 8.91715 8.91715 11.4459 11.4459 11.4459 11.4459 9.59186 9.59186 9.59186 9.59186 9.32375 9.32375 9.32375 9.32375 7.35525 7.35525 7.35525 7.35525 9.60014 9.60014 9.60014 9.60014 9.60353 9.60353 9.60353 9.60353 9.41377 9.41377 9.41377 9.41377 8.73421 8.73421 8.73421 8.73421 9.95619 9.95619 9.95619 9.95619 9.32749 9.32749 9.32749 9.32749 9.81102 9.81102 9.81102 9.81102 9.54023 9.54023 9.54023 9.54023 9.82064 9.82064 9.82064 9.82064 9.53469 9.53469 9.53469 9.53469 7.38498 7.38498 7.38498 7.38498 9.18233 9.18233 9.18233 9.18233 9.39388 9.39388 9.39388 9.39388 8.94907 8.94907 8.94907 8.94907 9.39011 9.39011 9.39011 9.39011 9.89766 9.89766 9.89766 9.89766 9.25364 9.25364 9.25364 9.25364 9.42594 9.42594 9.42594 9.42594 9.85113 9.85113 9.85113 9.85113 8.4604 8.4604 8.4604 8.4604 9.05881 9.05881 9.05881 9.05881 9.91659 9.91659 9.91659 9.91659 9.55717 9.55717 9.55717 9.55717 9.1083 9.1083 9.1083 9.1083 9.54767 9.54767 9.54767 9.54767 10.3686 10.3686 10.3686 10.3686 6.13532 6.13532 6.13532 6.13532 9.92332 9.92332 9.92332 9.92332 9.83037 9.83037 9.83037 9.83037 9.2856 9.2856 9.2856 9.2856 9.93667 9.93667 9.93667 9.93667 12.2883 12.2883 12.2883 12.2883 3.39017 3.39017 3.39017 3.39017 8.70332 8.70332 8.70332 8.70332 8.92752 8.92752 8.92752 8.92752 9.26177 9.26177 9.26177 9.26177 10.439 10.439 10.439 10.439 9.34769 9.34769 9.34769 9.34769 9.65208 9.65208 9.65208 9.65208 9.65158 9.65158 9.65158 9.65158 9.85528 9.85528 9.85528 9.85528 9.9291 9.9291 9.9291 9.9291 9.78974 9.78974 9.78974 9.78974 9.83394 9.83394 9.83394 9.83394 10.1926 10.1926 10.1926 10.1926 9.76606 9.76606 9.76606 9.76606 8.9144 8.9144 8.9144 8.9144 8.18598 8.18598 8.18598 8.18598 9.61857 9.61857 9.61857 9.61857 9.76577 9.76577 9.76577 9.76577 9.83728 9.83728 9.83728 9.83728 9.85879 9.85879 9.85879 9.85879 8.73627 8.73627 8.73627 8.73627 9.35522 9.35522 9.35522 9.35522 10.9968 10.9968 10.9968 10.9968 9.63773 9.63773 9.63773 9.63773 9.56541 9.56541 9.56541 9.56541 9.60928 9.60928 9.60928 9.60928 9.78599 9.78599 9.78599 9.78599 9.55375 9.55375 9.55375 9.55375 8.74423 8.74423 8.74423 8.74423 10.1345 10.1345 10.1345 10.1345 10.2626 10.2626 10.2626 10.2626 10.2524 10.2524 10.2524 10.2524 9.59321 9.59321 9.59321 9.59321 9.54385 9.54385 9.54385 9.54385 9.33082 9.33082 9.33082 9.33082 9.51103 9.51103 9.51103 9.51103 9.33076 9.33076 9.33076 9.33076 10.1039 10.1039 10.1039 10.1039 8.72145 8.72145 8.72145 8.72145 9.66213 9.66213 9.66213 9.66213 9.83643 9.83643 9.83643 9.83643 9.63019 9.63019 9.63019 9.63019 3.77616 3.77616 3.77616 3.77616 9.84866 9.84866 9.84866 9.84866 9.5162 9.5162 9.5162 9.5162 6.8721 6.8721 6.8721 6.8721 9.84669 9.84669 9.84669 9.84669 8.76665 8.76665 8.76665 8.76665 9.59563 9.59563 9.59563 9.59563 9.68374 9.68374 9.68374 9.68374 9.36061 9.36061 9.36061 9.36061 12.7564 12.7564 12.7564 12.7564 9.71474 9.71474 9.71474 9.71474 9.92746 9.92746 9.92746 9.92746 9.54082 9.54082 9.54082 9.54082 9.10502 9.10502 9.10502 9.10502 10.4298 10.4298 10.4298 10.4298 9.80393 9.80393 9.80393 9.80393 9.93173 9.93173 9.93173 9.93173 4.98441 4.98441 4.98441 4.98441 9.66633 9.66633 9.66633 9.66633 11.3341 11.3341 11.3341 11.3341 9.74075 9.74075 9.74075 9.74075 10.6355 10.6355 10.6355 10.6355 9.84803 9.84803 9.84803 9.84803 9.89571 9.89571 9.89571 9.89571 9.95597 9.95597 9.95597 9.95597 8.44267 8.44267 8.44267 8.44267 9.63233 9.63233 9.63233 9.63233 9.52007 9.52007 9.52007 9.52007 8.58016 8.58016 8.58016 8.58016 9.1974 9.1974 9.1974 9.1974 9.33921 9.33921 9.33921 9.33921 8.73108 8.73108 8.73108 8.73108 8.53693 8.53693 8.53693 8.53693 9.98127 9.98127 9.98127 9.98127 11.4365 11.4365 11.4365 11.4365 8.91851 8.91851 8.91851 8.91851 9.61109 9.61109 9.61109 9.61109 8.89995 8.89995 8.89995 8.89995 9.13282 9.13282 9.13282 9.13282 8.90082 8.90082 8.90082 8.90082 9.90414 9.90414 9.90414 9.90414 9.65816 9.65816 9.65816 9.65816 9.91795 9.91795 9.91795 9.91795 9.49097 9.49097 9.49097 9.49097 4.95768 4.95768 4.95768 4.95768 8.03655 8.03655 8.03655 8.03655 9.86669 9.86669 9.86669 9.86669 9.59114 9.59114 9.59114 9.59114 9.65438 9.65438 9.65438 9.65438 5.80699 5.80699 5.80699 5.80699 7.65099 7.65099 7.65099 7.65099 9.23727 9.23727 9.23727 9.23727 8.68642 8.68642 8.68642 8.68642 9.63542 9.63542 9.63542 9.63542 9.03689 9.03689 9.03689 9.03689 2.53799 2.53799 2.53799 2.53799 9.44644 9.44644 9.44644 9.44644 9.69723 9.69723 9.69723 9.69723 8.6487 8.6487 8.6487 8.6487 8.88129 8.88129 8.88129 8.88129 3.75139 3.75139 3.75139 3.75139 8.95994 8.95994 8.95994 8.95994 9.88025 9.88025 9.88025 9.88025 9.8748 9.8748 9.8748 9.8748 9.25358 9.25358 9.25358 9.25358 9.75589 9.75589 9.75589 9.75589 9.12195 9.12195 9.12195 9.12195 9.00341 9.00341 9.00341 9.00341 9.93755 9.93755 9.93755 9.93755 9.62929 9.62929 9.62929 9.62929 9.94772 9.94772 9.94772 9.94772 9.70843 9.70843 9.70843 9.70843 9.7826 9.7826 9.7826 9.7826 5.95177 5.95177 5.95177 5.95177 12.617 12.617 12.617 12.617 8.70444 8.70444 8.70444 8.70444 12.0847 12.0847 12.0847 12.0847 9.76203 9.76203 9.76203 9.76203 9.60773 9.60773 9.60773 9.60773 9.39643 9.39643 9.39643 9.39643 8.4025 8.4025 8.4025 8.4025 8.99539 8.99539 8.99539 8.99539 9.76565 9.76565 9.76565 9.76565 9.95722 9.95722 9.95722 9.95722 9.51241 9.51241 9.51241 9.51241 9.94102 9.94102 9.94102 9.94102 9.25437 9.25437 9.25437 9.25437 9.94222 9.94222 9.94222 9.94222 7.90602 7.90602 7.90602 7.90602 8.29828 8.29828 8.29828 8.29828 9.2998 9.2998 9.2998 9.2998 9.85561 9.85561 9.85561 9.85561 7.95433 7.95433 7.95433 7.95433 13.1315 13.1315 13.1315 13.1315 8.72044 8.72044 8.72044 8.72044 9.33476 9.33476 9.33476 9.33476 10.3268 10.3268 10.3268 10.3268 9.0542 9.0542 9.0542 9.0542 9.58031 9.58031 9.58031 9.58031 8.77885 8.77885 8.77885 8.77885 9.50759 9.50759 9.50759 9.50759 7.65007 7.65007 7.65007 7.65007 9.84664 9.84664 9.84664 9.84664 9.99845 9.99845 9.99845 9.99845 9.7247 9.7247 9.7247 9.7247 7.35245 7.35245 7.35245 7.35245 9.93678 9.93678 9.93678 9.93678 9.64237 9.64237 9.64237 9.64237 9.71488 9.71488 9.71488 9.71488 9.2675 9.2675 9.2675 9.2675 9.23939 9.23939 9.23939 9.23939 9.65765 9.65765 9.65765 9.65765 9.68496 9.68496 9.68496 9.68496 8.8415 8.8415 8.8415 8.8415 9.93337 9.93337 9.93337 9.93337 11.2762 11.2762 11.2762 11.2762 9.95101 9.95101 9.95101 9.95101 8.75107 8.75107 8.75107 8.75107 9.61044 9.61044 9.61044 9.61044 9.94624 9.94624 9.94624 9.94624 8.77805 8.77805 8.77805 8.77805 9.78887 9.78887 9.78887 9.78887 8.56331 8.56331 8.56331 8.56331 9.40979 9.40979 9.40979 9.40979 7.09175 7.09175 7.09175 7.09175 2.70435 2.70435 2.70435 2.70435 9.30927 9.30927 9.30927 9.30927 9.26464 9.26464 9.26464 9.26464 9.91532 9.91532 9.91532 9.91532 9.95604 9.95604 9.95604 9.95604 9.47138 9.47138 9.47138 9.47138 9.74233 9.74233 9.74233 9.74233 8.20822 8.20822 8.20822 8.20822 9.64901 9.64901 9.64901 9.64901 9.2913 9.2913 9.2913 9.2913 10.6365 10.6365 10.6365 10.6365 9.85882 9.85882 9.85882 9.85882 9.01862 9.01862 9.01862 9.01862 3.77436 3.77436 3.77436 3.77436 9.82129 9.82129 9.82129 9.82129 8.19117 8.19117 8.19117 8.19117 9.87692 9.87692 9.87692 9.87692 9.69529 9.69529 9.69529 9.69529 9.77223 9.77223 9.77223 9.77223 9.46537 9.46537 9.46537 9.46537 9.36138 9.36138 9.36138 9.36138 9.24469 9.24469 9.24469 9.24469 9.38599 9.38599 9.38599 9.38599 9.09567 9.09567 9.09567 9.09567 9.65684 9.65684 9.65684 9.65684 9.91502 9.91502 9.91502 9.91502 9.63873 9.63873 9.63873 9.63873 9.13725 9.13725 9.13725 9.13725 9.86563 9.86563 9.86563 9.86563 9.731 9.731 9.731 9.731 9.45813 9.45813 9.45813 9.45813 9.85151 9.85151 9.85151 9.85151 7.49102 7.49102 7.49102 7.49102 8.54295 8.54295 8.54295 8.54295 9.38577 9.38577 9.38577 9.38577 10.6628 10.6628 10.6628 10.6628 9.02164 9.02164 9.02164 9.02164 9.89103 9.89103 9.89103 9.89103 10.8528 10.8528 10.8528 10.8528 9.95225 9.95225 9.95225 9.95225 9.33409 9.33409 9.33409 9.33409 8.7098 8.7098 8.7098 8.7098 9.8576 9.8576 9.8576 9.8576 10.5605 10.5605 10.5605 10.5605 9.92217 9.92217 9.92217 9.92217 10.7594 10.7594 10.7594 10.7594 9.85009 9.85009 9.85009 9.85009 9.93899 9.93899 9.93899 9.93899 9.75052 9.75052 9.75052 9.75052 10.1213 10.1213 10.1213 10.1213 9.94266 9.94266 9.94266 9.94266 9.72896 9.72896 9.72896 9.72896 9.22073 9.22073 9.22073 9.22073 4.27237 4.27237 4.27237 4.27237 9.17276 9.17276 9.17276 9.17276 9.31165 9.31165 9.31165 9.31165 10.7805 10.7805 10.7805 10.7805 9.58743 9.58743 9.58743 9.58743 9.19355 9.19355 9.19355 9.19355 9.92314 9.92314 9.92314 9.92314 9.19333 9.19333 9.19333 9.19333 8.96948 8.96948 8.96948 8.96948 9.69578 9.69578 9.69578 9.69578 4.63404 4.63404 4.63404 4.63404 9.50338 9.50338 9.50338 9.50338 9.6644 9.6644 9.6644 9.6644 9.66762 9.66762 9.66762 9.66762 9.97836 9.97836 9.97836 9.97836 9.95149 9.95149 9.95149 9.95149 9.88302 9.88302 9.88302 9.88302 6.98236 6.98236 6.98236 6.98236 9.59923 9.59923 9.59923 9.59923 9.93289 9.93289 9.93289 9.93289 9.13178 9.13178 9.13178 9.13178 9.58176 9.58176 9.58176 9.58176 8.78153 8.78153 8.78153 8.78153 9.52465 9.52465 9.52465 9.52465 9.55899 9.55899 9.55899 9.55899 7.85971 7.85971 7.85971 7.85971 3.3498 3.3498 3.3498 3.3498 9.95359 9.95359 9.95359 9.95359 9.80328 9.80328 9.80328 9.80328 8.8772 8.8772 8.8772 8.8772 9.52243 9.52243 9.52243 9.52243 12.0828 12.0828 12.0828 12.0828 9.83969 9.83969 9.83969 9.83969 2.38195 2.38195 2.38195 2.38195 9.77317 9.77317 9.77317 9.77317 10.0403 10.0403 10.0403 10.0403 9.7475 9.7475 9.7475 9.7475 9.24442 9.24442 9.24442 9.24442 9.76384 9.76384 9.76384 9.76384 9.8247 9.8247 9.8247 9.8247 9.92317 9.92317 9.92317 9.92317 9.55701 9.55701 9.55701 9.55701 9.0766 9.0766 9.0766 9.0766 8.75973 8.75973 8.75973 8.75973 9.61181 9.61181 9.61181 9.61181 4.19874 4.19874 4.19874 4.19874 9.81256 9.81256 9.81256 9.81256 9.94696 9.94696 9.94696 9.94696 10.5388 10.5388 10.5388 10.5388 9.60303 9.60303 9.60303 9.60303 9.55347 9.55347 9.55347 9.55347 9.18225 9.18225 9.18225 9.18225 9.34327 9.34327 9.34327 9.34327 9.42185 9.42185 9.42185 9.42185 9.8779 9.8779 9.8779 9.8779 8.82033 8.82033 8.82033 8.82033 8.6375 8.6375 8.6375 8.6375 6.96952 6.96952 6.96952 6.96952 9.62733 9.62733 9.62733 9.62733 9.87158 9.87158 9.87158 9.87158 9.47037 9.47037 9.47037 9.47037 9.95609 9.95609 9.95609 9.95609 10.6843 10.6843 10.6843 10.6843 9.53055 9.53055 9.53055 9.53055 11.288 11.288 11.288 11.288 11.5517 11.5517 11.5517 11.5517 9.94668 9.94668 9.94668 9.94668 8.38256 8.38256 8.38256 8.38256 9.9501 9.9501 9.9501 9.9501 9.81457 9.81457 9.81457 9.81457 9.96137 9.96137 9.96137 9.96137 9.1228 9.1228 9.1228 9.1228 13.4219 13.4219 13.4219 13.4219 3.91776 3.91776 3.91776 3.91776 9.96766 9.96766 9.96766 9.96766 11.5964 11.5964 11.5964 11.5964 8.67915 8.67915 8.67915 8.67915 10.0321 10.0321 10.0321 10.0321 9.17836 9.17836 9.17836 9.17836 9.56258 9.56258 9.56258 9.56258 9.87685 9.87685 9.87685 9.87685 9.52485 9.52485 9.52485 9.52485 9.93672 9.93672 9.93672 9.93672 7.95291 7.95291 7.95291 7.95291 9.83741 9.83741 9.83741 9.83741 9.19977 9.19977 9.19977 9.19977 9.87339 9.87339 9.87339 9.87339 2.85184 2.85184 2.85184 2.85184 9.6114 9.6114 9.6114 9.6114 10.18 10.18 10.18 10.18 9.66675 9.66675 9.66675 9.66675 9.89102 9.89102 9.89102 9.89102 8.92322 8.92322 8.92322 8.92322 9.41781 9.41781 9.41781 9.41781 9.24582 9.24582 9.24582 9.24582 8.9178 8.9178 8.9178 8.9178 9.48187 9.48187 9.48187 9.48187 9.68427 9.68427 9.68427 9.68427 9.97033 9.97033 9.97033 9.97033 8.23048 8.23048 8.23048 8.23048 9.80766 9.80766 9.80766 9.80766 9.49169 9.49169 9.49169 9.49169 9.47524 9.47524 9.47524 9.47524 9.61146 9.61146 9.61146 9.61146 9.95659 9.95659 9.95659 9.95659 9.63339 9.63339 9.63339 9.63339 8.22083 8.22083 8.22083 8.22083 9.99534 9.99534 9.99534 9.99534 9.35634 9.35634 9.35634 9.35634 9.46739 9.46739 9.46739 9.46739 7.99889 7.99889 7.99889 7.99889 9.87912 9.87912 9.87912 9.87912 4.06322 4.06322 4.06322 4.06322 9.52672 9.52672 9.52672 9.52672 7.90008 7.90008 7.90008 7.90008 9.9181 9.9181 9.9181 9.9181 9.22586 9.22586 9.22586 9.22586 5.12325 5.12325 5.12325 5.12325 9.41228 9.41228 9.41228 9.41228 8.41076 8.41076 8.41076 8.41076 9.77547 9.77547 9.77547 9.77547 4.24631 4.24631 4.24631 4.24631 9.62781 9.62781 9.62781 9.62781 8.84707 8.84707 8.84707 8.84707 8.7172 8.7172 8.7172 8.7172 9.69135 9.69135 9.69135 9.69135 9.85291 9.85291 9.85291 9.85291 9.95157 9.95157 9.95157 9.95157 9.82336 9.82336 9.82336 9.82336 8.7139 8.7139 8.7139 8.7139 9.86982 9.86982 9.86982 9.86982 11.3636 11.3636 11.3636 11.3636 9.21479 9.21479 9.21479 9.21479 9.86972 9.86972 9.86972 9.86972 9.62265 9.62265 9.62265 9.62265 9.943 9.943 9.943 9.943 9.97425 9.97425 9.97425 9.97425 9.87424 9.87424 9.87424 9.87424 9.86555 9.86555 9.86555 9.86555 9.87562 9.87562 9.87562 9.87562 8.55028 8.55028 8.55028 8.55028 8.71964 8.71964 8.71964 8.71964 9.02806 9.02806 9.02806 9.02806 9.90367 9.90367 9.90367 9.90367 9.53948 9.53948 9.53948 9.53948 9.12685 9.12685 9.12685 9.12685 9.81606 9.81606 9.81606 9.81606 8.60157 8.60157 8.60157 8.60157 9.99251 9.99251 9.99251 9.99251 9.37903 9.37903 9.37903 9.37903 9.17517 9.17517 9.17517 9.17517 9.87759 9.87759 9.87759 9.87759 9.03232 9.03232 9.03232 9.03232 9.21123 9.21123 9.21123 9.21123 9.13831 9.13831 9.13831 9.13831 9.2332 9.2332 9.2332 9.2332 9.4182 9.4182 9.4182 9.4182 9.8995 9.8995 9.8995 9.8995 6.37589 6.37589 6.37589 6.37589 8.98019 8.98019 8.98019 8.98019 9.95239 9.95239 9.95239 9.95239 8.54207 8.54207 8.54207 8.54207 9.95824 9.95824 9.95824 9.95824 12.9814 12.9814 12.9814 12.9814 11.1503 11.1503 11.1503 11.1503 9.9771 9.9771 9.9771 9.9771 9.38994 9.38994 9.38994 9.38994 9.35898 9.35898 9.35898 9.35898 9.73191 9.73191 9.73191 9.73191 9.67641 9.67641 9.67641 9.67641 9.08854 9.08854 9.08854 9.08854 13.8248 13.8248 13.8248 13.8248 9.93678 9.93678 9.93678 9.93678 9.94594 9.94594 9.94594 9.94594 9.38343 9.38343 9.38343 9.38343 9.90717 9.90717 9.90717 9.90717 6.41616 6.41616 6.41616 6.41616 7.76527 7.76527 7.76527 7.76527 10.0392 10.0392 10.0392 10.0392 8.95896 8.95896 8.95896 8.95896 9.47203 9.47203 9.47203 9.47203 6.32448 6.32448 6.32448 6.32448 8.02772 8.02772 8.02772 8.02772 9.19496 9.19496 9.19496 9.19496 3.91907 3.91907 3.91907 3.91907 11.0386 11.0386 11.0386 11.0386 9.60003 9.60003 9.60003 9.60003 9.2064 9.2064 9.2064 9.2064 9.4341 9.4341 9.4341 9.4341 9.68222 9.68222 9.68222 9.68222 9.79519 9.79519 9.79519 9.79519 7.58075 7.58075 7.58075 7.58075 8.64112 8.64112 8.64112 8.64112 9.59958 9.59958 9.59958 9.59958 9.62961 9.62961 9.62961 9.62961 9.29123 9.29123 9.29123 9.29123 9.93012 9.93012 9.93012 9.93012 7.8686 7.8686 7.8686 7.8686 4.30666 4.30666 4.30666 4.30666 9.82864 9.82864 9.82864 9.82864 9.84725 9.84725 9.84725 9.84725 11.9244 11.9244 11.9244 11.9244 9.92925 9.92925 9.92925 9.92925 8.79444 8.79444 8.79444 8.79444 9.69131 9.69131 9.69131 9.69131 9.97343 9.97343 9.97343 9.97343 9.95049 9.95049 9.95049 9.95049 9.51206 9.51206 9.51206 9.51206 8.17571 8.17571 8.17571 8.17571 9.82754 9.82754 9.82754 9.82754 9.96175 9.96175 9.96175 9.96175 9.53506 9.53506 9.53506 9.53506 9.95247 9.95247 9.95247 9.95247 9.92656 9.92656 9.92656 9.92656 9.94534 9.94534 9.94534 9.94534 8.61788 8.61788 8.61788 8.61788 9.61081 9.61081 9.61081 9.61081 8.82619 8.82619 8.82619 8.82619 9.96221 9.96221 9.96221 9.96221 10.7487 10.7487 10.7487 10.7487 9.8896 9.8896 9.8896 9.8896 9.92003 9.92003 9.92003 9.92003 9.96266 9.96266 9.96266 9.96266 9.09382 9.09382 9.09382 9.09382 12.0595 12.0595 12.0595 12.0595 9.38393 9.38393 9.38393 9.38393 9.9109 9.9109 9.9109 9.9109 9.12838 9.12838 9.12838 9.12838 8.8429 8.8429 8.8429 8.8429 8.97233 8.97233 8.97233 8.97233 9.76384 9.76384 9.76384 9.76384 9.80503 9.80503 9.80503 9.80503 9.67328 9.67328 9.67328 9.67328 9.79484 9.79484 9.79484 9.79484 9.82367 9.82367 9.82367 9.82367 7.08949 7.08949 7.08949 7.08949 11.5674 11.5674 11.5674 11.5674 9.75902 9.75902 9.75902 9.75902 9.81365 9.81365 9.81365 9.81365 8.49631 8.49631 8.49631 8.49631 7.31307 7.31307 7.31307 7.31307 2.52189 2.52189 2.52189 2.52189 9.84042 9.84042 9.84042 9.84042 9.71413 9.71413 9.71413 9.71413 9.68121 9.68121 9.68121 9.68121 3.22882 3.22882 3.22882 3.22882 8.70836 8.70836 8.70836 8.70836 9.07716 9.07716 9.07716 9.07716 9.81772 9.81772 9.81772 9.81772 9.24964 9.24964 9.24964 9.24964 9.84241 9.84241 9.84241 9.84241 9.96879 9.96879 9.96879 9.96879 3.46438 3.46438 3.46438 3.46438 10.8966 10.8966 10.8966 10.8966 11.6672 11.6672 11.6672 11.6672 9.95962 9.95962 9.95962 9.95962 9.91811 9.91811 9.91811 9.91811 9.89151 9.89151 9.89151 9.89151 9.97961 9.97961 9.97961 9.97961 9.24518 9.24518 9.24518 9.24518 7.68359 7.68359 7.68359 7.68359 9.89276 9.89276 9.89276 9.89276 9.94211 9.94211 9.94211 9.94211 9.94348 9.94348 9.94348 9.94348 9.55169 9.55169 9.55169 9.55169 9.79264 9.79264 9.79264 9.79264 3.05554 3.05554 3.05554 3.05554 11.8402 11.8402 11.8402 11.8402 9.18415 9.18415 9.18415 9.18415 5.7029 5.7029 5.7029 5.7029 9.9829 9.9829 9.9829 9.9829 9.95589 9.95589 9.95589 9.95589 9.96522 9.96522 9.96522 9.96522 9.81104 9.81104 9.81104 9.81104 4.16094 4.16094 4.16094 4.16094 9.77593 9.77593 9.77593 9.77593 12.4846 12.4846 12.4846 12.4846 9.67513 9.67513 9.67513 9.67513 3.32769 3.32769 3.32769 3.32769 9.87998 9.87998 9.87998 9.87998 9.30168 9.30168 9.30168 9.30168 9.70238 9.70238 9.70238 9.70238 9.94938 9.94938 9.94938 9.94938 10.0818 10.0818 10.0818 10.0818 9.69761 9.69761 9.69761 9.69761 9.82007 9.82007 9.82007 9.82007 9.87909 9.87909 9.87909 9.87909 9.60359 9.60359 9.60359 9.60359 11.4351 11.4351 11.4351 11.4351 9.94674 9.94674 9.94674 9.94674 9.14665 9.14665 9.14665 9.14665 9.26814 9.26814 9.26814 9.26814 9.89286 9.89286 9.89286 9.89286 9.96014 9.96014 9.96014 9.96014 9.85689 9.85689 9.85689 9.85689 9.05299 9.05299 9.05299 9.05299 5.02848 5.02848 5.02848 5.02848 9.78906 9.78906 9.78906 9.78906 10.2609 10.2609 10.2609 10.2609 9.97685 9.97685 9.97685 9.97685 9.87883 9.87883 9.87883 9.87883 3.75974 3.75974 3.75974 3.75974 8.61997 8.61997 8.61997 8.61997 9.41908 9.41908 9.41908 9.41908 11.7797 11.7797 11.7797 11.7797 9.48978 9.48978 9.48978 9.48978 9.75064 9.75064 9.75064 9.75064 8.59946 8.59946 8.59946 8.59946 12.4158 12.4158 12.4158 12.4158 9.74297 9.74297 9.74297 9.74297 10.0124 10.0124 10.0124 10.0124 9.1505 9.1505 9.1505 9.1505 9.70953 9.70953 9.70953 9.70953 9.95761 9.95761 9.95761 9.95761 9.95837 9.95837 9.95837 9.95837 9.70264 9.70264 9.70264 9.70264 9.97516 9.97516 9.97516 9.97516 11.9089 11.9089 11.9089 11.9089 6.14893 6.14893 6.14893 6.14893 9.56306 9.56306 9.56306 9.56306 8.4829 8.4829 8.4829 8.4829 9.94788 9.94788 9.94788 9.94788 11.3706 11.3706 11.3706 11.3706 9.85134 9.85134 9.85134 9.85134 10.0848 10.0848 10.0848 10.0848 9.89577 9.89577 9.89577 9.89577 7.97251 7.97251 7.97251 7.97251 8.99747 8.99747 8.99747 8.99747 8.72845 8.72845 8.72845 8.72845 9.92299 9.92299 9.92299 9.92299 9.88207 9.88207 9.88207 9.88207 9.72408 9.72408 9.72408 9.72408 9.96467 9.96467 9.96467 9.96467 9.47124 9.47124 9.47124 9.47124 9.17979 9.17979 9.17979 9.17979 7.96655 7.96655 7.96655 7.96655 9.86179 9.86179 9.86179 9.86179 10.9159 10.9159 10.9159 10.9159 9.95728 9.95728 9.95728 9.95728 9.35658 9.35658 9.35658 9.35658 9.95627 9.95627 9.95627 9.95627 9.50382 9.50382 9.50382 9.50382 9.89633 9.89633 9.89633 9.89633 9.87589 9.87589 9.87589 9.87589 9.97002 9.97002 9.97002 9.97002 8.79221 8.79221 8.79221 8.79221 9.5725 9.5725 9.5725 9.5725 9.1391 9.1391 9.1391 9.1391 3.86055 3.86055 3.86055 3.86055 9.97239 9.97239 9.97239 9.97239 9.87931 9.87931 9.87931 9.87931 7.87052 7.87052 7.87052 7.87052 8.28357 8.28357 8.28357 8.28357 9.64865 9.64865 9.64865 9.64865 9.63566 9.63566 9.63566 9.63566 9.82241 9.82241 9.82241 9.82241 9.95218 9.95218 9.95218 9.95218 9.87902 9.87902 9.87902 9.87902 10.8195 10.8195 10.8195 10.8195 9.87564 9.87564 9.87564 9.87564 9.88869 9.88869 9.88869 9.88869 8.93419 8.93419 8.93419 8.93419 8.69859 8.69859 8.69859 8.69859 9.63628 9.63628 9.63628 9.63628 9.96793 9.96793 9.96793 9.96793 9.81615 9.81615 9.81615 9.81615 8.81563 8.81563 8.81563 8.81563 9.89069 9.89069 9.89069 9.89069 9.94715 9.94715 9.94715 9.94715 9.96021 9.96021 9.96021 9.96021 9.17507 9.17507 9.17507 9.17507 12.2272 12.2272 12.2272 12.2272 10.7319 10.7319 10.7319 10.7319 9.85769 9.85769 9.85769 9.85769 9.91623 9.91623 9.91623 9.91623 7.96646 7.96646 7.96646 7.96646 9.95623 9.95623 9.95623 9.95623 8.80961 8.80961 8.80961 8.80961 7.94649 7.94649 7.94649 7.94649 11.2401 11.2401 11.2401 11.2401 9.6227 9.6227 9.6227 9.6227 6.87093 6.87093 6.87093 6.87093 9.96637 9.96637 9.96637 9.96637 9.57689 9.57689 9.57689 9.57689 9.95608 9.95608 9.95608 9.95608 9.56188 9.56188 9.56188 9.56188 9.89675 9.89675 9.89675 9.89675 14.0516 14.0516 14.0516 14.0516 9.26837 9.26837 9.26837 9.26837 9.98152 9.98152 9.98152 9.98152 9.89722 9.89722 9.89722 9.89722 12.0658 12.0658 12.0658 12.0658 11.4127 11.4127 11.4127 11.4127 9.97116 9.97116 9.97116 9.97116 9.91326 9.91326 9.91326 9.91326 9.99871 9.99871 9.99871 9.99871 7.79036 7.79036 7.79036 7.79036 9.92659 9.92659 9.92659 9.92659 12.5144 12.5144 12.5144 12.5144 8.88711 8.88711 8.88711 8.88711 8.97521 8.97521 8.97521 8.97521 9.8936 9.8936 9.8936 9.8936 8.37937 8.37937 8.37937 8.37937 6.24578 6.24578 6.24578 6.24578 9.54676 9.54676 9.54676 9.54676 9.69499 9.69499 9.69499 9.69499 9.24797 9.24797 9.24797 9.24797 9.93237 9.93237 9.93237 9.93237 9.95224 9.95224 9.95224 9.95224 9.34391 9.34391 9.34391 9.34391 9.53201 9.53201 9.53201 9.53201 10.6422 10.6422 10.6422 10.6422 9.93218 9.93218 9.93218 9.93218 5.89146 5.89146 5.89146 5.89146 5.32025 5.32025 5.32025 5.32025 9.89851 9.89851 9.89851 9.89851 11.5299 11.5299 11.5299 11.5299 8.99928 8.99928 8.99928 8.99928 9.67078 9.67078 9.67078 9.67078 9.96829 9.96829 9.96829 9.96829 9.04891 9.04891 9.04891 9.04891 9.58559 9.58559 9.58559 9.58559 9.30978 9.30978 9.30978 9.30978 9.95123 9.95123 9.95123 9.95123 9.71922 9.71922 9.71922 9.71922 9.89409 9.89409 9.89409 9.89409 2.77503 2.77503 2.77503 2.77503 9.96927 9.96927 9.96927 9.96927 9.49958 9.49958 9.49958 9.49958 5.3786 5.3786 5.3786 5.3786 8.75893 8.75893 8.75893 8.75893 10.0246 10.0246 10.0246 10.0246 8.73436 8.73436 8.73436 8.73436 10.9795 10.9795 10.9795 10.9795 10.1445 10.1445 10.1445 10.1445 9.9042 9.9042 9.9042 9.9042 9.0358 9.0358 9.0358 9.0358 3.29116 3.29116 3.29116 3.29116 9.97288 9.97288 9.97288 9.97288 9.17054 9.17054 9.17054 9.17054 9.96402 9.96402 9.96402 9.96402 9.97738 9.97738 9.97738 9.97738 6.3451 6.3451 6.3451 6.3451 9.59017 9.59017 9.59017 9.59017 3.73562 3.73562 3.73562 3.73562 4.62865 4.62865 4.62865 4.62865 9.88253 9.88253 9.88253 9.88253 9.36746 9.36746 9.36746 9.36746 9.89135 9.89135 9.89135 9.89135 8.28318 8.28318 8.28318 8.28318 3.75491 3.75491 3.75491 3.75491 9.96022 9.96022 9.96022 9.96022 3.79699 3.79699 3.79699 3.79699 9.61997 9.61997 9.61997 9.61997 9.92543 9.92543 9.92543 9.92543 11.9677 11.9677 11.9677 11.9677 11.8968 11.8968 11.8968 11.8968 9.94757 9.94757 9.94757 9.94757 7.93267 7.93267 7.93267 7.93267 9.90565 9.90565 9.90565 9.90565 3.04673 3.04673 3.04673 3.04673 8.79165 8.79165 8.79165 8.79165 9.44442 9.44442 9.44442 9.44442 8.37789 8.37789 8.37789 8.37789 9.9638 9.9638 9.9638 9.9638 9.79146 9.79146 9.79146 9.79146 12.1984 12.1984 12.1984 12.1984 8.20085 8.20085 8.20085 8.20085 8.08679 8.08679 8.08679 8.08679 9.95635 9.95635 9.95635 9.95635 9.6127 9.6127 9.6127 9.6127 9.6562 9.6562 9.6562 9.6562 9.99414 9.99414 9.99414 9.99414 9.79634 9.79634 9.79634 9.79634 9.93906 9.93906 9.93906 9.93906 2.84982 2.84982 2.84982 2.84982 9.95132 9.95132 9.95132 9.95132 9.70001 9.70001 9.70001 9.70001 10.7544 10.7544 10.7544 10.7544 8.25819 8.25819 8.25819 8.25819 12.9827 12.9827 12.9827 12.9827 9.77548 9.77548 9.77548 9.77548 4.70474 4.70474 4.70474 4.70474 9.31491 9.31491 9.31491 9.31491 2.51086 2.51086 2.51086 2.51086 10.0611 10.0611 10.0611 10.0611 9.99133 9.99133 9.99133 9.99133 9.80137 9.80137 9.80137 9.80137 9.80639 9.80639 9.80639 9.80639 9.27882 9.27882 9.27882 9.27882 12.256 12.256 12.256 12.256 9.20802 9.20802 9.20802 9.20802 3.96928 3.96928 3.96928 3.96928 9.8687 9.8687 9.8687 9.8687 10.1601 10.1601 10.1601 10.1601 9.96451 9.96451 9.96451 9.96451 9.96997 9.96997 9.96997 9.96997 9.75581 9.75581 9.75581 9.75581 9.79626 9.79626 9.79626 9.79626 9.94956 9.94956 9.94956 9.94956 9.96569 9.96569 9.96569 9.96569 9.97573 9.97573 9.97573 9.97573 12.4972 12.4972 12.4972 12.4972 9.87765 9.87765 9.87765 9.87765 9.74876 9.74876 9.74876 9.74876 2.75632 2.75632 2.75632 2.75632 9.14043 9.14043 9.14043 9.14043 10.3055 10.3055 10.3055 10.3055 3.30708 3.30708 3.30708 3.30708 9.75151 9.75151 9.75151 9.75151 9.0518 9.0518 9.0518 9.0518 9.89427 9.89427 9.89427 9.89427 8.10653 8.10653 8.10653 8.10653 9.70755 9.70755 9.70755 9.70755 10.3961 10.3961 10.3961 10.3961 10.0036 10.0036 10.0036 10.0036 9.78959 9.78959 9.78959 9.78959 9.71888 9.71888 9.71888 9.71888 9.94544 9.94544 9.94544 9.94544 4.71875 4.71875 4.71875 4.71875 10.5363 10.5363 10.5363 10.5363 8.35379 8.35379 8.35379 8.35379 11.0358 11.0358 11.0358 11.0358 11.3928 11.3928 11.3928 11.3928 2.52666 2.52666 2.52666 2.52666 9.97669 9.97669 9.97669 9.97669 2.97424 2.97424 2.97424 2.97424 9.73504 9.73504 9.73504 9.73504 9.74721 9.74721 9.74721 9.74721 9.91836 9.91836 9.91836 9.91836 9.95318 9.95318 9.95318 9.95318 9.90194 9.90194 9.90194 9.90194 3.90288 3.90288 3.90288 3.90288 9.91206 9.91206 9.91206 9.91206 10.501 10.501 10.501 10.501 9.68696 9.68696 9.68696 9.68696 3.4382 3.4382 3.4382 3.4382 10.9463 10.9463 10.9463 10.9463 3.65433 3.65433 3.65433 3.65433 8.2995 8.2995 8.2995 8.2995 9.70009 9.70009 9.70009 9.70009 9.81285 9.81285 9.81285 9.81285 9.88899 9.88899 9.88899 9.88899 9.59139 9.59139 9.59139 9.59139 8.9546 8.9546 8.9546 8.9546 9.93569 9.93569 9.93569 9.93569 9.96231 9.96231 9.96231 9.96231 10.8487 10.8487 10.8487 10.8487 9.88834 9.88834 9.88834 9.88834 9.08086 9.08086 9.08086 9.08086 9.98108 9.98108 9.98108 9.98108 9.54601 9.54601 9.54601 9.54601 9.90364 9.90364 9.90364 9.90364 10.1499 10.1499 10.1499 10.1499 10.4546 10.4546 10.4546 10.4546 9.86188 9.86188 9.86188 9.86188 9.61164 9.61164 9.61164 9.61164 8.95603 8.95603 8.95603 8.95603 9.97144 9.97144 9.97144 9.97144 9.90485 9.90485 9.90485 9.90485 9.95075 9.95075 9.95075 9.95075 9.00381 9.00381 9.00381 9.00381 7.99549 7.99549 7.99549 7.99549 2.98893 2.98893 2.98893 2.98893 9.78672 9.78672 9.78672 9.78672 9.96693 9.96693 9.96693 9.96693 10.8706 10.8706 10.8706 10.8706 9.05359 9.05359 9.05359 9.05359 4.25835 4.25835 4.25835 4.25835 9.97025 9.97025 9.97025 9.97025 4.38473 4.38473 4.38473 4.38473 9.05866 9.05866 9.05866 9.05866 13.3555 13.3555 13.3555 13.3555 9.87063 9.87063 9.87063 9.87063 9.97576 9.97576 9.97576 9.97576 9.96491 9.96491 9.96491 9.96491 9.95479 9.95479 9.95479 9.95479 10.8241 10.8241 10.8241 10.8241 7.78782 7.78782 7.78782 7.78782 9.89029 9.89029 9.89029 9.89029 9.40746 9.40746 9.40746 9.40746 9.94496 9.94496 9.94496 9.94496 9.79929 9.79929 9.79929 9.79929 9.96092 9.96092 9.96092 9.96092 9.97513 9.97513 9.97513 9.97513 9.96061 9.96061 9.96061 9.96061 9.95905 9.95905 9.95905 9.95905 3.43254 3.43254 3.43254 3.43254 10.4405 10.4405 10.4405 10.4405 9.95564 9.95564 9.95564 9.95564 5.19431 5.19431 5.19431 5.19431 4.06751 4.06751 4.06751 4.06751 3.28538 3.28538 3.28538 3.28538 9.80953 9.80953 9.80953 9.80953 9.90077 9.90077 9.90077 9.90077 7.64119 7.64119 7.64119 7.64119 2.8949 2.8949 2.8949 2.8949 8.99014 8.99014 8.99014 8.99014 9.82351 9.82351 9.82351 9.82351 9.87723 9.87723 9.87723 9.87723 9.9739 9.9739 9.9739 9.9739 9.91648 9.91648 9.91648 9.91648 10.0247 10.0247 10.0247 10.0247 10.8968 10.8968 10.8968 10.8968 9.87294 9.87294 9.87294 9.87294 11.4308 11.4308 11.4308 11.4308 9.84525 9.84525 9.84525 9.84525 9.7199 9.7199 9.7199 9.7199 9.95164 9.95164 9.95164 9.95164 9.96673 9.96673 9.96673 9.96673 9.32491 9.32491 9.32491 9.32491 10.1455 10.1455 10.1455 10.1455 12.8396 12.8396 12.8396 12.8396 9.83159 9.83159 9.83159 9.83159 9.95876 9.95876 9.95876 9.95876 8.99334 8.99334 8.99334 8.99334 10.1354 10.1354 10.1354 10.1354 3.95034 3.95034 3.95034 3.95034 9.98074 9.98074 9.98074 9.98074 8.04973 8.04973 8.04973 8.04973 3.71952 3.71952 3.71952 3.71952 2.68797 2.68797 2.68797 2.68797 3.1911 3.1911 3.1911 3.1911 9.95895 9.95895 9.95895 9.95895 7.45475 7.45475 7.45475 7.45475 9.97207 9.97207 9.97207 9.97207 9.96623 9.96623 9.96623 9.96623 9.81915 9.81915 9.81915 9.81915 9.85921 9.85921 9.85921 9.85921 9.69975 9.69975 9.69975 9.69975 9.96518 9.96518 9.96518 9.96518 10.0019 10.0019 10.0019 10.0019 10.0284 10.0284 10.0284 10.0284 2.81883 2.81883 2.81883 2.81883 9.96719 9.96719 9.96719 9.96719 11.6737 11.6737 11.6737 11.6737 9.5592 9.5592 9.5592 9.5592 9.94291 9.94291 9.94291 9.94291 11.7172 11.7172 11.7172 11.7172 9.97824 9.97824 9.97824 9.97824 10.7101 10.7101 10.7101 10.7101 12.8603 12.8603 12.8603 12.8603 9.98915 9.98915 9.98915 9.98915 9.96781 9.96781 9.96781 9.96781 9.86272 9.86272 9.86272 9.86272 9.96816 9.96816 9.96816 9.96816 10.0087 10.0087 10.0087 10.0087 9.97993 9.97993 9.97993 9.97993 9.89568 9.89568 9.89568 9.89568 9.96885 9.96885 9.96885 9.96885 9.97304 9.97304 9.97304 9.97304 9.97272 9.97272 9.97272 9.97272 9.90012 9.90012 9.90012 9.90012 9.96915 9.96915 9.96915 9.96915 9.97035 9.97035 9.97035 9.97035 3.92525 3.92525 3.92525 3.92525 9.89727 9.89727 9.89727 9.89727 9.56024 9.56024 9.56024 9.56024 13.5667 13.5667 13.5667 13.5667 10.5385 10.5385 10.5385 10.5385 10.0624 10.0624 10.0624 10.0624 5.4486 5.4486 5.4486 5.4486 11.4437 11.4437 11.4437 11.4437 9.97383 9.97383 9.97383 9.97383 9.97647 9.97647 9.97647 9.97647 9.98235 9.98235 9.98235 9.98235 9.97642 9.97642 9.97642 9.97642 9.83934 9.83934 9.83934 9.83934 9.97114 9.97114 9.97114 9.97114 9.99445 9.99445 9.99445 9.99445 9.97727 9.97727 9.97727 9.97727 10.0222 10.0222 10.0222 10.0222 9.89199 9.89199 9.89199 9.89199 6.75502 6.75502 6.75502 6.75502 10.1669 10.1669 10.1669 10.1669 9.97769 9.97769 9.97769 9.97769 9.96933 9.96933 9.96933 9.96933 10.0863 10.0863 10.0863 10.0863 9.81579 9.81579 9.81579 9.81579 12.6186 12.6186 12.6186 12.6186 9.96967 9.96967 9.96967 9.96967 7.87482 7.87482 7.87482 7.87482 9.82239 9.82239 9.82239 9.82239 10.5651 10.5651 10.5651 10.5651 8.62846 8.62846 8.62846 8.62846 9.98472 9.98472 9.98472 9.98472 6.77903 6.77903 6.77903 6.77903 9.96757 9.96757 9.96757 9.96757 10.1822 10.1822 10.1822 10.1822 9.84347 9.84347 9.84347 9.84347 9.98165 9.98165 9.98165 9.98165 9.83156 9.83156 9.83156 9.83156 7.64639 7.64639 7.64639 7.64639 8.95359 8.95359 8.95359 8.95359 10.174 10.174 10.174 10.174 10.579 10.579 10.579 10.579 10.7297 10.7297 10.7297 10.7297 9.59729 9.59729 9.59729 9.59729 9.53004 9.53004 9.53004 9.53004 9.47804 9.47804 9.47804 9.47804 9.50466 9.50466 9.50466 9.50466 9.5708 9.5708 9.5708 9.5708 9.7867 9.7867 9.7867 9.7867 9.43549 9.43549 9.43549 9.43549 9.49765 9.49765 9.49765 9.49765 9.55446 9.55446 9.55446 9.55446 9.61077 9.61077 9.61077 9.61077 9.4344 9.4344 9.4344 9.4344 9.58595 9.58595 9.58595 9.58595 9.92398 9.92398 9.92398 9.92398 9.81343 9.81343 9.81343 9.81343 9.52035 9.52035 9.52035 9.52035 9.68903 9.68903 9.68903 9.68903 9.22703 9.22703 9.22703 9.22703 9.09441 9.09441 9.09441 9.09441 9.51931 9.51931 9.51931 9.51931 9.68031 9.68031 9.68031 9.68031 9.41879 9.41879 9.41879 9.41879 9.5423 9.5423 9.5423 9.5423 9.14354 9.14354 9.14354 9.14354 9.27693 9.27693 9.27693 9.27693 9.62036 9.62036 9.62036 9.62036 9.51585 9.51585 9.51585 9.51585 9.58721 9.58721 9.58721 9.58721 9.31538 9.31538 9.31538 9.31538 9.58392 9.58392 9.58392 9.58392 9.64629 9.64629 9.64629 9.64629 9.6941 9.6941 9.6941 9.6941 9.52307 9.52307 9.52307 9.52307 9.65314 9.65314 9.65314 9.65314 9.58133 9.58133 9.58133 9.58133 9.93924 9.93924 9.93924 9.93924 9.85162 9.85162 9.85162 9.85162 9.42801 9.42801 9.42801 9.42801 9.52471 9.52471 9.52471 9.52471 9.90177 9.90177 9.90177 9.90177 9.80665 9.80665 9.80665 9.80665 9.52085 9.52085 9.52085 9.52085 9.52861 9.52861 9.52861 9.52861 9.77155 9.77155 9.77155 9.77155 9.42702 9.42702 9.42702 9.42702 9.60266 9.60266 9.60266 9.60266 9.49316 9.49316 9.49316 9.49316 9.50442 9.50442 9.50442 9.50442 9.488 9.488 9.488 9.488 9.50057 9.50057 9.50057 9.50057 9.5068 9.5068 9.5068 9.5068 9.93023 9.93023 9.93023 9.93023 9.9033 9.9033 9.9033 9.9033 9.79647 9.79647 9.79647 9.79647 9.85207 9.85207 9.85207 9.85207 9.8437 9.8437 9.8437 9.8437 9.64657 9.64657 9.64657 9.64657 10.0054 10.0054 10.0054 10.0054 9.76678 9.76678 9.76678 9.76678 9.76574 9.76574 9.76574 9.76574 9.76461 9.76461 9.76461 9.76461 9.88293 9.88293 9.88293 9.88293 9.95774 9.95774 9.95774 9.95774 9.35385 9.35385 9.35385 9.35385 9.44929 9.44929 9.44929 9.44929 9.94818 9.94818 9.94818 9.94818 9.90645 9.90645 9.90645 9.90645 9.94518 9.94518 9.94518 9.94518 9.91477 9.91477 9.91477 9.91477 12.4291 12.4291 12.4291 12.4291 10.9658 10.9658 10.9658 10.9658 9.74861 9.74861 9.74861 9.74861 10.7662 10.7662 10.7662 10.7662 13.6334 13.6334 13.6334 13.6334 10.2796 10.2796 10.2796 10.2796 9.85793 9.85793 9.85793 9.85793 9.76771 9.76771 9.76771 9.76771 9.78812 9.78812 9.78812 9.78812 9.88378 9.88378 9.88378 9.88378 9.75115 9.75115 9.75115 9.75115 9.73931 9.73931 9.73931 9.73931 9.8405 9.8405 9.8405 9.8405 9.83803 9.83803 9.83803 9.83803 9.93874 9.93874 9.93874 9.93874 9.86047 9.86047 9.86047 9.86047 9.93516 9.93516 9.93516 9.93516 9.87107 9.87107 9.87107 9.87107 9.94573 9.94573 9.94573 9.94573 9.85572 9.85572 9.85572 9.85572 9.06404 9.06404 9.06404 9.06404 10.6369 10.6369 10.6369 10.6369 9.94679 9.94679 9.94679 9.94679 9.8213 9.8213 9.8213 9.8213 10.0942 10.0942 10.0942 10.0942 10.6305 10.6305 10.6305 10.6305 10.4838 10.4838 10.4838 10.4838 12.1414 12.1414 12.1414 12.1414 9.15102 9.15102 9.15102 9.15102 9.18697 9.18697 9.18697 9.18697 8.6345 8.6345 8.6345 8.6345 9.08207 9.08207 9.08207 9.08207 9.90334 9.90334 9.90334 9.90334 9.83581 9.83581 9.83581 9.83581 9.37908 9.37908 9.37908 9.37908 11.5483 11.5483 11.5483 11.5483 9.60563 9.60563 9.60563 9.60563 9.61275 9.61275 9.61275 9.61275 9.7775 9.7775 9.7775 9.7775 9.94464 9.94464 9.94464 9.94464 -9.66351 -9.66351 -9.66351 -9.66351 -9.78631 -9.78631 -9.78631 -9.78631 -8.20284 -8.20284 -8.20284 -8.20284 -9.66065 -9.66065 -9.66065 -9.66065 -8.53019 -8.53019 -8.53019 -8.53019 -8.89999 -8.89999 -8.89999 -8.89999 -9.71249 -9.71249 -9.71249 -9.71249 -8.68084 -8.68084 -8.68084 -8.68084 -9.81944 -9.81944 -9.81944 -9.81944 -9.52079 -9.52079 -9.52079 -9.52079 -9.64255 -9.64255 -9.64255 -9.64255 -9.8115 -9.8115 -9.8115 -9.8115 -9.72244 -9.72244 -9.72244 -9.72244 -9.40779 -9.40779 -9.40779 -9.40779 -9.43244 -9.43244 -9.43244 -9.43244 -9.6249 -9.6249 -9.6249 -9.6249 -9.63832 -9.63832 -9.63832 -9.63832 -9.4758 -9.4758 -9.4758 -9.4758 -9.95255 -9.95255 -9.95255 -9.95255 -9.5243 -9.5243 -9.5243 -9.5243 -9.13722 -9.13722 -9.13722 -9.13722 -8.38495 -8.38495 -8.38495 -8.38495 -9.50193 -9.50193 -9.50193 -9.50193 -8.95793 -8.95793 -8.95793 -8.95793 -8.82166 -8.82166 -8.82166 -8.82166 -9.76627 -9.76627 -9.76627 -9.76627 -9.04043 -9.04043 -9.04043 -9.04043 -9.61832 -9.61832 -9.61832 -9.61832 -9.52726 -9.52726 -9.52726 -9.52726 -10.2165 -10.2165 -10.2165 -10.2165 -9.42855 -9.42855 -9.42855 -9.42855 -9.53968 -9.53968 -9.53968 -9.53968 -9.57425 -9.57425 -9.57425 -9.57425 -9.57445 -9.57445 -9.57445 -9.57445 -9.80245 -9.80245 -9.80245 -9.80245 -8.85047 -8.85047 -8.85047 -8.85047 -9.80173 -9.80173 -9.80173 -9.80173 -9.40843 -9.40843 -9.40843 -9.40843 -9.42184 -9.42184 -9.42184 -9.42184 -7.45264 -7.45264 -7.45264 -7.45264 -9.40651 -9.40651 -9.40651 -9.40651 -8.37099 -8.37099 -8.37099 -8.37099 -9.7417 -9.7417 -9.7417 -9.7417 -9.7134 -9.7134 -9.7134 -9.7134 -9.74279 -9.74279 -9.74279 -9.74279 -9.70762 -9.70762 -9.70762 -9.70762 -9.71637 -9.71637 -9.71637 -9.71637 -8.99125 -8.99125 -8.99125 -8.99125 -8.79313 -8.79313 -8.79313 -8.79313 -9.30192 -9.30192 -9.30192 -9.30192 -9.69722 -9.69722 -9.69722 -9.69722 -8.93506 -8.93506 -8.93506 -8.93506 -9.71906 -9.71906 -9.71906 -9.71906 -9.55526 -9.55526 -9.55526 -9.55526 -9.13272 -9.13272 -9.13272 -9.13272 -9.60439 -9.60439 -9.60439 -9.60439 -9.62245 -9.62245 -9.62245 -9.62245 -9.86746 -9.86746 -9.86746 -9.86746 -9.75015 -9.75015 -9.75015 -9.75015 -9.33039 -9.33039 -9.33039 -9.33039 -9.35926 -9.35926 -9.35926 -9.35926 -9.36048 -9.36048 -9.36048 -9.36048 -9.47954 -9.47954 -9.47954 -9.47954 -9.66378 -9.66378 -9.66378 -9.66378 -9.75609 -9.75609 -9.75609 -9.75609 -9.12915 -9.12915 -9.12915 -9.12915 -9.50229 -9.50229 -9.50229 -9.50229 -8.73161 -8.73161 -8.73161 -8.73161 -10.4584 -10.4584 -10.4584 -10.4584 -9.76509 -9.76509 -9.76509 -9.76509 -9.781 -9.781 -9.781 -9.781 -9.58794 -9.58794 -9.58794 -9.58794 -9.5631 -9.5631 -9.5631 -9.5631 -9.47594 -9.47594 -9.47594 -9.47594 -10.5826 -10.5826 -10.5826 -10.5826 -8.71269 -8.71269 -8.71269 -8.71269 -9.75234 -9.75234 -9.75234 -9.75234 -9.2579 -9.2579 -9.2579 -9.2579 -9.82227 -9.82227 -9.82227 -9.82227 -9.82809 -9.82809 -9.82809 -9.82809 -9.54233 -9.54233 -9.54233 -9.54233 -7.05348 -7.05348 -7.05348 -7.05348 -9.84992 -9.84992 -9.84992 -9.84992 -9.22427 -9.22427 -9.22427 -9.22427 -9.53957 -9.53957 -9.53957 -9.53957 -9.39328 -9.39328 -9.39328 -9.39328 -9.59246 -9.59246 -9.59246 -9.59246 -8.87329 -8.87329 -8.87329 -8.87329 -9.86909 -9.86909 -9.86909 -9.86909 -9.45835 -9.45835 -9.45835 -9.45835 -9.4564 -9.4564 -9.4564 -9.4564 -9.47765 -9.47765 -9.47765 -9.47765 -9.51737 -9.51737 -9.51737 -9.51737 -9.52979 -9.52979 -9.52979 -9.52979 -9.83031 -9.83031 -9.83031 -9.83031 -9.65709 -9.65709 -9.65709 -9.65709 -9.49404 -9.49404 -9.49404 -9.49404 -9.04538 -9.04538 -9.04538 -9.04538 -9.4542 -9.4542 -9.4542 -9.4542 -9.8511 -9.8511 -9.8511 -9.8511 -9.66714 -9.66714 -9.66714 -9.66714 -9.77793 -9.77793 -9.77793 -9.77793 -9.85475 -9.85475 -9.85475 -9.85475 -11.1075 -11.1075 -11.1075 -11.1075 -9.58323 -9.58323 -9.58323 -9.58323 -9.9154 -9.9154 -9.9154 -9.9154 -9.56555 -9.56555 -9.56555 -9.56555 -9.66103 -9.66103 -9.66103 -9.66103 -8.91182 -8.91182 -8.91182 -8.91182 -8.82514 -8.82514 -8.82514 -8.82514 -9.61362 -9.61362 -9.61362 -9.61362 -9.8972 -9.8972 -9.8972 -9.8972 -9.75732 -9.75732 -9.75732 -9.75732 -9.64469 -9.64469 -9.64469 -9.64469 -9.56919 -9.56919 -9.56919 -9.56919 -9.52651 -9.52651 -9.52651 -9.52651 -9.82012 -9.82012 -9.82012 -9.82012 -9.92 -9.92 -9.92 -9.92 -9.46909 -9.46909 -9.46909 -9.46909 -9.52887 -9.52887 -9.52887 -9.52887 -9.79166 -9.79166 -9.79166 -9.79166 -9.32287 -9.32287 -9.32287 -9.32287 -9.53362 -9.53362 -9.53362 -9.53362 -9.38055 -9.38055 -9.38055 -9.38055 -7.96004 -7.96004 -7.96004 -7.96004 -9.68701 -9.68701 -9.68701 -9.68701 -9.51979 -9.51979 -9.51979 -9.51979 -9.1625 -9.1625 -9.1625 -9.1625 -9.59644 -9.59644 -9.59644 -9.59644 -10.0872 -10.0872 -10.0872 -10.0872 -9.43775 -9.43775 -9.43775 -9.43775 -9.59452 -9.59452 -9.59452 -9.59452 -8.82124 -8.82124 -8.82124 -8.82124 -9.45929 -9.45929 -9.45929 -9.45929 -9.82714 -9.82714 -9.82714 -9.82714 -9.80298 -9.80298 -9.80298 -9.80298 -9.36135 -9.36135 -9.36135 -9.36135 -9.62041 -9.62041 -9.62041 -9.62041 -8.05425 -8.05425 -8.05425 -8.05425 -9.82019 -9.82019 -9.82019 -9.82019 -9.83233 -9.83233 -9.83233 -9.83233 -9.94591 -9.94591 -9.94591 -9.94591 -8.44149 -8.44149 -8.44149 -8.44149 -9.42482 -9.42482 -9.42482 -9.42482 -9.95523 -9.95523 -9.95523 -9.95523 -9.12983 -9.12983 -9.12983 -9.12983 -9.10129 -9.10129 -9.10129 -9.10129 -9.69351 -9.69351 -9.69351 -9.69351 -9.4518 -9.4518 -9.4518 -9.4518 -9.55513 -9.55513 -9.55513 -9.55513 -8.74911 -8.74911 -8.74911 -8.74911 -9.29193 -9.29193 -9.29193 -9.29193 -8.81419 -8.81419 -8.81419 -8.81419 -10.2573 -10.2573 -10.2573 -10.2573 -9.1485 -9.1485 -9.1485 -9.1485 -9.52372 -9.52372 -9.52372 -9.52372 -9.39147 -9.39147 -9.39147 -9.39147 -9.8732 -9.8732 -9.8732 -9.8732 -9.64752 -9.64752 -9.64752 -9.64752 -9.55748 -9.55748 -9.55748 -9.55748 -8.58339 -8.58339 -8.58339 -8.58339 -9.47702 -9.47702 -9.47702 -9.47702 -9.83683 -9.83683 -9.83683 -9.83683 -9.53853 -9.53853 -9.53853 -9.53853 -9.87819 -9.87819 -9.87819 -9.87819 -9.90246 -9.90246 -9.90246 -9.90246 -9.64993 -9.64993 -9.64993 -9.64993 -9.68199 -9.68199 -9.68199 -9.68199 -9.53788 -9.53788 -9.53788 -9.53788 -9.3866 -9.3866 -9.3866 -9.3866 -9.54285 -9.54285 -9.54285 -9.54285 -9.55611 -9.55611 -9.55611 -9.55611 -9.76761 -9.76761 -9.76761 -9.76761 -9.89214 -9.89214 -9.89214 -9.89214 -11.5977 -11.5977 -11.5977 -11.5977 -9.63139 -9.63139 -9.63139 -9.63139 -8.38282 -8.38282 -8.38282 -8.38282 -9.65458 -9.65458 -9.65458 -9.65458 -9.6673 -9.6673 -9.6673 -9.6673 -9.61536 -9.61536 -9.61536 -9.61536 -9.76374 -9.76374 -9.76374 -9.76374 -9.66217 -9.66217 -9.66217 -9.66217 -9.62571 -9.62571 -9.62571 -9.62571 -9.30775 -9.30775 -9.30775 -9.30775 -9.37076 -9.37076 -9.37076 -9.37076 -9.57345 -9.57345 -9.57345 -9.57345 -9.53215 -9.53215 -9.53215 -9.53215 -9.48988 -9.48988 -9.48988 -9.48988 -8.87887 -8.87887 -8.87887 -8.87887 -9.46592 -9.46592 -9.46592 -9.46592 -9.87779 -9.87779 -9.87779 -9.87779 -9.91104 -9.91104 -9.91104 -9.91104 -9.85834 -9.85834 -9.85834 -9.85834 -9.85042 -9.85042 -9.85042 -9.85042 -9.73765 -9.73765 -9.73765 -9.73765 -9.41192 -9.41192 -9.41192 -9.41192 -9.43769 -9.43769 -9.43769 -9.43769 -9.16485 -9.16485 -9.16485 -9.16485 -8.85102 -8.85102 -8.85102 -8.85102 -9.89849 -9.89849 -9.89849 -9.89849 -9.43159 -9.43159 -9.43159 -9.43159 -9.84372 -9.84372 -9.84372 -9.84372 -9.48574 -9.48574 -9.48574 -9.48574 -9.83238 -9.83238 -9.83238 -9.83238 -9.94079 -9.94079 -9.94079 -9.94079 -9.56663 -9.56663 -9.56663 -9.56663 -9.41459 -9.41459 -9.41459 -9.41459 -9.76761 -9.76761 -9.76761 -9.76761 -9.36824 -9.36824 -9.36824 -9.36824 -9.40669 -9.40669 -9.40669 -9.40669 -9.07942 -9.07942 -9.07942 -9.07942 -9.35571 -9.35571 -9.35571 -9.35571 -10.5128 -10.5128 -10.5128 -10.5128 -9.56386 -9.56386 -9.56386 -9.56386 -9.52587 -9.52587 -9.52587 -9.52587 -7.94957 -7.94957 -7.94957 -7.94957 -9.73074 -9.73074 -9.73074 -9.73074 -9.66543 -9.66543 -9.66543 -9.66543 -9.72106 -9.72106 -9.72106 -9.72106 -9.6341 -9.6341 -9.6341 -9.6341 -9.86414 -9.86414 -9.86414 -9.86414 -9.59893 -9.59893 -9.59893 -9.59893 -9.59484 -9.59484 -9.59484 -9.59484 -9.49752 -9.49752 -9.49752 -9.49752 -8.95486 -8.95486 -8.95486 -8.95486 -9.59674 -9.59674 -9.59674 -9.59674 -9.59048 -9.59048 -9.59048 -9.59048 -9.52418 -9.52418 -9.52418 -9.52418 -9.41708 -9.41708 -9.41708 -9.41708 -9.76673 -9.76673 -9.76673 -9.76673 -9.32197 -9.32197 -9.32197 -9.32197 -9.40496 -9.40496 -9.40496 -9.40496 -9.49557 -9.49557 -9.49557 -9.49557 -9.38562 -9.38562 -9.38562 -9.38562 -9.32832 -9.32832 -9.32832 -9.32832 -7.86499 -7.86499 -7.86499 -7.86499 -9.82125 -9.82125 -9.82125 -9.82125 -9.46976 -9.46976 -9.46976 -9.46976 -9.69154 -9.69154 -9.69154 -9.69154 -9.41435 -9.41435 -9.41435 -9.41435 -9.87361 -9.87361 -9.87361 -9.87361 -8.70844 -8.70844 -8.70844 -8.70844 -9.73514 -9.73514 -9.73514 -9.73514 -9.59021 -9.59021 -9.59021 -9.59021 -9.60321 -9.60321 -9.60321 -9.60321 -9.76287 -9.76287 -9.76287 -9.76287 -9.61254 -9.61254 -9.61254 -9.61254 -9.50198 -9.50198 -9.50198 -9.50198 -9.50685 -9.50685 -9.50685 -9.50685 -9.53354 -9.53354 -9.53354 -9.53354 -9.00554 -9.00554 -9.00554 -9.00554 -9.23029 -9.23029 -9.23029 -9.23029 -9.07391 -9.07391 -9.07391 -9.07391 -7.71451 -7.71451 -7.71451 -7.71451 -9.90017 -9.90017 -9.90017 -9.90017 -9.01805 -9.01805 -9.01805 -9.01805 -9.5948 -9.5948 -9.5948 -9.5948 -9.10316 -9.10316 -9.10316 -9.10316 -9.63273 -9.63273 -9.63273 -9.63273 -9.94448 -9.94448 -9.94448 -9.94448 -9.59183 -9.59183 -9.59183 -9.59183 -9.64649 -9.64649 -9.64649 -9.64649 -11.3599 -11.3599 -11.3599 -11.3599 -11.4097 -11.4097 -11.4097 -11.4097 -8.71788 -8.71788 -8.71788 -8.71788 -8.99155 -8.99155 -8.99155 -8.99155 -8.82728 -8.82728 -8.82728 -8.82728 -7.14921 -7.14921 -7.14921 -7.14921 -9.52793 -9.52793 -9.52793 -9.52793 -9.50908 -9.50908 -9.50908 -9.50908 -9.83106 -9.83106 -9.83106 -9.83106 -9.48243 -9.48243 -9.48243 -9.48243 -9.20802 -9.20802 -9.20802 -9.20802 -9.05614 -9.05614 -9.05614 -9.05614 -9.40601 -9.40601 -9.40601 -9.40601 -9.86574 -9.86574 -9.86574 -9.86574 -9.87584 -9.87584 -9.87584 -9.87584 -11.0209 -11.0209 -11.0209 -11.0209 -9.02402 -9.02402 -9.02402 -9.02402 -7.8433 -7.8433 -7.8433 -7.8433 -9.83909 -9.83909 -9.83909 -9.83909 -9.54989 -9.54989 -9.54989 -9.54989 -9.46875 -9.46875 -9.46875 -9.46875 -9.56347 -9.56347 -9.56347 -9.56347 -9.68044 -9.68044 -9.68044 -9.68044 -9.55591 -9.55591 -9.55591 -9.55591 -9.82562 -9.82562 -9.82562 -9.82562 -10.3854 -10.3854 -10.3854 -10.3854 -9.64626 -9.64626 -9.64626 -9.64626 -9.59809 -9.59809 -9.59809 -9.59809 -9.65635 -9.65635 -9.65635 -9.65635 -9.64459 -9.64459 -9.64459 -9.64459 -9.73119 -9.73119 -9.73119 -9.73119 -9.79573 -9.79573 -9.79573 -9.79573 -9.54163 -9.54163 -9.54163 -9.54163 -9.60849 -9.60849 -9.60849 -9.60849 -9.39159 -9.39159 -9.39159 -9.39159 -9.34941 -9.34941 -9.34941 -9.34941 -9.68126 -9.68126 -9.68126 -9.68126 -9.20972 -9.20972 -9.20972 -9.20972 -9.80486 -9.80486 -9.80486 -9.80486 -9.47785 -9.47785 -9.47785 -9.47785 -9.83431 -9.83431 -9.83431 -9.83431 -8.05238 -8.05238 -8.05238 -8.05238 -9.07665 -9.07665 -9.07665 -9.07665 -9.68661 -9.68661 -9.68661 -9.68661 -8.99583 -8.99583 -8.99583 -8.99583 -9.6819 -9.6819 -9.6819 -9.6819 -9.19247 -9.19247 -9.19247 -9.19247 -8.81771 -8.81771 -8.81771 -8.81771 -10.253 -10.253 -10.253 -10.253 -9.89612 -9.89612 -9.89612 -9.89612 -9.83038 -9.83038 -9.83038 -9.83038 -9.44642 -9.44642 -9.44642 -9.44642 -9.52404 -9.52404 -9.52404 -9.52404 -9.52813 -9.52813 -9.52813 -9.52813 -9.49403 -9.49403 -9.49403 -9.49403 -9.36812 -9.36812 -9.36812 -9.36812 -8.97426 -8.97426 -8.97426 -8.97426 -11.3147 -11.3147 -11.3147 -11.3147 -9.87725 -9.87725 -9.87725 -9.87725 -9.61803 -9.61803 -9.61803 -9.61803 -4.82706 -4.82706 -4.82706 -4.82706 -9.51 -9.51 -9.51 -9.51 -9.87352 -9.87352 -9.87352 -9.87352 -9.64486 -9.64486 -9.64486 -9.64486 -9.91632 -9.91632 -9.91632 -9.91632 -9.96097 -9.96097 -9.96097 -9.96097 -9.61149 -9.61149 -9.61149 -9.61149 -9.30264 -9.30264 -9.30264 -9.30264 -9.6207 -9.6207 -9.6207 -9.6207 -9.66872 -9.66872 -9.66872 -9.66872 -9.84136 -9.84136 -9.84136 -9.84136 -9.71274 -9.71274 -9.71274 -9.71274 -9.86041 -9.86041 -9.86041 -9.86041 -9.90498 -9.90498 -9.90498 -9.90498 -9.59088 -9.59088 -9.59088 -9.59088 -9.6261 -9.6261 -9.6261 -9.6261 -9.57267 -9.57267 -9.57267 -9.57267 -9.11489 -9.11489 -9.11489 -9.11489 -8.87025 -8.87025 -8.87025 -8.87025 -9.56906 -9.56906 -9.56906 -9.56906 -9.82752 -9.82752 -9.82752 -9.82752 -9.45201 -9.45201 -9.45201 -9.45201 -8.85498 -8.85498 -8.85498 -8.85498 -9.83633 -9.83633 -9.83633 -9.83633 -9.87979 -9.87979 -9.87979 -9.87979 -9.52764 -9.52764 -9.52764 -9.52764 -9.47434 -9.47434 -9.47434 -9.47434 -9.58431 -9.58431 -9.58431 -9.58431 -11.1175 -11.1175 -11.1175 -11.1175 -9.48303 -9.48303 -9.48303 -9.48303 -9.29527 -9.29527 -9.29527 -9.29527 -9.29397 -9.29397 -9.29397 -9.29397 -9.5772 -9.5772 -9.5772 -9.5772 -9.60867 -9.60867 -9.60867 -9.60867 -7.53546 -7.53546 -7.53546 -7.53546 -9.75974 -9.75974 -9.75974 -9.75974 -9.05614 -9.05614 -9.05614 -9.05614 -9.63668 -9.63668 -9.63668 -9.63668 -9.71559 -9.71559 -9.71559 -9.71559 -9.95324 -9.95324 -9.95324 -9.95324 -9.67371 -9.67371 -9.67371 -9.67371 -9.88731 -9.88731 -9.88731 -9.88731 -9.63833 -9.63833 -9.63833 -9.63833 -10.642 -10.642 -10.642 -10.642 -10.2526 -10.2526 -10.2526 -10.2526 -9.60576 -9.60576 -9.60576 -9.60576 -9.87303 -9.87303 -9.87303 -9.87303 -9.66919 -9.66919 -9.66919 -9.66919 -9.46453 -9.46453 -9.46453 -9.46453 -9.83439 -9.83439 -9.83439 -9.83439 -8.4198 -8.4198 -8.4198 -8.4198 -9.8278 -9.8278 -9.8278 -9.8278 -9.67807 -9.67807 -9.67807 -9.67807 -4.48432 -4.48432 -4.48432 -4.48432 -11.3116 -11.3116 -11.3116 -11.3116 -8.81695 -8.81695 -8.81695 -8.81695 -9.74087 -9.74087 -9.74087 -9.74087 -9.52418 -9.52418 -9.52418 -9.52418 -11.4766 -11.4766 -11.4766 -11.4766 -9.62883 -9.62883 -9.62883 -9.62883 -9.62783 -9.62783 -9.62783 -9.62783 -9.95746 -9.95746 -9.95746 -9.95746 -9.57654 -9.57654 -9.57654 -9.57654 -9.47125 -9.47125 -9.47125 -9.47125 -9.71425 -9.71425 -9.71425 -9.71425 -9.6403 -9.6403 -9.6403 -9.6403 -9.51101 -9.51101 -9.51101 -9.51101 -9.71776 -9.71776 -9.71776 -9.71776 -9.60181 -9.60181 -9.60181 -9.60181 -9.29079 -9.29079 -9.29079 -9.29079 -9.81849 -9.81849 -9.81849 -9.81849 -9.56492 -9.56492 -9.56492 -9.56492 -9.94608 -9.94608 -9.94608 -9.94608 -9.60016 -9.60016 -9.60016 -9.60016 -9.36818 -9.36818 -9.36818 -9.36818 -9.50724 -9.50724 -9.50724 -9.50724 -9.81496 -9.81496 -9.81496 -9.81496 -9.55189 -9.55189 -9.55189 -9.55189 -7.22332 -7.22332 -7.22332 -7.22332 -9.19844 -9.19844 -9.19844 -9.19844 -9.54077 -9.54077 -9.54077 -9.54077 -9.31102 -9.31102 -9.31102 -9.31102 -9.4367 -9.4367 -9.4367 -9.4367 -9.63448 -9.63448 -9.63448 -9.63448 -3.21399 -3.21399 -3.21399 -3.21399 -9.6054 -9.6054 -9.6054 -9.6054 -9.67729 -9.67729 -9.67729 -9.67729 -9.79357 -9.79357 -9.79357 -9.79357 -9.66754 -9.66754 -9.66754 -9.66754 -9.82912 -9.82912 -9.82912 -9.82912 -9.49897 -9.49897 -9.49897 -9.49897 -9.7301 -9.7301 -9.7301 -9.7301 -9.62766 -9.62766 -9.62766 -9.62766 -9.8573 -9.8573 -9.8573 -9.8573 -6.86317 -6.86317 -6.86317 -6.86317 -9.64988 -9.64988 -9.64988 -9.64988 -8.84586 -8.84586 -8.84586 -8.84586 -9.60424 -9.60424 -9.60424 -9.60424 -9.4728 -9.4728 -9.4728 -9.4728 -7.11389 -7.11389 -7.11389 -7.11389 -8.08699 -8.08699 -8.08699 -8.08699 -9.46144 -9.46144 -9.46144 -9.46144 -9.69464 -9.69464 -9.69464 -9.69464 -9.83327 -9.83327 -9.83327 -9.83327 -9.71377 -9.71377 -9.71377 -9.71377 -9.34164 -9.34164 -9.34164 -9.34164 -9.58354 -9.58354 -9.58354 -9.58354 -9.58938 -9.58938 -9.58938 -9.58938 -9.00784 -9.00784 -9.00784 -9.00784 -9.75214 -9.75214 -9.75214 -9.75214 -9.97948 -9.97948 -9.97948 -9.97948 -9.68111 -9.68111 -9.68111 -9.68111 -9.59837 -9.59837 -9.59837 -9.59837 -8.37672 -8.37672 -8.37672 -8.37672 -9.62335 -9.62335 -9.62335 -9.62335 -9.65149 -9.65149 -9.65149 -9.65149 -9.88032 -9.88032 -9.88032 -9.88032 -9.8216 -9.8216 -9.8216 -9.8216 -9.39721 -9.39721 -9.39721 -9.39721 -9.15127 -9.15127 -9.15127 -9.15127 -9.3088 -9.3088 -9.3088 -9.3088 -9.62523 -9.62523 -9.62523 -9.62523 -9.47374 -9.47374 -9.47374 -9.47374 -9.60526 -9.60526 -9.60526 -9.60526 -9.82863 -9.82863 -9.82863 -9.82863 -6.06419 -6.06419 -6.06419 -6.06419 -9.32046 -9.32046 -9.32046 -9.32046 -8.99497 -8.99497 -8.99497 -8.99497 -9.33656 -9.33656 -9.33656 -9.33656 -9.91933 -9.91933 -9.91933 -9.91933 -9.85605 -9.85605 -9.85605 -9.85605 -9.88215 -9.88215 -9.88215 -9.88215 -9.55764 -9.55764 -9.55764 -9.55764 -9.8173 -9.8173 -9.8173 -9.8173 -9.5562 -9.5562 -9.5562 -9.5562 -9.661 -9.661 -9.661 -9.661 -9.4314 -9.4314 -9.4314 -9.4314 -2.65862 -2.65862 -2.65862 -2.65862 -4.58047 -4.58047 -4.58047 -4.58047 -9.31419 -9.31419 -9.31419 -9.31419 -9.90059 -9.90059 -9.90059 -9.90059 -9.8021 -9.8021 -9.8021 -9.8021 -9.55813 -9.55813 -9.55813 -9.55813 -11.3111 -11.3111 -11.3111 -11.3111 -9.7376 -9.7376 -9.7376 -9.7376 -9.4858 -9.4858 -9.4858 -9.4858 -9.09706 -9.09706 -9.09706 -9.09706 -9.39076 -9.39076 -9.39076 -9.39076 -9.80415 -9.80415 -9.80415 -9.80415 -9.84809 -9.84809 -9.84809 -9.84809 -7.94844 -7.94844 -7.94844 -7.94844 -9.18995 -9.18995 -9.18995 -9.18995 -9.69044 -9.69044 -9.69044 -9.69044 -9.93237 -9.93237 -9.93237 -9.93237 -9.24239 -9.24239 -9.24239 -9.24239 -9.87163 -9.87163 -9.87163 -9.87163 -9.93726 -9.93726 -9.93726 -9.93726 -9.67319 -9.67319 -9.67319 -9.67319 -9.4567 -9.4567 -9.4567 -9.4567 -9.18868 -9.18868 -9.18868 -9.18868 -9.25001 -9.25001 -9.25001 -9.25001 -9.78475 -9.78475 -9.78475 -9.78475 -9.22554 -9.22554 -9.22554 -9.22554 -9.06799 -9.06799 -9.06799 -9.06799 -9.33547 -9.33547 -9.33547 -9.33547 -9.61453 -9.61453 -9.61453 -9.61453 -8.80824 -8.80824 -8.80824 -8.80824 -8.82958 -8.82958 -8.82958 -8.82958 -9.69481 -9.69481 -9.69481 -9.69481 -9.29781 -9.29781 -9.29781 -9.29781 -9.72866 -9.72866 -9.72866 -9.72866 -9.86849 -9.86849 -9.86849 -9.86849 -9.16332 -9.16332 -9.16332 -9.16332 -9.95222 -9.95222 -9.95222 -9.95222 -8.88081 -8.88081 -8.88081 -8.88081 -11.1123 -11.1123 -11.1123 -11.1123 -9.82532 -9.82532 -9.82532 -9.82532 -9.84381 -9.84381 -9.84381 -9.84381 -8.85377 -8.85377 -8.85377 -8.85377 -9.73627 -9.73627 -9.73627 -9.73627 -9.37198 -9.37198 -9.37198 -9.37198 -9.37547 -9.37547 -9.37547 -9.37547 -9.67355 -9.67355 -9.67355 -9.67355 -9.15055 -9.15055 -9.15055 -9.15055 -9.85254 -9.85254 -9.85254 -9.85254 -8.61975 -8.61975 -8.61975 -8.61975 -9.36076 -9.36076 -9.36076 -9.36076 -9.61463 -9.61463 -9.61463 -9.61463 -9.59067 -9.59067 -9.59067 -9.59067 -9.5902 -9.5902 -9.5902 -9.5902 -9.96831 -9.96831 -9.96831 -9.96831 -8.96306 -8.96306 -8.96306 -8.96306 -9.85338 -9.85338 -9.85338 -9.85338 -9.3698 -9.3698 -9.3698 -9.3698 -9.67733 -9.67733 -9.67733 -9.67733 -8.13908 -8.13908 -8.13908 -8.13908 -9.66601 -9.66601 -9.66601 -9.66601 -4.91805 -4.91805 -4.91805 -4.91805 -9.24438 -9.24438 -9.24438 -9.24438 -9.55508 -9.55508 -9.55508 -9.55508 -7.58999 -7.58999 -7.58999 -7.58999 -9.63762 -9.63762 -9.63762 -9.63762 -9.62292 -9.62292 -9.62292 -9.62292 -9.86976 -9.86976 -9.86976 -9.86976 -10.7892 -10.7892 -10.7892 -10.7892 -9.94205 -9.94205 -9.94205 -9.94205 -2.54542 -2.54542 -2.54542 -2.54542 -9.47572 -9.47572 -9.47572 -9.47572 -5.28289 -5.28289 -5.28289 -5.28289 -9.52793 -9.52793 -9.52793 -9.52793 -8.96053 -8.96053 -8.96053 -8.96053 -9.80382 -9.80382 -9.80382 -9.80382 -9.50929 -9.50929 -9.50929 -9.50929 -8.92824 -8.92824 -8.92824 -8.92824 -8.60975 -8.60975 -8.60975 -8.60975 -9.4799 -9.4799 -9.4799 -9.4799 -7.54963 -7.54963 -7.54963 -7.54963 -8.94133 -8.94133 -8.94133 -8.94133 -9.7517 -9.7517 -9.7517 -9.7517 -7.96411 -7.96411 -7.96411 -7.96411 -9.7257 -9.7257 -9.7257 -9.7257 -12.2011 -12.2011 -12.2011 -12.2011 -9.05006 -9.05006 -9.05006 -9.05006 -9.7208 -9.7208 -9.7208 -9.7208 -10.2025 -10.2025 -10.2025 -10.2025 -9.12123 -9.12123 -9.12123 -9.12123 -9.81852 -9.81852 -9.81852 -9.81852 -9.74619 -9.74619 -9.74619 -9.74619 -8.56405 -8.56405 -8.56405 -8.56405 -9.84802 -9.84802 -9.84802 -9.84802 -9.72699 -9.72699 -9.72699 -9.72699 -9.86473 -9.86473 -9.86473 -9.86473 -9.8009 -9.8009 -9.8009 -9.8009 -9.68233 -9.68233 -9.68233 -9.68233 -9.93231 -9.93231 -9.93231 -9.93231 -9.8317 -9.8317 -9.8317 -9.8317 -9.81603 -9.81603 -9.81603 -9.81603 -9.57517 -9.57517 -9.57517 -9.57517 -9.73345 -9.73345 -9.73345 -9.73345 -9.75368 -9.75368 -9.75368 -9.75368 -9.61974 -9.61974 -9.61974 -9.61974 -9.51784 -9.51784 -9.51784 -9.51784 -9.55285 -9.55285 -9.55285 -9.55285 -9.53779 -9.53779 -9.53779 -9.53779 -7.87584 -7.87584 -7.87584 -7.87584 -9.47111 -9.47111 -9.47111 -9.47111 -2.90102 -2.90102 -2.90102 -2.90102 -9.21632 -9.21632 -9.21632 -9.21632 -9.75323 -9.75323 -9.75323 -9.75323 -9.18091 -9.18091 -9.18091 -9.18091 -9.54493 -9.54493 -9.54493 -9.54493 -9.88494 -9.88494 -9.88494 -9.88494 -9.7141 -9.7141 -9.7141 -9.7141 -11.2767 -11.2767 -11.2767 -11.2767 -9.55718 -9.55718 -9.55718 -9.55718 -9.82043 -9.82043 -9.82043 -9.82043 -9.79652 -9.79652 -9.79652 -9.79652 -9.51401 -9.51401 -9.51401 -9.51401 -9.27357 -9.27357 -9.27357 -9.27357 -12.2455 -12.2455 -12.2455 -12.2455 -8.89506 -8.89506 -8.89506 -8.89506 -7.68208 -7.68208 -7.68208 -7.68208 -9.58818 -9.58818 -9.58818 -9.58818 -9.2918 -9.2918 -9.2918 -9.2918 -9.79004 -9.79004 -9.79004 -9.79004 -9.20534 -9.20534 -9.20534 -9.20534 -9.77507 -9.77507 -9.77507 -9.77507 -9.44372 -9.44372 -9.44372 -9.44372 -9.57985 -9.57985 -9.57985 -9.57985 -9.37066 -9.37066 -9.37066 -9.37066 -9.43106 -9.43106 -9.43106 -9.43106 -9.56839 -9.56839 -9.56839 -9.56839 -9.64889 -9.64889 -9.64889 -9.64889 -5.55585 -5.55585 -5.55585 -5.55585 -9.84098 -9.84098 -9.84098 -9.84098 -6.69099 -6.69099 -6.69099 -6.69099 -9.65048 -9.65048 -9.65048 -9.65048 -9.4589 -9.4589 -9.4589 -9.4589 -9.90327 -9.90327 -9.90327 -9.90327 -9.39076 -9.39076 -9.39076 -9.39076 -9.86689 -9.86689 -9.86689 -9.86689 -9.71555 -9.71555 -9.71555 -9.71555 -9.91739 -9.91739 -9.91739 -9.91739 -9.30036 -9.30036 -9.30036 -9.30036 -9.28334 -9.28334 -9.28334 -9.28334 -9.93262 -9.93262 -9.93262 -9.93262 -9.44332 -9.44332 -9.44332 -9.44332 -9.54757 -9.54757 -9.54757 -9.54757 -9.62506 -9.62506 -9.62506 -9.62506 -9.59506 -9.59506 -9.59506 -9.59506 -9.56516 -9.56516 -9.56516 -9.56516 -9.10362 -9.10362 -9.10362 -9.10362 -9.72924 -9.72924 -9.72924 -9.72924 -8.71904 -8.71904 -8.71904 -8.71904 -9.31716 -9.31716 -9.31716 -9.31716 -9.51012 -9.51012 -9.51012 -9.51012 -9.85436 -9.85436 -9.85436 -9.85436 -8.87424 -8.87424 -8.87424 -8.87424 -9.5848 -9.5848 -9.5848 -9.5848 -8.9489 -8.9489 -8.9489 -8.9489 -8.10116 -8.10116 -8.10116 -8.10116 -10.497 -10.497 -10.497 -10.497 -9.50596 -9.50596 -9.50596 -9.50596 -9.93095 -9.93095 -9.93095 -9.93095 -10.993 -10.993 -10.993 -10.993 -5.8887 -5.8887 -5.8887 -5.8887 -9.77048 -9.77048 -9.77048 -9.77048 -9.87137 -9.87137 -9.87137 -9.87137 -8.64564 -8.64564 -8.64564 -8.64564 -10.0006 -10.0006 -10.0006 -10.0006 -9.19162 -9.19162 -9.19162 -9.19162 -9.17327 -9.17327 -9.17327 -9.17327 -9.09217 -9.09217 -9.09217 -9.09217 -9.67885 -9.67885 -9.67885 -9.67885 -10.2286 -10.2286 -10.2286 -10.2286 -9.49767 -9.49767 -9.49767 -9.49767 -9.4917 -9.4917 -9.4917 -9.4917 -9.84854 -9.84854 -9.84854 -9.84854 -9.62195 -9.62195 -9.62195 -9.62195 -9.47353 -9.47353 -9.47353 -9.47353 -9.04828 -9.04828 -9.04828 -9.04828 -9.55513 -9.55513 -9.55513 -9.55513 -8.60108 -8.60108 -8.60108 -8.60108 -9.77771 -9.77771 -9.77771 -9.77771 -9.46822 -9.46822 -9.46822 -9.46822 -9.47028 -9.47028 -9.47028 -9.47028 -9.01847 -9.01847 -9.01847 -9.01847 -5.23418 -5.23418 -5.23418 -5.23418 -9.56268 -9.56268 -9.56268 -9.56268 -9.10795 -9.10795 -9.10795 -9.10795 -8.77372 -8.77372 -8.77372 -8.77372 -9.5111 -9.5111 -9.5111 -9.5111 -7.09281 -7.09281 -7.09281 -7.09281 -9.7072 -9.7072 -9.7072 -9.7072 -9.23936 -9.23936 -9.23936 -9.23936 -9.70032 -9.70032 -9.70032 -9.70032 -9.60539 -9.60539 -9.60539 -9.60539 -9.53291 -9.53291 -9.53291 -9.53291 -9.36689 -9.36689 -9.36689 -9.36689 -10.3417 -10.3417 -10.3417 -10.3417 -9.88278 -9.88278 -9.88278 -9.88278 -9.72553 -9.72553 -9.72553 -9.72553 -9.58947 -9.58947 -9.58947 -9.58947 -8.82964 -8.82964 -8.82964 -8.82964 -9.17766 -9.17766 -9.17766 -9.17766 -9.46721 -9.46721 -9.46721 -9.46721 -9.53383 -9.53383 -9.53383 -9.53383 -8.74668 -8.74668 -8.74668 -8.74668 -9.92618 -9.92618 -9.92618 -9.92618 -9.19392 -9.19392 -9.19392 -9.19392 -9.85525 -9.85525 -9.85525 -9.85525 -9.48175 -9.48175 -9.48175 -9.48175 -9.87925 -9.87925 -9.87925 -9.87925 -9.78522 -9.78522 -9.78522 -9.78522 -10.399 -10.399 -10.399 -10.399 -9.63418 -9.63418 -9.63418 -9.63418 -9.86258 -9.86258 -9.86258 -9.86258 -9.18857 -9.18857 -9.18857 -9.18857 -8.89119 -8.89119 -8.89119 -8.89119 -9.61339 -9.61339 -9.61339 -9.61339 -4.77211 -4.77211 -4.77211 -4.77211 -9.57495 -9.57495 -9.57495 -9.57495 -8.81236 -8.81236 -8.81236 -8.81236 -9.84156 -9.84156 -9.84156 -9.84156 -9.21181 -9.21181 -9.21181 -9.21181 -8.56848 -8.56848 -8.56848 -8.56848 -9.54956 -9.54956 -9.54956 -9.54956 -9.6955 -9.6955 -9.6955 -9.6955 -9.66551 -9.66551 -9.66551 -9.66551 -9.52669 -9.52669 -9.52669 -9.52669 -9.59121 -9.59121 -9.59121 -9.59121 -9.69414 -9.69414 -9.69414 -9.69414 -9.29333 -9.29333 -9.29333 -9.29333 -9.75167 -9.75167 -9.75167 -9.75167 -9.72409 -9.72409 -9.72409 -9.72409 -9.86462 -9.86462 -9.86462 -9.86462 -8.00354 -8.00354 -8.00354 -8.00354 -9.71166 -9.71166 -9.71166 -9.71166 -9.47699 -9.47699 -9.47699 -9.47699 -8.69285 -8.69285 -8.69285 -8.69285 -10.121 -10.121 -10.121 -10.121 -9.52305 -9.52305 -9.52305 -9.52305 -8.52483 -8.52483 -8.52483 -8.52483 -9.32088 -9.32088 -9.32088 -9.32088 -9.09035 -9.09035 -9.09035 -9.09035 -9.38325 -9.38325 -9.38325 -9.38325 -9.57561 -9.57561 -9.57561 -9.57561 -9.92922 -9.92922 -9.92922 -9.92922 -9.75627 -9.75627 -9.75627 -9.75627 -11.333 -11.333 -11.333 -11.333 -9.53001 -9.53001 -9.53001 -9.53001 -10.0645 -10.0645 -10.0645 -10.0645 -9.52957 -9.52957 -9.52957 -9.52957 -9.56747 -9.56747 -9.56747 -9.56747 -9.95635 -9.95635 -9.95635 -9.95635 -10.0104 -10.0104 -10.0104 -10.0104 -9.93488 -9.93488 -9.93488 -9.93488 -9.52338 -9.52338 -9.52338 -9.52338 -7.52184 -7.52184 -7.52184 -7.52184 -9.62022 -9.62022 -9.62022 -9.62022 -9.89876 -9.89876 -9.89876 -9.89876 -9.38235 -9.38235 -9.38235 -9.38235 -5.85237 -5.85237 -5.85237 -5.85237 -9.77759 -9.77759 -9.77759 -9.77759 -9.66589 -9.66589 -9.66589 -9.66589 -9.26762 -9.26762 -9.26762 -9.26762 -12.4867 -12.4867 -12.4867 -12.4867 -8.46899 -8.46899 -8.46899 -8.46899 -6.7797 -6.7797 -6.7797 -6.7797 -9.77614 -9.77614 -9.77614 -9.77614 -9.59171 -9.59171 -9.59171 -9.59171 -9.26436 -9.26436 -9.26436 -9.26436 -9.95404 -9.95404 -9.95404 -9.95404 -9.72556 -9.72556 -9.72556 -9.72556 -9.21132 -9.21132 -9.21132 -9.21132 -9.6638 -9.6638 -9.6638 -9.6638 -10.0778 -10.0778 -10.0778 -10.0778 -9.60074 -9.60074 -9.60074 -9.60074 -7.92616 -7.92616 -7.92616 -7.92616 -9.66411 -9.66411 -9.66411 -9.66411 -8.9453 -8.9453 -8.9453 -8.9453 -9.81825 -9.81825 -9.81825 -9.81825 -9.57745 -9.57745 -9.57745 -9.57745 -9.19785 -9.19785 -9.19785 -9.19785 -8.95592 -8.95592 -8.95592 -8.95592 -9.24932 -9.24932 -9.24932 -9.24932 -9.77745 -9.77745 -9.77745 -9.77745 -9.54334 -9.54334 -9.54334 -9.54334 -9.94376 -9.94376 -9.94376 -9.94376 -9.21951 -9.21951 -9.21951 -9.21951 -9.10834 -9.10834 -9.10834 -9.10834 -9.65877 -9.65877 -9.65877 -9.65877 -11.0327 -11.0327 -11.0327 -11.0327 -9.4258 -9.4258 -9.4258 -9.4258 -9.54855 -9.54855 -9.54855 -9.54855 -8.48402 -8.48402 -8.48402 -8.48402 -9.70043 -9.70043 -9.70043 -9.70043 -9.72415 -9.72415 -9.72415 -9.72415 -9.37334 -9.37334 -9.37334 -9.37334 -9.12371 -9.12371 -9.12371 -9.12371 -8.85941 -8.85941 -8.85941 -8.85941 -5.17524 -5.17524 -5.17524 -5.17524 -9.59494 -9.59494 -9.59494 -9.59494 -9.83415 -9.83415 -9.83415 -9.83415 -9.80583 -9.80583 -9.80583 -9.80583 -9.94089 -9.94089 -9.94089 -9.94089 -10.0755 -10.0755 -10.0755 -10.0755 -9.5913 -9.5913 -9.5913 -9.5913 -8.77495 -8.77495 -8.77495 -8.77495 -4.69791 -4.69791 -4.69791 -4.69791 -9.86999 -9.86999 -9.86999 -9.86999 -9.06275 -9.06275 -9.06275 -9.06275 -8.6725 -8.6725 -8.6725 -8.6725 -8.81412 -8.81412 -8.81412 -8.81412 -8.91771 -8.91771 -8.91771 -8.91771 -9.89628 -9.89628 -9.89628 -9.89628 -8.95213 -8.95213 -8.95213 -8.95213 -12.2854 -12.2854 -12.2854 -12.2854 -10.5251 -10.5251 -10.5251 -10.5251 -9.20065 -9.20065 -9.20065 -9.20065 -9.46316 -9.46316 -9.46316 -9.46316 -7.721 -7.721 -7.721 -7.721 -9.73665 -9.73665 -9.73665 -9.73665 -9.16787 -9.16787 -9.16787 -9.16787 -8.71207 -8.71207 -8.71207 -8.71207 -9.25631 -9.25631 -9.25631 -9.25631 -7.6838 -7.6838 -7.6838 -7.6838 -9.59744 -9.59744 -9.59744 -9.59744 -8.23332 -8.23332 -8.23332 -8.23332 -9.34241 -9.34241 -9.34241 -9.34241 -9.51951 -9.51951 -9.51951 -9.51951 -7.16474 -7.16474 -7.16474 -7.16474 -9.2864 -9.2864 -9.2864 -9.2864 -8.45964 -8.45964 -8.45964 -8.45964 -9.5398 -9.5398 -9.5398 -9.5398 -9.87173 -9.87173 -9.87173 -9.87173 -8.3603 -8.3603 -8.3603 -8.3603 -8.03794 -8.03794 -8.03794 -8.03794 -9.60716 -9.60716 -9.60716 -9.60716 -9.56973 -9.56973 -9.56973 -9.56973 -9.55618 -9.55618 -9.55618 -9.55618 -10.2332 -10.2332 -10.2332 -10.2332 -9.30227 -9.30227 -9.30227 -9.30227 -9.63898 -9.63898 -9.63898 -9.63898 -9.14606 -9.14606 -9.14606 -9.14606 -9.36492 -9.36492 -9.36492 -9.36492 -8.10766 -8.10766 -8.10766 -8.10766 -9.8657 -9.8657 -9.8657 -9.8657 -9.52191 -9.52191 -9.52191 -9.52191 -9.37028 -9.37028 -9.37028 -9.37028 -9.51639 -9.51639 -9.51639 -9.51639 -9.94387 -9.94387 -9.94387 -9.94387 -9.14156 -9.14156 -9.14156 -9.14156 -12.7266 -12.7266 -12.7266 -12.7266 -9.85098 -9.85098 -9.85098 -9.85098 -9.58514 -9.58514 -9.58514 -9.58514 -9.88943 -9.88943 -9.88943 -9.88943 -10.4454 -10.4454 -10.4454 -10.4454 -8.92199 -8.92199 -8.92199 -8.92199 -7.36024 -7.36024 -7.36024 -7.36024 -9.59698 -9.59698 -9.59698 -9.59698 -9.7128 -9.7128 -9.7128 -9.7128 -9.64857 -9.64857 -9.64857 -9.64857 -9.52545 -9.52545 -9.52545 -9.52545 -9.7605 -9.7605 -9.7605 -9.7605 -9.7859 -9.7859 -9.7859 -9.7859 -9.92537 -9.92537 -9.92537 -9.92537 -9.31703 -9.31703 -9.31703 -9.31703 -8.89469 -8.89469 -8.89469 -8.89469 -9.68332 -9.68332 -9.68332 -9.68332 -5.0329 -5.0329 -5.0329 -5.0329 -9.28708 -9.28708 -9.28708 -9.28708 -9.78568 -9.78568 -9.78568 -9.78568 -8.82715 -8.82715 -8.82715 -8.82715 -9.85556 -9.85556 -9.85556 -9.85556 -9.67321 -9.67321 -9.67321 -9.67321 -7.34905 -7.34905 -7.34905 -7.34905 -5.61939 -5.61939 -5.61939 -5.61939 -9.9546 -9.9546 -9.9546 -9.9546 -9.86314 -9.86314 -9.86314 -9.86314 -10.5254 -10.5254 -10.5254 -10.5254 -9.8191 -9.8191 -9.8191 -9.8191 -9.1318 -9.1318 -9.1318 -9.1318 -9.94266 -9.94266 -9.94266 -9.94266 -2.33285 -2.33285 -2.33285 -2.33285 -9.75072 -9.75072 -9.75072 -9.75072 -9.48958 -9.48958 -9.48958 -9.48958 -9.42425 -9.42425 -9.42425 -9.42425 -9.61873 -9.61873 -9.61873 -9.61873 -9.70593 -9.70593 -9.70593 -9.70593 -9.05796 -9.05796 -9.05796 -9.05796 -8.73902 -8.73902 -8.73902 -8.73902 -8.99489 -8.99489 -8.99489 -8.99489 -11.1609 -11.1609 -11.1609 -11.1609 -10.1174 -10.1174 -10.1174 -10.1174 -9.36181 -9.36181 -9.36181 -9.36181 -9.57303 -9.57303 -9.57303 -9.57303 -9.27699 -9.27699 -9.27699 -9.27699 -9.63933 -9.63933 -9.63933 -9.63933 -9.16329 -9.16329 -9.16329 -9.16329 -9.24005 -9.24005 -9.24005 -9.24005 -9.5469 -9.5469 -9.5469 -9.5469 -9.84874 -9.84874 -9.84874 -9.84874 -9.51156 -9.51156 -9.51156 -9.51156 -9.84967 -9.84967 -9.84967 -9.84967 -8.96923 -8.96923 -8.96923 -8.96923 -9.84926 -9.84926 -9.84926 -9.84926 -13.1946 -13.1946 -13.1946 -13.1946 -8.93452 -8.93452 -8.93452 -8.93452 -9.72804 -9.72804 -9.72804 -9.72804 -9.6881 -9.6881 -9.6881 -9.6881 -8.97798 -8.97798 -8.97798 -8.97798 -11.5562 -11.5562 -11.5562 -11.5562 -8.42236 -8.42236 -8.42236 -8.42236 -8.57589 -8.57589 -8.57589 -8.57589 -9.94617 -9.94617 -9.94617 -9.94617 -9.6846 -9.6846 -9.6846 -9.6846 -9.52394 -9.52394 -9.52394 -9.52394 -9.72426 -9.72426 -9.72426 -9.72426 -9.83314 -9.83314 -9.83314 -9.83314 -9.46591 -9.46591 -9.46591 -9.46591 -9.53162 -9.53162 -9.53162 -9.53162 -9.88828 -9.88828 -9.88828 -9.88828 -9.53015 -9.53015 -9.53015 -9.53015 -8.97325 -8.97325 -8.97325 -8.97325 -9.60062 -9.60062 -9.60062 -9.60062 -8.79965 -8.79965 -8.79965 -8.79965 -9.42215 -9.42215 -9.42215 -9.42215 -9.55572 -9.55572 -9.55572 -9.55572 -9.59675 -9.59675 -9.59675 -9.59675 -9.48491 -9.48491 -9.48491 -9.48491 -9.93039 -9.93039 -9.93039 -9.93039 -9.79072 -9.79072 -9.79072 -9.79072 -9.03694 -9.03694 -9.03694 -9.03694 -8.80749 -8.80749 -8.80749 -8.80749 -8.18708 -8.18708 -8.18708 -8.18708 -9.44018 -9.44018 -9.44018 -9.44018 -9.61773 -9.61773 -9.61773 -9.61773 -10.5523 -10.5523 -10.5523 -10.5523 -9.96813 -9.96813 -9.96813 -9.96813 -7.13389 -7.13389 -7.13389 -7.13389 -11.7161 -11.7161 -11.7161 -11.7161 -9.53108 -9.53108 -9.53108 -9.53108 -9.59016 -9.59016 -9.59016 -9.59016 -9.63439 -9.63439 -9.63439 -9.63439 -9.31791 -9.31791 -9.31791 -9.31791 -9.42817 -9.42817 -9.42817 -9.42817 -9.64665 -9.64665 -9.64665 -9.64665 -10.6036 -10.6036 -10.6036 -10.6036 -9.34487 -9.34487 -9.34487 -9.34487 -7.88433 -7.88433 -7.88433 -7.88433 -5.89123 -5.89123 -5.89123 -5.89123 -9.59092 -9.59092 -9.59092 -9.59092 -9.52559 -9.52559 -9.52559 -9.52559 -9.94972 -9.94972 -9.94972 -9.94972 -9.19383 -9.19383 -9.19383 -9.19383 -9.54641 -9.54641 -9.54641 -9.54641 -9.81131 -9.81131 -9.81131 -9.81131 -9.73435 -9.73435 -9.73435 -9.73435 -9.48256 -9.48256 -9.48256 -9.48256 -8.93969 -8.93969 -8.93969 -8.93969 -9.23326 -9.23326 -9.23326 -9.23326 -9.55969 -9.55969 -9.55969 -9.55969 -9.83761 -9.83761 -9.83761 -9.83761 -9.70255 -9.70255 -9.70255 -9.70255 -9.02276 -9.02276 -9.02276 -9.02276 -9.90233 -9.90233 -9.90233 -9.90233 -11.7624 -11.7624 -11.7624 -11.7624 -9.87151 -9.87151 -9.87151 -9.87151 -9.5507 -9.5507 -9.5507 -9.5507 -9.42107 -9.42107 -9.42107 -9.42107 -9.79541 -9.79541 -9.79541 -9.79541 -9.16669 -9.16669 -9.16669 -9.16669 -8.28477 -8.28477 -8.28477 -8.28477 -9.98407 -9.98407 -9.98407 -9.98407 -9.4605 -9.4605 -9.4605 -9.4605 -9.37325 -9.37325 -9.37325 -9.37325 -9.47256 -9.47256 -9.47256 -9.47256 -9.2754 -9.2754 -9.2754 -9.2754 -10.0643 -10.0643 -10.0643 -10.0643 -9.78846 -9.78846 -9.78846 -9.78846 -9.39618 -9.39618 -9.39618 -9.39618 -9.46224 -9.46224 -9.46224 -9.46224 -9.82892 -9.82892 -9.82892 -9.82892 -9.45252 -9.45252 -9.45252 -9.45252 -9.98622 -9.98622 -9.98622 -9.98622 -9.88135 -9.88135 -9.88135 -9.88135 -4.45392 -4.45392 -4.45392 -4.45392 -9.65387 -9.65387 -9.65387 -9.65387 -9.94276 -9.94276 -9.94276 -9.94276 -9.43719 -9.43719 -9.43719 -9.43719 -8.95223 -8.95223 -8.95223 -8.95223 -8.98227 -8.98227 -8.98227 -8.98227 -9.60863 -9.60863 -9.60863 -9.60863 -10.262 -10.262 -10.262 -10.262 -8.69188 -8.69188 -8.69188 -8.69188 -11.6939 -11.6939 -11.6939 -11.6939 -8.47361 -8.47361 -8.47361 -8.47361 -8.74745 -8.74745 -8.74745 -8.74745 -4.3828 -4.3828 -4.3828 -4.3828 -8.90722 -8.90722 -8.90722 -8.90722 -9.31161 -9.31161 -9.31161 -9.31161 -9.34914 -9.34914 -9.34914 -9.34914 -7.99835 -7.99835 -7.99835 -7.99835 -9.94139 -9.94139 -9.94139 -9.94139 -9.4797 -9.4797 -9.4797 -9.4797 -9.02061 -9.02061 -9.02061 -9.02061 -9.59784 -9.59784 -9.59784 -9.59784 -9.86192 -9.86192 -9.86192 -9.86192 -9.05599 -9.05599 -9.05599 -9.05599 -9.8494 -9.8494 -9.8494 -9.8494 -9.933 -9.933 -9.933 -9.933 -9.54641 -9.54641 -9.54641 -9.54641 -8.67594 -8.67594 -8.67594 -8.67594 -2.16614 -2.16614 -2.16614 -2.16614 -9.22233 -9.22233 -9.22233 -9.22233 -10.0671 -10.0671 -10.0671 -10.0671 -9.51701 -9.51701 -9.51701 -9.51701 -8.27265 -8.27265 -8.27265 -8.27265 -9.7463 -9.7463 -9.7463 -9.7463 -8.75757 -8.75757 -8.75757 -8.75757 -9.7896 -9.7896 -9.7896 -9.7896 -9.62512 -9.62512 -9.62512 -9.62512 -8.84308 -8.84308 -8.84308 -8.84308 -9.65258 -9.65258 -9.65258 -9.65258 -9.86627 -9.86627 -9.86627 -9.86627 -8.94795 -8.94795 -8.94795 -8.94795 -9.68093 -9.68093 -9.68093 -9.68093 -9.532 -9.532 -9.532 -9.532 -9.81671 -9.81671 -9.81671 -9.81671 -10.0082 -10.0082 -10.0082 -10.0082 -10.0047 -10.0047 -10.0047 -10.0047 -9.54525 -9.54525 -9.54525 -9.54525 -9.35076 -9.35076 -9.35076 -9.35076 -9.95371 -9.95371 -9.95371 -9.95371 -9.59287 -9.59287 -9.59287 -9.59287 -9.71457 -9.71457 -9.71457 -9.71457 -9.11534 -9.11534 -9.11534 -9.11534 -11.985 -11.985 -11.985 -11.985 -9.37373 -9.37373 -9.37373 -9.37373 -9.84196 -9.84196 -9.84196 -9.84196 -7.54049 -7.54049 -7.54049 -7.54049 -9.95305 -9.95305 -9.95305 -9.95305 -9.6349 -9.6349 -9.6349 -9.6349 -9.39416 -9.39416 -9.39416 -9.39416 -9.82298 -9.82298 -9.82298 -9.82298 -9.47701 -9.47701 -9.47701 -9.47701 -9.28827 -9.28827 -9.28827 -9.28827 -9.27867 -9.27867 -9.27867 -9.27867 -9.84672 -9.84672 -9.84672 -9.84672 -8.84885 -8.84885 -8.84885 -8.84885 -8.82163 -8.82163 -8.82163 -8.82163 -9.83284 -9.83284 -9.83284 -9.83284 -9.77143 -9.77143 -9.77143 -9.77143 -9.96494 -9.96494 -9.96494 -9.96494 -7.62386 -7.62386 -7.62386 -7.62386 -9.82644 -9.82644 -9.82644 -9.82644 -3.84132 -3.84132 -3.84132 -3.84132 -9.87957 -9.87957 -9.87957 -9.87957 -9.6644 -9.6644 -9.6644 -9.6644 -9.92478 -9.92478 -9.92478 -9.92478 -9.25919 -9.25919 -9.25919 -9.25919 -8.2328 -8.2328 -8.2328 -8.2328 -9.0015 -9.0015 -9.0015 -9.0015 -9.43974 -9.43974 -9.43974 -9.43974 -8.88381 -8.88381 -8.88381 -8.88381 -9.77657 -9.77657 -9.77657 -9.77657 -4.05588 -4.05588 -4.05588 -4.05588 -11.8489 -11.8489 -11.8489 -11.8489 -9.93568 -9.93568 -9.93568 -9.93568 -9.54015 -9.54015 -9.54015 -9.54015 -10.5425 -10.5425 -10.5425 -10.5425 -4.96963 -4.96963 -4.96963 -4.96963 -9.94272 -9.94272 -9.94272 -9.94272 -9.70614 -9.70614 -9.70614 -9.70614 -9.75096 -9.75096 -9.75096 -9.75096 -9.84619 -9.84619 -9.84619 -9.84619 -9.49144 -9.49144 -9.49144 -9.49144 -10.2113 -10.2113 -10.2113 -10.2113 -9.64973 -9.64973 -9.64973 -9.64973 -9.3645 -9.3645 -9.3645 -9.3645 -9.66078 -9.66078 -9.66078 -9.66078 -5.47262 -5.47262 -5.47262 -5.47262 -9.61667 -9.61667 -9.61667 -9.61667 -9.5718 -9.5718 -9.5718 -9.5718 -9.86097 -9.86097 -9.86097 -9.86097 -9.2006 -9.2006 -9.2006 -9.2006 -9.32228 -9.32228 -9.32228 -9.32228 -8.78306 -8.78306 -8.78306 -8.78306 -9.44752 -9.44752 -9.44752 -9.44752 -9.59429 -9.59429 -9.59429 -9.59429 -9.29663 -9.29663 -9.29663 -9.29663 -9.83873 -9.83873 -9.83873 -9.83873 -9.56282 -9.56282 -9.56282 -9.56282 -10.2327 -10.2327 -10.2327 -10.2327 -9.92993 -9.92993 -9.92993 -9.92993 -8.86783 -8.86783 -8.86783 -8.86783 -8.37258 -8.37258 -8.37258 -8.37258 -9.84319 -9.84319 -9.84319 -9.84319 -9.62804 -9.62804 -9.62804 -9.62804 -9.77285 -9.77285 -9.77285 -9.77285 -9.57543 -9.57543 -9.57543 -9.57543 -9.55222 -9.55222 -9.55222 -9.55222 -9.65426 -9.65426 -9.65426 -9.65426 -8.73043 -8.73043 -8.73043 -8.73043 -8.93647 -8.93647 -8.93647 -8.93647 -9.95557 -9.95557 -9.95557 -9.95557 -9.342 -9.342 -9.342 -9.342 -8.64425 -8.64425 -8.64425 -8.64425 -2.26364 -2.26364 -2.26364 -2.26364 -9.76658 -9.76658 -9.76658 -9.76658 -11.6318 -11.6318 -11.6318 -11.6318 -9.08851 -9.08851 -9.08851 -9.08851 -9.79402 -9.79402 -9.79402 -9.79402 -11.0779 -11.0779 -11.0779 -11.0779 -9.50901 -9.50901 -9.50901 -9.50901 -9.89404 -9.89404 -9.89404 -9.89404 -10.2242 -10.2242 -10.2242 -10.2242 -9.95039 -9.95039 -9.95039 -9.95039 -9.93903 -9.93903 -9.93903 -9.93903 -9.32064 -9.32064 -9.32064 -9.32064 -11.1414 -11.1414 -11.1414 -11.1414 -9.27193 -9.27193 -9.27193 -9.27193 -6.69517 -6.69517 -6.69517 -6.69517 -9.4247 -9.4247 -9.4247 -9.4247 -9.4329 -9.4329 -9.4329 -9.4329 -7.18124 -7.18124 -7.18124 -7.18124 -9.87413 -9.87413 -9.87413 -9.87413 -9.60637 -9.60637 -9.60637 -9.60637 -9.57293 -9.57293 -9.57293 -9.57293 -9.85187 -9.85187 -9.85187 -9.85187 -10.2067 -10.2067 -10.2067 -10.2067 -11.4468 -11.4468 -11.4468 -11.4468 -9.37698 -9.37698 -9.37698 -9.37698 -9.90168 -9.90168 -9.90168 -9.90168 -12.8769 -12.8769 -12.8769 -12.8769 -9.53399 -9.53399 -9.53399 -9.53399 -8.6764 -8.6764 -8.6764 -8.6764 -9.60394 -9.60394 -9.60394 -9.60394 -8.9053 -8.9053 -8.9053 -8.9053 -8.72897 -8.72897 -8.72897 -8.72897 -9.44447 -9.44447 -9.44447 -9.44447 -9.83014 -9.83014 -9.83014 -9.83014 -9.45824 -9.45824 -9.45824 -9.45824 -8.37313 -8.37313 -8.37313 -8.37313 -10.1247 -10.1247 -10.1247 -10.1247 -9.70619 -9.70619 -9.70619 -9.70619 -3.01426 -3.01426 -3.01426 -3.01426 -9.65173 -9.65173 -9.65173 -9.65173 -11.2996 -11.2996 -11.2996 -11.2996 -9.40024 -9.40024 -9.40024 -9.40024 -9.58348 -9.58348 -9.58348 -9.58348 -9.9322 -9.9322 -9.9322 -9.9322 -9.70344 -9.70344 -9.70344 -9.70344 -9.77038 -9.77038 -9.77038 -9.77038 -9.7858 -9.7858 -9.7858 -9.7858 -13.0481 -13.0481 -13.0481 -13.0481 -9.59336 -9.59336 -9.59336 -9.59336 -9.58547 -9.58547 -9.58547 -9.58547 -9.61852 -9.61852 -9.61852 -9.61852 -9.08434 -9.08434 -9.08434 -9.08434 -9.58127 -9.58127 -9.58127 -9.58127 -8.5715 -8.5715 -8.5715 -8.5715 -9.79051 -9.79051 -9.79051 -9.79051 -9.93831 -9.93831 -9.93831 -9.93831 -7.07508 -7.07508 -7.07508 -7.07508 -9.91052 -9.91052 -9.91052 -9.91052 -10.1412 -10.1412 -10.1412 -10.1412 -9.31736 -9.31736 -9.31736 -9.31736 -9.87095 -9.87095 -9.87095 -9.87095 -9.79362 -9.79362 -9.79362 -9.79362 -9.65422 -9.65422 -9.65422 -9.65422 -9.84743 -9.84743 -9.84743 -9.84743 -9.2436 -9.2436 -9.2436 -9.2436 -9.85607 -9.85607 -9.85607 -9.85607 -9.81469 -9.81469 -9.81469 -9.81469 -7.9844 -7.9844 -7.9844 -7.9844 -9.28312 -9.28312 -9.28312 -9.28312 -7.70205 -7.70205 -7.70205 -7.70205 -10.9856 -10.9856 -10.9856 -10.9856 -9.36573 -9.36573 -9.36573 -9.36573 -11.0663 -11.0663 -11.0663 -11.0663 -5.67447 -5.67447 -5.67447 -5.67447 -9.36168 -9.36168 -9.36168 -9.36168 -8.23673 -8.23673 -8.23673 -8.23673 -9.06607 -9.06607 -9.06607 -9.06607 -9.28765 -9.28765 -9.28765 -9.28765 -9.32385 -9.32385 -9.32385 -9.32385 -9.94331 -9.94331 -9.94331 -9.94331 -9.48276 -9.48276 -9.48276 -9.48276 -9.07517 -9.07517 -9.07517 -9.07517 -8.85831 -8.85831 -8.85831 -8.85831 -9.73234 -9.73234 -9.73234 -9.73234 -9.42884 -9.42884 -9.42884 -9.42884 -9.86933 -9.86933 -9.86933 -9.86933 -9.66702 -9.66702 -9.66702 -9.66702 -9.86244 -9.86244 -9.86244 -9.86244 -9.92797 -9.92797 -9.92797 -9.92797 -9.81159 -9.81159 -9.81159 -9.81159 -9.96695 -9.96695 -9.96695 -9.96695 -9.66187 -9.66187 -9.66187 -9.66187 -9.07108 -9.07108 -9.07108 -9.07108 -9.44727 -9.44727 -9.44727 -9.44727 -9.8666 -9.8666 -9.8666 -9.8666 -9.30346 -9.30346 -9.30346 -9.30346 -12.9906 -12.9906 -12.9906 -12.9906 -2.14407 -2.14407 -2.14407 -2.14407 -11.8434 -11.8434 -11.8434 -11.8434 -10.9157 -10.9157 -10.9157 -10.9157 -9.73926 -9.73926 -9.73926 -9.73926 -12.3798 -12.3798 -12.3798 -12.3798 -9.53943 -9.53943 -9.53943 -9.53943 -4.6958 -4.6958 -4.6958 -4.6958 -9.4878 -9.4878 -9.4878 -9.4878 -9.14148 -9.14148 -9.14148 -9.14148 -9.85384 -9.85384 -9.85384 -9.85384 -8.25872 -8.25872 -8.25872 -8.25872 -9.82116 -9.82116 -9.82116 -9.82116 -9.86476 -9.86476 -9.86476 -9.86476 -8.44924 -8.44924 -8.44924 -8.44924 -8.98101 -8.98101 -8.98101 -8.98101 -9.38011 -9.38011 -9.38011 -9.38011 -10.0946 -10.0946 -10.0946 -10.0946 -9.72491 -9.72491 -9.72491 -9.72491 -9.70328 -9.70328 -9.70328 -9.70328 -9.46859 -9.46859 -9.46859 -9.46859 -9.26782 -9.26782 -9.26782 -9.26782 -9.65152 -9.65152 -9.65152 -9.65152 -2.67768 -2.67768 -2.67768 -2.67768 -5.02729 -5.02729 -5.02729 -5.02729 -11.4499 -11.4499 -11.4499 -11.4499 -9.23997 -9.23997 -9.23997 -9.23997 -9.46277 -9.46277 -9.46277 -9.46277 -8.07873 -8.07873 -8.07873 -8.07873 -9.92154 -9.92154 -9.92154 -9.92154 -9.1951 -9.1951 -9.1951 -9.1951 -9.87683 -9.87683 -9.87683 -9.87683 -11.2028 -11.2028 -11.2028 -11.2028 -9.2218 -9.2218 -9.2218 -9.2218 -9.94969 -9.94969 -9.94969 -9.94969 -9.5831 -9.5831 -9.5831 -9.5831 -9.89144 -9.89144 -9.89144 -9.89144 -9.4904 -9.4904 -9.4904 -9.4904 -9.43099 -9.43099 -9.43099 -9.43099 -9.37531 -9.37531 -9.37531 -9.37531 -9.6431 -9.6431 -9.6431 -9.6431 -9.44654 -9.44654 -9.44654 -9.44654 -9.44592 -9.44592 -9.44592 -9.44592 -9.52781 -9.52781 -9.52781 -9.52781 -9.73297 -9.73297 -9.73297 -9.73297 -9.9194 -9.9194 -9.9194 -9.9194 -9.18493 -9.18493 -9.18493 -9.18493 -9.92147 -9.92147 -9.92147 -9.92147 -8.85737 -8.85737 -8.85737 -8.85737 -9.74835 -9.74835 -9.74835 -9.74835 -9.44929 -9.44929 -9.44929 -9.44929 -9.4821 -9.4821 -9.4821 -9.4821 -9.38535 -9.38535 -9.38535 -9.38535 -9.48245 -9.48245 -9.48245 -9.48245 -8.85769 -8.85769 -8.85769 -8.85769 -9.87595 -9.87595 -9.87595 -9.87595 -9.86532 -9.86532 -9.86532 -9.86532 -9.72819 -9.72819 -9.72819 -9.72819 -9.81623 -9.81623 -9.81623 -9.81623 -9.83913 -9.83913 -9.83913 -9.83913 -9.69249 -9.69249 -9.69249 -9.69249 -9.60558 -9.60558 -9.60558 -9.60558 -8.39937 -8.39937 -8.39937 -8.39937 -9.34397 -9.34397 -9.34397 -9.34397 -9.63316 -9.63316 -9.63316 -9.63316 -9.93747 -9.93747 -9.93747 -9.93747 -2.42232 -2.42232 -2.42232 -2.42232 -9.17939 -9.17939 -9.17939 -9.17939 -9.39716 -9.39716 -9.39716 -9.39716 -9.59392 -9.59392 -9.59392 -9.59392 -9.43816 -9.43816 -9.43816 -9.43816 -10.1824 -10.1824 -10.1824 -10.1824 -9.80953 -9.80953 -9.80953 -9.80953 -9.65068 -9.65068 -9.65068 -9.65068 -8.92286 -8.92286 -8.92286 -8.92286 -9.76631 -9.76631 -9.76631 -9.76631 -9.37564 -9.37564 -9.37564 -9.37564 -9.59267 -9.59267 -9.59267 -9.59267 -9.70394 -9.70394 -9.70394 -9.70394 -7.69657 -7.69657 -7.69657 -7.69657 -9.09711 -9.09711 -9.09711 -9.09711 -7.60206 -7.60206 -7.60206 -7.60206 -3.35423 -3.35423 -3.35423 -3.35423 -9.70234 -9.70234 -9.70234 -9.70234 -9.93469 -9.93469 -9.93469 -9.93469 -5.05791 -5.05791 -5.05791 -5.05791 -7.85621 -7.85621 -7.85621 -7.85621 -9.54707 -9.54707 -9.54707 -9.54707 -8.90639 -8.90639 -8.90639 -8.90639 -9.28186 -9.28186 -9.28186 -9.28186 -9.94494 -9.94494 -9.94494 -9.94494 -10.0918 -10.0918 -10.0918 -10.0918 -8.3554 -8.3554 -8.3554 -8.3554 -9.94315 -9.94315 -9.94315 -9.94315 -9.70132 -9.70132 -9.70132 -9.70132 -6.63619 -6.63619 -6.63619 -6.63619 -6.7197 -6.7197 -6.7197 -6.7197 -8.97045 -8.97045 -8.97045 -8.97045 -9.7716 -9.7716 -9.7716 -9.7716 -9.85672 -9.85672 -9.85672 -9.85672 -9.67775 -9.67775 -9.67775 -9.67775 -9.83368 -9.83368 -9.83368 -9.83368 -8.31861 -8.31861 -8.31861 -8.31861 -9.9338 -9.9338 -9.9338 -9.9338 -9.73429 -9.73429 -9.73429 -9.73429 -7.85243 -7.85243 -7.85243 -7.85243 -9.77778 -9.77778 -9.77778 -9.77778 -10.2936 -10.2936 -10.2936 -10.2936 -9.87214 -9.87214 -9.87214 -9.87214 -9.53865 -9.53865 -9.53865 -9.53865 -7.10417 -7.10417 -7.10417 -7.10417 -9.91112 -9.91112 -9.91112 -9.91112 -9.22942 -9.22942 -9.22942 -9.22942 -8.34682 -8.34682 -8.34682 -8.34682 -9.96159 -9.96159 -9.96159 -9.96159 -8.80472 -8.80472 -8.80472 -8.80472 -9.84922 -9.84922 -9.84922 -9.84922 -10.6622 -10.6622 -10.6622 -10.6622 -9.51887 -9.51887 -9.51887 -9.51887 -6.68241 -6.68241 -6.68241 -6.68241 -9.68411 -9.68411 -9.68411 -9.68411 -9.8359 -9.8359 -9.8359 -9.8359 -9.61146 -9.61146 -9.61146 -9.61146 -9.76244 -9.76244 -9.76244 -9.76244 -9.8107 -9.8107 -9.8107 -9.8107 -9.82531 -9.82531 -9.82531 -9.82531 -9.76166 -9.76166 -9.76166 -9.76166 -8.31292 -8.31292 -8.31292 -8.31292 -9.47603 -9.47603 -9.47603 -9.47603 -9.80841 -9.80841 -9.80841 -9.80841 -13.3091 -13.3091 -13.3091 -13.3091 -6.36541 -6.36541 -6.36541 -6.36541 -9.55244 -9.55244 -9.55244 -9.55244 -9.66349 -9.66349 -9.66349 -9.66349 -9.86861 -9.86861 -9.86861 -9.86861 -7.40926 -7.40926 -7.40926 -7.40926 -9.68141 -9.68141 -9.68141 -9.68141 -9.77362 -9.77362 -9.77362 -9.77362 -9.90995 -9.90995 -9.90995 -9.90995 -8.32914 -8.32914 -8.32914 -8.32914 -8.80351 -8.80351 -8.80351 -8.80351 -9.48879 -9.48879 -9.48879 -9.48879 -8.50344 -8.50344 -8.50344 -8.50344 -8.93287 -8.93287 -8.93287 -8.93287 -10.1941 -10.1941 -10.1941 -10.1941 -9.25371 -9.25371 -9.25371 -9.25371 -9.95528 -9.95528 -9.95528 -9.95528 -9.85256 -9.85256 -9.85256 -9.85256 -9.14172 -9.14172 -9.14172 -9.14172 -9.12744 -9.12744 -9.12744 -9.12744 -9.03634 -9.03634 -9.03634 -9.03634 -9.57606 -9.57606 -9.57606 -9.57606 -9.79505 -9.79505 -9.79505 -9.79505 -8.98573 -8.98573 -8.98573 -8.98573 -6.43456 -6.43456 -6.43456 -6.43456 -9.45081 -9.45081 -9.45081 -9.45081 -9.94385 -9.94385 -9.94385 -9.94385 -9.24902 -9.24902 -9.24902 -9.24902 -13.5643 -13.5643 -13.5643 -13.5643 -9.53329 -9.53329 -9.53329 -9.53329 -9.89188 -9.89188 -9.89188 -9.89188 -4.84854 -4.84854 -4.84854 -4.84854 -9.8465 -9.8465 -9.8465 -9.8465 -10.795 -10.795 -10.795 -10.795 -6.63208 -6.63208 -6.63208 -6.63208 -9.54744 -9.54744 -9.54744 -9.54744 -9.4325 -9.4325 -9.4325 -9.4325 -9.84581 -9.84581 -9.84581 -9.84581 -9.69768 -9.69768 -9.69768 -9.69768 -9.88321 -9.88321 -9.88321 -9.88321 -9.82087 -9.82087 -9.82087 -9.82087 -8.97632 -8.97632 -8.97632 -8.97632 -9.42198 -9.42198 -9.42198 -9.42198 -9.72867 -9.72867 -9.72867 -9.72867 -9.95483 -9.95483 -9.95483 -9.95483 -9.65757 -9.65757 -9.65757 -9.65757 -9.4878 -9.4878 -9.4878 -9.4878 -9.47126 -9.47126 -9.47126 -9.47126 -9.8704 -9.8704 -9.8704 -9.8704 -9.64467 -9.64467 -9.64467 -9.64467 -9.83921 -9.83921 -9.83921 -9.83921 -9.94189 -9.94189 -9.94189 -9.94189 -12.1193 -12.1193 -12.1193 -12.1193 -10.5738 -10.5738 -10.5738 -10.5738 -4.28309 -4.28309 -4.28309 -4.28309 -9.7231 -9.7231 -9.7231 -9.7231 -9.60192 -9.60192 -9.60192 -9.60192 -9.77128 -9.77128 -9.77128 -9.77128 -8.42522 -8.42522 -8.42522 -8.42522 -9.82355 -9.82355 -9.82355 -9.82355 -9.89057 -9.89057 -9.89057 -9.89057 -9.83276 -9.83276 -9.83276 -9.83276 -9.14735 -9.14735 -9.14735 -9.14735 -9.72776 -9.72776 -9.72776 -9.72776 -8.73805 -8.73805 -8.73805 -8.73805 -9.85234 -9.85234 -9.85234 -9.85234 -5.17022 -5.17022 -5.17022 -5.17022 -9.5278 -9.5278 -9.5278 -9.5278 -8.3909 -8.3909 -8.3909 -8.3909 -9.95113 -9.95113 -9.95113 -9.95113 -8.07661 -8.07661 -8.07661 -8.07661 -9.08169 -9.08169 -9.08169 -9.08169 -9.27855 -9.27855 -9.27855 -9.27855 -9.55448 -9.55448 -9.55448 -9.55448 -9.54888 -9.54888 -9.54888 -9.54888 -9.42416 -9.42416 -9.42416 -9.42416 -4.78705 -4.78705 -4.78705 -4.78705 -9.07438 -9.07438 -9.07438 -9.07438 -9.2845 -9.2845 -9.2845 -9.2845 -4.39519 -4.39519 -4.39519 -4.39519 -8.66485 -8.66485 -8.66485 -8.66485 -9.96052 -9.96052 -9.96052 -9.96052 -9.02971 -9.02971 -9.02971 -9.02971 -9.33726 -9.33726 -9.33726 -9.33726 -4.68313 -4.68313 -4.68313 -4.68313 -9.50415 -9.50415 -9.50415 -9.50415 -8.80463 -8.80463 -8.80463 -8.80463 -11.5139 -11.5139 -11.5139 -11.5139 -9.43127 -9.43127 -9.43127 -9.43127 -9.51566 -9.51566 -9.51566 -9.51566 -9.85996 -9.85996 -9.85996 -9.85996 -9.76309 -9.76309 -9.76309 -9.76309 -7.87651 -7.87651 -7.87651 -7.87651 -2.6693 -2.6693 -2.6693 -2.6693 -9.88782 -9.88782 -9.88782 -9.88782 -10.7521 -10.7521 -10.7521 -10.7521 -9.6082 -9.6082 -9.6082 -9.6082 -10.2437 -10.2437 -10.2437 -10.2437 -11.1547 -11.1547 -11.1547 -11.1547 -9.89512 -9.89512 -9.89512 -9.89512 -9.81299 -9.81299 -9.81299 -9.81299 -9.92898 -9.92898 -9.92898 -9.92898 -9.85865 -9.85865 -9.85865 -9.85865 -3.89131 -3.89131 -3.89131 -3.89131 -9.94078 -9.94078 -9.94078 -9.94078 -9.70832 -9.70832 -9.70832 -9.70832 -9.50848 -9.50848 -9.50848 -9.50848 -7.44594 -7.44594 -7.44594 -7.44594 -9.6 -9.6 -9.6 -9.6 -9.95353 -9.95353 -9.95353 -9.95353 -3.4299 -3.4299 -3.4299 -3.4299 -9.62254 -9.62254 -9.62254 -9.62254 -9.87627 -9.87627 -9.87627 -9.87627 -9.80666 -9.80666 -9.80666 -9.80666 -9.82299 -9.82299 -9.82299 -9.82299 -3.23048 -3.23048 -3.23048 -3.23048 -9.9556 -9.9556 -9.9556 -9.9556 -8.57995 -8.57995 -8.57995 -8.57995 -8.9829 -8.9829 -8.9829 -8.9829 -3.41377 -3.41377 -3.41377 -3.41377 -9.14027 -9.14027 -9.14027 -9.14027 -9.86127 -9.86127 -9.86127 -9.86127 -9.7093 -9.7093 -9.7093 -9.7093 -9.84392 -9.84392 -9.84392 -9.84392 -9.21438 -9.21438 -9.21438 -9.21438 -9.57437 -9.57437 -9.57437 -9.57437 -9.21243 -9.21243 -9.21243 -9.21243 -9.45302 -9.45302 -9.45302 -9.45302 -9.62404 -9.62404 -9.62404 -9.62404 -9.56232 -9.56232 -9.56232 -9.56232 -7.19324 -7.19324 -7.19324 -7.19324 -9.94651 -9.94651 -9.94651 -9.94651 -9.32117 -9.32117 -9.32117 -9.32117 -9.25991 -9.25991 -9.25991 -9.25991 -9.60291 -9.60291 -9.60291 -9.60291 -9.24637 -9.24637 -9.24637 -9.24637 -9.35849 -9.35849 -9.35849 -9.35849 -9.66051 -9.66051 -9.66051 -9.66051 -9.18487 -9.18487 -9.18487 -9.18487 -8.96522 -8.96522 -8.96522 -8.96522 -10.9835 -10.9835 -10.9835 -10.9835 -9.96481 -9.96481 -9.96481 -9.96481 -9.61188 -9.61188 -9.61188 -9.61188 -9.51409 -9.51409 -9.51409 -9.51409 -9.57956 -9.57956 -9.57956 -9.57956 -8.4954 -8.4954 -8.4954 -8.4954 -9.9404 -9.9404 -9.9404 -9.9404 -9.03106 -9.03106 -9.03106 -9.03106 -4.91169 -4.91169 -4.91169 -4.91169 -10.1966 -10.1966 -10.1966 -10.1966 -9.5498 -9.5498 -9.5498 -9.5498 -3.88054 -3.88054 -3.88054 -3.88054 -9.63991 -9.63991 -9.63991 -9.63991 -11.3538 -11.3538 -11.3538 -11.3538 -11.4472 -11.4472 -11.4472 -11.4472 -3.5557 -3.5557 -3.5557 -3.5557 -9.32543 -9.32543 -9.32543 -9.32543 -9.76868 -9.76868 -9.76868 -9.76868 -8.51317 -8.51317 -8.51317 -8.51317 -9.9136 -9.9136 -9.9136 -9.9136 -9.62359 -9.62359 -9.62359 -9.62359 -3.84249 -3.84249 -3.84249 -3.84249 -9.66725 -9.66725 -9.66725 -9.66725 -9.50496 -9.50496 -9.50496 -9.50496 -9.96089 -9.96089 -9.96089 -9.96089 -9.88277 -9.88277 -9.88277 -9.88277 -7.98293 -7.98293 -7.98293 -7.98293 -9.96496 -9.96496 -9.96496 -9.96496 -8.72153 -8.72153 -8.72153 -8.72153 -5.32496 -5.32496 -5.32496 -5.32496 -9.58875 -9.58875 -9.58875 -9.58875 -9.74061 -9.74061 -9.74061 -9.74061 -9.35161 -9.35161 -9.35161 -9.35161 -9.92185 -9.92185 -9.92185 -9.92185 -9.38708 -9.38708 -9.38708 -9.38708 -9.61527 -9.61527 -9.61527 -9.61527 -9.02016 -9.02016 -9.02016 -9.02016 -9.83703 -9.83703 -9.83703 -9.83703 -10.4826 -10.4826 -10.4826 -10.4826 -10.8916 -10.8916 -10.8916 -10.8916 -3.06989 -3.06989 -3.06989 -3.06989 -9.57283 -9.57283 -9.57283 -9.57283 -8.63384 -8.63384 -8.63384 -8.63384 -9.95169 -9.95169 -9.95169 -9.95169 -5.15846 -5.15846 -5.15846 -5.15846 -2.83735 -2.83735 -2.83735 -2.83735 -9.97218 -9.97218 -9.97218 -9.97218 -9.87908 -9.87908 -9.87908 -9.87908 -9.111 -9.111 -9.111 -9.111 -8.55177 -8.55177 -8.55177 -8.55177 -10.6168 -10.6168 -10.6168 -10.6168 -7.8165 -7.8165 -7.8165 -7.8165 -9.72442 -9.72442 -9.72442 -9.72442 -11.545 -11.545 -11.545 -11.545 -9.95134 -9.95134 -9.95134 -9.95134 -9.64191 -9.64191 -9.64191 -9.64191 -9.94157 -9.94157 -9.94157 -9.94157 -9.70363 -9.70363 -9.70363 -9.70363 -9.03747 -9.03747 -9.03747 -9.03747 -9.70894 -9.70894 -9.70894 -9.70894 -4.76546 -4.76546 -4.76546 -4.76546 -9.17149 -9.17149 -9.17149 -9.17149 -9.35319 -9.35319 -9.35319 -9.35319 -9.52525 -9.52525 -9.52525 -9.52525 -9.71553 -9.71553 -9.71553 -9.71553 -9.40781 -9.40781 -9.40781 -9.40781 -9.89803 -9.89803 -9.89803 -9.89803 -7.98626 -7.98626 -7.98626 -7.98626 -8.15159 -8.15159 -8.15159 -8.15159 -9.87081 -9.87081 -9.87081 -9.87081 -8.70401 -8.70401 -8.70401 -8.70401 -9.85539 -9.85539 -9.85539 -9.85539 -9.45487 -9.45487 -9.45487 -9.45487 -9.97039 -9.97039 -9.97039 -9.97039 -9.896 -9.896 -9.896 -9.896 -1.76871 -1.76871 -1.76871 -1.76871 -9.60304 -9.60304 -9.60304 -9.60304 -9.93089 -9.93089 -9.93089 -9.93089 -9.21606 -9.21606 -9.21606 -9.21606 -9.85737 -9.85737 -9.85737 -9.85737 -9.96413 -9.96413 -9.96413 -9.96413 -9.59805 -9.59805 -9.59805 -9.59805 -9.62705 -9.62705 -9.62705 -9.62705 -11.6723 -11.6723 -11.6723 -11.6723 -9.28953 -9.28953 -9.28953 -9.28953 -6.57578 -6.57578 -6.57578 -6.57578 -9.74466 -9.74466 -9.74466 -9.74466 -12.981 -12.981 -12.981 -12.981 -9.91365 -9.91365 -9.91365 -9.91365 -9.67664 -9.67664 -9.67664 -9.67664 -9.64286 -9.64286 -9.64286 -9.64286 -9.62476 -9.62476 -9.62476 -9.62476 -9.93086 -9.93086 -9.93086 -9.93086 -9.48201 -9.48201 -9.48201 -9.48201 -2.2546 -2.2546 -2.2546 -2.2546 -3.42415 -3.42415 -3.42415 -3.42415 -9.49579 -9.49579 -9.49579 -9.49579 -9.9298 -9.9298 -9.9298 -9.9298 -9.07638 -9.07638 -9.07638 -9.07638 -8.90046 -8.90046 -8.90046 -8.90046 -9.40379 -9.40379 -9.40379 -9.40379 -9.58171 -9.58171 -9.58171 -9.58171 -9.95804 -9.95804 -9.95804 -9.95804 -8.2465 -8.2465 -8.2465 -8.2465 -9.6754 -9.6754 -9.6754 -9.6754 -9.86517 -9.86517 -9.86517 -9.86517 -10.2812 -10.2812 -10.2812 -10.2812 -9.01823 -9.01823 -9.01823 -9.01823 -9.93016 -9.93016 -9.93016 -9.93016 -9.88065 -9.88065 -9.88065 -9.88065 -7.54897 -7.54897 -7.54897 -7.54897 -7.95487 -7.95487 -7.95487 -7.95487 -9.94865 -9.94865 -9.94865 -9.94865 -9.08817 -9.08817 -9.08817 -9.08817 -9.93423 -9.93423 -9.93423 -9.93423 -9.60234 -9.60234 -9.60234 -9.60234 -9.96159 -9.96159 -9.96159 -9.96159 -9.66798 -9.66798 -9.66798 -9.66798 -9.909 -9.909 -9.909 -9.909 -9.74873 -9.74873 -9.74873 -9.74873 -9.82077 -9.82077 -9.82077 -9.82077 -9.49465 -9.49465 -9.49465 -9.49465 -9.96829 -9.96829 -9.96829 -9.96829 -9.96774 -9.96774 -9.96774 -9.96774 -9.94713 -9.94713 -9.94713 -9.94713 -9.18787 -9.18787 -9.18787 -9.18787 -9.94658 -9.94658 -9.94658 -9.94658 -9.70194 -9.70194 -9.70194 -9.70194 -9.55696 -9.55696 -9.55696 -9.55696 -9.52375 -9.52375 -9.52375 -9.52375 -9.01105 -9.01105 -9.01105 -9.01105 -6.8927 -6.8927 -6.8927 -6.8927 -9.75694 -9.75694 -9.75694 -9.75694 -9.95533 -9.95533 -9.95533 -9.95533 -9.72776 -9.72776 -9.72776 -9.72776 -9.38725 -9.38725 -9.38725 -9.38725 -9.95075 -9.95075 -9.95075 -9.95075 -8.87847 -8.87847 -8.87847 -8.87847 -8.90548 -8.90548 -8.90548 -8.90548 -9.80195 -9.80195 -9.80195 -9.80195 -9.90984 -9.90984 -9.90984 -9.90984 -9.59559 -9.59559 -9.59559 -9.59559 -10.0949 -10.0949 -10.0949 -10.0949 -9.70211 -9.70211 -9.70211 -9.70211 -9.97436 -9.97436 -9.97436 -9.97436 -9.26751 -9.26751 -9.26751 -9.26751 -9.6673 -9.6673 -9.6673 -9.6673 -9.47543 -9.47543 -9.47543 -9.47543 -10.9038 -10.9038 -10.9038 -10.9038 -9.88195 -9.88195 -9.88195 -9.88195 -9.2417 -9.2417 -9.2417 -9.2417 -4.1292 -4.1292 -4.1292 -4.1292 -9.46796 -9.46796 -9.46796 -9.46796 -10.7546 -10.7546 -10.7546 -10.7546 -9.92677 -9.92677 -9.92677 -9.92677 -9.12956 -9.12956 -9.12956 -9.12956 -9.84135 -9.84135 -9.84135 -9.84135 -9.65475 -9.65475 -9.65475 -9.65475 -9.42658 -9.42658 -9.42658 -9.42658 -9.94805 -9.94805 -9.94805 -9.94805 -2.59641 -2.59641 -2.59641 -2.59641 -9.9178 -9.9178 -9.9178 -9.9178 -9.61004 -9.61004 -9.61004 -9.61004 -9.66193 -9.66193 -9.66193 -9.66193 -9.7987 -9.7987 -9.7987 -9.7987 -9.41059 -9.41059 -9.41059 -9.41059 -9.77044 -9.77044 -9.77044 -9.77044 -9.86186 -9.86186 -9.86186 -9.86186 -8.43542 -8.43542 -8.43542 -8.43542 -7.60312 -7.60312 -7.60312 -7.60312 -6.03617 -6.03617 -6.03617 -6.03617 -9.68412 -9.68412 -9.68412 -9.68412 -6.64614 -6.64614 -6.64614 -6.64614 -9.57914 -9.57914 -9.57914 -9.57914 -9.89568 -9.89568 -9.89568 -9.89568 -9.80609 -9.80609 -9.80609 -9.80609 -10.5298 -10.5298 -10.5298 -10.5298 -9.60717 -9.60717 -9.60717 -9.60717 -13.7302 -13.7302 -13.7302 -13.7302 -3.66008 -3.66008 -3.66008 -3.66008 -9.89029 -9.89029 -9.89029 -9.89029 -9.67455 -9.67455 -9.67455 -9.67455 -6.79391 -6.79391 -6.79391 -6.79391 -12.9799 -12.9799 -12.9799 -12.9799 -9.21554 -9.21554 -9.21554 -9.21554 -9.96569 -9.96569 -9.96569 -9.96569 -9.00043 -9.00043 -9.00043 -9.00043 -9.96111 -9.96111 -9.96111 -9.96111 -9.78555 -9.78555 -9.78555 -9.78555 -9.11463 -9.11463 -9.11463 -9.11463 -9.78543 -9.78543 -9.78543 -9.78543 -9.88403 -9.88403 -9.88403 -9.88403 -11.5416 -11.5416 -11.5416 -11.5416 -8.43158 -8.43158 -8.43158 -8.43158 -9.88341 -9.88341 -9.88341 -9.88341 -9.6514 -9.6514 -9.6514 -9.6514 -9.52495 -9.52495 -9.52495 -9.52495 -9.62152 -9.62152 -9.62152 -9.62152 -9.75932 -9.75932 -9.75932 -9.75932 -9.88156 -9.88156 -9.88156 -9.88156 -9.79561 -9.79561 -9.79561 -9.79561 -7.69845 -7.69845 -7.69845 -7.69845 -9.06499 -9.06499 -9.06499 -9.06499 -9.96204 -9.96204 -9.96204 -9.96204 -9.18396 -9.18396 -9.18396 -9.18396 -5.93208 -5.93208 -5.93208 -5.93208 -9.90607 -9.90607 -9.90607 -9.90607 -9.05515 -9.05515 -9.05515 -9.05515 -9.97379 -9.97379 -9.97379 -9.97379 -9.8331 -9.8331 -9.8331 -9.8331 -8.66615 -8.66615 -8.66615 -8.66615 -9.54482 -9.54482 -9.54482 -9.54482 -9.81494 -9.81494 -9.81494 -9.81494 -9.89297 -9.89297 -9.89297 -9.89297 -9.70858 -9.70858 -9.70858 -9.70858 -11.9646 -11.9646 -11.9646 -11.9646 -9.94882 -9.94882 -9.94882 -9.94882 -11.2386 -11.2386 -11.2386 -11.2386 -9.88577 -9.88577 -9.88577 -9.88577 -9.21903 -9.21903 -9.21903 -9.21903 -9.5135 -9.5135 -9.5135 -9.5135 -8.9854 -8.9854 -8.9854 -8.9854 -9.9552 -9.9552 -9.9552 -9.9552 -4.22919 -4.22919 -4.22919 -4.22919 -9.78109 -9.78109 -9.78109 -9.78109 -8.50837 -8.50837 -8.50837 -8.50837 -8.99707 -8.99707 -8.99707 -8.99707 -9.64329 -9.64329 -9.64329 -9.64329 -9.98022 -9.98022 -9.98022 -9.98022 -9.96351 -9.96351 -9.96351 -9.96351 -9.81157 -9.81157 -9.81157 -9.81157 -9.84137 -9.84137 -9.84137 -9.84137 -10.028 -10.028 -10.028 -10.028 -9.97119 -9.97119 -9.97119 -9.97119 -9.94998 -9.94998 -9.94998 -9.94998 -9.90178 -9.90178 -9.90178 -9.90178 -9.80353 -9.80353 -9.80353 -9.80353 -9.74704 -9.74704 -9.74704 -9.74704 -3.01418 -3.01418 -3.01418 -3.01418 -8.29906 -8.29906 -8.29906 -8.29906 -9.97371 -9.97371 -9.97371 -9.97371 -9.96936 -9.96936 -9.96936 -9.96936 -9.21289 -9.21289 -9.21289 -9.21289 -9.81325 -9.81325 -9.81325 -9.81325 -9.33589 -9.33589 -9.33589 -9.33589 -9.82952 -9.82952 -9.82952 -9.82952 -7.83113 -7.83113 -7.83113 -7.83113 -9.99587 -9.99587 -9.99587 -9.99587 -5.99152 -5.99152 -5.99152 -5.99152 -10.8978 -10.8978 -10.8978 -10.8978 -9.39149 -9.39149 -9.39149 -9.39149 -9.94865 -9.94865 -9.94865 -9.94865 -9.10975 -9.10975 -9.10975 -9.10975 -9.55618 -9.55618 -9.55618 -9.55618 -9.97081 -9.97081 -9.97081 -9.97081 -9.97238 -9.97238 -9.97238 -9.97238 -9.4144 -9.4144 -9.4144 -9.4144 -9.94966 -9.94966 -9.94966 -9.94966 -9.9653 -9.9653 -9.9653 -9.9653 -9.71501 -9.71501 -9.71501 -9.71501 -9.95076 -9.95076 -9.95076 -9.95076 -9.94994 -9.94994 -9.94994 -9.94994 -9.95589 -9.95589 -9.95589 -9.95589 -9.84069 -9.84069 -9.84069 -9.84069 -9.65558 -9.65558 -9.65558 -9.65558 -5.63952 -5.63952 -5.63952 -5.63952 -11.0854 -11.0854 -11.0854 -11.0854 -8.33444 -8.33444 -8.33444 -8.33444 -8.36239 -8.36239 -8.36239 -8.36239 -9.54194 -9.54194 -9.54194 -9.54194 -3.27789 -3.27789 -3.27789 -3.27789 -9.88914 -9.88914 -9.88914 -9.88914 -9.91754 -9.91754 -9.91754 -9.91754 -9.80024 -9.80024 -9.80024 -9.80024 -9.89028 -9.89028 -9.89028 -9.89028 -9.91491 -9.91491 -9.91491 -9.91491 -9.21133 -9.21133 -9.21133 -9.21133 -8.26887 -8.26887 -8.26887 -8.26887 -9.94839 -9.94839 -9.94839 -9.94839 -11.4025 -11.4025 -11.4025 -11.4025 -9.7508 -9.7508 -9.7508 -9.7508 -9.50861 -9.50861 -9.50861 -9.50861 -9.95002 -9.95002 -9.95002 -9.95002 -9.553 -9.553 -9.553 -9.553 -9.89381 -9.89381 -9.89381 -9.89381 -9.27474 -9.27474 -9.27474 -9.27474 -2.78522 -2.78522 -2.78522 -2.78522 -9.95071 -9.95071 -9.95071 -9.95071 -9.45928 -9.45928 -9.45928 -9.45928 -8.37457 -8.37457 -8.37457 -8.37457 -4.08847 -4.08847 -4.08847 -4.08847 -9.99338 -9.99338 -9.99338 -9.99338 -9.52996 -9.52996 -9.52996 -9.52996 -9.93328 -9.93328 -9.93328 -9.93328 -9.88246 -9.88246 -9.88246 -9.88246 -9.95231 -9.95231 -9.95231 -9.95231 -9.59931 -9.59931 -9.59931 -9.59931 -9.98742 -9.98742 -9.98742 -9.98742 -9.06368 -9.06368 -9.06368 -9.06368 -9.82592 -9.82592 -9.82592 -9.82592 -10.0554 -10.0554 -10.0554 -10.0554 -7.79908 -7.79908 -7.79908 -7.79908 -9.97893 -9.97893 -9.97893 -9.97893 -9.95718 -9.95718 -9.95718 -9.95718 -9.52622 -9.52622 -9.52622 -9.52622 -10.1701 -10.1701 -10.1701 -10.1701 -8.76217 -8.76217 -8.76217 -8.76217 -8.52908 -8.52908 -8.52908 -8.52908 -3.27553 -3.27553 -3.27553 -3.27553 -9.81034 -9.81034 -9.81034 -9.81034 -8.87113 -8.87113 -8.87113 -8.87113 -9.84072 -9.84072 -9.84072 -9.84072 -9.26467 -9.26467 -9.26467 -9.26467 -7.80036 -7.80036 -7.80036 -7.80036 -9.59524 -9.59524 -9.59524 -9.59524 -10.0179 -10.0179 -10.0179 -10.0179 -9.72054 -9.72054 -9.72054 -9.72054 -9.88863 -9.88863 -9.88863 -9.88863 -7.6516 -7.6516 -7.6516 -7.6516 -9.84295 -9.84295 -9.84295 -9.84295 -9.294 -9.294 -9.294 -9.294 -9.71153 -9.71153 -9.71153 -9.71153 -9.98074 -9.98074 -9.98074 -9.98074 -9.88783 -9.88783 -9.88783 -9.88783 -9.89746 -9.89746 -9.89746 -9.89746 -9.69656 -9.69656 -9.69656 -9.69656 -9.90915 -9.90915 -9.90915 -9.90915 -9.79658 -9.79658 -9.79658 -9.79658 -9.96079 -9.96079 -9.96079 -9.96079 -9.53367 -9.53367 -9.53367 -9.53367 -9.84702 -9.84702 -9.84702 -9.84702 -9.88301 -9.88301 -9.88301 -9.88301 -8.49668 -8.49668 -8.49668 -8.49668 -9.96344 -9.96344 -9.96344 -9.96344 -9.91083 -9.91083 -9.91083 -9.91083 -7.80898 -7.80898 -7.80898 -7.80898 -9.92291 -9.92291 -9.92291 -9.92291 -10.221 -10.221 -10.221 -10.221 -11.3863 -11.3863 -11.3863 -11.3863 -9.89036 -9.89036 -9.89036 -9.89036 -9.68919 -9.68919 -9.68919 -9.68919 -9.0474 -9.0474 -9.0474 -9.0474 -9.9547 -9.9547 -9.9547 -9.9547 -9.95378 -9.95378 -9.95378 -9.95378 -9.89153 -9.89153 -9.89153 -9.89153 -9.95186 -9.95186 -9.95186 -9.95186 -9.95292 -9.95292 -9.95292 -9.95292 -8.72391 -8.72391 -8.72391 -8.72391 -12.7049 -12.7049 -12.7049 -12.7049 -9.57916 -9.57916 -9.57916 -9.57916 -9.95163 -9.95163 -9.95163 -9.95163 -9.9725 -9.9725 -9.9725 -9.9725 -9.88973 -9.88973 -9.88973 -9.88973 -9.21377 -9.21377 -9.21377 -9.21377 -9.55717 -9.55717 -9.55717 -9.55717 -9.2893 -9.2893 -9.2893 -9.2893 -9.01089 -9.01089 -9.01089 -9.01089 -10.0128 -10.0128 -10.0128 -10.0128 -10.814 -10.814 -10.814 -10.814 -9.94666 -9.94666 -9.94666 -9.94666 -12.2433 -12.2433 -12.2433 -12.2433 -9.97176 -9.97176 -9.97176 -9.97176 -3.72697 -3.72697 -3.72697 -3.72697 -12.4308 -12.4308 -12.4308 -12.4308 -9.7041 -9.7041 -9.7041 -9.7041 -11.9805 -11.9805 -11.9805 -11.9805 -9.85775 -9.85775 -9.85775 -9.85775 -9.94434 -9.94434 -9.94434 -9.94434 -8.95675 -8.95675 -8.95675 -8.95675 -10.2756 -10.2756 -10.2756 -10.2756 -9.9673 -9.9673 -9.9673 -9.9673 -9.62383 -9.62383 -9.62383 -9.62383 -7.95287 -7.95287 -7.95287 -7.95287 -10.5999 -10.5999 -10.5999 -10.5999 -9.94637 -9.94637 -9.94637 -9.94637 -9.73768 -9.73768 -9.73768 -9.73768 -9.95126 -9.95126 -9.95126 -9.95126 -9.94785 -9.94785 -9.94785 -9.94785 -9.89005 -9.89005 -9.89005 -9.89005 -9.56247 -9.56247 -9.56247 -9.56247 -9.94697 -9.94697 -9.94697 -9.94697 -9.89221 -9.89221 -9.89221 -9.89221 -10.3184 -10.3184 -10.3184 -10.3184 -9.95793 -9.95793 -9.95793 -9.95793 -9.97772 -9.97772 -9.97772 -9.97772 -9.70047 -9.70047 -9.70047 -9.70047 -9.17815 -9.17815 -9.17815 -9.17815 -8.90172 -8.90172 -8.90172 -8.90172 -9.91971 -9.91971 -9.91971 -9.91971 -9.95738 -9.95738 -9.95738 -9.95738 -9.96648 -9.96648 -9.96648 -9.96648 -10.5674 -10.5674 -10.5674 -10.5674 -7.23134 -7.23134 -7.23134 -7.23134 -9.87384 -9.87384 -9.87384 -9.87384 -9.8911 -9.8911 -9.8911 -9.8911 -9.37595 -9.37595 -9.37595 -9.37595 -9.82151 -9.82151 -9.82151 -9.82151 -9.89458 -9.89458 -9.89458 -9.89458 -9.76728 -9.76728 -9.76728 -9.76728 -10.9826 -10.9826 -10.9826 -10.9826 -11.4451 -11.4451 -11.4451 -11.4451 -9.56364 -9.56364 -9.56364 -9.56364 -10.1766 -10.1766 -10.1766 -10.1766 -9.94066 -9.94066 -9.94066 -9.94066 -12.6982 -12.6982 -12.6982 -12.6982 -9.96406 -9.96406 -9.96406 -9.96406 -9.80757 -9.80757 -9.80757 -9.80757 -11.9493 -11.9493 -11.9493 -11.9493 -12.4183 -12.4183 -12.4183 -12.4183 -9.78072 -9.78072 -9.78072 -9.78072 -9.78477 -9.78477 -9.78477 -9.78477 -9.92329 -9.92329 -9.92329 -9.92329 -9.72772 -9.72772 -9.72772 -9.72772 -9.94699 -9.94699 -9.94699 -9.94699 -9.31847 -9.31847 -9.31847 -9.31847 -9.10689 -9.10689 -9.10689 -9.10689 -10.5764 -10.5764 -10.5764 -10.5764 -9.73348 -9.73348 -9.73348 -9.73348 -9.86625 -9.86625 -9.86625 -9.86625 -9.60977 -9.60977 -9.60977 -9.60977 -9.9223 -9.9223 -9.9223 -9.9223 -9.96285 -9.96285 -9.96285 -9.96285 -9.64082 -9.64082 -9.64082 -9.64082 -11.32 -11.32 -11.32 -11.32 -10.0499 -10.0499 -10.0499 -10.0499 -9.97963 -9.97963 -9.97963 -9.97963 -10.1409 -10.1409 -10.1409 -10.1409 -9.64362 -9.64362 -9.64362 -9.64362 -9.96726 -9.96726 -9.96726 -9.96726 -9.83113 -9.83113 -9.83113 -9.83113 -10.7326 -10.7326 -10.7326 -10.7326 -9.49054 -9.49054 -9.49054 -9.49054 -4.47925 -4.47925 -4.47925 -4.47925 -9.88903 -9.88903 -9.88903 -9.88903 -9.50281 -9.50281 -9.50281 -9.50281 -9.39079 -9.39079 -9.39079 -9.39079 -9.29107 -9.29107 -9.29107 -9.29107 -3.18137 -3.18137 -3.18137 -3.18137 -10.4424 -10.4424 -10.4424 -10.4424 -9.80752 -9.80752 -9.80752 -9.80752 -9.37624 -9.37624 -9.37624 -9.37624 -9.78714 -9.78714 -9.78714 -9.78714 -9.95884 -9.95884 -9.95884 -9.95884 -8.94443 -8.94443 -8.94443 -8.94443 -9.96488 -9.96488 -9.96488 -9.96488 -9.95102 -9.95102 -9.95102 -9.95102 -9.8885 -9.8885 -9.8885 -9.8885 -11.68 -11.68 -11.68 -11.68 -2.62861 -2.62861 -2.62861 -2.62861 -9.74303 -9.74303 -9.74303 -9.74303 -8.36381 -8.36381 -8.36381 -8.36381 -9.66594 -9.66594 -9.66594 -9.66594 -8.81227 -8.81227 -8.81227 -8.81227 -9.71909 -9.71909 -9.71909 -9.71909 -9.95175 -9.95175 -9.95175 -9.95175 -10.3132 -10.3132 -10.3132 -10.3132 -10.0039 -10.0039 -10.0039 -10.0039 -9.54738 -9.54738 -9.54738 -9.54738 -9.87171 -9.87171 -9.87171 -9.87171 -9.51852 -9.51852 -9.51852 -9.51852 -9.55466 -9.55466 -9.55466 -9.55466 -9.89707 -9.89707 -9.89707 -9.89707 -3.82436 -3.82436 -3.82436 -3.82436 -9.89524 -9.89524 -9.89524 -9.89524 -10.3813 -10.3813 -10.3813 -10.3813 -9.97199 -9.97199 -9.97199 -9.97199 -9.91669 -9.91669 -9.91669 -9.91669 -9.86936 -9.86936 -9.86936 -9.86936 -9.81575 -9.81575 -9.81575 -9.81575 -9.91753 -9.91753 -9.91753 -9.91753 -7.84329 -7.84329 -7.84329 -7.84329 -8.20548 -8.20548 -8.20548 -8.20548 -9.96528 -9.96528 -9.96528 -9.96528 -2.53957 -2.53957 -2.53957 -2.53957 -9.5287 -9.5287 -9.5287 -9.5287 -8.45877 -8.45877 -8.45877 -8.45877 -9.91098 -9.91098 -9.91098 -9.91098 -9.61236 -9.61236 -9.61236 -9.61236 -9.96897 -9.96897 -9.96897 -9.96897 -9.68932 -9.68932 -9.68932 -9.68932 -9.95214 -9.95214 -9.95214 -9.95214 -9.9936 -9.9936 -9.9936 -9.9936 -9.74903 -9.74903 -9.74903 -9.74903 -9.89355 -9.89355 -9.89355 -9.89355 -9.76986 -9.76986 -9.76986 -9.76986 -9.79686 -9.79686 -9.79686 -9.79686 -10.4617 -10.4617 -10.4617 -10.4617 -9.75845 -9.75845 -9.75845 -9.75845 -9.98016 -9.98016 -9.98016 -9.98016 -12.0391 -12.0391 -12.0391 -12.0391 -9.99501 -9.99501 -9.99501 -9.99501 -3.62243 -3.62243 -3.62243 -3.62243 -10.727 -10.727 -10.727 -10.727 -9.9475 -9.9475 -9.9475 -9.9475 -9.8433 -9.8433 -9.8433 -9.8433 -9.22562 -9.22562 -9.22562 -9.22562 -9.11885 -9.11885 -9.11885 -9.11885 -9.67818 -9.67818 -9.67818 -9.67818 -10.581 -10.581 -10.581 -10.581 -8.25678 -8.25678 -8.25678 -8.25678 -9.97634 -9.97634 -9.97634 -9.97634 -9.80911 -9.80911 -9.80911 -9.80911 -9.97901 -9.97901 -9.97901 -9.97901 -4.14234 -4.14234 -4.14234 -4.14234 -9.87851 -9.87851 -9.87851 -9.87851 -10.6401 -10.6401 -10.6401 -10.6401 -3.37794 -3.37794 -3.37794 -3.37794 -12.1738 -12.1738 -12.1738 -12.1738 -4.78918 -4.78918 -4.78918 -4.78918 -9.63423 -9.63423 -9.63423 -9.63423 -9.96399 -9.96399 -9.96399 -9.96399 -9.97679 -9.97679 -9.97679 -9.97679 -2.41587 -2.41587 -2.41587 -2.41587 -8.7605 -8.7605 -8.7605 -8.7605 -12.4861 -12.4861 -12.4861 -12.4861 -13.4396 -13.4396 -13.4396 -13.4396 -9.95306 -9.95306 -9.95306 -9.95306 -9.88076 -9.88076 -9.88076 -9.88076 -9.94167 -9.94167 -9.94167 -9.94167 -9.3874 -9.3874 -9.3874 -9.3874 -9.44724 -9.44724 -9.44724 -9.44724 -9.96713 -9.96713 -9.96713 -9.96713 -9.96981 -9.96981 -9.96981 -9.96981 -9.90621 -9.90621 -9.90621 -9.90621 -9.73173 -9.73173 -9.73173 -9.73173 -9.85018 -9.85018 -9.85018 -9.85018 -9.96208 -9.96208 -9.96208 -9.96208 -11.0526 -11.0526 -11.0526 -11.0526 -2.96914 -2.96914 -2.96914 -2.96914 -10.0331 -10.0331 -10.0331 -10.0331 -10.8533 -10.8533 -10.8533 -10.8533 -9.8904 -9.8904 -9.8904 -9.8904 -9.82681 -9.82681 -9.82681 -9.82681 -9.71118 -9.71118 -9.71118 -9.71118 -10.367 -10.367 -10.367 -10.367 -9.73849 -9.73849 -9.73849 -9.73849 -9.97671 -9.97671 -9.97671 -9.97671 -4.08721 -4.08721 -4.08721 -4.08721 -9.71124 -9.71124 -9.71124 -9.71124 -9.77285 -9.77285 -9.77285 -9.77285 -8.99436 -8.99436 -8.99436 -8.99436 -10.2842 -10.2842 -10.2842 -10.2842 -9.84137 -9.84137 -9.84137 -9.84137 -9.6775 -9.6775 -9.6775 -9.6775 -9.89477 -9.89477 -9.89477 -9.89477 -9.95632 -9.95632 -9.95632 -9.95632 -9.34868 -9.34868 -9.34868 -9.34868 -4.01041 -4.01041 -4.01041 -4.01041 -9.80888 -9.80888 -9.80888 -9.80888 -9.51421 -9.51421 -9.51421 -9.51421 -9.96413 -9.96413 -9.96413 -9.96413 -9.98097 -9.98097 -9.98097 -9.98097 -9.65675 -9.65675 -9.65675 -9.65675 -9.82881 -9.82881 -9.82881 -9.82881 -9.88457 -9.88457 -9.88457 -9.88457 -9.53298 -9.53298 -9.53298 -9.53298 -9.97299 -9.97299 -9.97299 -9.97299 -3.90146 -3.90146 -3.90146 -3.90146 -9.85271 -9.85271 -9.85271 -9.85271 -10.7587 -10.7587 -10.7587 -10.7587 -4.3087 -4.3087 -4.3087 -4.3087 -3.41638 -3.41638 -3.41638 -3.41638 -9.70689 -9.70689 -9.70689 -9.70689 -9.97535 -9.97535 -9.97535 -9.97535 -9.71054 -9.71054 -9.71054 -9.71054 -10.2431 -10.2431 -10.2431 -10.2431 -2.44313 -2.44313 -2.44313 -2.44313 -9.95443 -9.95443 -9.95443 -9.95443 -9.70323 -9.70323 -9.70323 -9.70323 -9.94929 -9.94929 -9.94929 -9.94929 -9.64532 -9.64532 -9.64532 -9.64532 -9.97518 -9.97518 -9.97518 -9.97518 -9.75201 -9.75201 -9.75201 -9.75201 -9.9622 -9.9622 -9.9622 -9.9622 -9.3412 -9.3412 -9.3412 -9.3412 -9.95855 -9.95855 -9.95855 -9.95855 -11.9728 -11.9728 -11.9728 -11.9728 -9.73586 -9.73586 -9.73586 -9.73586 -9.95825 -9.95825 -9.95825 -9.95825 -10.2363 -10.2363 -10.2363 -10.2363 -9.28705 -9.28705 -9.28705 -9.28705 -9.94964 -9.94964 -9.94964 -9.94964 -9.97234 -9.97234 -9.97234 -9.97234 -9.84501 -9.84501 -9.84501 -9.84501 -9.97254 -9.97254 -9.97254 -9.97254 -9.96612 -9.96612 -9.96612 -9.96612 -9.96649 -9.96649 -9.96649 -9.96649 -3.74763 -3.74763 -3.74763 -3.74763 -9.80774 -9.80774 -9.80774 -9.80774 -9.99108 -9.99108 -9.99108 -9.99108 -9.71615 -9.71615 -9.71615 -9.71615 -3.85634 -3.85634 -3.85634 -3.85634 -10.5911 -10.5911 -10.5911 -10.5911 -9.96825 -9.96825 -9.96825 -9.96825 -9.72817 -9.72817 -9.72817 -9.72817 -9.98706 -9.98706 -9.98706 -9.98706 -9.98133 -9.98133 -9.98133 -9.98133 -10.2117 -10.2117 -10.2117 -10.2117 -4.24306 -4.24306 -4.24306 -4.24306 -9.97539 -9.97539 -9.97539 -9.97539 -9.97048 -9.97048 -9.97048 -9.97048 -10.0002 -10.0002 -10.0002 -10.0002 -9.96803 -9.96803 -9.96803 -9.96803 -7.84482 -7.84482 -7.84482 -7.84482 -9.9535 -9.9535 -9.9535 -9.9535 -9.88612 -9.88612 -9.88612 -9.88612 -8.6316 -8.6316 -8.6316 -8.6316 -9.97121 -9.97121 -9.97121 -9.97121 -9.97007 -9.97007 -9.97007 -9.97007 -9.85196 -9.85196 -9.85196 -9.85196 -9.85038 -9.85038 -9.85038 -9.85038 -9.31009 -9.31009 -9.31009 -9.31009 -9.97191 -9.97191 -9.97191 -9.97191 -10.53 -10.53 -10.53 -10.53 -9.96934 -9.96934 -9.96934 -9.96934 -9.97042 -9.97042 -9.97042 -9.97042 -10.0237 -10.0237 -10.0237 -10.0237 -9.96155 -9.96155 -9.96155 -9.96155 -9.96626 -9.96626 -9.96626 -9.96626 -9.9737 -9.9737 -9.9737 -9.9737 -9.97683 -9.97683 -9.97683 -9.97683 -10.142 -10.142 -10.142 -10.142 -9.9699 -9.9699 -9.9699 -9.9699 -9.83933 -9.83933 -9.83933 -9.83933 -9.98308 -9.98308 -9.98308 -9.98308 -9.97645 -9.97645 -9.97645 -9.97645 -9.93625 -9.93625 -9.93625 -9.93625 -11.5061 -11.5061 -11.5061 -11.5061 -9.98429 -9.98429 -9.98429 -9.98429 -3.72283 -3.72283 -3.72283 -3.72283 -9.86074 -9.86074 -9.86074 -9.86074 -9.95986 -9.95986 -9.95986 -9.95986 -10.017 -10.017 -10.017 -10.017 -9.97341 -9.97341 -9.97341 -9.97341 -9.96805 -9.96805 -9.96805 -9.96805 -9.96935 -9.96935 -9.96935 -9.96935 -10.0972 -10.0972 -10.0972 -10.0972 -11.3654 -11.3654 -11.3654 -11.3654 -9.83123 -9.83123 -9.83123 -9.83123 -9.97074 -9.97074 -9.97074 -9.97074 -8.6994 -8.6994 -8.6994 -8.6994 -10.2725 -10.2725 -10.2725 -10.2725 -9.94069 -9.94069 -9.94069 -9.94069 -10.1133 -10.1133 -10.1133 -10.1133 -9.7712 -9.7712 -9.7712 -9.7712 -9.85239 -9.85239 -9.85239 -9.85239 -10.1374 -10.1374 -10.1374 -10.1374 -10.4788 -10.4788 -10.4788 -10.4788 -7.7452 -7.7452 -7.7452 -7.7452 -8.27531 -8.27531 -8.27531 -8.27531 -7.03537 -7.03537 -7.03537 -7.03537 -9.48209 -9.48209 -9.48209 -9.48209 -7.68538 -7.68538 -7.68538 -7.68538 -9.8457 -9.8457 -9.8457 -9.8457 -9.94443 -9.94443 -9.94443 -9.94443 -9.90746 -9.90746 -9.90746 -9.90746 -10.5004 -10.5004 -10.5004 -10.5004 -9.56229 -9.56229 -9.56229 -9.56229 -9.67637 -9.67637 -9.67637 -9.67637 -9.50317 -9.50317 -9.50317 -9.50317 -9.3745 -9.3745 -9.3745 -9.3745 -9.68639 -9.68639 -9.68639 -9.68639 -9.69763 -9.69763 -9.69763 -9.69763 -9.37581 -9.37581 -9.37581 -9.37581 -9.53069 -9.53069 -9.53069 -9.53069 -4.70285 -4.70285 -4.70285 -4.70285 -6.3972 -6.3972 -6.3972 -6.3972 -9.66201 -9.66201 -9.66201 -9.66201 -9.67166 -9.67166 -9.67166 -9.67166 -9.69315 -9.69315 -9.69315 -9.69315 -9.67964 -9.67964 -9.67964 -9.67964 -9.68333 -9.68333 -9.68333 -9.68333 -9.68965 -9.68965 -9.68965 -9.68965 -9.74347 -9.74347 -9.74347 -9.74347 -9.51969 -9.51969 -9.51969 -9.51969 -9.57273 -9.57273 -9.57273 -9.57273 -9.63192 -9.63192 -9.63192 -9.63192 -9.40015 -9.40015 -9.40015 -9.40015 -9.57171 -9.57171 -9.57171 -9.57171 -9.56612 -9.56612 -9.56612 -9.56612 -9.61154 -9.61154 -9.61154 -9.61154 -9.69818 -9.69818 -9.69818 -9.69818 -9.93727 -9.93727 -9.93727 -9.93727 -8.98525 -8.98525 -8.98525 -8.98525 -8.43918 -8.43918 -8.43918 -8.43918 -9.66419 -9.66419 -9.66419 -9.66419 -10.5159 -10.5159 -10.5159 -10.5159 -9.52533 -9.52533 -9.52533 -9.52533 -9.48785 -9.48785 -9.48785 -9.48785 -9.30914 -9.30914 -9.30914 -9.30914 -9.11516 -9.11516 -9.11516 -9.11516 -9.67405 -9.67405 -9.67405 -9.67405 -9.63887 -9.63887 -9.63887 -9.63887 -9.83893 -9.83893 -9.83893 -9.83893 -9.74789 -9.74789 -9.74789 -9.74789 -11.3634 -11.3634 -11.3634 -11.3634 -10.8927 -10.8927 -10.8927 -10.8927 -10.5128 -10.5128 -10.5128 -10.5128 -9.83277 -9.83277 -9.83277 -9.83277 -8.77261 -8.77261 -8.77261 -8.77261 -8.33507 -8.33507 -8.33507 -8.33507 -8.17415 -8.17415 -8.17415 -8.17415 -10.3247 -10.3247 -10.3247 -10.3247 -9.49239 -9.49239 -9.49239 -9.49239 -9.6744 -9.6744 -9.6744 -9.6744 -9.91618 -9.91618 -9.91618 -9.91618 -9.82353 -9.82353 -9.82353 -9.82353 -9.72057 -9.72057 -9.72057 -9.72057 -9.73165 -9.73165 -9.73165 -9.73165 -10.3059 -10.3059 -10.3059 -10.3059 -9.80963 -9.80963 -9.80963 -9.80963 -9.67211 -9.67211 -9.67211 -9.67211 -9.64774 -9.64774 -9.64774 -9.64774 -11.7988 -11.7988 -11.7988 -11.7988 -10.3841 -10.3841 -10.3841 -10.3841 -9.37456 -9.37456 -9.37456 -9.37456 -9.18873 -9.18873 -9.18873 -9.18873 -9.89117 -9.89117 -9.89117 -9.89117 -9.63745 -9.63745 -9.63745 -9.63745 -9.31827 -9.31827 -9.31827 -9.31827 -9.46484 -9.46484 -9.46484 -9.46484 -9.80306 -9.80306 -9.80306 -9.80306 -9.77225 -9.77225 -9.77225 -9.77225 -9.49142 -9.49142 -9.49142 -9.49142 -9.48951 -9.48951 -9.48951 -9.48951 -8.73647 -8.73647 -8.73647 -8.73647 -8.99598 -8.99598 -8.99598 -8.99598 -6.58668 -6.58668 -6.58668 -6.58668 -7.86202 -7.86202 -7.86202 -7.86202 -11.2737 -11.2737 -11.2737 -11.2737 -10.1614 -10.1614 -10.1614 -10.1614 -10.6482 -10.6482 -10.6482 -10.6482 -11.2209 -11.2209 -11.2209 -11.2209 -7.86853 -7.86853 -7.86853 -7.86853 -8.38877 -8.38877 -8.38877 -8.38877 -9.40444 -9.40444 -9.40444 -9.40444 -9.48216 -9.48216 -9.48216 -9.48216 -11.449 -11.449 -11.449 -11.449 -10.8179 -10.8179 -10.8179 -10.8179 -6.58897 -6.58897 -6.58897 -6.58897 -4.93253 -4.93253 -4.93253 -4.93253 -9.52691 -9.52691 -9.52691 -9.52691 -9.50682 -9.50682 -9.50682 -9.50682 -12.1406 -12.1406 -12.1406 -12.1406 -10.5985 -10.5985 -10.5985 -10.5985 -6.33373 -6.33373 -6.33373 -6.33373 -3.68565 -3.68565 -3.68565 -3.68565 -9.04722 -9.04722 -9.04722 -9.04722 -8.9323 -8.9323 -8.9323 -8.9323 -9.95323 -9.95323 -9.95323 -9.95323 -9.89296 -9.89296 -9.89296 -9.89296 -9.95709 -9.95709 -9.95709 -9.95709 -9.89065 -9.89065 -9.89065 -9.89065 -9.94753 -9.94753 -9.94753 -9.94753 -9.90076 -9.90076 -9.90076 -9.90076 -9.91909 -9.91909 -9.91909 -9.91909 -9.94767 -9.94767 -9.94767 -9.94767 -9.84629 -9.84629 -9.84629 -9.84629 -9.82461 -9.82461 -9.82461 -9.82461 -11.9304 -11.9304 -11.9304 -11.9304 -9.85081 -9.85081 -9.85081 -9.85081 -12.366 -12.366 -12.366 -12.366 -10.6797 -10.6797 -10.6797 -10.6797 -3.42514 -3.42514 -3.42514 -3.42514 -5.83331 -5.83331 -5.83331 -5.83331 -9.71201 -9.71201 -9.71201 -9.71201 -9.6666 -9.6666 -9.6666 -9.6666 -2.93617 -2.93617 -2.93617 -2.93617 -5.32399 -5.32399 -5.32399 -5.32399 
VECTORS Velocity float 
0.0066958 -0.000569025 0.140517 
0.00293557 0.0151393 0.138196 
0.0131289 0.024326 0.117974 
0.010114 0.0169243 0.132861 
0.00404857 -0.00140682 0.000337497 
-0.0102157 0.00836331 0.0498978 
-0.00825013 0.00570472 0.0742902 
-0.00882214 0.00228631 0.0484414 
0.0082176 0.00360361 0.00614036 
-0.000109538 -0.00754501 0.0612344 
-0.00207045 -0.0148347 0.0966777 
-0.00503523 -0.0111392 0.100255 
-0.00118033 -0.0221875 0.285419 
-0.00410003 -0.0247506 0.0424469 
-0.0160622 0.0651049 0.202101 
0.0852243 0.00427452 0.161651 
-0.000127593 -0.000250704 0.0445718 
-0.000269093 0.00048253 0.00272881 
-0.00442451 0.00825556 0.09564 
-0.00305563 0.00573807 0.0746418 
0.00891294 0.0211625 0.120875 
0.0055984 0.0161284 0.136219 
0.00569876 0.00162295 0.141626 
0.00324378 0.00515199 0.142206 
-0.00313818 -0.00119707 0.128336 
-0.00356311 4.84853e-05 0.134119 
0.00808522 -0.0127422 0.132219 
-0.0101034 -0.018412 0.12093 
6.62072e-05 0.000378804 0.0495281 
0.0018739 -0.00108935 0.00618241 
-0.000274847 -0.011313 0.0949779 
-0.00129021 -0.00903224 0.100741 
-0.0300987 -0.0600906 0.182534 
0.079642 -0.0585695 0.0996761 
0.027059 -0.08412 0.193716 
-0.108551 -0.0395804 0.140433 
-3.90677e-05 -0.00055134 0.0451859 
0.00232679 0.00458266 0.102463 
-0.000433936 -0.000190772 0.00412658 
0.0013338 0.00366324 0.0748775 
-0.000167557 -0.000381256 0.00255406 
-0.000174376 -0.00312641 0.00744234 
0.00270863 -0.0106704 0.098646 
0.00172331 -0.00893386 0.0621087 
-0.0027947 0.000886352 0.0192 
-0.0206619 0.0265574 0.0703188 
-0.0117062 0.0393965 0.135245 
0.0104061 0.00975246 0.107978 
-0.0257773 0.0037037 0.0644296 
-0.0207645 0.0156028 0.0493798 
-0.0110965 0.00877842 0.131868 
-0.0486406 0.00482403 0.101361 
0.0113725 -0.00443783 -0.00765153 
0.0126662 -0.00522553 0.0677482 
-0.00814546 0.0084825 -0.0117059 
0.0101098 0.0181061 0.0329223 
-0.00084711 0.000380026 0.0521711 
0.00132044 -0.0057447 0.0615171 
-0.000604847 -0.00282821 0.00541902 
0.00235231 -0.00674489 0.100642 
-0.028567 0.00860769 0.0260547 
-0.027978 0.0269801 0.142361 
-0.0155278 0.000457609 0.0965778 
-0.0251977 0.0178034 0.0540939 
0.000659275 -0.000863236 0.133567 
0.00218547 0.0032098 0.118672 
-0.00110143 -0.00745819 0.126609 
0.00379385 0.00187666 0.138635 
-0.0266264 0.0238046 0.0274018 
-0.0164214 -2.12239e-05 0.156224 
-0.00804369 0.0207094 0.122609 
-0.047622 -0.018568 0.133252 
-2.61526e-05 -0.00196636 0.00338073 
-0.0106447 0.0270178 0.0739204 
-0.00244166 0.000826003 0.0192994 
-0.00522518 0.013153 0.103839 
0.0143862 -0.014405 0.0629984 
-0.00469145 -0.0452228 0.0765354 
0.00640766 -0.017422 0.139548 
0.0184793 -0.00325443 0.108429 
0.000762737 -0.000150528 0.140356 
-0.00113252 0.00541773 0.127999 
0.00222622 0.00285189 0.144396 
-0.00207783 -0.00132043 0.130739 
-0.00299802 -0.0117139 0.0901413 
0.0002028 -0.00340967 0.0696019 
0.00275905 0.00110481 0.0540876 
-0.00176805 -0.00924962 0.0999914 
4.01202e-05 0.00117777 -0.00114813 
-0.00186429 0.00496543 -0.00551897 
-0.00358948 -0.00211212 -0.00529014 
0.0193028 -0.0584434 0.0405954 
0.0058983 0.00863324 0.0514561 
-0.00348118 0.00978464 0.0854827 
0.0218533 0.0324981 0.0437286 
0.00420432 0.0112009 0.0234145 
-0.000858309 0.00106813 0.141964 
-0.00106402 -0.00328002 0.132671 
0.00378735 0.00262502 0.140524 
0.00132528 -0.00340334 0.139356 
-0.00219067 0.00543668 -0.00279557 
0.0122905 -0.00855588 0.0501387 
0.0050951 0.00257293 0.0013454 
-0.00663034 -0.0186319 0.0129005 
-0.000442111 -0.000390575 0.000430038 
0.00221736 -0.0177241 0.100998 
-0.000210263 0.000650544 0.0061468 
0.00243832 -0.012108 0.0632798 
-0.000139628 -0.000226731 0.0450336 
-0.000446664 -0.000432991 -0.00034614 
-0.000296624 0.000498403 0.00138858 
0.00245528 0.00310173 0.105432 
-0.00561038 0.00662963 0.0749476 
-0.00968784 0.0087395 0.0525854 
0.00157675 -0.000994659 0.00217036 
-0.000814178 0.00298193 0.0552441 
-0.028022 -0.107215 0.102485 
0.0408896 -0.0465628 0.132437 
-0.0501462 -0.0362743 0.0167397 
-0.0102788 -0.0468812 0.136776 
-0.00137794 0.00206592 0.00268047 
-0.000382935 0.00054665 0.0457754 
0.00248354 0.00233621 0.0744343 
0.00408621 0.00410294 0.105424 
0.000398848 -0.000748074 0.002041 
0.000725569 0.000513917 0.0496346 
0.0013303 -0.0115816 0.0988615 
-0.00103438 -0.0028351 0.0675219 
-6.30001e-05 0.000424448 0.140059 
-0.00147768 -0.0138036 0.13014 
0.000735571 -0.0104868 0.128963 
-0.00376581 -0.0127363 0.123012 
2.9816e-05 0.000737376 0.133569 
0.000278666 -0.00873754 0.130052 
0.00213164 0.00172738 0.116169 
-0.00244651 -0.00722883 0.108994 
-0.000586633 -0.00225157 0.0482442 
-0.000368889 -0.000420319 0.0809869 
0.00284972 0.00725518 0.0977423 
0.000551164 0.00440492 0.0738035 
-0.000781247 5.22164e-05 0.0457242 
0.000262 0.00143374 0.00277182 
0.000326476 0.000368706 0.0533949 
-0.00386003 0.0067621 0.0962816 
0.0099508 -0.0210433 0.133604 
-0.0157936 -0.00885097 0.114468 
-0.0116888 -0.0216364 0.128452 
-0.0114106 -0.0230257 0.124013 
0.0082383 -0.00661071 0.0794747 
0.0105627 -0.0212619 0.124021 
-0.0118137 -0.0344784 0.110345 
0.00813747 -0.000840068 0.116961 
0.00431633 -0.018913 0.137237 
0.00350362 -0.0136452 0.133338 
-0.0150561 -0.0098797 0.1139 
-0.00723363 -0.0222683 0.121607 
-0.0130941 -0.0121655 0.115898 
-0.000476528 0.00170284 0.124109 
0.00288444 -0.014776 0.137452 
-0.0113358 -0.0204207 0.123442 
-0.00656016 -0.0110214 0.366834 
-0.021344 -0.0363511 0.2069 
0.0203869 -0.0614208 0.232327 
-0.0967595 -0.0983895 0.045994 
3.17889e-05 -4.92582e-05 -0.000138789 
0.000284284 -0.000666053 0.00143153 
-0.000269809 -0.000309702 0.0446346 
-0.00516251 0.00886784 0.0997911 
-0.00072533 -0.000185666 0.132616 
-0.00011162 0.000675775 0.140445 
-5.47865e-05 -0.0100553 0.130726 
-0.00297292 -0.012773 0.121732 
-0.000537715 -0.000865292 0.00292683 
0.00127603 0.00432768 0.0741093 
0.00257562 -0.000360665 0.00703591 
0.00242407 0.00746057 0.104969 
-0.00742894 -0.0113807 0.114623 
-4.8237e-05 -0.0130224 0.132907 
0.000544239 -0.0166879 0.138722 
-0.00285136 -0.00586154 0.126625 
-0.0058176 -0.00952934 0.00855861 
0.0246417 0.0296905 0.14885 
0.000450515 -0.00750119 0.000338177 
0.0280231 0.0306748 0.0817124 
0.00664591 -0.0186044 0.0699907 
0.0211905 -0.0177192 0.126542 
-0.0149454 -0.0419638 0.0854288 
-0.0157121 -0.0287017 0.115042 
0.00679561 -0.0231419 0.13454 
0.0112933 -0.00459321 0.115004 
0.0112849 -0.00510862 0.0709907 
0.016896 -0.00190774 0.109519 
0.00498747 0.00637449 -0.00414304 
0.00259418 0.00574078 -0.0201865 
0.0169512 0.0234392 0.0491882 
0.0315435 0.018916 0.0532606 
-0.00226299 -0.00239714 0.00294074 
-0.0174598 -0.0120536 0.0763978 
-0.0133783 -0.00701084 0.0493074 
-0.00342305 -0.00470927 0.0653848 
-0.000212902 0.000283625 0.134199 
-0.000667334 -0.010356 0.127697 
-0.00187016 -0.00820775 0.110565 
-0.00396758 -0.0149559 0.124214 
0.00087467 -3.48262e-05 0.141199 
-0.000817549 0.00592171 0.128329 
-0.000305777 0.00859107 0.120657 
0.00126797 0.00581823 0.145256 
-0.00424808 0.00617358 -0.0141798 
-0.0103125 -0.0326604 0.0461572 
0.00142112 -0.00653305 -0.01017 
0.0209041 -0.0587479 0.0526349 
-0.0133465 -0.00794035 0.0436694 
-0.00519818 -0.0055806 0.0682799 
-0.0181259 -0.0118475 0.0806354 
-0.0157179 -0.00856316 0.0944169 
-0.0133126 -0.0355956 0.0853751 
-0.0177348 -0.0323555 0.0139418 
-0.0119712 -0.062412 0.134173 
-0.0222686 -0.0560697 0.135497 
-0.00014597 -0.000927409 0.0813378 
0.00362613 0.00992823 0.114574 
0.0059689 0.011529 0.0786277 
0.00255402 0.00584405 0.0572939 
-0.00297328 -0.0020317 0.00289789 
0.00153041 0.00118211 0.00868582 
0.00749169 0.00508675 -0.00972515 
0.0189519 0.0115911 0.162224 
-0.0190889 -0.0170354 0 
-0.00369516 -0.00745048 0 
0.00432263 0.00599682 0 
0.0662705 0.0606655 0.0315635 
0.0081752 0.00902128 -0.0206145 
0.0071197 -0.00215534 -0.00499448 
-0.0143043 -0.00704786 0.000239951 
-0.0883191 -0.0451473 0.100724 
0.0064342 0.00135967 0.140261 
0.00159011 0.000556161 0.138344 
0.00988499 0.0208083 0.119078 
0.0027774 0.00514198 0.143283 
0.00293531 -0.000635079 0.143654 
-0.00286568 0.00650602 0.125893 
0.000732966 -0.000366438 0.127381 
-0.00177389 0.00867998 0.119012 
-0.000796747 -0.000511612 0.140814 
0.00372251 0.00299356 0.141299 
7.01437e-05 0.00592896 0.130665 
0.00247986 0.00505072 0.143422 
-0.0114112 -0.0119729 0.111845 
-0.00377288 -0.00303295 0.128985 
-0.00249604 0.00176905 0.128898 
-0.00999451 -0.0184508 0.119756 
0.00852441 0.00323415 0.144955 
0.0073128 0.000309978 0.117211 
0.00857285 0.0171519 0.112174 
0.00216217 0.00115873 0.139772 
-6.95001e-05 -0.000214105 0.132599 
1.18643e-05 -0.00935677 0.132082 
-0.000177132 0.00239381 0.128749 
-0.00162793 -0.0081277 0.111144 
0.00594521 0.0441793 0.0789841 
0.00142509 -0.0045488 0.0731813 
0.0203983 0.0363206 0.0507191 
0.0144539 0.0530539 0.109273 
0.00902036 0.0196648 0.088621 
0.021864 0.0330359 0.0444924 
0.00375514 0.00475826 0.0445604 
-0.00327065 0.0131887 0.0904137 
-0.00286592 0.000898763 -0.0268272 
0.0144773 -0.00450877 0.0647021 
-0.0155628 -0.0252674 0.02986 
0.00756184 0.0325465 0.0471761 
-0.0189535 0.0145872 0.124966 
-0.0208451 0.0203579 0.0502915 
-0.0252916 0.000742626 0.0643117 
-0.00936416 0.00946095 0.0447145 
-0.0100431 -0.00245582 -0.0241047 
-0.000577973 0.00302269 0.00393543 
0.0246973 0.0252794 0.0457144 
0.0501727 0.0426582 0.0597525 
0.000222956 -0.00111316 0.1406 
0.00123489 0.00495102 0.129853 
-0.00048894 0.000621442 0.14014 
0.000682466 0.00626866 0.144107 
-0.00785278 -0.0169289 0.101466 
-0.00258425 -0.0239437 0.0814031 
0.00467737 0.000451487 0.00645444 
-0.00146599 -0.0118059 0.0802192 
0.00242085 0.00565162 0 
0.00244605 0.00282214 0 
-0.0010299 -0.00240431 0 
-0.0110697 -0.0179083 0.0108597 
0.000512951 -1.84764e-05 -0.00767123 
-0.00815637 0.00756658 0.0489442 
0.00147373 -0.000673313 0.00152415 
-0.0083075 0.00333783 0.0482303 
-0.000700851 0.00118771 0.141635 
0.00331079 0.00123093 0.140353 
-0.000470456 -0.00115014 0.143109 
0.00146734 -0.00295336 0.139446 
0.00451967 0.0190723 0.105172 
0.00638679 0.0273428 0.135729 
0.00293942 0.00782077 0.0996085 
0.000820366 0.00600152 0.115203 
0.0148309 -0.0643829 0.208383 
-0.0160096 -0.0429448 0.218427 
-0.00478869 -0.0163283 0.366877 
0.0684838 -0.092116 0.0448221 
0.00467241 0.00481876 0.145334 
0.0145303 0.019338 0.135346 
0.00877821 0.0196641 0.113431 
0.0204604 0.00469101 0.104984 
0.00770029 -0.0137721 0.126768 
-0.0057555 -0.00151152 0.135013 
0.00769146 0.00192462 0.140372 
-0.00174509 0.00121887 0.135707 
-0.007599 0.0137789 0.0965071 
0.00312088 0.0249777 0.130776 
0.00365848 0.0215423 0.103036 
0.00509293 0.00543267 0.122665 
-0.00573015 -0.00598556 0.00529489 
-0.00363282 0.0135855 0.0981566 
-0.00564991 0.0152132 0.076098 
-0.0031795 0.0228765 0.101069 
-0.000701974 -0.00153242 -0.00952957 
-0.0015426 -0.00276853 -0.00221907 
0.00162783 0.00293375 0.002725 
0.0234649 0.0303118 0.0356696 
-0.0182383 -0.0548629 0.0856108 
0.0312876 -0.0131821 0.112498 
0.00306299 -0.0180227 0.145651 
0.0277137 -0.0210638 0.0488827 
-0.0462949 0.110088 0.103879 
0.0134092 0.046115 0.163993 
-0.031625 0.0409877 0.0121561 
0.0323013 0.06169 0.167583 
0.00992355 -0.00177637 -0.00029291 
0.00728264 -0.0001159 0.00565916 
-0.00854442 -0.0167827 0.101675 
-0.00284524 -0.0182 0.0845739 
-0.00382754 0.00854158 0.00941441 
-0.0122281 0.0292728 0.187785 
-0.00415399 -0.000381208 0.0522028 
0.063368 -0.00744639 0.156789 
-0.0129905 -0.00119609 0.0935102 
-0.0265004 0.00741087 0.0266615 
-0.0319105 0.00855064 0.0705748 
-0.0304663 0.0285451 0.144196 
0.000410664 0.00261452 0.140412 
0.000276157 -0.000337887 0.142848 
-0.000609451 -0.00294102 0.132386 
0.000360061 -0.00422465 0.14009 
-0.00733738 -0.0108837 0.110438 
-0.00184449 -0.0148713 0.141714 
-0.00311195 -0.00101729 0.127106 
-0.00215982 -0.00656048 0.127002 
0.00209858 -0.000731708 0.000255108 
-3.39995e-05 -0.0229072 0.0812801 
-0.0045719 -0.0170339 0.101596 
0.00263285 -0.00668105 0.0600494 
-0.000203518 -0.000465002 0.14021 
-0.000394515 -8.58555e-05 0.127472 
0.00102426 0.000232662 0.142303 
-0.000617291 0.00554475 0.127254 
0.00155571 -0.00226272 -0.00441317 
0.000388597 -0.000832845 -0.0071709 
-0.00512836 0.00729712 0.0108776 
-0.0229241 0.039361 0.0625956 
-0.0798015 -0.0660513 0.107493 
0.0450123 -0.0236485 0.0631418 
-0.0326307 -0.0171127 0.0959364 
-0.044895 -0.0690591 0.189316 
0.000432367 -0.000785859 0.00265273 
-0.00105173 0.00037522 0.00417449 
-0.00654182 0.00877704 0.0965856 
-0.00323045 0.00847413 0.0741368 
-0.0013972 -0.0182664 0.0135817 
0.0183619 0.0320475 0.14392 
0.0271251 0.0312515 0.0809549 
-0.00710552 0.00492576 0.0927404 
-0.0100026 -0.00301647 -0.0152528 
-0.0562379 -0.0206446 0.0846568 
-0.0163512 -0.0141591 0.0125132 
-0.0277657 -0.0157178 0.04382 
0.00552102 0.0123671 0.137081 
-0.00483661 0.00662261 0.128026 
-0.00503297 0.0165008 0.120301 
0.00237837 0.00524208 0.141014 
0.00906333 0.00328932 0.140954 
-0.006503 0.00547671 0.131301 
0.0040705 0.0151746 0.136479 
0.00365209 0.00640364 0.138251 
-0.0106487 0.00312786 0.347185 
-0.0281581 0.0708908 0.201197 
0.0286407 0.00193941 0.350402 
0.119398 -0.0378588 0.0867033 
0.0107152 -0.00219255 -0.0296963 
0.0213817 -0.0101143 0.0514774 
0.00583619 -0.00465515 0.0473744 
0.0650908 0.00129666 0.114894 
0.00474039 -0.0147226 0.129611 
0.00565937 0.00353262 0.141177 
-0.00361469 -0.00115975 0.133127 
0.000370767 -0.00564465 0.13831 
0.000508316 -0.000515646 0.133607 
-0.00205578 -0.00767641 0.11041 
0.000571199 0.000497663 0.115941 
-0.00380958 -0.0129606 0.122038 
-0.0112858 0.00929322 -0.0128665 
0.0227063 0.0218336 0.0465974 
-0.00490512 0.00494673 -0.0180503 
0.0471687 0.0226641 0.049709 
-0.00683422 -0.0361158 0.0841112 
-0.00389996 -0.0490427 0.112709 
-0.0302279 -0.0651504 0.181545 
-0.0270401 -0.0494646 0.1276 
0.00757535 0.0193945 0.0925018 
0.0185807 0.0341802 0.0512391 
0.000198035 0.0147486 0.0800252 
0.0152757 0.0403974 0.104773 
-0.016867 0.0681956 0.211556 
-0.0588858 0.0696313 0.116478 
0.0595231 0.0604616 0.16463 
-0.0179731 0.0706781 0.268324 
0.00232029 -0.0243917 0.0344166 
-0.00245061 0.00928445 0.0859428 
0.00444023 0.00947762 0.046716 
0.00368723 0.0113786 0.0253773 
-0.00717831 0.0554318 0.0534249 
-0.0400157 0.013924 0.029359 
0.00995282 0.0617452 0.15708 
0.0185797 0.0957926 0.15475 
-0.100144 -0.0688716 0.155316 
-0.0194914 -0.0148297 0.028701 
-0.0435011 -0.0195942 0.139199 
-0.0183447 -0.0667899 0.238115 
0.00750771 0.0214486 0.123974 
0.00266992 0.0012295 0.137767 
0.00299348 0.0131062 0.131912 
0.00342534 0.00498459 0.141978 
-0.0082722 -0.0278357 0.103232 
-0.0245891 -0.0235923 0.0575998 
0.00297649 -0.0321658 0.0206549 
-0.0119273 -0.0737811 0.0941011 
0.00371725 -0.0120032 0.123568 
0.00699717 0.00192747 0.139384 
0.00400258 -0.0026648 0.141949 
0.0165826 -0.00203517 0.122993 
0.00533102 0.0146968 0.136224 
-0.00241643 0.0061205 0.130543 
0.00584628 0.00263437 0.141546 
0.00366852 0.00605899 0.142676 
-0.00123005 0.081799 0.0834109 
-0.0210392 0.0316357 0.0496725 
0.00759776 0.0325905 0.0440678 
0.00223251 0.0832592 0.139123 
0.00437977 0.00222888 -0.00639165 
-0.0204099 0.00683586 0.0536049 
-0.0100935 0.00674224 0.0483167 
-0.010062 0.0029372 0.0476776 
7.85173e-05 -0.00044408 0.0552324 
2.41268e-05 0.000957794 0.091885 
-0.000156226 -0.00125961 0.0472967 
-0.00292362 0.00936522 0.0902032 
-0.0030587 0.0132905 0.0978644 
-0.000552253 0.0135147 0.0919709 
0.000191375 0.00415517 0.0755794 
0.00439957 0.00999286 0.127645 
0.00478359 0.0422325 0.0752861 
0.0139835 0.0412773 0.053221 
0.00347152 -0.000226847 0.0809984 
0.00619093 0.0143802 0.0116839 
-8.89149e-05 0.000158999 0.0532295 
-0.000797478 0.000531491 0.00120127 
-0.000737427 -0.00404365 0.0827515 
-0.000784782 -0.00171286 0.0658312 
0.000239759 -0.00151551 0.0839701 
0.00482981 0.0101517 0.113804 
0.00209761 0.00560939 0.0582405 
0.00260604 0.00572311 0.0959465 
0.000804005 0.000827554 0.00120422 
0.00122178 -0.00115937 5.35743e-05 
-0.00823933 0.00862559 0.0533668 
-0.00202298 0.00319547 0.0557762 
0.000399926 0.00427567 0.0762897 
-0.00228217 0.011234 0.0936919 
0.00228893 0.00837135 0.0996581 
0.00629632 0.0126624 0.124754 
-0.000378437 0.00100078 0.109414 
0.000135403 -0.00579668 0.069163 
-0.000930954 -0.00722396 0.107321 
0.00136201 0.0011767 0.0957293 
-0.00246782 0.00239748 0.00781596 
-2.21964e-06 4.72376e-06 0.00483071 
0.000299671 -0.000292007 -0.00259699 
-0.0107038 0.0194743 0.0774385 
-0.00557399 0.00354355 -0.000109913 
0.00293866 -0.00330864 0.0155098 
0.022994 0.0044783 0.161419 
-0.00647953 0.00971687 0.0892742 
0.00500825 0.00883163 0.106389 
0.00708635 0.0249578 0.128116 
0.00309321 0.0155069 0.135755 
0.00728875 0.0267898 0.131732 
0.00683268 -0.00476833 0.0757597 
-0.00511695 -0.0201687 0.038852 
-0.0104457 -0.0299135 0.0934912 
-0.000941934 0.00313066 0.0812166 
0.00665117 0.00485751 -0.0219832 
-0.0206151 -0.0217703 0.037583 
0.00871029 -0.00926438 0.0574333 
-0.0147925 -0.0268855 0.0261892 
0.000134374 0.0017354 0.141015 
0.00121307 -0.000964347 0.144404 
-0.000624229 0.000185594 0.132089 
-0.00186099 -0.00188827 0.130091 
-0.00114794 -0.00527127 0.00513096 
0.0014239 0.00327189 0.0749913 
0.00325593 0.00925345 0.101609 
0.00199558 0.00836969 0.0806425 
0.0241386 -0.0101987 0.326718 
0.000516071 -0.0121602 0.306709 
0.0088985 0.0148209 0.351165 
-0.0280342 0.0836182 0.228937 
0.00553733 0.00298233 0.147152 
0.00795783 0.0208701 0.113321 
0.00857024 0.00150095 0.116487 
0.0201323 0.00599715 0.102458 
0.0042993 0.0101189 -0.00734819 
-0.0241303 0.0322863 0.0324666 
-0.00168497 0.000650154 -0.00430718 
-0.010848 0.0117784 0.0156439 
0.00274325 0.0186125 0.133549 
-0.00739556 0.0150556 0.119353 
0.00938078 0.0163368 0.136443 
0.00694804 -0.000531725 0.145455 
-0.0155061 0.0153815 0.11913 
-0.00630234 0.004894 0.0752332 
-0.00412519 0.00816846 0.0731458 
-0.010353 0.00916267 0.0490846 
-0.000688264 0.00500547 0.00623485 
-0.0137663 -0.000209038 0.0892972 
0.0070706 -0.0100437 0.0853764 
0.000537749 -0.0068728 0.0773821 
0.000460292 -0.000615046 0.0761765 
-0.0039049 0.00681422 0.0734265 
0.000697165 0.000103183 0.0919861 
-0.00319484 0.00713046 0.120346 
0.0016109 -0.000395624 0.0498454 
-0.00256356 -0.00403594 0.0841264 
-0.00306827 -0.00550038 0.100132 
-0.000445935 -0.00187957 0.0649407 
-0.00523454 -0.0167192 0.0147968 
-0.029234 -0.031093 0.0587952 
0.0180967 -0.0765986 0.0674428 
-0.00863339 -0.06788 0.0930918 
0.00187029 -0.0118118 0.116214 
0.000506102 -0.0225247 0.114548 
0.0223267 -0.044421 0.0913065 
0.00749816 -0.0609683 0.143069 
0.00462904 0.000119954 0.00234364 
0.00163191 0.00240202 0.0772225 
0.0010875 -0.000480289 0.0017668 
-0.00293603 0.00892735 0.0827788 
-0.00123932 0.00390079 -0.00875488 
-0.0177753 0.0277954 0.0525248 
-0.00103859 0.00201284 0.00274951 
-0.012104 0.00800438 0.0478639 
0.000758493 0.000557054 0.00174453 
0.000388172 -0.00017442 0.0458067 
0.00457194 0.00777247 0.0758831 
0.00218215 0.00512848 0.0611635 
-0.00575761 -0.0013179 0.0669222 
-0.00509124 -0.00596686 0.0678855 
-0.0118777 -0.0060784 0.0469692 
-0.0165764 -0.00783448 0.0946983 
-0.00208555 -0.00313161 0.0028717 
-0.0106912 -0.00604441 0.0538997 
-0.00643609 -0.00301113 0.0687791 
-0.0050288 -0.00446231 0.063025 
-0.0309585 0.00129016 0.0482362 
-0.00940048 0.00443067 0.0151145 
0.0125504 0.00759946 -0.00413607 
-0.0161091 0.00446726 0.0188395 
-0.00283717 -0.000180313 -0.00705362 
0.0263073 0.029331 0.0531149 
-0.00173616 -0.00241892 -0.00606941 
0.021743 0.027904 0.070729 
-0.00106303 -0.000296412 0.00425528 
0.00219337 8.92661e-06 0.00825166 
0.00457694 0.00656617 0.0779518 
0.00211765 0.00822411 0.10332 
0.0084389 -0.0117404 -0.00339074 
0.00736586 0.0231121 0.183167 
-0.00529233 0.00319766 0.0100305 
0.0306631 -0.00249303 0.164746 
-0.000353313 0.00055717 0.00344814 
0.00283301 0.00684468 0.0787356 
0.000187409 -0.000569349 0.0449806 
0.00317993 0.00531953 0.104224 
0.000672817 0.00286227 0.00272606 
0.0124804 0.0182731 0.0644135 
0.00598624 0.010348 0.0454718 
0.00251336 0.00593928 0.0561882 
0.000426132 -0.000220514 0.0394454 
-0.00480149 -0.0017886 0.067062 
0.000524093 -0.00107563 0.00272626 
-0.00347404 0.000493333 0.0612207 
0.00306343 0.000316757 0.00234775 
0.00346319 -0.000496703 0.00367465 
-0.00385119 -0.00372296 0.077557 
-0.00661921 -0.00153448 0.0761257 
-0.0211 0.0360849 0.0591313 
-0.00933462 0.00637316 0.0125578 
-0.00958066 0.0180543 0.0784863 
-0.0341977 0.0454056 0.055384 
0.000229401 -0.00950547 0.129404 
-0.00146939 -0.0137852 0.130062 
0.000207634 -0.0003231 0.140284 
0.000800028 -0.00600603 0.139839 
-0.0127875 -0.00192461 0.0918987 
-0.0321521 0.0279399 0.145514 
-0.0307884 0.00824077 0.0684056 
-0.0144804 0.00127782 0.121009 
0.00260285 0.00605304 0.119536 
0.00304605 0.0140687 0.13362 
0.00719103 0.0244268 0.121242 
0.00279148 -0.00236665 0.136703 
4.03562e-05 -0.00865602 0.129171 
-0.00610362 -0.025338 0.109508 
0.00684896 -0.0204499 0.123666 
0.00610345 -0.00539363 0.117433 
0.00386778 0.0149171 0.138037 
-0.0063561 0.0170895 0.11946 
-0.00280422 0.00376541 0.127158 
-0.00191477 0.00781646 0.119712 
-0.028472 -0.0220339 0.0815531 
-0.00801243 -0.00386459 -0.000590141 
-0.00770171 -0.00992766 -0.00393661 
-0.0797061 -0.0407426 0.0997424 
-0.000291759 -0.00777686 0.109116 
-0.00601051 -0.0118068 0.124022 
-0.00820778 -0.0298012 0.108863 
-0.00151108 -0.00728349 0.0996276 
-0.0521633 -0.0139572 0.0394729 
-0.0347416 -0.0357074 0.14094 
-0.00459616 -0.0690737 0.234141 
-0.0276956 -0.0228566 0.116676 
0.0120727 0.00997157 -0.0277066 
-0.0135981 -0.0399115 0.0513176 
0.0011069 -0.00298253 -0.00374476 
0.0136072 -0.0808223 0.0634077 
-0.000528582 -0.000343604 0.00217321 
0.00396075 -0.0109241 0.100254 
0.000325635 -0.00213737 0.00553887 
-0.0025068 -0.00307858 0.0668643 
0.0229268 0.0283035 0.0806594 
-0.00264224 0.00723303 0.0940449 
0.0117145 0.0312526 0.138812 
0.00846275 0.0223669 0.109043 
-0.0051756 -0.0192831 0.0988868 
-0.00786727 -0.0257283 0.116023 
-0.00886525 -0.0107842 0.122879 
0.000412401 -0.0102772 0.0965393 
-0.00212171 -0.0100626 0.127405 
-0.0100698 -0.0252632 0.102171 
-0.000807843 -0.00693659 0.110902 
-0.00336329 -0.0171834 0.12416 
0.0110638 -0.000812237 -0.0146132 
0.0135831 0.00285223 0.0730934 
0.0101149 0.0135095 0.0367279 
0.0523636 -0.0107339 0.0766899 
0.000165591 0.00206299 0.121971 
-0.00031491 -0.00132432 0.129841 
0.00177731 0.00337933 0.120617 
-9.88172e-05 -0.00531449 0.10776 
0.000318277 -0.00019794 0.0820496 
0.00470041 0.00872746 0.0744164 
0.000537287 -0.00102146 0.0476564 
0.00189833 0.00586441 0.0592346 
0.00378842 -0.0161528 0.12194 
0.0113894 -0.0412676 0.0891521 
0.00491756 -0.0304299 0.136855 
0.00690056 -0.0592396 0.140753 
5.7648e-05 0.000475613 0.045298 
-0.000459356 0.000241526 0.0690302 
0.000254303 0.000560247 0.00212501 
0.00159778 0.00309701 0.101175 
-0.016025 -0.00219002 0.0912111 
0.00242346 -0.00471743 0.075915 
0.00221838 0.00271104 0.0025106 
-0.00614734 -0.00517385 0.0777662 
0.000501348 0.0031659 -0.011093 
-0.0173634 0.032916 0.0494892 
-0.00126889 0.00871933 -0.0166722 
-0.0348234 0.0384292 0.0424983 
-0.000205376 -0.00167892 0.138034 
0.000306031 0.00057176 0.129823 
0.00233667 0.00771312 0.122716 
0.00327394 0.0117147 0.132786 
-0.0135951 0.0167589 0.0658823 
0.00131237 0.0240031 0.1108 
-0.00614295 0.0130196 0.0928451 
-0.00402063 0.0324144 0.124014 
0.0113019 0.0303007 0.179787 
0.0281372 0.0209874 0.159491 
0.00621571 -0.0260024 0.00121418 
0.000586729 0.00963095 0.0970553 
0.000873229 -0.000874095 0.144685 
-0.00100392 0.000280537 0.133497 
-0.00136545 -0.00201808 0.129349 
1.27093e-05 -0.00447602 0.140659 
0.00346225 0.00271992 0.131463 
0.00326438 0.000488994 0.145312 
0.00407896 0.00767944 0.141303 
0.0186804 -0.0070545 0.131481 
-0.000806081 0.00249118 0.060187 
-7.48486e-05 0.000425898 0.0999071 
-0.00161596 -0.00829175 0.0952775 
-0.00132455 -0.00749271 0.116856 
-0.000671155 0.00160112 -0.00383349 
-0.0180134 0.0323218 0.0361442 
-0.00111479 -0.00109084 0.00393114 
-0.0127534 0.0145385 0.0140999 
0.00456693 0.009914 0.0766044 
0.0103931 0.0177573 0.0656238 
-0.000628537 -0.00081536 0.00250972 
0.0055565 0.00779956 0.0606159 
0.000257939 0.000516394 0.144667 
-0.000396289 -0.0014248 0.14206 
-0.0014103 0.000385514 0.141348 
0.00394791 0.00248112 0.142206 
-0.00292387 0.0011777 -0.0094148 
-0.0109268 0.00553361 0.00926053 
0.00981002 -0.00412378 0.0248206 
0.0603575 -0.00615169 0.16409 
0.00155266 0.00215573 0.00250389 
0.00116003 0.00161255 0.0018399 
-0.00108636 -0.00103527 -0.00916471 
0.0297285 0.0270598 0.0388398 
0.0028765 0.0115273 0.104615 
0.005703 0.0241563 0.129565 
0.00494617 0.0159549 0.137807 
0.00159858 0.00727731 0.118942 
0.00436595 -0.0154266 0.125649 
0.00611086 0.00558331 0.141533 
0.000649145 -0.00513237 0.141297 
0.00776153 -0.00457461 0.120646 
-4.62961e-05 -0.000240125 -0.00959256 
-0.0026838 0.0047838 0.00350483 
0.00138856 -0.0024826 -0.00203875 
-0.0226783 0.0339393 0.0444797 
-0.00371329 0.00104045 -0.00726964 
0.022828 0.0329503 0.0531462 
0.013655 0.0270905 0.0774793 
0.0438647 0.0234346 0.0567398 
-0.0367954 -0.00744769 0.0625861 
0.00224578 -0.00489097 0.131704 
-0.0166248 0.0436884 0.144099 
0.00364929 -0.00378803 0.153949 
0.00931364 0.0459828 0.057432 
0.00790966 0.0235748 0.150413 
-0.0271387 0.0450569 0.137186 
-0.00323542 0.0504504 0.101805 
-0.0258687 -0.00616181 0.0809065 
-0.00376502 -0.00117056 0.142103 
-0.0241611 0.024406 0.128381 
-0.0154954 -0.0114976 0.0891238 
-0.00345776 -0.0513302 0.087647 
0.015191 -0.0685327 0.148243 
0.0100956 -0.0124742 0.112737 
0.0291086 -0.032252 0.042772 
0.00241 -0.0187083 0.128725 
0.00400821 0.00356272 0.144046 
0.0110745 -0.00219749 0.11711 
0.0184372 -0.00297745 0.112101 
-0.0066615 -0.0500887 0.161061 
-0.0306091 -0.0389869 0.100541 
-0.00106649 -0.0216978 0.0689114 
0.0104901 -0.0554634 0.105568 
-0.007909 0.0367016 0.130274 
0.00940358 0.00984703 0.116836 
-0.0182504 0.0252561 0.0621446 
-0.00953849 0.0416212 0.120234 
-0.00541585 -0.0217142 0.164068 
-0.0113484 -0.0583897 0.224965 
-0.0495732 -0.0258721 0.143156 
-0.0157683 -0.0288644 0.111774 
0.0153124 0.0325682 0.126177 
0.00528177 0.0274488 0.126388 
0.00268598 0.00479008 0.108864 
0.00862461 0.0246156 0.133226 
-0.0109739 -0.00149759 0.0111931 
-0.0204676 0.0444179 0.0620716 
0.00215508 -0.000183817 -0.00668854 
-0.0307547 0.0471142 0.0514954 
0.0676028 -0.0149101 0.149903 
0.0266102 -0.00239013 0.139591 
-0.0330248 -0.0927224 0.0482837 
0.0566421 -0.0365683 0.204369 
-0.00718611 -0.0238935 0.0945778 
-0.00240708 -0.0109294 0.130875 
6.39937e-05 -0.00717191 0.111021 
-0.00277037 -0.00774642 0.108057 
-0.000166124 -0.000154996 0.0737113 
-0.00517454 -0.00189989 0.0675915 
0.000704244 -0.000223101 0.0389665 
-0.00364356 0.000533831 0.0615509 
0.0750715 -0.0817437 0.126058 
0.0942981 -0.0466097 0.184572 
-0.0427229 -0.0276123 -0.0274232 
0.0150555 -0.0586023 0.234459 
0.010818 0.0165338 0.136996 
0.0073753 0.00329111 0.138579 
0.00770284 0.00305173 0.143037 
0.0170718 0.00766263 0.115097 
0.00204925 0.00205771 0.00152492 
0.0153314 0.0244768 0.041193 
0.000922779 0.00234074 -0.00731173 
0.00702591 0.00841023 0.0437935 
0.0112847 -0.015351 -0.0157409 
0.00580151 -0.00544613 -0.0204763 
0.00108435 -0.00305538 -0.000208618 
-0.0982206 0.00128515 0.0872685 
-0.00108537 -0.000466205 0.000249047 
-0.00226511 -0.000960906 -0.000671595 
0.00114329 0.000458624 0.00295037 
0.00531208 0.00266555 0.0772183 
0.00865677 0.00954331 0.00318225 
-0.0215093 -0.00244307 0.0885879 
0.00347191 -0.0178492 -0.0175197 
0.0593635 0.00292453 0.0878865 
-0.0144339 -0.0306908 0.101583 
-0.00270994 -0.0122657 0.127139 
0.00228858 -0.0061715 0.126877 
-0.00902938 -0.0289112 0.114127 
-0.000533592 -4.09741e-05 0.124886 
-0.000325782 -0.0048913 0.106047 
0.00314068 0.00556857 0.119531 
0.000985498 0.00284372 0.0967109 
0.000678861 0.000852713 -0.00218485 
0.0157326 0.0271123 0.0246 
-0.00177227 0.00372128 -0.00431664 
0.0019968 0.00798222 0.00677702 
0.00217464 -0.00411507 -0.00182049 
-0.0194051 0.012613 0.0496904 
0.00193015 -0.00389278 -0.0059568 
-0.00918502 0.0119917 0.0447609 
0.00600158 0.0218841 0.126767 
0.003505 0.0123336 0.13269 
0.00554598 0.0154572 0.135068 
0.00398347 0.00493226 0.140642 
0.00220157 0.00314272 0.000191219 
-0.0089482 0.00458857 0.0726723 
0.00321492 -0.000492243 0.00100546 
-0.00893556 0.00681541 0.0487061 
-0.00372081 0.00728142 0.125019 
-0.0125692 0.00716601 0.127118 
-0.0352653 0.011205 0.0615322 
-0.0505133 -0.00384692 0.122105 
-0.00522975 0.000193981 0.133569 
-0.0111289 -0.0230388 0.120122 
-0.00972903 -0.00956374 0.109319 
-0.0177124 -0.008739 0.0956411 
-0.0495102 0.0563044 0.133657 
0.0206684 0.0215013 0.0540511 
0.0252663 0.0348598 0.0588488 
-0.0182695 0.0535915 0.0978695 
0.00454814 -0.0160408 0.124247 
0.00672123 -0.0591615 0.14005 
0.00309067 -0.0330524 0.134879 
-0.0124978 -0.0223781 0.130587 
-0.000285102 0.00411061 -0.00224949 
8.12467e-05 -0.00187987 0.00605116 
-0.000281277 0.00459063 -0.00630615 
0.0109535 -0.0551632 0.0441707 
-0.0164604 -0.0107827 -0.0275108 
-0.00372921 -0.0161501 0.0243591 
0.00862997 0.0535948 0.0654843 
0.00894226 0.0350144 0.0546797 
-0.00015662 -0.000275483 0.0889986 
0.000841748 0.00104097 0.107018 
-0.000508012 -0.00591558 0.0707204 
-0.00127892 -0.00786421 0.109896 
0.00333124 0.00311744 0.00347028 
-0.0138017 -0.0111105 0.0479673 
-0.0250185 -0.0148993 0.0773082 
-0.0230697 -0.0149692 0.0414848 
-0.00738416 -0.0336123 0.109549 
-0.00422488 -0.0206208 0.0373438 
0.00320213 -0.00084793 0.0613244 
-0.00355288 -0.0314785 0.0755825 
0.00409183 -0.0127251 0.0132796 
0.00986306 0.0148851 0.0925669 
0.0094319 0.0183293 0.0814049 
0.00845607 0.0289397 0.112298 
0.00548861 0.0182861 5.35017e-05 
-0.00422736 0.0021458 -0.0237752 
-0.00939849 0.0134458 -0.0164866 
0.0795956 -0.0445631 0.0988806 
0.0138887 -0.0141717 0.0630924 
0.0261923 -0.0154895 0.0546989 
-0.0248269 -0.0646398 0.0826627 
0.0337122 0.0085288 0.104027 
3.78458e-05 0.00017494 0.126402 
-0.00189675 -0.0135153 0.129707 
0.000713589 0.000466651 0.139784 
-0.00289253 -0.011984 0.121385 
0.00914283 0.0212453 -0.0496205 
-0.011013 -0.0405445 0.0187376 
0.010031 -0.0334352 0.0311053 
0.00321307 -0.107183 0.133272 
-0.00254051 -1.56893e-05 0.13023 
-0.00421504 -9.18689e-05 0.134138 
-0.0110198 -0.012473 0.10646 
-0.0154664 -0.00861378 0.0973959 
-0.000901011 1.02351e-05 0.000320403 
0.000192024 0.00158149 0.0475695 
-0.000346576 -0.00180487 -0.000193266 
0.0038358 0.00340732 0.0768544 
5.08904e-05 0.00117566 0.144508 
-5.29254e-05 -0.00147612 0.143703 
0.00372639 0.00181222 0.140216 
0.00241259 0.00118188 0.139999 
-0.00534927 -0.017472 0.275672 
0.0431032 -0.0107723 -0.0259307 
-0.0102012 -0.0194864 0.0303425 
0.0856504 -0.000258019 0.167993 
-0.0294381 0.0530931 0.14929 
-0.00581952 0.0142225 0.0559685 
-0.0115473 -0.00324457 -0.00556082 
-0.0400248 0.0515461 0.0908093 
0.00346031 -0.00598109 0.00432185 
-0.00597132 -0.0300847 0.0440951 
0.0011711 -0.00711036 -0.0139949 
0.0058338 -0.0375547 0.0547542 
-0.00349362 0.00463002 0.125309 
-0.0027383 -0.00150728 0.128807 
-0.0109704 0.00750727 0.125833 
0.00155553 0.00832492 0.143563 
-0.040542 -0.0198996 0.0988958 
-0.00851777 -0.0627062 0.175803 
0.00397249 -0.0284814 0.0783524 
-0.0137953 -0.0233032 0.129292 
-0.011439 0.0167847 0.121714 
-0.0090197 0.00342651 0.0728325 
-0.0118121 0.0066471 0.0455973 
-0.0182279 0.00855113 0.121599 
0.000284622 0.000175673 0.140226 
0.00337607 0.0120843 0.133213 
0.00190353 0.00548035 0.119731 
0.00271411 0.00224163 0.137378 
0.00529375 0.00050992 -0.00862289 
-0.011055 0.00927849 0.0464929 
-0.0239275 0.00780077 0.0522334 
-0.0157663 0.00821022 0.0223804 
0.000175034 -0.000202935 -0.00138062 
0.000358188 -0.00237301 0.00307548 
0.00886386 0.0195036 0.064361 
0.00507946 0.00811497 0.0600894 
-0.0321602 0.00769612 0.0701675 
-0.0196023 0.00635708 0.0391027 
-0.0122522 0.00245421 0.0946597 
-0.00760085 0.00519634 0.0420202 
0.00306215 0.0058279 0.0388766 
0.00281147 0.00185669 0.0142736 
0.00107836 -0.00137938 -0.00835553 
-0.000319748 -0.0112496 0.0316545 
0.00154925 -0.0163607 0.13489 
0.00103224 -0.00604918 0.140491 
-0.00351479 -0.00016108 0.128792 
-0.00274061 -0.00588248 0.128715 
0.000113571 -0.00602776 0.0700299 
0.00396377 0.0125959 0.0442209 
-0.000406014 -0.018079 0.0300588 
0.00164315 0.00302201 0.0897191 
0.00587136 0.0155065 0.136909 
-0.00334482 0.0061522 0.12079 
-0.00492454 0.0038729 0.12819 
0.00683144 0.00855038 0.145455 
0.00358079 -0.0147948 0.123793 
-0.00113148 -0.0155597 0.10123 
0.00694069 -0.0632629 0.145417 
-0.014934 -0.0218136 0.132991 
-0.0145499 0.00341041 0.0948723 
-0.0227223 0.0158362 0.121107 
-0.00642874 0.00065644 0.140195 
-0.0170083 -0.00669897 0.0921587 
-0.0012923 -0.000984834 0.139371 
0.000395934 0.00900496 0.122547 
0.00432283 0.0134049 0.135223 
0.00234656 0.00614717 0.144408 
0.000355386 0.000558473 0.114111 
-0.00361153 -0.012849 0.124525 
-0.0017841 -0.00859474 0.108656 
-0.00221643 -0.00912105 0.0992642 
-0.000154964 -0.000809616 0.0525053 
0.000494993 -0.000117063 0.0472389 
-3.53464e-05 7.14418e-05 0.0822935 
0.0020432 0.00433001 0.102968 
0.000959073 -0.000350616 -0.000225507 
-0.00637673 -0.00356876 0.0688564 
-0.00193535 -0.00412268 0.00353318 
-0.0109078 -0.00438322 0.0532031 
0.00107802 -0.000740526 -0.00388222 
-0.010145 -0.00334109 0.0431213 
-0.0158357 0.00262934 0.0341732 
-0.00349499 -0.00121597 0.0410093 
0.000213893 -0.0012052 0.109903 
-0.00141825 0.0100314 0.120324 
0.000295769 0.012263 0.0985239 
0.000362041 0.00843377 0.124178 
-0.0262613 -0.0152084 0.0752217 
-0.0118248 -0.00460749 0.141676 
-0.0462971 -0.0555856 -0.00279565 
-0.0131548 0.0251228 0.0504163 
0.000555197 -0.0270113 0.128293 
0.000677027 -0.0278731 0.133294 
-0.000868369 -0.0136101 0.127634 
-0.0033208 -0.0181698 0.128763 
0.00138592 0.00172884 0.00312258 
-0.000553122 -0.000498515 0.0513109 
-0.000790464 0.000368117 0.0467218 
0.000515083 0.00150551 0.0744815 
-0.00602773 -0.00514142 -0.0233626 
0.0428715 -0.00584798 0.124691 
-0.00198429 0.00404382 -0.0346595 
0.0577416 0.0224217 0.163068 
-0.000120617 0.000114825 0.131919 
-1.12394e-06 5.37012e-05 0.126253 
0.000191859 0.000439869 0.140675 
-0.00267799 -0.0121567 0.120687 
0.00281468 -0.0382246 -0.00396194 
-0.00531574 -0.0346101 0.049274 
-0.00145296 0.0162388 -0.0118704 
-0.0202119 -0.0293201 0.0538943 
0.000477154 0.000602167 0.00180296 
-0.000442762 -0.00662867 0.0700258 
0.000918441 -0.00118981 -0.00121377 
0.000825611 -0.00800926 0.0589546 
-0.00932763 0.00565239 0.0767782 
-0.0139437 0.00782027 0.115312 
-0.00303874 0.00524894 0.128273 
-0.00425195 0.000931581 0.105088 
0.000438042 0.000208708 0.0917581 
-0.00429273 0.00687263 0.0732207 
-0.00328554 0.010541 0.0943786 
-0.00182189 0.00858695 0.118813 
0.00587735 -0.0178123 0.123641 
-0.000241483 -0.00400025 0.143796 
-0.00109931 -0.009516 0.127661 
0.00792241 -0.0046565 0.119605 
0.00730454 0.0149343 0.379019 
0.034987 0.0181218 0.336904 
0.0337845 -0.140288 0.0138249 
0.0405166 -0.0164183 0.224566 
0.00252495 -0.00178213 0.0038838 
0.0114303 0.0306387 0.026797 
0.00182757 0.000122696 -0.00278655 
0.00326935 0.00703847 0.0061201 
0.0010551 0.00169888 -0.00289448 
0.0066469 0.0159666 0.0452234 
-1.2172e-05 -0.00128001 0.0028163 
0.0167239 0.0197534 0.0662579 
7.95732e-05 0.00143682 0.132021 
-0.000642642 0.000293924 0.140861 
0.00383588 0.0120981 0.133252 
0.00242836 0.00570506 0.143117 
0.00387143 -0.0073526 0.0104189 
-0.00758572 -0.0045133 -0.00832703 
-0.0204827 0.0556993 0.148838 
-0.0233695 0.022629 0.0711757 
-7.58198e-05 0.00722169 0.120642 
0.00856873 0.0193433 0.113411 
0.00724087 -0.000477542 0.115134 
0.00227322 0.00113668 0.142227 
-0.0117941 0.0146711 0.115768 
-0.00350982 0.00838688 0.0724835 
-0.00725865 0.00452747 0.0762709 
-0.00274232 0.00499827 0.0997908 
0.00067973 0.00285956 0.0576765 
-0.00215844 -0.0060881 0.0988069 
-0.00259912 -0.00614125 0.0789849 
-0.00307093 -0.0100904 0.117387 
0.000538062 0.000208613 -0.000935949 
-0.00841752 0.00872664 0.0546087 
-0.00503565 0.00769008 0.0706567 
-0.00192304 0.00349065 0.0569052 
-0.0128572 0.00106976 0.0966717 
-0.0157279 0.00638116 0.115097 
-0.00808592 0.00619158 0.0759636 
-0.0031538 0.00179425 0.105173 
-0.000355594 -0.000553074 0.14545 
0.00109359 -0.00450703 0.13944 
0.00337837 0.00144812 0.139107 
0.00328804 -1.16415e-05 0.138176 
-0.000293237 0.000276777 0.131127 
0.00129028 -0.00684271 0.129051 
-0.000200331 -3.33746e-05 0.142202 
0.00217366 0.000126448 0.138394 
0.0102876 0.0281259 0.122659 
0.000480351 0.00057221 0.0912139 
0.0045208 0.0330061 0.132521 
-0.00578169 0.0266872 0.127916 
-0.00394349 0.00313946 0.137333 
-0.0107308 0.0109146 0.129017 
-0.00394112 -0.00402242 0.125837 
0.00297574 0.00674436 0.14301 
0.00218472 0.00206426 0.000477432 
-0.0073331 0.00315845 0.0143185 
0.00171735 0.00157885 -0.00452781 
-0.0103321 0.00432241 0.016437 
0.000910992 -0.000912868 -0.000416601 
-0.000275059 0.000276069 0.000158456 
0.00107596 -0.00105649 0.00110569 
-0.00772818 0.00875079 0.101117 
0.00375546 0.00175666 -0.00327195 
-0.0205569 0.00790135 0.0473944 
0.00188169 -0.00111757 -0.000202442 
-0.00826287 0.00367283 0.0159146 
0.000248428 -0.000212162 0.0521049 
0.00200745 0.00264022 0.0738844 
0.000947732 0.000212322 0.0470875 
0.00155263 0.00368036 0.103388 
-0.000419569 -0.000647905 0.131102 
0.000200752 0.00029055 0.140813 
0.000240507 0.000859281 0.128792 
0.000266632 -0.0080981 0.133971 
0.000208727 -0.000606648 0.0917686 
-0.00292886 0.0115696 0.0929469 
0.00170364 4.54922e-05 0.112566 
-0.00190316 0.00838714 0.119343 
-8.89438e-05 0.000316187 0.0424053 
0.00100503 -0.000752261 0.0553529 
-0.000469736 -0.00126065 0.0021864 
-0.00267212 -0.00258679 0.0790317 
0.000324538 0.000535488 0.132065 
-0.00042065 -0.000531469 0.140881 
-0.000786103 -0.000375893 0.127078 
0.00345551 0.0135831 0.13339 
0.00183248 0.00120284 -0.00556291 
0.0138582 0.0261644 0.0709195 
0.00196679 0.00268517 0.00464071 
0.0336915 0.0234711 0.055985 
0.000875027 0.0006631 0.0732242 
0.00114363 -0.00419449 0.0697669 
-0.000503742 -0.000205577 0.107887 
0.000859176 0.000685064 0.0958712 
0.00440764 -0.00183075 -0.00721894 
-0.0163926 0.00617077 0.0258198 
0.00697913 -0.00274143 -0.00923399 
-0.0115461 0.00611214 0.014506 
-0.00563284 0.0401195 0.0639319 
0.000906633 -0.0204536 0.0273574 
0.00962225 -0.0155235 0.060789 
0.00381434 0.0392349 0.0515182 
-0.000192943 -4.44431e-05 0.141527 
0.000315811 9.91077e-05 0.125592 
0.00240653 0.0132011 0.134978 
0.000964498 0.00804883 0.120132 
-0.000105292 -0.00130556 0.00188428 
0.00637352 0.00872372 0.0764001 
0.000892144 0.000792372 0.00271406 
0.00294435 0.00802324 0.0606954 
0.0193084 0.035138 0.118853 
-0.0126693 0.00737972 0.111212 
0.00253782 -0.000693602 0.0919862 
-0.0153368 0.0205373 0.131217 
-0.00082495 -0.00366146 0.00996949 
0.00188177 -0.00550797 -0.0142707 
-0.00164888 -0.000985778 0.0926199 
0.0316052 0.00674419 0.0839302 
-0.0199501 0.012417 -0.0143856 
-0.0113562 -0.000249094 0.17595 
-0.0393829 -0.0143512 0.150463 
-0.00679437 -0.0117101 0.085609 
0.00106999 0.00198987 -0.00874754 
-0.00947827 -0.00377523 0.025539 
0.000373936 0.000595296 -0.00224237 
-0.00749271 -0.00693164 0.0157785 
0.000836967 0.000365814 -0.00126455 
-0.00833826 0.00165921 0.049 
-0.00674705 0.00476791 0.0751345 
-0.000988861 0.00188754 0.0494588 
0.0186444 -0.0187679 -0.00404693 
0.0228495 0.0285948 0.115397 
0.0111198 0.0301462 0.172954 
0.0261529 -0.0242285 0.163534 
-0.000809441 -2.21087e-05 0.122702 
-0.0024801 0.00452182 0.125961 
0.00156813 -0.000153814 0.141918 
-0.00216222 -0.000335539 0.129946 
0.0182532 0.0360845 0.127174 
0.0211264 0.0277677 0.105585 
-0.00131343 0.0351987 0.124053 
0.0091102 0.0191037 0.131526 
0.00214963 -0.0211232 0.116134 
-0.0611333 -0.010627 0.125382 
-0.00457725 -0.0519203 0.105822 
-0.022188 -0.0249932 0.128231 
0.0289665 0.000166631 0 
-0.045837 0.00148317 0 
0.0132102 -0.00724737 0 
-0.10041 -0.0273138 0.0940384 
0.00904284 0.0234486 0.11533 
-0.00708243 0.0466301 0.11602 
0.0113104 0.0325171 0.0870905 
0.00161191 0.030366 0.140071 
0.0091043 0.00548687 0 
0.00246427 0.0140011 0 
-0.00260384 -0.0167048 0 
-0.0104726 -0.0419573 0.0222607 
-0.0158177 0.0100433 0.342654 
-0.00669531 0.0504915 0.185681 
-0.0508612 -0.0032591 -0.0154913 
-0.0486472 0.0548174 0.104068 
-0.00695878 -0.000968363 -0.0155557 
-0.00653565 0.00448517 8.46294e-05 
-0.0115054 0.0362698 0.0530701 
-0.0268671 0.0417771 0.0465001 
-0.0100254 -0.0107703 0.108911 
-0.0187235 -0.0138144 0.0812057 
-0.00426635 -0.00391937 0.0665104 
-0.0159553 -0.0105479 0.0938898 
-0.00108513 -0.0074389 0.127353 
-0.000981274 -0.0155435 0.134607 
0.0042228 -0.0211672 0.124123 
-0.00350244 -0.0268087 0.111937 
-0.00193506 -0.0151503 0.129927 
0.000189052 -0.00479179 0.13898 
0.00412544 -0.0184983 0.131588 
-0.00488097 -0.00422408 0.132005 
-0.000119655 -0.000641135 0.00402404 
0.00363316 0.00374157 0.0429348 
0.00124585 -0.00331013 0.0656531 
0.000169376 -0.000112838 0.0457081 
-0.018399 0.0422044 0.0380074 
-0.0446043 -0.0419738 0.117019 
-0.0288101 0.0129064 0.00272347 
-0.00147981 0.0359609 0.0693297 
0.00234594 0.00212969 0.124952 
0.00343152 0.0158979 0.135518 
-0.037162 -0.0304797 0.0847743 
-0.0159804 -0.0293211 0.118366 
0.00215444 -0.00451008 -0.00469795 
0.0197774 0.0310947 0.0523802 
0.00671957 0.00809413 0.0431576 
0.017769 0.0305247 0.0688931 
8.08319e-05 0.000985866 0.061598 
-0.00089703 7.68714e-05 0.0831982 
0.000383546 -0.000177691 0.100698 
-0.00192374 -0.00564828 0.116193 
-0.00453126 0.00691448 0.0718793 
-0.00911203 0.00978305 0.0532572 
-0.00609451 0.00613681 0.0758248 
-0.00115502 0.00243626 0.0551165 
-4.8176e-05 -0.000108236 0.0825729 
-0.00130902 -0.00611487 0.0705466 
-0.00233411 -0.0105247 0.127298 
-0.00112923 -0.00845421 0.0980557 
0.033406 0.00209096 0.166991 
-0.0417621 0.0147995 0.143877 
-0.00547761 -0.0245556 0.141055 
0.0315128 -0.0241905 0.212226 
-0.000892141 0.000489459 -0.00331045 
0.00173014 3.37219e-05 0.00372167 
-0.00611407 0.00717955 0.0761009 
-0.00797502 0.00719643 0.0491838 
0.00353215 -0.00300787 0.00536833 
-0.00335234 0.00175327 -0.0015006 
0.014043 -0.00202032 0.0982531 
-0.000106644 -0.00727387 0.0813293 
-0.000324276 0.00035284 0.0725093 
0.000486059 -0.00742154 0.0601196 
0.00126668 -0.00444047 0.0698668 
0.00112489 5.23941e-05 0.0460846 
0.00326838 0.0198519 -0.0145378 
-0.00122941 0.0085862 -0.000341588 
-0.0185762 -0.0384136 0.027518 
-0.0119185 -0.0320702 0.0254035 
0.000630867 0.00103626 0.00245442 
-0.000624573 -0.00104027 -0.00197252 
0.000333523 0.000447417 0.00449999 
0.0191838 0.027559 0.0352475 
0.000634284 0.00170062 0.121408 
0.000127556 -0.00031874 0.106666 
-8.6196e-05 4.27681e-05 0.128981 
-0.00103326 -0.00529405 0.109148 
0.000509174 0.000123959 0.0513338 
1.71274e-05 0.000814241 0.00141632 
0.00116022 0.000117674 0.0476136 
0.00135971 0.00228541 0.0742959 
-0.00259796 -0.0134251 0.0935956 
-0.00632826 -0.015346 0.126159 
0.00058657 0.000511686 0.0712929 
-0.0021521 -0.0111086 0.0976967 
0.0265134 0.0341106 0.141538 
0.00364469 0.0308261 0.135834 
0.0116707 0.0455845 0.0737248 
0.000790992 0.0394986 0.1062 
0.0172916 -0.00684323 0.373179 
0.028607 0.0839897 0.166521 
0.031468 0.0323091 0.151445 
-0.0319755 0.0178098 0.269279 
-0.0153727 0.0146699 0.120766 
-0.0117771 0.0107577 0.045525 
-0.00292684 0.00836708 0.0725726 
-0.00981688 0.0159848 0.0683738 
-0.00396174 0.00114424 0.0597353 
-0.00770547 0.00237318 0.0496375 
0.00200315 -0.00092652 -5.77354e-05 
-0.00163061 0.00121786 0.0491159 
0.0573139 -0.00743585 0.0242313 
-0.0227277 -0.0516875 0.138843 
0.0230718 -0.0148551 0.107284 
-0.0792892 -0.00218239 0.0856397 
-0.00549464 -0.0322798 0.0268258 
-0.000817277 -0.0229286 0.0830991 
-0.0143435 -0.0356768 0.108421 
0.00476251 -0.0545586 0.0800674 
-1.12206e-05 -0.000402183 -0.00427416 
-0.000999754 0.00238401 0.00261706 
0.000881644 -0.00203963 -0.00167844 
-0.0107168 0.0169522 0.0454626 
0.00181835 -0.00423983 0.0651082 
0.00124487 0.00291338 0.041173 
-0.000158374 0.000378227 0.00488088 
3.57777e-05 -0.00784577 0.0354462 
0.000721538 0.000316776 0.113099 
8.40842e-05 -0.00056391 0.0919303 
0.000428068 -0.000696097 0.0808259 
-0.00266552 0.0112849 0.0904035 
-4.27798e-05 0.000433211 -0.00316976 
-0.000304551 0.00308405 0.000520797 
-5.63154e-05 0.00057028 0.00189998 
-0.00339704 0.00369829 0.0466543 
-0.000651567 -0.00156426 -0.00173152 
0.00129472 0.00299529 0.00226074 
-0.000109213 -0.000575636 -0.00356244 
0.0074411 0.0138709 0.0394843 
-0.000359822 -0.00037156 0.051288 
-0.00257142 0.00811568 0.100615 
-0.00118354 -0.000363344 0.000801834 
-0.000863551 0.00453381 0.0755002 
0.00479495 -0.00336845 -0.000189746 
-0.0146186 -0.000149534 0.0312236 
0.00455801 0.00312318 -0.000353453 
-0.0146373 -0.00621434 0.0407078 
1.87448e-05 -0.000291541 0.0508577 
-0.000460295 0.000684695 0.0816411 
-0.000443559 -0.000304892 0.0490392 
0.00115514 0.00232551 0.0720644 
-0.0183585 0.0017659 0.0913357 
-0.00282876 -0.0022468 0.129853 
-0.00514678 0.00277869 0.141474 
-0.0106614 0.0105091 0.126459 
0.000865498 -0.000495509 -0.00127759 
0.000796915 -8.73012e-05 -0.0011114 
0.000227957 0.000434064 0.000860802 
-0.0099259 0.00228839 0.0112375 
0.000817722 -0.00306903 0.00173287 
-0.000159934 0.00736098 0.104229 
0.00103896 -0.00162434 0.0659682 
0.000328476 0.00412744 0.0757872 
0.000112302 4.67396e-05 0.00050265 
0.00016144 -0.000139775 0.0387486 
0.000290204 -0.00127081 0.001601 
-0.00316153 0.000816361 0.0628433 
0.00592601 0.00264074 0.0168333 
0.00388643 0.0062751 0.0734893 
0.00627571 0.0132161 0.0913734 
0.00719155 0.0189438 0.10997 
-0.0141945 -0.0338128 0.112164 
-0.00132858 -0.0137786 0.101734 
-0.00409879 -0.0135869 0.118217 
-0.0137404 -0.0261689 0.123426 
-0.00646925 0.0132563 0.118029 
-0.00144026 0.0051916 0.128632 
-0.0132035 0.00574603 0.0760725 
-0.0144272 0.00690623 0.118558 
-0.000295884 -0.000529161 0.131208 
0.00321958 0.0095527 0.120032 
0.00387763 0.0119432 0.133941 
0.00236253 0.011094 0.113185 
0.0002551 -9.23133e-05 0.000329895 
-4.51798e-05 0.000137344 0.044748 
0.000177504 -1.89853e-05 0.0389094 
-0.0032 0.00070436 0.0626924 
0.0160522 -0.00605472 0.166805 
0.00828795 -0.00268503 0.153436 
-0.0239283 0.0132262 0.136172 
-0.00169891 0.0071806 0.136019 
0.0109429 0.022987 0.11906 
-0.0032992 0.0364793 0.126263 
0.0202007 0.0284918 0.106122 
0.0142914 0.0146782 0.129966 
0.028139 0.00769918 0.00848121 
0.0168404 0.0142379 0.0611202 
0.0300904 0.000161139 0.157123 
0.0387304 -0.0369567 0.108189 
-0.000941562 -0.00458661 0.373696 
-0.00207161 0.0676638 0.196963 
-0.012589 0.0357064 0.365018 
0.0829696 0.105794 0.112657 
0.0443363 -0.0568371 0.336425 
0.0256997 -0.0800568 0.128029 
0.00471563 -0.00949843 -0.0649246 
0.0643729 0.0605623 0.129992 
0.00534515 0.00745605 0 
0.00531506 -0.0113055 0 
0.00303731 -0.0146697 0 
-0.0438935 0.0901663 0.0286514 
-7.63656e-05 0.00108168 -0.00144807 
2.99644e-05 -0.000731825 0.00233671 
0.000141317 -0.0014681 -0.000390133 
-0.00544572 0.00715678 0.0749212 
-0.0166405 0.0704979 0.211499 
-0.0722046 0.0453743 0.189508 
-0.0266025 0.10724 0.0498468 
-0.0358694 0.0344048 0.302158 
-0.01331 0.0210449 0.00222461 
-0.0607671 -0.0371796 0.117935 
-0.0514222 -0.0274321 0.0423403 
0.00848531 0.0218976 0.0684343 
-0.000306999 0.000582038 0.14551 
0.00439452 0.00259923 0.13989 
-0.00177605 0.000369301 0.142464 
0.00291433 0.00491238 0.142357 
0.00116682 -0.0151459 0.134443 
-0.00227974 -0.00810959 0.114277 
-0.00904976 -0.00983328 0.114075 
-0.00654615 -0.0169271 0.117405 
-0.00246782 0.0024225 0.0078252 
0.00282636 -0.00275401 -0.00485845 
-0.00326271 0.00314375 -0.00150359 
-0.0138132 0.0237677 0.0806878 
0.00789685 0.000529653 -0.0082821 
-0.0101316 0.00274145 0.00313309 
-0.000407797 0.00589065 -0.00709871 
-0.0172583 -0.0222665 0.0797714 
-0.0335044 0.0317697 -0.00986266 
0.0204716 0.0324926 0.0800043 
6.22291e-05 -0.00328201 -0.0135507 
0.00765329 0.0291202 0.0592391 
-0.0521461 -0.0186975 0.0503664 
-0.0399711 -0.0389715 0.0716323 
-0.0086031 0.0235399 -0.0633922 
-0.0673576 -0.0631147 0.178797 
0.00105576 0.00187042 0.121848 
-7.04512e-05 -0.000743131 0.107092 
-0.00145426 -0.00487897 0.107636 
0.00133709 0.00146573 0.0967859 
-0.023687 0.00397704 0.0647057 
-0.0104732 0.00861811 0.0474989 
-0.00531533 0.00665287 0.0736158 
-0.0213429 0.00540633 0.120072 
-0.0102245 0.0194967 0.119327 
-0.00398636 0.00552848 0.0698532 
-0.00310617 0.0118187 0.0989285 
-0.0102059 0.016352 0.0696787 
0.00882116 0.00223241 -0.00991512 
0.00483526 0.0112348 -0.00864991 
-0.0055678 0.0108364 -0.00537951 
-0.0240541 -0.0335419 0.0935672 
0.00157718 0.0144167 -0.0183819 
-0.0107898 -0.0332274 0.0445932 
-0.00647591 -0.0351796 0.0438793 
-0.00175719 0.00820888 0.00632015 
0.000693596 0.00069897 -0.00479508 
-0.00120918 -0.00178988 -0.00389975 
0.00115021 0.00177127 0.00518325 
0.0210776 0.0265726 0.066012 
-0.000420237 -0.0160652 0.0352834 
0.00241006 -0.000800555 0.005619 
0.0050473 0.011799 0.041351 
-0.00115985 -0.0130604 0.0346348 
0.0122751 -0.0225111 0.133948 
0.00292063 -0.0309909 0.128522 
0.0164894 -0.0483007 0.0686028 
0.0204412 -0.0570828 0.189119 
0.016117 0.0286743 0.168746 
0.0901646 0.0395461 0.0873392 
0.0354906 -0.00475994 0.3348 
-0.0326033 -0.0350978 0.186806 
0.00868607 -0.0208952 0.355086 
-0.020332 0.0129585 0.356989 
-0.00632132 0.0135744 0.359088 
0.0445569 -0.137326 0.283046 
0.000783641 -0.0309801 0.168566 
0.00205658 -0.0308513 0.125136 
0.0221379 -0.00247458 0.10179 
0.0227894 -0.0610195 0.209968 
-0.00758173 0.0171948 0.118493 
-0.00294567 0.0152214 0.0967457 
-0.0075823 0.00620347 0.0724661 
-0.000995893 0.00820959 0.118732 
-0.00137636 0.000585381 0.00112256 
0.00208304 -0.00675932 0.0709034 
-0.000619253 -0.00706722 0.0587328 
0.00185884 -0.000718166 0.0470087 
-0.00306018 -0.0139717 0.134277 
-0.00430755 -0.0111832 0.114233 
-0.00247849 -0.007162 0.115064 
-0.00222608 -0.00607856 0.126882 
-0.00144372 0.000258108 -0.000151774 
0.00125654 0.00277984 0.106001 
7.49402e-06 -0.00193202 0.00142378 
0.000770164 0.0041072 0.0756709 
-0.015284 -0.0527917 0.0842789 
0.0232245 -0.0192841 0.0613846 
0.00365353 -0.0194154 0.141542 
0.0247676 -0.00255294 0.100968 
-0.00831107 -0.0310156 0.111196 
-0.00399373 -0.0279991 0.0738514 
0.000211562 -0.00579646 0.106657 
-0.000454066 -0.00594436 0.100845 
-0.0291966 0.0376095 0.30676 
-0.0090828 0.0462076 0.166287 
-0.00381572 0.00195436 0.342932 
-0.0592197 0.0618353 0.103469 
0.00162751 -0.0121583 -0.00405447 
-0.00681585 0.00845532 0.00914047 
0.0121377 0.0307646 0.182612 
0.00784472 -0.00210993 0.111736 
-0.00617976 0.00483162 0.08018 
-0.0105302 0.00852249 0.0490064 
-0.0226317 0.00621301 0.0572522 
-0.00945123 0.00277619 0.0466796 
0.00239105 0.000453618 -0.00242607 
-0.007816 -0.00458866 0.0255279 
-0.000602178 -7.20061e-05 0.00402711 
-0.012068 -0.00667258 0.0162077 
0.000688454 0.00116633 0.111532 
-0.00135012 0.00958295 0.0954956 
-0.00014301 9.29334e-05 0.0785257 
-0.00049097 0.00509562 0.0738712 
-0.00295501 0.0204798 0 
-0.00646317 0.0147829 0 
0.00380621 -0.0142007 0 
-0.0244975 0.0824357 0.0605088 
0.00591891 -0.0105728 0.0802165 
0.0100911 0.00207081 0.114841 
-0.0129367 -0.0359797 0.112168 
-0.00124172 -0.00764847 0.107404 
0.000647857 -9.61907e-05 0.120682 
-0.000327467 -9.07456e-06 0.137254 
0.000362926 0.00141276 0.129138 
0.0016953 0.00547986 0.12574 
-0.000170241 1.93086e-05 -0.000673558 
0.000326328 -5.23622e-05 0.00286014 
0.00109078 -9.18668e-05 0.00106031 
0.0012635 0.00346825 0.105778 
0.00124566 0.00262546 0.000501046 
-0.000780687 -0.00184802 0.00180079 
0.000282883 0.000950479 -0.00358447 
-0.00593313 -0.00399484 0.0277771 
-0.0492815 -0.0218549 0.14124 
-0.00728103 0.00547563 0.192716 
-0.00627299 -0.0301936 0.162607 
-0.00706074 -0.0149974 0.070178 
-0.00761166 0.0292808 0.101935 
-0.0128837 -0.00334737 0.156197 
-0.0133242 0.0102716 0.121787 
-0.0457967 -0.028305 0.151705 
-0.00568977 0.0147299 0.0120794 
0.000563401 0.00150914 -0.00340058 
-0.025235 0.0259405 0.0623181 
-0.0100596 0.0193527 0.0690034 
-0.011669 -0.0431594 0.111282 
0.0186705 -0.0238536 0.124239 
-0.00864896 -0.0200417 0.121219 
0.00592747 -0.0279316 0.124277 
-0.000262359 -0.000474451 -0.000366371 
0.000708174 0.0012465 -0.00010048 
-7.32735e-05 -7.41643e-06 0.00388652 
-0.00889896 -0.00820185 0.0117603 
-0.000201738 -0.00115677 0.0552063 
0.000335939 -0.000539149 0.0807844 
-0.000302593 8.38808e-05 0.0915621 
-0.00238642 0.0108326 0.0909413 
0.0107791 -0.00856532 -0.0244887 
-0.0624611 -0.00361164 0.162182 
0.0055671 -0.0027997 -0.028681 
-0.0388692 0.0187598 0.192405 
0.0397005 -0.00210863 0.328202 
0.089578 -0.0249898 0.130076 
-0.00469127 0.0578919 0.191279 
0.0163871 0.102498 0.187871 
0.0483374 -0.0536623 0.0265478 
0.014556 -0.0750233 0.172078 
0.047654 0.00517162 0.00795915 
-0.134021 0.00929461 0.0634486 
0.00615314 -0.00290554 -0.00768475 
0.00273524 -0.00112734 -0.00457993 
-0.0125267 0.00499604 0.0142192 
-0.0107997 0.00685098 0.0165002 
0.00728086 0.00414312 0.139068 
0.00280143 0.0182775 0.134675 
0.010095 0.0144121 0.135063 
0.00616924 0.0023616 0.141438 
-0.000286308 0.000333721 0.00519254 
0.000593043 -0.000984972 -0.00177911 
-0.00129406 0.00217642 0.00305264 
-0.0206403 0.0333395 0.0443166 
8.26848e-05 3.35569e-05 -0.00241995 
0.000940871 0.00218395 -0.000799491 
-0.000242162 -0.000484058 0.00136373 
-0.00544887 -0.00285593 0.0168216 
0.00741337 -0.00458459 -0.00183953 
0.00360537 0.00313916 0.00563909 
0.00112297 -0.0220757 0.0844848 
-0.00333176 -0.0122289 0.0786804 
-0.00614262 0.00655579 -0.014676 
0.0269652 0.0219555 0.167308 
-0.0071161 -0.00330569 0.00449687 
0.0495056 0.00904319 0.107607 
0.00864419 0.019097 0.0922828 
0.0144506 0.0227427 0.0693972 
0.00236592 0.00836646 0.080462 
0.00198102 0.00268897 0.0536294 
-0.000225182 -0.000530335 0.132955 
0.000783615 0.00109604 0.127827 
0.00050729 0.000194186 0.114977 
-0.00226644 -0.00718119 0.111724 
0.0177785 0.0274613 0.142051 
0.0056173 0.00269024 0.102116 
0.00585449 0.0171399 0.10634 
-0.00126033 0.0358202 0.129377 
0.00461701 -0.0204304 0.0934103 
-0.0211533 0.00287107 0.103478 
-0.0589248 -0.0148778 0.145347 
-0.0200119 -0.0277642 0.136174 
-0.00676451 -0.0293543 0.107223 
-0.0040748 -0.0278642 0.0733489 
0.00259874 -0.0041256 0.0630842 
-0.000465627 -0.00677856 0.109212 
-0.000286629 -0.000682141 0.13895 
7.25514e-05 0.0015018 0.141516 
0.000216225 -0.008771 0.131728 
0.0012519 -0.00600258 0.140028 
0.00527801 0.00962419 0.0410505 
0.0154755 0.0229121 0.0705059 
0.00697073 0.0167057 0.088464 
0.00179658 0.00474391 0.0554106 
0.000485319 0.000121295 0.000285974 
-0.0124785 0.00884826 0.0486929 
-0.0239269 0.0281073 0.05815 
-0.0103471 0.0200446 0.0667285 
0.00352433 -0.0165078 0.381362 
0.0772383 -0.0963483 0.0510985 
-0.0272417 -0.0444295 0.19502 
0.0104136 -0.0200998 0.193334 
-0.000268437 0.000609668 0.00106551 
5.78094e-05 -0.000113835 0.000102779 
0.000403813 -0.000522073 0.00591444 
0.00129116 -0.0113986 0.06388 
-0.0203676 0.049691 0.144724 
-0.0145311 0.0460194 0.113906 
0.0147773 0.0222647 0.113115 
-0.00907687 0.0245229 0.140671 
-0.00606959 0.00658005 0.073128 
-0.0102039 0.00531762 0.0434144 
-0.0228751 0.00372411 0.0679532 
-0.0217637 0.0055327 0.118428 
0.0046871 -0.0316181 0.125854 
-0.00635149 -0.0232093 0.131647 
-0.000762036 -0.0284385 0.133798 
-0.00632681 -0.0157248 0.130394 
0.00101635 0.000139862 -0.000361747 
0.000947673 -0.0007587 0.000798019 
-0.00687499 0.0021782 0.049086 
-0.00203226 0.00187799 0.0482866 
0.000110826 0.0121552 0.0995923 
0.000442426 0.00508117 0.0754951 
-0.00152566 -0.0010175 0.106351 
0.0014653 0.00829591 0.126643 
-0.0150482 -0.0461269 0.110332 
-0.0196619 -0.030147 0.142432 
0.00542629 -0.0366753 0.0819672 
-0.0216015 -0.0212626 0.12629 
-0.0101368 0.013259 0.117087 
-0.00850262 0.00546175 0.0768994 
-0.00287792 0.00525779 0.128351 
-0.00330114 0.00554458 0.0984421 
-0.0231097 0.0847384 0.0856863 
-0.0350593 0.0814596 0.215495 
-0.0521607 0.067752 0.0848492 
0.0221668 0.00819684 -0.0499142 
-0.00814084 0.00526157 0.0758944 
-0.0118799 0.00309663 0.0959712 
-0.0109734 0.00697571 0.0420678 
-0.0202106 0.00392705 0.119221 
0.00172316 -0.00873357 0.0184441 
-0.0031591 0.018841 0.108021 
0.0427422 0.00491001 0.129732 
0.00989014 0.00650564 0.0877045 
-0.00041322 0.000244484 0.138492 
0.000680885 0.000833108 0.139871 
-0.000207105 -0.000494236 0.131977 
-0.000503209 -0.00891035 0.13462 
0.00573482 0.0154419 -0.0239419 
-0.0489688 -0.0383241 0.081567 
-0.0229373 -0.0211975 0.0212312 
-0.0141027 0.0126446 0.0175206 
0.0237778 0.0385393 0.13618 
0.0303157 0.0223714 0.143083 
0.0105372 0.0318477 0.173297 
0.00351434 0.00670367 0.103852 
9.45369e-05 0.00044865 -0.00163303 
-0.00576639 0.00493727 0.0763361 
0.000588843 0.000386661 0.00164949 
-0.00174672 0.00192901 0.0489722 
0.001692 0.000120319 -0.000622614 
-3.34267e-05 2.64897e-05 0.00296553 
0.000430264 3.43343e-05 0.00022411 
-0.00207564 -0.000619507 0.0659021 
-0.00142767 -0.000668377 0.0536431 
-0.000410889 0.000502259 0.0778254 
-0.000915804 0.00891428 0.0964111 
-0.000240789 0.00470432 0.074131 
-0.010354 -0.0250345 0.155032 
0.00154156 -0.0115237 0.21541 
-0.074467 -0.0215716 0.128592 
-0.00623619 -0.0413406 0.254373 
0.000980204 0.0265795 0.106721 
0.0056018 0.0283535 0.128295 
-0.00575808 0.0116134 0.0941248 
-0.00468736 0.0330304 0.12577 
0.000341684 -0.00851025 0.0665463 
-0.0036357 -0.00690269 0.111216 
0.000664479 -0.0257535 0.0694409 
-0.00226051 -0.00867264 0.100282 
-0.00064119 -0.00112694 0.088866 
0.000784069 -0.00588316 0.069812 
0.000405429 0.00265313 0.0721309 
0.00020084 -0.0081626 0.0596548 
-4.66894e-05 0.000844875 0.129591 
-0.000194869 -0.00115646 0.121308 
0.00252268 0.00712222 0.12343 
0.0031657 0.010201 0.112207 
-0.00420921 -0.00234861 0.100191 
0.0249168 -0.00283664 0.11857 
0.0379979 0.00798039 0.151382 
0.0250467 0.00427396 0.100575 
-0.000552321 -0.00130344 0.0880736 
-0.000204829 -0.000144253 0.106948 
0.00101157 0.000934028 0.0714062 
0.000153934 -0.0042707 0.072152 
0.000145568 -0.00177446 0.00110003 
-8.12999e-05 0.000991042 0.000524406 
4.78755e-05 -0.0005836 -0.0016706 
0.000411292 -0.00772075 0.0587496 
0.00985893 0.00800795 -0.0111951 
-0.0181162 0.00851954 0.0183502 
-0.00491368 -0.0139731 -0.00641261 
-0.030123 0.0527627 0.0670452 
0.00158311 0.000325851 -0.00187294 
0.000489837 0.00124235 -0.000997983 
0.000307747 0.000611542 -0.000421082 
-0.0063989 0.00369748 0.00891057 
0.00266582 0.00163096 0.0596138 
-0.00469523 -0.00656781 0.0760513 
0.000159072 0.000874246 0.0828891 
-0.00422864 -0.00640907 0.117788 
0.00117053 -0.0011925 -0.00587647 
-0.0161898 0.0033937 0.0374033 
-0.00867021 0.00356211 0.0443486 
-0.00365455 -0.00138906 0.0401051 
-0.0047483 -0.02226 0.023998 
0.00711323 0.00511212 0.0526648 
0.0172467 0.0342524 0.036193 
0.00557124 0.0138267 0.0264517 
0.000257042 0.000272557 -0.00289228 
0.000244121 0.000232912 0.000737889 
-0.00141152 -0.00140653 0.0037685 
-0.00989644 -0.00740349 0.0511832 
0.00838875 -0.00426791 -0.00546433 
-0.0171741 0.00797429 0.0229475 
-0.002946 0.00326901 -0.0012468 
-0.0123131 0.00602036 0.0132088 
-0.0108025 0.0195288 0.123917 
-0.00342741 0.002134 0.121636 
-0.0300817 0.0253363 0.0541701 
-0.0095804 0.0464641 0.116361 
-0.0103218 0.0176955 0.112833 
-0.0152507 0.00346074 0.129031 
-0.00949417 0.00123666 0.146056 
0.011684 0.0101732 0.149705 
0.00430578 -0.00371809 -0.00586547 
0.00529293 -0.00266314 -0.00639146 
-0.0144445 0.00405817 0.0213835 
-0.0104487 -0.00321876 0.0135794 
-0.0138024 -0.0276355 0.0977924 
0.000960821 -0.010797 0.0712879 
-0.0101008 -0.0366972 0.11727 
-0.00170487 -0.00676467 0.106575 
0.0126277 0.0301864 0.124803 
0.00241355 0.00857631 0.102922 
0.00690805 0.0250895 0.132698 
-0.00197453 0.00839995 0.0909695 
0.00162512 -0.0114766 -0.00888175 
-0.0133746 -0.00494372 0.0181532 
-0.0464263 -0.0159075 0.0656872 
-0.0148104 0.000125066 0.0290921 
0.0570111 0.0712348 0.0678385 
0.00462324 0.00891477 -0.0362117 
0.0250225 -0.0480953 0.143675 
0.056109 0.0303363 0.158815 
-0.00289484 0.00822405 0.0722792 
-0.0109081 0.00986268 0.0507095 
-0.000832982 0.00164075 -0.00225847 
-0.00940805 0.0141675 0.0646679 
-0.00430244 -0.0186309 0.116488 
-0.00059703 -0.000624085 0.083259 
-0.00880509 -0.0116154 0.0979814 
-0.00414845 -0.0178613 0.125403 
-0.00386434 0.00103582 -0.0175302 
0.0249496 0.0323867 0.0690432 
-0.0322829 0.0284064 -0.00212662 
-0.0104141 0.0616946 0.0956524 
0.0251229 0.0315545 0.127965 
0.0050187 0.030718 0.129699 
-0.000980587 0.0401168 0.117662 
-0.0143996 0.0233458 0.123149 
-0.00694821 0.0193102 0.121762 
-0.0131942 0.00862288 0.0452292 
-0.0299608 -0.00224884 0.0664345 
-0.0197586 0.00491487 0.121939 
-0.0109768 0.0014236 -0.00565605 
-0.000851749 -0.00879289 -0.0403123 
-0.0194732 0.010404 0.130572 
-0.0439454 -0.0495635 0.118704 
0.000555222 -0.000152883 -0.000148093 
-0.00187389 -0.00285355 0.00297666 
-0.00638605 -0.00425893 0.0691495 
-0.00518797 -0.00421592 0.0628262 
0.007194 0.000696257 0.011703 
0.0109324 0.0120904 0.0810802 
0.00300888 0.00276622 0.000176129 
0.00697245 0.019189 0.113167 
-0.00402932 -0.0131735 0.10031 
-0.00179125 -0.00264726 0.0804661 
-0.00576342 -0.0185431 0.11542 
-0.00857509 -0.00409317 0.0807855 
-0.036143 0.0107762 -0.00920205 
0.00145683 -0.00977488 0.28113 
0.000336499 -0.0283059 0.0194658 
-0.0222836 0.0620105 0.229115 
0.0637269 0.000719127 -0.0525799 
-0.025864 -0.0150751 0.137063 
0.0337707 -0.0548487 0.0495378 
-0.0129979 -0.0894411 0.341877 
-0.0112731 -0.0281046 0.0969867 
-0.00966291 -0.02883 0.114557 
0.00159637 -0.0073938 0.12842 
-0.00212099 -0.0088075 0.107394 
-0.00260408 -0.00433977 -0.00958646 
-0.0135891 -0.00718623 -0.00398847 
0.0116825 -0.0031123 0.00181343 
0.0427691 0.0196879 0.0711959 
-0.0221469 0.0189706 0.113329 
-0.0517164 -0.00949676 0.186882 
0.0102459 -0.0469344 0.112921 
-0.00784891 -0.0245317 0.274664 
0.00663754 0.00299198 0 
-0.00332929 -0.00637812 0 
-0.00215104 -0.00456452 0 
-0.0150197 0.0158873 0.0144489 
-0.00194925 -0.00331736 -0.0018082 
-0.00917389 -0.00250213 0.041957 
0.000140375 -0.00207316 -0.00132731 
-0.00257801 0.000736787 0.0367325 
-0.000258482 0.000839914 0.131124 
0.00415436 0.0131914 0.134716 
-0.00140176 -0.000158595 0.126854 
0.00166175 0.00849049 0.122229 
-0.00867395 -0.0298433 0.116334 
-0.00448585 -0.0157281 0.0985981 
-0.00293078 -0.0259451 0.0813769 
-0.000595888 -0.00803257 0.0923778 
-0.0153782 0.00859998 -0.0220151 
0.0464151 0.00220945 0.133547 
-0.00316528 6.38219e-05 -0.0185724 
0.02253 -0.0203205 0.160804 
0.0287919 -0.00745105 0.37824 
0.0194782 0.03391 0.163467 
-0.0335726 -0.0464564 0.146461 
-0.027416 0.0164088 0.250538 
0.00259973 0.0108641 0.133967 
0.00297889 0.00698589 0.141624 
-0.00026555 0.000589976 0.13292 
0.00193367 0.00950952 0.124927 
-0.00745644 -0.00152399 -0.0120756 
-0.00756525 0.00239776 -0.0180701 
0.0087663 0.0458251 0.0577038 
0.00335344 0.0113268 0.0285712 
0.00381363 -0.0176444 0.125798 
-0.00312385 -0.0175012 0.130924 
0.00194356 -0.0107384 0.128856 
0.00102314 -0.00345882 0.139583 
6.48344e-05 -0.000135124 0.0759402 
-0.00397133 0.00199627 0.106474 
-0.0022611 0.00188589 0.0503224 
-0.00409662 0.00453148 0.100479 
-0.000952462 -0.0180702 0.114561 
-0.000694278 -0.00729831 0.100676 
0.00378079 -0.0236918 0.141795 
0.00147464 -0.00618736 0.0777848 
-0.0188858 0.0185186 0.0479787 
-0.0270129 0.00059059 0.0652966 
-0.0196793 0.00032693 0.00961596 
-0.0452094 0.00161633 0.0984134 
-0.00819497 -0.00203193 -0.0107654 
0.00380357 0.0448991 0.0589521 
-0.00458268 -0.0165067 0.022135 
-0.00158178 0.0131426 0.0214986 
-0.00566817 -0.00292535 0.0685846 
-0.00394808 0.00027066 0.0596009 
0.000127177 0.000165064 0.0751276 
-0.00466076 0.00130793 0.106 
0.000364271 0.000259052 -5.03225e-07 
0.0014634 0.000271102 0.00622636 
2.99466e-05 0.00239018 0.0403659 
-0.00170891 -0.00685406 0.0337071 
-0.00412757 -0.00589756 0.00978428 
0.0331198 0.00837208 0.0837723 
0.00352259 0.00390558 0.0923497 
0.0109199 0.0100791 0.0891787 
0.00227756 0.00220066 -0.0171551 
-0.0232757 0.0372067 0.0440751 
0.00964097 0.0111979 -0.00284813 
-0.0416524 0.0504524 0.0429278 
0.0190805 -0.00684473 0.154786 
0.0131843 0.0155275 0.128022 
0.0113419 -0.00161376 0.14704 
-0.00338201 0.00874579 0.14615 
0.00309679 -0.0126356 -0.000410997 
0.0196841 0.024688 0.0744087 
0.0296116 0.0345699 0.153774 
0.0346451 0.0278712 0.0963759 
0.00150629 0.00378909 0.00672684 
0.00379105 0.00214955 -0.00102826 
-0.0139974 -0.0121145 0.0480341 
-0.020327 -0.0162381 0.0365226 
0.00906999 -0.027002 -0.0543179 
-0.0309416 0.0226557 0.151733 
-0.0388208 -0.0739956 0.024659 
-0.0478803 -0.00976603 0.185233 
0.0369766 0.00269833 0.172036 
-0.0311501 0.0145884 0.178214 
-0.0340423 0.00988447 0.111283 
0.0225881 -0.0197648 0.241131 
0.0021607 0.00344955 -0.00451673 
0.000802626 -0.0146064 0.0813499 
0.00129266 0.00365316 0.00653033 
-0.0136756 0.0070049 0.0918549 
0.0313443 -0.0524462 0.377364 
-0.155439 0.0179681 0.0891167 
-0.00232331 -0.0153062 0.36726 
0.0155002 -0.0918808 0.266102 
0.000759117 -0.000280408 0.114148 
0.00163433 0.00159976 0.085456 
-0.00311563 -0.0122265 0.125039 
-0.00246633 -0.00805039 0.0975473 
-0.00309021 -0.0195482 0.113694 
-0.00182221 -0.0316542 0.138223 
0.00764256 -0.00955422 0.0967068 
0.00562979 -0.000309424 0.0804255 
0.0143479 -0.00309246 -0.0196996 
0.0106768 -0.0473894 0.0983983 
0.0352042 -0.0612225 0.295166 
-0.0214067 0.0318192 -0.00873579 
-0.000602669 -0.00140786 -0.00155876 
0.000921436 -0.00643312 0.0700468 
0.000837229 0.000653781 0.00222305 
0.000749993 -0.00109877 0.0467244 
-6.53736e-05 -0.000890421 0.0814971 
-0.000641658 -0.000324104 0.0805549 
0.00513628 0.00972879 0.0753939 
0.00432483 0.01013 0.115822 
-0.00281419 0.00423114 -0.0183413 
0.0216897 0.0411444 0.0738854 
0.00477824 -0.016918 -0.0334484 
-0.0162975 0.0866322 0.0990457 
-0.00530148 0.0128016 0.100359 
0.00514296 0.0149833 0.138683 
0.00486865 0.0268799 0.126668 
0.00418921 0.00452471 0.124588 
0.0326861 -0.0394141 0.333306 
0.0103224 0.00900954 0.204546 
0.0720173 0.0308078 0.0613332 
-0.00190973 -0.0942223 0.246339 
-3.89785e-05 8.6114e-05 0.044693 
-0.000428555 -0.00032632 0.0732065 
0.000227866 -0.000115227 0.0386726 
-0.00312081 0.000845214 0.062512 
-0.00150476 -0.0074536 0.0698521 
0.00306272 -0.00109731 -0.00174057 
0.00119728 -0.00855844 0.058548 
-0.00172155 -0.00988914 0.0398019 
-0.0580946 0.0480899 0.03063 
0.0383154 0.0219337 0.052111 
0.0016607 0.0266622 0.0616377 
-0.0091231 0.0543251 0.0947433 
0.00234218 0.0128668 0.107687 
0.00561341 0.0143005 0.133917 
0.00634168 0.0226793 0.129275 
0.00133126 0.00782154 0.120844 
0.00112474 -0.00188478 -0.00138862 
0.00152416 -0.000434002 -0.00141595 
0.000515638 0.000961918 -0.000471342 
-0.00936909 0.00115041 0.0141411 
0.00485999 0.00791849 0.0010126 
-0.0255025 0.0378897 0.0332992 
0.00874394 0.00334449 -0.00365179 
-0.0166023 0.00911537 0.00443199 
0.00177444 0.00602967 0.0106618 
0.00361279 -0.000598268 -0.000546403 
0.00675208 0.00714401 0.0810625 
0.00909472 0.0185733 0.114021 
0.0290143 0.0298726 0.170217 
0.0256666 0.070302 0.166607 
0.0197354 -0.00476136 0.353765 
0.0922303 0.0376959 0.0585814 
-0.0088437 -0.0272 0.0999969 
-0.00776979 -0.0322222 0.120928 
-0.00917121 -0.0189609 0.0623183 
-0.0284174 -0.0469504 0.0968416 
0.0258606 -0.0149218 0.118907 
0.0287308 0.000202103 0.153262 
0.0186967 0.0160232 -0.0150247 
0.00672524 -0.0120588 0.0996741 
-0.0565603 0.0767937 0.103415 
-0.0601055 -0.0494803 0.173084 
0.0102415 0.0207458 -0.0314291 
-0.0279853 -0.00271374 0.197776 
5.21125e-05 -0.000621214 -0.0037045 
-7.50205e-05 0.000894292 0.000443633 
1.42685e-05 -0.000170089 0.00222158 
-0.00550336 0.00520795 0.0136471 
0.00699447 0.0245543 0.120625 
0.0016225 0.0117989 0.135252 
0.00303761 0.0075012 0.117595 
0.00398629 0.0301342 0.117238 
-0.0563273 0.0838909 0.0649393 
0.0225374 0.0581989 0.0440205 
-0.0361082 0.0493897 0.145742 
-0.0363236 -0.00160616 0.101659 
-0.0571632 -0.0350949 0.235383 
-0.135912 0.00437635 0.100414 
-0.0150556 -0.0224744 0.408249 
0.0640137 -0.122854 0.224771 
-0.00286611 0.000161666 0.0041936 
0.00175351 8.46443e-06 -0.0112884 
-0.00336511 0.000518156 -0.0217499 
0.0485112 0.0173308 0.142877 
-0.0133781 -0.00317874 -0.0137606 
0.00130026 -0.000610334 -0.0128743 
-0.0561092 -0.020435 0.0812944 
-0.0254008 -0.0157585 0.0452816 
-0.0127044 0.0179587 0.121048 
-0.000260017 0.00780349 0.137276 
0.0184012 0.0130722 0.134138 
0.00218918 -0.000770196 0.145995 
-0.00582925 0.0678851 0.222919 
0.0864794 0.116001 0.127429 
-0.0256782 0.0131849 0.355372 
-0.0582503 0.0033821 0.305809 
-0.0275929 0.0399405 0.0477714 
-0.0086669 -0.00251287 0.00285329 
0.00625334 0.00745071 -0.0211187 
-0.0338257 0.0570498 0.0729985 
-0.00188872 -0.00911922 0.0998363 
0.005233 -0.0110965 0.0949607 
0.00365097 -0.0237774 0.141799 
0.00107841 -0.00685665 0.0774511 
0.00697856 0.0152191 0.135998 
0.00433787 0.0122169 0.133182 
0.00511585 0.0231768 0.123656 
0.00359476 0.0262579 0.126915 
-0.118471 -0.0276459 0.133693 
0.0362535 0.018122 0.212224 
-0.0245541 0.00624258 0.354449 
-0.00415945 -0.0721153 0.253086 
-0.0096835 -0.0338291 0.10252 
-0.00601796 -0.0122758 0.122224 
-0.00896579 -0.0296473 0.112792 
-0.0169509 -0.0275861 0.130396 
-0.0101281 -0.0132425 0.111128 
0.000468934 -0.0417791 0.139772 
0.0153554 -0.0197816 0.116746 
0.00990565 -0.00661506 0.0970926 
-0.0153248 0.0258362 0.193916 
0.0252431 -0.00952268 0.156371 
0.00407911 -0.00118397 0.122546 
0.0353993 0.0273957 0.207662 
-0.00204197 0.000511009 0.000715787 
0.000502026 -0.00182809 0.00990284 
0.00984229 0.0144155 0.0837316 
0.00519479 0.00689495 0.0855714 
1.76695e-05 -0.0150636 0.135261 
0.00029188 -0.0285817 0.133013 
0.00110729 -0.0229053 0.121701 
-0.00386505 -0.0270031 0.111668 
-0.0269131 0.00496784 0.0527828 
-0.0110658 0.00352396 0.0483165 
0.00858366 0.00257985 -0.00660991 
-0.00947086 0.00478169 0.0149371 
-0.000254802 -0.010333 0.0682441 
0.000810248 -0.0222275 0.0680637 
-0.00067355 -0.00534444 0.0611287 
-0.00154748 -0.00981321 0.0992891 
0.00696068 -0.0013372 0.00624185 
0.00507233 -0.00101247 0.141628 
-0.0153725 0.00466449 -0.00176634 
-0.0170339 -0.00962185 0.102257 
-0.0246072 -0.0123657 0.0891488 
-0.0119085 -0.0258212 0.120348 
-0.00408341 0.00365129 0.133233 
-0.0201089 -0.00675201 0.0963955 
-0.000896523 -0.000142532 0.104468 
-0.000218478 0.00271654 0.0570706 
-0.00135532 -0.00814051 0.093854 
-0.000398416 -0.00319511 0.0625549 
-0.000895644 0.000208089 -5.55535e-05 
0.000292586 -4.23182e-05 0.00258385 
-3.22875e-05 1.16441e-05 0.000412213 
0.00123882 0.00339712 0.105679 
0.00442679 0.0134242 0.0790935 
0.000901393 0.0118761 0.11513 
0.00651111 0.0159821 0.0924699 
0.0066806 0.00370629 0.0566067 
0.0392963 -0.00154523 0 
0.014836 0.0106767 0 
-0.0513629 0.00239894 0 
-0.114591 -0.0246282 0.0973627 
0.00928847 0.0222583 0.0875035 
0.00583379 0.00939786 0.0422695 
-0.00261378 -0.0109116 0.0647482 
0.00216749 0.00593084 0.0924114 
-0.000770292 0.000426513 -0.00698246 
0.00287167 -0.00106295 0.00646594 
-0.0036698 0.00118637 -0.00187883 
0.0148306 -0.00301375 0.0977439 
-0.000170965 -0.000537756 0.0484226 
0.000860132 -0.00518957 0.0586765 
-0.000267959 0.000155249 0.0724639 
0.000541048 -0.00102413 0.0475615 
0.011387 -0.00939622 0.0639291 
0.0190915 -0.0100152 0.0380429 
0.00830124 0.00639246 -0.0136963 
-0.0118541 -0.0252842 0.0200384 
-0.0100088 0.0173232 0.116544 
-0.00105858 0.00796738 0.11964 
-0.00448889 0.00682182 0.0718966 
-0.00363581 0.00353399 0.0992025 
-0.000191616 0.000139615 0.133616 
-0.000303159 -0.00571019 0.141274 
8.95051e-05 -0.000772771 0.128196 
-0.00153234 -0.00615214 0.129162 
-0.00350732 -0.00799969 0.00195149 
0.00193965 0.00371107 0.0791017 
-0.014893 0.00414863 0.118984 
-0.00400606 0.0100674 0.0920061 
-0.000377181 -0.000855172 0.131732 
-0.000345538 -0.000145058 0.122699 
0.000656182 6.68628e-05 0.141957 
-0.00256937 0.000421174 0.128954 
5.51094e-05 -0.000391867 0.139721 
-0.000467583 0.000126336 0.133448 
0.00310263 0.0114205 0.133089 
0.00256048 0.00655902 0.142329 
-0.000128129 -0.00086164 0.138583 
-2.93447e-05 0.000533122 0.140925 
0.00308078 0.0103666 0.131751 
0.00301477 0.00413548 0.138909 
-0.00574481 -0.00309882 0.0690836 
-0.00440434 0.00105724 0.10528 
0.000227031 0.000168724 0.0747315 
-0.00482039 -0.00223374 0.106757 
0.00118245 0.000284457 0.0027832 
-0.00430683 -0.000926505 0.0611983 
-0.00542581 -0.00212376 0.0671655 
-0.00358534 -0.00182207 0.040058 
-0.000130022 0.00181144 0.00116173 
-0.00040561 -0.00566286 0.0814845 
-0.00222517 0.00119701 0.00400382 
0.0016979 -0.00467702 0.0765604 
-0.000501679 -0.00339796 0.00338112 
-0.00457576 0.0121206 0.0969401 
-0.00520596 0.00829215 0.074383 
-0.00830708 0.0149912 0.0698608 
-0.0135946 0.0277962 0.206172 
0.000842539 0.000687283 0.131788 
0.0235524 0.0284887 0.0676463 
0.0310498 0.0290252 0.214939 
-0.000248091 -0.000262744 0.128399 
-0.000371198 -0.00804248 0.139443 
-0.00185736 -0.0130518 0.129725 
-0.000913762 -0.00460787 0.130696 
-0.0340224 0.0405315 0.313021 
0.0108281 -0.00210013 0.318769 
-0.0139284 -0.0294575 -0.0489697 
-0.0874589 0.079824 0.139149 
-0.0465409 -0.00673297 0.353243 
0.0150181 0.00801576 0.341913 
-0.038311 -0.0165668 0.343712 
0.0879999 0.0151072 0.254289 
0.00394193 -0.00857577 0.0696454 
-0.014564 -0.0267991 0.0947814 
0.00510446 0.00825596 0.0813934 
-0.00104853 -0.00861033 0.111918 
0.000395534 0.000699229 0.139033 
-0.00149557 -0.0128873 0.128429 
-0.000231491 4.05376e-05 0.128973 
-0.000169543 -0.00749004 0.139708 
0.0214874 -0.00278211 0.0501391 
0.0872148 0.0202885 0.14986 
-0.0178026 -0.0194909 0.0315274 
0.0778849 0.0125685 0.122842 
-0.00931298 -0.000472039 0.00415477 
0.00410722 -0.0064914 -0.0154651 
0.00333539 0.000210775 0.00308173 
-0.0795028 -0.00355957 0.0799825 
-0.00517407 -0.0100692 0.379867 
0.0123027 0.085251 0.184293 
0.015347 0.00200028 0.372541 
0.00310053 -0.117806 0.259673 
0.0337006 0.0200123 0.0207516 
0.0155658 -0.00959598 -0.00274628 
0.000967957 -0.0305992 -0.0217605 
0.021434 0.0341491 0.112364 
-0.00166771 -0.00555655 0.0821152 
-0.00204635 -0.0100354 0.128316 
2.87582e-06 -0.000379326 0.0927979 
-0.000590368 -0.00435675 0.0686089 
0.000184321 -3.4531e-05 0.0821735 
-0.000132484 4.51906e-05 0.0689473 
-6.39265e-05 -0.00102236 0.0482607 
0.00160945 0.00627293 0.0952318 
-0.00330019 0.00027073 -0.00236997 
0.00719686 -0.000590392 0.00578809 
-0.00167173 0.00013714 -0.0155837 
0.0388363 -0.00474326 0.100429 
0.04192 0.0336582 0.11888 
-0.00298463 0.0390557 0.121858 
-0.0255778 0.00622438 0.109386 
-0.0244993 0.0213545 0.131402 
0.000171918 0.000418827 -0.00369431 
-7.66525e-05 -0.000137148 9.70961e-05 
-0.000993642 -0.00173167 -0.000184485 
-0.00627968 -0.00545824 0.0112303 
-0.0018664 0.00180565 0.0870011 
-0.00294287 -0.0080365 0.115072 
-0.00768772 -0.00959365 0.110439 
-0.00145169 -0.00702926 0.128036 
-0.0014407 0.0366182 0.0627496 
0.0132417 0.0269892 0.113957 
-0.0224219 0.0651439 0.143629 
0.00506606 0.0307962 0.0398545 
0.0978194 0.000938318 0.0694079 
0.006074 -0.0189713 0.201674 
-0.0176292 -0.0303138 0.177893 
-0.00435997 -0.0347249 0.24823 
0.00991891 0.0182124 0.110798 
-0.00367365 0.0477183 0.0722445 
-0.0124696 0.0593926 0.131192 
0.0105219 0.0299319 0.130413 
0.00242173 0.00685735 0.116433 
-0.00192717 -0.00765957 0.109083 
-0.0014095 -0.0122372 0.129566 
-0.000793683 -0.00751426 0.10961 
-0.00969275 -0.00819183 0 
-0.0107041 -0.0221181 0 
0.000480542 0.0189505 0 
0.009539 0.0636212 0.0289651 
0.0058344 0.0030682 -0.000287161 
-0.00935341 -0.00304858 0.10262 
-0.00547801 -0.0017344 0.00220706 
-0.00139237 0.00727878 0.0900882 
0.00206331 -0.006173 0.0729697 
-0.00833979 -0.025363 0.0943583 
-0.000724327 -0.00725896 0.111857 
9.78023e-05 -0.000598153 0.0821995 
-0.0332224 0.00293497 0.154403 
-0.0831069 -0.0484046 0.142557 
-0.0025218 0.0248961 0.0280715 
0.03314 0.052377 0.0460505 
0.00097327 -0.00791965 0.128312 
0.00203836 -0.00604449 0.139312 
-5.75088e-05 0.000798543 0.143807 
0.00237999 0.000580624 0.13797 
0.00194362 5.02799e-05 0 
-0.00235189 0.0034266 0 
0.00208822 0.00088684 0 
-0.0115536 0.000591236 0.0104499 
-5.64441e-05 0.000748891 0.138153 
0.00270162 0.00467643 0.121695 
-0.00135664 -0.00220956 0.130132 
0.00267138 0.00205669 0.138498 
0.00518428 0.0196599 0.115856 
0.00612842 0.0380692 0.124408 
0.00247609 0.00859087 0.117974 
0.00160488 0.0102065 0.0866009 
0.00229905 -0.035239 0.0927664 
0.0102199 -0.0210413 -0.0138846 
0.0336512 -0.106894 0.152713 
0.00849978 -0.0188179 0.0338786 
-0.00268136 0.0162522 0.115212 
0.00515845 0.0129891 0.0894632 
0.00529431 0.00869185 0.0748453 
0.00563932 0.0189442 0.10716 
0.00159981 -0.000693963 0.000913586 
-0.00539028 0.0101559 0.0995978 
-0.00216605 0.00111814 0.00801303 
0.000434623 0.00503564 0.0752047 
-0.000664421 0.000144457 0.134213 
0.000581011 -5.86123e-06 0.139031 
-0.000253307 -0.000847473 0.12853 
3.34052e-05 -0.00568996 0.140879 
0.00034841 0.00322074 0.00270118 
-8.22703e-05 -0.00575037 0.0771375 
-0.00135373 -0.00490475 0.0804726 
-0.00560415 -0.0042688 0.075935 
-0.0064341 0.00578335 0.0763382 
-0.00329611 0.00196856 0.050273 
-0.00417736 0.00240136 0.106447 
-0.00249853 0.00386397 0.10058 
0.000261525 0.000193706 0.0450501 
-8.63827e-05 -2.84406e-06 0.0360184 
-2.03946e-06 0.000286859 -0.000211962 
-0.00205431 0.00116459 0.0581728 
0.00248031 -0.00351932 0.00320362 
-0.00149233 -0.00887877 0.104569 
-0.0013151 -0.00319272 0.0069165 
0.000216202 -0.00181425 0.0672201 
-0.0011837 0.00211015 0.00143118 
-0.00343527 -0.00319421 -0.00184983 
0.00713558 0.00759379 0.0321605 
0.00565393 0.00254197 0.0131957 
0.000113799 0.00139377 3.00156e-05 
-8.42112e-05 -0.00103139 -0.00101449 
3.97986e-06 4.87441e-05 0.00148046 
8.69349e-05 -0.00158023 0.04665 
0.0149646 0.0493019 0.13329 
0.0254446 0.0219519 0.0978636 
0.0104579 0.00633506 0.128822 
0.0267247 0.0661425 0.116022 
-0.00360795 -0.000382972 -0.00840199 
0.00263476 0.000339676 0.0106691 
0.00812258 0.000500595 -0.00840355 
-0.0214326 -0.0136716 0.0856631 
-0.0021423 0.00156957 0 
0.00465332 0.00599219 -0.00943138 
-0.00435868 0.000359306 0 
0.00162199 0.00528393 0 
0.00627769 -0.00943401 0.0867785 
-0.0171058 0.000942102 0.0897145 
-0.00449706 -0.0189135 0.120843 
0.00334781 -0.0075053 0.0783331 
-0.0263614 -0.0120549 0.0717874 
-0.0639028 0.0297118 0.150451 
-0.0108207 0.0164841 0.0226672 
-0.0482662 0.0289068 0.0633978 
0.000116424 -0.00143236 -0.00993688 
0.000688663 -0.0084726 0.00387802 
-0.000166746 0.00205147 0.00079979 
0.0016348 -0.0266807 0.0431229 
-0.000155819 -0.0055307 0.00551773 
0.00200915 0.00896038 0.0820773 
0.003776 0.0119512 0.103867 
0.00634692 0.00710228 0.0824719 
-0.00037215 0.0164691 0.099971 
-0.00275843 0.0106341 0.119975 
0.00205376 0.01211 0.139362 
0.00513252 0.00482966 0.124814 
-0.00122484 2.04776e-05 0.0523864 
0.000310921 0.000929378 0.0383932 
-3.45282e-05 -0.00401488 0.00358878 
0.00162789 -0.00413358 0.0624892 
0.0081927 0.02627 0.119232 
0.00848074 0.0296394 0.0485665 
-0.00163891 0.0361837 0.0659923 
0.00178174 0.00815639 0.0872127 
-0.000981088 -0.00061485 0.00129327 
0.000825882 -0.00505263 0.0585561 
-0.000166058 -0.000327542 0.048523 
0.000508299 -0.00189186 0.0470851 
0.0100259 0.00248229 0.00595207 
-0.00808707 -0.00211974 0.000562498 
-0.00518075 -0.00118845 -0.00737913 
-0.0117121 0.0109177 0.151446 
0.00254567 0.00841541 -0.00227154 
0.0162808 -0.0125548 0.114694 
0.0108086 -0.00995691 0.0952321 
-0.00104585 -0.00316267 0.0744471 
-0.000390706 -0.000214385 0.0846611 
0.00123676 0.00045733 0.0583772 
0.000209026 0.000347265 0.0425106 
-0.00381847 -0.00485264 0.0732992 
-0.00108294 -3.3253e-05 -0.0110425 
-0.0172809 -0.00640439 0.121722 
-0.00782428 -0.0017142 -0.0345916 
-0.0271877 -0.0318471 0.121749 
-0.0136271 0.0104456 0.158368 
0.0601967 0.0142918 0.155676 
0.0242951 0.00197907 0.152074 
0.0245295 -0.00907336 0.116886 
0.00379641 0.000848892 0.00691763 
-3.76175e-05 0.00634403 0.106348 
0.0028596 -0.00277355 0.00199903 
-0.00286193 0.00726587 0.0771585 
0.00290682 -0.00316106 0.0619519 
-0.00324789 -0.0289741 0.0720048 
-0.00421346 -0.0208558 0.0455435 
0.00220355 -0.0104148 0.0316616 
0.00109208 0.00149663 0.00121724 
-0.000701194 -0.00095899 -0.00100422 
-0.0012841 -0.00178698 0.00165568 
0.0134143 0.0190936 0.0670072 
-0.00332666 -0.0193755 0.119416 
0.00669543 -0.00686374 0.0744267 
-0.0189422 -0.000796427 0.0917338 
-0.00950593 -0.00350165 0.078832 
-0.00457018 -0.0220475 0.0385072 
-0.013237 -0.02966 0.0520332 
-0.0114326 -0.0307101 0.0941673 
0.00144418 0.0119215 0.079494 
-0.0153626 -0.0394263 0.110367 
-0.00448075 -0.026602 0.0810198 
-0.000755648 -0.00918002 0.102716 
-0.0104207 -0.0317891 0.127368 
0.0191503 0.00262736 0.154462 
-0.00045124 -0.000506425 0.14667 
-0.00504424 -3.36412e-05 0.149969 
0.0306294 0.00465054 0.120865 
-0.00916286 0.00282307 0 
-0.00620831 0.00449414 0 
0.006207 0.00317338 0 
0.0225248 0.0190986 0.0234541 
0.000508862 6.17421e-05 0.00778216 
0.00382089 0.00783089 0.10576 
-0.000945581 0.00439403 0.074131 
0.00116492 0.0114463 0.0945921 
-0.0296448 0.029307 0.162959 
-0.056872 -0.00955427 0.188266 
-0.00890506 0.00995458 0.0647329 
-0.00822985 -0.0197805 0.298141 
-0.00137043 0.00146106 0.000749967 
0.00225548 -0.00477921 0.0678682 
-0.000518495 -0.00282302 0.000304112 
0.000705659 -0.000125037 0.0454426 
-0.0156259 -0.000422921 0.0304998 
-0.0138235 -0.00569594 0.0415547 
0.00400688 -0.00158704 0.00100184 
-0.0138801 -0.00747851 0.0175324 
0.00317488 0.0131169 0.11332 
0.0594139 0.0141339 0.154452 
-0.00994188 0.0094845 0.154519 
0.0279041 -0.0085396 0.121336 
-0.00791674 -0.00922298 0.10706 
-0.0041194 -0.00311333 0.106138 
-0.000575462 0.000382065 0.0876842 
-0.00252315 -0.00588294 0.128441 
-0.000534124 2.30886e-05 0.137607 
0.000462853 -4.30904e-05 0.120678 
-0.000394122 -0.00203801 0.128419 
0.00202637 0.00545288 0.124852 
0.0461431 -0.0391984 0.18858 
0.0162635 -0.0349215 0.380076 
0.127951 0.0722401 0.0686556 
-0.0611251 -0.0516645 0.179457 
-0.0133504 -0.0398026 0.0886768 
-0.00111265 -0.0186212 0.0517459 
-0.0107808 -0.0307235 0.127112 
-0.0344425 -0.0478022 0.103925 
-0.0190227 0.0861067 0.153032 
-0.00247171 -0.0206994 0.129632 
-0.0291726 -0.0369688 0.0550356 
-0.0311152 0.0290219 0.0494017 
-0.00634437 0.00550808 -0.0129453 
0.00095969 -0.000864807 9.94181e-05 
-0.00469977 0.00598076 -0.0104201 
0.0731798 -0.0343696 0.0840031 
-0.019083 -0.030004 0.14138 
-0.00232794 -0.0143744 0.0901296 
0.0073783 -0.0373879 0.0808619 
-0.0235561 -0.0224778 0.13134 
0.00312997 0.0113426 0.131624 
0.00327781 0.00429048 0.138098 
-0.00031078 -1.03764e-05 0.141783 
0.00350906 0.00576198 0.142076 
0.00283984 0.0128647 0.138194 
0.00047828 0.0081131 0.120389 
-3.76433e-05 0.000369554 0.123018 
0.00104941 0.00783838 0.124451 
-0.000590975 -0.0129886 -0.0168805 
-0.00111308 0.0472791 0.0827263 
-0.00285459 0.0517132 -0.00633657 
-0.0054214 0.0322249 0.0598895 
-0.00848078 -0.000708675 0.0037287 
9.41667e-05 7.8688e-06 0.00351769 
0.00333116 0.00027836 -0.0113539 
-0.00244941 -0.00418168 0.0989031 
-0.000760225 -0.000835929 0.083161 
-0.000460317 0.00115901 0.0953182 
2.70017e-06 -0.00900207 0.128284 
-0.00213668 -0.00587785 0.0675817 
0.00018854 0.000335886 0.132463 
0.000228971 -1.09438e-06 0.11683 
0.000310667 0.00014083 0.114528 
-0.00326647 -0.0125701 0.121228 
0.0385734 0.00791839 0.121183 
0.00121138 0.0159781 0.114107 
0.0177483 0.0355901 0.141491 
0.00929539 0.00703397 0.0855049 
-0.0189185 -0.0217434 0.00593369 
-0.0534369 -0.0125845 0.0916046 
-0.0306514 -0.0210294 0.0805304 
-0.0263036 -0.0165212 0.0420623 
-0.00347018 0.00419572 0.0124482 
-0.0333388 0.00370735 0.108383 
0.00890011 -0.0198308 0.108893 
-0.036785 0.0242814 0.11748 
-0.00674976 0.00461898 0.0770462 
-0.0142643 0.00355368 0.0944553 
-0.00374222 -0.000513807 0.0590475 
-0.00885506 0.00371015 0.0454486 
-0.0011738 0.000800475 -0.000167316 
-0.00116694 -0.000119458 0.000922816 
0.0016527 -0.000745777 0.0690803 
0.00137382 0.00245654 0.0760264 
-0.00446835 0.0130965 -0.0109942 
-0.0148689 -0.00191372 0.00450976 
-0.0306065 0.00183203 0.068641 
-0.0626709 -0.00462877 0.101315 
-0.00177231 -0.00178567 0.000529565 
-0.000180221 0.00104841 0.000471169 
0.00511721 0.00519051 0.0476189 
0.000679151 -0.00013388 0.0454128 
0.011696 0.0237195 0.118924 
0.00281516 0.0147318 0.138996 
0.000598765 0.0290562 0.128979 
0.0121821 0.0193844 0.128287 
-0.00296588 0.00256941 0.0135733 
-0.0219394 0.00328973 0.109735 
-0.000453325 -0.00234687 -0.00390359 
0.000763078 -0.00594992 0.0989273 
3.81977e-05 -0.000354508 0.0438822 
8.58673e-05 -0.000469233 0.047855 
0.000196284 0.00025546 0.0761212 
-0.00368152 0.00537896 0.0723749 
-5.85501e-05 0.000857441 0.146576 
0.00272912 0.00142153 0.138364 
0.00412446 0.00202946 0.138697 
0.00303067 0.00585991 0.142957 
0.000615075 -0.00200192 0.00180836 
6.46229e-05 0.00026297 0.0387876 
0.000440413 -0.000926355 -0.000613596 
0.00159817 -0.00450972 0.0633941 
0.0462172 0.0322114 0.0627233 
-0.000447692 0.039707 0.0136666 
0.0231584 -0.0130325 0.00387145 
0.0559395 0.0762068 0.119111 
0.00457552 0.0153326 0.117327 
-0.00055204 0.0476381 0.0702284 
0.00648645 0.0387265 0.124154 
0.00205217 0.00844489 0.0871178 
-0.0135236 0.00122631 0.0937438 
-0.00703513 0.00718486 0.0773893 
-0.00371689 0.00047287 0.0590673 
-0.00333993 0.00106413 0.106346 
0.00293472 0.00677357 0.119422 
0.00515794 0.0389254 0.120077 
0.00276855 0.00604981 0.0831866 
0.00250984 0.0103068 0.0910214 
0.00659028 0.00141179 0 
0.00610299 0.014841 0 
-0.0274061 -0.0326923 0 
-0.0322093 -0.0157369 0.1102 
0.00477796 0.00981105 0.124352 
0.0375627 0.0624145 0.127573 
0.00104546 0.0147217 0.112747 
-0.00952966 0.035862 0.125579 
0.100979 0.037248 0.115694 
0.0132561 0.0693462 0.0454177 
0.0351471 0.000430096 0.15984 
0.0424027 0.0354943 0.177738 
0.00338448 -0.0178776 0.121553 
0.0082082 -0.0295489 0.133531 
-0.00167649 -0.0468073 0.101346 
-0.0120382 -0.0266757 0.11117 
0.0197893 -0.00431024 -0.0186243 
-0.0197878 -0.0664148 0.0866863 
0.00428144 0.00773681 -0.0194312 
0.0098453 -0.0218352 0.0454951 
-0.000395087 0.00971438 -0.0509617 
-0.0741954 0.00119538 0.156326 
-0.042185 0.00357382 0.0601868 
-0.0403565 0.0199109 0.0639479 
-0.000219355 2.84558e-05 0.115261 
0.000347601 -5.76942e-05 0.11447 
-0.00261644 -0.0125708 0.123544 
-0.00222829 -0.00815355 0.097743 
-0.000222876 -0.000484975 0.0473785 
0.000552245 0.000434579 0.083103 
-9.93084e-05 0.00037605 0.0800796 
0.00413484 0.00742045 0.0721393 
-3.84128e-06 -0.000314537 0.0439147 
1.89083e-05 0.000799776 8.86115e-05 
0.000636991 -0.000336713 0.0465927 
-0.00451602 0.0051644 0.074304 
0.00221679 0.00252242 -4.77033e-05 
0.0111676 0.00375713 -0.00447947 
0.0165313 -0.00256481 0.131055 
0.00986536 -0.0105822 0.103635 
-0.00754386 0.0065711 -0.010691 
0.035394 -0.000686607 0.0724749 
-0.00135507 0.000182485 -0.00774417 
-0.00827329 -0.00152431 0.0273097 
-0.017946 0.00708402 0.0367269 
-0.0114364 -0.00609741 0.0437015 
-0.0272116 -0.0110955 0.0737384 
-0.0166501 -0.00567974 0.0973992 
9.25698e-05 0.000454071 0.0418017 
0.000365566 6.26654e-05 0.00136851 
-0.000862053 0.000279546 -0.000769763 
-0.00350087 -0.00319604 0.0818451 
0.00686842 0.0179129 0.086613 
0.00343504 0.00625126 0.0931553 
-0.000631946 -0.00752747 0.0655022 
0.0013529 0.00275562 0.0982408 
-0.00229518 -0.00587467 0.0644864 
-0.0152204 -0.0343101 0.0970508 
-0.0168712 -0.0279186 0.0429438 
0.0109337 0.0186655 0.0815487 
1.90616e-06 -0.00692435 0.101045 
-0.000725283 -0.0183452 0.114317 
0.00344252 -0.0252765 0.14033 
-0.00255367 -0.00768875 0.104412 
0.00309807 -0.000808983 -0.0113483 
0.00371139 -0.000812549 0.000507763 
-0.00165798 0.000414933 0.00445133 
0.0353805 0.00484685 0.0788259 
0.00164444 -0.00194292 -0.00191019 
-0.0121564 -0.00729164 0.0233637 
0.0041616 0.000824077 -0.00855882 
-0.00665438 0.0111751 0.0152682 
0.000447042 -0.000357279 0.0429178 
8.29983e-06 -0.00143793 0.0529589 
-0.000939085 -0.00013816 0.0016598 
0.00106082 -0.00305113 0.0669744 
-0.00139521 -0.00295 0.00230342 
-0.000968872 -0.00129357 0.0018466 
0.00328771 0.00648836 0.0851896 
0.00749724 0.00742033 0.0825505 
-0.00621949 0.00540279 0.0768808 
-0.00179992 0.00274722 0.0552903 
0.00170651 -0.000182754 0.00078924 
-0.00272325 0.00224599 0.049573 
0.00146294 0.0101885 0.0990266 
0.000322272 0.0087221 0.0809561 
0.0161459 0.0242104 0.139262 
0.00964294 0.00802681 0.0857181 
-0.000185328 0.000549928 -0.00271178 
-4.03992e-05 0.000265928 0.00203278 
0.000104499 -0.000338335 0.00102147 
-0.00581212 0.0074169 0.0512169 
-0.0147199 0.0116039 0.121353 
-0.0242519 0.0275417 0.0604605 
-0.0124349 0.0104351 0.0455294 
-0.00995188 0.018623 0.0679021 
-0.00605475 -0.00783975 0.00495881 
0.00489473 0.0106406 0.105899 
0.00744912 0.0110986 0.0989819 
0.00956353 0.0105535 0.0889271 
-0.0112321 -0.0101105 0.109201 
-0.0023665 -0.0054568 0.0654716 
-0.00608434 -0.0015739 0.0670293 
-0.0180214 -0.00785193 0.0962153 
5.27419e-05 -0.00048059 0.0813376 
-0.000346988 0.000112906 0.10709 
0.000645535 -0.00050412 0.0820128 
0.00319784 0.00947104 0.115108 
0.000261648 -0.00178109 0.00106542 
-8.60433e-06 -0.00809832 0.0586486 
0.000657025 -0.00023089 -0.00163392 
0.00128188 -0.00935437 0.0426205 
-0.000571903 -0.00402065 0.000297375 
0.00402878 0.0101494 0.108198 
-0.000277983 -0.00159704 0.00496639 
0.00677149 0.00696363 0.0859606 
0.000112046 0.00147756 -0.000976927 
-0.00553026 0.00821093 0.0694394 
0.00146714 -0.000588058 0.000970214 
-0.00945483 0.00924903 0.0532489 
-3.50432e-05 -0.00146118 0.000225707 
-0.0023575 -0.000949539 0.00375034 
0.00238748 0.00589464 0.0767372 
0.00182584 0.00511154 0.0856444 
-2.01601e-05 0.000947977 0.120765 
-0.00292401 0.00417227 0.127317 
-0.0029191 -0.00144674 0.131558 
-0.00473044 0.00176706 0.104714 
-0.0274901 0.00776093 0.0703843 
-0.011599 0.0037695 0.0405071 
-0.0113394 0.00456033 0.0967286 
-0.0196093 0.00585869 0.120201 
-2.44067e-06 0.000233174 0.047718 
-0.000361854 -0.00019761 0.0880464 
0.000306732 0.000404673 0.0733154 
0.000240455 -0.00610335 0.0586402 
0.000422371 0.000580825 0.0816845 
-0.00512695 -0.00440147 0.0654133 
-0.00843185 -0.00944751 0.111393 
-0.00397354 -0.00702113 0.118892 
-0.00777256 -0.0284138 0.111648 
0.00693163 -0.0037916 0.115444 
0.000212018 -0.00850205 0.130939 
-0.00225305 -0.00820661 0.107293 
-0.0171036 0.00263778 0.0943415 
-0.0111348 -0.00492747 0.0448805 
-0.01743 0.00807367 0.0378736 
-0.0172601 -0.0102274 0.093138 
-0.0123168 0.00732395 0.309417 
0.0100628 0.0183564 0.35208 
0.00116385 -0.0118552 0.30512 
-0.0244731 0.08011 0.213655 
0.00267245 0.00370043 0.00462222 
-0.00653102 -0.017733 0.107529 
0.00596796 0.0019458 0.00143241 
-0.00597538 -0.0128728 0.0778257 
-0.0176214 0.0112117 0.0380643 
-0.0119933 -0.0135312 0.00997535 
0.00542067 -0.00335809 -0.0157133 
-0.0201422 0.0170753 0.0368901 
0.0162395 0.0431967 0.133964 
0.0312103 0.0657259 0.127637 
0.00654225 0.0132577 0.121562 
-0.00168106 0.0201236 0.137913 
-0.000747964 -0.0164791 0.102206 
-0.00519467 -0.00601361 0.0822211 
-0.0161747 -0.013413 0.111272 
-0.0136569 -0.0232812 0.126029 
0.0276072 0.0286205 0.0314563 
0.0238994 0.0444363 0.0471317 
0.0468421 0.0744136 0.112803 
-0.00780538 0.0172465 0.00263752 
0.00749092 0.0141344 0.137702 
-0.00683184 0.017121 0.119843 
-0.00356023 0.00821443 0.119662 
0.00213788 0.024463 0.1245 
0.00127821 -0.000937077 -0.00840547 
0.00171018 0.000913065 1.4723e-05 
0.000508083 0.00345246 0.0403261 
-0.00233408 -0.00905955 0.0338037 
0.0258671 -0.0807743 0.0850105 
-0.0156887 -0.01478 0.0750278 
-0.0111267 -0.0291716 0.173895 
0.0229793 -0.0203187 0.183169 
-0.0542864 -0.00830382 0.0898604 
0.0854564 0.00938654 0.101639 
0.0164128 0.00983981 -0.00608042 
-0.00247771 0.0513757 0.121894 
0.0035105 -0.00593969 0.00491454 
-0.00669167 0.00746697 0.0982985 
-0.00111985 0.00755022 0.0829959 
0.0156777 0.00835866 0.0864175 
-0.00209546 0.00400977 0.00560244 
-0.00245768 0.0103549 0.0999344 
-0.00165303 -0.000326102 -0.000690048 
-0.0085645 0.0104413 0.0750091 
0.0105456 0.0147583 0.166808 
-0.00611503 0.00688197 0.0902924 
0.0212235 -0.00685102 0.00222991 
-0.00240319 -0.0130114 0.147412 
0.000245981 -0.000508271 0.126678 
0.00172529 0.0109132 0.135623 
0.000239366 0.000526371 0.131887 
0.00255024 0.00913034 0.123 
-0.0192578 0.0232995 0.379608 
0.00544348 -0.0158584 0.379949 
-0.0269386 -0.0500357 0.169826 
0.0255291 -0.011067 0.199346 
0.00445452 0.0110001 0.126134 
0.00260684 0.0254852 0.130475 
0.0280542 0.0606862 0.130166 
-0.00385111 0.0369959 0.124169 
-0.000124026 -0.00977387 0.127287 
0.000660548 -0.00771172 0.139682 
0.00703412 0.00412062 0.139894 
0.00662837 -0.000852613 0.123857 
0.00147148 -0.00613924 0.000676254 
0.00399909 -0.0438605 0.0604858 
-0.00117275 -0.0270917 0.0704226 
0.000697013 -0.0117348 0.0346107 
0.00711692 0.00630812 -0.000296016 
-0.0127226 -0.00104842 0.114273 
-0.0045422 -0.00233297 0.0772593 
-0.0128076 -0.00834319 0.0923316 
0.0103861 0.0417662 0.0400223 
-0.00540739 0.0625274 0.061245 
0.0190298 -0.0181486 -0.061637 
-7.83817e-05 0.105207 0.177257 
0.0023426 0.00374929 0.00623749 
-0.00743045 -0.00731912 0.0811682 
-0.00132211 -0.00990728 0.102422 
-0.00743943 -0.00785094 0.0821288 
-0.00131352 0.000926559 0.00124682 
-0.00397614 0.00817286 0.0717721 
-0.00161004 0.00154508 -0.00274799 
-0.00729035 0.0141732 0.0654603 
-0.00549939 -0.0577726 0.0670045 
-0.00553861 -0.00434562 -0.0604999 
-0.0413688 -0.0509121 0.0781627 
-0.0607327 -0.103616 0.221961 
-0.00602895 -0.00407604 0.0686443 
-0.0122907 0.00136432 0.0925913 
-0.00424784 0.000443961 0.059486 
-0.00385895 0.00123419 0.106251 
-0.00107159 0.00261044 -0.000882675 
-0.000243205 0.000321698 0.00382462 
0.00180906 -0.0041472 -0.00237107 
-0.00915884 0.0198025 0.0126781 
-0.00113853 0.000804229 0.0551947 
0.000253651 0.000728263 0.00190932 
-7.80684e-05 0.000281036 0.0447346 
-0.000643269 0.00240877 0.0724263 
-0.00801032 -0.0168007 0.114859 
-0.00204393 -0.01354 0.120169 
-0.0056137 -0.0142221 0.100569 
-0.0146765 -0.025813 0.119366 
-0.00523451 -0.00580537 0.0766204 
-0.00574612 -0.0045243 0.0662881 
0.000632995 0.000205035 0.0827108 
-0.00402524 -0.00669541 0.11805 
0.000126926 0.0104014 0 
0.00134251 0.0154763 0 
-0.00503645 -0.00724719 0 
-0.00536341 0.00607167 0.0043251 
-0.0308443 -0.018415 -0.0623114 
0.0129543 -0.0453668 0.0512811 
0.00342611 -0.058436 0.0530161 
0.077963 -0.0858557 0.247377 
0.00204688 -0.010424 0.0053435 
-0.00430961 -0.025368 0.0430243 
0.00376303 -0.0387831 0.0548935 
-0.000834673 -0.0109071 0.0339057 
0.000847658 -0.00717065 0 
0.0114032 -0.00845916 0 
0.00423594 0.0269511 0 
-0.00945858 0.055286 0.0448643 
0.000296813 -0.0307692 0.0799732 
-0.00840879 -0.01529 0.0900842 
-0.0024753 -0.0131734 0.0934851 
-0.0139912 -0.0264721 0.132002 
-0.00358944 0.0348121 0.0625759 
0.00873777 0.0302789 0.049843 
0.0115748 -0.0139577 0.0622505 
0.00310799 0.00996432 0.0911122 
-0.0163113 -0.0259373 0.0460651 
0.00168062 0.0102912 0.0822357 
-0.00957288 -0.0265959 0.0468109 
0.00808765 0.0076537 0.00952615 
-0.000968419 -0.0276004 0.0844841 
0.00774437 -0.0477519 0.0981022 
0.0101038 -0.00113146 -0.00320198 
-0.00153443 -0.0207836 0.0894834 
0.0428158 -0.0345879 0.17346 
-0.00493318 0.0248329 0.357075 
0.016235 0.0189348 0.322203 
0.0602879 -0.141818 0.0351041 
-0.00711966 0.0148006 0.115431 
-0.00274163 0.00466335 0.127039 
-0.00196823 0.00893801 0.11862 
-0.00544457 0.00501412 0.10067 
-0.00199251 -0.0150828 0.131428 
-0.0013884 -0.0293183 0.128005 
-0.0023441 -0.018686 0.114114 
0.000881588 -0.00477142 0.113343 
0.00711731 0.0014952 -0.00488341 
-0.0117498 0.00400981 0.015094 
-0.00363591 0.000231835 0.000428363 
-0.012089 0.00296701 0.0133647 
-0.00070673 -0.000484525 0.00513274 
0.000877676 0.000603135 0.000261693 
-0.00131298 -0.00090276 -0.00266735 
0.0195946 0.0169589 0.0873963 
0.00606487 0.0167149 0.0883539 
0.00508472 0.00340802 0.0578765 
0.00308025 0.0121595 0.114075 
0.00202534 0.00310911 0.0957707 
-0.000148192 -0.000845771 0.13864 
-9.16944e-05 -2.24423e-05 0.140134 
5.37865e-05 0.000116534 0.129007 
0.00322659 0.0107442 0.132122 
0.000132476 -0.00732662 0.100796 
0.000875543 -0.0280906 0.133861 
-0.0016704 -0.0151371 0.132825 
-0.000536646 -0.00547037 0.109502 
-0.00972106 -0.00643839 0.00403602 
-0.0171979 -0.0170309 0.020787 
-0.00142431 0.00289455 -0.00391259 
-0.028302 -0.0133314 0.0278845 
-0.014743 -0.0476238 -0.0104631 
-0.037884 -0.012676 0.150165 
0.0336267 0.0612924 -0.0168219 
-0.0248053 0.0155394 0.0628427 
0.00586854 -0.0018641 0.00220585 
0.00730001 0.0193103 0.0776744 
0.00612277 0.00661122 0.0772512 
0.00757937 0.0195897 0.112742 
-0.00769693 -0.00563137 0.0141233 
0.00714564 0.00536431 -0.0166899 
0.00346927 0.00225422 0.00109202 
0.0371682 0.00570208 0.100919 
-0.00112194 0.00237309 0.000810775 
0.00284341 -0.0105997 0.107256 
0.00014247 0.00245624 0.00382212 
-0.0049939 -0.00514658 0.0872072 
0.0171436 -0.00518815 0.0522296 
0.059664 0.00934772 0.112644 
0.060126 0.0111889 0.134092 
0.0247762 -0.00591693 0.118015 
0.0216231 0.0341592 0.129047 
0.000527321 0.026899 0.1275 
0.00505076 0.0276791 0.12659 
0.00718085 0.0238637 0.132156 
0.00300511 0.00419841 0.0721902 
-0.00181795 0.00725842 0.0846396 
0.000412413 -0.00232796 0.00541197 
-0.00258848 0.00736648 0.0839525 
-0.00668134 -0.0168248 0.111811 
0.0113107 -0.00884364 0.100131 
0.0108794 -0.0126997 0.107129 
0.00206765 -0.00384742 0.0758768 
-0.0787397 0.0153965 -0.00305048 
-0.0042727 -0.0704853 0.140722 
0.0570089 -0.0188689 -0.0600381 
-0.102793 -0.0236881 0.185182 
-0.00155856 -0.00146297 0.000223412 
-0.000794735 0.000544613 0.00356113 
0.00141651 0.00423042 0.105665 
0.00120442 0.00436031 0.0754817 
-0.00660111 -0.0239403 0 
0.00575078 -0.0271386 0 
-0.0284989 0.0229348 0 
-0.0156089 0.108321 0.0594966 
-0.000268733 -0.000206739 0.113666 
-0.00264904 -0.00724116 0.114995 
-0.00218539 0.000734682 0.0870448 
-0.00238359 -0.0056862 0.129036 
-0.00569567 0.0150856 0 
-0.000722838 0.0043069 0 
0.00383344 -0.0165231 0 
-0.00285727 -0.078752 0.0541504 
-0.0050428 0.0162563 0.00197527 
0.00520089 -0.0335194 0.110751 
0.00685535 0.00154536 -0.000303248 
-0.0292668 0.0211176 0.13322 
0.00238371 0.00231613 0.00429369 
-0.000916774 -0.000890286 0.000425969 
0.00153532 0.00149099 -0.000596785 
-0.0200113 -0.0153812 0.0374641 
0.00549469 0.0196373 0.0911859 
0.00365493 0.0108771 0.0859335 
0.00283219 0.00427331 0.117394 
0.00431488 0.0344001 0.117522 
-0.00636515 -0.0139998 0.11958 
-0.00799205 -0.0455624 0.111341 
-0.00878992 -0.0318683 0.117874 
-0.0229117 -0.0298418 0.122078 
0.00459365 0.0134814 0.133496 
0.00226909 0.00733121 0.141847 
0.00371094 0.0138045 0.133737 
0.00182185 0.00674408 0.124866 
0.0189799 0.00891457 -0.00318991 
0.0190749 -0.00069815 0.122001 
0.0313029 0.0139668 0.094521 
0.0302674 0.0902747 0.107585 
-0.0213674 -0.0191263 -0.0257081 
0.0490896 -0.0807477 0.102901 
0.0582075 0.0649677 0.141991 
0.0154435 -0.0115106 0.162414 
0.0150681 -0.00613408 0.0516339 
-0.0538804 -0.0592641 0.103713 
-0.0115373 -0.0340563 0.0882382 
-0.022599 -0.0421463 0.033608 
-0.0105833 -0.0100352 -0.00508555 
0.00232109 0.013213 0.0986619 
-0.0148287 0.0040436 0.119014 
-0.0151019 -0.0195041 0.114227 
0.000620411 -0.000563661 0.00212911 
-0.0094702 0.00480468 0.0281129 
0.00184856 -0.00160318 -0.00813824 
-0.00916951 0.00488991 0.0150989 
0.00081409 0.000833536 0.00226912 
-0.00122851 -0.00625482 0.0759779 
0.00130021 -0.00584935 0.103574 
0.000639357 0.000283941 0.0617573 
-0.00135385 -0.0019367 -0.000186886 
0.00261933 -0.0069008 0.0692025 
-0.00018763 0.00382288 -0.000889844 
-0.000652847 -0.00936862 0.0383251 
0.000310324 -0.000918746 0.128973 
0.00351253 0.0120407 0.134347 
-3.17525e-06 -0.000938161 0.112143 
0.00194667 0.0112067 0.113659 
0.0245565 0.000489484 0.139027 
0.00945414 0.0138842 0.137322 
-0.00509829 0.00623462 0.15118 
0.0315015 0.00616055 0.106296 
-0.00640052 -0.00268545 0.0687591 
-0.0119577 -0.000548017 0.0941445 
-0.00381082 0.00135187 0.105496 
-0.00438278 -0.0027589 0.107003 
-0.0184961 -0.0202207 0.171677 
0.0114891 -0.0177201 0.092624 
-0.0404231 0.00907171 0.0996486 
-0.0284136 0.0120581 0.155929 
0.00019456 -0.000373763 0.00167863 
6.26922e-05 4.67339e-05 0.0480779 
0.00012996 6.19025e-05 -4.15474e-05 
-0.000377671 -0.0014565 0.082481 
7.92304e-05 -0.000324089 0.139791 
-0.000264871 9.38999e-05 0.133072 
0.000100665 -0.000462699 0.126663 
0.00258993 0.0114669 0.133984 
3.40948e-05 0.000916175 0.0690434 
0.000430355 -0.00747175 0.0593485 
0.000234531 0.00257599 0.0549175 
0.00150293 -0.00845637 0.0985 
-0.0264381 0.00140582 0.0661451 
-0.0102148 0.011086 0.0460464 
-0.0188438 0.0147784 0.0472018 
-0.0164914 0.00727518 0.0148576 
-0.00418906 -0.00033186 -0.00616864 
-0.00992815 -0.00167908 -0.00642639 
-0.000131985 -0.00521455 -0.000191991 
0.0399332 -0.0596727 0.0447203 
0.000190661 -0.000383562 0.0478747 
8.87304e-05 0.000389186 0.0800018 
-4.94172e-05 -0.000373153 0.0406883 
0.00387309 0.00733808 0.071658 
-0.015604 0.0784644 0.086181 
0.0323934 -0.0202112 0.135764 
0.00539713 0.0718155 0.162678 
-0.0807534 0.0177288 0.0445458 
0.000768801 0.000444891 0.0456603 
-0.00133643 0.000765738 -0.000644637 
-0.000738165 0.00134519 0.000565767 
-0.0032152 0.00330906 0.0774424 
-0.0194542 0.00318734 0.000205195 
0.00183171 0.026705 0.16627 
-0.0062645 0.00389147 0.0127837 
0.0116819 0.00667979 0.113605 
0.000394753 -0.00631861 -0.0100857 
-0.034302 0.0152493 0.0616238 
-0.0101575 0.00146716 0.00631077 
-0.0442665 0.0204498 0.0482473 
-0.00977925 -0.0316791 0.103093 
-0.0150802 -0.0117082 0.0512553 
-0.0111001 -0.0262575 0.0462216 
-0.0283737 -0.059394 0.107597 
0.00708753 -0.00269734 0.0157299 
-0.0174844 -0.0144751 0.0993291 
0.0200263 -0.0577638 0.103443 
0.0278634 -0.0270329 0.133272 
-0.000408776 -0.00111001 0.0500424 
-7.06427e-06 -0.000409352 0.0390935 
0.000185774 0.00028571 0.0805728 
0.00394995 0.00724998 0.0733753 
0.000687415 -0.00130698 -0.00504259 
0.000266812 -0.000694066 0.00527602 
-0.000843021 0.00172014 0.00164123 
0.00319459 -0.014275 0.0823827 
0.00380923 0.0125414 0.132327 
-0.000177715 0.00103056 0.131691 
0.00289202 0.0065213 0.143556 
0.00186278 0.00924343 0.123697 
-0.00310238 0.00326789 0.0107093 
-0.000343265 0.000330559 -0.00255962 
0.00237012 -0.00241187 0.00204339 
0.000486188 -0.00968443 0.094652 
-0.000589906 -0.000134759 0.110824 
0.00290943 0.0107779 0.114303 
0.00332118 0.0119362 0.134543 
0.00242361 0.0088365 0.102325 
-0.00491521 -0.0226051 -0.0240885 
0.063257 0.0888531 0.165608 
0.0321832 0.0413772 0.0096409 
0.044855 0.0401233 0.11209 
0.000638654 -0.00043387 0.000351885 
0.0011753 -0.000799191 -0.000845011 
-0.00175734 0.00119608 0.00348387 
-0.00171153 0.0045475 0.0779919 
-0.00541176 -0.011934 0.0967509 
-0.00753485 -0.0152307 0.126923 
-0.000126994 -0.00506269 0.0825343 
0.0027237 -0.000155629 0.0694195 
0.000887732 0.000890305 0.0841744 
-0.00385852 -0.00490695 0.0663924 
0.000875066 6.60073e-06 0.0837578 
-0.00643082 -0.00623875 0.117857 
-0.0443922 0.021792 0.213234 
0.0384005 0.0533176 0.0704222 
0.0240203 0.0333375 0.321347 
0.057643 0.0185919 0.204441 
0.000115785 -7.39418e-05 0.000436449 
0.000316481 -0.000188254 0.000448155 
-0.000515044 0.000265728 0.0014553 
-0.00146874 -0.00268974 0.0835595 
0.000185052 -0.000172403 0.0448271 
8.89323e-05 0.000895644 0.00359479 
-0.0038834 0.00554125 0.070084 
-0.00193715 0.00284868 0.0570695 
-0.00229398 -0.00400205 0.00335903 
-0.0208035 -0.0175791 0.0861903 
-0.0490466 -0.0192816 0.0855718 
-0.026446 -0.0122717 0.0446053 
-0.000640588 -0.00193411 -0.000143205 
0.00182535 0.00263378 0.00172656 
0.000569382 0.00305665 -0.000756817 
-0.000713242 0.00782132 0.00169966 
0.00155405 0.000727973 0.00262371 
-0.000523975 -0.000258984 -0.00181305 
-0.000109836 -1.75828e-05 0.00213747 
0.00202705 0.00328366 0.0782977 
0.028485 -0.00882312 0.0489463 
0.0442506 0.0145108 0.131949 
0.0210542 -0.0124769 0.0540288 
0.0299837 -0.00594525 0.122768 
0.0149153 0.0167688 0.067458 
-0.0195355 0.0632203 0.129589 
0.0108978 0.0289425 0.124737 
0.00382967 0.0280378 0.0515555 
-0.0228726 -0.0402391 0.192365 
-0.0740721 -0.0718714 0.0979353 
-0.0230962 -0.0320514 0.320038 
-0.0510253 -0.00106943 0.193595 
-0.00998946 -0.00978651 0 
-0.0216499 -0.0195501 0 
0.0136083 0.0178646 0 
0.00984853 0.0349707 0.0276902 
-0.00533676 0.00884262 0.0943284 
0.0223243 0.024072 0.141504 
-0.00333072 0.00829122 0.0797389 
0.0156238 0.00790196 0.0878861 
-0.00419662 0.0035808 -0.000207158 
-0.011966 0.00629484 0.0126413 
-0.0345651 0.00970127 0.0461205 
-0.0111836 -0.00586449 0.0220006 
0.00494034 0.0117167 -0.0193849 
-0.00466875 0.00926708 -0.00376619 
-0.00307734 0.0162361 -0.0141602 
-0.0799555 -0.0260955 0.118519 
-0.011937 -0.0167524 0 
0.00472971 -0.00725091 0 
0.0212022 0.0257028 0 
0.0239556 0.0399061 0.0502367 
0.000467307 -0.00120285 0.00227346 
-0.00379348 0.00842815 0.0853652 
-0.00124404 -0.00217784 0.0061218 
-0.00675286 0.00234708 0.0863788 
6.45321e-05 0.000216685 0.0839946 
-5.80727e-05 -0.00025448 0.0913978 
0.00112963 0.000901868 0.054516 
-0.000407214 -0.00721819 0.0985947 
0.00930557 -0.00236019 0.00742912 
0.0398146 -0.00299577 0.100535 
-0.00841404 0.00171408 -0.00562335 
0.0101652 0.0109239 0.093415 
-0.00161059 -0.0011537 -0.002239 
1.27173e-05 0.00133118 0.00227921 
-0.0153898 -0.0141717 0.0790791 
-0.00644435 -0.00312768 0.0662312 
-0.000352864 0.000187151 0.142233 
0.00118368 -0.00456104 0.139266 
-0.00058178 0.000173518 0.144744 
0.00326576 -0.000337922 0.138875 
0.00180894 -0.00194117 -0.000877345 
0.00336326 -0.0300475 0.0677244 
0.00102719 0.00220925 0.00165419 
-0.0010431 -0.0179843 0.0379068 
-0.00550256 -0.00341999 0.0662738 
-0.0121035 -0.00421964 0.0474349 
0.00265777 -0.000762626 0.000654192 
-0.00462665 -0.00153956 0.0394016 
-0.0617597 -0.017602 0 
-0.0731606 -0.0534483 0 
0.0667009 0.0568673 0 
-0.0989938 -0.0368583 0.203853 
0.0146746 0.0212857 0.0352359 
0.00547448 0.00646206 0.0483368 
-0.000915261 -0.0105583 0.0283727 
0.00203985 0.0028605 0.00125027 
0.00365422 -0.00278042 0.0150701 
0.00802446 -0.00615428 0.104199 
0.0113119 -0.00239177 0.127562 
-0.0154618 -0.00937635 0.098338 
0.00942187 0.0104443 -0.0056769 
-0.0366465 -0.0496155 0.182784 
0.0255676 0.00152917 0.193105 
-0.0176091 0.0148743 0.166866 
-0.000649343 -0.00103936 0.000718132 
-0.000422436 -0.000899178 0.0482071 
0.00039334 0.000377214 0.0345812 
0.000623626 -0.000635505 0.0480716 
0.00829904 0.0227486 0.113892 
0.00108755 0.0063456 0.121539 
0.00844493 -0.00125403 0.116091 
0.0032157 0.0104226 0.0898635 
-0.000607119 0.00538414 -0.00108669 
-0.00108594 0.00375609 -0.000629651 
0.000751642 -0.000902316 -0.00157153 
-0.0075815 0.0149327 0.011479 
0.000182294 -0.00478257 0.081826 
-0.000666095 -0.00450165 0.0731233 
0.00109819 0.00245758 0.00354547 
-0.000171626 -0.00178978 0.0634065 
-0.0320899 -0.0509825 0.0706673 
-0.06911 -0.0247299 0.159071 
-0.0316927 -0.0480222 0.126049 
-0.00569592 -0.0244668 0.145981 
6.47076e-05 -0.00015637 0.00101907 
0.000709274 -0.00119118 0.00207797 
-0.00137415 0.00210899 -0.00056849 
0.00176455 -0.00511811 0.0696998 
0.000358555 -0.000789102 0.114717 
0.00034644 0.00056184 0.0854458 
-0.000549321 0.00154595 0.0957007 
-0.00179806 -0.0110801 0.124789 
-6.40949e-05 -0.000572351 0.127467 
1.46262e-05 0.00159062 0.101575 
-0.000730598 -0.00813396 0.115738 
-0.00203296 -0.00856942 0.110603 
0.0157454 -0.0177687 0.116085 
0.00229743 -0.0445522 0.137731 
0.00894651 -0.022368 0.160356 
0.00728919 -0.00175038 0.0999365 
0.00249528 0.00544588 0.121499 
0.00314607 0.0109066 0.112855 
-0.000104698 9.08907e-05 0.123113 
0.00180463 0.00280996 0.0959694 
0.0129919 -0.0216923 0.133925 
0.00472714 0.0188113 0.133383 
0.0014619 -0.00950814 0.119406 
-0.0161291 -0.0265354 0.120876 
-0.0311603 -0.0142515 0.0487167 
0.00286067 0.0121344 -0.0322868 
0.027664 0.0219404 -0.0458139 
-0.10979 -0.0392536 0.163276 
0.000119397 -0.000161761 0.0760806 
-0.00179091 0.00150323 0.0501185 
-0.00219202 0.002715 0.0554653 
-0.00434971 0.00471538 0.100385 
-0.00313523 -0.00233276 0.00246519 
0.00390269 -0.0201479 0.0401098 
0.000408667 -0.0113169 0.00536441 
-0.00022008 -0.0106331 0.0341282 
0.00669582 0.042874 0.0799165 
0.00136878 0.0325573 0.121582 
0.00258898 0.000773555 0.0776047 
0.0128821 0.0500519 0.104996 
-0.00196644 0.000160421 -0.000122235 
0.00829319 -0.000676552 -0.00744467 
-0.000547472 4.46623e-05 0.0055241 
0.0258294 0.00476588 0.133378 
-0.000177601 -0.000140288 0.0692093 
0.000389014 0.000275973 0.0376127 
-9.47725e-05 0.000333484 0.0548589 
0.000733059 -0.00504572 0.0595952 
-0.000837001 0.00730075 0.339166 
0.00462525 -0.0424601 0.254541 
-0.0541678 -0.0310189 0.21845 
-0.0684033 -0.123617 -0.000880125 
-0.0488753 0.109025 0 
0.0467892 -0.113862 0 
0.0438893 -0.107988 0 
0.0399053 -0.0328877 0.417603 
0.000373071 -0.00558003 0.0666744 
0.00564595 0.0089183 0.0420544 
0.00553668 0.0151844 0.0848386 
0.000986124 0.00224862 0.0981177 
-0.00691815 0.00459531 0.0757255 
-0.00801071 0.00169798 0.0483193 
-0.00400496 0.00105516 0.0598143 
-0.00124125 0.00205178 0.0496833 
-0.000141311 -0.000415064 -0.00275626 
-0.000115901 -0.00019515 0.00365848 
-0.00097108 -0.00238846 -4.30077e-05 
-0.00348042 0.00259601 0.0207988 
-0.00190111 -0.00129275 0.00137484 
0.000464582 0.000348985 0.00611739 
0.000778202 0.000531095 -0.000188214 
0.00999321 0.0120498 0.0853588 
-0.00273225 -0.00148186 -0.0074982 
-0.0238083 -0.0154466 0.0951141 
-0.0036438 0.00142699 0.0108235 
-0.0503487 -0.0204557 0.100987 
-0.000469727 -0.000948641 0.110309 
0.000883093 -0.000156321 0.124225 
0.00081815 0.00797779 0.121176 
-0.000863777 0.00931262 0.124154 
0.000152119 0.00164112 0.00174162 
-0.00651912 -0.00676511 0.0776391 
-0.0164254 -0.0135027 0.0815064 
-0.00606964 -0.00309841 0.06521 
-0.00641126 0.00451073 0.00337962 
0.00107247 -0.000618722 0.00958213 
0.000343783 -0.000305377 -0.00492542 
-0.000192091 0.0117851 0.116704 
0.0112069 -0.001735 0.140048 
-0.00400574 0.00363418 0.137486 
-0.00436108 -0.00311133 0.131128 
0.00296097 0.00859522 0.140003 
0.000641569 0.00213589 0.00212053 
-0.00354148 -0.0051599 0.0720047 
-0.00227715 -0.00371264 0.0814451 
0.000128303 -0.00371472 0.0693304 
0.00366851 0.000817768 0.0848235 
0.0073765 0.0437055 0.119628 
0.00218671 0.0371052 0.0713419 
-0.000277573 0.0110317 0.089878 
0.00397929 0.0219191 0.312756 
-0.000197451 0.0103247 0.310847 
0.00594247 -0.00444894 0.125972 
0.130579 -0.069281 0.168655 
0.00313254 0.0122307 0.133834 
0.00359573 0.010058 0.113503 
0.0024045 0.00947911 0.120013 
0.00484728 0.0280779 0.114484 
0.00362766 0.00994586 0.101439 
0.00140514 0.0151873 0.113539 
0.00504181 0.0220518 0.135092 
-0.0014064 0.0134929 0.0897273 
0.000301287 4.04299e-05 -0.000291886 
0.000719194 -0.000502944 0.0423967 
0.000463005 -0.000608898 0.00107851 
0.000536943 -0.00259036 0.0693342 
0.0140924 0.0460322 0.187282 
0.033339 0.0184933 0.140467 
0.020712 0.028092 0.125744 
0.0446528 0.0623439 0.186265 
0.00338485 0.00847254 0.0431263 
0.00483334 0.00418297 0.0585269 
0.00499143 0.0167276 0.0873529 
0.00350475 0.00197197 0.095867 
-0.000360304 -0.000693654 0.00364206 
0.00091146 0.00179645 0.000317249 
-0.00099736 -0.00196686 -0.000601204 
0.00725127 0.0149173 0.044413 
0.00229983 0.00723986 0.0996814 
0.000752207 0.00430357 0.0742137 
0.000190796 -0.000528477 0.0803081 
0.00237696 0.0085039 0.11694 
0.00125219 -0.000887364 0.00177024 
-0.013658 0.0077496 0.0209036 
0.00409617 -0.00369411 -0.00892233 
-0.011511 -0.00521865 0.0121044 
0.00416438 -0.00340161 -0.00125346 
0.00261309 -0.000177765 -0.00318261 
-0.005148 0.00842785 0.000827285 
-0.0437212 0.0513513 0.0233881 
-0.00116165 -0.00784383 0.0953463 
-0.000260381 -0.00753974 0.110227 
-0.000967281 -0.000300694 0.101919 
0.000391411 -0.00208598 0.0645858 
0.00325429 0.00271801 0.00156179 
-0.0104925 0.0100826 0.0393049 
0.00290826 9.15466e-05 -0.00266538 
-0.0168085 0.00833965 0.0224239 
-0.00327133 0.00918864 0.00723569 
-0.0536388 -0.0253716 0.124587 
-0.0230445 -0.012966 0.089465 
-0.00354292 -0.00783703 0.0922403 
-0.000433328 0.00296867 -0.00985546 
0.00494999 -0.00798292 0.0744528 
-0.00880728 -0.022316 0.190513 
-0.0251577 -0.00321727 0.171816 
0.000664744 0.000324289 0.0843953 
-0.0083396 -0.00951251 0.107856 
-0.0048513 -0.00467454 0.0658808 
-0.00480364 -0.00356958 0.107438 
0.00552376 -0.0324545 0.131784 
0.012371 -0.0596849 0.18199 
-0.00464493 -0.0276993 0.159927 
-0.0220159 -0.0240352 0.125166 
0.0132859 -0.000115963 0.121471 
0.0127224 0.0168068 0.142273 
0.0317393 0.0257403 0.0970108 
0.0241302 0.0532203 0.0992139 
0.000657781 -0.000357056 -0.00100825 
-0.000953691 0.000426145 -0.000488535 
-0.00093489 0.000541016 0.00214762 
0.00239449 -0.00234835 0.0797745 
-0.00567192 0.0147741 0.119774 
0.00593274 0.0165883 0.137469 
0.00737972 0.0170395 0.135168 
0.00318925 0.0262287 0.126249 
-0.00303102 -0.0120101 0.102874 
-0.00501094 -0.00607051 0.0784756 
-0.000777954 -0.000789459 0.0092256 
0.00208417 -0.00264725 0.0632039 
-0.0792257 -0.00759325 0.194015 
-0.0520089 -0.0576553 0.146814 
-0.0413734 0.0106504 -0.00438427 
-0.0382724 0.00717126 0.294244 
0.00590986 0.0187339 0.0897824 
0.00309121 0.00309996 0.0392969 
0.0212687 0.0345664 0.0511663 
0.0176612 0.0287562 0.0719759 
0.00148774 -0.00967461 0.0157919 
0.000871444 -0.000117598 -0.00365775 
0.0305442 -0.0494653 0.0999905 
-0.0123602 -0.0109613 0.0972797 
-0.00503373 -0.00163002 -0.0035067 
0.0282934 0.00151976 0.115387 
0.00678093 0.000945638 -3.9539e-05 
0.00914231 -0.00968635 0.096658 
0.00319564 -0.0013774 -0.00186336 
-0.0102943 0.0134438 0.0497675 
0.000566092 0.00230096 0.000332618 
-0.0152043 0.0174397 0.0643648 
0.000576373 0.000789986 0.000749844 
0.00122379 0.00169467 -0.00251555 
-0.000882934 -0.00121007 -0.0011696 
0.0152771 0.0196697 0.0680546 
-0.00173561 -0.00846956 0.0985606 
-0.00191391 -0.008138 0.116151 
-0.000172429 0.000340171 0.098245 
0.000206196 -0.00806429 0.111173 
0.00227587 0.000104003 0.00354978 
-0.000265956 -0.0195357 0.0686264 
-0.00014164 -0.00812954 0.0586291 
-0.000610494 -0.0118946 0.0390941 
-0.048755 -0.036384 0 
0.0559356 0.0234581 0 
-0.0616221 -0.0116008 0 
-0.0508128 -0.00745699 0.201753 
0.00897131 0.00331242 0.143088 
-0.0046148 -0.00290659 0.13114 
-0.00527785 0.00572314 0.128841 
0.00388851 0.00647123 0.138715 
-0.00248317 0.00195666 -0.00488746 
0.0168593 0.0266805 0.0222634 
-0.00760143 0.00115541 -0.000649287 
0.00183012 0.0050518 0.00411648 
3.71121e-05 -0.000836579 -0.00199535 
-3.53801e-05 0.000875058 0.00235231 
0.000111395 -0.0017297 -0.00145268 
-0.00446736 0.00785917 0.0112067 
-0.000469659 0.000432398 -0.00320598 
-0.000176815 0.00021039 0.00468188 
0.00120847 -0.00120542 -0.0032337 
-0.0124584 0.0134106 0.0780369 
-0.00136136 -0.00104558 0.0926927 
0.00023319 4.04352e-05 0.11296 
0.000725363 0.000335668 0.124158 
-4.01005e-05 0.00823743 0.119024 
-0.00175405 -0.0144597 0.104375 
0.00467227 -0.00878278 0.0975952 
0.00108361 0.0103259 0.00246963 
-0.00100726 -0.0072021 0.0911885 
-0.00262298 0.0147863 0.0992406 
-0.00193832 0.00612453 0.115055 
-0.00755931 0.0183465 0.117395 
0.00046665 0.0265736 0.129917 
-0.00827847 0.00429755 -0.00309106 
0.0039974 -0.0280421 0.0199554 
-0.00289082 -0.00565024 -0.00113677 
-0.00165491 0.000712459 0.0014782 
0.004751 -0.00472535 0.00861094 
-0.00243304 -0.0280679 0.0805036 
0.00441803 -0.00520484 -0.0123008 
0.00709583 -0.0463963 0.0744894 
-0.00858363 -0.022257 0.118689 
0.00129453 -0.0274114 0.124903 
0.000282931 -0.0143367 0.131459 
-0.00583812 -0.0268803 0.117999 
0.00474649 0.0065904 0.0070476 
-0.00496316 -0.00447198 0.0778919 
-0.00740681 -0.0193349 0.105144 
-0.00574751 -0.0117192 0.081074 
0.00531412 -0.0180973 0.0829687 
-0.0232242 0.00631006 0.089215 
0.0100358 0.00231771 -0.0021736 
-0.0187341 0.0149828 0.0464999 
-0.00371761 0.000841676 -0.00736932 
0.00209287 -0.0247226 0.085038 
0.00142735 -0.00443388 0.00865761 
0.00915228 -0.0163657 0.0848184 
-0.0323433 0.0237381 0.364385 
-0.0206437 -0.04642 0.151612 
-0.0945724 0.00683705 0.198964 
0.0371192 -0.0152771 0.238332 
-0.016242 0.0334773 0.244835 
-0.013095 -0.00226764 0.348224 
-0.0540843 0.018148 0.220644 
-0.0471776 0.0587464 0.276138 
-0.000837237 -5.53078e-05 0.109362 
0.00357524 0.0120289 0.137095 
0.00242534 0.00793159 0.116711 
0.00258318 0.00845864 0.101301 
-0.0156393 0.00165998 0.0952488 
-0.00599478 0.00278926 0.140033 
-0.00115002 -0.00229527 0.132434 
-0.0172319 -0.00570939 0.092225 
-0.0150866 -0.0287021 0.189942 
0.00372572 -0.00755436 0.069082 
0.00381516 0.00604649 -0.0055633 
0.00332144 -0.0307496 0.165415 
0.019569 0.0595982 0.346156 
0.0459994 0.0846518 0.163048 
-0.0150147 0.0527887 0.180684 
-0.0307576 0.0821389 0.105442 
-0.0224964 0.0287877 0.062051 
-0.0139137 0.0145134 0.0682184 
-0.0125194 0.0145881 0.119065 
-0.0083335 0.0411327 0.113306 
-5.42752e-05 -3.78104e-05 0.00105233 
-0.000503046 -0.0011472 -0.00116388 
0.000563859 0.00103809 -0.00209077 
-0.00442407 -0.00211195 0.0359402 
-0.000828392 0.000813792 -0.000374412 
-0.00174147 0.00170776 0.00443112 
0.00123873 -0.00121731 0.00126436 
-0.00532528 0.0102592 0.100648 
-0.00578049 0.0325934 0.134507 
0.00498468 0.0369425 0.126088 
0.0096469 0.0120542 0.118522 
-0.0109173 0.0437247 0.117241 
0.00405371 0.00267236 0.139885 
0.00245663 -0.00717648 0.139521 
0.00256657 -0.00785205 0.127597 
0.00208163 0.00138151 0.137823 
-0.00584336 0.00151975 -0.00172498 
0.00693773 -0.00182535 0.00062294 
-0.00225988 0.000778573 0.0122977 
0.0236691 -0.00449291 0.0888812 
0.0593991 -0.025935 0.00973722 
0.000728797 -0.0644377 -0.0438674 
0.0800632 0.0797836 0.175593 
0.00621138 0.0500016 0.104289 
0.00511886 0.0185885 0.0903609 
0.00266039 0.00721956 0.119607 
0.00372246 0.00963491 0.113678 
0.00446634 0.0304712 0.114564 
0.0647185 0.0167352 0.219549 
0.0928893 -0.0665768 0.0847351 
0.0428392 0.0169876 0.369056 
0.00181075 0.139839 0.178692 
-0.000628426 0.00041929 4.97562e-05 
0.000520235 -0.000405571 0.00125498 
-0.000513286 0.000305024 0.000870743 
0.000522893 -0.00225014 0.0823261 
-0.000144059 -0.00101897 0.121691 
0.00300295 0.00966182 0.111403 
0.000214654 0.000508763 0.108029 
0.00237606 0.00441743 0.0972887 
4.30309e-05 0.000241964 0.125885 
-0.00174741 -0.00855547 0.116309 
-0.00165619 -0.0123011 0.133286 
-0.000993866 -0.00833676 0.110411 
0.00111936 -2.22577e-05 0.143819 
-0.000342427 -0.000232602 0.127171 
0.000110023 0.000322548 0.124821 
-0.000141228 0.00786223 0.118505 
0.000121937 0.000587431 0.0465569 
-0.00360625 6.70927e-05 0.0606795 
0.00114634 0.000500509 0.00133055 
-0.00188984 0.000830131 0.0493218 
6.66516e-05 0.000331919 -0.00172599 
0.00374487 0.00952226 0.0785284 
0.00249332 0.00124348 0.00518961 
0.0120938 0.0148689 0.0734684 
-0.000118407 -0.00111713 0.082628 
0.00291559 -1.81102e-05 0.0542865 
-0.000876301 -0.00646688 0.0682464 
-0.00139477 -0.00492826 0.100456 
0.000107162 0.000131552 0.0935195 
-0.00212793 -0.0105142 0.127101 
-0.00182951 -0.00622558 0.0820111 
-0.00132121 -0.00728589 0.108695 
-0.0154245 -0.0271491 0.162826 
-0.0563235 -0.0228371 0.137254 
-0.0211554 -0.0131358 0.0814743 
-0.00710452 -0.0395119 0.124452 
-0.0196185 0.0145023 0.171874 
0.00550628 0.00625729 0.135067 
0.0215991 0.00717714 0.174869 
-0.0282062 -0.00196418 0.123282 
-0.00132542 0.00321347 0.00174048 
-0.000499358 0.00112448 0.00408302 
0.000600528 -0.00136429 -0.0044337 
-0.00831235 0.0139904 0.016414 
0.00604602 0.0247924 0.12764 
0.0084869 0.0220442 0.129802 
0.00393457 0.0151367 0.135381 
0.00569732 0.0266079 0.131111 
0.000835333 -0.00851721 0.0693678 
0.00141299 0.00596036 0.0916398 
-0.000770112 -0.0101703 0.107828 
0.00133109 0.00407908 0.0951689 
0.00333786 0.0130553 0.134232 
0.00682615 0.0251764 0.126017 
0.00619247 0.013811 0.133656 
-0.000242276 0.00575796 0.125103 
-0.0192105 -0.0186166 0.0925469 
-0.0556485 -0.0189373 0.115176 
-0.0306747 -0.0320407 0.0665292 
-0.0145993 -0.0291776 0.129972 
9.69183e-05 -3.4464e-05 0.115125 
-0.000169887 -5.25765e-05 0.0872714 
-0.00365253 -0.0032675 0.105969 
-0.00417068 -0.00505253 0.12929 
0.0085054 -0.0212237 0.126855 
0.0234155 -0.0187177 0.061197 
0.0207075 -0.00855512 0.126841 
0.0199048 -0.000373849 0.115912 
0.00387006 0.00213461 -0.0150406 
0.0122855 0.0204954 0.0281706 
-0.00821173 0.00721239 -0.0229661 
0.065033 -0.0252425 0.0877212 
1.86523e-05 -0.000431657 0.12613 
0.00258884 0.0092615 0.116329 
0.00214069 0.0112963 0.135241 
0.00243494 0.00894893 0.123305 
-0.00860601 0.00255209 -0.00893145 
0.0354503 0.0907167 0.102439 
-0.00850825 0.042238 0.0803248 
0.00645485 0.010882 0.00165513 
0.000577714 0.00227225 0.000120191 
0.000103062 0.000253839 0.00316309 
0.000269929 0.00122525 -0.0033354 
-0.0049147 -0.00101904 0.0106138 
0.000142221 9.37321e-05 7.7214e-05 
9.9414e-05 9.85838e-05 0.0477141 
0.000250016 -0.000365035 0.00122102 
-0.000418566 -0.00154395 0.0823945 
0.00519349 -0.00456652 0.0608139 
-0.00723792 -0.0164853 0.0293978 
0.00281956 0.0256934 0.0630849 
0.00247112 0.0107008 0.0915674 
0.00311404 0.00118458 0.00139086 
0.00577573 0.00176582 0.00729508 
-0.00253857 -0.00882466 0.104473 
-0.00215943 -0.00510496 0.0766398 
-7.48252e-05 0.000202861 0.0385676 
0.000127587 -0.000190347 0.0501887 
0.000373145 -0.000428311 0.000676281 
-0.00475101 -0.00240136 0.0691088 
-0.0142207 0.0222866 0.356643 
0.0844648 0.11438 0.155005 
-0.00828434 -0.00920556 0.391678 
-0.0547224 0.00620758 0.274854 
0.0947188 0.0219298 0.254911 
0.0600654 -0.00507355 0.000575455 
0.0447053 -0.00898107 0.386563 
-0.0296117 0.00077258 0.156524 
0.000415338 0.000596695 0.044779 
-0.000275923 1.98261e-05 -8.99498e-05 
-0.000127776 0.00226936 0.00224428 
-0.00188787 0.000714641 0.0585888 
1.92906e-05 0.000192658 0.0591748 
-0.00175502 -0.00324823 0.0823347 
0.000862867 -1.32087e-05 0.00323839 
0.000801385 -0.00241137 0.0631717 
-0.00132974 0.000696005 0 
-0.0026622 -0.00235762 0 
0.00190069 0.00857662 0 
-0.00895519 -0.0176725 0.0119823 
0.00679633 0.00414517 0.140139 
-0.000254774 -0.00967366 0.127558 
0.00785174 -0.000720826 0.122998 
0.00206135 0.00152178 0.137712 
0.00215255 0.00772223 -0.00100302 
-0.00963861 -0.0154174 0.014764 
-0.00146333 -0.0070688 -0.0041617 
-0.00555341 0.00913384 0.0140393 
-0.0596541 -0.0171224 0.0135511 
-0.0396804 0.0466931 0.171117 
0.0201626 -0.0396302 -0.0409302 
-0.00402313 0.039054 0.1076 
-0.00314698 -0.0156081 0.120521 
-0.00229168 -0.00398901 0.0777285 
0.00047431 -0.00559912 0.0746237 
-0.00621438 -0.00442817 0.0786526 
-0.0125765 0.0023953 0.0972603 
-0.00326343 -0.00210374 0.130673 
-0.00327931 -0.00389201 0.106374 
-0.0159158 -0.00655312 0.0937098 
0.000804177 0.00302653 -0.000133633 
-0.00054666 -0.00187495 -0.00411909 
0.00010051 0.000272769 0.00241826 
0.00286596 0.00450846 0.0359354 
-0.00655062 0.0103846 -0.010126 
0.0366995 -0.0126144 0.0361296 
-0.0121029 0.00758775 -0.0132064 
-0.00354893 -0.0277893 0.0177455 
-0.00707885 -0.0221924 0.1173 
0.00202741 -0.0130404 0.130117 
-0.00319543 -0.0131082 0.121499 
-0.00934345 -0.0256338 0.12154 
-0.000410863 -0.000212857 0.0860284 
0.000321443 9.66808e-05 0.0756099 
-0.00447395 0.00177628 0.106603 
-0.00202895 0.00195736 0.0503297 
0.000478244 0.00158128 0.0032902 
0.00126024 0.000469312 -0.000468516 
-0.00346767 -0.00220112 0.0603363 
-0.00377218 -0.0020099 0.0406992 
-0.000151812 0.000404696 0.00100755 
-0.00279227 -0.00447878 0.074757 
0.000186582 0.00256526 0.000313797 
0.000532243 -0.00450813 0.0710006 
0.00052525 -0.00215608 -0.00849362 
0.00200196 -0.00750246 0.00952228 
-0.000585976 0.00220426 -0.00230206 
0.0036479 -0.0297038 0.0756835 
0.00623875 -0.0190916 -0.0372192 
-0.0344015 0.0140118 0.0388638 
0.00134077 -0.0333998 -0.0301981 
-0.0881629 0.0383375 0.15323 
0.00189984 -0.00130427 -0.00111097 
-0.00166181 0.00113813 0.00673486 
0.00372169 -0.00255481 -0.00257403 
-0.0110084 0.0111909 0.111 
-0.0172373 0.0171069 0.384511 
-0.026277 -0.0445848 0.176738 
0.0107583 -0.0218479 0.400155 
-0.116203 0.0171989 0.125802 
-0.000817594 0.000596814 0.00113059 
-0.000352253 0.00216207 0.00173657 
0.000275872 -0.00518073 0.0817739 
0.00153548 -0.00358417 0.0760587 
0.000732087 -0.0039006 0.0672168 
0.00407421 0.00582543 0.0569913 
0.00322575 0.00809315 0.0440898 
0.0026189 0.00248391 0.0965702 
0.00017247 0.000278181 0.000129259 
0.00245774 -0.00438536 0.105811 
0.00157953 -0.00348114 0.0065926 
0.000690035 0.000175332 0.0624619 
0.00251118 -0.0122362 0 
-0.00221957 -0.000605529 0 
-0.00746926 0.0089039 0 
0.0328359 0.0304625 0.030289 
0.00205241 -0.00137768 -0.0020435 
-0.00333562 -0.00135957 0.00198919 
-0.00373 -0.00467809 -0.000225109 
-0.0096058 -0.00881681 0.00508573 
-0.000436265 -0.018821 0.0367695 
0.00433312 0.011173 0.040693 
-9.10251e-05 -0.00465074 0.0675799 
-0.000606643 -0.0115926 0.0346064 
3.27255e-05 -0.000160929 0.03105 
-0.0004567 -1.15358e-06 0.000252213 
-0.000139223 -0.000326977 0.0372481 
0.00278318 0.00352251 0.0579535 
-0.00281016 -0.015665 -0.0124561 
-0.00288114 -0.00577667 -0.0356768 
0.0149063 -0.0579349 0.109333 
0.0835082 -0.0628188 0.14489 
0.000677222 0.00409139 0.00801032 
0.00573687 -0.0088225 0.0889191 
-0.00197454 -0.0109855 0.104935 
0.00216768 -0.00606665 0.0757447 
0.0431133 -0.0569278 0.0792615 
0.0273204 0.0388841 -0.0607174 
-0.00353328 -0.0655791 0.0681844 
0.0739631 -0.00327516 0.191346 
0.000126727 -0.00166666 -0.00189871 
-5.32291e-05 -0.000163398 -0.0052161 
-6.92503e-06 0.000382969 0.0021367 
-0.00663075 0.0083645 0.0445137 
0.000147312 -0.000443727 0.0301993 
-0.000395305 0.000683682 0.0466677 
0.000298676 0.000632644 -0.000359666 
0.00358627 0.00336373 0.0610415 
0.036688 0.0220173 0.0764689 
0.0186106 0.00230209 0.155031 
0.0188334 -0.014144 0.15944 
0.0138331 0.0150096 0.129331 
-0.0351486 0.0270938 0.387079 
0.0434088 -0.0184977 0.21909 
-0.106837 0.00867285 0.203809 
-0.00295887 0.044012 0.155296 
0.00156262 0.00359259 -0.00168745 
0.0154559 -0.00867059 0.128391 
-0.00288372 0.00512277 0.0105754 
0.0113145 -0.00963298 0.107253 
0.000360505 -0.000243876 0.00207871 
-0.0015641 0.000728171 0.000447581 
-0.00041919 0.000232418 -0.000949232 
0.00255882 -0.00372889 0.0798008 
-6.71716e-05 -0.000153787 0.0744133 
0.000975385 -0.00375376 0.067026 
0.00243068 0.00139574 0.0971695 
0.00123888 -0.000127653 0.0466585 
0.000147668 0.000195227 0.125554 
0.000991364 -0.000228055 0.111635 
0.00204419 0.0108586 0.135783 
0.00250896 0.00879993 0.116421 
-0.000507927 0.000720878 -0.00201344 
0.000851848 -0.00120995 0.00200378 
0.000156937 -0.000220976 0.0031354 
-0.000782747 -0.0049686 0.0708802 
-0.00726184 -0.0484108 0.155234 
0.00812787 -0.0526596 0.103305 
-0.000659093 -0.0226206 0.0716918 
-0.00335997 -0.0103 0.0891933 
-0.0300552 -0.0381413 0.156744 
-0.00488041 -0.048378 0.0967763 
-0.0264148 -0.0508245 0.129287 
-0.0208165 -0.0188376 0.125128 
-0.000414686 -0.000111479 0.126483 
-3.96795e-05 -0.000336281 0.11238 
0.000123434 -0.000164174 0.128959 
0.00363448 0.0112357 0.13419 
0.00140784 -0.000157118 -0.00140721 
-0.00672491 -0.00311067 0.0674173 
0.00109701 -0.000517826 0.0019647 
-0.0104866 -0.00498221 0.0498699 
-6.42493e-06 -0.000126546 -0.00182949 
-0.000248762 -0.000851675 0.00158337 
0.000186519 0.000746737 0.000747772 
0.00273878 0.00386489 0.045968 
0.0418497 0.0107488 -0.0446351 
0.00301179 -0.0402298 0.0118702 
0.0174574 -0.0351422 0.140794 
0.00957063 0.142953 0.119974 
0.017105 -0.018503 0.118901 
-0.00801566 0.0556909 0.0727917 
-0.10532 0.013877 0.123962 
-0.0869143 0.0148588 0.221136 
-0.00908483 0.00762348 0.352157 
-0.0249215 0.0280059 0.199496 
0.00926264 0.00126761 0.336662 
-0.110423 0.0369321 0.322507 
-0.0016874 -0.0217721 0.0748697 
-0.00425293 -0.0175949 0.0998997 
0.0020631 -0.00613721 0.0591499 
-0.00261159 -0.0093824 0.0977732 
-0.0301731 -0.0111092 0.076654 
-0.0155753 -0.00502766 0.0942106 
-0.0107166 -0.0063679 0.0438943 
-0.0256793 -0.0200072 0.0414846 
0.00389281 0.0100759 0.00722932 
-0.000610195 -0.0396643 0.0865018 
0.000733727 -0.00152471 0.000610403 
0.00882151 -0.0197412 0.085161 
0.016451 0.0212774 0.00437705 
-0.00896039 -0.0124388 -0.00929581 
0.0237106 0.0409082 0.0452305 
0.000413679 0.0226562 0.0225873 
0.000318336 0.000549469 0.00254007 
-0.00276276 -0.00330512 0.082278 
0.00112352 0.000609131 0.000294051 
-0.00397228 -0.00333221 0.0740498 
-0.000201611 -1.32338e-05 0.00181613 
0.00239718 0.000202945 -0.000159758 
-0.00246082 -0.000205752 0.0013777 
-0.00161809 0.00463075 0.0883073 
0.000335794 -0.000233212 0.0937149 
-0.00032086 0.000163227 0.121593 
0.000557817 0.000902869 0.107428 
0.00172836 0.00284536 0.0986687 
0.00240703 0.0203572 0.116088 
0.00518738 0.00981951 0.112627 
0.00184722 0.0122209 0.132267 
0.00316198 0.0289501 0.122373 
-0.000350709 -0.000206763 0.0656243 
0.0028674 0.00312223 0.0976069 
0.00321703 0.00485427 0.0565203 
0.000724592 -5.02044e-05 0.0466833 
0.00446175 0.000117396 -0.00350032 
-0.0276092 -0.0134668 0.0789119 
-0.000873557 -0.000922894 -0.00409802 
-0.0228999 -0.0123257 0.0486075 
0.00743029 0.0378584 0.0581309 
0.00165398 0.00396742 0.0965606 
-0.0127594 -0.0223424 0.0261151 
-7.50145e-05 0.0147909 0.020709 
-0.000675523 -0.0111548 0.128698 
-0.00322967 -0.0125176 0.123107 
0.000846658 -0.0126127 0.130591 
-0.00767953 -0.0273037 0.117929 
-0.00785164 0.0167377 0.363619 
-0.140332 -0.0444014 0.0972406 
-0.0290443 0.0372315 0.194237 
0.0441242 0.0228026 0.214398 
0.0276975 0.01407 0.171393 
0.0274244 0.0022912 0.15641 
0.020569 0.0011304 0.066121 
0.0515282 -0.0407741 0.109079 
-0.000671644 -0.000659657 0.000652992 
0.000592058 0.00058203 -0.00053123 
-0.00122308 -0.00121719 -0.000125109 
0.00845704 0.00850656 0.0795393 
-0.0018052 -0.00178664 -0.00318341 
-0.000765474 -0.000730405 0.00230335 
0.00123822 0.00119873 -0.00141024 
0.0165588 0.0176859 0.0774 
-0.000446689 -0.00306513 0.00362682 
-0.00500149 0.00969908 0.0755151 
-0.000154122 0.00010213 -0.00133188 
-0.00750438 0.0150292 0.0672276 
-0.0281158 -0.020046 0.0853167 
-0.0220475 -0.0202771 0.0845405 
-0.0145335 -0.00587799 0.0915585 
-0.028157 -0.013733 0.0396486 
-0.000828899 -0.000524458 0.00194728 
0.000223663 0.000223881 0.0479566 
0.000323358 -0.000553412 0.0528168 
-0.000360326 -0.00232435 0.0799488 
0.000530025 -0.000500291 -0.00156344 
0.00303403 0.00549255 0.0571951 
0.00415665 0.00677854 0.0493366 
0.00122169 -0.000441161 0.0456463 
-0.00734722 -0.0418262 0.11286 
0.00541477 -0.026972 0.125912 
-0.00655378 -0.0210287 0.119322 
-0.00913932 -0.0293297 0.116908 
-0.000529829 -0.000882532 0.128054 
-9.031e-05 0.000503703 0.10525 
-0.000306397 6.47436e-05 0.102338 
-0.00078533 -0.00686585 0.108791 
-0.0431653 -0.0435359 0.0399932 
-0.0667934 -0.074022 0.117701 
0.00218375 -0.044572 0.059244 
-0.0219101 -0.0201559 0.0181519 
-0.00170685 -0.0122525 0.133823 
-0.00205999 -0.00835277 0.114885 
0.000671132 -0.000196654 0.127221 
-0.00333058 -0.00597723 0.127287 
-0.00850401 0.0490802 0.119187 
0.00543629 0.0237259 0.131536 
0.00702292 0.0256815 0.119457 
0.00388632 0.0309693 0.12204 
-0.00236089 -0.0020753 0.128234 
0.000244824 -0.00446502 0.140979 
1.55253e-05 0.000402451 0.133023 
-0.00287278 -0.00606844 0.128623 
-0.0452533 -0.0142178 0.115939 
-0.0605595 -0.0151925 0.343296 
-0.021777 0.0121163 -0.0319427 
-0.0364201 0.12559 0.0723806 
0.0720117 -0.00465031 0.354464 
0.0330103 -0.0061809 0.052516 
0.097573 0.0210568 0.24317 
-0.0307076 -0.112927 0.198062 
-0.00116711 -0.000811206 0.00258532 
8.65267e-06 1.16383e-05 -0.00111667 
0.00189672 0.00128511 0.00227987 
-0.0203676 -0.0143635 0.0787854 
0.00412687 0.0136889 0.134469 
0.00167496 0.00816469 0.116683 
0.00461409 0.0241082 0.12862 
0.00211697 0.00720021 0.123725 
0.00372145 -0.0206982 0.116247 
0.016301 -0.00251836 0.123135 
-0.00194805 0.00963946 0.148962 
0.022972 -0.0039482 0.119177 
0.00125557 -0.00045596 0.134091 
-0.00461907 -0.00119322 0.129804 
-0.000181852 0.00019349 0.107904 
-0.00437205 0.00104248 0.105326 
-0.0112359 -0.00601739 0.0436471 
-0.0115294 -0.0055926 0.0945465 
-0.0244692 -0.0167656 0.0805254 
-0.0290914 -0.019429 0.0411266 
-0.00922947 -0.00414244 0.00207236 
0.00407866 -7.87403e-05 -0.00364018 
-0.00330749 -0.00201704 0.00237541 
-0.0145675 -0.0128371 0.0128514 
0.000102613 -0.000598423 0.0802933 
-0.000668968 -0.00335849 0.0497702 
0.0040936 0.00921197 0.0743634 
0.00372351 0.00751676 0.100526 
0.00099592 0.0207211 0.111521 
0.0131393 0.0166943 0.13725 
0.027634 0.0265409 0.0987104 
0.0239363 0.00724386 0.10344 
0.00026908 -0.000123618 0.107002 
-0.000282815 6.51145e-05 0.0751659 
-0.00432035 0.0010325 0.105189 
-0.00411655 -0.00210299 0.106152 
0.00232616 0.0274792 0.134693 
0.00129272 0.0075679 0.0900452 
0.00196002 0.0151104 0.113773 
-0.00373534 0.0266311 0.126274 
0.00130804 0.017278 0.0836236 
0.00501866 0.0308932 0.118599 
0.00732449 0.0192576 0.0918701 
0.0138802 0.0378306 0.100505 
-0.0200515 0.0124297 0.0312835 
-0.0244543 0.0136493 0.0529173 
0.016087 0.000352749 -0.0314351 
-0.0412469 0.0274743 0.0583416 
-0.00189225 0.00250821 0.0554852 
-0.00307326 0.00181709 0.0501319 
-0.00567125 0.00521225 0.0763309 
-0.00340334 0.00456652 0.100361 
0.00179583 -0.000521802 0 
-0.00214917 0.0026457 0 
0.00358043 -0.00625486 0 
-0.0140636 0.010809 0.0113233 
0.00236824 -0.000264272 -0.00265934 
0.00296859 5.32521e-05 0.00132012 
-0.0104338 0.00340871 0.0371503 
-0.00962883 0.00472963 0.0156494 
0.000850947 0.00340268 0.00145525 
0.00709541 0.00710332 0.0481258 
0.000235567 0.000735553 -0.00213625 
0.00217078 0.00640001 0.0562341 
-0.00241391 -0.0240425 0.0262057 
0.00277612 0.0151941 0.0238821 
0.0179796 0.0376587 0.0365048 
0.00120518 -0.00228417 0.000664611 
0.0373103 -0.0437636 0.168633 
0.00529059 -0.0446335 0.167446 
-0.00109069 0.00264595 0.317293 
0.116909 -0.00577984 0.0748457 
-0.0120528 -0.0321531 0.0905588 
0.00197807 0.00859384 0.0848252 
-0.0140439 -0.0246778 0.0439989 
0.00466454 0.0129532 0.0868834 
-0.000982038 -0.000304673 0.00213441 
8.44867e-05 0.000217722 0.0469309 
-0.00500136 -0.00411964 0.0757453 
-0.00380745 -0.00353869 0.066024 
-0.0934959 -0.0103482 0.0131747 
-0.0928891 0.0193126 0.147114 
0.019598 -0.00832009 -0.0406737 
-0.010631 0.0404579 0.0946129 
-0.000191935 -0.000223876 0.0499271 
0.000291011 -0.000633838 0.00124531 
-0.00457396 -0.00201121 0.0697737 
-0.00439916 -0.00275219 0.063465 
0.00579854 0.026838 0.117757 
0.0214072 0.0184888 0.0906402 
0.00608835 0.0295267 0.0463512 
0.0229183 0.00262166 0.102547 
5.15133e-05 0.000704215 0.0008322 
-3.29838e-05 1.89183e-05 0.00215847 
-1.73633e-05 -0.000278491 -0.000516082 
-0.00287925 0.00153106 0.0453586 
0.000260013 0.000198448 0.0597853 
-0.000502616 -0.00628287 0.110969 
-0.00176538 -0.00379279 0.0797286 
0.000899656 -0.00212719 0.0647567 
0.0299051 0.0319281 0.0503205 
0.0267357 0.0722703 0.10662 
-0.00429108 0.0490483 0.0793089 
0.0188643 0.0427078 0.115319 
-0.000800229 0.0010102 -0.0175455 
-0.020256 0.00658576 0.0355569 
0.0082431 0.00676208 -0.0113742 
-0.0365133 0.0230902 0.0465576 
-4.48871e-05 -0.000232566 0.00181037 
5.66935e-05 0.000231832 -0.00141149 
6.32429e-05 0.000109737 0.000529892 
-0.00200985 -0.000759876 0.0622 
0.000542703 -0.00081629 0.00139517 
-0.000261069 0.000390145 -0.000527711 
-0.000707139 0.000981179 0.00284762 
-0.00418322 0.00637624 0.0762384 
-0.000659475 0.00121083 -0.00195133 
-0.000563691 0.00126066 0.00181263 
0.000496777 -0.00105008 -0.000657877 
-0.00448675 0.00874329 0.0713032 
-0.000601288 -0.00366763 -0.000931734 
-0.000118392 0.000540521 -0.0012884 
-0.00318098 -0.00154691 -5.56044e-05 
-0.000385049 -0.00363515 0.00528838 
-0.012741 0.00211937 0.090007 
0.000241751 -0.000603262 0.138957 
-0.0288998 0.0204674 0.138783 
-0.0172365 0.00699501 0.126979 
0.0179279 0.0183124 0.379462 
-0.022939 0.0818955 0.179909 
-0.0201214 0.00419176 0.351434 
-0.016787 0.122323 0.0420892 
-0.000819536 -0.000133126 0.0609301 
-8.45348e-05 0.000422684 0.047865 
0.000978426 -0.00174428 0.00341243 
-0.000830284 -0.00201569 0.0801951 
-0.000394143 -0.000488079 0.0841396 
0.000381946 0.000247528 0.0442562 
7.50969e-05 0.000708058 0.0496258 
-0.00402665 -0.00488403 0.0709301 
-0.0044358 0.00105601 -0.00959632 
0.00794317 -0.0112329 0.005122 
-0.00186741 -0.00355887 0.00375293 
0.0284157 -0.0561989 0.0509998 
-9.26474e-05 0.000185003 0.086275 
0.000137682 -0.000297572 0.0744479 
-0.00400743 0.000790194 0.0603191 
-0.00475283 0.00130088 0.105902 
-9.81059e-05 -0.000257445 0.126932 
-0.000208787 0.000673142 0.12738 
0.000433983 0.000325253 0.139541 
-0.00158104 -0.0128965 0.129164 
-7.49925e-05 -0.000208206 0.0761067 
5.92724e-05 0.000422193 0.102062 
-0.00378301 0.00196048 0.10623 
-0.00380744 0.00448849 0.100106 
0.000915496 2.74744e-05 0.141931 
-0.000437394 -0.000236625 0.122408 
0.000311492 0.000757493 0.127085 
-0.00251752 0.00431846 0.12541 
0.00269017 0.00946561 0.101527 
0.00328807 0.0020927 0.0726455 
0.00103967 0.0161043 0.114494 
0.000716241 0.00978088 0.0855288 
-0.00070825 0.00156964 0.0549876 
0.000505688 0.000155954 0.000786458 
0.000603484 -0.0016678 0.000737244 
-0.00261469 0.00369171 0.0749679 
-0.000314521 -0.00075066 0.0787664 
0.00516759 0.00953108 0.0775513 
0.00340467 0.0116607 0.115941 
0.00253491 0.00752085 0.100644 
0.000378129 0.0143123 -0.0161511 
-0.00907314 -9.20971e-05 0.0146442 
0.0565016 -0.0239147 0.0607837 
0.0340624 0.00194879 0.100297 
-0.000276328 0.000712412 -0.00179167 
-0.00157719 0.00313289 0.00250833 
0.000430094 -0.00094753 0.000587679 
-0.0063079 0.0132319 0.0464603 
0.00215893 0.0170119 0.116258 
-0.00124135 0.00734025 0.0837697 
0.00275759 0.00421827 0.0678382 
-0.0026508 0.00732387 0.0869483 
0.00129278 0.0436812 0.385874 
-0.063872 0.00972391 0.219361 
-0.0038159 0.0625981 0.186051 
0.0669629 0.0396637 -0.012209 
-0.0060718 -0.0182834 0 
-0.00653674 0.00467207 0 
-0.0104353 0.00580743 0 
0.000428951 -0.0264095 0.0241132 
0.0163387 0.00973448 0.394009 
0.0125547 0.0955323 0.194025 
0.0205748 -0.0478951 0.370012 
0.00238821 -0.140403 0.235488 
0.0148702 -0.0133509 0 
0.00840809 0.00680806 0 
-0.00127939 0.00325188 0 
-0.0613424 0.0705709 0.0193189 
0.00105345 0.000286813 0.00102109 
0.00115384 -0.000510032 0.00294084 
-0.00181512 -0.00317094 0.0813632 
-0.00113601 -0.00149302 0.068515 
-0.000737815 -0.000532672 0.104363 
0.000133078 -0.000245165 0.0762143 
-0.000378244 0.000613951 0.0576155 
-0.000390605 -0.00201403 0.0623385 
0.00526438 0.026303 0.119404 
0.00422689 0.0250087 0.131288 
0.00365031 0.0119074 0.131001 
0.00144879 0.0300559 0.122406 
-0.090131 0.0182267 0 
0.03671 0.00700024 0 
0.0409657 0.0156275 0 
-0.0967083 -0.0535571 0.109204 
-0.00446908 -0.00682801 -0.0230358 
0.0042267 0.0251018 0.0399115 
0.0192826 0.0331302 0.0917726 
0.0462844 -0.017875 0.071751 
-0.000627831 -0.00227495 0.0684898 
0.00122897 0.00415534 0.0758704 
0.00214715 0.00847639 0.0997788 
0.00266562 0.0100036 0.124741 
-0.000626502 0.000719253 0.0467587 
0.000857111 0.00122913 0.000860208 
0.00101645 0.000720065 -0.000897846 
0.00291581 0.00254308 0.0624984 
0.00351721 -0.00403186 0.014275 
-0.0547589 0.030391 0.0544987 
-0.00409785 -0.0175987 -0.0216284 
-0.0503513 0.00933404 0.122599 
0.00108199 -0.000419047 0.00280863 
-0.00487546 0.000801941 0.0582955 
0.0010855 -0.000107553 -0.00308128 
-0.00562097 0.00199147 0.047034 
0.000454504 0.000709146 0.00177698 
-0.000172738 -0.000847134 -0.00041689 
-0.00537328 -0.00301454 0.0695476 
-0.00456794 -0.00386085 0.0630347 
-0.00118925 -0.0108391 0.105942 
0.00141398 0.00664497 0.0921208 
0.00127163 0.00650202 0.118989 
0.0021234 0.00289601 0.097027 
-0.000401596 9.93046e-05 0.104486 
-0.000341403 -0.000959987 0.0770434 
0.000549461 0.000135797 0.0920465 
-0.00208527 0.00767459 0.119077 
0.00518035 0.0150218 0.139993 
-0.0029576 0.00753183 0.118107 
-0.00321261 0.0140999 0.0995706 
0.00204239 0.0251019 0.125872 
-0.0161271 -0.0392529 0.0924895 
-0.0371809 -0.0497018 0.12099 
-0.0097821 -0.0281176 0.110463 
-0.0153202 -0.0316623 0.132696 
-0.0084003 0.00183836 0.00262086 
-0.0487726 -0.0259102 0.0852494 
-0.00423356 0.0052085 -0.0181591 
-0.0233956 -0.0166834 0.0455837 
-0.00114911 -0.00386417 0.07961 
-0.00096687 -0.00888976 0.110831 
0.00101151 -0.00555051 0.0743385 
-0.000751749 -0.00157267 0.0651055 
0.000552218 0.00114479 0.00250208 
0.00104541 0.00256903 -0.00122475 
-0.00148322 -0.003441 -0.00128784 
0.00255505 0.00908111 0.00723229 
-0.00015319 0.000221591 0.0914713 
-0.00497704 -0.00469341 0.0660817 
-0.00536169 -0.00318536 0.0676281 
-0.00466217 -0.00238975 0.106968 
-0.0786896 0.0557335 0.141834 
-0.0559995 -0.007078 0.0507924 
-0.00806638 0.0684807 0.148897 
-0.052615 0.0789492 0.251439 
0.0223686 0.0349842 0.0485157 
0.0060465 0.0180209 0.0896839 
0.0186635 0.0234928 0.0712639 
0.0174888 0.0433032 0.112279 
0.0129164 -0.00479465 -0.0251421 
-0.00493222 0.00227575 -0.0131123 
0.0158153 -0.00716904 0.0354994 
0.0578686 -0.00784351 0.164347 
0.0162117 0.0184406 -0.0712227 
0.0342045 -0.0798447 0.0889531 
0.04543 -0.0277709 0.0494218 
0.0384648 -0.0794992 0.239551 
-0.000306615 -0.000569265 0.0845213 
-0.00463973 -0.00485112 0.0732534 
0.000153122 0.000807524 0.0483633 
-0.00378765 -0.00360236 0.0658258 
0.0450813 -0.00717398 -0.014325 
-0.0852549 0.0192091 0.142868 
0.0217436 -0.0234718 0.0721854 
-0.0178808 0.014224 0.0498981 
-0.000325501 -6.55069e-05 0.0820572 
0.000477036 0.00074597 0.112453 
-0.00043072 -0.000369127 0.0708404 
0.00208449 0.00677772 0.0929844 
-0.00150206 -0.0135026 0.131488 
-0.00271993 -0.0119773 0.122188 
-0.000448513 0.000181615 0.124665 
-0.000847165 -0.00894352 0.112248 
-0.000280264 -0.00090405 0.132938 
0.000530283 0.000923439 0.121074 
-0.00379661 -0.000927793 0.130001 
-0.00337434 0.00131761 0.106338 
-0.000240746 0.00474016 0.0843414 
0.0023162 0.00738341 0.0864856 
-0.0100838 -0.0238376 0.0906131 
0.000637448 -0.00826287 0.108376 
-0.0804383 -0.000719689 0 
0.0475131 -0.0160173 0 
0.041903 -0.023531 0 
-0.133037 0.0299495 0.107314 
-0.0345428 0.0349879 -0.0292526 
0.0355145 -0.0179179 -0.0117013 
-0.0337888 -0.0299185 0.319998 
-0.0166866 -0.0143789 0.0893644 
-5.86134e-07 0.00017883 0.0459477 
5.1446e-05 0.000142132 0.0461304 
0.000530834 -0.000218748 0.000529561 
-0.00170349 0.00168677 0.0501536 
-0.000246686 -0.000201397 0.000627884 
0.000260406 -0.000514141 0.000377834 
-0.000198208 -0.000193937 0.0500382 
-0.0044512 -0.00201641 0.0703589 
0.00755088 0.00238074 0.00218484 
0.00523884 -0.00351264 0.102229 
0.00316868 -0.00403912 0.0162666 
-0.011263 -0.00848527 0.0969422 
-0.000190972 2.17074e-05 0.115566 
0.000372417 1.45558e-05 0.114163 
-0.000296724 0.000370148 0.0872164 
-0.00391628 -0.00529289 0.129021 
0.00277944 0.000214992 9.91543e-05 
-0.00849671 0.00215675 0.044846 
-0.00332434 0.000449448 0.0582893 
-0.00465773 -0.000903952 0.0389148 
-0.0191027 -0.00947742 -0.0169442 
0.0281205 -0.00364282 0.0550968 
-0.0189795 -0.0126752 -0.0652662 
0.0959896 -0.0537588 0.175007 
0.00248005 -0.0050106 0.326278 
0.00713689 -0.0104049 0.303152 
-0.0541636 0.0190626 -0.0387931 
-0.0289782 -0.0145641 0.107934 
0.00185478 0.0154016 0.113383 
0.0033348 0.00998351 0.101436 
0.00449145 0.0219289 0.135201 
0.00243694 0.00885158 0.11496 
-0.00035736 -0.000364219 0.0716226 
-0.000141851 3.0477e-05 0.0933687 
2.15838e-05 -8.13938e-05 0.0643363 
0.00314448 0.00230915 0.0994135 
-0.0430261 -0.040607 0.123549 
-0.0706655 -0.0457719 0.171454 
-0.0302749 -0.0477174 0.0684989 
-0.00869588 -0.054529 0.0306428 
-0.0137245 0.000875123 0.093964 
-0.00265809 -0.00312091 0.108365 
-0.00615137 -0.00288848 0.0687818 
-0.0162565 -0.00684343 0.0920816 
0.0032482 0.00099362 0 
0.00259617 -0.00140247 0 
0.000204211 -0.000389118 0 
-0.0131465 -0.0114923 0.0010233 
0.000511559 -0.00018847 0.000386547 
0.000311627 7.6709e-05 0.000749452 
-4.88501e-05 0.000209502 0.0454128 
-0.00313678 0.000616208 0.0621004 
0.0752722 0.00708641 0.153007 
0.0552063 0.0477867 0.149149 
0.0367869 -0.000709585 -0.0290725 
0.0199454 0.0058162 0.279442 
-0.000262813 6.45951e-05 0.0016209 
0.000230978 -9.57943e-05 -4.35193e-05 
0.000142617 -7.18691e-05 0.000423321 
-0.000520745 -0.00141752 0.0824392 
0.0107858 -0.0485325 0.209894 
0.0193952 0.0172228 0.410922 
0.058644 -0.0388979 0.151419 
0.00772107 -0.125783 -0.0448982 
-0.00472368 -0.000597641 0.13109 
-0.00406131 0.000956233 0.104964 
-0.0108573 0.000933878 0.0971449 
-0.00480785 -0.00326296 0.105667 
0.000552147 0.00112364 0.00109173 
0.000308904 0.000667823 -0.000324682 
-0.000198741 -8.48891e-05 0.0310045 
0.00024135 0.00068662 0.0460376 
5.85641e-05 0.00081405 -0.00148062 
0.000961218 -0.0202326 0.0742843 
0.00151426 -0.00206928 0.0035238 
0.000380485 -0.00830988 0.0599379 
3.32735e-05 -0.000420657 0.109102 
-0.00195375 -0.00187812 0.0718391 
0.00319894 0.00885357 0.0971215 
0.00313078 0.00815801 0.123567 
-5.84849e-05 1.45712e-05 -0.00198165 
0.000368884 0.000381937 0.00233146 
-0.00182014 -0.00245603 0.00075868 
-0.00965897 -0.00921354 0.0154271 
0.000134665 0.000182902 -0.000337396 
0.000950713 0.00131269 5.13639e-05 
0.000120099 0.00019109 0.00287451 
-0.00901293 -0.0082477 0.0465044 
-0.000184152 -0.000822919 0.0719034 
0.00291262 0.0019317 0.0991492 
5.29491e-05 0.000913154 0.0642658 
0.000879012 -0.000102324 0.0467823 
-0.00878506 -0.00884803 0.11191 
-0.00916636 -0.00297718 0.0658831 
-0.00658477 -0.00831188 0.0779224 
0.000507487 -0.00849993 0.118472 
-0.0144383 -0.0398366 0.140974 
0.0775426 -0.0102109 0.123452 
0.0367909 0.0116335 0.162109 
0.0373922 -0.0354491 0.24001 
-0.000196741 1.1292e-05 0.000484006 
3.2739e-05 0.000882462 -4.77022e-06 
0.00115892 0.000593147 -0.00144473 
-0.00431576 0.0022012 0.0050529 
1.97171e-05 0.000575396 0.127004 
-0.00142059 -0.0127746 0.130943 
0.000211443 -0.000389091 0.12643 
-0.0018114 -0.00921825 0.110728 
-0.000925608 0.00241137 -0.014597 
-0.0111411 0.00667031 0.010316 
-0.0201613 0.00893666 0.0413937 
-0.0328958 0.0163823 0.0412437 
0.0023256 0.0161449 0.114494 
0.00281536 0.000545207 0.0740044 
0.00371979 0.00998841 0.101093 
0.000952787 0.00891122 0.116447 
-0.00623796 0.0556495 0.155088 
0.0064036 0.0300381 0.119878 
0.00341386 0.0572898 0.0687156 
0.0118153 0.0424022 0.113244 
-0.000537444 -0.000690465 0.000343217 
0.000553999 -0.000372151 1.70524e-05 
1.35428e-05 -0.000379969 0.048233 
0.000545205 -0.00506117 0.0594017 
-0.0426187 -0.0934698 0.0737059 
-0.0590401 -0.0263063 0.158099 
-0.0242799 0.0363325 0.162431 
0.00466824 0.0318465 0.0281659 
0.00103022 0.0149769 0.133745 
0.0033531 0.012501 0.113936 
0.00395145 0.0164145 0.11402 
0.00373199 0.00644593 0.102928 
-0.00920075 0.00201082 -0.0109021 
-0.00111031 0.00712809 0.0176089 
0.00300507 -0.0227841 0.0277664 
-0.00201612 0.00225464 0.00354047 
0.0041796 -0.000779607 -0.0125233 
0.00255047 -0.000656597 -8.2439e-05 
-0.00710996 0.00188205 -0.00192892 
0.0259932 -0.00108188 0.0892079 
0.00970665 -0.000338481 -0.0344451 
-0.0264598 -0.0598967 0.0800079 
-0.0347756 -0.0157112 -0.00578044 
-0.0236117 -0.0170728 0.0813551 
-0.009018 -0.00967842 0.10853 
-0.00370205 -0.00310751 0.104677 
-0.00327458 -0.00199498 0.129669 
-0.0153917 -0.00766212 0.0972976 
-0.00114944 -0.000788752 -0.00502327 
0.00193169 0.00132785 -0.00245779 
-0.00133341 -0.0009168 0.00269935 
-0.0231072 -0.015628 0.0805515 
-0.0428909 -0.000235205 0.200279 
-0.00845064 -0.00273267 0.222359 
-0.0243711 -0.0573592 0.178402 
-0.0246817 0.0392735 0.156126 
-0.00153501 -0.0027709 0.0822505 
-0.00314589 -0.0162012 0.126805 
-0.00494432 -0.0178166 0.114633 
0.000375084 -0.00644306 0.108457 
-0.0313007 -0.0156089 0.0711941 
-0.0129229 -0.00231303 0.0488923 
-0.0137868 0.0083832 0.0356042 
-0.0148636 -0.0110947 0.00911449 
-0.00378693 -0.0163752 0.116101 
0.00317718 -0.00894027 0.0987193 
0.000853216 -0.00650472 0.077972 
-0.00126523 -0.00874687 0.107661 
-0.0881774 0.0187454 0.103553 
-0.00710773 -0.0801881 0.0427869 
-0.0994754 -0.0206917 0.198356 
0.013722 -0.0657189 0.0124702 
-8.67647e-05 -0.00048117 0.114471 
0.000139012 0.000469485 0.0842717 
-0.000941201 0.000720594 0.0859253 
-0.00325138 -0.00697917 0.114629 
0.00138918 0.000649519 0.00347701 
-0.00145422 -0.000668338 -0.00103176 
0.00184716 0.000827918 -0.00341574 
-0.0215955 -0.0111494 0.0907119 
-0.000686342 0.0428941 0.0765391 
0.0231885 0.0679454 0.102739 
0.0293687 0.0351024 0.0521701 
0.00381727 0.0245862 0.00654077 
0.0519502 -0.0051591 0.100882 
0.0248583 -0.00629669 0.117717 
0.0209885 0.00672618 0.0618063 
0.0234538 0.00918011 0.100244 
-0.00175271 0.00148378 -0.00189953 
0.000278255 0.000491352 -0.000321358 
0.00124868 0.0050807 -0.000662262 
0.00101577 0.00198057 0.00558475 
0.00144987 0.00291094 0.00436611 
-2.48298e-05 -0.00309524 0.00124296 
0.00222422 -0.0234028 0.0683985 
-0.000291134 -0.0141632 0.0382034 
-0.0574823 -0.0586477 0.171953 
0.0035875 -0.02153 0.159024 
-0.0494398 0.0192704 0.0664932 
-0.0346972 -0.00498106 0.234875 
-0.00030257 -0.00207244 -0.00507829 
-0.0287024 -0.0126206 0.0790111 
0.0026872 -0.001185 0.00446468 
-0.0250645 -0.0108494 0.0485423 
-0.00234406 -0.0019208 0.0055559 
-0.017265 -0.00864405 0.0880855 
-0.000548329 -5.2966e-05 -0.00173503 
-0.00484953 -0.00669421 0.0797379 
0.00136184 -0.00307551 0.00912518 
-0.0013828 0.00300018 0.00294808 
0.00165817 -0.00362616 -0.00069614 
0.00424149 -0.015101 0.0880817 
0.00163395 0.0185796 0.117195 
0.00415787 0.0113039 0.129114 
0.00313741 0.0231754 0.127731 
0.000542263 0.031192 0.125919 
0.0010089 -0.000384705 0.134083 
-0.000660517 0.000329581 0.108482 
-0.00360866 -0.00148007 0.128472 
-0.00431267 -0.00249059 0.105978 
-0.00104647 9.1897e-05 -0.00108017 
0.00123344 -0.000105249 0.000522698 
-0.000562675 4.62548e-05 0.000191773 
0.00783724 0.00157577 0.0883938 
-0.0106179 0.0179109 0.121945 
0.0174932 0.0128537 0.137367 
-0.000390413 0.00897635 0.119528 
-0.0113667 0.0405413 0.11588 
0.000228767 -0.000305416 0.133493 
0.000182103 0.00038998 0.13287 
-0.000927343 -0.00490381 0.142419 
-0.002397 -0.00548746 0.127762 
-0.00376676 -0.0206658 0.168461 
0.0274853 0.0048211 0.178832 
0.0404577 -0.0253575 0.0957592 
0.00502468 -0.0129387 0.0891089 
-0.00260934 0.0497288 0.158649 
-0.0132028 0.0663201 0.0591976 
0.028143 0.0720415 0.143636 
0.0183703 0.0437358 0.115161 
0.000452472 -0.000270546 0.000608332 
-0.000313786 -0.000371591 0.0502093 
-5.75657e-05 -0.000143663 0.0412342 
-0.00428768 -0.0028455 0.0635655 
-0.0709277 -0.0583389 0.0779852 
-0.050265 -0.0452041 0.202813 
-0.0373896 -0.0526097 0.1399 
-0.0270467 -0.0266328 -0.0155217 
-0.00143271 -0.0111558 0.0958132 
0.00379583 -0.024302 0.140512 
0.00437718 -0.0120997 0.102882 
-0.00486703 -0.0164422 0.123255 
-0.000380965 0.000111791 -0.00126968 
0.00077641 -0.000244031 0.00389236 
0.000746632 -0.000217377 0.0023502 
-0.000231942 0.0042317 0.076831 
0.00641648 0.00934422 -0.02068 
0.0152796 -0.020123 0.0360484 
-0.022469 -0.0669899 0.0920575 
-0.0247203 -0.0230247 0.0290457 
0.0578087 -0.057384 0.195464 
0.033014 -0.0990022 0.0151493 
0.040643 -0.0187567 0.349377 
0.0212515 0.0123252 0.174004 
0.000391121 0.000579621 0.14421 
-0.000114424 -0.000290321 0.141512 
-8.44212e-05 -0.000716933 0.143424 
0.00176252 0.00129444 0.141016 
0.0104114 -0.00352579 0.0585582 
-0.014055 -0.0663406 0.0921792 
0.0113664 -0.011196 0.0413181 
-0.0170386 -0.0292083 0.0252459 
0.000102762 2.19079e-05 -0.00111198 
-0.00122263 -0.00031117 0.00183254 
0.000240031 7.17305e-05 0.00204101 
0.000815981 0.00310473 0.0877137 
0.000142134 -0.00024866 0.143577 
-2.13767e-05 -0.000243106 0.133883 
-0.000422687 0.00017699 0.133359 
-0.000392708 -0.00482599 0.141849 
0.00902309 -0.0252512 0 
-0.0201571 0.00614405 0 
0.00162345 0.00277617 0 
-0.016992 -0.0522873 0.0675424 
0.01575 -0.00878788 0.35338 
0.013881 0.0324004 0.203108 
0.0123701 -0.0449472 0.352671 
0.0288559 0.0938688 0.237294 
-0.00806695 -0.003782 -0.0248155 
-0.00228243 -0.000924615 0.000617781 
0.000922702 0.000630048 0.0132091 
-0.0524599 -0.00235277 0.125336 
0.000182064 0.00565917 0.0921221 
0.0172101 0.0260294 0.144595 
0.00845709 0.0160893 0.110361 
0.00944204 0.00872908 0.0849284 
0.003975 -0.00522258 -0.0104598 
-0.00274441 0.00396573 0.00186838 
-0.00060737 0.000540352 0.00542961 
-0.0408883 0.0487535 0.0375681 
-0.000794257 0.0129868 0 
-0.0137846 0.0187586 0 
0.0234742 -0.0294757 0 
0.0359622 -0.0782318 0.0537949 
-0.00186905 -0.0138314 0.131513 
0.00102692 -0.028866 0.13609 
-0.000100449 -0.00545402 0.101171 
-0.00192626 -0.0176161 0.122405 
0.00755279 0.0184645 0.089443 
5.54224e-05 0.00658501 0.119173 
0.00252298 0.00690445 0.0905163 
0.00121243 0.00281062 0.0977972 
0.0119821 6.71164e-05 0.127827 
-0.0154785 0.0592591 0.0779183 
-0.0349832 0.0293703 0.0492443 
-0.0146 0.039071 0.121408 
0.000468761 0.00142419 -0.000526759 
-0.00126182 0.00600649 -1.23913e-05 
-0.00308791 0.0019762 0.00385073 
-0.00155217 0.0106683 0.00325552 
-0.000627817 -0.000917168 0.138255 
-4.75523e-06 0.000361382 0.143854 
0.000322205 0.000323981 0.141407 
0.00101998 -0.00485915 0.140152 
-0.00431962 0.00581361 0.12648 
-0.00412877 0.00113959 0.105367 
0.00110516 -0.000111143 0.122405 
-0.00398014 0.00444731 0.100763 
-4.56831e-05 -0.00026139 0.000632695 
-0.000404308 -0.000268859 0.0407441 
-0.000235799 -0.000620866 0.000742969 
-0.00421869 -0.00259395 0.0645364 
0.00258354 0.0037435 -0.00687844 
-0.0114733 -0.0102739 0.019785 
-0.00237869 -0.00639136 -0.00645081 
-0.0158371 0.00675488 0.024626 
0.000864166 0.000984784 0.000987414 
-0.00112961 -0.00355271 0.0815651 
0.000368595 0.000309217 0.0510026 
-0.00128262 -0.00264427 0.0684259 
-0.00791841 -0.00411764 -0.0049492 
-0.00383288 -0.000956487 0.00311496 
-0.000772727 0.00629884 0.101226 
-0.00980843 -0.0076147 0.106179 
-0.0441413 0.0372925 0.194443 
0.0302124 -0.00534274 0.148894 
0.0520476 0.0170079 0.211881 
0.0362901 -0.0195308 0.262474 
-0.00138639 -0.00125437 0.000713228 
-5.7471e-05 0.000911361 -0.00212787 
0.00735876 0.00697743 0.048054 
0.00312263 0.00627392 0.0553159 
-0.000226778 -0.00315874 -0.000850595 
-5.37113e-06 0.000122878 0.0011269 
-9.14365e-07 -0.00030242 -0.00168423 
-0.00101149 -0.0019285 0.00622746 
6.5251e-05 0.000819688 0.000957328 
-0.000244078 -6.19009e-05 0.000565783 
-0.000298128 -0.000114632 0.0306762 
0.00334835 0.00350069 0.0584565 
0.000249874 0.000340145 0.0498719 
-0.00475744 -0.00287847 0.0686748 
-9.21236e-05 -0.000369745 0.0923319 
-0.00506276 -0.00326243 0.064145 
0.0340694 0.0306081 0.157002 
0.03173 0.0400408 0.0473416 
0.0233095 0.0358314 0.143778 
0.0481009 0.0435656 0.176693 
0.0248426 -0.0138568 0.147415 
0.0287373 0.0218306 0.0922921 
0.0100224 0.013372 0.137612 
0.0290242 0.0124759 0.102645 
0.0213503 -0.0463882 0 
-0.0106745 0.0635095 0 
-0.00607611 -0.0444867 0 
0.0430317 -0.121147 0.145212 
0.000146816 -7.59976e-05 0.000438883 
-3.63631e-05 3.96383e-06 -0.000881711 
-0.000166365 0.000102615 0.000360952 
-0.000287343 -0.00182732 0.0834729 
-0.0011692 0.000225766 -0.00657871 
-0.0118434 -0.0104463 0.0459462 
0.000277912 0.000229782 0.0021286 
-0.0168733 -0.0137719 0.0332396 
-0.000902991 -0.0139052 0.13146 
-0.00366347 -0.0199618 0.114333 
-0.00346096 -0.0132686 0.121715 
-0.000666074 -0.00666463 0.112921 
0.000312132 -2.5166e-05 0.106895 
-0.00436131 0.000934383 0.105082 
-0.00531986 -0.000865944 0.131273 
-0.0042086 -0.00232923 0.105642 
0.000484287 -0.000412335 0.000719788 
0.0010294 -0.000915957 -0.00586212 
-0.00751665 0.00178968 0.0444971 
-0.00566304 -0.000285978 0.0387661 
-0.0224023 -0.0130372 0.0841823 
-0.0526042 -0.0232903 0.136917 
-0.0149839 -0.0271297 0.159232 
9.33816e-05 -0.0056649 0.0867651 
0.00134724 -0.00131692 0 
-0.00485794 0.00310268 0 
0.00101379 -0.00359953 0 
-0.00765817 -0.00220366 -0.000435408 
0.0899157 0.0227583 0.0257879 
0.0460374 0.0621041 0.219089 
0.0222339 0.00389507 -0.0896788 
0.000293394 0.0423146 0.165147 
-0.0732692 0.085478 0 
0.0879684 -0.077468 0 
0.0785564 -0.058329 0 
0.039545 -0.0311247 0.281627 
-0.00457887 -0.00332445 0.0688893 
-0.0149089 0.000892407 0.0929264 
-0.0128541 -0.00457022 0.0468085 
-0.00447868 -0.001297 0.0385726 
-0.00526877 -0.00160491 0.0682403 
-0.0125371 -0.00565924 0.0448285 
-0.0147618 0.000801664 0.0951679 
-0.0168813 -0.00753828 0.0925495 
-0.00214569 0.00399897 0.0074001 
0.0054576 0.000594421 -0.0115027 
0.0216038 -0.0026086 0.0803843 
-0.00926547 -0.00440906 0.0286398 
0.00821702 0.0118339 -0.0566161 
-0.0423347 0.059756 0.0845644 
-0.0235961 0.0392441 0.0461628 
-0.039325 0.0539228 0.105218 
-0.00719054 0.0115334 0.114619 
-0.00303911 0.00534445 0.121966 
-0.0116804 0.00663586 0.130007 
0.00199932 0.00758902 0.146431 
0.011518 0.0192074 0.039594 
0.0403075 -0.00802965 0.0740268 
0.0179205 0.000137933 0.0733112 
0.0225715 0.00750665 0.102847 
0.0243319 0.0314953 0.138806 
0.0592656 0.00344698 0.0953753 
-0.01677 0.0106865 0.0958118 
-0.0102958 0.0469423 0.120791 
-0.00533146 -0.00370163 0.068232 
-0.00408568 0.00157963 0.0599214 
-0.0132855 4.05623e-05 0.0927793 
-0.0048973 -0.00138765 0.0383189 
0.000154632 -0.00139326 0.0821823 
0.000236885 1.89051e-05 0.109955 
0.00231724 0.00842006 0.0970483 
0.00171358 0.00805828 0.116383 
-2.07074e-05 -0.000104672 0.000472458 
-0.000178049 -0.000686475 0.000242387 
-0.000126964 -0.000350877 -0.00230739 
-0.00199621 0.000783787 0.05984 
0.0177502 -0.0793097 0.210698 
0.0288883 -0.00993898 0.331566 
0.059223 -0.000509681 0.263177 
0.0409419 -0.0819092 0.182888 
-0.00249481 -0.000640969 0.00844859 
0.0409192 -0.0160433 0.0082411 
-0.00459295 0.00680655 -0.0104735 
0.0677851 -0.0292242 0.0982208 
-0.000975855 0.00114979 0.00264577 
-0.00233104 -0.00548901 0.0774933 
0.000657467 0.00212265 -0.000299981 
1.71483e-05 -0.00526635 0.0712462 
-0.0804481 0.0290729 0.202449 
0.100781 0.0118617 0.196579 
0.0215483 0.0285929 0.375581 
0.0216721 -0.000229439 0.272065 
-0.00068796 -0.000546564 0.126446 
-0.00373882 -0.01138 0.124141 
0.00140318 0.00138146 0.0964515 
-0.000254304 -0.00809126 0.109286 
0.00328132 0.0431063 0.158687 
0.006911 0.0286559 0.109606 
-0.0101382 0.0558044 0.15568 
0.01546 0.041836 0.109537 
0.000667467 -1.28523e-05 -0.00135338 
-0.00330549 0.000345749 0.0583704 
0.000142736 -0.000513251 0.000659281 
-0.00344775 -0.00160716 0.0402837 
0.00218431 0.00564528 0.120629 
0.00708816 -0.000383364 0.116667 
0.00318104 0.010451 0.089097 
0.000182918 -0.00762294 0.106579 
0.000145967 0.0157594 0.115567 
0.00403477 0.00970708 0.10866 
0.0054684 0.0310548 0.127194 
0.00571855 0.0242985 0.107503 
0.00818073 0.0148323 0 
-0.00887119 -0.00224914 0 
0.00125745 0.00124695 0 
0.0320278 0.034935 0.0426788 
0.000114474 0.00741593 0.118669 
0.000253061 0.00220744 0.14226 
0.00755338 -0.000959634 0.117241 
0.00262504 -0.00618323 0.106232 
-0.000189066 -3.45558e-05 0.0734929 
0.000239566 0.000186115 0.0507328 
0.000411409 0.000400547 0.0380664 
-0.0048724 -0.00267375 0.0687894 
-0.018229 -0.0144625 0.081118 
-0.00540716 -0.00616454 0.0779884 
-0.0103481 -0.0120094 0.111734 
-0.00427752 -0.00228731 0.0638209 
0.0072602 0.0244659 0.121224 
0.00942311 0.0325104 0.123677 
-0.0139331 0.0471237 0.138383 
-0.00815998 0.0288754 0.135619 
-0.00122084 0.00274016 -0.00204416 
-0.0100325 0.00491123 -0.00732639 
-0.00274698 -0.0254441 0.0235291 
-0.00165027 0.00399881 0.0103734 
-0.000268797 4.4321e-05 0.0873311 
-0.00528674 0.00144331 0.106078 
-0.00367152 0.000901194 0.0591416 
-0.00176284 0.00196507 0.0498848 
0.000173672 0.000547937 0.0813441 
-0.000319316 -0.000854259 0.0484738 
0.000127931 -0.000554224 0.0632469 
0.00294817 0.00519356 0.0587804 
-0.0118667 -0.0181827 0.407832 
-0.0734192 0.0967512 0.135887 
0.0295923 -0.00783674 0.390337 
0.0138405 -0.0310412 0.31062 
0.00706547 0.0179694 0.0886086 
0.00350999 0.011746 0.112777 
0.0014173 0.00741292 0.120834 
0.000485357 0.00153043 0.0958992 
0.0414273 0.0143833 -0.00760618 
0.0173451 0.0546768 0.0844401 
0.00249807 -0.0131929 -0.0286246 
-0.0142865 0.0771834 0.10368 
-0.000361515 -0.000551088 0.00152762 
0.000779102 0.00109624 0.00245076 
4.64245e-05 7.8487e-05 -0.000681093 
0.0036163 0.00591628 0.0611617 
-0.00446774 -0.00279374 0 
0.00566256 -0.00661847 0 
-0.00670556 -0.0032044 0 
0.0119675 0.0362676 0.0109861 
0.000630258 -0.00148317 0.0803865 
0.00299232 0.010678 0.11595 
0.000184288 -0.000858978 0.108307 
0.00261023 0.00875601 0.100061 
-0.000227219 -0.000216346 0.074616 
-8.74527e-05 -0.000630167 0.0458745 
-0.00365734 0.00568754 0.0694489 
-0.00155478 0.00295647 0.0561352 
-0.000330672 -6.35373e-05 0.115073 
-0.000143885 0.000184022 0.0914189 
0.00013275 0.000518398 0.0855678 
-0.000453121 -0.00793945 0.096269 
0.0336118 0.0084965 0.174445 
0.0212627 0.0608017 0.181456 
-0.0503051 0.0912329 0.126743 
-0.0196736 0.0464603 0.253379 
0.000233976 4.11146e-05 0.00133988 
-0.000303567 -0.000102106 0.00314065 
-0.00129981 -0.000291891 -0.00109129 
-0.00285666 -0.00260588 0.0822047 
0.00519427 0.0116159 0.102324 
0.00395399 0.022477 0.133512 
0.00253623 0.00813511 0.116136 
0.00124251 0.00839911 0.12112 
0.0193185 0.0382455 0.162703 
-0.0343111 0.0489239 0.145009 
0.0368921 0.0713287 0.169827 
0.0132691 0.0437551 0.109396 
0.0137532 -0.00646686 0.171443 
-0.0167692 0.0137216 0.126273 
-0.000939346 0.0060347 0.137488 
3.87653e-05 0.00578939 0.142329 
-0.00302416 0.00409877 0.00504099 
0.00226816 -0.00311508 0.00236166 
-0.00173341 0.00239099 -0.00335433 
-0.0148637 0.020982 0.0689437 
-0.00723154 0.0507061 0.150915 
0.00605904 0.0332471 0.116588 
0.00168335 0.0447639 0.159241 
-0.00967546 0.0202039 0.135261 
0.0109997 0.0470574 0.160436 
0.0265775 0.0391455 0.154829 
-0.0057111 0.0273054 0.109386 
-0.0163661 0.038933 0.108782 
-0.000623677 7.6641e-05 0.0555809 
8.55609e-05 -0.000216818 0.0453413 
-5.28525e-05 0.000867347 0.0787826 
-0.000402059 0.00333807 0.0703014 
-0.0576206 0.0159986 0 
0.0389724 -0.0417783 0 
-0.0480324 0.0342818 0 
-0.104776 -0.00103277 0.209682 
-0.00379379 -0.00253528 0.0785027 
-0.0110972 -0.0104545 0.0893782 
-0.0137795 0.000346773 0.116417 
-0.016603 -0.0290017 0.12863 
-0.000715819 -0.00146566 -0.000159448 
0.00107005 0.00226242 0.0014087 
0.000501128 0.000873408 -0.00238889 
0.00240338 0.00643304 0.0560241 
0.00438871 -0.00214495 0.00370975 
0.000488496 -0.000176488 -0.00462821 
0.000768676 -0.000454911 0.00706443 
-0.000428956 0.011508 0.116506 
0.00301039 0.00396385 0.0908714 
0.038147 0.00781674 0.0981475 
0.0178527 0.0343695 0.141024 
0.0091843 0.00940208 0.0912401 
-0.0239788 -0.027319 0.161021 
-0.0229941 0.0043969 0.112706 
0.00628202 -0.0112824 0.0925758 
-0.0281515 -0.025251 0.124719 
-0.000255597 -0.000387803 0.000650981 
-2.02296e-05 -0.000190464 0.000104855 
7.21697e-05 -0.000223497 0.0391019 
-0.000296576 -0.000372808 0.0499897 
0.00252878 0.00172586 0.00278451 
0.000314076 0.000200242 -0.000965743 
-0.000828169 -0.000535111 0.00188615 
0.00428334 0.00526475 0.0825334 
-3.72919e-05 0.000112445 0.0447747 
-0.00010947 0.000314853 0.0862229 
-0.000105397 -2.82389e-05 0.0737171 
-0.00350077 0.000471987 0.061839 
-7.59811e-06 0.000117465 -0.00182938 
-8.27106e-06 -0.000101931 0.00115737 
0.00184618 0.00374512 0.00210175 
0.00459131 0.0110159 0.040417 
-0.00697949 0.0675358 -0.103549 
-0.00629432 0.00611664 0.3386 
-0.0585118 -0.0403044 0.146686 
-0.0289659 -0.0351016 0.0963848 
-0.0384166 0.0407137 0.177438 
-0.054727 -0.0258852 0.170546 
-0.0385264 0.022804 0.379357 
-0.0843991 0.0318873 0.0485911 
0.000119654 -0.000192112 0.0376227 
0.00213384 0.00302594 0.0565009 
-0.000443101 0.000306817 0.00124685 
0.000834172 0.000298811 0.0462273 
4.37873e-05 0.000548878 -0.00042258 
-0.000161654 -0.00180256 0.000278097 
9.74835e-05 0.000828147 0.00131514 
-0.000920255 -0.00714913 0.0366646 
-0.0194312 0.00723901 0.0386353 
-0.0106316 0.00292739 0.0481213 
-0.0286019 0.00996393 0.063069 
-0.0113988 0.00489499 0.00677788 
-0.0477477 -0.0127031 0.369771 
-0.040191 -0.106618 0.0336933 
-0.0689745 -0.0371142 0.230441 
-0.0478602 0.0267375 0.171939 
-0.0191751 0.0129309 -0.00631434 
0.00418891 -0.00389716 0.0295569 
0.00154367 -0.000684312 -0.00886401 
-0.0238899 0.0232716 0.213641 
-0.019845 -0.0324437 0.047116 
-0.0690375 -0.0762581 0.115072 
0.0208025 0.000951775 0.0440403 
-0.00930785 -0.0274993 0.0249274 
0.010627 -0.00307977 0.151424 
0.0134622 -0.00595885 0.0979075 
-0.00699122 -0.0215771 0.162243 
-0.0155975 -0.00912035 0.0894224 
0.00418972 0.00855004 0.117166 
0.000703157 0.00328058 0.0871952 
-0.00269505 -0.0101671 0.110122 
-0.00174346 -0.00681024 0.107982 
0.0160259 0.0320932 0.143678 
0.00322929 0.00459217 0.10755 
0.00401948 0.0415203 0.152045 
0.00466713 0.0382469 0.125014 
0.00741862 -0.000312498 0.341247 
0.0189419 -0.0125991 0.364922 
-0.0162317 0.00208131 0.358268 
-0.101606 0.0439415 0.311522 
-0.0365637 -0.0175859 0.0701569 
-0.0130825 -0.0154815 0.0108525 
-0.0122362 0.0142349 0.0344643 
-0.018967 0.0139752 0.0365228 
-0.000261549 0.00123696 0.00415361 
0.00058263 -0.00229521 -3.90409e-05 
0.00039462 -0.0017081 -0.00310005 
-0.00856551 0.0141352 0.0148416 
-0.0139968 0.0132252 -0.0149399 
-0.0146978 -0.0436249 0.0323632 
-0.00223155 0.00413719 -0.00118071 
-0.0133879 -0.0573188 0.102766 
-0.00181362 -0.00127851 -0.00720943 
-0.00266372 -0.00186933 0.00762538 
0.000325377 0.000224461 -0.00928964 
0.0406562 0.0219992 0.0938105 
0.0155203 -0.0223561 0.338463 
0.0289695 -0.0359376 0.363488 
-0.031602 -0.0407386 0.211787 
-0.169792 0.0091728 0.128734 
0.0017273 0.00104435 -0.00812648 
0.00375461 0.00197918 -0.00623576 
0.00376102 0.00155259 0.0106453 
-0.0624408 -0.0191537 0.101916 
-0.00942881 -0.0164811 0.0319917 
0.000212356 0.00486288 0.0903882 
0.00562502 0.0297979 0.0601085 
0.00336344 0.0105036 0.0904946 
6.18453e-05 0.00156492 0.140143 
0.00290713 0.0023421 0.140225 
-0.000432336 -0.000120036 0.145021 
0.00288124 0.00531835 0.141964 
0.000702754 -0.0015836 0.00219959 
0.00642884 -0.00202743 0.00409032 
-0.0060083 0.00649748 0.0859248 
-0.00633681 0.00483508 0.0863259 
0.00181543 -0.00120611 -0.000949043 
0.0022692 0.000381773 -0.00145287 
-0.00263567 -0.00190985 0.000274025 
-0.00926939 -0.00912698 0.00585339 
-0.00391571 -0.0272225 0.151227 
0.00756751 -0.00752091 0.100657 
0.00642649 -0.0304377 0.139543 
-0.00646931 -0.018736 0.124372 
-0.00431718 0.00224137 0.00351817 
0.0025783 -0.00145434 -0.00572108 
-8.22637e-05 4.21577e-05 4.97917e-05 
-0.0126344 0.00639387 0.0949935 
0.00030002 -8.7873e-05 0.138101 
-0.000469194 3.21665e-05 0.145015 
0.000123839 0.00120776 0.140197 
0.00250833 0.00216021 0.140958 
0.00151509 0.00668163 0.118091 
-0.000241348 -0.0119036 0.127353 
0.00455002 0.00379337 0.137651 
-0.00116615 -0.00678164 0.109707 
-0.000216186 0.000261566 0.0742999 
-9.42685e-05 -0.000240033 0.0362582 
3.26033e-05 -8.651e-05 0.0456874 
-0.00161952 0.00189469 0.0567729 
0.00327493 0.00581584 0.0447355 
0.00380184 0.00673444 0.058102 
0.000966928 -0.0028669 0.0655314 
0.00101758 -0.000946042 0.0467475 
0.00057513 -0.00035823 -0.00023085 
-0.000265059 9.43685e-05 0.0518531 
0.000894585 0.000641573 0.00178904 
0.000290012 0.00125627 0.0752086 
0.0863275 0.00663384 0.188765 
0.0325862 0.0110331 0.383404 
0.0054005 0.0841541 0.156136 
0.0779449 0.0130059 0.0189606 
0.0391103 0.000785382 0 
-0.0447508 0.00784462 0 
0.00778558 -0.0277647 0 
0.00315965 0.0231753 0.0756607 
-0.00235904 0.0599358 0.160973 
0.0231972 0.0633363 0.174188 
0.0503695 0.0175033 0.154395 
-0.0249118 0.0525118 0.111278 
0.0104351 0.0620854 -0.00629259 
0.0569996 -0.0224598 0.158959 
-0.0342832 -0.0302512 -0.0360917 
0.033823 -0.0201827 0.0665818 
0.000248698 -0.00013106 0.00186082 
-0.00253307 0.000712247 0.0600618 
0.000280343 -0.000257871 -0.00051472 
-0.00166102 0.0010745 0.0491743 
0.00654443 0.0204104 0.0905104 
0.00281691 0.0138267 0.112183 
0.00490855 0.00846118 0.0807204 
0.00737049 0.0205343 0.104261 
0.00843739 0.0194524 0.0868282 
0.0045868 0.0303624 0.123315 
0.00353788 0.00969255 0.107178 
0.00591423 0.0263735 0.111969 
0.0683087 0.0755227 0.0540772 
-0.0376251 -0.0304364 0.0172555 
-0.0208187 -0.00746983 -0.0145458 
0.0730102 0.0330963 0.133163 
0.049869 0.0771232 0.0560208 
0.0138549 0.0217357 0.0527572 
0.00156722 0.0197831 0.0886136 
0.0588212 0.0813874 0.15384 
-0.000405318 0.000914606 0.00157964 
-0.000233768 0.000608232 -0.000776075 
-2.72529e-05 4.76702e-05 0.000395164 
0.00267653 -0.00941999 0.0635828 
-0.000267935 -0.000378456 0.0914546 
8.9552e-05 0.00024407 0.0692768 
0.00060623 0.000842664 0.0558544 
0.000530367 -0.00699771 0.0967449 
-0.000442156 0.00162552 0.00175899 
-0.00091834 0.00346871 -0.0025049 
0.000832157 -0.00308592 -0.00153964 
0.00536176 -0.0241408 0.077476 
0.000245817 -0.000545081 0.0447146 
0.000209846 0.000119711 0.0767125 
-0.000274114 -9.75537e-05 0.0750021 
-0.00381818 0.00584449 0.0703462 
-0.0159616 -0.012764 0.0899535 
-0.00583269 -0.00664464 0.077658 
-0.00297958 0.00222883 0.00511454 
-0.00982062 -0.0091985 0.0858459 
-0.000309309 0.000183793 0.12906 
0.00024036 -0.000134049 0.107473 
-0.000184928 -0.00100559 0.121496 
0.00306154 0.00995756 0.112021 
-0.00356476 0.00226799 -0.00100654 
-0.0165361 -0.0187437 -0.0148837 
0.0478971 -0.0126354 0.0410092 
0.0737101 -0.0381861 0.13366 
0.0325073 0.0606702 0.166488 
-0.00543424 0.0267907 0.108499 
0.0206102 0.0379559 0.141913 
-0.00431077 0.0370972 0.123824 
0.00819093 0.0353072 -0.0497613 
-0.00997744 0.0237611 -0.0157969 
-0.00721923 -0.0297981 0.0370863 
-0.0466532 -0.096567 0.139138 
-0.000152511 -0.000647694 0.073821 
-0.00403372 0.00657137 0.0713734 
0.000463938 -0.000213105 0.0777524 
-0.00323419 0.00495974 0.100566 
0.00318549 0.0119135 0.0222178 
-0.0448653 0.0436048 0.158072 
0.00492587 0.00626604 -0.0140676 
-0.0617625 0.0424983 0.0971207 
0.0107636 0.0220043 0 
-0.00717357 -0.00951765 0 
0.0117142 0.00268646 0 
-0.000163813 -0.0197533 0.0174985 
-0.00398304 -0.000579129 -0.000168439 
0.00831511 -0.000299154 0.00221479 
0.000181947 0.00367269 0.10203 
-0.00902543 -0.00961947 0.120017 
0.0192878 0.0335971 0.151181 
0.0135307 0.0254273 0.0907877 
0.0193103 0.0559976 0.0624811 
0.0484984 0.0570778 0.146607 
-0.0235118 -0.0201155 -0.0458241 
0.0297125 0.0295199 0.0354116 
0.0184582 0.0451266 0.0323076 
0.0712746 0.104016 0.198071 
0.000173464 1.90602e-05 -0.00517572 
-0.00461717 -0.00206188 0.0118822 
-0.00301595 -0.00153629 -0.00758027 
-0.0249723 -0.014449 0.0942819 
-0.000666505 0.00101543 0.00283726 
0.000426225 -0.00063436 -0.00121898 
-0.000337164 0.000438821 -0.00153553 
-0.00386908 0.00826068 0.0766794 
0.00539768 -0.0043539 0.0020712 
0.00337908 0.0067613 0.000427931 
-0.00498015 -0.0122559 0.105197 
0.00940138 -0.0297052 0.130339 
-0.00243093 -0.00372431 0.08199 
-0.00542327 -0.00504301 0.0769828 
-0.00404536 -0.0107143 0.098876 
0.00276655 -0.00438754 0.0656638 
-0.0233249 0.0351732 0.311134 
-0.0237207 0.0523616 0.174666 
-0.0627004 0.063195 0.0805807 
-0.0118371 0.0909715 0.102315 
-7.17195e-05 -0.000156598 0.000364204 
0.000189746 -0.00148249 -0.000279878 
0.000948861 0.000832489 -0.000290396 
-0.00516614 -0.00842749 0.00415285 
0.0184402 0.0175516 0.044383 
0.0555345 0.106917 0.141759 
-0.021576 -0.0118328 -0.0276855 
-0.00289648 0.0102889 -0.0284139 
0.00122935 0.00299424 0.00114637 
-0.000521559 -0.00120914 -0.00297892 
0.000573589 0.0013443 0.002684 
0.00201072 0.00477871 0.00999344 
-0.00749136 -0.00682423 -0.0313358 
0.0243654 -0.00278246 0.188843 
-0.00723441 -0.00430414 -0.0116933 
-0.00649321 0.0296088 0.186406 
0.00016992 0.000139586 0.0635796 
-0.00020054 3.46639e-05 0.0479955 
0.000161188 -0.000367342 0.0300904 
0.00279872 0.00389565 0.0591451 
0.000358403 -2.02619e-05 0.00221667 
-0.00556802 -0.0024177 0.0666843 
-0.000197067 -0.000426428 -0.000993641 
-0.00282198 -0.00157836 0.0405216 
-0.00340685 0.000693374 0.0592839 
-0.00453341 0.00185452 0.106018 
-0.00780838 0.00560392 0.0765309 
-0.00147505 0.0020691 0.0498864 
0.000492259 -0.000999712 0.0060287 
-0.000879603 0.00184144 -0.00566147 
0.000837772 -0.00180711 0.00045194 
0.00304437 -0.0281428 0.0876723 
0.00142248 -3.19072e-05 0.00120339 
-0.0499199 -0.0266988 0.0862531 
-0.00177452 0.000428915 -0.000138348 
-0.0300804 -0.0117816 0.0465955 
-5.70539e-05 3.75238e-05 -0.000357487 
-0.000141285 0.000125692 0.00108609 
-2.63402e-05 4.12997e-05 0.00127729 
0.000256344 -0.00199095 0.0704405 
0.00150724 0.0160377 0.136064 
0.00330846 0.0151324 0.111088 
0.00274627 0.0084535 0.116591 
0.00343764 0.0060992 0.101899 
-0.0279167 -0.00146756 0.104123 
-0.0423173 0.0414315 0.120444 
0.000846729 0.0287364 -0.0303015 
-0.0278177 0.00589206 0.0546198 
0.000435183 -0.000628294 0.133471 
-0.000127083 0.000145251 0.107855 
2.91492e-05 0.000339808 0.121177 
-0.00319517 0.00142685 0.106423 
-0.0163013 0.0194501 0 
0.0417707 -0.0189678 0 
0.00468884 0.0154811 0 
0.0775644 -0.0347525 0.108244 
0.000125723 -0.000178897 0.0852961 
8.25494e-06 0.00131664 0.0489451 
0.000103941 -0.000510346 0.0837446 
-0.00359669 -0.00415177 0.0652188 
0.0116642 -0.00643895 -0.00148233 
-0.024242 0.013003 0.0895621 
-0.000244544 -0.0050676 0.00575917 
-0.0182613 0.0212958 0.0523565 
0.00731545 0.0255159 0.115118 
0.00618399 0.0274882 0.0521976 
0.00543512 0.0115065 0.0872805 
0.0206642 0.00710615 0.0987189 
0.000447037 7.21522e-05 0.104434 
-0.000453659 -8.85155e-05 0.0738929 
-9.72062e-05 0.00011822 0.0783043 
-0.00290279 0.00418011 0.100584 
0.00152371 0.000134896 -0.00267138 
0.00473775 0.000396925 0.00227754 
-0.00151779 -0.000148485 0.00929582 
-0.00866929 -0.00807884 0.0982655 
0.00076066 6.35266e-06 0.127364 
-0.00185639 0.00788426 0.118819 
-0.00280513 0.00621742 0.126709 
-0.00432535 0.0049297 0.100291 
0.0033831 0.000775125 -0.00119578 
-0.000223213 1.78145e-05 -0.00567941 
-0.00463203 -0.000839334 -0.0168964 
-0.0285204 -0.0299356 0.106991 
0.00426181 -0.00141719 -0.000230271 
-0.0126903 -0.00525642 0.0377941 
-0.000365507 -0.00370172 -0.000166071 
-0.0178783 -0.00721644 0.0209379 
-0.0327852 0.0491727 0.171627 
-0.0427853 0.0190622 0.388154 
-0.0609744 -0.0346361 0.178043 
0.00347484 -0.0194988 0.297214 
0.0164016 0.0140611 0.342611 
0.0110091 0.0382581 0.372194 
0.00776083 0.00934226 0.329205 
0.0164544 -0.208118 0.285297 
0.000257347 0.0014381 -0.000333826 
0.00754736 -0.00736337 0.0915298 
-0.00286278 0.00265493 0.00388491 
0.00603657 -0.00448199 0.0802636 
-8.92489e-05 -0.000157714 0.00407605 
0.000876317 0.00122134 -0.00219863 
-0.000955478 -0.00132967 0.00216568 
0.0193545 0.0243826 0.0648122 
-8.6218e-05 0.00228519 0 
0.00179949 0.00151611 0 
-0.00292958 0.000191061 0 
-0.00429466 0.00013122 0.00582882 
0.000668457 0.000105723 0.0808819 
-0.000245784 0.00015361 0.0824711 
4.18866e-05 -0.00100885 0.050275 
0.00242702 0.00555371 0.0992333 
0.000289133 -0.0039993 -0.0036938 
-0.0164055 -0.00925708 0.0205368 
-0.012458 -0.00658468 0.0432615 
-0.0210319 -0.0123494 0.0325128 
-0.000610373 -0.00845937 0.113706 
0.000396825 0.00098577 0.0840091 
-0.00867516 -0.0230978 0.0897308 
-0.000392004 -0.00671695 0.108986 
-0.0751701 -0.0736502 0.119064 
0.0088938 -0.0938513 0.115293 
0.00797886 0.0281209 -0.0211734 
0.00104805 -0.0931049 0.257244 
0.00694224 -0.00119203 0.117964 
0.00309245 0.00323111 0.139207 
-0.000995882 -0.0113464 0.128075 
-6.59794e-05 -0.00705683 0.108602 
0.011329 -0.0967912 0.0554717 
-0.00164652 0.0279503 0.110964 
-0.00303202 -0.110844 0.156957 
0.0402417 -0.00848406 0.037675 
0.0372923 0.0273521 0 
-0.0463446 -0.0343666 0 
0.0452029 0.01435 0 
0.0627422 0.0149294 0.154313 
0.000683102 -0.000318436 0.0840769 
-0.00479787 -0.00512191 0.0658229 
-0.000116358 0.00104449 0.0908357 
-0.00479497 -0.00305434 0.107788 
-0.0041476 -0.00365724 0.0121089 
-0.0206401 -0.0134247 0.0906518 
-0.00248155 -0.00308006 -0.00205286 
-0.0135896 -0.00466627 0.0867698 
0.0080125 -0.00887669 0.395126 
-0.0348489 0.0218793 0.186856 
0.030506 -0.0270686 0.342274 
-0.0914963 0.109754 0.199282 
0.000163604 0.000667023 0.133137 
-0.00420154 -0.00259256 0.106494 
-0.002698 -0.00273016 0.12823 
-0.00260357 -0.00535013 0.127682 
-0.00436818 0.0042118 -0.0130132 
-0.00552451 0.00530515 0.0194289 
0.00451476 -0.00435032 0.0087734 
-0.0401783 0.0418123 0.155259 
-0.0102754 0.012124 -0.0268979 
0.029544 -0.00478267 0.0287401 
0.045404 -0.0113395 0.103549 
-0.0284894 0.00453151 0.00969846 
-0.000134162 -0.000765213 0.107683 
0.00352631 0.0101396 0.101083 
0.00235648 0.00842671 0.116329 
0.0024699 0.00854629 0.121352 
-4.69431e-06 -5.29084e-05 0.000654832 
-6.74409e-05 -0.000277067 -0.000586344 
8.40238e-06 -5.63411e-06 0.000903815 
-0.00164903 0.000594349 0.0613346 
0.00852135 0.026089 0.0902415 
0.00318858 0.00608423 0.0792677 
0.0120187 0.0198216 0.0761539 
0.00917691 0.0207239 0.107304 
-0.00027832 1.15009e-05 -0.00105728 
0.000168492 -7.29381e-06 0.000614681 
0.00030878 1.64415e-05 0.0034102 
0.00309649 -0.00228996 0.0808599 
-0.00698357 0.0157127 0.119736 
0.00057747 0.0285504 0.126077 
0.0142134 0.0102352 0.135776 
-0.00982991 0.0405773 0.115698 
-8.46432e-05 -6.01593e-05 -0.00341962 
0.000312682 0.000298236 0.000558825 
-0.00201426 -0.00195306 0.00146148 
-0.0156304 -0.0139658 0.0339792 
-0.0398631 0.0550707 0.0749593 
-0.00439388 0.0661433 0.0833668 
-0.0659647 0.0631136 0.264808 
-0.0116505 0.00771022 -0.0365239 
-0.00536785 0.00537682 0.0775468 
-0.0048177 0.00245549 0.105758 
-0.00649711 0.00539746 0.127554 
-0.00282516 0.00416253 0.100176 
-0.00272735 -0.0387595 0.0664192 
0.0433454 -0.165775 0.235585 
-0.00293284 0.0316669 -0.0499594 
0.0125841 -0.00661919 -0.0351787 
0.00853719 -0.00963495 0.0778964 
0.00741124 0.00713785 0.0853685 
0.00702477 0.000847469 0.118142 
-0.00433679 -0.00787123 0.106009 
0.000445396 0.000205788 0.00309944 
-0.0123171 0.00300711 0.104977 
-0.00361904 0.00487427 -0.00427506 
-0.00238366 -0.00321789 0.0832146 
0.000544994 -0.000279789 0.0477975 
-0.000721306 -0.00162339 0.00226849 
-0.000390159 0.000483687 0.0411578 
-0.00396094 -0.0022343 0.0661266 
0.000510026 0.000758617 0.000970309 
-0.000428861 -0.000619847 0.000317681 
0.000242076 0.000365702 0.000814656 
-0.00462627 -0.00398459 0.0694191 
0.0834555 0.0630507 0.065509 
-0.0128536 -0.0137614 0.120979 
0.0216504 -0.0239319 0.0431609 
0.0682466 0.0448019 0.152364 
0.000349559 0.000358403 0.0742156 
0.00017859 -2.21433e-05 0.0903592 
-0.0055888 -0.00299495 0.0687447 
-0.00488431 -0.00228015 0.106905 
-0.0644746 0.062094 0.0780531 
0.0340657 -0.0445 -0.0785565 
-0.0249972 0.0733771 0.0847681 
0.000572544 0.0278246 0.263916 
0.00436402 0.0574881 0.0593222 
0.0221418 0.00734886 0.00278316 
-0.0324154 0.0690062 0.119688 
-0.0784203 0.0127024 0.0662026 
-0.00130013 -0.0279829 0.074971 
0.00651776 -0.0495807 0.0642646 
-0.00492733 -0.0247287 0.0418356 
-0.00164584 -0.00623614 0.0303824 
0.00529547 -0.0388591 -0.0515102 
-0.0743643 0.0348867 0.0318942 
-0.0581841 0.0414082 0.168178 
-0.00446401 0.0183169 0.0623519 
-0.0343277 0.0161107 0.164674 
-0.0428196 0.0101862 0.0542374 
-0.0101312 0.00505671 0.118137 
-0.0529893 0.0023844 0.150236 
0.000122211 0.000836512 0.102004 
0.00102754 0.000122825 0.122183 
-0.00383861 0.00148493 0.105807 
-0.00388092 0.00420243 0.101029 
0.0668427 0.0571405 0 
-0.0556131 -0.0624901 0 
-0.0495553 -0.0568498 0 
-0.0312146 -0.0659368 0.220746 
-9.57616e-05 -0.000566944 -0.000833092 
-7.12863e-05 0.000393917 0.0556648 
-0.000571215 0.000969222 0.00149144 
0.000238545 0.000559405 0.0451604 
-0.0134855 0.0627117 0.144006 
-0.0379695 0.0268591 0.21247 
-0.0466591 0.0410852 0.0886954 
-0.0038993 0.0279048 0.143411 
0.0865674 0.0251169 0.0888497 
0.0516265 0.0700425 0.10516 
-0.00693229 0.0365527 -0.0190223 
0.0513868 0.0714569 0.24271 
-0.000567735 -0.000936035 0.00117733 
-0.000168077 -1.47024e-05 0.0347681 
2.33806e-05 1.24833e-05 -0.000199519 
0.00103707 -0.000389515 0.0474868 
0.0203519 -0.02663 0 
-0.0158004 0.0205958 0 
-0.00733262 -0.00262426 0 
0.0359344 -0.0780606 0.0595278 
-0.000212096 0.00106324 0.137496 
-0.00048866 -0.000732462 0.129272 
0.000100629 -0.000430279 0.141653 
0.00258031 0.000916919 0.139967 
0.00241118 0.0022145 -0.0211678 
-0.00131764 0.0255291 0.0360693 
-0.00759627 -0.00184251 -0.0181614 
0.0608729 -0.0219985 0.0774096 
-0.000817168 0.00216936 0.0630388 
-0.000192181 -0.000405743 0.0949146 
-0.00139616 -0.00485325 0.0781111 
0.000291246 -0.00702257 0.109501 
-0.000212371 -0.000685897 0.0372395 
-4.0476e-05 0.000286921 0.0632204 
1.59145e-05 -0.000250018 0.0310508 
0.00285055 0.003843 0.0579656 
5.84851e-05 -0.00071712 0.000421268 
-7.04807e-05 0.000954804 0.000281259 
-1.57321e-05 0.00031556 0.000954786 
0.000900115 -0.00763754 0.0585343 
-0.000955426 0.00192723 0 
-0.00231304 0.00192918 0 
0.00163607 -0.00118924 0 
-0.00548594 -0.0136956 0.00525709 
6.43875e-05 -7.83808e-05 0.0759356 
0.000322711 0.000156808 0.1022 
-0.000308421 -0.000234379 0.085827 
-0.00414948 0.00208357 0.106259 
4.46996e-05 -0.00786899 0.0668382 
-0.000400113 -0.00645524 0.0634507 
0.000322438 -0.0214447 0.0652077 
-0.000807494 -0.0124334 0.0355592 
-0.000436935 0.00257924 -0.00687917 
0.0204394 0.0232715 0.0801794 
0.000312165 -0.00285035 0.00855273 
0.0342403 0.0252104 0.0706218 
-0.038219 -0.0368286 0.231658 
-0.0453466 -0.00378974 0.122594 
0.0182498 0.000982608 0.348705 
-0.140112 -0.00957302 0.0387112 
-0.0237638 -0.0270672 0.0845649 
-0.0177076 -0.0287068 0.128074 
-0.0256183 -0.0107859 0.0821486 
-0.0141741 -0.00450365 0.0913131 
0.042625 -0.00737672 0.1544 
0.0519283 -0.0131537 0.100681 
0.00903851 0.00819957 0.0819224 
0.0252495 0.0131744 0.102008 
0.00770656 -0.00918901 -0.0423785 
-0.0487783 0.0567977 0.00800508 
-0.0285018 0.0503578 0.101641 
-0.0289477 0.0628235 0.106931 
-0.0149489 0.0148222 -0.0144647 
-0.0067416 0.00779422 -0.0205704 
0.00333843 -0.000152397 0.00563726 
0.0833004 0.00950225 0.0669841 
-0.000563008 -0.000248879 -0.00182131 
-0.00162764 -0.000741187 -0.000386457 
-0.00110289 -0.000515194 0.0026549 
0.00584066 0.0062428 0.0910238 
-0.000213268 0.000317228 0.12835 
0.000135793 -0.000111357 0.106109 
-3.70609e-06 -0.000387822 0.114813 
-0.00105631 -0.00612038 0.111361 
-0.00381185 0.000352286 -0.0017677 
-0.0201916 -0.0130458 0.0907014 
0.00186504 0.00452091 0.00504529 
-0.0127994 -0.00948739 0.0863365 
-0.0769912 -0.0647053 0.084203 
-0.0963903 -0.015042 0.12561 
-0.0741222 -0.0139083 0.27925 
0.0129771 -0.00810339 -0.0782339 
0.000984022 0.00133099 -0.00213902 
-0.000323188 -0.000354917 0.00199104 
-0.000793585 -0.00113207 0.000805707 
-0.00775366 -0.0085807 0.00631068 
-0.00570656 0.00468488 0.407007 
0.00576702 -0.0908244 0.134051 
-0.0229029 -0.00699844 0.340509 
-0.034887 0.0351512 0.246004 
-0.000491184 0.00154026 0.000538 
0.00017983 -0.000867172 0.00328669 
0.000499376 -0.00157536 -0.000438853 
-0.00536896 0.0107351 0.0472286 
0.000197342 0.000256257 0.000878764 
-0.000799616 -0.00114925 0.000689626 
-0.000185382 -0.000201386 -0.00233307 
-0.00409065 -0.00323629 0.0688887 
0.000993568 0.000866875 0.00155658 
-0.00731625 -0.00405864 0.076843 
-0.000878141 0.000107943 0.00242476 
-0.00529078 -0.00587114 0.0660316 
9.08507e-05 -0.000380847 0.00077648 
3.54294e-05 -0.000360707 0.0433005 
0.000230938 0.00075202 -0.000323357 
-0.000549439 -0.00119514 0.0534043 
-0.000246275 8.62879e-05 0.139946 
0.000376797 0.000254103 0.145296 
-0.000466951 -0.000538763 0.141638 
0.00147549 0.00565779 0.142889 
-0.0134485 -0.00097339 -0.0151839 
0.029216 0.034722 0.0366097 
0.00325718 0.0171099 0.0228631 
-0.0049339 -0.000242663 0.000388244 
0.0680188 0.0488608 0.161858 
0.0450019 0.0392732 0.365888 
0.00472311 0.0311565 -0.0100323 
0.0648068 -0.0002357 0.204855 
-0.0153697 0.00288278 0.0921442 
-0.00310687 -0.000105947 0.0604968 
-0.00853976 0.0036761 0.0448828 
-0.00460918 -0.00244473 0.0389314 
-0.000150354 -0.000127882 0.127338 
0.000328538 3.54488e-05 0.128975 
-2.68739e-05 -7.79829e-05 0.139959 
0.00297109 0.0109876 0.132926 
-0.033521 0.0379469 0.0897057 
-0.0376095 0.0272117 0.201841 
-0.016341 -0.00331562 0.1176 
-0.0109147 0.0294162 0.146865 
0.00110128 0.0156584 0.114019 
0.00475969 0.0234432 0.129547 
0.0039994 0.0154717 0.132753 
0.00201696 0.00832965 0.117562 
-0.00209412 0.00381143 0.0104394 
-0.00432493 0.0189889 -0.0203746 
-0.0322997 0.00475487 0.108728 
-0.0342863 0.0235049 0.113723 
-0.000193675 7.48938e-05 0.000382562 
0.000990874 -0.000396057 -0.000698007 
-0.000811431 0.000331133 -9.28457e-05 
0.00195318 -0.00109039 0.0786127 
0.000103542 -0.0140039 0.13312 
-0.000881311 -0.00924971 0.100547 
-0.00271182 -0.00792244 0.115127 
-0.00560653 -0.018103 0.119409 
0.00110908 -0.00332055 -0.00981401 
-0.00701951 0.06639 0.0651765 
-0.0215244 -0.0314167 0.00946485 
0.00858735 0.0510181 0.170469 
0.0378232 -0.0267885 0.227677 
0.00561047 -0.0491608 0.361581 
0.00660146 0.045612 0.220954 
0.0458207 0.0741562 0.200852 
-0.000321999 -0.000511708 0.0486542 
-2.78039e-05 -6.22712e-05 0.0719358 
0.000371568 0.000174823 0.0344124 
0.000545279 -0.000641723 0.0479026 
-0.00109165 -0.00107034 0.0559965 
0.000758479 0.00070603 -0.000422282 
0.000553493 8.01554e-05 0.000165027 
-0.00167182 -0.00087103 0.0658149 
-0.00271927 0.000199833 -0.000903073 
-0.00379404 0.00016541 -0.0141854 
-0.00293353 0.000331782 0.0122701 
0.0648782 -0.0197774 0.0868635 
0.000554432 -0.00161851 8.79628e-05 
-0.0072368 0.00131218 0.044378 
0.0030278 0.000979086 0.000532404 
-0.00472345 -0.00111995 0.0387924 
0.0103999 0.00643814 0 
-0.00553429 0.0176904 0 
0.0125341 -0.00226051 0 
-0.0302921 0.0383798 0.0335193 
-0.00137364 0.00079476 0.109853 
0.0014243 0.00557055 0.0744419 
0.00139299 -0.0012092 0.0703994 
-0.000154257 0.00597943 0.125195 
0.00300842 0.0111697 0.338414 
-0.0533609 0.00644109 0.373135 
-0.0319581 -0.000591715 0.293301 
0.127268 -0.00634196 0.244325 
-0.0253402 0.0104815 0.065712 
-0.0180243 0.00760155 0.0397644 
-0.0120596 0.0013684 0.00651173 
-0.0401414 0.0213764 0.047126 
0.00124236 -0.00303502 0 
-0.000101288 0.00434401 0 
-0.00066598 0.00138373 0 
-0.00177044 0.0176866 0.0050137 
0.00290889 0.00711616 0.0570991 
0.00214842 0.00144068 0.097064 
0.00187926 -0.00314359 0.066527 
0.00116494 -0.000178695 0.0467006 
-0.0011951 0.000292202 -0.00447045 
-0.00204529 0.000544064 0.00221405 
0.00116323 -0.000306353 -0.000569631 
0.00796054 -0.000112552 0.0938273 
0.000795301 0.000786247 0.000349389 
0.00025927 0.000250829 0.000566591 
-0.00077456 -0.000761064 -0.000726074 
-0.00507598 -0.00395013 0.0648361 
1.24614e-05 -0.000162868 0.0941971 
-0.000902761 -0.000360797 0.0817148 
0.0010124 0.0048736 0.0735695 
0.00291667 0.00646692 0.117237 
-0.000232524 -0.000500416 0.0911591 
0.000278453 0.00044186 0.0504445 
-0.000230937 0.000184869 0.0737678 
-0.00489597 -0.00268434 0.0689538 
0.000322506 0.00143609 -0.00341617 
0.000536686 0.0016639 0.000880935 
-3.22849e-06 -4.54862e-05 0.000315587 
-0.00484471 -0.00199047 0.0437646 
0.00138578 0.000515348 0.00430022 
-0.0279538 -0.0134857 0.0791784 
-0.00160127 -0.000765819 0.00419599 
-0.0249132 -0.014981 0.046029 
-0.00668385 0.00301884 -0.0109577 
0.0043613 -0.00135012 0.0114669 
-0.0217218 0.0168647 0.0913606 
-0.0207219 0.0171355 0.0508831 
-0.00076196 -0.0122545 0.133254 
-0.00482316 -0.00882157 0.116373 
-0.000378002 -0.0111704 0.100631 
0.00146053 -0.00727873 0.110724 
0.00375892 0.0168095 0.409555 
0.0212312 0.012012 0.323804 
0.033686 -0.034176 0.197202 
-0.047576 0.0818106 0.152709 
0.000142316 -0.000673568 0.107822 
0.00260742 0.0100913 0.114937 
-0.000206764 0.000424955 0.109761 
0.00272045 0.00855483 0.100905 
-0.000134227 3.79569e-06 0.126331 
0.000210615 -0.000101732 0.114581 
0.000251519 0.0011984 0.0982781 
-0.0026186 -0.0116327 0.121653 
0.031662 0.0247976 0.0576864 
0.0336754 0.00233918 0.00745409 
-0.0215718 -0.0279501 -0.0727355 
0.110056 0.055558 0.2021 
-0.000157457 -7.27603e-05 0.00266436 
-0.000773752 -0.000184992 -0.000807645 
-6.89785e-05 -2.64583e-05 0.000730872 
0.00204847 0.00369159 0.0762072 
0.0155227 -0.00787274 0.0712122 
0.000510539 0.0122582 0.0869528 
0.00759891 0.0240372 0.0460206 
0.0255319 0.006599 0.0995001 
0.000240528 1.03651e-05 -0.00239863 
0.00243928 0.000204333 0.000117241 
-0.000332394 -1.94065e-05 0.0020626 
-0.00532494 -0.00181332 0.0907053 
-0.00882695 -0.0091128 0.109847 
-0.0173805 -0.0229832 0.127497 
-0.0200069 -0.0203698 0.0829163 
-0.016459 -0.0092659 0.0923739 
-0.0111228 -0.0128809 0.11007 
-0.00440182 -0.00308145 0.0795476 
-0.017064 -0.0170866 0.0848312 
-0.0108507 -0.016462 0.12243 
0.00172362 0.00252386 -0.00204308 
-0.00125298 -0.000189017 0.00265822 
-0.00161506 -0.000570283 0.000831562 
-0.00268599 0.0062078 0.00236896 
-0.00481811 0.00218224 0.00106511 
0.00449155 -0.00231125 0.101966 
0.000195723 -0.00241472 0.00475099 
-0.000249807 -0.0031341 0.0936679 
0.00156937 -0.00119103 -0.00466109 
-0.00473396 0.00352498 0.0102526 
-0.00591294 0.00401277 -0.0091205 
-0.0213353 0.0125397 0.10444 
-0.0549445 0.0441351 0.147853 
-0.0440959 0.0430234 0.1815 
-0.0208964 0.0358805 0.437271 
-0.0879861 0.0112088 -0.0259547 
-0.00814986 -0.00188408 0.0675136 
-0.00291964 -0.0027389 0.1064 
-0.00910505 -0.00979136 0.108702 
-0.0156727 -0.00756096 0.095497 
-0.000207151 0.000109584 0.114867 
-0.00184372 -0.00768195 0.110859 
0.001308 -0.000252323 0.0895339 
-0.00116965 -0.00874653 0.096838 
0.0122008 -0.00444985 -0.00965206 
-0.0014638 0.00792123 -0.00169261 
-0.0021663 0.000393377 0.00185718 
-0.0607307 0.0536762 0.0357469 
-0.000319487 0.000386614 0.105792 
-0.00021731 -0.000458166 0.128346 
0.000470723 -0.000905909 0.126975 
-0.0011223 -0.00738083 0.108254 
0.00277856 0.0013188 0 
0.0112621 0.00920453 0 
-0.000960636 0.00440468 0 
-0.0291598 -0.0323861 0.0079594 
0.0316988 -0.00846038 0.0345654 
0.00180311 0.0296661 -0.030647 
-0.00818942 0.0113558 -0.0302817 
0.0744417 -0.0270398 0.140639 
-0.019726 -0.0266487 -0.00226139 
-0.0184704 -0.0284168 0.051892 
0.00317266 0.00041202 -0.00925014 
-0.0161391 -0.0279656 0.0249408 
0.0190851 0.0660073 0 
-0.0269646 -0.0382849 0 
0.0586037 0.0269561 0 
0.0696404 0.0390556 0.132169 
-4.13227e-05 8.0361e-05 0.0861821 
0.000205881 0.000163013 0.107352 
3.47568e-06 -0.000435574 0.0746877 
-0.00444168 0.00120946 0.105343 
-0.0199941 0.00898916 0.106101 
-0.0295715 -0.0255929 0.16751 
-0.0528303 -0.0150724 0.176324 
-0.0232789 -0.0273889 0.119424 
0.00049246 -0.000413612 0.0837685 
7.02896e-05 0.000548283 0.049839 
-0.000161967 -0.000247777 0.0922833 
-0.00473885 -0.00372725 0.0642823 
0.00050918 -0.000620954 0.000837311 
-0.000289616 0.00017288 0.0456669 
-0.000100811 -0.000255942 -0.000344855 
-0.00086562 0.00263549 0.0750242 
0.000520739 0.000142441 0.0613913 
7.84702e-05 7.41505e-05 0.076272 
-9.24146e-05 -0.000857897 0.108285 
-9.79872e-05 -0.00247574 0.0616084 
-0.0140584 -0.0204426 0.108254 
-0.000886972 -0.00176704 0.0839674 
-0.0199158 -0.00455015 0.106675 
-0.0146905 -0.0198635 0.127496 
0.0456917 -0.0288903 0 
0.00843092 0.0838074 0 
0.015739 -0.0360444 0 
-0.00591005 0.139898 0.132013 
-0.00791313 -0.0199257 0.34468 
0.00637073 -0.0166859 0.334057 
0.0288505 0.0338729 0.168725 
0.0744882 0.177274 0.182596 
0.000149389 0.000198056 -0.000105346 
-1.28641e-05 0.000542868 0.0449777 
-0.000271368 -0.000727737 -0.000523647 
2.18993e-05 0.000197256 0.0362638 
0.0262195 0.0645156 0 
0.015956 0.0786966 0 
-0.0190035 -0.0976375 0 
0.0356477 0.111557 0.20309 
-0.00643212 0.00886555 -0.0228451 
0.00772764 0.0164785 0.0262232 
0.0481648 -0.0520934 0.0463516 
0.0686157 -0.0180462 0.118662 
-0.00147635 0.00315811 0 
0.00124442 0.00121583 -0.00212719 
3.98403e-05 -0.00248823 0 
0.000457855 0.00351747 0 
-0.00135143 0.000983831 0.0023497 
-0.000615676 0.000449042 -0.000736858 
0.00130185 -0.000948427 -0.000771939 
-0.00441858 0.000205576 0.0805064 
4.99378e-05 0.000278355 0.002095 
-0.000348478 -0.0013555 -0.00107326 
2.08674e-05 -0.00010342 -0.00419596 
-0.00512206 0.00251883 0.0404336 
0.000413669 -0.000625427 0.000178379 
0.000121413 -0.000481073 0.0430723 
-0.000285582 0.00039062 -0.000927921 
0.000179398 -0.000221069 0.00105835 
-0.000149683 -0.00151369 0.00175464 
-0.000191204 -0.00193359 0.000177952 
-2.95999e-05 -0.000299335 -0.00196823 
-0.00281615 0.0061805 0.0435107 
3.05174e-05 8.3622e-05 0.129051 
-0.000300068 -0.000213786 0.112387 
0.000456584 -0.000213905 0.107079 
0.00237496 0.0102115 0.113282 
0.000123217 -0.000270282 -0.000780514 
-0.000618557 0.00125657 0.0082264 
0.0067162 -0.0152407 -0.0207035 
0.0398842 -0.0308811 0.13752 
-8.11212e-05 -0.000962264 0.000917146 
-0.000394725 3.95198e-06 0.0386747 
6.86724e-05 -0.000606765 9.00521e-05 
0.00235551 -0.00462224 0.0601131 
-0.00701342 -0.0276893 0.158821 
-0.0180235 -0.031003 0.127948 
-0.0271116 -0.0144063 0.0846714 
-0.00599728 -0.0185587 0.126283 
-9.78225e-05 0.000565435 0.133233 
-0.000119741 -3.95648e-05 0.115228 
-0.00335059 -0.00314307 0.107147 
-0.00300465 -0.00514142 0.12743 
0.0124205 -0.0165717 0.182541 
-0.0145528 -0.00486383 0.378245 
-0.0178709 0.00382366 0.332547 
0.0912843 0.134996 0.189264 
8.09062e-05 -0.000163657 -0.00024682 
-0.000485147 0.000975231 0.00166866 
0.000120289 -0.000305261 0.00154045 
-0.00362421 0.00722205 0.0706289 
-0.0022602 -0.000396164 -0.00798807 
0.00171667 -0.00838481 0 
-0.00198778 -0.00594551 0 
0.00120675 0.00434252 0 
-0.000426539 -0.000633918 -0.00116779 
0.000729761 0.00109565 0.00242292 
0.000338127 0.000437089 -0.0015817 
0.00346634 0.00739036 0.0615362 
-0.000319368 0.000137679 -3.52671e-05 
0.000354563 -0.000117058 0.0013817 
0.000222773 -0.000108063 -0.000426448 
-4.52246e-05 -0.000500369 0.0486666 
0.00150377 -0.00426361 0.0213479 
-0.000407739 0.000413318 3.46454e-05 
0.0026631 0.00966407 0.101719 
0.0118123 0.00791764 0.0884956 
-0.00668936 -0.0205502 0.118553 
-0.0102834 -0.0298195 0.118542 
-0.00375685 -0.0111617 0.119194 
-0.0143217 -0.0270316 0.120683 
2.24128e-05 -3.51438e-05 -0.00378856 
-0.00233252 0.00160272 0.00203628 
3.53256e-05 -2.32365e-05 0.000167012 
-0.00401837 0.00407825 0.104669 
-0.0035855 0.00253369 0.00932797 
-0.00125358 0.000925841 -0.00250541 
0.00208269 -0.00153847 0.00420408 
-0.0193831 0.00532383 0.100844 
-0.00459836 -0.0163683 0.118376 
0.00169899 -0.00661445 0.075619 
-0.00111994 -0.00360651 0.0793462 
-0.00179697 -0.00721397 0.108874 
-1.54436e-05 -0.000184097 0.00331856 
-0.000167598 -0.00199788 -0.000218503 
-5.64043e-05 -0.000672375 -0.001798 
-0.0028603 0.00645405 0.0105415 
0.000394562 -0.00073385 0.0803782 
0.000544574 0.000481983 0.10921 
-0.00027339 0.000566635 0.110135 
0.00224738 0.00706071 0.0990279 
-0.0377397 -0.0681776 0.11214 
-0.059491 -0.0183689 0.200092 
-0.0326662 -0.027512 0.18035 
-0.0149571 -0.0261848 0.103247 
0.000345121 0.00039105 -0.000309854 
0.000543551 1.60838e-05 -0.000943127 
0.000969194 0.0007368 -0.000993485 
-0.0036482 0.00093591 0.00519603 
0.00119763 0.00162285 -0.00234771 
0.000192256 0.00028856 0.00286456 
-0.000690838 -0.000964096 -0.00187875 
-0.0116547 -0.0102458 0.0409508 
0.00320969 0.00393065 0.00260679 
-0.000744612 0.00100813 0.00192842 
-0.00813988 -0.00768748 0.0838052 
-0.00814071 -0.00953682 0.0827322 
0.0013341 -0.000116822 0.00141657 
0.00124153 0.000674342 0.000923581 
-0.000982401 -0.00295661 0.0755855 
-0.000374454 -0.00193375 0.0634074 
-0.00028978 0.000497164 0.133218 
0.000409165 -0.000139799 0.13984 
-0.000493579 0.000158509 0.140643 
0.00254333 0.006341 0.142567 
-0.000638519 0.000664345 -0.00141699 
0.000191483 -0.000200174 0.0019385 
-0.000277888 0.00028809 0.00104411 
-0.000135644 -0.00470711 0.0712368 
-0.000579044 -4.83863e-05 -0.00654699 
-0.00636884 -0.000532196 0.00497607 
-0.00207984 -0.000173797 -0.00611309 
0.0273329 0.00919701 0.146539 
-0.00103875 -0.00115055 0 
0.00177136 0.00211161 0 
0.00113822 1.39749e-05 0 
-0.00662914 -0.0110654 0.00456696 
0.00261122 0.0145164 0.11915 
0.00192791 0.0318393 0.125622 
0.00180521 0.0280949 0.125363 
-0.00299998 0.0259685 0.132052 
-0.000451457 -0.0046104 0.00244325 
0.000228756 0.00256407 0.000339334 
6.47104e-05 -6.13224e-05 -0.00534732 
-0.00134347 -0.00987659 0.0319056 
0.0197907 0.0248962 0.160831 
-0.0162608 -0.0223606 0.168563 
-0.0446014 0.0315837 0.241155 
-0.00470218 0.0260097 0.120299 
0.00108863 -0.000545722 0.127945 
-0.00257248 -0.00759421 0.113792 
-0.000299373 0.000125286 0.114562 
-0.00241023 -0.00602945 0.128442 
0.0344407 0.0153152 0.228364 
-0.0134215 0.0122525 0.383383 
0.0373598 0.051416 0.159742 
0.0766818 0.117969 0.132063 
-0.000681942 0.00258004 -0.00056532 
-0.000135185 0.000421157 0.00197001 
0.000139733 -0.000348858 -0.00403008 
-0.00560052 0.00850026 0.0426196 
0.0052989 -0.00373243 -0.0124766 
-0.00630388 0.00443662 0.00732587 
0.0124943 -0.00878475 0.00302798 
-0.0460257 0.0362628 0.190714 
0.000171993 -3.91461e-05 0.0892153 
-0.00016056 0.000242579 0.115307 
-0.000111429 0.000775128 0.105641 
-0.000585414 -0.00789147 0.111292 
-0.00840264 -0.00705504 0.104883 
-0.022024 -0.018573 0.0854994 
-0.0170753 -0.0254457 0.131082 
-0.00781901 -0.0188189 0.125163 
-0.0513746 -0.0387001 0.213717 
0.000448111 -0.00191744 0.360458 
0.0116168 -0.0534588 0.201278 
-0.0300088 -0.0472219 0.00236968 
0.000666081 -0.00130621 0.00226281 
0.000393942 -0.00077455 -0.00168438 
-0.000606738 0.00119053 -0.00101342 
-0.0125984 0.0171715 0.0645033 
-0.00136205 0.0180705 0.081223 
-0.00758032 -0.0252687 0.161487 
0.0114624 0.017035 0.157975 
-0.0168837 0.0354246 0.135057 
4.91271e-05 0.000343745 -9.0574e-05 
-0.00174062 0.00226948 0.0553524 
0.000183993 -0.000193122 0.0010423 
-0.00138237 0.00174175 0.0502901 
0.00655296 -0.0332025 0.423671 
-0.0378465 0.0279018 0.154718 
-0.00137047 0.0247111 0.204937 
-0.057075 0.108218 0.146834 
0.00112961 0.00110944 -0.00105435 
-0.000794043 -0.000779856 0.000772188 
0.000214373 0.000211724 0.00419759 
0.00793325 0.00944051 0.0789568 
-0.0314164 0.00780574 0.101417 
-0.0104372 -0.0206345 0.146173 
0.00149496 0.0134148 0.0924158 
-0.0119681 0.0273558 0.143014 
0.00208862 -0.00655815 0.00570132 
0.0407625 0.003437 0.127186 
0.00878637 -0.0052483 -0.00749687 
0.0103108 0.00496716 0.101097 
-0.00639622 -0.00160747 0.0671065 
-0.00486424 -0.00557767 0.0661569 
-0.00909312 -0.00979855 0.108709 
-0.00452114 -0.00324658 0.107056 
0.000143547 0.00112356 0.05289 
-0.00120562 -0.00445566 0.0789079 
-0.00031259 -0.00132026 0.0954608 
-0.00104153 -0.00341246 0.0666953 
9.53837e-05 0.00011514 0.134171 
0.000533184 -0.000281008 0.128107 
-0.000261447 0.000434357 0.114968 
-0.0022034 -0.00627716 0.128192 
-0.00026321 3.19735e-06 0.00134003 
-0.000446361 -0.000346045 -0.000566723 
-0.000542656 -0.000170426 0.0414389 
-0.00424769 -0.00268769 0.0668479 
0.00102878 0.000280655 -0.00167644 
-0.000514424 -0.00013536 -0.00121401 
-0.00164361 -0.000451126 0.00380877 
-0.00738264 0.000389242 0.0964531 
-0.0001361 0.000674344 0.00204776 
0.00120442 -2.2293e-05 0.068177 
-0.00030056 -9.58727e-05 0.0458267 
-0.000115502 0.0027228 0.0728541 
0.00217721 0.00732127 0 
-0.0122456 0.000744759 0 
-0.00458952 -0.00134387 0 
0.00995525 0.0148066 0.00547824 
0.0013737 -0.00580656 0.0021026 
0.000635527 -0.00271044 0.000411617 
-0.000867421 0.00326475 -0.010687 
0.0165692 -0.0553394 0.0558911 
6.74942e-05 0.000302446 0.0890879 
0.000124442 -0.00743741 0.0589182 
0.000607677 0.000877075 0.0700389 
0.000205103 -0.00830813 0.0966936 
-0.000444116 -0.00139986 -0.000453488 
-0.000291285 -0.00118195 0.00287841 
0.000525399 0.00163529 0.000786657 
0.00314016 0.00751423 0.0418106 
-0.00027132 -0.000114021 0.132459 
0.000256497 -0.000111865 0.115057 
4.39359e-05 -4.82452e-05 0.126207 
-0.00266529 -0.011628 0.120295 
0.000161226 0.000502578 0.0481482 
5.24185e-05 0.000558021 0.0629238 
-0.000230789 -0.00101148 0.0960872 
-0.00130159 -0.0037313 0.0758624 
-9.70893e-05 0.000408415 0.00146834 
0.000711288 -3.71522e-05 0.0531344 
-0.000192098 -6.59219e-05 0.0516923 
0.00115091 0.00197718 0.0725092 
0.000178149 -0.000492143 0.000962209 
-0.00147098 -0.000510058 0.0560869 
-0.000189161 9.54994e-05 0.0397907 
0.000374875 -0.000276338 0.0631337 
-0.000254225 0.000240279 0.0438436 
0.000373332 -0.000255582 0.00058396 
-6.29828e-05 0.000149217 -0.00030442 
-0.00141054 0.000998462 0.0507091 
0.00561924 0.00352997 0.0130695 
0.0252389 -0.0576855 0.106962 
0.00931912 -0.0267246 -0.0295707 
0.0376727 -0.0269854 0.139921 
-0.00359508 0.00040165 -0.00443155 
0.00576224 -0.00054317 0.000812449 
-0.00198995 0.000123641 0.00371749 
0.0136005 -0.00468899 0.0988891 
-0.00220193 0.00551315 0.0145825 
-0.0832292 0.045886 0.158407 
-0.0124706 0.0187109 0.0470101 
-0.0448563 0.0233027 0.0586738 
-1.32332e-05 -0.000554699 0.048682 
-0.000165116 -0.000479064 0.000253625 
-6.76455e-05 2.5202e-05 0.0389464 
0.00113228 -0.00481779 0.0588061 
3.62678e-05 0.000188009 0.0014582 
-6.54649e-05 -9.83006e-05 -0.00430019 
8.51186e-05 0.00109846 -0.00112534 
-0.00470346 0.00254599 0.0412927 
0.0119792 0.0322309 0.144704 
-0.0019716 0.0392719 0.125148 
0.00824732 0.0232878 0.109032 
-0.00468698 0.0252204 0.136431 
0.000716157 0.000130242 -0.000534822 
0.00016547 0.000139992 4.24197e-05 
7.90346e-05 0.000152411 -0.000204279 
-0.00376946 0.00207802 0.00353226 
-0.0282748 -0.0198683 0.0704368 
-0.0400726 0.0247307 0.226293 
-0.0260219 -0.00376697 0.16769 
-0.00926182 0.031536 0.14708 
0.000971923 -4.78644e-05 0.0556753 
-0.000111664 0.000500323 0.0423668 
-0.000687173 -0.00114663 0.0830717 
-2.95109e-05 -0.00443347 0.0640181 
-0.0184031 -0.0174218 0.0895498 
-0.0302758 -0.0243221 0.0810334 
-0.0526043 -0.0194492 0.0926265 
-0.0269732 -0.012319 0.0415233 
0.00108056 0.00104977 -0.00130246 
-0.00121425 -0.00117993 0.00262474 
0.000825511 0.00080043 0.00552378 
0.0188602 0.0191984 0.0762048 
7.78658e-05 1.58943e-05 0.104416 
-0.00221201 0.00713307 0.117572 
0.000807155 0.000848079 0.128429 
-0.00286095 0.00425145 0.100853 
0.0230456 -0.00574133 0.166 
0.0693691 0.0236654 0.158758 
0.065091 0.00102174 0.117263 
0.0174063 -0.0105937 0.10167 
0.0128187 0.0308819 0.144379 
0.00752167 0.0249513 0.111807 
-0.00172458 0.0381682 0.121509 
0.0139606 0.0386451 0.108327 
0.0270436 0.0479134 0.0360374 
0.0120774 0.0205114 0.0761676 
0.0442955 0.0305081 0.098656 
0.0225861 0.0440548 0.109778 
-4.19847e-05 0.00016851 0.00515403 
-0.00414915 -0.0024916 0.00667239 
-0.00258649 -0.00220108 -0.0128516 
-0.0278672 -0.0108173 0.0404668 
-0.00930507 -0.00169697 0.0414241 
-0.0186127 -0.0102918 0.00901334 
-0.0329933 -0.0169699 0.0805243 
-0.0254606 -0.0203981 0.0414438 
-0.000164759 -0.00064612 0.0374225 
0.000252609 0.000514376 0.0641589 
0.00235055 0.00347032 0.0565309 
0.00101311 0.000395458 0.0465886 
-0.0342414 -0.029343 0.381609 
0.0181072 -0.0641297 0.0836075 
-0.0608106 -0.0195286 0.165878 
-0.0701789 0.00263666 0.183625 
-0.000541822 0.00235915 -0.00183195 
0.00424488 -0.0011655 0.10201 
-0.00269978 -0.00154147 0.000724393 
-0.000473519 -0.00265382 0.0937044 
0.000397966 0.000756223 0.0527792 
-7.42083e-05 -4.13877e-06 -0.000487617 
3.81041e-05 -3.55047e-06 0.00110052 
-0.000269011 0.000415093 0.0467032 
0.00668305 -0.0206032 -0.0294197 
-0.0443452 0.0743972 0.119895 
-0.00593536 0.00156708 0.00828201 
-0.0306306 0.0324599 0.0541522 
-8.60805e-05 0.000612408 -0.000490346 
0.000117019 -0.00148342 0.00189064 
-0.000753538 -0.000646178 0.0524273 
0.000313651 -0.000573269 0.0393275 
0.00359426 -0.0347105 0 
0.0404267 0.0512034 0 
-0.00932744 -0.0421151 0 
-0.0485094 -0.0229068 0.129511 
-0.00309802 0.00333016 0 
-0.0034696 -0.00594546 0 
0.00568312 -0.00588918 0 
-0.0044954 0.0377017 0.00950779 
0.000152225 0.000472001 0.0483036 
-0.00039155 -0.00141963 0.095682 
0.000230684 0.000576198 0.0547842 
-0.00124892 -0.00360084 0.0760698 
-0.0016002 -0.00219607 -0.00397618 
-0.000670119 -0.000732286 0.00638058 
-0.00162599 -0.00222772 -0.00387907 
0.0350962 0.0341015 0.0493671 
0.00418506 -0.00962108 0.0993514 
-0.00732142 -0.0061767 0.0774612 
-0.0069846 -0.0158631 0.122239 
-0.0100299 -0.00969674 0.0890616 
0.000343351 0.00148073 0.00262974 
-0.000311307 -0.00136115 -0.0027701 
-0.000687364 -0.00274622 -0.000742379 
0.00246215 0.00448073 0.0102768 
-0.000153506 0.00011392 0.00102437 
0.000341759 -0.000228452 8.49578e-05 
-0.000658417 0.000449282 0.00069676 
-0.0014831 0.00177479 0.0758062 
0.000678796 -0.000277907 0.00721161 
-0.000437195 0.000198892 -0.000651399 
-0.00322426 0.00148447 -0.00125864 
0.00319199 0.00267871 0.108531 
0.00526897 0.0275774 0 
-0.00409014 0.0251182 0 
-0.0474522 -0.0646219 0 
0.0706619 0.0461117 0.13383 
-1.20582e-05 0.000479243 0.143375 
0.000298386 -8.944e-05 0.138621 
-0.000387097 0.000355534 0.134946 
0.000131972 -0.00584679 0.140545 
7.37461e-05 4.09433e-05 0.0438573 
-4.15935e-05 0.000396383 0.0459339 
0.000258043 -0.000459085 0.00103042 
-0.00169449 0.0012841 0.0505107 
0.000346319 -0.00129351 -0.000220108 
0.000422043 -0.00169729 0.00607177 
-0.000669992 0.00246522 0.00237715 
0.00452411 -0.0281046 0.0745375 
-8.15171e-05 7.89394e-05 -0.00069612 
0.000291711 0.000890231 0.0552482 
0.000239497 -0.000170414 0.000350145 
-0.000552223 0.000316337 0.00130348 
-0.0780777 0.00951463 0.147335 
-0.0578095 -0.0288083 0.437041 
-0.0579874 -0.0366819 0.181736 
-0.0540146 0.0827655 -0.0211692 
-0.00352208 -0.000893331 -0.00845674 
0.00483963 0.000946383 -0.0118555 
-0.0115453 -0.00263023 -0.00282973 
0.00521764 0.0279451 0.179873 
0.00038488 0.000246357 0 
0.000291739 0.00326046 0 
-0.00524875 -0.00114656 0 
-0.00129846 0.00405935 -0.000904171 
-0.00140486 -0.000687783 0.00760891 
-0.00359782 -0.00164676 -0.00330645 
0.00201672 0.000921254 0.0022145 
-0.0134828 -0.00633294 0.0886758 
-0.00162898 -0.00333882 -0.00117182 
0.000259713 -0.00109695 0.00230024 
-0.000785273 0.00513071 0.0776537 
0.00130451 0.0123656 0.0978012 
0.0581318 0.062827 0.199935 
-0.00123527 0.0131471 0.360017 
0.00356001 0.0833568 0.214843 
0.030729 -0.00914106 -0.117351 
0.033008 0.0451326 0.125219 
0.0585777 0.0344321 0.0728752 
0.0350431 0.0541241 0.269182 
0.074001 0.0176739 0.0254707 
0.0386901 -0.00682389 0.151644 
0.020391 0.010794 0.117809 
0.0584251 -0.0128387 0.110859 
0.0222061 0.0136482 0.100089 
-0.0557837 -0.0252715 0.219662 
0.0106617 -0.00430018 0.404238 
-0.00325966 -0.054789 0.175978 
0.0235578 -0.134121 0.200725 
-0.00235106 0.00259026 0 
0.0015817 -0.0018265 0 
0.00325941 -0.00161111 0 
-0.00172192 0.0349779 0.00765318 
0.000941128 -7.87904e-05 0.00148384 
-0.00816145 -0.00536864 0.0453308 
-0.000326759 -0.000235771 -0.00564473 
-0.00503797 -0.00155826 0.0396865 
0.0024778 -0.0030577 0.00892152 
0.00392446 -0.00522149 -0.00321877 
0.00117141 -0.00167564 -0.00632676 
-0.0539177 0.0550891 0.0512827 
0.000777253 -0.000575144 0.000287643 
-0.000131783 0.000132476 0.00100497 
0.000505524 -0.000439048 -0.00177136 
-0.00272681 0.000340401 0.0780739 
-2.22362e-05 0.000272572 -0.0016477 
-6.75926e-05 0.000828551 0.000748658 
2.09734e-05 -0.000257092 0.000185998 
-0.000937068 0.00169252 0.0499069 
0.000463145 -0.000217121 0.00147213 
0.00208573 0.00378191 0.0565951 
-0.0001045 0.000575365 -0.000884001 
0.000841888 0.000680332 0.0462855 
-0.0819562 0.00813461 0.118538 
-0.00295206 0.0440469 -0.0284599 
-0.0779417 0.0585503 0.138267 
-0.0627461 0.0201754 0.32385 
0.00883371 0.0219296 0.064139 
0.0296128 0.0347784 0.155259 
0.0453381 0.0292642 0.0970484 
0.0172228 0.0498782 0.114051 
-0.00030201 -0.000205499 0.000325037 
0.000258393 0.000175719 0.000153027 
-0.000923013 -0.000627345 -0.00203817 
0.00852761 0.00875563 0.0863073 
0.00031216 -2.61865e-05 0.00047259 
-0.000173831 1.45823e-05 0.00258072 
0.000208349 -1.7478e-05 -1.84935e-05 
0.0011665 -0.00216644 0.0648278 
-0.00101029 0.000266741 -0.00121837 
0.00285683 -0.000728457 0.00420245 
-0.0005837 0.00015372 -0.000715384 
0.00243091 -0.00453221 0.0790848 
0.000100366 1.12232e-05 0.0715557 
-0.000208324 -0.000650234 0.107265 
0.000233298 0.000175276 0.0938213 
0.00196415 0.0017126 0.0984286 
0.00497082 -0.00505997 -0.00234508 
0.0028305 -0.00289062 0.0145563 
-0.00936444 0.00953619 -0.00206257 
-0.0195366 0.02782 0.141667 
0.0391439 -0.0378717 0.181215 
0.00526286 0.00403665 0.395646 
0.0615247 0.00239524 0.151922 
0.0935217 0.0180624 -0.0122601 
0.0015584 0.00233696 4.2042e-05 
0.00125561 0.00188209 1.72622e-05 
-0.00129139 -0.00188293 0.00106781 
0.00135354 0.00258711 -0.0017205 
0.00104791 0.00103091 0.061426 
-0.000608614 -6.40746e-05 0.107193 
-0.000995474 -0.00558703 0.110687 
0.000429797 -0.00380575 0.0630551 
-0.014462 -0.0220249 0 
-0.0352076 -0.0263547 0 
0.0523113 0.0119156 0 
0.0965927 0.0225097 0.0643321 
-0.000132669 -0.00108676 0.106672 
-8.48677e-05 0.000216251 0.121038 
0.000369542 -0.000378396 0.0943103 
0.0017024 0.00291308 0.0984049 
0.0490147 0.0379414 0.0153619 
0.0377266 0.044061 0.110312 
0.0334233 0.0715557 0.149397 
0.0142895 0.0417422 0.114438 
-8.11694e-05 -0.000296357 0.000185396 
0.000143409 0.000587803 0.000370678 
-3.59038e-06 5.76421e-05 0.00077765 
-0.00118433 -0.000494621 0.0601158 
-0.000309086 -0.000381493 0.115533 
9.09074e-05 0.000162019 0.0916057 
-0.000422958 6.1037e-05 0.115479 
-0.000659987 -0.00805088 0.0955638 
-7.21714e-05 -0.000161763 0.040178 
-0.000167976 -0.000141796 0.000355477 
7.11203e-05 9.77662e-05 -0.000503915 
-0.000364242 -0.000594009 0.0566669 
-0.00158426 -0.00217495 0.00122143 
-0.000152882 -0.000225515 -0.00358678 
9.51665e-05 0.000134454 0.000828273 
-0.00666404 -0.00580075 0.0445479 
-0.011913 0.00328382 0.00878539 
0.00402259 -0.000849394 0.00843632 
-0.00107596 0.000165921 -0.00494971 
0.0652766 -0.0175334 0.122709 
2.21721e-05 8.04381e-06 -2.95899e-05 
0.000331179 0.000256385 0.000408824 
-6.39873e-05 0.000265407 0.0438081 
-0.00160276 0.000949303 0.0507903 
-0.000200428 -0.000677591 0.0478757 
0.000205084 0.00044151 8.61967e-05 
-0.000279551 -0.00045977 9.57964e-05 
7.07407e-05 -0.00016209 0.0351354 
-0.000123713 0.0015951 0.00298199 
-0.000100948 0.00115197 -0.0011755 
0.000245489 -0.00286353 0.00136009 
0.000983736 -0.0131326 0.0400788 
3.15008e-05 0.000346425 0.0745495 
-0.000127681 -0.000160244 0.107346 
9.14432e-05 -4.92767e-05 0.0904013 
-0.00416328 -0.00218226 0.106294 
0.000379229 -0.000850302 0.00144728 
-0.00019754 0.000459246 -0.000478319 
0.000139508 -0.000378859 -0.000582698 
8.19183e-05 -0.000924402 0.0394023 
0.000655358 0.00143191 0.0644354 
-0.000271984 3.33703e-05 0.105816 
-0.000138468 3.50554e-05 0.095276 
-0.00106551 -0.00670724 0.107973 
-0.0411066 0.020741 0.172135 
-0.0303327 0.00906807 0.0451715 
-0.077099 -0.00398322 0.16236 
-0.0476549 0.0254911 0.0676865 
0.00243838 0.00653526 0.120929 
0.00343477 0.0104617 0.0901035 
0.000596371 0.0056457 0.0856058 
6.40069e-05 -0.00909589 0.10729 
0.0192439 -0.0144554 0.0730023 
-0.0687962 0.000178697 0.134695 
-0.0263613 0.00182789 0.0990208 
-0.0129661 0.0142189 0.0470641 
0.000701312 -8.27557e-05 0.124889 
-0.000466812 -9.03063e-05 0.104725 
-7.13362e-06 -0.00021625 0.0935473 
-0.00134919 0.00800189 0.117151 
0.00117405 -0.00501296 0 
-0.00164493 -0.0111793 0 
0.00695371 0.00209077 0 
-0.0151137 0.0257052 0.00557981 
-7.35321e-05 -0.000261747 0.0759588 
-0.00214309 0.0029028 0.0557264 
0.000200092 -0.000363252 0.074393 
-0.00383635 0.00459565 0.100163 
-0.00158602 -0.00195836 0 
-0.000688688 -0.00128433 0 
0.000552443 0.00229878 0 
-0.00103909 -0.00231513 -0.000295725 
0.000115938 -0.000125309 0.000550202 
-0.000133388 -0.000841668 0.0490779 
0.000184733 0.000697468 -0.000417272 
-0.000147363 -0.000276319 0.0435161 
-0.00130875 -0.0106584 0.0944491 
-0.00636506 -0.0179178 0.123081 
0.00566761 -0.0105905 0.102158 
-0.00504519 -0.00784667 0.0933889 
0.00283627 0.0255043 0 
-0.00806263 -0.00920919 0 
-0.00168705 -0.0117758 0 
-0.0300342 -0.0654469 0.0398431 
-0.000569264 0.000776971 0.000893683 
0.000841189 -0.00117977 0.00198641 
0.00035127 -0.00047606 -0.00090429 
-0.0115966 0.0137096 0.0686432 
8.46112e-06 1.40374e-05 4.20291e-05 
3.05166e-05 -0.000341886 0.0391068 
6.86283e-05 7.92461e-05 -0.00045062 
-0.000286229 -0.000385956 0.000611521 
-0.00330158 -0.000302418 0.00831576 
0.0132503 0.000233992 0.0105566 
0.000473969 0.00871948 -0.0156112 
0.0589529 0.0117856 0.0618175 
-0.0137325 0.00488793 0.11679 
-0.00270918 0.0113645 0.0880572 
0.00413955 0.00373836 0.0793106 
-0.0137471 0.0215607 0.139905 
-0.00564584 0.00273631 -0.00493475 
0.00957134 -0.00448205 -0.00187916 
0.00367903 -0.00189579 0.0105802 
-0.0256689 0.0136934 0.0422926 
-0.00209856 -0.00218734 0.00126211 
-0.00222159 -0.00151037 -0.000397858 
0.00175266 0.00177551 0.000232099 
-0.00168918 -0.00168079 -0.000986032 
-0.000160331 -0.000367745 0.07439 
-0.0018331 0.00302901 0.0553083 
-0.00393547 0.00651082 0.0710025 
-0.00327807 0.00463751 0.100047 
-0.000231049 -0.000226929 -0.000196535 
0.000563739 0.000553582 0.000865465 
-0.000397993 -0.000391198 0.000790944 
-0.006105 -0.00522083 0.0636698 
0.000209753 0.00100226 -0.000299039 
0.00096636 -0.000173036 -0.0010581 
0.000433418 0.000162116 -0.000737133 
-0.00356117 0.00240722 0.00633116 
-0.000665421 0.0032401 -0.000121565 
0.00126537 -0.00176175 -0.000893192 
0.0024264 0.002443 -0.00172522 
-0.00569137 0.00851118 0.00816642 
0.0641116 0.02992 0.201666 
0.10006 -0.0324836 0.0978385 
0.0392831 -0.0220626 0.349911 
0.0330002 -0.0124007 0.280727 
0.00890721 0.000317287 0 
-0.00759775 -0.0107525 0 
0.0111685 -0.00215642 0 
-0.0390412 -0.0273913 0.0179733 
-0.00884556 -0.0104838 0.108532 
-0.00215931 -0.00215169 0.128494 
-0.00509215 -0.00322994 0.106217 
-0.00135138 -0.00520779 0.127696 
-4.57307e-06 0.000464328 -2.79837e-05 
-0.00021862 -0.000472141 0 
0.000198952 0.000617839 0 
0.000163228 0.000255919 0 
0.0357008 0.0692539 0.162165 
0.0577835 0.0208234 0.0846727 
0.0216382 0.0446345 0.166073 
0.0131677 0.0429547 0.11181 
-0.0181523 -0.0271819 0.34274 
-0.000148467 -0.0634623 0.120688 
-0.0672947 4.92624e-05 0.183354 
0.0061295 -0.026735 0.275018 
0.0180516 -0.0120339 0.364239 
0.00723342 -0.00152616 0.324529 
-0.018826 0.0024085 0.360867 
-0.0991088 0.0436423 0.308966 
0.000877939 0.00077005 0 
-0.000322143 0.00185038 0.000132908 
-0.000473124 -0.00119414 0 
0.000387823 0.00104162 0 
-0.000141144 -9.18715e-05 0.0926692 
0.00227044 0.00767066 0.115973 
0.00136615 0.00454317 0.0761358 
0.00232352 0.00629258 0.102266 
-0.000681428 -0.000290626 4.86141e-05 
0.00118996 0.000503335 -0.000498183 
0.000815059 0.000354846 0.000657198 
-0.00791362 -0.00330976 0.0797966 
-0.00547315 -0.0272185 0.337939 
0.000367803 0.0327816 0.171513 
-0.00626507 -0.00948973 0.352544 
0.0272084 0.102146 0.220076 
-0.0273617 0.0285308 0.0420448 
-0.028665 0.0594792 0.102372 
-0.0379922 0.0656299 0.0855189 
-0.00767248 0.0376634 0.121138 
-0.00142399 -0.00139735 -0.00367356 
0.00267135 0.00262381 0.00727973 
-0.000553191 -0.000577665 -0.00695957 
0.021406 0.0239534 0.0795805 
-0.00063838 -0.000697502 0.000676652 
7.56385e-05 0.000319111 0.000277091 
0.000741066 0.000459686 0.0530251 
0.00194042 0.00158425 0.0743671 
0.00206216 0.000788637 0.00269791 
-0.00853434 -0.00179936 0.0796567 
0.00401812 -0.00140795 0.00169971 
-0.00353446 -0.00315881 0.0868059 
0.000664364 0.000271528 0.000835349 
-0.00185643 0.00184141 0.0554676 
-5.92242e-05 0.000265251 0.043815 
-0.00171267 0.00100261 0.0505191 
-9.4227e-05 -0.00083983 -0.00108744 
-0.000420431 0.0011573 0.0466345 
0.000315984 0.00105899 0.00172199 
0.000372212 0.00015497 0.0402777 
0.0254723 -0.00692929 0.22383 
-0.00470979 -0.00686073 0.3242 
0.027377 0.0309226 0.159825 
0.0498894 0.132479 0.127049 
-0.000830048 -0.00230207 0 
0.00470811 0.00397939 0 
0.000848279 0.00507513 0 
-0.0164244 -0.0238251 0.00508684 
0.0482655 -0.0170117 0 
0.0568918 -0.0121267 0 
-0.0547001 -0.00240572 0 
0.111028 -0.00675244 0.206362 
0.000795021 -0.000239154 0.109865 
-0.00113119 0.000301217 0.109602 
-0.000306118 -0.00114366 0.0731012 
0.00127629 0.00688278 0.122655 
-3.51876e-05 -0.000319675 0.0372051 
-2.7298e-05 0.000269039 0.0438332 
0.000511664 0.000122486 0.000428343 
-0.00192465 0.00197605 0.0557781 
0.000438587 -0.000285615 0.000212684 
-0.000322631 0.000197223 -0.000547043 
-0.000129532 0.000120962 0.00104738 
-0.000165886 -0.000426959 0.0483044 
0.00026945 0.000887703 0.0957975 
-0.00016157 0.000170737 0.0819504 
-0.000252534 -0.000739552 0.051952 
0.00124807 0.00325882 0.0705172 
0.0017955 0.00128148 -0.00232374 
0.00152739 0.00098802 0.00564407 
-0.00187566 -0.00132925 0.00172278 
-0.0250467 -0.017804 0.0438801 
0.00246062 0.0721558 0.0755572 
0.0052131 -0.05536 -0.063691 
0.0475377 0.0761389 0.0878187 
0.0251248 0.0447113 0.215846 
-2.67856e-05 0.000389498 1.74106e-05 
2.7323e-06 -3.97312e-05 0.000299995 
-8.06181e-06 0.000117229 -0.000101207 
5.17098e-05 6.20915e-05 0.0439977 
-0.00015289 6.36248e-05 0.0862437 
7.88652e-05 5.28149e-05 0.0458019 
1.21506e-05 -4.30399e-05 0.075221 
-0.00198259 0.0018766 0.0504574 
0.000652066 -0.000386543 0.00207593 
-0.000698582 -0.000792597 0.061585 
0.00022629 0.000307246 -0.000270491 
-5.83262e-05 -0.000375403 0.048676 
-0.00018359 -0.000614651 -0.000245567 
0.000164962 0.00048805 -0.000552636 
-9.88466e-05 -0.000228837 0.00109684 
-0.00223862 -0.00163363 0.0397789 
-0.00343182 -0.00213627 -0.00301969 
-0.00470091 -0.0029748 -0.00326096 
-0.00363376 -0.00257655 0.00624136 
0.00430241 0.00281099 -0.000198566 
-0.0122634 0.0136247 0.378507 
0.0213025 -0.0197361 0.202358 
-0.0029149 0.0145329 0.316644 
-0.0141657 -0.119386 0.173946 
-0.00249778 -0.0322589 0 
-0.0167571 0.0215043 0 
-0.00870838 -0.0233602 0 
-0.0373783 0.115719 0.0393583 
0.00924628 -0.0308855 0.131779 
-0.0159462 -0.0271803 0.128634 
-0.00657634 -0.0268834 0.158936 
-0.00643607 -0.0194382 0.127486 
0.0116016 -0.0518753 0.197095 
-0.0267732 -0.0694516 0.0362984 
0.00108733 -0.0135546 0.386869 
0.0190064 -0.0105881 0.291819 
0.000697277 -0.000714112 0.0690106 
2.53103e-05 0.0015003 0.113315 
-0.000315873 0.000330476 0.0792837 
8.73144e-05 0.00402032 0.0707886 
-0.000269929 -0.00100341 0.000964499 
-4.77084e-06 -1.14642e-05 0.0389546 
-1.06108e-05 3.03993e-05 -0.00031145 
-8.29048e-05 -3.49787e-05 0.0499166 
-0.000591575 -0.000358805 0.110249 
0.00091956 0.000733279 0.13154 
-0.000915093 -0.000183942 0.127057 
0.00118344 0.00815633 0.121435 
-0.000340618 -0.000515195 9.98189e-05 
0.000352849 0.000536929 -0.000169903 
6.90297e-05 -0.00138737 0.000328934 
-0.000794744 -0.00115422 -0.000751108 
-0.0507333 -0.0052782 0.133713 
-0.0278745 0.0250554 0.204221 
0.00990213 -0.0018732 0.345442 
-0.127654 -0.00564539 0.0311105 
0.000248854 0.000491721 -0.0012381 
-0.000255668 -0.000556335 0.000548959 
1.89466e-05 0.000109376 0.000922627 
0.00259957 0.0043209 0.0582117 
0.0867305 0.0477809 0 
-0.112395 -0.053115 0 
0.112992 0.0208049 0 
0.103235 0.0419347 0.228196 
-0.000106307 -1.69583e-06 -0.000639011 
-0.000267069 -3.48498e-05 0.00152414 
0.000255196 1.00083e-05 0.000926554 
0.0013202 0.00141439 0.0755917 
0.0145048 -0.0155686 0.370559 
-0.0168318 0.020467 0.198481 
0.00331341 0.046716 0.160108 
-0.00888577 0.066194 0.180923 
-0.000469394 -0.0016124 0.0958962 
-0.000198291 0.000533274 0.111063 
0.00305557 0.0076213 0.116009 
0.00204176 0.00773444 0.0992577 
6.43201e-05 6.24097e-06 -0.000213235 
5.22311e-05 1.23699e-06 0.00077062 
-0.0012635 -0.000107692 0.000516782 
0.00164134 0.0015155 0.0882843 
-2.12163e-05 -0.000259851 0.000540835 
-3.75715e-05 -0.000460165 7.2068e-05 
2.24938e-05 0.000275498 -0.00118988 
-0.00101867 0.00168719 0.0491008 
0.000332535 -6.30893e-06 0.133809 
1.22744e-05 -0.000383144 0.115316 
-8.8099e-05 0.000350472 0.108203 
-0.00382112 -0.00286975 0.106334 
-0.00183365 0.00190692 -0.00210068 
-0.00396974 0.0128254 0.00831517 
-0.00164013 -0.00357118 -0.00362703 
-0.00587708 0.00195395 0.00557411 
0.000131654 -0.000589918 -0.000925604 
0.000278404 -0.000778366 0.00338033 
-6.35438e-05 0.000287984 0.000483794 
0.00170107 -0.00874406 0.0597021 
0.000352651 0.000547963 0.000305269 
-0.00152745 0.00143988 -0.0014041 
-0.0008954 -0.00256036 -0.000191591 
0.000963449 0.00174109 0.00384409 
-0.000400782 -0.00234944 0 
2.22491e-05 0.00157301 0 
-0.000659263 -0.00214575 0.00142719 
0.000684233 -0.00235644 0 
-0.000452168 -0.00531962 0.076936 
0.000266873 -0.0106226 0.109343 
0.00231582 -0.00842424 0.0982912 
-0.0011256 0.00107048 0.0645908 
0.0305746 -0.0288708 0 
0.0413959 -0.0213103 0 
-0.024164 0.0354987 0 
0.102548 0.00836591 0.179934 
-8.30835e-05 5.31708e-05 0.0703548 
-0.000518268 -0.000560143 0.0890787 
-0.000317259 0.000507974 0.0470351 
0.00125639 -0.00609577 0.0583862 
-0.00660154 -0.0272351 0.155881 
-0.00718402 -0.0182399 0.12583 
-0.0272894 -0.014463 0.0851764 
-0.00868989 -0.00688917 0.0894151 
-0.00981915 -0.0268309 0.112892 
-0.0323433 -0.0507157 0.112853 
-0.00367968 -0.0325319 0.101854 
-0.018234 -0.0348738 0.130524 
0.000446832 0.000434728 -0.000401286 
1.72551e-05 3.37812e-05 0.000372276 
-0.000466767 -0.000512482 0.0409517 
-0.0006598 -0.000647194 0.000472354 
0.000356208 0.000697978 0.0456559 
-0.00014689 -0.000394032 8.44117e-06 
-0.000490904 0.00043727 0.00158129 
1.16713e-05 0.000526001 0.0695412 
0.0012044 -0.000896079 0.001919 
0.000534645 0.00281089 7.96217e-05 
-0.000827872 -0.00128393 -0.000108618 
-0.00393718 -0.00153773 0.000272015 
0.0095789 -0.00509139 0.0991547 
-0.00668619 -0.018902 0.123563 
-0.00574728 -0.0297632 0.155917 
-0.0100339 -0.00399313 0.0924091 
-0.0344665 -0.0448685 0.211749 
-0.0238806 -0.00514019 0.340518 
0.000186816 -0.0790085 0.119767 
-0.0349718 0.0342872 0.25814 
-0.000524205 0.00224107 0.000166821 
-0.000234307 0.000863889 0.00260329 
0.000244822 -0.000981506 -0.00127335 
-0.00359699 0.00814496 0.0086198 
-0.00348533 -0.000693322 0.0033799 
0.00570407 0.00128191 0.00162781 
-0.0117253 -0.00586773 -0.00614777 
-0.00243561 -0.000444594 0.00430276 
0.000378384 -0.000162312 0.0428865 
0.000625475 0.000973626 0.00227928 
-1.07174e-05 -5.47286e-05 0.0522769 
-0.000944994 -0.00306382 0.0640739 
-2.3457e-05 3.94474e-05 0.000196411 
0.000321079 -0.000715039 -0.000634513 
-1.33839e-05 0.000835363 0.0444691 
-0.00050646 0.00112038 0.00108882 
0.00661114 -0.0190488 0.345001 
0.0308609 -0.00891634 0.352377 
-0.0597087 0.0150561 0.202428 
-0.158993 0.0295032 0.21422 
0.0100824 0.0246791 0.169907 
-0.0395555 0.0321167 0.222788 
-0.0151899 0.0725458 0.138734 
-0.00266174 0.0257699 0.127664 
0.00372446 -0.000257192 -0.00138745 
0.000559041 -0.000390606 -0.00184227 
-0.0194704 -0.0127958 0.018373 
-0.0250387 -0.0146351 0.0309258 
0.0330571 -0.00115709 0 
-0.00793549 0.0147601 0 
-0.0322054 -0.00969707 0 
-0.0701141 -0.0446088 0.0441524 
-3.13107e-05 1.02244e-05 0.000178824 
-0.000714372 0.000166324 -0.00119535 
0.000913372 -0.000228149 0.000307662 
0.00192664 -0.000909011 0.0793847 
2.41824e-05 -0.000347125 0.000134016 
-3.39849e-05 0.000376312 0.00048586 
2.04593e-05 -0.000393591 0.000717384 
-0.000827757 0.00220364 0.0501897 
0.00359355 0.000905622 -0.00140747 
0.00239668 0.000738785 0.0052159 
-0.00183964 -0.000567017 -0.00400088 
-0.0235617 -0.0147719 0.103524 
0.00124442 -0.015196 0 
0.00342669 0.0164906 0 
-0.00537291 -0.0101547 0 
0.0259082 0.0038541 0.00801517 
-0.0424525 0.0643056 0.0766562 
-0.00427169 0.0363039 0.0474562 
-0.0807909 0.0451141 0.159882 
-0.0565835 -0.00837645 0.0594928 
0.0180121 0.0222691 0.0961341 
0.0400934 -0.00950388 0.068846 
0.00568908 0.0225036 0.0408423 
0.0248693 0.00693344 0.104734 
-0.018468 -0.0146383 0.088186 
-0.00792163 -0.0165308 0.125066 
-0.00533063 -0.00610695 0.0728848 
-0.010318 -0.00970414 0.089721 
-0.00450325 0.00770048 0.0715915 
-0.00125762 0.00274929 0.0551376 
-0.00661996 0.00483631 0.0768725 
-0.00253364 0.00477502 0.100056 
-0.000172016 4.90891e-06 0.10553 
0.000349155 -0.00109939 0.128227 
5.78183e-05 6.04673e-05 0.0962592 
-0.00111102 -0.00675741 0.106903 
4.41048e-05 -0.00104504 0.0533282 
-0.000426388 9.10132e-05 0.00127464 
-0.000161973 0.000531413 -0.000153802 
-1.70676e-05 -0.000259246 0.0484384 
-0.000137295 -0.000334549 0.00132274 
0.000426318 0.000875652 0.000815315 
-0.000428675 -0.000910026 7.1135e-05 
0.00274963 0.0068141 0.0561456 
0.000259698 -0.000836896 -0.000428789 
0.000120748 0.000280094 0.000170807 
-0.000422642 0.000980729 0.0476791 
0.000107339 0.000298994 0.0399146 
0.105154 -0.0816193 0 
-0.0847974 0.0538429 0 
-0.0988343 0.0314124 0 
-0.0982997 0.0317325 0.196623 
-0.00903804 0.0861885 0.178224 
0.0903334 0.0459834 0.135713 
-0.0128718 0.105076 0.394347 
-0.0460895 0.0706791 0.074158 
-7.97545e-05 0.00101491 -0.00124555 
0.000266888 -0.00321651 0.000490759 
-0.000113224 0.00124379 0.0022625 
0.000374854 -0.0167618 0.0375499 
-0.00450385 -0.00216193 0.000856271 
0.00627911 0.00306788 0.000919803 
0.00508724 0.00246012 -0.000253967 
-0.0103308 -0.0135473 0.122558 
-0.00164189 0.0013335 0 
0.00434046 -0.00031263 0 
0.000509736 -0.00488684 0 
-0.00727284 0.013775 0.00199806 
0.0404653 -0.00650511 0 
0.000889348 0.0130992 0 
-0.0105294 0.00668733 0 
0.0612995 0.0322825 0.0671652 
0.000347506 0.00026206 0.000583924 
0.000113303 -7.50351e-05 0.0366896 
-2.04547e-05 0.000291021 0.00041136 
-0.00204401 0.00162894 0.0564608 
-0.000218682 -0.00374403 -0.00619149 
-0.0124405 0.0057589 0.0132687 
0.00567484 0.00276689 -0.0139157 
-0.0449064 0.0153888 0.0412753 
0.000149766 0.000134878 0.000381654 
-0.00054958 -0.00052954 -0.000611146 
0.000742588 0.000710643 0.000936839 
0.00042237 0.000799576 0.0390413 
-0.0300492 -0.0429056 -0.0642229 
0.0354673 0.0530639 0.0609711 
0.00975367 0.0663384 0.0572985 
-0.0136808 0.0566227 0.218068 
0.00200421 -0.000153588 0.00427937 
0.000436931 -4.07868e-05 -0.00116264 
-0.00315714 0.000270506 0.00145528 
0.0148316 0.00117829 0.0896076 
0.000420684 0.000220164 -0.00153286 
-0.00393199 -0.00187194 -0.00072262 
-0.000114005 -0.00012142 0.00541616 
0.00189212 0.00315585 0.101181 
0.000197833 0.000138437 -0.000218366 
-6.0603e-05 -4.64448e-06 -0.000961469 
0.000325808 0.000153882 0.00165847 
8.34439e-06 0.000514796 0.039735 
0.000605849 0.000245704 -0.000603192 
-0.00079129 -0.000319621 0.000836478 
-7.94408e-05 -2.10302e-05 0.000500999 
-0.000413785 -0.000619508 0.0428247 
-0.000205345 0.000736673 0.000632163 
2.22749e-06 -6.19393e-05 0.000575373 
7.94648e-05 -0.000280213 -0.000297151 
-0.0012523 0.00284583 0.0560864 
0.000257393 3.96688e-05 0.124999 
2.15536e-05 -2.96839e-05 0.128338 
-0.000389341 -0.000125024 0.105073 
-0.000905074 0.00790156 0.116431 
0.0250487 -0.00791084 0.0480884 
0.0526453 0.0178127 0.144776 
0.0141394 -0.00167337 0.122934 
0.0268714 -0.00767966 0.120064 
0.00234061 0.000201325 -0.000190486 
-0.00185453 -0.000159515 0.000872367 
-0.000544976 -4.68755e-05 0.00112929 
0.000942616 0.00229707 0.0885803 
-0.00609577 0.0623201 0.0605034 
0.000363246 0.00109781 0.000401109 
0.0332872 -0.0321087 -0.00449224 
0.00717147 0.052911 0.152909 
0.000303411 0.00067786 -0.000349316 
0.000566445 0.0012857 -0.000323154 
-0.000403591 -0.000951001 -0.000339088 
-0.000174316 0.00184749 0.000108435 
-0.00424391 0.0104263 0 
-0.00758147 0.00637753 0 
0.00444624 -0.00226513 0 
0.00105639 -0.00496977 -0.0113329 
-6.3434e-06 -2.12308e-05 0.0484888 
1.30659e-05 0.000572033 0.0390189 
0.000146764 -9.9878e-05 0.0691332 
0.000799819 -0.00548529 0.0578581 
9.46414e-05 -0.000130061 0.00031769 
0.000889846 -0.00122011 -0.00137413 
-0.000821922 0.00112936 -0.00249452 
-0.0139414 0.0167231 0.070618 
0.000229926 0.000139061 0.0409912 
-0.000188082 0.000223913 0.0506979 
0.000119794 -0.00050141 0.0838728 
-0.00420988 -0.00320569 0.0629492 
0.000655397 0.000130818 -0.00276868 
0.000789452 0.000226598 0.00222521 
-0.000802917 -0.000174456 0.0022486 
-0.00595061 -0.00517199 0.084402 
-0.000211809 5.37703e-05 0.00142222 
-0.000102959 6.04088e-05 -0.000600747 
0.000163494 -6.75888e-05 -0.000114403 
2.13992e-05 0.000418132 0.0459622 
-0.000285358 0.000854821 0.000609617 
0.000163743 -0.000807932 0.0428164 
0.000284027 -8.23686e-05 0.000247424 
0.000931984 -0.0019477 0.0670585 
0.000188548 0.00037166 0.128123 
3.63275e-05 0.000599159 0.131919 
0.000203584 -0.00102833 0.110412 
0.00180525 0.0080478 0.120861 
-0.0398541 0.0167039 0.0269347 
-0.0193032 0.0253297 0.0347958 
0.00842579 0.00205324 -0.031101 
-0.0501683 0.04877 0.0830125 
0.000179387 0.000317016 -0.00245748 
-0.000897682 -0.00298351 -0.000339142 
-1.96998e-05 3.46811e-05 0.000898451 
0.0037712 0.0109541 0.0415467 
-0.00271262 0.00294109 0.0811345 
-0.00431096 0.00957305 0.0891708 
0.0038415 0.0175868 0.116061 
-0.00416919 0.0243193 0.136652 
0.0362926 -0.0417905 0.168479 
-0.00454608 0.0157614 0.334879 
0.0607526 0.00324351 0.247003 
0.108196 -0.0189187 -0.01123 
0.000140944 0.000717859 -7.41101e-05 
5.42743e-06 -4.24984e-05 0.000251554 
-0.000100755 -0.00063978 0.0504382 
-0.000160378 -0.000380793 0.041259 
7.62023e-05 -2.91979e-06 0 
-0.000279452 0.000544956 0 
-3.3864e-06 -0.00119086 0 
-0.000102229 -0.000602471 0.00018583 
-0.0336774 0.0407474 -0.0760609 
-0.000470816 -0.0646201 0.0726548 
0.0570343 -0.0723612 0.0857184 
-0.00627814 -0.0402 0.215476 
-0.0146685 0.0686555 0.171052 
-0.0477214 0.0541131 0.0953428 
-0.0206268 0.0667623 0.110651 
-0.0112798 0.0363228 0.103262 
-0.00551578 0.00205948 3.13123e-06 
-0.00319311 0.00178677 0.00219563 
0.00407283 -0.00554988 -0.00195379 
-0.0176435 0.0171442 0.0121907 
-0.00354878 -0.00345209 0.00243457 
0.0012885 0.00112305 -0.00506291 
-0.000543375 -0.000464234 0.00243538 
-0.0137519 -0.0118235 0.0131057 
-2.49207e-05 -0.000516574 0.00114449 
-1.06077e-05 -0.000118167 -0.00014875 
-1.09636e-05 -2.11199e-05 -0.000785243 
0.00044188 -0.000302817 0.0472677 
5.7123e-05 0.00018553 -0.000400386 
0.000390717 -0.000381454 0.0478161 
-0.000915384 -0.00107758 0.00178019 
-0.000274196 -0.000134957 0.0416718 
0.000113174 0.00161313 -0.00095967 
-0.000134293 -0.00191415 5.62027e-05 
3.22159e-05 0.00045919 -0.00118662 
-0.00114181 -0.00267637 0.00131295 
-0.00315651 0.00118533 0.00162723 
0.00295352 0.00585161 -0.0122165 
0.0215825 -0.0143761 0.0205438 
-0.0159735 -0.0239533 0.0269344 
-0.000114033 0.000425221 0.127704 
-0.000688536 -0.00123659 0.109627 
0.00252158 0.00871869 0.115274 
0.00297918 0.00818434 0.122064 
-0.000147065 0.000143438 0.0755981 
6.96665e-05 -0.000149932 0.0436847 
-0.00202269 0.00228592 0.0557181 
-0.00174183 0.00146823 0.0502122 
-0.001727 0.00619358 0.0133573 
-0.00145306 0.00611515 -0.00711287 
0.000734657 -0.00289576 -0.000382869 
0.02291 -0.0677426 0.0662068 
0.000984805 -0.00179444 0.0129265 
-0.00148645 0.00313698 -0.00646902 
0.00194207 -0.00489624 -0.0158292 
0.0313008 -0.0586953 0.103474 
-0.00609281 0.000419 -0.013516 
-0.0155686 0.00107065 -0.0126202 
0.0202866 -0.0013951 0.0195713 
0.0174261 0.00863278 0.015853 
0.000134741 0.000157482 0.111978 
-1.81631e-06 0.000756334 0.126549 
0.00020295 -0.00120837 0.0963861 
0.00235047 0.00790915 0.114664 
0.00110147 -0.0014063 0.0625608 
-0.00113591 3.39911e-05 0.00129887 
-0.000841356 0.000855179 0.000391661 
0.00185677 -0.00168475 0.0630801 
0.012106 0.0037579 0.104266 
0.0226601 0.0757846 0.139227 
-0.0130127 0.0583225 0.109374 
-0.0154107 0.0364245 0.130938 
-0.000219176 0.000155362 0.0392108 
0.000848588 -0.000478693 0.0621039 
-0.000152978 -0.000527583 0.00146324 
0.000611267 -0.00124379 0.0614518 
-0.000175192 -0.000382298 -0.000267477 
-0.000358206 0.000301246 0.00171284 
0.000619703 0.000938743 0.0690932 
1.45489e-06 0.0002 0.0460865 
-0.000539139 -0.000320365 0.0863423 
-0.00014771 0.000307021 0.0901539 
0.000570688 -0.000311805 0.115853 
-0.0037534 -0.00276653 0.106145 
-0.0035496 -0.0146612 0.0982889 
-0.00950058 -0.0148523 0.0869648 
-0.00709857 -0.00236206 0.0791 
-0.0110264 -0.0250399 0.129717 
0.038834 -0.0106386 0 
0.029488 0.00793639 0 
-0.0344131 0.0303968 0 
-0.0798001 0.0799766 0.0535344 
0.0129349 -0.00291561 0 
-0.0183888 -0.00202096 0.00705095 
-0.0135058 0.0056813 0 
0.00304213 0.00533802 0 
-0.000891667 0.00302979 0 
-0.000348119 -0.00231609 0 
-5.68561e-05 0.00206482 0 
-0.000778671 0.00333566 0.000902899 
0.000117667 -6.32955e-06 0.0379189 
-0.000141524 9.81937e-05 3.77976e-05 
-0.000107371 1.17402e-05 0.0348402 
0.00106713 -0.000462398 0.047286 
-0.0610113 0.0692322 0.0968213 
-0.0146521 0.061145 0.0852635 
-0.0505127 0.0458049 0.229065 
-0.00655685 0.00541937 -0.0525792 
0.000363215 0.00131753 0.00129845 
0.000208769 9.97751e-05 0.0309248 
-0.00014828 -0.000153357 -0.000425992 
-5.54037e-05 0.000194923 0.0458787 
-0.00146443 -0.000378669 0.00620557 
-0.00472157 -0.00126328 0.00252795 
0.00155825 0.000411637 -0.00301185 
-0.00859832 -0.00710159 0.0991584 
-0.0023182 0.00340716 -0.00521616 
0.00581192 -0.00855283 -0.0016102 
-0.00289072 0.0042628 0.01276 
0.0148088 -0.0216791 0.140156 
-0.00445025 0.00343049 0 
-0.00597218 -0.00819455 0 
-0.00277609 0.00083598 0 
0.0300095 -0.0101602 0.0097196 
-0.000993814 -0.000675519 0.00197108 
-0.000475267 -0.000323622 -0.00150906 
0.000664096 0.000451476 -0.000995533 
-0.00599228 -0.00531891 0.0671946 
-0.00259798 -0.00452914 -0.0120625 
0.00654237 -0.0093863 0.190127 
0.0662463 0.050224 0.104689 
-0.0286891 0.022963 0.188034 
-0.000830959 0.000209585 0.116286 
0.000297393 0.000693645 0.132533 
0.000659841 -0.000376581 0.134387 
-0.00268462 -0.00534262 0.126991 
-0.00505461 -0.00591911 0.0790675 
-0.0105987 -0.0100201 0.110654 
-0.00184579 -0.00841567 0.11694 
-0.00675292 -0.0173917 0.119039 
8.2551e-05 0.000410086 0.102465 
0.000776075 -2.72941e-05 0.122052 
-0.000619156 -0.000135635 0.0863185 
-0.00371559 0.00164098 0.105771 
0.0159872 -0.00432389 0.0642939 
0.0259055 -0.00840253 0.117716 
0.00365145 -0.00180112 0.115194 
0.0232098 0.0104777 0.100149 
0.000451805 3.1988e-05 0.000245411 
2.7712e-05 1.96202e-06 0.000207333 
-0.000107167 -7.58749e-06 0.000556511 
-0.000538669 -0.000978979 0.0557248 
-0.052611 -0.0177245 0 
-0.0257409 -0.0138638 0 
0.0104705 0.0564452 0 
0.0423309 0.109638 0.0644826 
0.00623147 0.0149377 0.086397 
0.00516779 0.0220024 0.109511 
0.0192578 0.0271076 0.0762915 
0.0163404 0.0424184 0.109596 
0.000171907 0.000953438 0.0962542 
-0.000214636 -0.000216004 0.0522252 
0.000115471 -0.000367435 0.0538351 
0.00137919 0.00281756 0.0696136 
-0.000464016 -0.000564241 0.0486018 
4.38431e-05 -0.000598839 -0.000145287 
-4.00421e-05 0.000546921 -0.000223163 
4.57509e-05 -0.000624896 0.000392668 
0.0220245 -0.0358035 0 
-0.000255561 0.0314575 0 
-0.00933744 0.0244281 0 
0.0632197 -0.0597779 0.0514972 
-0.0273783 0.0068827 0 
-0.00325888 -0.0143946 0 
0.0351668 -0.00644367 0 
0.0888934 0.031425 0.0848401 
4.29406e-05 0.000175905 0.0311039 
0.000185371 -0.000288053 -0.000386309 
-0.000127343 0.000126251 0.0373224 
-5.88914e-05 -5.12599e-05 -0.000149133 
-0.000349547 -0.000434048 0.0418392 
-0.000706165 -0.000416142 0.00134489 
0.000154515 8.23723e-05 -0.000530735 
-0.000173486 -0.000133765 -0.000528213 
5.58173e-05 0.00123664 0.0531533 
-0.00059029 -0.000180862 0.0976844 
-6.89933e-05 -0.00100136 0.0827924 
-0.000751297 -0.00466673 0.0642584 
-0.00130927 5.50424e-05 0.0147958 
0.0253741 0.0375318 0.0678015 
-0.0421072 0.0187036 -0.0300318 
0.0231577 0.0277512 0.165355 
-7.78901e-05 -0.000603508 0.140731 
-0.00057028 2.96403e-05 0.14512 
0.000215689 -4.97248e-05 0.138047 
0.00254174 0.00210999 0.141104 
-0.0360249 0.0201985 0 
-0.0348938 0.00211719 0 
0.02751 -0.0115381 0 
-0.0424003 0.08151 0.103022 
-0.00123528 -0.00118464 -0.00413769 
-0.00163106 -0.0015714 0.00736207 
0.000349782 0.000334308 0.00318884 
0.0374872 0.0302857 0.0671791 
0.000667592 5.74222e-05 0.00361639 
-0.00337884 -0.000290627 0.00116949 
-0.000256968 -2.21028e-05 -0.00322891 
0.00524847 -0.0025624 0.101647 
0.000110701 0.000294651 0.000339186 
-4.53855e-05 -0.000305685 0.0386249 
0.000149276 0.000328484 -0.000329661 
-0.000339739 -0.000763901 0.00056391 
9.80171e-05 0.00018475 -0.0265957 
-0.00104471 0.000275615 -0.00494731 
0.0133494 -0.00317157 0.0182166 
0.0613256 -0.0181897 0.11899 
0.0541401 0.0260017 0.405064 
0.0632648 0.0381829 0.205185 
0.0741369 -0.000688639 0.158832 
0.0831604 -0.0808571 0.0389175 
-0.000704331 -0.00897326 0.100055 
-0.00583318 -0.00485743 0.0788084 
-0.00226962 -0.00769199 0.116055 
-0.00598042 -0.0184903 0.119527 
0.000892452 -0.00199449 0.00100362 
-0.00055541 0.00283999 -0.000441357 
-0.000648378 0.0014609 -0.000535772 
-0.00129401 0.00297526 -9.81974e-05 
6.35149e-05 -1.346e-05 -0.00338796 
6.59181e-05 -3.37034e-05 0.000789449 
0.00202312 -0.000927379 0.000878136 
-0.004223 0.00382759 0.104414 
0.000575138 -0.0018964 0 
-0.000352171 -0.00291148 0 
-0.00108934 0.00164781 0 
-0.00295359 0.00657016 0.00374181 
0.000315585 -0.000224712 0.0370863 
-0.000139755 -0.00023306 0.0719134 
0.000249979 0.000665527 0.0638901 
0.000622589 -0.000148708 0.0472173 
0.00729111 0.0172449 0.0863284 
0.00139671 0.031859 0.122695 
0.00703628 0.0250811 0.11211 
0.0148403 0.0402269 0.10674 
0.000377444 0.000741888 0.00033392 
0.000355024 0.000697631 0.000357322 
-0.000160038 -0.000306606 -0.00195964 
-0.00361325 -0.00365832 0.0376542 
0.00500371 0.00602967 0 
0.0126553 0.0220409 0.0297599 
-0.00992238 -0.0162693 0 
0.0157903 0.0136563 0 
8.74095e-05 0.000140539 -0.000331786 
8.4668e-05 0.000604305 0.0310229 
-0.000156874 -0.000205746 -0.000467456 
0.000408256 0.000547596 0.000938596 
-0.00163882 -0.022332 0.385122 
0.138359 -0.0261598 0.0402309 
0.0588331 -0.0440448 0.156745 
0.0248517 -0.0151925 0.298856 
-0.0118907 0.0482382 0.397623 
-0.121939 -0.0304553 0.147619 
-0.0476134 0.049938 0.205284 
-0.00690298 0.0479504 0.168126 
0.000408429 0.000779321 0.0528039 
4.10283e-05 2.90483e-06 0.000829386 
-7.47303e-05 -5.29094e-06 -0.00015627 
3.84538e-05 2.72255e-06 -1.85941e-05 
-0.0151345 0.0256202 0 
-0.00383498 -0.033804 0 
0.00437008 0.0138839 0 
-0.0431724 0.0595777 0.054618 
-0.00211376 0.00217895 -0.00110059 
-0.00011238 0.000114748 -0.00205987 
-0.00029701 0.000308583 0.00424069 
0.00291539 -0.00707563 0.0927014 
0.000810682 0.00244864 0.0758552 
0.0014036 0.00848363 0.11603 
0.00425923 0.0151864 0.112236 
0.00374249 0.00612112 0.102313 
-0.000214754 -6.98013e-05 6.42132e-05 
-2.54176e-05 1.07608e-05 0.0347647 
5.09036e-05 -0.000186238 -0.000114084 
5.92026e-05 0.000105769 0.0379999 
0.0040522 -0.0011214 0.00785514 
0.00123324 -0.000326002 -0.000611195 
-0.000602937 0.000154002 0.00135606 
0.00739218 0.00364274 0.0937423 
-0.000446398 0.000214747 0.00114156 
0.000631186 -0.000238822 0.00283176 
-0.000241739 0.000103561 -0.000255033 
-0.000243677 0.00361745 0.0763386 
-0.000440348 0.000469393 0.00261044 
0.000149177 -0.000163375 -0.0017291 
0.00119079 -0.00122679 0.00118641 
-0.00226374 -0.00129843 0.0801046 
5.77478e-05 0.00037794 0.101934 
-9.05394e-05 -0.000245207 0.0759826 
5.37615e-05 -0.000182921 0.0745919 
-0.00350307 0.00421803 0.0997044 
0.00100561 0.000657337 0.00158619 
-0.000892542 -0.000618883 0.0018877 
2.08264e-05 1.86856e-05 -0.000438586 
-0.00533896 -0.00416141 0.0663604 
-0.000150789 3.70283e-05 -0.000147258 
0.000347421 -7.45354e-05 -0.000181542 
-0.000365328 5.36008e-05 0.0013881 
-9.7559e-05 0.00100665 0.0696526 
0.0172273 -0.0268833 0.158211 
0.011754 0.035409 0.357205 
0.0397404 0.0027576 0.110632 
0.0777326 -0.0574785 0.196902 
-0.000125931 3.62987e-05 0.114727 
0.000414857 -0.000520613 0.128459 
0.000552671 0.000402095 0.102055 
-0.0025631 -0.00723781 0.112498 
-0.000316662 0.000810209 -0.00203652 
0.000351446 -0.0010717 0.000716391 
0.000709696 -0.00236781 -0.000376015 
-0.00535123 0.0137347 0.0468343 
-0.0706154 0.0499038 0.161847 
0.0118843 -0.0143705 0.442404 
-0.0941122 0.0242932 0.171464 
-0.0330331 0.0253941 -0.106036 
-0.0127084 0.0114777 0.038195 
-0.000278637 0.000554743 -0.00918558 
-0.0028433 0.00384165 -0.0335748 
-0.0476854 0.0495041 0.0833856 
0.000437281 -0.00114346 0 
-0.00039997 0.00122584 0 
-0.000651326 0.0023008 0 
-0.00950746 -0.0012802 -0.00144843 
-0.00184081 0.00266957 -0.00357115 
0.00221277 -0.0032049 0.00482482 
-0.000935094 0.00139988 0.00389194 
0.00348048 -0.0147144 0.0979053 
0.00530509 0.0061223 0 
-0.00791456 -0.000926276 -0.00705853 
-0.00993773 -0.0076979 0 
-0.00202667 -0.0122666 0 
-0.000162504 0.00167662 0 
-0.000485245 0.0028921 -0.00475824 
0.00136283 -0.00193917 0 
0.00014992 0.000603106 0 
-0.00017282 -0.000382259 -0.000359175 
0.000156797 0.000521227 0.0305317 
0.000338108 0.000762484 0.000535479 
-0.000102716 -0.000264667 0.00021492 
0.0019137 -0.000188978 -0.00209779 
0.000682042 -6.7352e-05 0.00482582 
-0.00026253 2.5925e-05 0.00107648 
0.00528356 -0.0028654 0.0951349 
-0.0124405 0.00380934 0.369485 
-0.0248122 -0.0149841 0.206633 
-0.0363742 0.0423579 0.202008 
-0.0937865 0.0382607 0.272974 
-0.000148071 -3.55278e-05 0.0918088 
-0.000403008 -0.000414067 0.115842 
0.000149992 0.00019544 0.0893275 
-0.000135241 -0.00771627 0.0946134 
0.000284403 8.14087e-05 -0.0016101 
-0.000389433 -0.00010625 0.00102631 
-0.00190128 -0.00049774 0.000274794 
-0.00542234 -0.00235128 0.0897258 
9.88428e-05 -1.06476e-05 7.53973e-05 
-2.28556e-05 0.000169593 0.0372197 
-6.11903e-05 -0.000310003 -7.53107e-05 
0.000126388 0.000273941 0.0439642 
-0.000139122 -0.000353403 0.0973326 
2.54272e-05 -0.000420036 0.0828032 
-9.76555e-05 0.000530423 0.110851 
0.00216143 0.00680888 0.0974558 
-0.0353611 0.063834 0.353671 
-0.070479 0.0144074 0.0378274 
-0.0430736 0.0472723 0.132335 
0.00507886 0.10002 0.0940108 
-0.000528716 -0.000290548 0.00383353 
-0.00186584 -0.000817095 -0.000754472 
0.00111842 0.000483839 0.000859882 
-0.00673869 -0.00509105 0.0794084 
-0.00944402 0.0665236 0.184728 
0.0244944 -0.00596505 0.35521 
0.0427743 -0.0223373 0.316693 
-0.0744584 0.172528 0.0987623 
0.00270972 -0.00807099 0.393057 
0.117896 0.0770186 0.144212 
0.00774593 -0.0455392 0.40286 
0.0229257 -0.0201427 0.296514 
0.000277916 -0.000624611 0.00113164 
-0.000305925 1.27166e-05 0.0525983 
0.000620132 -0.000226637 0.000133511 
-0.000275912 -0.00119048 0.066974 
0.000744076 -0.0002031 0.000392544 
2.28595e-06 -2.20427e-05 0.00185197 
-0.000497242 0.000127788 0.000423502 
0.00338478 -0.00202317 0.0784491 
0.00544507 -0.0036522 -0.00401881 
-0.00308521 0.00240825 -0.00959531 
-0.00654699 0.00436108 0.00589084 
-0.00798762 -0.000528052 0.000967784 
0.00129352 -0.00103803 0.0124865 
0.00264806 -0.00187331 0.00478313 
-0.00868261 0.00625676 -0.0251315 
-0.0326156 0.0453078 0.117441 
0.00317686 -0.0416501 0.142361 
0.00738091 0.00974975 0.32235 
0.0390596 -0.0345387 0.232763 
-0.048782 -0.0896693 0.111973 
0.000191215 -0.000570714 0.0840371 
0.000222796 0.000415379 0.049826 
-1.31373e-05 0.00037433 0.0404522 
-0.00405791 -0.00336112 0.0635719 
0.0117203 0.00668037 0.361558 
-0.0192039 -0.0262189 0.219016 
-0.0668709 0.0217761 0.207472 
-0.132064 -0.00347955 0.181201 
0.00800893 0.0262944 0.114728 
0.00474114 0.00925711 0.0887469 
0.00864656 -0.00174231 0.11588 
0.0167521 0.00958824 0.0958883 
-0.000186425 -0.000316439 0.0348997 
2.30568e-05 0.000332258 0.000324324 
-2.11427e-05 -0.000304676 0.000322806 
3.72327e-06 5.36538e-05 -0.000192214 
0.00682059 0.00930958 0 
-0.0230075 0.00697835 0 
0.00788682 -0.00630101 0 
-0.0317471 -0.00672472 0.0169466 
-0.0393181 0.0844657 0 
0.040078 -0.105513 0 
0.0369858 -0.0782771 0 
0.0242156 -0.104261 0.317484 
0.000365537 -0.000117657 0.104875 
0.000480738 0.000127247 0.128825 
-0.000336626 0.000225545 0.101788 
-0.00292852 0.004754 0.10025 
-0.0325691 0.005671 0.0900593 
-0.0513253 0.00417349 0.193788 
-0.0104914 -0.0420204 0.174151 
-0.0370434 0.0249509 0.160349 
0.000161434 -1.14298e-05 -3.61406e-05 
3.75908e-05 -2.66148e-06 0.000686762 
-7.98624e-05 5.65437e-06 -6.98185e-05 
-0.000442597 0.000715752 0.046251 
-0.000989119 0.0218611 0.356384 
-0.00901317 0.00757251 0.360967 
0.0349585 -0.00217935 0.152423 
0.0524949 -0.095486 0.346643 
-0.00290929 0.000793413 -0.00366049 
0.00550438 -0.00150918 0.00892308 
0.00228449 -0.000598431 -0.0032373 
0.01455 0.00261435 0.098815 
-0.0046284 0.00188378 0.00135994 
0.00280373 -0.000847013 -0.0090889 
0.00365294 -0.00134943 -0.00493252 
-0.0180529 0.00717602 0.0232915 
0.0138964 0.0237455 0.0156878 
-0.00174418 0.0100736 -0.0211302 
-0.0142898 -0.0591523 0.0483394 
-0.0148254 -0.0533689 0.127396 
-2.96958e-05 -0.000222193 0.038764 
-0.000192204 0.000458797 -6.91792e-05 
9.42452e-05 -0.000275453 0.0449363 
0.000162203 0.000215291 0.000199101 
-0.000140413 0.000591163 0.000801998 
-0.000228467 0.00101055 -0.000114209 
0.000138406 -0.000578413 -0.0009159 
0.00237305 -0.00795088 0.0603205 
0.0192073 0.00913992 0 
-0.0267223 -0.0273263 0 
0.0429498 0.0128344 0 
0.031329 0.0874833 0.0892596 
-0.0754945 0.0873375 0.110509 
-0.0543577 0.0133823 0.173873 
-0.0546197 -0.013904 0.194721 
-0.00685732 0.0353456 -0.00560199 
0.029107 0.0702351 0.17221 
-0.0145509 0.0658861 0.172769 
-0.0202527 0.0599929 0.118517 
-0.0115254 0.0385452 0.0954853 
-0.000620941 0.000115259 0.140978 
0.000371722 -0.000116983 0.139786 
-0.000309448 -0.00052127 0.145062 
0.00260549 0.00644903 0.14203 
0.000130258 0.000344003 0.00205751 
-0.000255825 -0.000548866 -0.000216841 
0.000445281 0.000955631 0.000386229 
-0.00238792 -0.00207645 0.0400872 
0.00595601 0.00109538 0.119639 
0.00286152 0.00980786 0.0889991 
0.0116588 -0.00866344 0.0706473 
0.0222412 0.00917434 0.097132 
-0.00182539 -0.00095618 0 
0.00375932 -0.000520142 0 
5.29974e-05 0.00214155 0 
-0.00906521 0.0039743 0.00330164 
-9.16063e-05 4.31572e-05 -0.00119354 
0.000183931 -0.000174534 0.000154521 
0.000117594 -8.96212e-05 0.000659134 
0.00107359 -0.000828485 0.0691704 
-0.000414889 -0.000709618 0.0826553 
0.000379417 -0.000313508 0.0947323 
-0.000366629 0.000303515 0.110669 
0.00225874 0.00675969 0.116243 
0.00238504 -0.00174271 0.373961 
-0.0222859 0.0203679 0.209041 
0.00459901 -0.0103728 0.303118 
-0.0298703 0.116702 0.197171 
-0.000122373 -0.000533302 0.0628003 
0.000276613 0.000254271 -0.000273263 
-0.000112422 -0.000224183 0.039496 
0.000437201 -0.000336848 0.000892143 
0.0012726 0.0017537 -0.003472 
0.00127738 0.00170519 -0.00111927 
-0.000554764 -0.000766923 0.00161805 
-0.0125851 -0.0129305 0.0135315 
0.000719673 0.000541265 0 
-0.00613149 0.00403674 0 
0.00470881 -0.00489776 -0.000145938 
0.00575972 -0.00714197 0 
-0.00601328 -0.00051585 0.00475275 
0.0189561 0.00167526 -0.0186931 
0.0027076 0.000181532 0.00169348 
0.0096418 0.0254411 0.160196 
-0.0139601 0.0224302 0 
0.00834279 -0.0227093 0 
0.00690568 0.0225894 0 
-0.029503 0.0518108 0.0524792 
1.06314e-05 -4.65368e-05 0.000952536 
0.000201546 0.000759554 0.000202693 
-0.000233937 -0.000904185 1.00914e-05 
0.000485007 0.000766257 0.0457564 
0.020737 0.01616 0.34732 
0.0383786 0.0193327 0.172563 
0.0366825 -0.038951 0.185864 
-0.046857 0.0802439 0.147277 
-0.000563973 0.000403897 0.00181 
-0.000782052 0.000569125 0.000655371 
0.000244477 -0.000178922 1.72429e-06 
-0.00162904 -0.000632924 0.078661 
0.00609563 0.00971346 0.391787 
0.0128413 0.0172205 0.349682 
0.0110041 -0.00495976 0.365578 
0.0143787 -0.070378 0.353887 
-0.0027356 0.0007015 -0.00536985 
0.000420159 -0.00324063 0.00372327 
-0.00321626 0.000791966 -0.00470404 
0.00284589 -0.000639176 0.00113978 
0.00045808 -0.000399098 0.0696989 
-0.000365047 0.000433579 0.0796386 
1.38394e-06 -6.78008e-05 0.0457685 
7.97007e-05 0.00365477 0.0687199 
0.000270716 0.000136325 -0.000161035 
-8.52183e-05 -1.95768e-05 0.00058565 
-0.000253483 5.54095e-05 0.0392359 
0.000548956 -0.000525401 0.063571 
-2.43424e-05 -0.000346964 -0.000123567 
3.43353e-05 0.000489398 6.99003e-05 
1.26099e-05 0.000179735 -3.13485e-05 
-4.67703e-05 0.000120613 -0.00015189 
-0.00266097 0.00382593 0.000285246 
-0.000764992 0.00101954 -0.00409936 
0.00071082 -0.000966917 0.00279072 
0.0067149 -0.0133053 0.0881381 
-0.0627189 -0.0364964 0 
0.0790144 0.0413423 0 
-0.090988 -0.0199292 0 
-0.107194 -0.023115 0.195789 
0.002502 0.0152402 0.114749 
0.00635214 0.022634 0.107797 
0.00324423 0.0351454 0.126751 
-0.00268676 0.0255275 0.137618 
0.0170835 -0.0198517 0.372587 
-0.0218487 0.0710256 0.185654 
0.00919565 0.0855016 0.167845 
-0.060841 0.0966354 -0.0158062 
2.60612e-05 -6.22891e-05 0.000412335 
-0.000258577 4.16233e-05 0.0376648 
-0.000255012 0.000543278 0.000358519 
0.00121892 -0.00025649 0.0469654 
0.00358709 -0.00267215 0 
-0.000939594 0.00353306 0 
0.001899 0.00271312 0 
-0.00872411 0.0156781 -0.00480581 
0.000201264 5.87077e-05 0.0895058 
0.000512629 0.000330435 0.0704265 
-7.36642e-05 -0.000486128 0.0913895 
-0.000270178 -0.00708639 0.0948702 
0.000402062 0.000234161 0.101515 
-9.00666e-05 0.000732084 0.0848493 
-0.00033557 -0.000155802 0.11507 
-0.00260634 -0.00727267 0.112694 
1.59897e-05 0.00028392 0.000437209 
-7.01241e-06 -0.000114372 -0.00012833 
4.215e-05 0.000573388 5.81664e-05 
-0.000728481 0.000265494 0.0499158 
-6.26055e-05 0.000240295 -0.000867461 
2.56676e-05 -8.57649e-05 0.00060886 
6.62551e-05 -0.00028317 0.000344887 
-0.00147422 0.00239497 0.0564301 
7.45928e-05 0.000284342 0.0535324 
-0.000228802 0.000458184 0.0521425 
0.000214801 -0.000257407 -0.000165069 
0.000590443 0.000300836 0.00124101 
-7.8712e-05 0.000106898 0.0460367 
0.000170053 0.000186498 0.000206322 
7.50941e-05 0.000117507 4.58868e-05 
8.43009e-05 -0.000205354 0.0460603 
-0.00018721 -0.000526638 0.0772932 
0.000109157 9.75785e-05 0.0395437 
-0.000474512 0.000524706 0.0579508 
0.000272724 -0.00145015 0.0601492 
0.0187861 0.0877918 0 
-0.0413221 -0.0623702 0 
0.0310599 0.0571882 0 
0.0631479 0.121499 0.218742 
0.000287288 -5.15505e-05 0.000614233 
4.92456e-06 -0.00113741 0.0628783 
0.000273883 -6.9642e-05 -0.000422003 
-0.000627254 0.000158834 0.000933939 
9.44287e-05 0.00133408 -0.000463287 
3.47156e-05 0.000243428 0.00126299 
-3.26356e-05 -0.000212866 -0.00128002 
-0.00101421 0.00212471 0.00705522 
0.025248 -0.0157801 0.106525 
-0.0267569 -0.00171032 0.152028 
-0.00733024 0.0419923 0.407624 
0.0676078 -0.107131 0.326228 
0.013228 0.0320407 0.144689 
0.0236956 0.0278354 0.0745238 
0.00645392 0.0220693 0.109104 
0.0149788 0.0414074 0.110717 
0.00272526 0.00309517 0 
0.000858769 0.00384848 0 
0.00197948 -0.00341548 0 
-0.00497683 0.0175065 0.000107606 
-0.0101927 0.0399151 0.149129 
0.00712158 -0.00817085 0.313072 
-0.0348888 0.0309679 0.232663 
-0.017618 0.0942084 0.132817 
5.319e-05 0.000324898 0.00177082 
-0.00023368 -0.00108287 -0.00145984 
-1.47039e-05 -9.27536e-05 -0.000543428 
-0.00147935 0.00208315 0.00620403 
0.0124589 0.032607 0.148148 
0.008782 0.0231562 0.10741 
-0.00432318 0.0034913 0.091434 
-0.00848359 0.0250589 0.137085 
4.61054e-05 0.00031906 0.0367617 
7.31916e-05 -0.00031904 -0.000203178 
-0.0001071 0.000480762 0.000149462 
7.15979e-06 -6.22378e-05 0.000309705 
0.0346836 0.00555879 0.13615 
0.0848579 -0.0188932 0.0962846 
0.0485574 0.0180877 0.201019 
0.0390175 -0.0252847 0.281617 
0.000243465 6.67608e-05 0.00100501 
0.000494976 0.000118021 0.000271574 
-0.000234332 -5.06554e-05 0.00039356 
0.00145392 0.00111347 0.0746061 
-0.00405182 0.00946748 0 
0.00117727 0.000303048 -0.00767766 
-7.62669e-05 -0.0049737 0 
0.00183675 0.00609413 0 
-0.00782675 -0.00307603 -0.00425379 
-0.0180522 0.000554593 0.00326415 
-0.00998897 -0.00455003 0.0209519 
0.00989571 0.00414799 -0.00556048 
3.32739e-05 5.5843e-05 0.00159629 
0.000444696 0.00191293 -6.71437e-05 
-0.000115866 -0.000448675 -0.000895029 
-7.97257e-05 -0.00154559 0.00490496 
0.000646751 -0.000650362 -8.67094e-06 
-0.000167458 0.00013192 0.00120121 
-0.000269794 0.000247532 0.000784949 
0.000628273 -0.00188178 0.0690609 
-0.000270976 0.000229751 0.0753208 
-5.67253e-05 0.000202312 0.0459561 
4.68565e-05 -0.000270871 0.0439193 
-0.0016457 0.00152277 0.0501737 
0.0148422 -0.0177047 0.376646 
-0.125022 -0.0136192 0.137593 
0.00101319 -0.00135366 0.426925 
0.0231839 -0.0203694 0.299373 
-0.000834575 0.00142286 0 
0.00352833 0.000309581 0 
-0.000418662 -0.00246989 0 
-0.00938676 0.00985641 0.00461855 
-0.0025233 -0.000588374 -0.0234674 
0.00100521 0.000214776 0.010379 
-0.000672078 -0.000162835 -0.00592895 
-0.0138157 -0.0203408 0.134617 
0.0152097 -0.0116784 -0.0209131 
-0.0202421 0.0171617 0.0570194 
-0.030774 0.0391101 0.000430994 
-0.0383914 0.0239079 0.0671103 
0.0101114 0.0190225 0 
0.0184296 0.018077 0 
-0.0242123 -0.003857 0 
-0.0600547 -0.0167693 0.0315946 
-0.0445091 0.0102229 0.253403 
0.014198 0.00256902 0.324476 
-0.011629 -0.0270016 0.221693 
-0.0764387 -0.00128406 0.235459 
0.023702 -0.00246943 0.0140731 
0.00230948 -0.000818866 -0.017833 
-0.0202193 0.00418376 -0.0196971 
0.0281198 -0.00564631 0.0375371 
-0.0232954 -0.015707 0.212238 
-0.017707 0.00562791 0.354088 
0.00501472 0.00860427 0.327284 
-0.0960011 0.0328266 0.302923 
0.00496469 0.00543065 0.00940182 
-0.00450511 -0.00466116 -0.00184352 
0.00249875 0.00239911 -0.00364544 
0.00683292 0.0033426 -0.00173594 
-1.18589e-05 0.000167495 -0.000888452 
0.000193588 -0.00273424 -0.000676884 
-0.000118235 0.00166995 0.00217731 
-0.000217326 -0.00173435 -0.00147579 
-4.79324e-05 -0.000206042 -0.000150303 
-2.34346e-05 -0.000147587 0.000433811 
-0.000113458 0.000210532 0.0375772 
6.78724e-05 0.000313294 -2.03862e-05 
0.000601296 -4.1512e-05 0.122431 
-0.000190337 -4.01262e-05 0.107575 
-0.000486092 -0.000185246 0.0863411 
-0.00370539 0.00173241 0.105283 
0.00025681 6.31562e-05 -0.000255319 
9.77794e-05 0.00055384 0.053423 
0.000426733 7.68535e-05 0.000933113 
-0.000194267 -4.47541e-05 4.71559e-05 
-0.0293576 -0.0282387 0.178965 
0.00786658 0.009788 0.341798 
0.00372915 -0.0434442 0.140694 
-0.0488326 -0.0910412 0.0922448 
1.41457e-05 5.87297e-05 -6.6844e-05 
4.83023e-05 0.000265843 0.000478838 
0.000141161 -3.03042e-06 0.045629 
-5.54614e-05 -0.000260386 -6.40902e-05 
0.000648774 -0.0236997 0 
0.0054872 0.00625722 0 
-0.0141803 0.00949681 0 
-0.00940511 0.0310176 0.0208558 
-0.000162909 5.63003e-05 0.00133673 
0.0010304 -0.000446187 0.000606485 
0.000339441 -0.000139696 -0.000533467 
-0.00173001 0.00151018 0.0755763 
-0.0121489 0.0455324 0.14942 
0.0298987 0.0174553 0.177872 
0.00517286 -0.00395906 0.319855 
-0.0145886 0.086879 0.12594 
-0.0060738 -0.000649982 0 
0.0100013 -0.00653027 0 
0.0088982 0.00193271 0 
-0.0303978 -0.0193532 0.00299692 
-0.00405763 0.0473179 0.150981 
0.0325753 0.0431323 0.195196 
-0.00194286 -0.00365145 0.400905 
0.0268212 0.0636402 0.162077 
-0.049894 0.00531109 0.194044 
-0.045631 0.0276395 0.173412 
-0.0303712 0.00518039 0.0870192 
-0.0303558 0.0254446 -0.00542183 
8.91609e-05 -2.82769e-05 0.000591158 
-0.000566865 0.000130424 0.000128732 
0.000138745 -4.46353e-05 0.000969786 
0.00134875 -0.00089434 0.0634172 
-8.46639e-05 0.000319482 -0.000660733 
0.000474517 0.00164864 0.00062813 
0.000225631 -0.00106369 -0.000565239 
-0.000426367 0.00194265 0.000329954 
2.39193e-05 -0.000303943 0.0398209 
0.000144024 -1.01051e-05 -0.00028981 
-0.00027694 1.94308e-05 0.00047407 
1.83501e-05 -1.28749e-06 -4.36985e-05 
-7.07113e-06 -7.15082e-05 -0.000292644 
5.46356e-05 0.000552513 0.00125341 
0.000243951 0.002467 0.000384475 
-0.00195073 -0.013032 0.033969 
-0.00149601 -0.000400154 0.000184417 
-0.0020272 -0.000562005 0.00408958 
0.0019077 0.000509551 -9.49059e-05 
-0.00113809 0.000897289 0.0915481 
-0.00293074 -0.00127321 0 
-0.000761467 -0.00232718 0 
0.000805295 0.000223387 0 
-0.00401024 0.00409724 -0.00125553 
-0.000175061 -0.000260809 0.0429067 
-6.88033e-05 0.000465478 -0.000449876 
-0.000342294 -0.000452533 0.00148397 
0.000356555 -0.00103143 0.0556154 
-0.00498182 0.00928782 0 
0.0037872 0.0252578 0.0103363 
-0.0102691 -0.00947956 0 
0.00322273 -0.000782128 0 
-0.000749873 -0.000651177 0 
-0.000527965 5.63096e-05 0.000629439 
0.000532563 0.000260949 0 
0.000646286 0.000574837 0 
0.00472945 0.0159391 0.11053 
-0.00356803 0.00842971 0.0921314 
0.00898309 0.0230886 0.107522 
-0.00457728 0.025081 0.139338 
-8.37111e-05 -0.000179935 0.0834744 
0.000260771 -0.000367847 0.0813462 
-8.88774e-05 0.000620121 0.110449 
0.00228788 0.00639755 0.097103 
0.00484512 0.000336198 -0.00636194 
-0.0074027 -0.000513666 0.020918 
0.0108188 0.0125685 0.00349642 
0.00140903 9.77713e-05 -0.000490423 
-0.00534951 0.0137202 0.00699971 
-0.00624835 -0.00105924 -0.0149934 
-0.00152447 -0.000224477 -0.00530945 
0.0058139 0.000600088 0.032698 
-0.017999 0.0191977 0.00849141 
-0.000489519 0.00711494 -0.0111107 
0.0166337 0.0257529 -0.016603 
-0.0753561 0.0293784 0.0703943 
-0.00365388 -0.0011571 0 
-0.00179686 -0.00239878 0 
-0.000743866 -0.00359994 0 
-0.00170428 0.0177185 0.000365734 
-2.07699e-05 -0.000140935 -0.000523766 
9.9703e-05 0.000451273 4.23513e-05 
-1.39879e-05 -9.52275e-05 -0.000356163 
-0.00039625 0.000373305 0.00066405 
-0.0281443 0.0301243 0.0365593 
0.0170563 -0.0180002 -0.0157426 
-0.0126433 0.0133667 0.00797225 
-0.00169676 0.000882233 -0.0211876 
0.00372144 0.00098576 -0.00141715 
-0.00181424 -0.00046009 0.00466873 
0.00206358 0.00053994 -0.00208266 
-0.0140848 -0.00519355 0.0948473 
-0.00174261 0.000706957 0 
-0.000188144 0.00353171 0 
0.00101034 -0.00314553 0 
-0.000825717 0.00239931 -0.00105038 
-0.00120954 0.00171826 -0.00191372 
0.00142038 0.00328715 -0.00129518 
0.00171983 -0.00255084 0.000542687 
-0.00240671 0.00361009 5.96884e-05 
-0.000210863 0.000217668 0.0757663 
6.36453e-05 -0.000193447 0.0436141 
0.000219918 4.07e-05 0.0745176 
-0.00205145 0.00232405 0.0558019 
0.00193184 0.000880105 -0.00259406 
-0.00178084 -0.000816807 0.0012982 
0.00252573 0.00116965 0.000382128 
-0.00130141 0.000378309 0.0972693 
0.00203701 -0.0259658 -0.0511035 
0.0321041 0.0132086 0.04871 
0.00108524 0.000529369 -0.00792547 
0.0330036 0.0270049 0.21976 
-0.00447466 -0.00877005 0.204719 
-0.00763828 0.00203628 0.354249 
-0.00462252 0.00459645 0.331875 
0.0508834 -0.182049 0.248322 
4.64237e-05 -0.000661659 0.000283098 
-3.40577e-05 0.000485411 3.4465e-05 
0.000438201 0.000446765 -0.000187026 
-3.96539e-05 0.000565172 -0.000434168 
-0.000129891 -0.000509059 0.0389486 
-0.000422274 -0.000670001 0.0490067 
0.000252532 0.000604132 0.000111445 
0.000163697 -0.000260218 4.11332e-06 
0.00764728 0.00436257 -0.00348067 
-0.0144968 -0.00750354 0 
-0.0054324 -0.00436162 0 
0.0200365 0.0108423 0 
0.000826839 0.000880266 -0.0018679 
0.00315906 0.00294691 0.00620934 
-0.000227112 0.00024699 -0.0151572 
0.039313 0.0274261 0.0675125 
0.035977 0.0335245 0.140359 
-0.0125974 -0.00664967 0.371543 
-0.0113585 0.0525769 0.194964 
0.0564046 0.130029 0.0621028 
0.000197815 0.00061554 0.127485 
-0.000168804 2.30975e-05 0.11122 
3.56692e-05 -0.000725996 0.0961434 
0.00224037 0.00771547 0.113743 
0.0347672 0.0297511 0.136018 
0.00665587 0.00193237 0.405098 
-0.00432042 0.0628046 0.181478 
0.0613871 0.14543 0.096903 
-0.00133797 0.000823948 0.00810463 
-0.0114916 0.00494239 4.73644e-05 
0.00852803 -0.00378849 -0.00396821 
-0.0111295 -8.51001e-05 0.0251163 
-0.0399261 0.0101168 0 
0.0383991 0.00045044 0 
-0.00306239 0.037061 0 
0.00364569 0.0209519 0.068486 
-0.000902036 -0.000392069 0 
0.000351369 0.00143496 0 
-0.000265118 -0.000772592 0 
0.000121789 0.000785097 0.000680693 
-5.12634e-05 5.50515e-05 0.00037706 
0.000369121 -0.000290901 0.000349421 
-0.000187676 0.000758999 0.0543129 
7.91887e-06 -1.25675e-05 -0.000176281 
0.000401762 -0.000356076 0.134795 
-0.000152359 6.88584e-05 0.115026 
-0.000435087 0.000128388 0.116093 
-0.00273946 -0.0053505 0.127184 
6.25246e-05 -0.000468052 0.036933 
-6.42106e-05 0.000263038 0.0743764 
-4.16378e-05 -6.49764e-05 0.043883 
-0.00192736 0.00221484 0.0557791 
-0.0038482 -0.00201897 0 
0.00973151 0.00184962 -0.00060341 
0.00863927 0.0016162 0 
0.00299225 0.0119733 0 
0.0135999 -0.0194793 -0.0212967 
-0.00361675 0.00612637 -0.011504 
-0.00710357 0.00991154 0.0158966 
0.0524988 -0.00463753 0.154635 
-2.68769e-05 -0.000676146 0.0385311 
-0.000153527 0.000680831 -8.17696e-05 
0.000231219 -0.000990738 0.000578837 
5.19863e-05 -0.0002355 -3.76109e-05 
0.00125886 0.00120815 -0.00261648 
0.000253017 0.000244722 0.00284749 
0.000600937 0.000575841 -0.0028318 
-0.0228328 -0.0160883 0.0321704 
-0.000404354 0.00148376 -0.00235489 
0.00139949 -0.000102461 -0.00228799 
0.000149223 -1.09252e-05 0.00199917 
-0.000152643 1.11756e-05 -0.00154039 
-0.00586849 -0.00402829 -0.00609454 
0.00811537 0.0053389 0.00147604 
0.00298404 0.00269052 0.0223672 
0.0172427 -0.00600637 0.00387552 
-0.000538449 -0.0111074 0.0051892 
0.00971287 0.00363682 -0.0129066 
-0.000862479 -0.000574346 -0.00947905 
-0.0148036 -0.00527686 0.0309167 
0.000385472 -0.000721067 -1.83968e-06 
-0.000362828 0.000654709 0.000444116 
-0.000166514 0.000295539 0.000294676 
-0.000192981 -0.000946283 0.0531384 
0.000332695 -0.000106591 -0.000214686 
0.00010148 -2.36104e-05 0.000271655 
-0.00027019 0.000100085 0.00068634 
-3.87898e-05 0.000526664 0.0696365 
4.62553e-05 -0.000629546 0.0626495 
0.000185168 -6.49534e-05 0.000349602 
-0.000273175 6.91386e-05 0.000546417 
-7.92567e-05 2.49893e-05 -3.7697e-05 
-0.0599946 -0.0137858 0.202825 
0.0163785 -0.00128865 0.402485 
0.0365682 0.029256 0.330599 
-0.147407 -0.0505242 0.182223 
-0.00808655 -0.0046379 0 
0.000353203 0.0262091 0 
0.00151063 -0.0323109 0.0247838 
0.00895778 -0.0177862 0 
0.000308454 -8.6367e-06 0.104685 
-0.000258038 0.000190865 0.10234 
-0.000189031 -0.000471191 0.0744633 
-0.00299199 0.00470681 0.0996147 
0.0489839 -0.0446343 0.134729 
-0.0039077 0.00547867 0.417262 
0.0752559 -0.015274 0.185451 
0.10349 -0.0311484 -0.0415743 
0.0199415 0.0212761 -0.0754531 
0.00597322 -0.0486255 0.106976 
0.00396146 -0.0139849 0.329643 
-0.0291839 -0.0296241 0.0991932 
-0.0194655 -0.0293649 0.340199 
0.0447405 0.01655 0.204726 
-0.0177077 -0.00588509 0.376776 
0.155882 0.0606174 0.206222 
-4.81233e-05 -0.000225577 0.000105621 
5.71264e-05 0.000269864 -0.000148264 
0.000165327 0.000302311 -0.000198095 
1.48616e-05 7.28731e-05 -6.78418e-05 
-7.32987e-05 8.34099e-06 0.00120119 
-2.75796e-06 2.14087e-07 4.03762e-05 
-0.000170452 -5.28982e-05 -0.000700006 
-0.000277647 -0.00056638 0.0428799 
0.00217878 -0.00197806 0.0153948 
-5.547e-06 -0.000330491 -0.02466 
-0.00062442 0.000479504 -0.0108247 
-0.0251363 0.0490989 0.159357 
-0.0108595 0.0168805 0.311898 
-0.0192277 0.00135401 0.322156 
0.00902217 0.0046542 0.142097 
0.128541 -0.03635 0.228247 
-9.34701e-05 0.000137681 -0.00230113 
0.0024031 -0.00349973 0.00101599 
-0.00025444 0.00036727 0.00465713 
0.00300021 -0.00696577 0.0925699 
-0.00012419 0.000131191 0 
-3.72774e-05 -0.000183753 0 
0.0001149 5.4121e-05 7.96685e-05 
0.000201532 0.000180495 0 
0.00196124 0.00160955 0 
0.00103337 -0.00236668 0 
-0.00400036 -0.00336886 -0.0028703 
0.00155492 0.00127609 0 
0.000612871 0.000388774 0.0524473 
-0.000501973 -0.000125748 0.00100459 
-0.000120441 -3.97797e-05 -0.000122885 
0.000175305 3.81225e-05 -0.000570246 
-0.0304554 0.0226374 0 
0.0107539 -0.0133766 0 
0.0316801 -0.00785977 0 
0.0296918 -0.0233419 0.0323984 
1.02249e-05 -0.00395847 0 
-0.00172575 -0.00167909 -0.00360406 
0.00273143 0.00334895 0 
-0.00384262 -0.00225469 0 
0.0176951 -0.0134648 0 
0.0110476 0.00481717 0 
-0.022626 0.00617933 0 
-0.0467389 0.0224379 0.013308 
0.0834567 0.0299633 0 
0.0651065 0.0434609 0 
-0.073468 -0.0457877 0 
0.0392109 -0.0199472 0.274908 
-0.00425329 -0.0220708 0 
0.00126683 -0.0152945 0 
-0.0163905 0.0151085 0 
-0.0271822 0.0558115 0.0281903 
-1.16822e-05 -3.33796e-05 0.000403937 
9.03015e-05 0.000430252 0.0004411 
-1.28377e-07 -4.68208e-05 -0.000956679 
0.000606779 -0.000364091 0.0468073 
9.4623e-05 8.27611e-07 0.000613189 
-0.000475645 4.14438e-05 0.000434213 
-0.000494728 3.10491e-05 -0.000478122 
0.00141761 -0.000400007 0.0639314 
-1.92875e-05 3.50419e-05 0.0373765 
3.76304e-05 0.000340326 0.035053 
-0.000153849 -0.000148438 0.0717141 
0.00105699 -0.000712399 0.0474915 
2.2265e-05 -6.31738e-06 0.0006928 
0.000241523 -0.000448411 6.75582e-05 
-3.38807e-05 0.000579052 0.0439675 
-0.000223508 0.000405216 -0.000253674 
-0.00278952 -0.00196235 0.00219789 
0.00071233 0.000505159 -0.00929572 
0.000308928 0.000217929 -0.00155005 
-0.0246979 -0.0141761 0.0436149 
0.00282918 0.000196314 0.00072894 
-0.00259476 -0.000180048 -0.00360259 
0.00108594 0.00349477 -0.00186279 
-0.00187726 -0.000130261 0.00155566 
0.0349923 -0.0338489 0 
0.0580304 0.00448108 0 
-0.0714276 0.0207298 0 
0.120927 -0.0368586 0.102956 
-4.89973e-05 0.00207467 0 
0.000413089 -0.00136177 0 
0.000425444 -0.0014025 0 
-0.000744182 0.00250377 -0.000610126 
0.000148359 -0.000478887 0.0430706 
-8.53909e-05 0.000110686 -0.000182072 
-0.000484044 0.000557374 0.000889759 
0.000385713 -0.000461004 -0.000246567 
-0.00271413 0.00321454 -0.0126504 
-0.000123624 -0.000525404 0.015261 
-0.000795076 0.000115528 0.0157691 
0.00389058 0.0159599 0.000201845 
-0.0164399 0.0150465 0 
0.0327595 -0.0140576 0 
-0.0459461 0.0182021 0.0305048 
-0.000599819 -0.000473362 0 
-0.0681813 0.00246957 0.141123 
0.0178189 0.0204334 0.431304 
-0.0371687 -0.0153307 0.150944 
-0.113643 -0.0552035 0.10896 
9.2076e-05 0.000265047 0.0401181 
-0.000130487 -0.000233509 0.0770736 
0.000180633 -8.64634e-05 0.0618817 
0.000280211 -0.00170905 0.0595288 
0.0352976 -0.011421 0.0542322 
-0.0266668 0.0205555 -0.0343555 
-0.00681731 -0.00823177 -0.0389976 
0.0919155 -0.0223009 0.182098 
0.0672059 -0.00113607 0.164154 
-0.0225735 -0.0181603 0.413287 
0.03749 0.0295557 0.169884 
0.125541 0.0674752 0.12982 
-0.014357 -0.00459826 0.351632 
0.00836471 0.0183483 0.153254 
0.0416566 -0.0126836 0.135727 
0.0798699 -0.00251699 0.165626 
0.00192212 0.0177211 0.353685 
0.017105 -0.0246802 0.165432 
-0.0287236 -0.0517191 0.220174 
0.0779026 -0.137921 0.16793 
-0.000352667 0.000219073 0.107818 
0.000343905 -0.000259038 0.11592 
2.90784e-05 0.00032797 0.0904134 
-0.00391206 -0.00279749 0.105851 
0.000882555 -0.00157355 -0.016299 
-0.00189693 0.00304697 0.0138981 
3.42574e-05 -0.000189013 -0.00870009 
0.0340892 -0.0299426 0.156636 
-7.30069e-06 -0.000307753 0.000792507 
1.69556e-05 0.000160675 3.89353e-05 
-6.32764e-06 4.99699e-05 -0.00038744 
0.00012345 3.53074e-05 0.0466424 
-0.000188554 -0.000297715 0.0385912 
0.000200098 0.00036317 0.000211649 
-5.04274e-05 -0.000119721 0.000480181 
-0.000111371 -0.000182423 -0.000490759 
4.72267e-05 0.000363427 0 
-1.67046e-05 -5.50676e-05 0 
8.7625e-05 0.000275869 -0.000157014 
-8.91772e-05 -0.000293978 0 
-0.00027478 -0.00090583 0 
-9.33073e-05 -0.000307593 0 
0.000212343 0.000735489 -0.000428899 
0.000465687 0.00106907 0 
-0.00127815 0.00574554 -0.00080306 
0.000729074 -0.00287746 -0.00389606 
0.000407005 -0.00349041 -0.00197569 
0.00132736 -0.00652858 0.0069521 
-1.61124e-05 0.000106263 0.000225572 
-6.55305e-05 0.000543494 0.000479444 
-0.000293894 -0.000712026 0.0486796 
2.91855e-05 -0.000316208 7.82328e-05 
-2.83443e-05 0.000359684 0.0534452 
-0.000215401 -0.000993849 0.0834805 
-0.000197443 0.000253705 0.0429484 
-0.000333814 -0.00406982 0.0623692 
-0.0194012 -0.000533601 0 
0.015419 0.00467732 0 
-0.0200403 -0.00594995 0.00430307 
0.013622 0.0041322 0 
-0.0104506 0.00669907 0.35691 
-0.00129992 0.0216362 0.353703 
-0.0193126 0.0212629 0.388582 
0.0602249 -0.0909795 0.358926 
-0.000310368 -8.18035e-05 -0.000467597 
0.00013697 2.45317e-05 0.000644548 
0.000389006 0.000112379 0.000213046 
-0.000470376 -0.000390659 0.0424092 
-0.00888481 0.00673814 0 
-0.0118555 -0.0135278 0 
0.00441649 0.0081482 0 
-0.0209182 -0.0407262 0.01604 
-4.80581e-05 0.000558446 -0.000836983 
6.21986e-06 -7.22761e-05 -0.00189613 
0.000130826 -0.00152022 0.00059634 
0.000138752 -0.0131528 0.0396861 
0.0106412 0.00881227 -0.0026507 
-0.00415846 -0.00341276 0 
-0.00604 -0.0049569 0 
0.0013106 0.0044188 0 
0.0179482 -0.00376339 0 
0.0180454 0.00291703 0 
-0.0167877 0.014962 0 
-0.0348013 0.0208507 0.0218472 
0.000266084 0.000205184 -0.000373218 
-5.1911e-05 -1.70109e-05 0.000724385 
-0.000468636 -0.000385936 -3.78176e-05 
0.000496721 0.000609023 0.0386727 
0.00758919 -0.000743851 0.000122022 
-0.00845178 0.000832427 0 
-0.00300587 0.000296053 0 
0.00668331 -0.00586648 0 
-0.0317647 0.0153317 0 
-0.0156796 0.0100366 0 
0.0434584 -0.00190425 0 
-0.0907783 0.0734868 0.102211 
0.000297794 -0.00366953 0 
0.00426631 0.00228039 0 
-0.0100876 -0.0055212 -0.00445872 
0.00489585 0.00261688 0 
-1.73033e-05 8.78294e-05 -0.000291771 
4.10171e-05 -0.000363255 0.000176674 
-5.41964e-06 0.000228043 0.000574599 
0.000120476 0.000177959 0.0441605 
0.000183119 -0.000189361 0 
0.000148729 0.000278252 0 
1.59478e-05 2.98362e-05 0 
-0.000159047 -0.000298205 -9.76806e-06 
-0.000752013 -0.000470499 0.0409998 
0.000486653 0.000391317 0.000228399 
9.38702e-05 5.66322e-05 0.000577581 
-0.000256039 -0.000185014 -0.000710817 
-0.00408849 0.000936489 0 
0.00464795 -0.00248438 0 
-0.00679317 0.00357633 -0.00200605 
0.00438021 -0.00234127 0 
0.000125729 -0.000332386 0.110803 
0.000235568 0.000520108 0.132532 
-0.00050278 -0.000161647 0.11051 
0.00154558 0.0077256 0.11966 
-0.000636975 -0.0011917 0 
-0.000646864 -0.0012102 0 
0.00132997 0.00253976 -0.000777122 
-0.000336548 0.000974668 0 
0.000124674 -0.000358566 -0.000531761 
-0.000215917 0.000722538 -0.000109072 
-7.60238e-05 0.000169583 0.000821868 
0.000296761 -0.00100488 0.0389389 
-8.69425e-05 -1.98212e-05 0.00041463 
0.0002161 1.03739e-05 0.00040181 
3.34686e-05 8.29378e-06 -0.000184052 
-0.00012652 -0.00056035 0.0559592 
0.000112222 -9.94609e-05 0.000187811 
-0.000510645 0.000400344 0.000477824 
0.000383128 -0.000319866 0.000138804 
-8.56473e-05 -0.000593088 0.0537048 
-5.83621e-05 -0.000551587 -0.000147705 
5.38239e-05 0.000546483 0 
6.86198e-05 0.000696708 0 
-0.000147152 -0.00101066 0 
-0.000498961 -4.1722e-05 0.000273324 
0.000204525 3.00718e-05 0.000365636 
0.000187307 0.000303001 0.0528095 
0.000209952 1.5432e-05 -0.000193224 
0.000336898 0.000510228 0.0304294 
-0.000247935 -0.000461321 4.79191e-05 
4.02911e-05 0.000103129 0.000525058 
0.000123021 0.000203976 -0.000495363 
0.0141229 0.00164678 0.42084 
-0.0624176 0.00564374 0.167518 
-0.0373183 0.0528239 0.170402 
-0.134191 0.00571131 0.107288 
-0.00179874 0.00592964 0 
-0.00198289 0.0065367 0 
-0.00267379 -0.000831433 0 
0.0040952 -0.0138783 -0.00434524 
-0.000283499 -0.000551194 -0.0004164 
-5.01397e-05 -0.000153505 0.000843917 
-0.000201771 -0.000393572 -0.000275403 
-0.00110123 -0.00165892 0.0395182 
-0.031787 0.0375387 0 
0.00949482 -0.0464361 0 
0.00701207 0.0580441 0 
-0.0382888 0.128583 0.127091 
-0.00533621 0.0002007 0 
0.0031347 0.0009509 0 
0.00497991 0.00151064 0 
-0.00600469 -0.00181131 -0.000339321 
0.0122275 0.00633737 0.0068432 
-0.0141508 -0.00756374 0 
-0.00971647 -0.00519356 0 
0.016172 -0.000987635 0 
0.0144882 -0.00197419 0.320264 
-0.0370733 0.000683856 0.139996 
-0.0448739 0.0295883 0.15194 
-0.0775172 0.073637 -0.0032581 
0.00500536 0.0153653 0 
-0.00452736 0.0135763 0 
0.000610687 -0.0187852 0 
-0.00221694 0.00936885 -0.0109548 
4.30322e-05 -5.53964e-07 -0.000624979 
-0.000353267 0.000170961 0.000497381 
0.000141224 -8.82477e-05 0.00035532 
0.000159948 -0.000205809 0.0482477 
-0.000226721 -0.000288004 0.000203178 
0.000523984 0.000614998 0.000406216 
-0.000200333 -0.000235606 -0.000147073 
-0.000165211 -0.00041214 0.0504764 
5.52113e-05 6.37553e-05 -6.09005e-05 
-0.000580628 -0.000667881 0.000685439 
0.000296033 0.000353755 -0.000120445 
0.000250298 0.000789085 0.0468173 
-0.000339768 -0.000634498 0.0487414 
0.000736035 0.00037478 0.000468392 
-0.000199172 -0.000115581 0.000229231 
-0.00027126 -0.000142682 -5.80278e-05 
0.000922983 0.00112466 0 
-0.000638529 -0.00144327 0 
0.000494396 0.000602424 0 
-0.000979651 -0.00123983 -0.000973156 
6.05936e-05 0.00012769 0.0453737 
0.00010273 0.000322986 0.00014413 
-8.20756e-05 -0.000331599 0.000561382 
-3.30322e-05 -6.69925e-05 -0.000385406 
0.000220913 0.000702951 0.0465428 
-0.000341296 -0.00017167 0.000270316 
0.000176207 0.000111006 0.000422713 
-0.000170359 -0.000100932 -0.000248118 
-6.519e-05 -9.32592e-05 0.0350569 
-2.64031e-05 -0.000232275 0.000121443 
2.7465e-05 0.000392096 0.00038413 
2.39657e-06 -7.02947e-05 -0.000320994 
-0.000386766 0.000117324 0 
-0.00232709 -0.00110105 0 
-0.000869209 0.000189656 -0.00230497 
0.000472047 -0.000143194 0 
-0.000964335 -0.00117505 0 
-0.00113117 -0.00137834 0 
0.00273642 0.00349913 -0.00347745 
-0.0022816 0.00189548 0 
0.00181514 -0.000651032 0.0159674 
0.000920034 -0.000995445 -0.0118692 
-0.00396671 0.00307974 0.0148129 
-0.0116916 0.00231462 0.00335503 
0.00367724 0.0033212 0 
0.00236446 -0.00288111 0 
0.00180434 -0.0021986 0 
-0.00496062 0.00633396 -0.00605913 
4.53015e-06 5.48828e-05 0.0372324 
-0.000105552 -0.000341457 5.97947e-05 
5.34933e-05 0.000238327 0.000570134 
3.64109e-05 7.41491e-05 -0.000422028 
-6.48483e-05 0.000172545 -0.000389495 
0.000150198 -0.000511771 -0.00015714 
-5.90191e-05 0.000279485 0.000802255 
-1.92537e-05 0.000105371 0.0363103 
0.002165 -0.000213234 0 
-0.00458698 0.000451778 0 
-0.00112576 -0.000904369 0 
0.00198475 -0.000102175 -0.00372758 
-0.00111593 0.00260303 0 
0.00126671 -0.00236985 0 
0.000736096 -0.00137714 0 
-0.00095094 0.00185714 -0.00116166 
0.0453232 -0.0178516 0 
-0.0129545 0.0154009 0 
-0.0276449 0.00072886 0 
-0.0968089 0.0428858 0.0537164 
-6.99043e-05 -5.94482e-07 -0.000275468 
0.0002208 -1.53119e-05 0.000237001 
-1.61052e-05 1.61531e-05 0.000536498 
-0.000188469 0.000412643 0.0463351 
0.00423994 -0.00372079 0.00806095 
-0.00733282 0.00601789 0 
-0.00328484 0.0026958 0 
-0.00899015 0.00372794 0 
1.8863e-05 0.000182417 -3.28112e-05 
-1.95386e-05 -0.000198378 0 
-2.28746e-05 -0.00023225 0 
3.81686e-05 0.000315187 0 
-0.00507282 0.00634192 0.00383028 
0.00853054 -0.0103945 0 
0.00186994 -0.00227853 0 
0.00330148 0.00495844 0 
-0.0160837 0.018219 0 
0.00472431 -0.0111042 0 
0.0102732 -0.0168547 0.0463581 
-0.00437466 -0.00558867 0 
-0.000360337 0.000797645 0.0447739 
5.21105e-05 -2.72771e-05 0.000656845 
0.000429154 -0.000515311 0.000138103 
-0.000145844 0.000153447 -0.000440019 
-0.0061456 0.0029392 0.0119212 
0.00761472 -0.00407015 0 
0.0132326 -0.007073 0 
-0.0139167 0.00264351 0 
0.000244886 -3.29071e-05 0.000321587 
-0.000450067 3.54961e-05 0.000323184 
2.99451e-05 -0.00018879 0.0397296 
0.000244076 -1.64369e-05 -0.000278208 
-0.0131756 0.00746436 0 
-0.0185167 0.0152838 0.00193423 
0.0116971 -0.00959958 0 
0.00689619 -0.00565956 0 
1.10539e-05 0.000580836 0 
4.36866e-05 -0.000443558 0 
3.91052e-05 -0.000397042 0 
-2.30081e-05 0.000267542 -0.000122319 
-7.91212e-06 -1.10874e-05 -0.000384704 
0.000519117 -0.00026336 0.000354479 
-0.000270831 0.000159872 0.000379523 
-0.000332515 0.000425324 0.0453804 
4.00961e-05 -0.000980866 -0.00208129 
4.67418e-05 -0.000474578 0 
-0.000115884 0.00117659 0 
-0.000815527 5.4829e-05 0 
-0.0129124 0.00477255 -0.0191183 
-0.000397941 -0.0107525 0.010581 
0.00254288 -0.00127696 -0.0102803 
0.0149479 -0.0048952 0.0483683 
-0.00290561 0.000881406 0 
-0.00345824 -0.0033811 0 
0.00304564 -0.000923886 0 
0.0116278 -0.00371382 0.00623755 
0.00286252 0.00349772 0 
0.0019282 0.000189911 0 
0.00214504 0.000211268 0 
-0.00715086 -0.000598252 -0.00364284 
-6.64996e-05 -6.54964e-06 0 
-0.00156176 -0.00015382 0 
0.00247188 -0.000507365 0 
0.000788835 8.22242e-05 0.000155637 
0.0025762 -0.00958413 0 
-0.00784933 0.0146851 0 
-0.00427835 0.00800424 0 
0.0087693 -0.0169999 -0.00797107 
0.00478169 0.00643992 0.104322 
-0.00053782 0.00239484 0.00825808 
0.0053347 0.013443 0.11731 
-2.42778e-05 0.00247435 0.0738338 
0.00392421 0.00624482 0.102363 
0.00406553 0.0155922 0.118542 
0.00171156 1.41979e-05 0.00849614 
0.00391802 0.0102709 0.0783633 
0.000644077 0.00835343 0.0793152 
0.00161357 0.014548 0.118337 
0.00378542 -0.00108766 0.00873746 
0.000765272 0.00391858 0.0723388 
0.00255668 0.00760007 0.0825757 
0.00609211 -0.00319493 0.00966801 
-0.00155431 0.0173354 0.116793 
0.00658154 0.012476 0.0795068 
-0.0219277 0.0067984 0.0326167 
-0.0156153 -0.00938126 0.0947466 
-0.0288651 0.0159567 0.060644 
-0.0156981 -0.000102542 0.0985779 
-0.020116 0.00685673 0.0301062 
-0.0303607 0.012349 0.044299 
-0.0128816 -0.00555245 0.110314 
-0.0243241 -0.00891307 0.0725863 
-0.023172 0.0236991 0.128693 
-0.02739 0.0190087 0.0609642 
-0.0176943 -0.0131212 0.0882138 
-0.0153403 0.00101725 0.0945453 
-0.0246016 0.0338884 0.135719 
-0.0163067 -0.0111387 0.0967588 
-0.028602 0.0152382 0.0508624 
-0.0244607 -0.00886937 0.0669389 
-0.00853281 -0.00661972 0.0812523 
0.00351455 -0.000660487 0.0662968 
0.00284746 -0.00121705 0.00640662 
-0.00181995 -0.00364627 0.102194 
4.47149e-05 0.000216155 0.0051102 
0.000512037 -0.00267669 0.0656472 
-0.00316199 -0.00354787 0.0825257 
0.000305423 0.000255915 0.00128216 
0.000791578 0.00209152 0.0875353 
0.000244341 1.98578e-05 -0.00159244 
0.000695423 5.65176e-05 0.000145064 
0.000138784 1.12791e-05 0.000818456 
0.00123722 0.00519119 0.0841415 
-1.09378e-07 -0.000364811 0.000980628 
-0.000603474 -0.00211931 0.00106816 
0.0023916 0.00435847 0.0758193 
-0.00294312 0.00617494 0.0738705 
-4.22946e-06 0.000469851 0.0926276 
-0.000372876 -0.00125767 0.0473096 
-0.000149356 -0.000167784 0.0754873 
-0.00291706 0.00577952 0.0743899 
-0.000979453 -0.00149369 0.0473833 
-0.00031157 0.000869823 0.0919956 
-0.00246389 0.00959173 0.0911176 
0.00136126 0.00470754 0.00220781 
0.00727224 0.0074713 0.0323962 
0.00294831 0.00436802 0.0110599 
-0.000219508 0.00157117 0.00171989 
0.00387393 0.00443586 0.0072103 
0.00557318 0.00692042 0.0406825 
9.94353e-05 0.00715058 0.000200544 
0.012685 0.0194389 0.0317135 
-0.00442272 -0.000157335 0.0782341 
-0.000108369 5.52799e-05 0.00024359 
-0.000632906 0.00032329 0.0027116 
0.00130636 -0.000665162 0.000661019 
-0.00410057 -0.00583848 0.0819031 
-0.00148605 0.00185479 0.00238699 
0.00143928 -0.000552673 -0.000675892 
-0.0155887 0.00612798 0.0959702 
-0.0081487 -0.000748316 -0.00729946 
0.00431518 0.00354998 0.00050441 
0.0481118 0.0312547 0.0346352 
0.0011261 -0.000529654 0.00156665 
0.0492124 0.0316049 0.0351516 
0.00117402 0.00277061 0.000997379 
-0.00741767 -0.00074383 -0.00899535 
-0.00544923 0.004793 -0.0043475 
-0.00966328 0.0106308 0.0387423 
-0.000436399 0.0055406 0.00191832 
-0.0137998 0.0102188 0.0213963 
0.00135923 0.00156618 0.00191582 
-0.00959288 0.00976596 0.0490314 
-0.016492 0.00696454 0.0169803 
0.0042808 0.0122664 -0.00131084 
-0.0204075 0.0177074 0.0423543 
-0.0537393 -0.020755 0.121885 
-0.00379324 -0.0175507 0.118416 
0.0130452 -0.00524467 0.0788683 
-0.0228055 -0.0026407 0.0964709 
-0.0445293 -0.0195252 0.0685564 
0.0146267 -0.0143084 0.111347 
-0.00452828 -0.0198621 0.132607 
-0.00475776 -0.0431122 0.130427 
0.0220011 0.00677871 0.10274 
0.00419032 0.00334257 0.149416 
0.0195574 0.00241798 0.133064 
0.0106183 0.00104013 0.113277 
0.025182 0.00681959 0.110448 
0.0205253 0.00233136 0.13459 
0.000821415 0.00290721 0.138008 
0.00368884 0.00449543 0.149508 
0.0195232 -0.00471784 0.115253 
0.0207151 0.00280791 0.140205 
0.00399941 0.00315803 0.144922 
0.0106721 0.000947655 0.110558 
0.0228585 -0.00256829 0.12421 
0.000649966 0.00280544 0.126158 
0.0216693 0.00268674 0.146749 
0.00284486 0.00428031 0.150264 
-0.00298976 0.00192043 0.103128 
-0.0161303 0.0065469 0.118935 
-0.00113109 -0.000371353 0.132608 
-0.0127643 0.000990675 0.0958877 
-0.00481471 0.00170912 0.104738 
-0.00187846 -0.00136708 0.131181 
-0.0135564 0.00753813 0.118255 
-0.00275961 0.00475848 0.127327 
-0.00287102 -0.0104353 0.0357913 
0.00451689 -0.004088 0.00413225 
8.29451e-05 -0.00128012 0.00949375 
0.000606847 -0.0216338 0.0300572 
0.00146555 -0.0143268 0.0279976 
-0.00188679 -0.00679477 0.00186493 
0.00243813 0.00210749 0.0145093 
-0.001226 0.00315831 -0.00287306 
0.00106544 -0.00138811 -0.00111354 
0.00397284 0.00224447 0.0128554 
0.000215514 -0.00527624 0.00244203 
-0.00471113 -0.0269765 0.0250693 
-0.000198394 -0.00236498 -0.0013964 
-0.0006865 -0.00597344 0.0092513 
-7.41216e-05 -0.000883577 0.00553462 
0.000365562 0.00435773 -0.00167178 
0.0020303 0.00531437 0.100987 
-5.58542e-06 -0.0012549 0.0544447 
-0.000248789 0.000469301 0.0953797 
-0.000113382 -0.000136685 0.0821255 
0.00140077 0.00479193 0.101868 
-0.000381215 0.00117677 0.0949877 
0.000647134 -0.00101105 0.0537409 
0.00197229 0.00327769 0.0731107 
0.001051 0.00324915 0.0869699 
0.000142106 -1.15505e-05 0.00097313 
0.000235599 -1.91498e-05 -0.00185678 
0.000133819 -1.0877e-05 0.00101596 
0.00156785 0.00725026 0.0821838 
0.000122389 -0.00200576 0.000601082 
0.00206208 -0.00166782 0.0041671 
0.00135419 0.00806131 0.105398 
-0.000587976 0.000683068 0.000788843 
-0.000390006 -0.000326784 0.0399835 
0.00513982 0.00694797 0.0745385 
0.000246099 0.000420506 0.0470237 
0.00482196 0.00577202 0.0782302 
0.000128325 0.000121476 0.0385313 
0.000775649 0.000714161 0.000537948 
0.000427653 0.000549346 0.000998196 
-0.00947134 0.00466589 0.0154563 
0.002762 -0.00171807 0.00115746 
-0.0112266 0.00344912 0.0361287 
0.00283886 -0.000299196 -0.00213064 
-0.010293 0.00567931 0.015854 
-0.00992565 0.00418546 0.0444523 
0.00629625 -0.00677556 -0.00322469 
-0.0183452 0.00919002 0.0327972 
0.120804 -0.0222082 0.344028 
-0.0520784 -0.0452907 -0.0511773 
0.100522 0.0101384 0.109509 
0.0127536 -0.077024 0.0406453 
0.0384208 -0.0886559 0.263929 
0.111415 0.0109185 0.113154 
0.0205906 0.00649689 0.0135549 
-0.0333103 -0.0470757 0.144671 
0.00108614 -0.00198916 0.0676927 
-0.00073053 -5.93708e-05 0.00249145 
-0.00016128 -1.31073e-05 0.00135037 
0.000193306 1.57101e-05 -0.00162549 
0.00202125 -0.000396868 0.0651407 
0.00082008 -0.00313167 0.00505823 
-0.00310428 0.000890001 0.0023145 
0.00240194 -0.00406764 0.105621 
-0.00356302 -0.00277816 0.0388281 
-0.0162301 0.00516326 0.0388551 
-0.0174534 0.00254907 0.0935661 
-0.0112685 -0.00358521 0.0453026 
-0.00354791 -0.00278235 0.0388964 
-0.016984 0.00206017 0.0914467 
-0.017107 0.00599878 0.0418951 
-0.00881384 0.00331887 0.0446421 
-0.00298077 0.000683835 0.00278766 
-0.00155262 0.00411521 0.0781038 
0.0021 0.0134833 0.0969571 
-0.00173944 -0.00351866 -0.000911448 
-0.000316858 0.0131013 0.0940593 
-0.000283853 0.00491048 0.0747846 
-0.00297317 8.80906e-05 0.00765534 
-0.00440589 0.0153408 0.0995294 
8.74457e-05 0.000554885 0.10717 
0.00263358 0.00365219 0.0987534 
0.000204136 0.000372519 0.0825096 
-8.53871e-05 -0.000571329 0.0935639 
0.000485995 -0.000524186 0.0833448 
0.00318386 0.00543238 0.0967746 
-0.000218927 0.000101544 0.107722 
0.00305513 0.00941628 0.112689 
-0.0008455 -0.000635927 0.00193277 
0.000521355 -0.000323635 0.038478 
0.00470001 0.00600574 0.0822132 
0.000827731 5.28712e-05 -0.000855756 
0.00328729 0.00424037 0.0788716 
0.000981582 -0.000237939 0.0397356 
-0.000323808 0.00180187 0.00255006 
-0.000442377 0.000706451 0.0462896 
-0.00413075 -0.0056578 0.00267891 
0.00114963 -0.00395166 0.004121 
-0.00146037 -0.00602265 -0.0012392 
-0.000205345 0.000995928 -0.000900574 
-0.00484988 -0.0102196 0.000386225 
0.000254251 -0.000162665 -0.000186604 
-0.00208161 -0.00499721 0.00351137 
0.00252848 -0.0245907 0.0232908 
-0.000126527 -0.00101019 0 
-0.000852847 -0.000418206 0 
-0.00488317 -0.00868748 0.00141357 
-0.000203047 0.00132524 0 
0.000425342 -0.00460052 -0.000789868 
-0.00381847 -0.00572895 0.00356142 
-0.00402659 0.00057249 -0.00191071 
0.0041286 -0.0291278 0.0209427 
-0.00105658 -0.00937023 0.0994917 
-0.000558557 -0.00894969 0.0688783 
0.00099233 0.000761986 0.0876049 
0.000176574 -0.00801265 0.0599052 
-0.000597199 -0.0105026 0.0992658 
0.00147249 -0.000469272 0.0899953 
-0.00141789 -0.00679938 0.0675354 
-0.00180505 -0.00738402 0.110681 
-0.00010199 0.000931768 0.0449575 
-0.000234029 0.00032619 0.000293227 
0.000412879 -0.0005841 -0.000308176 
-0.000536987 0.000751577 0.000597101 
-4.61129e-05 -0.000546784 -0.000513853 
-0.000157581 0.000544147 -0.00027276 
-5.92142e-05 0.000410356 0.0463635 
7.99642e-05 0.000396229 0.0444879 
-0.00878333 0.0365777 0.114159 
-0.00119244 0.00986302 0.101227 
-0.00976528 0.0189706 0.118586 
0.00233488 0.0278795 0.12779 
-0.00867708 0.0377007 0.110823 
-0.00978477 0.0189309 0.119999 
-0.00123037 0.00934194 0.101838 
-0.0129648 0.0157816 0.0683465 
-0.000257441 0.000433484 0.0463652 
-0.00030471 0.00103814 0.00209247 
-7.69808e-05 -0.000646756 -0.000966912 
0.000554948 0.000841717 0.0539308 
1.77519e-05 1.45739e-05 -0.000757446 
-0.000420296 0.000344113 0.00190419 
0.000171298 0.000665603 0.0456673 
1.30693e-05 -8.31987e-06 -0.000114579 
0.00041031 0.000733148 0.00119177 
0.000330969 0.0004602 0.0482648 
-0.000104826 -0.000389614 -0.000780644 
0.000195835 0.000374155 0.051705 
0.000480098 0.000166702 0.00153408 
9.52593e-05 5.17987e-05 -0.000401682 
-7.14155e-05 0.00102007 0.0470805 
-0.000392297 -0.000172145 0.000101486 
0.0686233 -0.057741 0.0637783 
-0.0266392 0.00277344 0 
-0.0122872 0.0270202 0 
0.0218118 -0.0356166 0 
0.0378398 -0.0285854 0.100015 
-0.00234658 2.47104e-05 -0.0308055 
0.0155073 -0.0100427 -0.020163 
0.0244671 0.0283571 0.0762356 
0.00134892 -0.00369366 0.00929726 
0.00822518 -0.0143215 -0.00597809 
-0.00248383 0.00592754 -0.00288969 
0.00344718 -0.0082886 0.00502105 
0.0113115 0.00104915 -0.00929871 
-0.00247474 0.00483581 0 
-0.00328188 -0.0139545 0 
-0.007939 -0.00935104 0 
0.00307553 -0.0297805 0 
-0.0422182 0.0890214 0.0378545 
0.0108419 0.000211932 0 
0.00535243 0.00457781 0 
-0.00614066 -0.0455162 0.0493713 
0.0157946 0.105643 -0.000183882 
-0.0496042 -0.0387186 0.0287817 
-0.0258374 -0.0497656 0.213414 
-0.000282134 -0.000192523 0.0784419 
-0.00286171 0.00440069 0.10039 
-0.00252576 0.00706128 0.118727 
5.04954e-05 0.000223503 0.10385 
-0.00335886 0.00742325 0.119125 
-0.00319882 0.00547345 0.0999033 
0.000266679 -0.00133023 0.0788086 
-0.00348585 0.00720593 0.0721695 
0.000317658 -0.000135755 0.0423774 
-0.00140101 -0.00021214 0.000379174 
-0.00407189 -0.00273424 0.0783321 
-0.000474991 -0.000354253 0.000975079 
0.000688067 0.00017121 0.0435666 
-0.00477197 -0.00392819 0.0746057 
-0.000172931 -0.000654941 0.000802796 
-0.000261243 2.54122e-05 0.0483962 
-0.00170731 0.00363417 0.058876 
3.82519e-05 5.16024e-05 0.00196981 
-9.48734e-05 0.000142515 -0.00109499 
0.000117303 -0.000286859 -0.000196713 
-0.00239011 0.00478669 0.0576595 
0.000325279 0.000550853 -0.000755372 
0.000215638 -0.00205341 0.00294663 
-0.00412753 0.00720364 0.0705259 
0.000316885 -0.000257135 0.000166908 
-9.08032e-05 -0.000342694 0 
-0.000281763 0.000333067 0 
0.000117303 0.000260811 0 
-7.09157e-05 -0.000157632 -9.47342e-05 
0.000137831 0.000314079 5.85201e-05 
0.00021861 -0.000280699 -0.000149313 
-0.00011177 -0.000260708 5.05401e-05 
-0.00173019 0.00201998 0.0508265 
3.91982e-05 -0.000157941 0.0458205 
-0.000224324 6.08856e-07 0.0860545 
4.03138e-06 5.09829e-06 0.0456728 
-0.00193828 0.00147647 0.0501805 
-0.000400896 0.000564332 0.086422 
9.19855e-05 -1.14942e-05 0.0459921 
-0.00338247 0.000385148 0.0603383 
0.00276528 0.00247002 0.0998954 
0.000171745 -3.5001e-08 0.0633998 
0.000116614 0.000755831 0.0815688 
-0.000103639 -3.51482e-05 0.0935741 
0.00236521 0.00359576 0.0986318 
0.000133847 0.00056533 0.0817549 
2.33348e-05 -0.00055748 0.0638352 
0.00295633 0.00509868 0.057781 
-0.00304733 0.00507831 0.101081 
0.000206527 -0.00059349 0.122579 
0.000614443 -0.000233548 0.127902 
-0.000387863 0.000238699 0.101783 
-0.00318818 0.00517052 0.100963 
0.000576395 -0.000224335 0.127866 
-0.000157344 -0.00129658 0.122021 
-0.00307453 0.00641847 0.125728 
-0.0108047 -0.00874636 -0.012182 
-0.00942762 0.00896432 0.0106948 
-0.0127269 0.027976 0.0489949 
-0.00848355 -0.00450595 -0.0223983 
-0.0187365 -0.00807587 -0.0221555 
-0.0074686 0.0276674 0.0548969 
-0.00807238 0.00745923 0.0196586 
-0.0164611 0.0257668 0.0117981 
-0.000681387 -0.00274192 0.0641917 
0.000420798 -0.000604066 0.105982 
-0.000812871 -0.000134259 0.102366 
0.000169866 -0.000265477 0.0764544 
0.000202505 -0.00403949 0.0651791 
-0.00125057 0.00024277 0.102111 
-0.000511499 0.000581131 0.105102 
-0.000576646 -0.00683869 0.110422 
0.0560124 -0.0160627 0.119253 
0.104553 0.0373336 0.152707 
0.00204362 -0.0441215 -0.0378017 
0.0365382 0.0362251 0.0526019 
0.0238341 -0.0280917 0.151244 
-0.00555397 0.00798537 -0.0515208 
0.0888973 -0.00688961 0.183127 
0.121389 0.00342131 0.0145316 
-0.00706775 -0.00238075 -0.0321133 
-7.14408e-06 -0.0121025 -0.00897616 
0.0992512 0.02624 0.145563 
0.030369 0.00999863 0.0327028 
-0.0534135 0.0193822 0 
0.123826 -0.0252758 0.13808 
-0.0233501 0.0290048 0 
0.0940367 -0.00249382 0 
0.0122717 0.000893916 0.0911251 
-0.00200164 0.000172255 -0.000674557 
-0.000871145 7.49681e-05 -0.000418877 
-0.000103888 8.94024e-06 -0.000281833 
0.00828468 0.00683899 0.0830426 
0.00151497 -0.00348295 0.00544882 
-0.000873003 -0.00151064 0.00195918 
0.00218443 0.00783848 0.0843072 
-0.00278295 0.0450787 0.115803 
-0.0466358 0.056195 0.0973457 
-0.00136214 0.00957596 0.0418032 
-0.0263981 0.0518036 0.151757 
-0.0151749 0.0398309 0.117474 
-0.00818874 0.0139907 0.0687459 
-0.0373656 0.054861 0.0773606 
-0.0199758 0.0330871 0.0510007 
-0.00119127 0.00143918 0.0504102 
-4.82429e-05 -0.00056688 0.0010436 
0.0003906 -0.000233457 5.24858e-05 
-0.000265805 0.000374573 0.0461479 
-0.000683014 0.00104604 0.0502646 
-3.9224e-06 -5.65234e-05 0.000285098 
-1.95188e-05 -0.000281275 0.000748407 
1.06892e-05 0.000154035 -0.000128585 
-0.0300582 0.0729722 0.10825 
0.00339549 -0.0418541 0.0131791 
0.0181041 0.107725 0.146621 
0.0178492 -0.0211512 0.0991605 
-0.0156009 0.0472076 0.133747 
0.00267843 0.0597336 0.203358 
0.00784292 0.0122287 -0.0479363 
0.0257342 0.112086 0.0119532 
0.00253361 0.0103143 0.0788369 
0.00418583 0.0153617 0.115407 
0.00456996 0.0144602 0.115124 
0.00264226 0.00613084 0.100698 
0.00445411 0.00782884 0.0783994 
0.00322289 0.0146716 0.114762 
0.00202293 0.01669 0.115258 
0.0068054 0.0201642 0.102127 
0.00112764 -0.00330493 -0.00444276 
-0.0153566 0.0119173 0.0153484 
-0.0025531 -0.0036112 -0.00257311 
0.00067876 0.00254067 -0.00160286 
-0.00680016 -0.0105727 0 
-0.0153276 0.0212987 0.00441793 
0.00314193 -0.00484686 0 
-0.00324632 0.00650482 0 
-0.00161249 -0.0114381 0.135541 
-0.00195739 -0.00911834 0.0886594 
-0.000772363 -0.000237958 0.0929772 
-0.00123371 -0.00560242 0.0714678 
0.00104718 0.00191081 0.096821 
-0.00388167 -0.0125382 0.13218 
4.80274e-05 0.000502297 0.110268 
-0.00262803 -0.0109344 0.0863139 
-0.0244176 0.0118982 -0.00849732 
0.00608299 -0.0159911 0.0922994 
-0.0139903 -0.0079045 0.166474 
0.00957292 0.0150524 0.156755 
0.00127646 0.000723139 0.111114 
0.00107417 -0.00844849 0.122471 
-0.0033105 -0.0148194 0.137558 
-0.00368215 -0.0176921 0.121162 
0.00314832 0.0190545 -0.0174135 
-0.0201617 -0.0565994 0.0784721 
-0.0537272 0.0567294 0.0679049 
-0.0826846 0.0195507 0.184653 
-0.0021819 0.00722856 0.0101397 
-0.0138783 -0.0139193 0.085138 
-0.0336354 -0.0254132 0.140097 
0.0106401 -0.00366207 0.102206 
-0.000479135 -0.000934689 0.0945648 
-0.00126931 -0.00820973 0.126002 
-0.00218052 -0.01026 0.13246 
-0.000599761 -0.00602434 0.0749381 
-0.000839567 -0.0189799 0.0646649 
-0.0375686 -0.04087 0.157734 
0.0110447 -0.0378105 0.117861 
-0.0346551 -0.0673768 0.153889 
0.000388424 -0.000258291 0.111143 
0.000338523 0.0015963 0.107255 
-0.0045479 -0.0125781 0.0879897 
-0.00277747 -0.00703193 0.107269 
0.00681334 0.025742 0.108883 
-0.000861589 0.0264981 0.126728 
0.0046796 0.00963254 0.123209 
0.0010214 0.00527036 0.116255 
-0.000840418 -0.0172912 0.131375 
-0.00107674 -0.0116177 0.125343 
-0.00234512 -0.0103613 0.103828 
-0.00289755 0.00151858 0.07585 
-0.00276919 -0.0028376 0.138387 
-0.00152247 0.00491079 0.13998 
-0.000436214 -0.000995308 0.146289 
-0.00202293 -0.000100301 0.135288 
9.11921e-05 0.000451508 0.11015 
-0.00229596 -0.0112714 0.0911542 
-0.00339583 -0.013135 0.128157 
-0.00420761 -0.00951698 0.10634 
0.0124115 0.0270803 0.110908 
-0.00248238 0.0270719 0.127891 
0.0107288 0.0263734 0.114309 
0.00254298 0.0105834 0.125096 
0.0105137 -0.00452301 0.0942068 
0.0202744 0.00685302 0.0444111 
0.0102776 0.0121221 0.111785 
0.0119544 0.000188731 0.125095 
-0.000114719 0.0013631 0.106931 
0.000612043 -0.0131114 0.103124 
0.00218035 -0.0103288 0.12032 
-0.00336833 -0.0172935 0.124274 
0.000834351 0.0130463 0.130589 
0.00434712 0.0101356 0.123166 
0.00187951 0.0248763 0.124142 
2.64296e-05 0.00668555 0.11623 
0.00901798 0.0110379 0.113591 
0.0247183 0.00360508 0.0453905 
0.0287513 0.0136101 0.0842499 
0.00601326 0.00489791 0.123405 
-7.55768e-05 0.000775317 0.0823109 
0.000582348 -0.000587745 0.0988881 
6.99786e-05 -0.000479573 0.111349 
-0.00355778 -0.00833371 0.082308 
-0.0123413 -0.0242235 0.117307 
-0.00382588 -0.0147973 0.136859 
-0.00451004 -0.000132902 0.14151 
-0.00898397 -0.0175558 0.133753 
-0.00554976 0.0094041 0.109281 
-0.0213653 0.0511465 0.100759 
0.0113805 0.0610196 0.150908 
0.0148776 0.0231041 0.143708 
-0.00383319 0.0554053 0.0660701 
-0.00480076 0.0308838 0.114779 
-0.00427843 0.0438895 0.185204 
0.00231928 0.0509359 0.191734 
0.00867232 0.0255597 0.120367 
0.000848597 0.0252075 0.124739 
-0.000429383 0.012631 0.129506 
0.0037024 0.0102509 0.123336 
-0.00530805 -0.00838215 0.00122422 
0.0297348 -0.00849704 0.0930527 
0.0130156 6.90975e-05 0.0928629 
-0.00527505 0.0109715 0.0791439 
-0.00282586 -0.0197249 0.0842901 
-0.0359452 -0.0295781 0.0249319 
-0.0366295 -0.0453611 0.156804 
-0.0339343 -0.0659113 0.144707 
0.000766333 -0.00066513 0.135086 
0.00172711 0.00869565 0.106745 
-0.000317835 0.00951063 0.13012 
0.00568368 0.010901 0.110817 
-0.010378 0.026283 0.130099 
0.0156997 0.0596004 0.159992 
-0.0174844 0.0495165 0.0922203 
0.00842327 0.0255408 0.145005 
0.00656474 0.0244785 0.0934174 
-0.00210196 -0.0088199 0.114852 
0.00153918 0.0129265 0.129916 
-0.00127016 -0.00274956 0.0910447 
-0.00114995 -4.83311e-05 0.0653857 
0.00458252 0.0338252 0.106827 
0.00141991 0.010722 0.0787413 
0.000258382 0.0133479 0.0437805 
-0.00186311 -0.00560142 -0.0106631 
-0.0265172 0.00852627 0.0010387 
-0.0107815 0.000330074 -2.14691e-05 
-0.0102393 0.00785979 0.0859178 
-0.00795527 0.0179067 0.123282 
-0.0233581 0.0448101 0.0885641 
-0.00540571 0.00906414 0.104372 
0.0113153 0.0599372 0.148952 
0.00449369 -0.00549827 0.130671 
0.00748686 -0.00552054 0.135032 
-0.00973973 -0.00329247 0.138908 
-0.0059113 -0.0164431 0.135927 
0.00463754 -0.00537253 0.126449 
-0.00552864 -0.0200935 0.139029 
-0.00517419 -0.0137706 0.137975 
0.00323675 -0.00878377 0.121313 
-0.00630214 -0.0011793 0.139985 
-0.00433693 -0.0154974 0.136449 
-0.00750777 -0.0218781 0.12145 
-0.00326206 -0.00659869 0.136858 
0.000653144 -0.000908449 0.0956313 
-0.00306472 -0.00796999 0.0858777 
0.000596704 0.000811912 0.0825354 
-0.0028045 -0.0053956 0.0691536 
0.0136562 0.0452094 0.161303 
0.0245244 0.0615592 0.158666 
-0.0203443 0.0243075 0.137594 
0.0103084 0.0251785 0.124939 
6.80298e-05 0.0094163 0.130029 
0.00288127 0.00787828 0.108435 
0.000141322 -0.000301063 0.134459 
-0.00108522 0.000622077 0.133807 
0.0087306 0.0136809 0.106327 
-0.000148104 0.00891972 0.0729508 
0.0117431 0.0320513 0.110948 
-0.000461925 0.0347353 0.085064 
0.000569339 0.0177474 0.135535 
0.00732065 0.00623007 0.127845 
0.00257672 -0.000268598 0.128285 
0.00185095 0.00701479 0.124585 
-0.0644065 0.04699 0.106898 
0.02374 -0.0209066 -0.0676996 
-0.100058 -0.0023852 0.146893 
-0.0584611 -0.0174856 0.288451 
0.00685021 -0.017599 0.117535 
-0.00254501 -0.0183671 0.143753 
0.00328624 -0.00437859 0.124644 
0.00113857 -0.0101755 0.117956 
-0.0838118 -0.0193213 0.105836 
-0.106144 -0.0551192 0.176644 
0.0154824 0.0296486 0.0647397 
0.0201419 -0.0337518 0.114387 
0.000419641 -0.000945735 0.140534 
-0.00272922 -0.0024799 0.140388 
0.00182402 0.00363261 0.132712 
-0.00111705 0.00257581 0.139452 
-0.00184031 -0.00248943 0.142888 
2.72714e-07 -0.00095034 0.139332 
0.0020677 0.00251554 0.130659 
-0.00103284 -0.0053968 0.140164 
-0.00517058 0.00187963 -0.0059756 
-0.00505203 -0.00109368 -0.00602117 
0.00497312 -0.00973183 0.00633329 
0.0238173 -0.029023 0.0211954 
0.0024318 0.0106131 0.12974 
-0.00301234 -0.00669837 0.114943 
0.00754437 0.0218878 0.0932043 
0.00148425 0.00713255 0.108161 
-0.00387762 -0.0158291 0.135924 
-0.00202856 -0.00948059 0.126263 
0.00178009 0.00135024 0.112804 
-0.0039862 -0.0171458 0.119321 
0.00952169 -0.00149783 0.00480243 
-0.00336698 -0.000764884 -0.00191494 
0.0152911 -0.00674033 0.0775601 
-0.00515187 0.0075633 0.0840911 
-0.00203154 0.00525332 0.000562027 
-0.0373501 -0.0298074 0.0698229 
-0.000141419 0.00893284 -0.0117022 
-0.0699946 0.0203544 0.181095 
0.0169307 0.0012282 0.100784 
0.0260976 0.00949738 0.0795456 
0.0104104 0.00227173 0.127393 
0.0317142 -0.027595 0.0727613 
0.0165841 -0.0311195 0.0428031 
0.00029476 0.0103977 0.000292108 
-0.000627526 0.00302563 -0.0192461 
0.027401 -0.0506419 0.0308931 
0.0160498 -0.0204644 0.131605 
-0.00570937 -0.0368333 0.133272 
-0.00442238 -0.0110841 0.099195 
-0.0123234 -0.011314 0.0947063 
0.019995 0.00700486 0.113547 
0.0242327 -0.00668381 0.0311532 
0.0236696 0.00431587 0.0742486 
0.0295954 -0.0308258 0.0578527 
-0.00389838 -0.0153369 0.137171 
-0.00782152 -0.0181046 0.136497 
0.00378913 -0.00404442 0.128363 
-0.00038401 -0.00588812 0.137905 
0.00975289 -0.00290365 0.0883158 
0.00243791 -0.00129517 0.119197 
0.0317311 -0.0255974 0.146002 
0.039978 -0.0225175 0.0888885 
-0.00315862 -0.00874255 0.105061 
-0.00020299 -0.0103401 0.0888238 
-0.00346366 -0.0213964 0.132986 
-0.000191081 0.00423908 0.0738037 
-0.00436182 0.00278097 0.0744008 
0.00797405 0.0274938 0.095038 
0.00450685 0.0207547 0.0397732 
-0.000666824 -0.00674518 0.078037 
9.86704e-05 0.000346347 0.141412 
-0.00131904 -0.00157372 0.145238 
-0.000794624 0.00477486 0.140274 
-0.000773101 -5.576e-05 0.136053 
0.00023087 -0.000616924 0.132424 
0.000988647 0.01009 0.129246 
0.00321471 0.0122933 0.123981 
0.00355184 0.0100116 0.111652 
0.00439174 -0.0306956 0.127577 
-0.00179963 -0.0106816 0.104435 
-0.00271682 -0.0284498 0.132057 
-0.0074194 -0.0084391 0.0969593 
0.00233243 0.00757929 0.107777 
0.0104609 0.0330131 0.0910666 
0.0158864 0.0436387 0.104674 
0.0107405 0.030091 0.127985 
-0.0105018 0.0023879 -0.0265406 
0.0220815 -0.0037186 0.0132904 
0.089225 -0.0590809 0.168639 
0.0188867 -0.0289353 0.0683691 
-0.00234508 -0.00222738 0.0632907 
0.00267867 0.0235459 0.0441266 
0.00816832 0.0301952 0.104377 
-0.00078236 0.0144052 0.0444948 
-0.00713228 -0.0227867 0.111204 
-0.000848101 -0.0295176 0.14291 
-0.00906396 -0.0305323 0.0857554 
0.00976826 -0.0580506 0.0980244 
0.00161973 -0.00604653 0.127287 
0.00275356 3.56835e-05 0.130231 
-0.000465787 0.000866232 0.139226 
-0.00131008 -0.00439203 0.14033 
-0.007036 -0.0288838 0.0863661 
-0.0290789 -0.0279935 0.129141 
-0.0141985 -0.0163038 0.0905725 
-0.000460763 -0.0415684 0.134088 
0.00759992 0.0306467 0.109814 
-0.000861436 0.033672 0.0754314 
0.00139534 0.0100551 0.0796569 
-0.000400424 0.015961 0.0405244 
0.0241744 -0.0343027 0.14711 
-0.00605204 0.00207348 0.0871389 
-0.00505055 -0.0289714 0.126788 
0.00165095 -0.0403338 0.127358 
-0.00622142 -0.0131364 -0.00534192 
0.047114 0.0233161 0.0681178 
-0.00396554 0.00893031 -0.0227561 
0.019501 -0.0207239 0.0449894 
-0.00052308 0.000272076 0.131019 
-0.00250184 -0.0143807 0.128425 
-0.00263117 -0.0100649 0.118507 
-0.00198998 -0.00750503 0.104166 
-0.00206414 -0.00891097 0.11857 
-0.00281164 -0.0149294 0.126532 
-0.000626903 -1.66432e-05 0.132766 
-0.00261141 -0.00764069 0.136323 
0.00418766 -0.00450506 0.129475 
-0.00861619 -0.0175589 0.135925 
-0.00475116 -0.00361029 0.141448 
0.000182991 -0.00643417 0.139005 
0.0132307 4.53975e-05 0.0927935 
0.00471654 0.00267853 0.067135 
0.0118443 0.0101159 0.110689 
0.0129773 0.00445806 0.0488059 
0.000858417 0.016202 0.140709 
0.00841769 0.0112907 0.107858 
0.00936287 0.00823246 0.120561 
0.000648642 0.00606285 0.128103 
-0.00284757 -0.000236848 -0.0045102 
-0.00894891 0.0010178 -0.0136808 
0.0662827 0.0559087 0.0778415 
-0.0245942 0.0127923 0.0157237 
-0.00438147 0.00268791 0.00404793 
0.00518547 0.00107521 -0.000169894 
-0.00514947 -0.0116843 0.108526 
0.0156188 0.0136205 0.123959 
-0.00554765 -0.00844996 -0.00782084 
0.0762455 -0.0342469 0.12921 
0.0209379 -0.0116393 0.0371165 
0.0107483 0.00456726 -0.00230539 
-0.000764887 -0.0277251 0.101904 
-0.04334 -0.0302311 0.11709 
-0.0248722 -0.0324137 0.0547148 
-0.0139111 -0.0188816 0.0488726 
0.00142922 -0.000520121 0.147825 
-0.00386422 -0.00662568 0.13653 
-0.00487951 -0.00278609 0.139705 
-0.00173667 -0.000355619 0.133822 
-0.00790091 0.00344514 -0.00364476 
0.0874581 0.0430378 0.0930611 
-0.00853719 -0.00808638 -0.0186637 
0.0125791 0.0055371 -0.0011152 
-0.00442081 -0.00153417 -0.0020534 
0.0189475 -0.00854582 0.0502495 
0.0106373 -0.00509305 0.0509117 
0.00535955 -0.00863774 0.0502989 
0.0344599 0.0089863 0.390983 
-0.0662501 -0.00581275 0.262883 
0.0678912 -0.0406918 0.184697 
0.0701974 0.0244605 0.200777 
0.00028398 0.00078778 0.108234 
-0.000346192 0.000263609 0.0819302 
-0.0044311 -0.0109301 0.086027 
-0.0026944 -0.00695437 0.107617 
0.00933102 0.00251156 0.0923587 
0.034522 -0.0275526 0.15837 
0.0335124 -0.010309 0.0154354 
0.0388498 -0.0264397 0.0784466 
0.0238728 -0.00826619 0.0452458 
0.0180006 -0.0158578 0.04826 
-0.00675313 -0.00142428 -0.00983734 
0.0062802 -0.00703525 0.00728339 
0.00216001 0.0246094 0.110158 
0.000516776 0.00835458 0.106207 
-0.00328397 0.0252404 0.13436 
0.00345775 0.00654267 0.108503 
-0.0046094 0.00460692 0.0676491 
0.00489737 0.0152115 0.0758391 
0.00647951 0.0243237 0.106061 
0.00115731 0.00739217 0.10775 
-0.032024 -0.0321637 0.130243 
-0.00494057 -0.0331389 0.136863 
-0.00598254 -0.00354674 0.082058 
0.00158383 -0.0380047 0.120386 
-0.000265338 -0.000727982 0.129207 
-8.1603e-05 0.00179792 0.132341 
0.001933 0.00654932 0.109171 
-0.000219942 0.000342892 0.134553 
0.011508 0.0229923 0.115289 
0.00170411 -0.00135448 0.0894585 
0.00308218 0.0128692 0.121949 
0.0158966 0.0299474 0.12726 
-0.00977514 -0.0193828 0.112875 
-0.0129624 -0.0200681 0.136152 
-0.000912329 -0.00644722 0.147031 
-0.0247973 -0.00218947 0.107218 
0.0348336 0.0139332 0.0822272 
0.0169378 0.00343747 0.044837 
0.00698602 0.010778 0.11621 
0.0069546 0.00770083 0.0555453 
0.0138635 0.0324018 0.109619 
0.00250218 0.0103701 0.120152 
0.00280086 0.0135221 0.106293 
0.0142814 0.0286367 0.121474 
0.0138279 0.0288475 0.101062 
0.00957911 0.0293239 0.113868 
-0.00123023 0.00649403 0.128054 
0.00271601 0.00915354 0.128157 
-0.000125412 0.000837038 0.137521 
-0.00193179 -0.00717439 0.121549 
0.000272834 -0.00161228 0.130036 
-0.00274318 -0.00672673 0.137889 
-0.000159063 0.00831393 0.133699 
-0.00769605 0.00148838 0.114772 
0.00878966 0.0312316 0.109486 
-0.00127705 0.00262469 0.0864953 
0.0071849 0.0196952 0.104648 
0.00601983 0.0104509 0.122568 
0.00879967 0.0229475 0.113301 
0.00216877 0.0109163 0.108714 
-0.00902068 -0.0176199 0.095319 
-0.00285002 -0.028014 0.131734 
-0.0234292 -0.0315955 0.127126 
-0.00806672 -0.00506096 0.098126 
0.00884324 0.0236861 0.116341 
-0.00167924 0.0133106 0.0721467 
0.0069097 0.0186614 0.10547 
0.00193595 0.00961829 0.107076 
9.4328e-05 1.19258e-05 0.102001 
0.0014154 0.00898338 0.0969532 
-0.000569616 -0.00148412 0.0781668 
0.0017938 0.00681503 0.113454 
-0.0137693 0.0224189 0.135776 
0.0231205 0.0422908 0.121236 
-0.0068326 0.0166162 0.109221 
0.0140626 0.0245865 0.135093 
-0.000384785 0.00113071 0.110977 
-0.000512302 0.000713192 0.123428 
-0.000459315 -0.0137383 0.140175 
0.000298306 -0.00937328 0.120915 
-0.000821601 0.000615919 0.11199 
-0.00266996 -0.0127794 0.129661 
0.000662057 0.0023117 0.0980954 
-0.00181642 -0.00910996 0.125058 
-0.00461835 -0.0105379 0 
-0.0210042 0.00460934 0 
-0.00237992 -0.012501 0 
-0.00904179 0.028803 0.0540041 
0.00264227 0.000148551 0.129124 
0.00992527 0.00814817 0.11945 
0.00800775 0.0117373 0.108258 
0.00057452 0.00595966 0.128371 
0.000569131 0.000226399 0.112328 
0.000431886 0.000298822 0.125014 
-0.000439028 -1.81621e-05 0.131347 
-0.00224628 -0.0129672 0.137168 
0.0234982 -0.00682171 0.0390415 
0.0295467 -0.0169566 0.124099 
0.0145552 -0.00253795 0.0968082 
0.0158543 -0.00187073 0.044237 
0.00361954 -0.0020096 0.126717 
0.00161732 -0.00877081 0.120744 
-0.00380093 -0.0163479 0.137979 
-0.00139833 -0.00673467 0.139433 
-0.0541106 0.114951 0.0466901 
0.0152882 0.052013 0.184673 
0.0242193 0.00174388 0.202348 
-0.00555665 0.0533341 0.235901 
-0.0256829 -0.00678284 0.0711631 
-0.0515405 -0.0162799 0.173324 
-0.0114464 0.0087975 0.00247584 
-0.0106622 -0.00968063 0.0870692 
0.0170025 -0.0243312 0.0568081 
0.00580758 0.00490043 -0.00061822 
0.0177121 -0.0220347 0.0429337 
0.0194538 -0.0416811 0.0322376 
0.000159557 0.000126104 0.137734 
-0.000758137 0.000164474 0.120869 
-0.000318171 -0.00179753 0.128646 
-0.00140598 -0.00565151 0.123562 
-0.00027217 -0.000165216 0.139587 
-4.32841e-05 0.0100181 0.129686 
0.00130531 0.0123971 0.130351 
0.00366776 0.0109857 0.124001 
0.0155553 -0.00189585 0.0962677 
0.0174617 -0.00351466 0.0484937 
0.0257198 -0.0152733 0.118237 
0.0115173 -0.00759309 0.0943814 
-0.00177262 -0.000178578 -0.00844751 
-0.0184244 -0.0242552 0.0461274 
-0.00214228 -0.0027731 0.00187741 
-0.00512194 -0.0144711 0.0494156 
-0.00242478 -0.00396731 -0.00065487 
0.00907806 -0.0081231 0.00837179 
0.0168264 -0.0174996 0.0443564 
0.0142139 -0.0249116 0.0258309 
1.27115e-05 -0.000624239 0.0759274 
0.000829482 0.00806732 0.0996115 
0.000856481 0.000852356 0.101339 
0.00032641 0.00287204 0.064257 
-0.0147513 -0.00849111 -0.00200609 
0.0286745 -0.0191235 0.0265108 
-0.0117335 -0.00554543 0.00131162 
0.0124451 0.000212772 -0.000114678 
0.00941478 0.0197654 0.114682 
0.00245847 0.00416558 0.0856962 
-0.00416229 0.0114917 0.103365 
0.00127699 0.00895 0.112757 
0.0111396 0.0210263 0.115274 
0.00258067 0.0147194 0.126761 
0.00300164 0.00404761 0.0878853 
-0.00150603 0.00722184 0.110611 
-0.000436701 0.000235233 0.0393349 
-0.000452697 0.00100944 0.00275238 
0.00470239 0.00178934 0.0668389 
0.00343647 -0.000491404 0.0611272 
-0.0124737 -0.0235757 0.148294 
0.00752275 -0.046467 0.115033 
-0.00762251 -0.0445367 0.0565439 
0.0361052 -0.0545079 0.122409 
5.20594e-05 -0.0131712 0.105662 
0.00064435 0.00145538 0.102942 
-0.00232496 -0.00607232 0.0839679 
-0.00322795 -0.0173341 0.126353 
-0.00384787 -0.00529413 0.140479 
-0.00870284 -0.0154401 0.136209 
-0.0196598 -0.0031366 0.145994 
-0.023834 -0.00418369 0.111791 
-0.02334 -0.0145401 0.162491 
-0.00219281 -0.0218007 0.0630419 
0.0120226 -0.0334163 0.155973 
0.0193114 0.0219231 0.17736 
0.0086539 0.00256199 -0.0172901 
0.0158655 0.0123141 0.00782545 
0.0562381 0.0207315 0.085134 
0.0274745 0.0159913 0.0449058 
0.00450947 0.0143057 0.100589 
0.00421107 0.0107375 0.124856 
0.00206676 0.00387901 0.0895777 
0.0143394 0.0285607 0.123846 
0.00348308 -0.00267093 0.00486352 
0.00628786 -0.00269664 0.0903124 
0.00158146 -5.84328e-05 0.00112976 
6.90909e-05 0.00714747 0.0802899 
0.000220293 -0.000160465 0.00226535 
-0.000471516 -0.000395877 -0.0106296 
0.0151849 -0.0113071 0.0458007 
0.0122736 -0.0152571 0.0494965 
-0.000461683 -0.00377763 0 
-0.00184943 0.00183176 0 
-0.000217932 -0.000379105 0 
-0.00308346 -0.0122288 0.00250423 
-0.00857746 -0.0279547 0.104306 
-0.0134816 -0.017768 0.0840414 
-0.0275386 -0.0257868 0.105708 
-0.0173294 -0.0192876 0.0504247 
-0.0058662 -0.00546651 0.14 
-0.00412732 0.0168406 0.123409 
5.60437e-05 0.00484306 0.141762 
-0.00774651 0.00326404 0.121537 
0.0320197 -0.0516078 0.146452 
0.0149763 -0.0166808 0.076768 
0.00515489 -0.00629028 0.0217369 
-0.0156925 -0.00967473 0.107244 
0.0098649 0.0319187 0.100603 
0.0110711 0.0287432 0.112663 
0.00413967 0.00998039 0.1237 
0.0172634 0.0302598 0.12851 
0.00037765 2.80995e-05 0.0894315 
0.000185159 0.00927802 0.0710019 
0.000306579 0.00572525 0.046438 
-6.57924e-05 0.00248268 0.0924551 
0.000171594 -0.000739171 0.089787 
0.000824089 0.00759488 0.107499 
0.00148191 0.0122182 0.0726327 
-0.000719114 0.00107571 0.0914812 
-0.00448287 -0.00464498 0.13598 
-0.0068702 -0.0145609 0.1354 
0.00101444 -0.00377928 0.138588 
-0.00737722 -0.00191168 0.139065 
-0.00193255 -0.00143871 0.143251 
0.00252724 0.00120536 0.130444 
0.00156147 -0.00725744 0.127167 
-0.00116511 -0.00508365 0.1402 
-0.134316 -0.0565028 0.152289 
-0.0386606 -0.029256 0.238015 
-0.00963968 -0.0370996 0.0454999 
0.00157857 -0.0543932 0.175112 
0.00173326 0.00152348 0.112977 
-0.00399598 -0.0145599 0.137348 
0.000411846 0.000447594 0.130259 
-0.00199168 -0.0102638 0.125359 
0.000190332 -0.000945511 0.129897 
-0.00280312 -0.00753516 0.121776 
0.00028871 0.00109999 0.120489 
-0.00235874 -0.00695508 0.10464 
0.000320072 -6.35062e-05 0.142442 
-0.000133197 0.000114737 0.141412 
-0.000497834 -0.00112882 0.144961 
-0.00128941 0.00402512 0.140083 
0.0342536 -0.00326243 0.00819821 
-0.0194328 -0.0236917 0.192541 
0.00883525 -0.0529566 0.157915 
-0.00574114 -0.00899228 0.102389 
0.000413316 0.00128936 -0.00412961 
-0.00142019 -0.00327993 0.00264775 
0.000818767 0.00191533 -0.00177109 
-0.00860779 -0.0151305 0.0436422 
9.15396e-05 0.00040331 0.0805809 
6.48885e-05 -0.000226588 0.110729 
0.000122085 -0.00128167 0.110462 
-0.00427549 -0.00879463 0.0837598 
0.000202549 0.0194878 0.12189 
-0.00354877 0.0269165 0.130415 
-0.00306686 0.0392618 0.110205 
-0.00311141 0.0323407 0.132715 
0.00317274 0.0118337 0.0971821 
0.00537315 0.0156592 0.0914337 
0.00217232 0.0367297 0.090829 
0.0148964 0.0264524 0.132174 
-0.00149062 0.00209021 0.0677892 
-0.00535925 -0.0063264 0.0464164 
-0.000192812 0.000181947 -0.00196014 
0.000316493 -0.000322754 0.0496725 
-0.0063928 0.011274 0.0752847 
0.0131842 0.038736 0.110977 
-0.00990773 -0.00195355 0.114004 
-0.00414208 -0.00247212 0.0855335 
-0.00117154 0.00904341 0.130896 
0.0108123 0.0294903 0.115027 
0.0144305 0.0258124 0.0982118 
-0.00269176 0.00620186 0.0831109 
0.0119215 -0.0254232 0.101209 
0.00186313 -0.0105829 0.134684 
0.00462626 0.00516916 0.145826 
0.0343399 0.0251549 0.148211 
-0.00359691 0.0108185 0.104601 
0.00404855 0.00475573 0.0842155 
0.0100516 0.0187498 0.116589 
-0.00450703 0.00840466 0.0814583 
-0.00142543 -0.0075011 0.0959992 
0.00476534 -0.00772273 0.0926733 
0.0197823 -0.022317 0.144882 
-0.01543 -0.0106258 0.085989 
0.0089206 -0.00160342 -0.0207518 
0.0615034 0.0530095 0.0724725 
-0.014043 0.0499134 0.0832055 
-0.0221488 0.018067 0.0316036 
-0.00212605 -0.0108963 0.0997235 
0.00894852 -0.0277428 0.141613 
0.00188294 -0.00959812 0.091403 
-0.00556531 -0.00725068 0.0875139 
-0.00438458 0.0221069 0.135482 
0.0109613 0.00821428 0.120313 
0.0104832 0.00732606 0.111611 
0.00883941 0.0235274 0.123381 
0.000792646 0.00860102 0.0044313 
-0.0022976 -0.0154827 0.107849 
0.00364474 -0.00798973 0.088562 
-0.00601397 -0.00747579 0.0879105 
0.000930536 -0.000723404 0.141799 
0.000243885 0.0014718 0.142511 
-0.00283911 -0.00210239 0.139658 
-0.0013115 0.00264103 0.138809 
-0.00888631 -0.0202868 0.113994 
-0.00400062 -0.00218528 0.146866 
-0.00787397 -0.00105068 0.11655 
-0.0212629 -0.00812039 0.103911 
-0.00403154 0.0193436 0.12851 
0.000994963 0.0138534 0.13242 
0.00717251 0.0238371 0.123657 
0.00304344 0.00447252 0.129466 
0.0823009 -0.0713317 0.205415 
0.0415873 0.00147928 0.205001 
-0.0386445 0.0273094 0.252883 
-0.0879076 0.0860189 0.173996 
-0.00216554 -0.00241668 0.000701755 
-0.0059077 0.00356867 -0.00257066 
0.0181387 -0.0222044 0.0394733 
0.00986652 -0.00596801 0.0101008 
-0.00023036 -0.00167412 0.139799 
0.00211805 0.00189924 0.130432 
0.000519897 -0.000215065 0.13229 
-0.00013605 0.00405242 0.141038 
-0.00325281 0.000428428 -0.00022386 
0.0104605 -0.00313508 0.0522976 
0.00755748 -0.00550492 0.0738613 
0.00630466 -0.00822433 0.0497903 
0.000149661 0.0010178 0.14326 
-0.000336645 -0.00127256 0.145823 
-0.00266916 -0.00127917 0.138455 
-0.00124926 0.00294197 0.13835 
-0.000404247 -0.000393086 0.144997 
0.00108433 -0.000320978 0.141048 
0.000229958 0.00159572 0.142096 
-0.00291506 -0.00289367 0.141814 
0.000910959 0.00896474 0.128725 
0.000700763 0.0040278 0.14295 
-0.00456632 0.0177648 0.123811 
-0.0086912 0.00449948 0.119931 
-0.000534446 -0.00093375 0.000323767 
0.00173607 -0.000747249 -0.00716788 
-0.0219482 -0.0254576 0.0397269 
-0.00336627 -0.0105366 0.00826601 
0.00677107 -0.0182673 0.119836 
0.00834543 -0.0084925 0.0775562 
0.00224288 -0.0171796 0.104399 
0.000693756 -0.00894127 0.119591 
-0.00118314 -0.00520585 0.00160225 
0.00927476 0.00482248 0.089451 
0.00296148 0.00771118 0.0876194 
0.000324321 0.00681049 0.0803918 
-0.00550091 0.0222674 0.126774 
0.00652805 0.0300922 0.108749 
-0.00858601 -0.00158707 0.115802 
-0.0157411 0.00918879 0.104643 
-0.00450967 0.00156485 -0.00422306 
0.00285746 -0.00455668 0.000239412 
-0.000784914 -0.00351152 -0.00282917 
0.0235355 -0.0290386 0.0172916 
0.000291882 0.000135225 0.0790506 
-0.00431183 -0.00871788 0.0873466 
-0.00357515 -0.00897366 0.109767 
-0.00315298 -0.00488542 0.0586757 
-2.22576e-05 -0.000875303 0.120144 
0.000170794 0.00100067 0.128801 
-5.24281e-05 0.000843649 0.107318 
-0.00146764 -0.00416324 0.122725 
0.0141852 -0.00487465 0 
-0.0232485 -0.0048491 0 
-0.025938 0.00312336 0 
-0.0409696 0.019251 0.0858257 
-0.00350732 0.00144243 -0.0093795 
0.00353029 -0.00187872 -0.000119913 
-0.0186059 -0.027058 0.0417237 
-0.0241743 -0.0203071 0.0239952 
-0.00166531 0.0518565 0.0703223 
-0.00366703 0.0408526 0.194222 
-0.000741677 0.0300934 0.100257 
-0.0216621 0.0453557 0.2068 
0.000560954 -0.00114271 0.000960772 
0.00544461 -0.00695136 0.0798995 
-0.000621886 0.0004472 0.000661276 
0.00291811 -0.0050346 0.0639294 
-0.000249663 -0.0126933 0.105414 
-0.00157114 -0.00697218 0.0839908 
-0.000103531 0.000286688 0.1071 
0.00248577 -0.00257014 0.0654686 
0.000542613 0.00117002 -0.00677688 
-0.00142013 -0.0025752 0.00316693 
-0.000936369 -0.00152165 -0.00318711 
-0.0189717 -0.019943 0.0248572 
-0.000356683 2.23478e-05 0.139656 
0.00123107 0.01266 0.130704 
0.000261193 0.00959002 0.130175 
-0.000619527 0.00548284 0.139556 
-0.00266716 0.000270806 0.0673803 
-0.00592704 -0.0182517 0.0931132 
-0.00725224 -0.0112812 0.0495277 
-0.00108548 -0.00702724 0.106107 
0.00320927 -0.000912753 0.130055 
-0.000651514 0.00564666 0.13969 
-0.00164826 0.0171503 0.133094 
0.00294731 0.00619058 0.127266 
-0.00210967 -0.00431793 0.00335492 
-0.0171658 -0.0288296 0.0429404 
0.00667375 0.00426954 -0.00583234 
-0.0288663 -0.0245746 0.0284195 
0.00307894 0.0249383 0.0404307 
-0.00372631 0.0436217 0.0795068 
0.0144575 0.0265777 0.108515 
-0.00232272 0.0164655 0.040616 
-0.000279214 0.00351178 0.000465717 
-0.00529061 0.00474675 -0.019477 
-0.0117411 0.0148902 -0.01572 
0.0949622 0.000587466 0.084911 
0.00252148 -0.00537882 0.126312 
0.00604515 -0.00187153 0.101479 
0.00799883 -0.00740259 0.130776 
0.0132094 -0.00933011 0.0976428 
0.0253151 0.00690944 0.0762069 
0.0208663 -0.00644341 0.0356647 
0.0172732 -0.00352162 0.10073 
0.0110455 0.00783492 0.0403444 
0.00123907 -0.000475227 0.00467232 
-0.0134359 -0.0143295 0.0855858 
0.000919503 -0.000216775 0.0161349 
-0.00184247 -0.00474446 0.0974816 
0.0123663 -0.00115015 0.0894945 
0.0118505 -0.00868758 0.136349 
0.00292806 -0.00198256 0.0990472 
0.0149441 -0.0087944 0.0981407 
-0.000335795 -8.95841e-05 0.114501 
0.00244487 0.00831376 0.107545 
0.000625072 0.000117659 0.134693 
0.00261489 0.00936129 0.108449 
-0.000918477 -0.000922466 0.128243 
0.000576977 0.000688647 0.132843 
-0.000248553 -0.000147252 0.114612 
0.0024735 0.00749058 0.11025 
-0.000231951 -0.000314037 0.132956 
-0.00108212 0.000139792 0.141951 
-0.00272535 -0.0137425 0.133498 
-0.00153938 -0.00622586 0.140371 
0.00014165 0.000178937 0.0735755 
-0.000691831 0.000213495 0.0389189 
0.00513385 0.00188546 0.067484 
0.00356439 -0.000578456 0.0614323 
0.00418255 0.0106246 0.126389 
0.00092272 0.00765285 0.0734846 
-0.000780585 -0.000436911 0.0834367 
0.00284356 0.00792219 0.109361 
0.00967737 -0.0185084 0.115726 
0.00225657 -0.00669524 0.136509 
0.0385425 0.0135709 0.122194 
0.018763 -0.0141239 0.0916887 
0.00172306 0.010379 -0.00899299 
0.0306702 0.0181073 0.081422 
0.0857073 0.0406905 0.0976719 
0.005712 0.00219363 -0.002673 
0.00275629 -0.00143571 0.00358733 
-1.85608e-05 5.5784e-06 9.31879e-05 
-0.000643078 0.000335519 -0.000852717 
-5.59632e-05 0.00323341 0.0828256 
-0.0310875 -0.0222634 0.150345 
-0.0144035 -0.0133753 0.0892644 
0.00270767 -0.030296 0.154632 
0.0120938 -0.00583828 0.0872786 
0.000262984 2.67646e-05 0.130749 
2.76769e-05 -0.000324931 0.109674 
-0.000560019 -0.00200616 0.117748 
-0.000164585 0.00558809 0.105242 
-7.58951e-05 -0.0124517 0.105872 
0.00518606 -0.00740835 0.0759375 
0.0102965 -0.0224816 0.119609 
0.0100644 -0.0200367 0.0775221 
0.000592159 9.96232e-05 0.132366 
0.000481414 0.00963527 0.130978 
-5.02107e-05 -0.00023279 0.14002 
0.00275222 0.0109053 0.122647 
0.000880193 0.00137288 -0.00536075 
-0.000661969 -0.00107332 0.00278448 
-0.000870867 -0.00139597 0.00415392 
-0.0190609 -0.0268648 0.0425718 
-0.00109572 -0.000974613 0.0392952 
0.000789221 0.00890587 0.0736667 
-0.000417394 0.000428502 0.0704998 
0.00025113 0.00620864 0.0600808 
0.000237808 -0.000544509 0.13252 
-0.000127616 0.000138926 0.13949 
-0.000645561 0.00019178 0.141712 
-0.00201508 -0.00600275 0.140806 
-0.00260014 -0.0148006 0.128284 
-0.0037514 -0.0115415 0.0914932 
-0.00628613 -0.0209737 0.0992506 
-0.00293524 -0.00742083 0.105723 
0.0270108 -0.00904242 0.0595742 
0.047006 -0.0194963 0.135663 
0.0234986 -0.00996992 0.0363081 
0.00291169 0.000788156 0.0363388 
-0.00101281 0.000299739 0.141683 
-0.00241093 -0.00786441 0.138855 
-0.00348376 -0.0139913 0.134823 
-0.00197281 -0.00603069 0.140767 
-0.0203322 -0.0029976 0.146496 
-0.00617038 -0.000862245 0.135722 
-0.0015863 -0.00479823 0.131058 
-0.0258738 -0.00476023 0.121326 
0.00849885 -0.0150494 0.113967 
0.00672234 -0.00431312 0.135534 
0.0031865 -0.00546328 0.126228 
-0.00532865 -0.015789 0.139657 
0.01227 0.00255364 0.0868497 
-0.00583285 -0.0191076 0.110202 
0.00549293 0.00500221 -0.00246813 
0.0215955 0.015946 0.102498 
0.0367861 -0.0131877 0.0462193 
0.00345633 -0.0421991 -0.031976 
0.0486423 0.020078 0.169734 
0.064898 0.0279471 0.143233 
-0.0141831 -0.00253633 -0.0276772 
-0.0276572 -0.0260373 0.0469633 
0.00887219 -0.01343 -0.00699129 
0.0534832 -0.0686184 0.134478 
-0.00262495 0.0190886 0.135026 
0.00674656 0.0233333 0.119765 
0.0110026 0.00917998 0.114492 
0.0029058 0.00413872 0.127643 
-0.00490414 -0.0196786 0.099326 
-0.00263138 -0.0152855 0.130113 
-0.00325264 -0.00794677 0.114492 
-0.00307992 -0.0357604 0.116175 
0.0218214 -0.0369476 0.0312239 
0.0128446 -0.00905903 -0.026817 
-0.066557 0.0851146 0.0692425 
-0.0821493 0.030318 0.199656 
6.98994e-05 0.000923944 0.140498 
-0.00441111 -0.014577 0.135597 
-0.00271099 -0.00811802 0.138803 
-0.00255575 -0.0118845 0.127384 
0.00180757 0.00165876 0.108143 
-0.00275802 -0.00979254 0.128645 
-0.00212323 -0.00771342 0.0852577 
-0.00437786 -0.0173501 0.121168 
0.00516553 0.0145847 0.0995345 
0.00100149 0.000715679 0.0727437 
0.00640938 0.0145001 0.126395 
0.00227284 0.0121849 0.10991 
-0.000674864 -0.00118499 -6.48061e-05 
9.99437e-05 0.000188858 -0.000398911 
0.000114593 9.87681e-05 0.0031419 
0.0087217 0.00877055 0.0101663 
0.000892292 -0.000346011 0.132807 
0.00139208 0.00636656 0.106987 
-0.00198865 -0.00186256 0.114459 
-0.00112656 6.35769e-05 0.134058 
-0.000534194 0.000292697 -0.00209291 
-0.00592329 -0.00735604 0.0467357 
-0.00252739 0.00195346 0.0675962 
0.00113511 0.000405588 0.0289839 
0.00783601 0.0264618 0.110296 
0.00107698 0.00712519 0.107092 
0.000379439 0.0123025 0.0739617 
0.00284401 0.00861288 0.109144 
-0.00807009 0.00897212 0.0722334 
-0.00803676 0.000827915 0.116811 
0.0127521 0.0386444 0.108792 
-0.0218021 0.00232618 0.105489 
0.0506344 -0.0187998 0.0620498 
-0.0600008 0.0143962 0.101862 
-0.000306455 0.00490613 -0.0264082 
0.00751208 0.0223428 0.116926 
-0.00965045 -0.000366829 -0.00369724 
0.0144043 0.00534317 0.0418563 
0.0167606 0.000923913 0.0263569 
0.0145308 0.00582207 0.0149497 
-0.00459455 -0.0237244 0.118143 
-0.00213144 -0.00620514 0.115552 
-0.00222086 -0.0155402 0.131904 
-0.00396045 -0.0351582 0.112246 
0.0129513 -0.00209795 0.0897558 
0.0288695 -0.0229493 0.131333 
0.00931888 -0.00702558 0.135742 
0.0144669 0.0015724 0.0958686 
-0.00170113 0.00285664 0.0044639 
0.00048536 -0.0113041 0.108345 
-0.00124669 0.00376516 0.00276218 
0.00271333 -0.00759437 0.0879676 
-2.5315e-05 -0.000445264 0.000403891 
0.00494029 -0.00702805 0.0797125 
-0.000279492 0.000241841 0.0431363 
0.00267022 -0.00426126 0.0642323 
0.000863716 -0.00180758 0.00445189 
-0.0178195 0.00489961 0.0876175 
0.00616439 -2.85691e-07 0.0622456 
-0.0015999 0.00816161 0.0889181 
0.0312767 0.0144384 0.088766 
0.00556767 0.0126245 0.112733 
0.0208186 0.0174716 0.0810292 
0.0113288 0.00574955 0.0524227 
-0.00527397 -0.0163274 0.137413 
-0.00563345 -0.0206423 0.121399 
-0.0036867 -0.00666721 0.135933 
-0.00339034 -0.0275198 0.127437 
-0.00205428 -0.000895909 0.00115189 
-0.00174025 -0.00132156 0.0011378 
0.0050798 0.00461758 0.0902917 
0.00940916 0.00487744 0.0896742 
-0.00125569 -0.00417554 0.128715 
-0.0194265 -0.00397477 0.144132 
-0.00956701 -0.0143235 0.141405 
-0.00684323 -0.000282535 0.1377 
-0.0040262 0.00111642 0.0178485 
-0.000895496 6.11718e-05 -0.0147423 
0.00327459 -0.0010673 -0.0304439 
-0.0693654 0.0238502 0.203586 
0.00021186 0.000415235 0.141012 
-0.00132568 -0.00651646 0.117842 
-0.00357343 -0.00679856 0.137121 
-0.000714729 -0.000364634 0.133209 
0.0242746 -0.00793868 0.0567334 
0.040632 -0.0167111 0.128882 
0.00842248 -0.00200946 0.0424989 
0.0137633 -0.00671922 0.0967719 
-0.00161191 -0.00192377 0.0690989 
-0.00539239 -0.0104637 0.0510932 
-0.00406108 -0.00625818 0.0650784 
-0.00331189 -0.00693492 0.103899 
-5.89814e-05 0.00960695 0.106509 
-0.00207729 0.00747923 0.0838847 
-0.00231923 -9.57735e-05 0.0103577 
0.00102365 0.000944923 0.0618544 
0.001885 -0.0026369 -0.00553266 
0.00131658 -0.00317595 -0.00450089 
-0.00292862 -0.0100326 0.0101636 
-0.0202822 -0.0163829 0.0209798 
-0.0226547 -0.002533 0.159846 
-0.0163105 -0.0188238 0.141489 
0.00960394 -0.0276142 0.195227 
-0.00295567 0.00283632 0.114479 
0.000942552 0.00829244 0.100355 
0.000393434 0.00232347 0.0657108 
-0.000173591 -0.000922208 0.075361 
0.000865109 0.00774175 0.114197 
-0.00395696 0.0132361 0.12163 
-0.0106618 0.0018268 0.118768 
-0.00481091 -0.00205077 0.142525 
-0.00846313 0.00170524 0.137839 
-0.00780756 0.0199496 0.126368 
0.00523859 0.0243759 0.107771 
0.00064287 0.00905194 0.128971 
-0.00598875 0.00499638 0.116934 
0.000121633 0.000623422 0.0457867 
-0.00442168 -0.00521821 0.091745 
-0.000885514 0.000582111 0.000784584 
6.94941e-05 -0.00317347 0.0692041 
-0.00464842 0.0198464 0.125873 
0.0017302 0.0133338 0.134593 
0.00068961 0.00838467 0.127984 
0.00407548 0.0260028 0.110293 
0.00522649 0.00268522 0.0664742 
0.0150559 0.0106267 0.111629 
0.00995872 0.00403572 0.04855 
0.00967362 0.00671133 0.0545006 
-0.00246534 0.000497594 -0.003859 
-0.00162231 0.0010432 0.000663118 
0.014106 0.00439109 0.0368614 
0.0140702 0.00618383 0.0172375 
0.0187244 -0.0103495 0.047463 
-0.00430398 0.000214079 0.000656385 
0.0127353 -0.0151764 0.049699 
0.00519264 -0.00862162 0.050339 
-0.00216446 0.0109325 0.00288207 
0.00664728 -0.00762999 0.0908911 
0.000127228 -0.00737788 0.0975898 
-0.0081788 -0.010108 0.0896406 
0.000270878 0.00764347 0.0683794 
0.000234234 0.0346845 0.0890361 
0.0091604 0.0126386 0.103129 
0.000869776 0.0206786 0.0865455 
0.122575 -0.0264673 0.0843269 
0.0304934 0.000962635 0.180779 
-0.0169431 -0.00889155 -0.0419033 
0.0584804 0.0123991 0.150722 
-0.0218033 0.00284512 0.143956 
0.0380739 -0.022072 0.191618 
-0.0554465 0.011514 0.246238 
-0.0362525 0.0353213 0.190389 
-0.0301797 -0.0166007 -0.0271158 
0.0444657 -0.00896825 0.0426087 
0.10738 -0.00859156 0.195254 
-0.0108035 -0.0100303 -0.0394446 
0.00984915 -0.000208771 0.00153243 
-0.00959003 -0.00174412 0.0918721 
0.000999215 0.00191567 -0.00428987 
-0.010294 -0.00619573 0.0938104 
-0.00137201 -0.00463774 -0.00150446 
-0.00464109 -0.0059457 0.0100878 
-0.0141131 -0.023517 0.0421053 
-0.00321721 -0.00109001 0.0231729 
-0.0118695 -0.00152385 0.000259746 
0.000769326 -0.00120833 -0.00573613 
-0.00206916 -0.00624904 -0.0046225 
-0.00738412 0.0140167 0.0590962 
0.0118559 -0.00232476 0.0944206 
0.00260939 -0.00177459 0.104628 
0.00734283 -0.00565972 0.0772502 
0.0154136 -0.0082415 0.0922047 
0.000395351 -0.00160186 0.140488 
0.000925755 -0.000327836 0.132691 
-0.000734403 0.000431479 0.142262 
-0.000413648 0.00404382 0.140739 
-0.00742845 -0.0205339 0.0936571 
-0.0013804 0.00209411 0.0671463 
-0.00342617 -0.00888881 0.0874332 
-0.00178419 -0.00817011 0.106502 
0.00248713 -0.00641766 0.127638 
0.00743179 -0.00496125 0.0760081 
0.00295256 -0.00207716 0.105706 
0.0157461 -0.00874736 0.0936652 
-0.0111337 0.00375323 0 
0.0447055 0.000986063 0 
-0.0265835 -0.00233285 0 
0.090993 0.032423 0.0933631 
0.0102572 0.0273643 0 
1.17455e-05 -0.0122442 0 
-0.00624833 -0.015369 0 
0.0465933 0.0297141 0.0567514 
-0.00044837 -0.0294361 0.157964 
-0.0171909 -0.0127631 0.0910915 
-0.0341189 -0.0213326 0.154341 
0.0144728 -0.0593908 0.126174 
-0.00162067 0.000492378 -0.00576913 
0.00140052 -0.000343695 0.00672833 
-0.00762021 0.00345339 -0.0028725 
0.0279192 -0.0150277 0.0780979 
-0.0273373 0.00799468 0.0669826 
-0.0616237 -0.0260967 0.175501 
-0.0182435 -0.0333091 0.141217 
-0.00254853 -0.0469463 0.115261 
0.0171391 0.0399068 0.189482 
-0.0557947 0.0553342 0.128246 
-0.0256595 0.00421169 0.345775 
0.0118446 -0.0254606 0.169108 
0.00429514 -0.0110949 0.0789706 
0.00219239 -0.00549633 0.0977715 
0.0113011 -0.0158685 0.116437 
0.0144883 -0.00904526 0.0916959 
-0.0118716 0.0176482 0.129576 
0.000482559 0.0407616 0.0845365 
0.0154962 0.0286605 0.110526 
-0.01836 0.0127056 0.101889 
0.000744486 0.000196512 0.131483 
-0.00415056 -0.0146248 0.135211 
-0.000370057 0.000662159 0.141356 
-0.00192367 -0.0103338 0.125448 
-0.00247166 0.0153703 0.132309 
0.00823953 0.022921 0.130442 
0.00229355 0.00774259 0.111421 
0.00640797 0.0172833 0.117276 
-0.01863 -0.0304349 0.106076 
-0.00819896 -0.0213092 0.12937 
-0.0208893 -0.0345224 0.127486 
-0.000181097 -0.0317168 0.125275 
-0.00067773 0.00192359 0.00219723 
0.0031025 -0.00148081 0.0201335 
0.0101061 -0.0245027 0.0816933 
0.00352884 -0.0128192 0.103244 
-0.00122286 -0.0083316 0.00890634 
-0.00360124 0.0110659 0.0837495 
0.00017454 0.013076 0.107631 
-0.00387156 0.00778342 0.0849279 
0.000943014 -0.000247997 0.141386 
-0.00298953 -0.0030518 0.140082 
-0.00062752 -0.00019488 0.146337 
-0.00124139 -0.00526846 0.139419 
-0.00189956 0.000274806 0.141628 
0.00315386 -0.00514298 0.124889 
0.000206545 0.00018208 0.122232 
0.00324378 -0.000187307 0.129138 
0.00233539 0.0249587 -0.0165027 
0.0487773 0.0251944 0.0845274 
-0.00645564 -0.0128274 -0.0121037 
0.0163026 -0.0294247 0.0529339 
-0.015089 0.00542401 0.162304 
0.0165547 -0.0161442 0.142345 
-0.00517008 -0.00304164 0.146199 
-0.0180885 -0.00666971 0.124891 
0.0980208 0.0375094 0.113697 
-0.00824283 -0.0465459 0.137303 
-0.0238404 5.01025e-05 0.0572919 
0.044395 0.0232561 0.143629 
-0.000113144 0.00242597 0.128085 
-0.000935008 -0.00547843 0.12088 
-0.000264261 -0.000783044 0.122168 
-0.000931935 -0.000249767 0.13451 
-0.00625778 0.0144808 0.0683154 
0.0177256 0.0331539 0.113363 
0.00963596 0.0432585 0.0760102 
-0.0324611 0.00117075 0.1053 
9.35039e-06 0.000170191 0.0036929 
0.000782454 -0.00297401 -0.000268562 
-0.000187948 0.000454034 -0.0046126 
0.0107307 -0.0157137 0.0423105 
-0.00179027 -0.00392705 0.0017953 
0.0170967 -0.00490855 0.0460949 
-0.0029493 -0.00252443 -0.0038686 
0.00768778 -0.0036934 0.0475467 
0.000604365 0.000192417 0.0718967 
-0.000573966 0.00183601 0.064137 
0.000145701 0.00707291 0.104413 
0.000803692 0.00197915 0.0654067 
-0.00172925 0.00193769 0.000613254 
-0.00245789 0.000877173 -0.00210206 
0.00916529 -0.00639274 0.051096 
0.00660419 -0.00969834 0.0495155 
0.00125132 0.00190283 0.10656 
-0.000231031 -0.000843776 0.121001 
-0.00282076 -0.00536022 0.123155 
-0.000423884 -0.0005248 0.0922681 
0.0117242 0.0328291 -0.0424603 
0.0471372 -0.0716828 0.209337 
0.0610479 -0.0261508 0.0357184 
0.0175689 -0.0412551 0.0668498 
-5.31753e-05 0.00113556 0.00193501 
0.00754866 -0.014041 0.070011 
0.00559317 -0.0100903 0.078734 
0.0028007 -0.00466822 0.0640908 
0.00738788 0.0248635 0.0919908 
-0.00180671 -0.00840274 0.0810984 
-0.00176797 -0.00697645 0.117628 
-0.00258043 -0.00480451 0.0904485 
-0.000444858 0.000790774 0.000515982 
0.000623458 -0.00105273 0.00093807 
0.000202423 -0.000373831 -0.00065383 
0.00486919 -0.00738007 0.0797436 
0.00687449 -0.0043928 0.0757816 
0.00195497 -0.00523804 0.10014 
0.00439428 -0.0111083 0.0782013 
0.0144699 -0.00954758 0.0906632 
-0.00362716 -0.00315415 0.138926 
-0.00241699 0.00853958 0.127696 
-0.00240425 0.00549095 0.140183 
-0.000933208 0.000829875 0.134399 
-0.00153844 -0.00163932 -0.00921203 
-6.85858e-05 -0.000746463 -0.00224738 
0.00993149 0.00360637 0.0258696 
0.00842204 0.00648686 0.0141211 
-0.00236501 0.00285819 -0.00351919 
0.0170434 -0.00643015 0.0297853 
-0.00187717 0.00382745 3.1115e-05 
0.00831929 -0.0059656 0.0431894 
-0.00577387 -0.00482823 0.14118 
0.000398135 0.00612963 0.137645 
-0.00450535 0.0148453 0.123442 
-0.00620482 0.00100128 0.135162 
-0.00575985 -0.0210922 0.113175 
-0.00111757 -0.0385374 0.11797 
-0.00490683 -0.0241445 0.133273 
0.0151165 -0.0621086 0.109615 
0.0107686 0.0255327 0.119221 
0.00368299 0.0105247 0.118173 
0.011781 0.0293803 0.111039 
0.0166342 0.0299056 0.1285 
0.00747854 0.020982 0.0914723 
0.00224447 0.00846202 0.108739 
-0.00369685 -0.00754006 0.115179 
-0.00156935 -0.00419308 0.0820711 
0.00386158 0.000339605 0.00376347 
0.00130693 0.000539567 0.00166214 
0.000630875 -0.00254196 0.0907693 
-0.00515266 -0.0049786 0.0886397 
-0.000199848 0.000150389 0.0387181 
-7.37827e-05 -8.4054e-05 0.000479815 
-0.000249912 0.00128918 0.00154349 
0.00319009 -0.000849895 0.0626319 
-0.00162224 -0.0165676 0.128005 
-0.00346519 -0.00537698 0.134509 
-0.00606715 -0.0221406 0.12148 
-0.00371239 -0.0293861 0.129482 
4.18264e-05 0.000335715 0.11086 
-0.001683 -0.00344237 0.118029 
0.000423484 0.00577065 0.104041 
-4.94196e-05 -0.000723795 0.0926039 
-0.0266595 -0.00467183 0.161264 
0.0263528 0.01573 0.199773 
0.0239798 -0.0054013 0.180401 
-0.0248955 0.0232077 0.19732 
-0.0015491 -0.0123199 0.137569 
0.00833547 0.00765614 0.116598 
0.0172705 -0.0421222 0.15768 
-0.0158731 0.0123133 0.148026 
-0.00636262 -0.00498195 0.0642084 
-0.00568447 -0.0109383 0.050088 
-0.00572767 -0.0190454 0.094882 
-0.00214799 -0.0069864 0.105174 
-0.00404983 0.0017571 -0.0106663 
0.0059387 -0.00244313 0.00259737 
0.000520847 -0.00027711 0.00636756 
0.0121805 -0.00770145 0.0601884 
-0.00272969 0.0485993 0.0824276 
0.0354683 0.0549574 0.0746397 
0.00192838 0.00824121 0.0623351 
-0.017042 0.00966924 0.0339863 
-0.0108614 -0.0226757 0.117782 
-0.0163484 -0.0129591 0.131138 
-0.0187394 -0.0313753 0.101913 
0.00540972 -0.0369473 0.126044 
0.0100958 0.00842315 0.00608451 
-0.00652702 0.00511557 -0.00226446 
-0.044928 -0.0227839 0.167716 
-0.0208695 -0.00363093 0.0976852 
0.0242304 -0.0452415 0.0320687 
-0.00971361 -0.0664175 0.065003 
0.0332423 0.00769176 -0.0418833 
-0.0186205 -0.104632 0.203181 
-0.00687766 -0.0495802 0.0892757 
0.00192787 -0.0192976 0.0225534 
-0.00137656 -0.0142024 -0.000865939 
0.0239966 -0.0974228 0.116421 
-9.24536e-05 -0.00123484 0.141086 
0.000316377 0.000385248 0.138466 
2.99689e-05 0.00893506 0.132149 
-0.00133587 0.00538756 0.139964 
-0.00408928 0.0120943 0.0721226 
0.0177179 0.0301115 0.0974992 
0.0109858 0.0369254 0.114233 
-0.00306065 -0.00177961 0.0839779 
0.00799095 0.0133685 0.10879 
0.00260457 0.0036494 0.129838 
0.0140154 -0.0044759 0.0968006 
0.0100062 0.00194662 0.121834 
-0.00907646 0.00139343 -0.00341838 
0.0236915 -0.00555374 0.0289005 
0.0114845 -0.00348647 0.0455849 
0.0102415 -0.0041217 0.0120727 
-0.00063008 -0.00152584 -0.000451813 
-0.00207757 -0.000153135 0.00447539 
-0.000638066 0.00548818 0.0851413 
-0.000290466 0.00251558 0.0661484 
0.00862933 -0.00655018 0.092803 
0.0289574 0.0114778 0.081656 
0.0165105 0.00647814 0.0432608 
0.0181649 0.00107842 0.127116 
-0.031245 -0.0195823 0.185143 
0.030827 0.057186 0.0998299 
0.009986 0.0307595 0.18054 
-0.0184653 0.0206849 0.1997 
-0.0123092 0.0296336 0.011945 
-0.00880994 -0.0119126 -0.0348244 
-0.00368305 0.0926424 0.111677 
-0.0220449 -0.00413097 0.0309658 
-0.00080557 0.00050799 0.138857 
-0.00159759 0.000567938 0.122598 
-0.00014285 -0.00628192 0.120716 
2.64226e-05 -0.00121835 0.133933 
-0.0153034 -0.02772 0.0423185 
-0.00173248 -0.0109072 0.0860801 
-0.00605275 -0.0121904 0.0502478 
-0.00118408 0.00128109 0.0233614 
-0.00724607 -0.0042812 0.399798 
-0.0102497 0.0186207 0.36878 
-0.105504 -0.00117966 0.307642 
0.150325 0.0398585 0.162349 
0.0064998 0.00892289 -0.008188 
0.0210071 -0.00792573 0.0618556 
-0.00388546 -0.00818422 -0.0194649 
-0.040998 0.00133689 0.0850107 
-0.000192587 4.65348e-05 0.0388552 
4.51247e-05 -0.000132989 0.0446304 
-0.000196053 6.12879e-05 0.000298264 
0.00316736 -0.000735522 0.0624823 
0.00144497 -0.00985919 0.116953 
-0.0051268 -0.0158918 0.129026 
-0.00778192 -0.0208688 0.0981394 
-0.00195031 -0.00651327 0.104438 
0.00312873 -0.0215187 -0.0674905 
0.0419701 0.0320321 0.0671992 
0.0435785 0.0265654 0.0493937 
0.073403 0.0625463 0.175603 
-0.000138479 0.00023497 0.0497974 
-1.9209e-05 0.000219553 0.0518289 
-0.00035463 -0.00142688 0.0839227 
-0.0017112 -0.0022364 0.0668779 
-0.00328639 0.0145254 0.135226 
0.0101776 0.00926056 0.111005 
0.0010185 0.00680182 0.115278 
0.00967134 0.0238703 0.12631 
0.0101784 0.004516 0.00515572 
0.00388679 -0.016087 0.0819598 
-0.00123453 -0.016762 0.108313 
0.000869982 -0.0191171 0.101397 
-0.0220189 0.118484 0.0525365 
-0.0102289 0.0158255 0.0953585 
0.00104712 0.0802903 0.155018 
-0.0279718 -0.0159588 0.0346347 
0.00141185 0.0173424 0.03499 
-0.00336828 -0.00188964 0.00518962 
0.00359955 0.00736608 -0.00470378 
-0.00367785 0.00034125 0.0234789 
-0.0015685 -5.67936e-05 0.111137 
0.00248246 -0.0118032 0.0979227 
0.000198355 0.000336168 0.091912 
0.00191191 -0.00857228 0.120279 
0.00090556 0.000618394 0.11204 
0.00542763 0.00893821 0.111321 
0.00235307 0.00713811 0.113654 
0.00233854 0.00636416 0.127551 
-0.000133015 0.00122234 0.0821687 
0.00137356 -0.000458513 0.0810036 
-0.00499067 -0.00609064 0.108807 
-0.00233776 -0.00614631 0.059531 
-0.000107027 -5.51986e-06 -0.000472576 
0.000103263 -0.000579064 0.0317382 
-4.13506e-05 4.73414e-05 0.0373855 
-0.00117666 0.000294468 0.0501638 
0.00172422 -0.00113918 -0.00057785 
0.00556919 -0.0110962 0.0796947 
7.30328e-05 0.00191926 0.00129552 
0.00775897 -0.0146047 0.0707762 
0.00779561 -0.0135777 0.125386 
0.0422872 0.00241179 0.0981442 
0.0229053 -0.0135354 0.0518411 
0.0171796 -0.0102999 0.0986518 
-0.0285489 -0.022273 0.0360815 
0.00443959 -0.01803 0.0123594 
0.00809961 -0.00311046 -0.00361221 
-0.0354526 -0.0166675 0.0190133 
-0.0163992 -0.00888579 0.162242 
0.0197151 -0.00899096 0.160851 
0.00958349 -0.00554069 0.132212 
-0.0112619 -0.00821329 0.137094 
-0.00098349 0.000311555 0.000660284 
0.00232402 0.00245137 0.00230302 
0.00399334 0.00332282 0.0946126 
0.00260618 -0.00835398 0.0949916 
0.000730473 0.000240363 0.00144362 
0.00237244 0.00621704 0.000751314 
-0.00294954 -0.00160051 0.00621147 
-0.00299624 0.00108326 0.0175433 
-0.0116108 -0.00153249 -0.0163524 
-0.0204923 -0.0300106 0.050424 
-0.0213328 -0.0232513 0.0768945 
0.0531861 -0.0742985 0.0966367 
0.0101076 -0.00754682 0.0491453 
0.00497586 -0.00838456 0.0491911 
0.0213117 -0.00509056 0.0574992 
0.0183821 -0.00914997 0.0919459 
0.00674304 0.0215512 0.119992 
0.0166309 -0.0016818 0.09752 
0.0262899 -0.00684657 0.0929984 
-0.0105847 0.0135434 0.0721859 
-8.75138e-06 -9.16155e-05 0.0319006 
-0.000211506 -0.00104609 0.00229232 
-0.00314498 -0.00459694 0.0621231 
-0.00112405 -0.00110828 0.0493404 
-0.000179509 -0.00541903 -0.000753128 
-0.000197411 -0.00121512 0.000899613 
0.00131987 -0.00206578 -0.000131865 
-0.00347323 -0.00799246 0.000922291 
0.00121675 -0.000490824 0.00110929 
-0.00630504 -0.00442867 0.0131206 
-0.00119545 -0.00615178 0.000965204 
-0.00273682 -0.000785694 0.0207659 
8.62562e-05 0.0027838 -7.35527e-05 
-0.0122106 -0.016427 0.0773738 
-0.00447888 -0.00750514 0.0627738 
-0.0112844 -0.0170695 0.0534961 
0.00975593 0.00942678 0.112926 
0.00775914 0.0242003 0.124988 
-0.00220449 0.0142868 0.134744 
0.00302335 0.00313598 0.124166 
0.00195062 -0.000626808 0 
-0.0028185 -0.00311319 0 
0.00377511 0.00464566 0 
-0.0334249 0.00718171 0.00508754 
0.00939427 -0.0111858 0.139105 
-0.00981557 -0.00288804 0.134125 
-0.0188646 -0.0033189 0.154039 
-0.00683765 -0.00853639 0.13984 
-0.00400352 -0.00458917 -0.00251284 
0.0079612 0.00640513 0.0965202 
0.00640005 0.0116593 0.0881835 
-0.000270701 0.00181582 0.064717 
0.0184886 -0.0188897 0.114966 
0.000270011 -0.00533275 0.140287 
0.00501522 0.00286711 0.13529 
-0.0183077 -0.016176 0.138421 
-0.00609981 -0.0220397 0.121019 
-0.000428426 -0.0189661 0.127531 
-0.00412399 -0.00636358 0.117764 
-0.00321433 -0.00600183 0.136033 
-0.00547056 -0.014583 0.135895 
-0.00479845 -0.0100559 0.138491 
-0.00136805 -0.0148879 0.126762 
-0.00228358 -0.0249663 0.12558 
0.0174147 0.00182575 0.0380208 
0.02927 -0.0714085 0.166776 
-0.0102872 -0.00388586 -0.0129756 
0.0183737 -0.0235852 0.210495 
8.71104e-05 0.00114409 0.14006 
-0.00289153 -0.00888202 0.139043 
-0.0025707 -0.0141486 0.126274 
-0.00233939 -0.0110348 0.127283 
0.0135933 0.0215361 0.114124 
0.0160988 0.0009902 0.105129 
0.000182887 0.00689955 0.0810565 
0.0169281 0.0235795 0.133949 
-0.00463611 -0.0118302 0.0878245 
-0.00592286 -0.020539 0.100337 
-0.00244645 -0.00831223 0.109147 
-0.00506785 -0.00124446 0.0592382 
-0.00205127 0.00100289 0.0699152 
-0.00250766 -0.00834979 0.103731 
-0.00331504 -0.0086802 0.0645495 
-0.000966253 0.000453619 0.0902026 
0.000345587 -0.00011677 0.107703 
-0.00043704 7.15384e-05 0.0816172 
0.000116821 5.03981e-05 0.0829154 
-0.00328926 -0.00537891 0.107334 
-0.000674159 -0.00624679 0.117085 
-0.000723723 -0.00708206 0.0864566 
0.000566914 0.0103003 0.104652 
-0.00238448 0.000499384 0.0939915 
9.41267e-05 0.000426169 0.131638 
-0.000478144 -0.00104254 0.139809 
0.000405202 5.22869e-05 0.138467 
0.00054488 0.00882265 0.134 
-0.0783866 0.0127073 0.0707166 
-0.016387 0.00867459 0.0275658 
-0.0200486 -0.0513125 0.0494919 
-0.107959 0.0193216 0.171212 
-0.00344592 -0.0129136 -0.00334662 
0.0147567 -0.0499313 0.0677576 
-0.00634147 0.00667744 -0.0251404 
-0.00582876 -0.0221403 0.0410033 
-0.000547367 -0.00223908 -0.0225141 
-0.013736 -0.00652443 0.00284533 
0.0155577 -0.0247174 0.047948 
0.0347803 -0.0486392 0.0227965 
-0.00148759 0.00984895 0.12954 
0.00251672 0.0160301 0.131395 
-0.00323235 0.017891 0.12568 
-0.000347183 0.00340849 0.139527 
-0.000359727 0.000120791 0.132182 
-0.00289513 -0.0132805 0.134556 
0.00101 0.000512456 0.127006 
-0.00112818 -0.00748012 0.140248 
-0.006682 -0.0077954 0.06466 
-0.00707458 -0.0137828 0.0714291 
-0.000160283 0.000109879 0.00221503 
-0.00249481 -0.00520322 0.0573783 
0.0234344 -0.0159909 0.142515 
0.00543659 -0.00446132 0.123672 
0.00889066 -0.00584559 0.132389 
-0.0119655 -0.00262043 0.149154 
-0.000770014 0.00178354 0.0488588 
-0.000586564 -0.000246456 0.0830499 
-0.00208241 -0.00712871 0.0857689 
-0.00171156 -0.00442888 0.0687708 
-0.00177763 0.00182632 0.0105745 
-0.0267995 -0.0255478 0.191445 
0.0265533 -0.00542582 0.00194424 
0.00267816 -0.00643875 0.113532 
-0.00109095 -0.000277696 0.123717 
-0.00135707 -0.013098 0.127955 
-0.000734498 0.000697352 0.112118 
-0.00184123 -0.00891204 0.125542 
0.00869556 0.0101624 0.109611 
0.0066863 0.00289054 0.0676432 
0.0128997 -0.000769033 0.0932438 
0.003873 0.00300771 0.10629 
0.0800277 -0.0124568 -0.0489626 
-0.0167471 0.0127297 0.322097 
0.012369 -0.0138733 0.33828 
-0.049616 -0.00962691 0.2669 
-0.00592071 0.0234969 0 
0.00691361 0.00445718 0 
0.00391993 -0.0247504 0 
0.00778737 -0.0698348 0.0527551 
-0.000325884 -0.000148591 0.000589479 
-0.000936933 -0.000356995 0.00737959 
0.00209095 0.000981396 -0.00151507 
-0.00109221 -0.00402917 0.105903 
-0.00115161 -0.00267528 -0.000984998 
-4.36331e-05 6.9321e-05 -0.00257465 
0.000281685 0.000569848 0.00149752 
0.0052449 0.00324977 0.0170136 
-0.000868721 0.00466617 0.106662 
-0.00162008 0.00150342 0.0644951 
-0.00105202 0.00545394 0.00983923 
0.00321194 0.00198678 0.0652737 
0.0122476 -0.00178397 -0.0144362 
-0.0413524 -0.00187106 1.50524e-05 
-0.0261086 0.00421722 0.0506674 
-0.0397234 -0.00463482 0.0657067 
0.00823652 0.0096808 0.107802 
0.0120333 -0.0021352 0.0989202 
0.00277632 0.00205661 0.129357 
0.0042686 0.0036058 0.10421 
-0.00325447 0.0188202 0.130225 
0.000125832 0.00402149 0.138341 
0.00166323 0.0144786 0.131448 
0.00430259 0.00476802 0.129642 
-0.000287039 -0.000794348 0.124771 
-0.000218514 0.000730645 0.111612 
0.000207086 0.00136392 0.0978589 
-0.00240577 -0.00881748 0.125671 
-0.00312192 -0.00688359 0.118241 
-0.00452667 -0.000191945 0.116789 
0.000344881 0.015653 0.125886 
-0.000644444 -0.00421831 0.0938571 
0.000573559 0.00748392 0.00275747 
0.00292103 0.00131791 0.00433415 
0.000782364 -0.020568 0.111973 
0.00208142 -0.0128249 0.0973257 
-0.000184124 0.00056244 0.0760524 
0.00433901 -0.00855532 0.0782357 
0.00290285 -0.00817177 0.121835 
0.00288893 -0.00584999 0.0645181 
-0.00869687 -0.0197182 0.114032 
-0.00758983 -0.000434533 0.143846 
-0.00279542 -0.00728503 0.138565 
-0.00710871 -0.00278486 0.117444 
0.0130944 -0.0165875 0.117329 
0.00943347 -0.0077087 0.0489952 
0.00434284 -0.0101171 0.0796454 
0.0138068 -0.0102129 0.0904158 
-0.00075344 -0.000667065 0.0825151 
0.00895655 0.00914529 0.111142 
0.00502248 0.00407949 0.06236 
0.00323946 0.00650907 0.116921 
0.00491728 -0.00992555 0.0796568 
0.00710939 -0.00843552 0.048991 
0.00657021 -0.00511346 0.0749203 
0.0144698 -0.00990535 0.0905034 
-0.0408635 0.00386403 0.10794 
0.0292598 0.0710386 0.148856 
0.00360681 0.0430447 0.0846959 
-0.0701557 0.00159638 0.0429528 
-0.000105986 0.0010867 0.0442196 
0.00411009 -0.0074114 0.0777354 
6.71149e-05 -0.000644978 0.0763208 
0.00278982 -0.00523708 0.0636137 
-2.89779e-05 0.000565842 -0.000857735 
0.000255517 -0.000571798 0.00172741 
0.00899309 -0.0131469 0.073995 
0.00228873 -0.00477851 0.0636891 
6.01004e-05 -7.77285e-05 0.0323105 
-0.000238319 -0.000347723 0.0641967 
4.39348e-05 0.000207153 0.0371623 
-0.00113814 -0.000371265 0.0494807 
-8.47335e-05 0.00011905 -0.00171823 
-0.000615424 0.00141388 0.0679284 
-0.00183424 0.0113189 0.0405525 
-0.000553309 0.000981482 0.0280606 
0.0186613 0.0318979 0.147837 
0.019799 0.0446379 0.105463 
-0.0121468 0.0449228 0.0878079 
0.0264232 0.0222939 0.130279 
0.00336774 0.00515415 0.0877221 
0.00776293 0.00644498 0.0864435 
0.000331407 -0.00189194 0.00419018 
0.000297075 0.00270339 0.0675388 
0.000745447 -0.000975396 0.0940723 
-0.000105869 0.000870755 0.0842591 
0.000125505 0.00818253 0.129087 
0.00337031 0.00671438 0.0684563 
-0.00486002 0.000404714 -0.0050729 
0.011128 -0.00233065 0.0483818 
0.0197482 -0.0037454 0.0340207 
0.00508235 0.0011438 0.0399555 
0.0294134 0.0363681 0.369884 
-0.0809609 0.0288948 0.25258 
0.109873 0.00637443 0.206139 
-0.130979 0.0563098 0.170958 
0.00330393 0.00531767 0.0860034 
0.0140112 0.0059294 0.100168 
0.00178158 0.0162829 0.10192 
0.0146011 0.0224581 0.13124 
0.00238764 0.0125396 0.136232 
0.00363061 0.0263039 0.109635 
-0.00246126 0.0214842 0.123155 
3.1135e-05 0.0286095 0.130382 
-0.000596337 0.00576001 0.108117 
0.0029293 0.02634 0.108896 
-0.00464412 0.0252788 0.13371 
0.000848407 0.0088296 0.0863354 
0.0112919 0.0107219 0.106748 
0.00215875 0.00788254 0.112435 
0.00824323 0.0225088 0.1299 
0.00642617 0.0175425 0.11749 
-0.00483326 0.0151087 0.126488 
-0.000338174 0.00528254 0.138136 
0.00646287 0.000814888 0.135407 
-0.00598246 0.00113731 0.134485 
0.00830512 0.00409963 0.334879 
-0.0188494 0.0452446 0.168479 
-0.0305929 -0.016317 0.247003 
-0.0981883 -0.00460153 0.228489 
0.000896416 -0.00158077 0.000120495 
-0.000457662 0.000819652 -0.000446393 
-0.000718086 0.00121938 0.00133731 
0.0061329 -0.0108132 0.0791793 
0.000456547 0.000764757 -0.00163739 
-0.00518359 -0.00884471 0.0524693 
-0.00330001 -0.00673925 0.0628729 
-0.00179148 -0.000210336 0.0481395 
-0.000127574 -0.000111419 0.0748811 
0.00382982 -0.000368206 0.0596227 
0.00553583 0.00279385 0.0687982 
0.00445579 -0.00112705 0.10526 
-0.000564208 -0.00632423 0.118342 
-0.00330236 -0.00983416 0.102709 
-0.0022394 -0.00732811 0.0900542 
-0.00141218 0.000670412 0.0914735 
-8.89245e-05 0.000149511 0.0757396 
0.00410296 -0.00206059 0.105664 
0.00384933 -0.00494281 0.0999718 
0.00192982 -0.0017227 0.0515797 
-0.00115156 -0.00347525 0.00556042 
-0.000872579 -0.000920202 0.0671691 
-0.00151853 -0.00425132 0.107458 
-0.000455368 -0.00128119 0.0644282 
0.00678811 0.0225931 0.0961187 
-0.00160554 0.00257861 0.0724165 
0.00240179 0.00647014 0.109165 
-0.00153387 -0.000498706 0.07838 
-0.000487199 0.00961004 0.127544 
-0.005226 -0.00378095 0.139244 
-0.00769434 0.00103518 0.12308 
-0.000185943 0.000697039 0.133937 
9.39452e-05 -0.00104941 0.0482203 
-0.000466909 0.0089571 0.0707367 
-0.000306746 -0.000668217 0.041083 
7.34186e-05 0.00561499 0.0464363 
0.039771 0.026291 0.0264564 
0.0328932 -0.0361463 0.296395 
0.0276214 -0.0812066 0.170677 
-0.0249293 -0.0345856 0.219018 
0.00564714 0.0046231 -0.00274421 
0.00671445 0.00139126 0.0076103 
-0.00358901 0.0193337 0.0322313 
-0.00964585 0.024798 0.0189318 
-0.0179547 -0.0233334 0.106828 
-0.0189237 -0.0569251 0.132739 
-0.0100981 -0.00930335 0.124981 
-0.00860522 -0.0284537 0.136261 
-0.00538746 -0.0213963 0.116211 
-0.00250057 -0.00782695 0.117334 
-0.00519723 -0.0367506 0.11441 
-0.000946927 -0.0074772 0.0861094 
0.0089631 0.00285387 0.136882 
0.00589586 0.00687421 0.129748 
-0.00838646 0.0133466 0.123417 
-0.00617745 -0.0019457 0.136879 
0.0473884 0.00695364 0.10186 
0.0103783 0.0128003 0.0239663 
0.0740348 0.00259692 0.309232 
0.0251232 -0.111452 -0.0187057 
0.0809875 0.0668771 0.130348 
0.0501362 0.0214385 0.136156 
0.0227215 0.00720927 0.0283191 
0.0361347 0.050354 0.171368 
0.00165488 -7.09838e-05 0.00160814 
-0.00308513 -0.00485306 0.109556 
-0.000140243 -0.00182045 0.00415813 
-0.00142463 -0.0020257 0.0679422 
0.00287514 0.000978989 0.129498 
0.00671303 -0.00775224 0.124324 
0.0030719 -0.00642838 0.126025 
0.00664124 -0.00118214 0.105811 
-0.00170632 7.27743e-07 0.110913 
-0.000192841 0.000399192 0.0921376 
0.0028741 -0.0119306 0.0982484 
0.00127321 -0.00458025 0.0660379 
-9.54947e-05 -0.000860815 0.09832 
0.0021502 0.00750249 0.114161 
0.00202922 0.00984159 0.101634 
0.000466856 0.00792847 0.114255 
-0.0182204 -0.0321254 0.055519 
0.00640518 -0.0467946 0.115011 
-0.0109817 -0.0114573 -6.06577e-05 
0.0664796 -0.0673976 0.124161 
-0.00364328 -0.0158446 0.135594 
-0.00470402 -0.00326982 0.140659 
-0.00836966 -0.0158946 0.132175 
-1.01714e-05 -0.00739405 0.140844 
-0.00209587 2.0538e-05 0.00476227 
0.00112895 0.0125306 0.0763698 
0.000565973 0.01476 0.0783566 
-0.000285127 0.00553197 0.0593101 
0.00925713 -0.0185127 0.115357 
0.012072 0.00453401 0.159551 
0.0315834 -0.0189878 0.0208444 
0.0373916 0.0158459 0.128031 
-0.000774676 0.000353845 -5.79068e-05 
-0.00148697 0.00882817 0.0784793 
9.52763e-06 -0.000506329 0.0367478 
0.000373126 0.00501511 0.0604084 
-0.0150225 -0.0159445 -0.0211597 
0.0203771 0.035255 0.0588453 
0.0523563 0.0886547 0.091987 
0.00226256 -0.00202774 -0.000954744 
-0.00868507 -0.0212331 0.114019 
-0.00269043 -0.0067944 0.140558 
0.000220184 -0.00544002 0.118275 
-0.00714794 -0.00197923 0.116849 
0.0133565 -0.000768521 0.0946873 
0.00903598 -0.0077827 0.126544 
0.0034312 0.000159066 0.131407 
0.00369504 -0.00148434 0.103574 
-0.0343447 -0.0394741 0.133025 
-0.0306699 -0.0399142 0.0476913 
-0.0448848 -0.0375848 0.237573 
-0.0251509 -0.0554464 0.178265 
0.0050243 -0.00697255 0.127839 
0.00513732 0.00183099 0.130924 
-0.00661411 -0.00151617 0.142324 
-0.00521195 -0.000199576 0.139806 
0.00018012 0.00942593 0.106697 
-0.000335266 -0.00609095 0.0842808 
-0.000325723 0.00348008 0.0708616 
-0.0020094 0.000243062 0.0931972 
0.0459253 0.0132875 0.0661393 
0.0123953 0.00321815 0.0139823 
-0.00647309 0.0116682 -0.0104641 
0.0236194 -0.00681455 0.0374852 
-0.00890389 0.00413137 -0.00840785 
0.0184667 -0.00724313 0.0236483 
-0.00308163 0.00153766 -0.00638865 
0.00865828 -0.00516406 0.01275 
0.0123438 0.0308012 0.128763 
0.011183 0.0272828 0.11281 
0.00997321 0.0362825 0.0702946 
0.0432145 0.0549144 0.107623 
0.00524748 0.00443015 -0.00291829 
0.00660156 0.00457684 -0.0127116 
-0.00303758 0.000810732 0.00246247 
-0.0536436 -0.0162082 0.0812828 
0.025413 0.0133966 0.0949781 
0.0107409 0.0105966 0.10865 
0.0073762 0.00818025 0.115574 
0.0112219 0.0212945 0.128808 
0.0266154 -0.0129296 0.0365144 
0.0544272 -0.040017 0.134881 
0.0197614 0.0062231 0.0598866 
0.0221019 0.00937183 -0.00582015 
-0.0121976 -0.0277093 0.0950804 
-0.00213089 -0.00823107 0.0865829 
0.0024044 0.00757104 0.0659388 
-0.00808189 -0.0117583 0.0494563 
0.00426046 0.00975873 0.112662 
0.00312388 0.0132949 0.133949 
0.00169934 0.00763352 0.114419 
0.00248571 0.00487972 0.126824 
0.00207163 -0.00121489 0.0861794 
0.000208523 0.000377321 0.113318 
0.00661357 0.00932889 0.108933 
0.00211641 0.00708241 0.114374 
0.00840454 0.0111286 0.0152254 
0.00525646 0.0184602 0.297059 
0.0574192 -0.0182703 -0.00399372 
-0.0550691 -0.0111003 0.259375 
-0.00103103 -0.0118458 0.106765 
0.00846215 -0.0179527 0.0795425 
0.0101735 -0.0275993 0.117183 
0.00128206 -0.025863 0.134745 
-0.011385 -0.0279702 0.115721 
-0.0105979 -0.0413641 0.122109 
0.0193438 -0.0370002 0.150085 
0.0264267 -0.0557347 0.136973 
0.00681526 -0.0191521 0.119815 
0.00155033 -0.00732226 0.113706 
0.00191255 -0.0166308 0.106327 
-0.000695487 -0.0273899 0.131658 
0.000419211 0.000316136 0.0731057 
3.38453e-05 -8.58106e-05 0.0445605 
-0.000242755 0.000114009 0.0386378 
0.00308926 -0.000846419 0.0622858 
0.000725854 3.33493e-05 0.140596 
0.000239989 0.000104119 0.129638 
-0.00344099 -0.0129993 0.125106 
-0.00309809 -0.00829108 0.139147 
0.000284188 0.000379309 0.0489633 
-0.000257032 0.000585112 0.0389196 
-0.000295373 0.000323439 -0.00044988 
-8.00127e-05 0.00335952 0.0487927 
-0.000296274 0.00328097 -0.000350371 
-7.7893e-05 0.000116422 0.00420079 
1.13202e-05 0.000771282 -0.00514521 
0.0115237 -0.0133745 0.0403986 
-0.000567635 -0.00141364 0.0487035 
0.000610622 5.21539e-05 0.0005852 
1.96272e-05 -0.000157687 0.00143796 
-0.00270903 -0.00186937 0.0691782 
-0.00135969 0.000646725 -0.0131761 
0.0121977 0.00306904 -0.0137627 
0.056026 0.0202926 0.0804029 
0.0249996 0.0157968 0.0442088 
-0.00413401 -0.00809351 0.0645789 
-0.00577673 -0.00993683 0.0498317 
-0.00153183 -0.000199149 0.0696082 
6.75197e-05 0.0029168 0.047575 
0.00158687 -0.00100717 0.00118802 
0.00197671 -0.00911058 0.112999 
2.46708e-05 -0.00415525 0.00483593 
0.00118689 -0.0015134 0.065188 
-0.00850116 0.00734874 0.293301 
-0.00980561 -0.00150324 0.373135 
-0.0425544 0.0370493 0.338414 
0.0435211 -0.0983845 0.205248 
0.0167452 0.0112374 0.355953 
0.0150546 0.0473196 0.164872 
-0.0194383 -0.00433714 0.377726 
0.0660924 -0.000814041 0.224893 
-0.00754285 -0.00326304 -0.00266817 
0.000775164 0.0315717 0.0874114 
-0.000170265 0.0123616 0.0754031 
0.000816619 0.0201937 0.0846375 
-0.000180832 0.000181112 0.0323744 
-0.00294751 -0.00465358 0.0617766 
-0.000255021 -6.50186e-06 0.0644446 
-0.000926897 -0.000948672 0.0491608 
-0.000136237 -0.000194102 0.0747536 
0.00454419 -0.00142488 0.105269 
0.00529947 0.00333356 0.0684841 
0.00446286 0.00218029 0.105806 
0.00663221 -0.00554494 0.0755321 
0.00631535 -0.00964734 0.0492303 
0.0114251 -0.00267072 0.0507163 
0.0159884 -0.00873096 0.0914156 
-0.0143188 -0.0111368 0 
-0.0408189 2.62691e-05 0 
0.0509734 -5.26645e-05 0 
0.111851 0.0286301 0.0967066 
0.0223177 -0.0118207 0.0475137 
0.0431162 0.01595 0.0839482 
0.025377 -0.0042864 0.0567558 
0.0185455 -0.0192751 0.115059 
0.00521339 0.0244821 0.149422 
-0.0377322 -0.00365406 0.112212 
0.00311057 0.0550536 0.078566 
-0.0415555 0.0106775 0.0427789 
-0.00228704 0.00157138 -0.00138633 
-0.00463139 0.00318226 -0.00308502 
0.00233763 -0.00160922 0.00794832 
0.0107196 -0.0112203 0.112517 
0.0405695 0.0613211 0.0289455 
0.0462357 0.0509199 0.160089 
0.0399205 0.00993662 0.0876349 
0.000263905 -0.0372925 0.0191339 
-0.000462996 5.53997e-05 0.0442806 
0.00464204 -0.00686003 0.0757677 
-3.19731e-05 -0.000691513 0.00339655 
0.00189185 -0.00340305 0.0566359 
-0.00123625 0.0079326 0.127786 
0.00087503 -0.000573554 0.144088 
-0.00211283 0.00582421 0.140619 
-0.000969054 0.000326211 0.133949 
0.00960353 -0.0065152 -0.00311948 
-0.0129036 0.00883884 0.00139241 
-0.000438172 0.0302852 0.192424 
-0.00165996 -0.0117872 0.152535 
0.0302761 0.0135972 0.0922177 
0.0202251 0.019693 0.0831626 
0.00689517 0.010684 0.108057 
0.0133676 0.0209523 0.132448 
0.00149717 0.00914039 0.10355 
0.00263758 0.00789207 0.11472 
-5.91118e-05 -0.000574319 0.0960044 
0.00116392 0.002852 0.0671601 
0.000316548 0.00086264 0.131293 
-0.000788661 -0.000108084 0.141501 
0.000288506 5.61332e-05 0.122073 
0.00292673 -0.000530192 0.128481 
0.00547165 0.0162719 0.102182 
0.00539158 0.012892 0.0846932 
0.00935646 0.00481271 0.100355 
-0.00143059 0.00307955 0.0620572 
0.00177897 -0.00134615 0.0872845 
0.00706556 0.00970691 0.106298 
-0.000122226 0.000102131 0.115239 
0.00232925 0.00563359 0.128587 
-5.17278e-05 -0.000866257 0.0404273 
-0.000109511 -0.000657587 0.0488052 
1.7508e-05 0.000514141 0.070435 
-0.000545662 0.00886698 0.0708993 
0.000323153 0.000307671 0.091279 
0.00249067 0.0105712 0.128962 
0.0014105 0.00631543 0.087426 
0.00164464 0.00441523 0.069464 
0.00231855 -0.00906864 0.124688 
0.00632545 -0.00774444 0.128915 
0.00316622 0.00148459 0.128027 
-0.00129765 0.00241358 0.144578 
-0.00330028 -0.000280707 0.00328277 
-0.00479113 0.00594603 -0.0153903 
0.00959404 0.000923802 0.00420993 
0.0783442 0.00495293 0.078637 
0.00411118 0.00946849 0.125193 
-0.00389158 0.0307046 0.135569 
0.0043739 0.0292342 0.134147 
0.00572008 0.0156362 0.118397 
-0.00359214 -0.0039779 0.139332 
-0.00386287 -0.00670328 0.137746 
0.000400363 0.000584085 0.145705 
-0.00242324 -0.00566589 0.141335 
-0.00223311 -0.00287624 -0.0175635 
0.0100808 0.00304068 0.0611678 
0.00121773 -0.00316778 0.00516692 
-0.0262015 -0.000402775 0.089325 
-0.0247345 -0.0193398 0.0934476 
-0.00663119 -0.00435397 0.126211 
-0.0295858 -0.0583647 0.110133 
-0.000842988 -0.0349645 0.153137 
6.70156e-06 0.000944251 -0.00298989 
-0.0201786 -0.0300259 0.052092 
0.00022284 0.000459805 -0.00248816 
-0.0154649 -0.0218984 0.0471755 
-0.00357455 -0.00868076 0.136335 
-0.00637231 0.00105622 0.122698 
-0.00644423 -0.003742 0.140439 
-0.000610777 0.000637846 0.133301 
0.0332768 -0.00480536 0.16518 
0.0451438 0.0124816 0.149051 
-1.46312e-05 -0.00857005 0.141716 
0.0139557 -0.0124938 0.0667565 
-0.0186341 -0.0212168 0.111573 
0.0223911 -0.0353235 0.155413 
0.0128994 -0.04021 0.10689 
0.0335314 -0.0608054 0.142267 
-0.00496444 -0.00481044 0.0614672 
-0.00260983 -0.00735982 0.106865 
-0.00591538 -0.0200692 0.0977335 
-0.00459995 -0.00329343 0.0621951 
-0.00874476 -0.0219355 0.102535 
-0.000376186 -0.0018493 0.0539486 
-0.0147468 -0.0202317 0.0840129 
-0.0149344 -0.0196333 0.0518744 
-0.00142788 -0.0138813 0.137422 
0.000127228 -0.00938505 0.120599 
0.000277956 0.000821973 0.125575 
-0.00133144 -0.00748755 0.139853 
-0.0051424 0.0043965 -0.00620988 
0.0156238 -0.00430178 0.0216344 
-0.00532003 0.00359225 -0.00717415 
0.01093 0.00255176 0.0121146 
0.0176198 -0.017242 0.080171 
-0.00710431 -0.0159205 0.108799 
0.0191276 -0.0466827 0.134556 
-0.0105608 -0.0297751 0.133621 
-0.000134039 0.0001094 0.0525101 
-2.08491e-05 -0.000188907 0.0398763 
0.000153058 0.0013354 0.0712939 
-0.000456508 0.0041354 0.0581556 
0.0212318 0.0321723 0.0976851 
0.0174895 0.0569089 0.163441 
-0.0166092 0.0291925 0.0779954 
0.0150252 0.0688183 0.119645 
0.00227256 -0.000926812 0 
0.0126444 0.00118338 0 
0.00436742 -0.00591833 0 
-0.049153 0.0133818 0.00639747 
0.000302007 0.00083018 0.0771461 
0.00415332 -0.00867355 0.0777158 
9.74655e-05 6.66671e-05 0.103471 
0.00257958 -0.00844814 0.120479 
6.38895e-05 0.000378268 -0.00012352 
-0.00014777 -0.00179815 0.00190275 
6.05153e-05 -0.000743317 0.0315993 
-0.00121202 4.01099e-05 0.0499595 
0.0452331 0.00611648 0.0712611 
0.020974 0.0521779 0.157735 
0.015159 0.0497947 0.167198 
0.0120902 0.0298309 0.124908 
-0.00173405 0.00217886 0.0708095 
-0.00370801 -0.00942676 0.0636075 
-0.00129522 0.000256964 0.0477453 
-0.000281288 8.02821e-05 0.0914533 
-0.0111997 -0.0413224 0.0847684 
-0.00711871 -0.0334281 0.133579 
-0.0288186 -0.0328476 0.14052 
0.00307282 -0.0341306 0.104595 
-0.000961906 -0.000595612 -0.00485979 
-0.0084917 -0.0122811 0.0507437 
-0.0189259 -0.027858 0.0546932 
-0.0119203 -0.0213775 0.0487192 
-0.000694136 0.00142486 7.77797e-06 
-0.000418379 2.9659e-06 -0.000735629 
0.00380114 -0.00193773 0.060028 
0.00150457 -0.00199094 0.0501798 
0.0367904 0.0162814 0.0864406 
0.0189446 0.0394356 0.155215 
0.0234446 0.00999124 0.0866912 
0.00791833 0.031813 0.129695 
-0.00181741 -0.00162594 0.0850412 
-0.00078877 -0.000162925 0.113798 
0.0037923 0.0112452 0.126106 
0.00341757 0.00832489 0.108685 
0.00104324 0.0289092 0.183429 
0.059614 0.0296417 0.0520118 
0.0355374 0.0229658 0.129161 
0.035105 0.0490176 0.170544 
0.00593124 0.0257059 0.0414037 
-0.00433472 -0.0174536 0.0740675 
0.0106317 0.0318085 0.0975277 
0.0118053 0.0233287 0.0525963 
-0.000166887 0.000157577 0.00184043 
-0.0013777 0.000797787 -0.000887093 
0.00621209 -0.00651401 0.0745931 
0.00560584 -0.00781455 0.0498492 
0.000227518 -0.019744 0.132122 
-0.00506834 -0.00808471 0.0893208 
-0.00233007 -0.00994383 0.105095 
-0.00222805 -0.0223664 0.118845 
0.00554789 -0.00571825 0.129471 
-0.00972396 -0.00237188 0.141607 
0.00625186 -0.00665256 0.132351 
-0.00480395 -0.0018413 0.137512 
-0.00668892 0.00624876 -0.00247192 
-0.0410996 -0.0221198 0.0227041 
-0.00483176 0.0229049 -0.0149326 
-0.0324608 -0.0273258 0.119387 
0.0327046 0.034779 0.0701378 
0.0192356 0.0161711 0.0801862 
0.0200559 0.0227031 0.169 
0.0498927 0.0229933 0.121235 
-0.000198728 0.000164643 0.125581 
0.000134227 -6.37407e-05 0.141372 
-0.00239809 -0.0136131 0.125865 
-0.00252134 -0.0092357 0.125228 
0.00021188 -0.00946801 0.107976 
0.00490455 -0.0307871 0.128172 
-0.00562903 -0.0286229 0.128145 
0.000499994 -0.0205 0.121979 
-0.00193282 0.00399987 0.074996 
-0.00213052 -0.00631795 0.0829511 
0.00152834 0.0176286 0.0316384 
-0.00224421 -3.285e-05 0.0265735 
0.0807259 0.0239127 0.116394 
0.0542394 -0.0492371 0.00206262 
0.0524972 0.0561506 0.171954 
0.0106173 0.00626583 0.261278 
0.003761 0.0166517 0.0663857 
0.00883592 0.031598 0.118076 
0.00832933 0.0279045 0.102553 
0.0344534 0.0497587 0.0817656 
-0.0100792 -0.0102351 0.387084 
0.0737603 0.111303 0.154189 
-0.0195253 0.0365345 0.371201 
-0.0343514 0.0362433 0.264274 
0.000824842 7.68692e-05 0.0019366 
0.000155245 1.74895e-05 0.00110393 
-0.00114163 -9.66001e-05 -0.000284301 
0.00329131 -0.00167971 0.0921683 
0.0144631 0.0306829 0.0999172 
0.0019089 0.0131925 0.0684811 
0.0140051 0.0246466 0.049345 
-0.00737506 -0.00817074 0.0844762 
-0.0266404 0.00375731 0.00159523 
-0.0187197 0.0299009 0.146266 
0.020849 0.0348548 0.190338 
-0.0123293 -0.00262406 0.159719 
0.000164244 0.00236404 0.00342368 
0.000955428 0.0216907 0.0387749 
2.52772e-05 0.00101885 -0.0117015 
-0.00356073 0.00315848 0.0260745 
-0.00178361 -0.00631383 0.0909837 
-0.00437847 -0.010772 0.104206 
-0.00045935 0.00336716 0.0687511 
-0.00114307 0.000397563 0.0898137 
-0.00119376 -0.000430102 0.0485759 
0.000364146 -0.000891258 0.00161613 
-0.000775151 -2.17417e-05 0.0519079 
-0.00123365 -0.00176553 0.06812 
-0.000523249 -0.000428008 -0.00187752 
0.00679615 0.00490341 -0.00653242 
-0.0279501 0.00731286 0.0228612 
1.11306e-05 0.00416429 0.0151983 
-0.000191881 0.000314924 0.139684 
0.000165929 -0.000132014 0.132095 
0.00043207 0.000159604 0.126512 
-0.00186214 -0.0065967 0.140865 
0.00386835 0.0147367 0.388582 
0.00635421 0.0334096 0.353703 
-0.0193698 0.00361469 0.35691 
-0.107301 -0.0271764 0.312277 
-0.00203713 -0.00293649 -0.000791497 
0.00220583 0.00886721 0.0840533 
-0.00322674 0.00110682 0.000486799 
0.00467664 0.00202864 0.0715165 
-0.0211644 0.00397546 0.337484 
0.0104919 0.0415247 0.179118 
0.0274247 0.00557398 0.406126 
-0.0666991 0.057781 0.114941 
-0.00207294 -0.0239374 0.101151 
-0.00425112 -0.00543204 0.112891 
-0.0077739 -0.00861205 0.0785085 
-0.00154381 -0.0369645 0.116119 
-0.00279649 0.00233968 0.0186187 
-0.00373194 0.046593 0.0933172 
0.00629038 0.00589671 0.0969302 
-0.0240984 0.0452754 0.108383 
0.000600117 -0.000304725 0.0874175 
0.00375756 0.00303666 0.105845 
0.00814675 0.00875265 0.106121 
0.00256675 0.00542599 0.128425 
-0.00268041 -0.00114627 0.145436 
-0.00951069 0.00355598 0.140689 
-0.00898499 -0.000800243 0.114832 
-0.0224819 -0.0105134 0.108957 
0.0385427 0.0585522 0.130392 
0.0549945 0.0118791 0.170394 
0.0164856 0.0112398 0.112582 
0.0172656 0.0368205 0.125507 
-0.00472859 -0.00806164 -0.00390432 
0.018307 0.0381915 0.190814 
-0.00598513 0.00339449 0.00454521 
-0.00816427 0.00984041 0.0878372 
0.000479806 0.0012272 0.00309515 
0.000722475 -0.0096969 0.0856721 
-0.00137731 -0.00795371 0.108218 
-0.000977601 -0.000685513 0.0661328 
-0.0132977 0.00903925 0.003558 
0.00306334 -0.00207592 0.0119851 
0.00121906 -0.000834489 -0.0119438 
0.0277848 -0.0210583 0.2194 
-0.00596742 0.000524824 0.0165406 
-0.0265449 -0.0230277 0.149202 
-0.00184448 -0.0120795 0.103073 
-0.0189841 -0.00558921 0.0944227 
-0.00337044 -0.00703302 0.132193 
-8.35274e-05 -0.00474017 0.0690112 
-0.000285091 -0.00119113 0.0944069 
-0.000413036 -0.00214229 0.066227 
0.0568869 -0.0747171 0.104428 
-0.0103937 -0.0206275 -0.0364973 
0.0619481 0.0535124 0.17052 
0.0273807 0.00181736 0.196863 
-0.00195123 0.00101286 0.0010295 
-0.002901 -0.0025434 0.0931491 
5.84218e-06 0.000576404 0.00133501 
-9.2531e-05 -0.00381587 0.068864 
0.0424909 -0.0333131 0 
-0.0292884 0.0259712 0 
0.0075456 0.00677254 0 
0.043648 -0.100511 0.139498 
-0.0151578 -0.0142771 0.0904119 
-0.000670455 -0.0446664 0.130247 
0.00471368 -0.0332521 0.156231 
-0.00224832 -0.0210756 0.119756 
-0.0023798 -0.00949584 0.101896 
-0.000832407 0.000968597 0.069205 
-0.00126294 -0.0140949 0.131971 
-0.00092438 0.000408735 0.0663111 
-0.0221339 -0.0250829 0.0836069 
-0.0181401 -0.0273383 0.0457267 
-0.00660903 0.00298534 -0.0198802 
-0.0503667 0.0332322 0.106825 
0.00577701 0.0184523 0.118041 
0.0100883 0.028115 0.11085 
0.0502119 0.0552641 0.119809 
0.0191171 0.0314716 0.128722 
0.00138792 -0.000138533 0.12431 
-0.00227877 -0.00700782 0.102679 
-0.00424341 -0.00597126 0.120303 
-0.000245182 -0.000754881 0.0906201 
-0.00269443 -0.0023792 0.114463 
0.00374854 0.00693956 0.107705 
0.00122431 0.00947692 0.130101 
-0.00226184 0.000202798 0.133448 
-0.0268452 -0.0420491 0.328396 
0.043511 -0.0210214 0.175517 
-0.0339063 -0.0458133 0.140229 
0.0768151 -0.0441284 0.0694809 
0.00193324 0.00444679 -0.00303557 
0.00483196 0.0024978 -0.00480802 
0.00306227 0.00397497 0.00720123 
-0.00549586 0.0183728 0.0195517 
-0.000795874 -0.000251683 0.000943038 
0.00473836 0.00393304 0.0695159 
0.000768891 0.000245279 -0.000169884 
0.00510008 0.00314305 0.0624048 
0.0140678 0.00372534 -0.0251212 
0.0186973 0.0240429 0.0518691 
0.000253487 0.0258359 0.0418604 
-0.000288131 0.0740979 0.084023 
0.000417327 0.000126548 0.0501618 
0.00449888 0.00216789 0.0701927 
-0.000223478 0.000541577 0.000747945 
0.00439661 0.00310551 0.0622553 
0.000102811 4.54799e-05 -0.0039878 
0.00105691 0.00183415 -0.000108358 
-3.28555e-05 -5.27152e-05 0.000132075 
0.00646722 0.00494019 0.00948498 
0.000329306 -0.000136043 0.126668 
-6.7038e-06 5.5826e-05 0.141107 
1.66699e-05 0.000408244 0.128928 
-0.00300936 -0.0130028 0.124777 
-5.16296e-05 0.000164178 0.0766641 
0.00384096 -0.00712971 0.122116 
-0.00122402 0.000292569 0.0908824 
0.00217569 -0.00660726 0.0642681 
-6.73125e-05 -0.000577423 0.0820635 
-0.00139064 -0.00449004 0.129927 
-0.000957647 -0.000281676 0.0953749 
-0.00170438 -0.00503429 0.0675672 
-0.00227693 0.00122954 0.000160832 
0.00408738 -0.001202 0.0595445 
-0.000918685 -0.00122628 7.25849e-05 
0.00815189 -0.00301174 0.0526366 
-0.000190414 -0.000316186 0.00242845 
0.00101211 0.00303412 0.0866176 
-0.000126617 0.000576674 0.046439 
-0.000246584 0.00167123 0.0660326 
0.00558609 -0.00561086 0.0757512 
0.00274301 -0.00460208 0.099952 
0.00405859 -0.00244247 0.105657 
0.00286161 -0.00169565 0.0516011 
0.00963977 -0.01861 0.116641 
0.00528221 -0.00900317 0.0782705 
0.00039185 -0.00879492 0.120267 
0.00319773 -0.0040375 0.0978985 
-0.0124079 -0.0231281 0.0967115 
-0.0171238 -0.0311703 0.0532201 
0.00336515 -0.0143323 0.0849391 
-0.00881606 -0.00996129 0.05003 
0.00659194 -0.00974832 0.105773 
0.00478885 -0.00505887 0.0626298 
-0.00194755 -0.00341509 0.00844806 
-0.000184069 -0.00273632 0.0657499 
-0.0018276 -0.00348618 0.00243912 
-0.0022029 0.000777491 0.000406976 
0.00113433 0.0194994 0.0806787 
-0.00196829 0.0135517 0.0796981 
0.0239728 -0.00073355 0.0392949 
0.0349387 -0.0689079 0.165564 
0.0304174 -0.0306607 0.261291 
0.0637026 -0.0592077 0.0233287 
-5.08824e-05 0.00204074 0.00576478 
-0.00232259 -0.0085974 0.107447 
-0.00474587 -0.00803254 0.0865546 
-0.00127899 -0.00152005 0.0625725 
-0.00125465 -0.00484791 0.353243 
-0.0235969 0.00185267 0.343712 
-0.0682044 0.00638695 0.341913 
0.151372 -0.00719936 0.275741 
0.0109236 -0.0136461 0.119792 
0.0257191 -0.0282351 0.0688879 
0.0152242 -0.0220546 0.0534144 
0.0148517 -0.00121622 0.0891906 
-0.000445214 0.000667234 -5.21372e-05 
0.000267914 -0.000385574 -0.00020572 
-3.96523e-05 -2.79846e-05 0.00129522 
0.0034208 -0.00483781 0.0634836 
-0.0240587 -0.0130396 -0.0165303 
-0.0337903 -0.000340483 0.077995 
-0.065157 0.00641965 0.205706 
-0.0469971 0.013434 0.177549 
-0.00809466 -0.0189666 0.100387 
-0.0090748 -0.016159 0.0755417 
-0.004801 -0.00555673 0.0608066 
-0.00258203 -0.00476146 0.0594272 
-0.000222154 2.34918e-05 0.139307 
0.000946594 -0.000343835 0.135614 
0.000999781 0.0117048 0.129776 
-9.76088e-06 0.00575345 0.138397 
-0.0104164 -0.0160072 0.14242 
0.0318663 0.0850471 0.0894273 
-0.01996 -0.0654386 0.0473751 
0.0438399 -0.0310259 0.0782567 
-0.0290091 0.0143461 -0.0323641 
-0.0190343 -0.0371245 0.145183 
-0.00338132 0.0353208 -0.0286115 
0.0127112 -0.033157 0.133873 
-0.00782376 -0.0205464 0.0987455 
-0.00589542 -0.00793411 0.0919308 
0.000206872 -0.0184856 0.128104 
-0.00312386 -0.0217971 0.12035 
0.00331318 0.00116803 0.000644172 
0.000445468 -0.00108676 0.00117143 
0.00820831 0.00906998 -0.00803422 
0.0303866 -0.0396058 0.0401208 
0.000666818 0.000582187 0.109625 
-0.00353212 -0.00860713 0.0847827 
0.00127761 -0.00089077 0.110468 
-0.00087953 -0.00714364 0.127629 
0.0265617 -0.0193797 0.130238 
0.0136242 -0.0030887 0.0924573 
0.00859919 -0.00596036 0.133124 
0.00554057 -0.00284019 0.12491 
0.0214278 0.0303417 0.147986 
-0.0127842 0.0455739 0.0882021 
-0.00296874 0.0164073 0.0913152 
0.0264278 0.0240065 0.132792 
-0.00291974 -0.0277783 0 
-0.0102209 0.0273107 0 
-0.00375361 0.0285395 0 
-0.0346389 0.111751 0.111741 
-0.0152544 -0.0332243 0.140206 
-0.0403895 -0.0190735 0.162642 
-0.0256007 -0.0058981 0.0787269 
-0.0126911 -0.00975437 0.0840996 
0.044822 -0.0386589 0.0692541 
-0.0299968 0.0454516 0.161648 
0.126348 -0.0207044 0.192047 
0.0487991 -0.0297157 0.287697 
-0.0063792 -0.00407273 0.138696 
-0.000760298 0.00628111 0.14019 
-4.15339e-05 0.00979141 0.127647 
-0.00631939 0.00122595 0.123979 
0.00418471 -0.0097956 0.0762095 
0.0160804 -0.0187933 0.0574265 
0.011285 -0.0181059 0.117696 
0.0117169 -0.0203711 0.0805552 
-0.0303811 -0.0010209 0.0553337 
-0.0254106 0.00419107 0.108164 
-0.0532124 -0.00890167 0.145984 
-0.0315649 0.00410186 0.111185 
0.00430577 0.000370541 0.00402629 
-0.000478506 -4.11788e-05 -0.00230652 
0.000502031 4.32032e-05 0.000916387 
-0.00595218 -0.0028657 0.089494 
0.000209715 0.000152428 0.0821008 
-0.00441168 -0.00611373 0.106605 
-0.00372434 -0.00601148 0.0616025 
-0.00312292 -0.00585563 0.0622138 
0.0149987 -0.0164757 0.117963 
0.015569 -0.019242 0.0560432 
0.00397972 -0.00906797 0.0811075 
0.00760723 -0.00849317 0.0473847 
0.000954241 -0.00081746 0.00240382 
-0.00206882 -0.00236441 0.0684729 
0.000287651 -0.00150745 0.00375477 
-0.000672964 -0.00186427 0.0649952 
-0.0326736 -0.0254334 0.0929732 
-0.0365959 -0.0655171 0.118643 
-0.014784 -0.0483505 0.138484 
0.00650077 -0.0286076 0.149946 
0.00145517 -0.012901 0.109446 
0.000859337 0.000225643 0.00619961 
-0.00207775 -0.0136778 0.0929604 
0.00198073 -0.00177625 0.0613741 
0.010023 -0.0148482 0.114561 
0.00248315 -0.00594934 0.0973674 
0.0025919 -0.00683396 0.127686 
0.014367 -0.00821188 0.0942876 
0.00950714 0.0290756 0.103048 
0.00840156 0.016694 0.0619464 
0.0391405 0.0546918 0.0841157 
0.00461831 0.0220275 0.054533 
-0.0261773 0.0455589 0.218294 
-0.10582 -0.0512584 0.14057 
-0.00467295 0.0235206 0.394119 
0.0642951 0.0455902 0.152185 
0.000135931 0.00107791 0.00268474 
-0.000183084 0.000324592 0.042229 
0.000852346 4.12579e-05 0.0495006 
0.00467116 0.00384723 0.0765094 
-0.0297123 0.00119329 0.369778 
0.0622495 0.0462943 0.166526 
-0.0701942 -0.0223017 0.157048 
-0.003121 -0.0279834 0.264001 
-0.00351468 0.00093191 -0.0074244 
0.00474393 0.0217837 0.0361494 
-0.00235309 0.00230222 0.00487582 
-0.00291189 0.0263204 0.0219273 
-0.000882745 -0.0026249 0.00717575 
-0.00276187 0.00732482 0.0810281 
-0.000353571 0.0104654 0.109745 
0.00226257 0.00302493 0.0639084 
0.000311346 -0.000718911 0.0444881 
0.000437722 -0.000347156 0.0456554 
-0.000474105 -0.000683429 0.000871653 
0.00246671 -0.00326763 0.0627434 
0.00111034 -0.0015437 0.00887657 
0.00371671 -0.0125906 0.106591 
0.00715098 -0.0154757 0.0800585 
0.00347597 -0.00282982 0.0590288 
-0.000451939 -0.000802471 0.0726212 
0.000404599 0.000595097 0.0889023 
0.000521395 0.00527859 0.0470963 
-0.000988454 0.00131928 0.0926536 
0.00309907 -0.0117869 0.100738 
-0.000524936 0.000385562 0.0885679 
0.0019188 -0.00983671 0.121087 
0.00331316 -0.00471249 0.0657597 
0.0273452 -0.0058815 0.0531565 
0.00159518 -0.0074525 -0.00498086 
0.00749136 -0.00457286 -0.0113986 
0.0544827 0.00619985 0.0878457 
0.0128422 -0.0260649 0.0557224 
0.0151288 -0.021584 0.0745595 
0.00115096 0.00183642 -0.00221892 
0.0286688 -0.0344249 0.0439769 
-2.30728e-05 0.0168053 0.123499 
0.00924405 0.0278999 0.10968 
-0.00528707 0.0454801 0.10198 
-0.00317941 0.0278275 0.130348 
-0.000434421 -0.000849093 0.11147 
1.61668e-06 0.000195397 0.0793503 
0.000322232 -0.000234387 0.0926511 
0.000397753 -0.00404429 0.0657034 
-0.00051931 0.0834632 0.0399051 
0.0073541 0.0679132 0.140923 
-0.0242897 -0.0408507 0.105352 
-0.0463217 0.0155714 0.0535135 
-0.000195099 -0.0023257 -0.000657236 
0.000200574 0.00239097 0.00186059 
8.94603e-05 0.00106642 -0.00370502 
-0.00014825 0.00568787 0.0219819 
-0.00062865 -0.000628615 -0.00110161 
0.00885906 -0.00281593 0.0530107 
0.00397414 -0.00152406 0.0602306 
0.00109709 -0.00152945 0.051038 
-0.00171921 0.0048897 0.0881222 
0.00957804 0.0155247 0.127841 
0.00819034 0.013994 0.102104 
-0.00334408 0.000224919 0.0700671 
-0.00280075 -0.0076409 0.0829541 
-0.00499026 -0.0377844 0.113219 
-0.00243342 -0.00693714 0.11681 
-0.00128814 -0.00578637 0.0880736 
0.00150878 -0.0140321 0.102024 
-0.00233967 -0.0225156 0.109028 
0.00918247 -0.0179293 0.0792969 
-0.001957 -0.026698 0.134603 
0.000110443 0.0001303 0.000857988 
-0.000307158 0.00170491 0.00301123 
0.00508518 -0.00856763 0.0761829 
0.00232325 -0.00499329 0.0570332 
0.0158806 -0.0496999 0.169833 
0.010957 0.0147013 0.106801 
0.00106558 -0.0150302 0.14543 
0.0455794 -0.0370192 0.0773449 
0.00513313 -0.0104264 0.132351 
0.00756875 0.00256553 0.124428 
0.00509018 0.00430631 0.12489 
-0.0041879 -0.000976498 0.147932 
0.0517341 0.0117097 0.0931276 
0.0227504 0.0209248 0.0018965 
0.0294169 0.0166969 0.0810681 
0.0248857 0.0180855 0.0406609 
-0.000578215 0.000122822 0.0842997 
0.00334332 0.00473508 0.0626289 
-0.000817629 -0.000898254 0.0833539 
0.00587481 0.00554592 0.116638 
-0.00104381 -0.000116097 0.00813123 
0.00384295 0.000325179 -0.000598599 
-0.00597467 -0.000498725 -0.00103031 
0.00654873 0.000220264 0.0829155 
-0.00749886 -0.0240859 0.113681 
-0.00852783 0.00167528 0.11717 
-0.00268427 -0.00653381 0.120824 
7.45151e-05 -0.00564309 0.0886282 
0.00398227 0.00268068 0.00568771 
0.00532698 0.00413915 -0.00478939 
-0.00424258 -0.0131515 0.107558 
0.0195863 0.00831914 0.104743 
-0.0091993 0.0016338 0.011579 
0.00663558 0.0160388 0.0735462 
0.00111631 0.0334247 0.184348 
-0.0185216 0.0358675 0.138087 
-0.0612936 -0.016858 0.00750368 
0.00206717 -0.0360282 -0.0378446 
-0.0361058 0.0421034 0.1624 
0.00144603 0.0401902 0.111496 
-0.00160797 0.00153208 0.000666862 
0.019966 -0.00816855 0.0377553 
-0.00454707 -0.0017286 -0.00391867 
0.0076232 -0.00713358 0.0102973 
0.000234166 -0.000404393 0.135076 
2.35087e-05 0.000238382 0.126217 
-0.000154397 -8.52576e-05 0.139114 
0.00170649 0.0115816 0.12992 
-0.0909639 0.0413597 0 
0.0874201 -0.0298281 0 
0.0764599 -0.039367 0 
0.0768377 -0.0404205 0.279984 
0.0312751 0.011858 0.3976 
0.0710812 -0.0499391 0.197361 
-0.00259711 -0.00101267 0.387082 
0.0252342 -0.083583 -0.0269475 
-0.000309513 -0.000535357 0.121077 
0.00368624 0.000642569 0.129839 
0.00360191 -0.00460253 0.126003 
0.00430691 -0.00191223 0.105035 
0.000811397 0.00117731 0.132169 
7.91748e-06 -0.000470012 0.141139 
-0.00028695 0.00779441 0.130984 
-0.0011587 0.00113923 0.134267 
-0.00128579 0.00541321 0.000471765 
0.0246281 -0.0293674 0.0925572 
0.0072554 -0.00798068 0.00910038 
0.014031 0.00806905 0.0946258 
0.00113844 -0.00138973 -0.00228651 
0.0208441 -0.00808965 0.0189634 
-0.00960209 0.00452876 -0.00691178 
0.00683464 -0.00405814 0.0167125 
-0.00316121 0.0567882 0.0774281 
-0.0039041 0.0430379 0.129582 
-0.00623941 0.0216679 0.0978194 
-0.0198347 0.0377329 0.189043 
-0.00839396 0.0343713 0.122499 
-0.0289216 -0.010762 0.132227 
-0.0298457 0.00423497 0.0583713 
-0.0201463 0.00418836 0.11049 
-0.00136483 -0.00478991 0.00576112 
-0.000375201 0.00737434 0.0941659 
0.00798652 0.0116034 0.0860515 
0.00996194 0.00525508 0.0898189 
0.00637362 -0.00708471 0.0772596 
0.0128685 -0.00110274 0.0937284 
0.00430636 -0.00051421 0.0593118 
0.00297774 -0.00107276 0.105035 
0.00478708 0.00623239 0 
0.00206311 0.000401964 0 
3.16418e-05 -0.00581157 0 
-0.0294635 -0.0351732 0.0105607 
0.0176601 -0.00470839 0.0941503 
0.00447635 0.00326027 0.127708 
0.00535324 -0.0098843 0.131816 
0.00751249 0.0028161 0.125672 
0.00473237 0.00701059 0.0827793 
-0.00170862 0.00880075 0.0883595 
0.0025467 -0.00230019 0.00261053 
0.00163294 0.00163982 0.0633465 
-0.000517316 -0.000345978 0.13919 
0.00152831 0.0122432 0.13006 
0.000246133 -1.04648e-05 0.126065 
0.00273223 0.0104144 0.122726 
-0.00059393 -0.000664378 -0.00132473 
0.00677757 -0.00467215 0.0747355 
0.0092519 -0.00279106 0.0526336 
0.000616542 -0.00160301 0.0512836 
-0.0103857 -0.0240377 0.117367 
-0.00221362 -0.0132952 0.139975 
-0.0126589 -0.0199987 0.12888 
-0.00185681 -0.0291158 0.128846 
0.0105232 0.0170171 0.113808 
0.0515461 0.0128639 0.155746 
0.0113263 -0.000386903 0.105361 
0.0224135 0.0334116 0.134739 
0.0257048 0.0061308 0.0828702 
-0.00982923 0.0774718 0.0963271 
0.0161812 -0.0129016 0.137665 
0.0580385 -0.0519497 0.0710933 
0.000873776 -0.0301348 -0.0104404 
0.017101 0.0154644 0.0999427 
0.0319632 -0.0138515 0.102565 
0.0280735 -0.0222223 0.124245 
9.83569e-05 -0.000373379 0.133922 
0.00164143 0.011522 0.131218 
0.00015753 0.00604718 0.138504 
0.00200544 0.00632647 0.128957 
-0.0177697 -0.0395121 0.0607491 
-0.0045299 -0.0375742 0.0788466 
-0.00136962 -0.00482671 0.0755891 
-0.00948712 -0.0190089 0.0195387 
-0.0015474 -0.0016129 -7.56446e-05 
0.000799835 -0.00124435 0.000526623 
0.00729718 0.0049075 0.0893997 
-2.0263e-05 0.00269709 0.070353 
-0.000151934 0.0349859 0.142811 
-0.00223807 0.00505804 0.0790296 
-0.0196423 0.00881872 0.110038 
-0.00420321 0.0101314 0.093522 
-0.010412 0.0116093 0.406722 
-0.0300749 -0.00482182 0.367614 
-0.0878592 -0.00234992 0.252709 
-0.070598 0.117336 0.120554 
-0.000216622 0.0122312 0.0741637 
0.000392276 0.0300074 0.0715361 
-0.0028188 0.000136004 0.00921749 
1.87191e-05 0.0165195 0.0466092 
0.00230944 -0.00763399 0.124291 
-0.0300881 -0.063185 0.121204 
-0.00870309 -0.00992173 0.132124 
-0.00347278 -0.0332972 0.136388 
-0.132525 0.0611947 0.105372 
0.0209197 -0.0310217 -0.0247499 
-0.0899044 0.0142799 0.21001 
-0.0336141 0.013006 0.175631 
0.000943972 -0.00130754 -0.0011942 
-0.000901926 0.00113141 -0.00153186 
-0.000102185 0.000200605 0.00146846 
0.0104268 -0.0134002 0.0751237 
0.116678 0.0200144 0.127456 
0.00722782 0.0813759 0.170934 
0.049658 0.0040253 0.360851 
-0.0488614 0.0358023 0.273331 
-0.000114233 -0.000345637 0.0939076 
0.00169298 0.00820749 0.0878569 
0.00271151 0.00986709 0.126138 
0.00133412 0.00718791 0.111943 
0.0125598 -0.00290188 0.0710824 
-0.0167039 0.00341537 0.095529 
0.00604932 0.0248874 0.118998 
-0.0042683 0.00983773 0.0821996 
0.0125557 -0.00170794 0.0919983 
0.0058484 0.00392519 0.0688702 
0.00401176 -0.000333935 0.0595736 
0.00372169 -0.00108771 0.105484 
0.00069096 0.010375 0.129466 
0.00795278 0.0266621 0.11713 
-0.000172941 0.0122372 0.130663 
0.00344812 0.0100136 0.124271 
0.00183334 -0.00282053 0.00141335 
0.00418906 -0.00938777 0.0773358 
0.0105914 -0.0146989 0.0716354 
0.00648794 -0.00975641 0.0518772 
-0.00154247 0.0232749 0.122201 
0.00310516 0.0118263 0.131012 
0.000439037 0.0293527 0.129849 
-0.000754215 0.026907 0.13229 
-0.00494664 -0.00268091 -0.00503497 
0.0239933 0.0252053 0.0392681 
-0.00620351 -0.00309564 -0.00896748 
0.00474062 0.00245164 0.0038653 
0.00753598 0.0250522 0.0410126 
0.0145182 0.0253764 0.046526 
0.00381463 0.0026815 -0.00976465 
-0.000626316 -0.00929479 0.0122205 
-0.000579978 5.98933e-05 0.0900473 
0.00311272 -0.00405584 0.0624054 
0.00360114 -0.0119382 0.102055 
0.00126957 -0.00321401 0.0662716 
0.0184965 0.0314102 0.107526 
0.000357951 0.0348928 0.0856306 
-0.00465718 0.0268221 0.0364966 
0.00786357 0.0660079 0.0878797 
0.0143608 0.0182312 0.105501 
0.00604104 0.0331826 0.131938 
-0.0304806 0.0137329 0.111811 
-0.00316152 0.0320827 0.116372 
0.00736142 -0.011847 0.111397 
0.0179341 -0.059482 0.124711 
0.00190136 -0.0192536 0.113264 
-0.00510003 -0.0282919 0.135374 
-0.00431177 -0.00991362 0.0951734 
0.00157549 -0.00828301 0.086802 
-0.000207994 0.00153055 0.00585792 
-0.0015226 -0.00149958 0.0665243 
-0.00113675 0.00611699 0.0688072 
-0.00522578 -0.0141856 0.0492672 
-0.00385093 -0.00786321 0.0873423 
-0.00278101 0.00119516 0.0228735 
0.0287508 -0.00425876 0.0972429 
-0.000447232 -0.00377429 0.105551 
0.00621473 0.0173415 0.110447 
0.0661459 0.0135265 0.163272 
0.000110548 -0.000187977 0.103804 
0.000222758 0.000112303 0.102021 
0.000450513 -0.000995547 0.0785431 
0.000639919 0.00625492 0.113033 
0.00744994 -0.019187 0.119841 
0.00843658 0.00578623 0.103361 
0.0153907 -0.0730146 0.132796 
0.0312265 -0.0203419 0.0522502 
8.98386e-05 -0.00021918 0.0901982 
0.00524613 0.00354152 0.0689522 
-0.00030666 0.000379991 0.0849057 
0.0044238 0.00244254 0.106962 
-0.0152819 -0.0211529 0.112021 
-0.0140277 -0.0343375 0.0271879 
0.00871219 -0.0416466 0.0846106 
0.0275491 -0.0660777 0.115956 
-0.000516328 0.00129253 0.0456677 
0.000287286 -0.000469443 0.0775443 
0.00455675 -0.0078914 0.0743686 
0.00181061 -0.00350125 0.0563659 
0.0317217 -0.00795332 0.0350894 
0.0129384 -0.0123183 0.0153003 
0.0025788 -0.00449138 0.00145152 
0.00533595 -0.0014798 0.00521459 
0.00461155 0.00579955 -0.0237125 
-0.00851859 -0.0202896 0.0464898 
0.00114545 -0.050785 0.0590409 
0.00284314 -0.00241482 0.00829925 
-0.000252798 0.000758559 -0.00119313 
0.00591819 0.00247763 0.0663493 
-0.000164905 0.000104559 0.00287717 
0.00377987 0.00107827 0.0426864 
-0.000833721 -0.00132427 0.0709086 
0.0012272 0.011071 0.0717555 
-0.000625581 -0.00080521 0.0887992 
0.00174238 0.00932221 0.108802 
-0.0246837 0.00352182 0.11876 
-0.0193178 0.0223301 0.0891372 
0.00471722 0.0413211 0.131547 
-0.0238152 0.0384001 0.187768 
0.00189887 0.00359155 0.0065054 
0.0305515 -0.0613062 0.151904 
0.00907094 -0.00391983 -0.0109498 
0.0188023 -0.0147853 0.0829088 
0.000541602 0.000653618 -0.000135464 
-0.00150522 0.0105215 0.0451294 
0.000698789 -0.00304142 -0.000611113 
-0.000156798 0.00543132 0.0447681 
0.00205211 -0.0383586 0.34292 
-0.0377295 0.0185434 0.348241 
-0.067325 0.0755153 0.120483 
0.0329419 -0.0558361 0.1731 
-0.00317367 -0.0435595 0.0728074 
-0.0143746 -0.0286452 0.047395 
-0.00299139 -0.020746 0.118608 
0.00198052 -0.00274441 0.0884153 
-0.00419962 0.0249654 0.160357 
-0.0059885 0.0400161 0.136547 
-0.0161708 0.0149385 0.116484 
-0.00075904 -0.000185051 0.0950243 
0.000255505 1.3426e-06 0.0742925 
-7.92772e-05 0.00444305 0.0451103 
-0.000627078 -4.38886e-05 0.047218 
-0.00185499 0.000722767 0.092044 
0.0321647 0.00568971 0.0870143 
0.000462281 -0.00499362 0.114868 
0.0323035 0.0516971 0.119644 
0.01065 0.0300007 0.132871 
0.0307122 0.0285261 0.16403 
0.00851921 -0.00939459 0.100674 
0.0510667 0.0212445 0.179149 
0.0209379 0.0261809 0.126185 
-0.0164272 -0.0361686 0.0489838 
-0.0317839 -0.0278512 0.033134 
-0.00170726 0.00225211 -0.00271567 
-0.0135464 -0.0213377 0.0505289 
-0.0109321 -0.0270942 0.122436 
-0.0128734 -0.0256279 0.077304 
-0.0120295 -0.0267417 0.0517609 
0.0212172 -0.0599458 0.0959713 
-0.00201486 -0.00100306 0.000615653 
-0.00249091 0.000483943 0.00498697 
5.15188e-05 0.00311495 0.066177 
0.00299762 0.00406626 0.0672304 
-0.00558805 0.00122992 0.00227961 
0.0136275 -0.00398621 0.0136674 
0.0265193 -0.0105077 0.0410904 
0.00586866 -0.00438976 0.00493259 
-0.00499381 0.0169609 0.140644 
-0.0287244 0.0171078 0.0586757 
0.00228023 0.0526563 0.0807231 
-0.0230162 0.00309703 0.099991 
-0.00160165 -0.0144401 0.126669 
-0.00388421 -0.0112255 0.13869 
-0.00490879 -0.0146695 0.135837 
-0.00178096 -0.00973608 0.127482 
-0.0213408 -0.0314207 0.126944 
-0.00187154 -0.0250564 0.124595 
-0.00644539 -0.0299702 0.130554 
-0.0128879 -0.0256463 0.133544 
-0.000118322 -0.000111195 0.000488965 
-0.000254667 -0.000244271 0.000688239 
0.000184586 0.000174187 -0.000709823 
0.00487834 0.00311495 0.0621854 
-0.00338758 -0.0159409 0.136005 
-0.00527766 -0.00640956 0.137729 
-0.00550426 -0.00340935 0.139437 
0.00031505 -0.00644154 0.141214 
0.0161128 -0.00519686 -0.0215456 
0.00138186 0.0357278 0.0257438 
-0.00175889 0.00338863 -0.00347507 
-0.00516043 0.0819192 0.0919102 
0.00357017 0.00104003 -0.0194886 
-0.0442118 0.00917985 0.179314 
0.0194137 -0.0102488 -0.0215521 
-0.00980319 0.0211492 0.164107 
0.0122792 -0.000150761 0.0931735 
0.00599492 0.00306422 0.0681598 
0.00386634 -0.00163198 0.10553 
0.00408257 0.00301549 0.106064 
0.00093997 0.000925308 -7.1044e-05 
-0.00589215 -0.00599127 0.0904816 
0.000497913 0.00117808 0.00103297 
-0.00148543 -0.00183637 0.0658522 
-0.0184788 -0.00964716 -0.0344447 
-0.0350564 0.0101653 0.128659 
-0.00369065 -0.0101805 -0.000765684 
-0.0323341 -0.0130571 0.15849 
0.00683777 0.0102613 -0.0179513 
0.0119903 0.0171715 -0.0177328 
0.0133055 -0.0300558 0.0231749 
0.0231667 -0.0508453 0.0816755 
-0.000305643 -0.000714232 0.00502221 
0.00175231 0.00236525 0.068712 
0.0017447 0.0133055 0.07849 
-0.000766531 0.00524857 0.0607057 
-0.00154016 -0.00444447 -0.0365032 
-0.0647463 -0.0811254 0.0693102 
-0.0232385 0.0355341 0.141638 
-0.0427174 -0.0131975 0.161774 
0.00168393 0.0013792 -0.00254707 
-0.000562699 -0.00143624 -0.00137641 
-0.0150097 -0.015836 0.0794769 
-0.0126313 -0.0153912 0.0561708 
-0.00489703 0.00689537 0.0937712 
0.00494081 0.0171563 0.116538 
0.00591109 0.00766996 0.0712082 
0.0126666 0.00875547 0.102744 
0.0112879 -0.0249255 0.0486927 
0.0246985 -0.0223889 0.0588587 
0.0236341 0.000485409 0.0529395 
0.0164787 -0.00665995 0.1 
-0.000149623 0.00151516 0.00173976 
0.000255078 -0.00258306 0.00132288 
1.71931e-05 -0.000174106 -0.00440361 
0.00471499 -0.00572161 0.0482053 
0.00664841 0.0117451 0.00090287 
-0.0042151 0.030977 0.0307952 
0.0130706 -0.00663579 -0.00758824 
-0.000111005 -0.00718331 0.0023937 
0.000559389 0.00179524 -8.14644e-05 
-0.000933088 -0.00276876 -0.000266674 
-0.00208525 -0.0029584 0.00145245 
0.00109747 -0.00888627 0.00161434 
-0.0114696 0.00521074 0 
-0.0033173 0.0127875 0 
0.0037988 -0.0242521 0 
0.0058243 -0.0557492 0.043341 
0.00102067 0.0140692 0.0785087 
0.00277421 0.00128785 0.0685477 
0.00372332 0.0139812 0.101975 
-0.00017383 0.00462856 0.0594694 
-0.0115964 -0.00952407 -0.0165054 
-0.00105882 -0.0102848 -0.00988678 
-0.010344 0.00195776 -0.00900185 
0.0881683 0.0137431 0.0945201 
-0.000469471 -0.000212999 0.000890306 
0.00614825 -0.00849639 0.0761764 
0.000420879 -0.00337126 0.00227744 
0.00588236 -0.00797163 0.0528697 
-0.00695547 0.00719237 0.0634755 
-0.0232325 0.00361924 0.113383 
-0.033104 0.019197 0.06166 
-0.0307669 -0.0119848 0.102635 
-0.000250919 -0.000724639 0.0496951 
-0.000260898 -0.000429115 0.0438961 
0.000384382 0.000571511 0.0840952 
0.00465425 0.00533142 0.0729776 
-0.00175304 -0.00179939 0 
0.000649572 -0.00193632 0 
-0.00153082 0.00105315 0 
0.0111266 0.000548882 0.00808425 
0.000405987 -0.00177898 0.0950324 
-0.000276398 -0.000223396 0.0854091 
-0.000120098 0.000664187 0.114471 
0.00170315 0.00979818 0.126674 
-0.00727139 -0.00330938 -0.00302656 
0.00674639 -0.00315681 0.0469907 
0.0252419 -0.00493634 0.0460827 
0.013906 -0.00356876 0.0142116 
-0.00102702 -0.0278685 0.33488 
-0.0598527 -0.0532097 0.104862 
0.0536218 -0.0248892 0.217709 
-0.048529 -0.00808715 0.224952 
-0.00528708 0.00155862 0.129293 
0.0143207 0.0431345 0.102576 
0.0370746 0.00513888 0.0884727 
0.0136666 0.00174064 0.127896 
-0.000702403 0.000679331 0.039788 
-0.000428339 0.000488579 0.0528339 
0.00039647 0.000854544 0.00122365 
2.59853e-05 0.00351891 0.0580626 
0.0229919 0.0383945 0.119437 
0.007425 0.00500785 0.115743 
-0.00786928 0.00510215 0.124513 
0.0149384 0.0354367 0.123857 
0.0467982 -0.049275 0.251652 
0.0457246 0.093018 0.111707 
0.043537 0.0490114 0.197045 
0.0139338 -0.0258701 0.319281 
0.000100897 -0.000423597 -0.00133621 
-0.0035278 -0.00517321 0.0622114 
-0.000301832 0.00117953 0.00220955 
-0.00107776 -0.00294104 0.0494132 
0.00741956 -0.0170048 0.114481 
0.000965304 -0.00945293 0.119044 
0.00307063 -0.00537037 0.125666 
0.00493401 -0.0052413 0.099964 
-0.000533719 0.000183317 -0.00156698 
0.00782955 0.0107667 0.0854319 
-0.000281989 -0.000811647 0.00899778 
0.00134367 0.00324857 0.093264 
-0.010126 0.000666851 0 
-0.0137785 -0.00286302 0 
0.0146715 -0.00273586 0 
0.00347247 -0.0249502 0.0209775 
0.00658304 0.0264224 0.0742994 
0.0357047 0.0427897 0.101871 
0.0318543 0.0582067 0.186714 
0.0243241 0.0729724 0.134451 
0.114252 0.0249672 0.152679 
0.0397811 0.00401731 0.352117 
-0.0388437 -0.0195752 0.186284 
-0.0363782 0.0309178 0.257332 
-0.000304179 -0.00129091 0.0881706 
0.0011532 0.01234 0.0742449 
0.00246424 0.00841881 0.107221 
0.0018908 0.00914862 0.108615 
0.00124803 -2.79011e-05 0.00143543 
-0.0054778 -0.00458153 0.0920964 
0.000582663 -0.000312284 0.00720818 
0.00066584 -0.00368858 0.0690526 
0.00268577 0.000499295 0.00508631 
0.00404693 0.00936734 0.0821284 
0.0173605 0.0130506 0.0882991 
0.0141188 0.00478344 0.08479 
0.000623808 -0.000856865 0.0861174 
-0.000196609 -0.000604611 0.0834834 
0.000137994 0.000711617 0.114108 
0.00347827 0.0065592 0.113966 
-0.000759244 -0.00549324 0.115425 
-0.000483911 0.0115042 0.12849 
-0.00537072 0.000636626 0.11721 
-0.00111939 0.000216084 0.135972 
-0.0211287 0.00457986 0.10582 
0.00300461 0.0352666 0.133189 
0.00866343 0.0260375 0.110895 
-0.00387695 0.00570849 0.0857216 
-0.000929169 -0.00589761 0.117594 
-0.00563331 0.00020546 0.119772 
-0.00429609 -0.00864447 0.138055 
-0.000448843 0.000505104 0.132737 
0.00770549 -0.00576184 0.000594196 
0.00225811 -0.000624739 -0.00679675 
-0.00269243 -0.00377321 0.00429175 
-0.0247727 -0.0256574 0.0209932 
-0.0290819 -0.0176288 0.0859247 
-0.0117424 -0.0182471 0.143883 
-0.0146893 -0.00235108 0.147412 
-0.0216497 -0.040541 0.0889413 
0.0208207 -0.00954419 -0.0345358 
0.0465156 0.0114103 0.161064 
0.0156892 -0.00739526 0.194955 
0.0134789 -0.000927433 0.0956369 
-0.000467846 -0.00111935 0.00119164 
0.00596517 -0.00472232 0.0755654 
-0.000178417 -0.000635731 -0.00175776 
0.00153978 -0.00170069 0.0507841 
0.00602003 0.038711 0.0894676 
0.0321417 0.0389192 0.163669 
0.0318355 0.0587617 0.125599 
0.0237772 0.0175388 0.126663 
0.000261401 0.000478312 0.126208 
0.00260619 0.0118082 0.132107 
-0.000642453 -0.000651686 0.133032 
0.00149691 0.00613535 0.128346 
0.00627606 -0.00358067 0.0770398 
0.00383945 0.000387722 0.0588881 
0.0146018 -0.00346981 0.0952624 
0.0100434 -0.0045612 0.0515195 
0.013186 0.0897199 0.0880036 
0.0224332 0.0469587 0.125156 
0.0295823 0.0242572 0.0021534 
0.00663529 0.0695098 0.12241 
0.00523154 -0.00646416 0.00642052 
-0.00585456 0.00103955 -0.00291087 
0.0114837 -0.0218305 0.0758343 
0.0370562 -0.0334794 0.0447217 
-0.0176878 -0.0273568 0.0932434 
-0.00723894 -0.0315471 0.134661 
-0.00524548 -0.0260296 0.0883397 
0.00222884 -0.017928 0.123643 
-0.00317554 0.0119672 0.062529 
0.00683904 0.038007 0.0813474 
0.0111589 0.0278623 0.125813 
0.035491 0.0565383 0.0749562 
0.0013988 -0.0028007 -0.00340966 
0.0166786 0.0159129 0.0185532 
0.008704 0.0070105 0.00284345 
0.0278472 0.0126412 0.0267903 
0.000272878 0.000647751 0.077413 
0.000314551 -7.99209e-05 0.104098 
-0.000538302 0.000546197 0.0916235 
0.00243957 -0.00826685 0.119923 
-0.00171013 -0.0105786 0.100527 
0.00106528 -0.00808768 0.0923453 
0.00773178 -0.0291396 0.13871 
-0.00256643 -0.0226894 0.122679 
0.0207343 0.0154446 0.0850174 
0.0051049 0.00822342 0.0694743 
0.00527064 0.0169082 0.117199 
0.0136285 0.0073564 0.103188 
-0.000786132 -0.000489381 0.000354551 
0.00378205 0.00352829 0.0627694 
0.00703119 0.00519995 0.0687281 
0.00862962 0.0059775 0.0542235 
0.0640137 0.0241291 0 
-0.0641278 -0.0597663 0 
0.0695447 0.059513 0 
0.0865655 0.0385659 0.202784 
-0.00755502 -0.0242591 0.132041 
-0.00819452 -0.02363 0.125767 
-0.00382576 -0.0130871 0.134055 
-0.00692156 -0.0286252 0.132056 
-0.00106455 -0.00133673 0.00287626 
-0.00131228 0.000569528 -0.00124162 
-0.00678715 -0.0141313 0.0754413 
-0.00371616 -0.0050557 0.0582905 
0.00393666 0.0390181 0.165521 
0.00316994 0.0123956 0.0857792 
-0.00709396 0.0503329 0.0776478 
-0.0172441 0.0358183 0.138276 
-0.00260352 -0.00756265 0.0833723 
-0.00137888 -0.00747387 0.130053 
0.000593052 0.000435472 0.109279 
-0.00185911 -0.00350469 0.06695 
-0.000736107 -0.000263052 0.0816856 
0.00459708 0.00400849 0.0633968 
0.00528943 0.00647109 0.0772732 
0.00371414 0.00646888 0.116144 
-0.0105499 -0.0181918 0.113186 
-0.00596755 -0.0417735 0.0712531 
-0.00189649 -0.0385139 0.119379 
0.0225505 -0.0677422 0.113152 
-0.00020771 0.000105583 -0.000627073 
0.00104347 -0.000530614 0.00256407 
-0.00178352 0.000908502 0.000214602 
0.00904191 -0.00236974 0.0930457 
-0.02456 -0.00539233 0.0996076 
0.00241546 0.0391536 0.134288 
-0.00530007 0.0334996 0.168255 
-0.022944 0.0406287 0.189694 
-0.0138921 -0.00381119 0.381404 
-0.0427545 0.0145034 0.226505 
-0.0527149 -0.0239248 0.244915 
-0.0454953 -0.144935 0.132526 
-0.000210787 -0.000194487 0.00194364 
-0.00011412 -0.000232604 -0.00183429 
0.001252 0.00171916 0.00124287 
0.0104754 0.00924129 0.0134823 
-9.84274e-05 0.00110306 0.144548 
-0.00229546 -0.00756497 0.139661 
0.000115609 -0.000280496 0.140492 
-0.00290446 -0.00568998 0.141393 
0.000497092 -0.00118051 -2.34732e-05 
0.00158968 0.000135755 0.00225959 
-0.000631331 0.00170335 0.0488488 
-0.00213424 0.00106441 0.0659715 
0.000228629 0.00038661 0.0895082 
0.000224722 0.000254511 0.0705436 
-7.55469e-05 -0.000716274 0.049059 
-0.000429777 0.00877272 0.0702147 
-0.0150719 0.0184364 -0.0605681 
0.004995 -0.0647347 0.0749629 
-0.0197359 -0.0502174 0.029911 
-0.00389964 -0.10097 0.177938 
-0.000808036 -0.000805217 0.00334029 
-0.00256003 -0.00749998 0.0624826 
-0.00636781 -0.0121289 0.0506513 
-0.0121839 -0.0159491 0.0464811 
0.0037701 -0.0529911 0.154767 
-0.00615182 -0.00149478 0.108804 
-0.0193819 -0.0379041 0.140992 
-0.00469148 -0.0328706 0.125403 
0.030171 0.00628164 0.412631 
-0.0230011 -0.0115139 0.373048 
0.0766001 -0.0408755 0.181534 
-0.0789095 -0.000137003 0.228604 
-0.000113494 -0.000163704 0.087199 
2.13512e-05 -1.98356e-05 0.114532 
0.00358659 0.00303989 0.10582 
0.0041658 0.00473895 0.129244 
0.00485148 0.000182399 0.011726 
0.0221432 0.0149983 0.0924078 
0.00570741 0.00159405 -0.00862176 
0.0468038 0.0221098 0.102217 
0.123389 0.019203 0.109929 
-0.0224502 0.0417734 0.0140121 
-0.00543097 0.0578217 0.122491 
0.100993 0.0310481 0.197575 
0.0106386 -0.0250722 0.152568 
-0.00380342 -0.0186783 0.0937121 
0.0199341 0.00287668 0.0809455 
0.0218724 0.0151305 0.138202 
0.0382269 -0.0553486 0.143649 
0.0126725 -0.00238602 -0.00919977 
0.0145953 -0.0163896 0.0800296 
0.0289076 -0.0425468 0.0486137 
-0.017864 0.00385219 -0.0503893 
0.0256588 0.0332899 0.0299907 
0.0266056 0.00137521 0.084404 
0.0644982 0.024124 0.161003 
0.0155158 -0.0105784 0.200149 
-0.014414 -0.0672608 0.124519 
-0.0234394 0.0151052 0.166041 
-0.0475919 -0.00319536 0.223153 
-0.00488181 0.01275 0 
0.00740105 -0.0270637 0 
-0.0143868 -0.0126446 0 
0.0347442 -0.051742 0.0468194 
-0.0412225 0.0222297 0.0460719 
0.0293655 -0.00286438 -0.0640237 
-0.0171168 -0.0203224 -0.00734572 
-0.104615 0.028985 0.202851 
0.00346926 0.0069066 0.0833629 
0.0123885 0.00395183 0.0951035 
0.0083273 0.0169609 0.121835 
-0.000803507 0.0067508 0.0754134 
0.00507774 0.0132202 0.104249 
0.0102854 0.00553335 0.0924838 
0.00290897 0.00538132 0.0853271 
-0.00203969 0.00328339 0.0675313 
0.0227867 0.0228514 0.171481 
0.0191407 0.0632922 0.173112 
0.0451731 0.0232934 0.121964 
0.00484449 0.0313255 0.2776 
0.000979871 0.00240367 0.000174069 
0.00033083 0.000706008 0.00425465 
-0.000163039 -0.00033238 -0.00271513 
0.00407855 -0.00215823 0.0205533 
0.0156636 -0.0180885 0.141519 
0.00552906 0.0130336 0.133565 
0.0268101 0.0130389 0.0775728 
0.0358224 -0.0335293 0.0669123 
-0.00059298 -0.00185975 0.006518 
0.0208757 0.00240849 0.110142 
0.00287026 -0.0104139 -0.00593979 
0.0226319 -0.0145988 0.109917 
0.0115908 -0.00540803 -0.00361525 
-0.00809607 0.000238258 -0.00505837 
0.00458017 -0.00494843 -0.00600615 
0.00407292 0.0167284 0.0540248 
0.0250889 0.0366472 0.175436 
0.00200375 0.030289 0.332628 
-0.0204392 0.109386 0.142301 
0.070492 -0.00659122 0.232065 
0.000164238 0.000338849 0.000296915 
-7.751e-05 -0.000241458 0.0023709 
-0.000350062 -0.000744352 4.82365e-05 
0.00298512 0.0024144 0.0415479 
-0.00409034 -0.00139602 0.0131863 
0.00839481 0.0238233 0.17983 
0.00466675 0.0181829 0.072783 
0.0119658 -0.00364915 0.145004 
-0.00101789 0.00116588 0.00055202 
0.0122843 -0.0204113 0.0723721 
0.0158759 -0.0193872 0.0597881 
0.0075218 -0.00784303 0.0519633 
-0.0075459 -0.0218756 0.100221 
-0.00324617 -0.00989867 0.0885533 
-0.0094895 -0.0165788 0.0780677 
-0.00250662 -0.00236312 0.056839 
0.0465049 -0.052461 0.403695 
0.0450856 -0.0819466 0.18042 
0.0460346 0.0279941 0.154785 
0.0289294 -0.071178 0.00727705 
0.0125129 -0.00772581 -0.0157126 
0.0168143 -0.00405572 0.0915376 
-0.00308778 0.00730022 -0.0333075 
0.0459266 0.0487366 0.104762 
0.0103864 -0.0102165 0.027364 
0.00787098 -0.007723 -0.0124478 
-0.00514671 0.00504944 0.00901271 
0.0392178 -0.0546249 0.152847 
0.000905935 0.0145473 0.0747506 
0.00057167 0.01427 0.0808547 
0.00563692 0.0142361 0.10179 
-0.000268543 0.00467518 0.0600021 
-0.000292271 -2.25149e-05 0.104882 
0.00452498 -0.00859638 0.0763329 
-6.25095e-05 0.000669893 0.0780993 
0.00285441 -0.00585352 0.099251 
0.0115288 -0.0573566 0.149708 
-0.0235134 -0.0182593 0.190121 
-0.0265715 -0.0378632 0.142125 
-0.00432171 -0.0111544 0.0999498 
0.0166881 0.0193512 -0.0293453 
-0.0370235 -0.0413806 0.192611 
-0.0552382 0.0911931 0.112972 
0.00516355 -4.75739e-05 0.169612 
0.000193828 0.0021776 0.00283582 
-0.00470729 -0.00745272 0.0647447 
-8.81717e-05 -1.26471e-05 -0.00124334 
-0.0110428 -0.0167569 0.0489827 
-0.0128221 -0.00726429 -0.0185765 
0.0048361 -0.0431772 0.103733 
-0.0138981 -0.042272 0.0674041 
-0.0808716 -0.0703758 0.126212 
-0.00168101 0.000139331 -0.00159857 
0.00559028 0.00356573 0.066829 
0.0102342 0.0046367 0.0486173 
0.00935401 0.00593842 0.0541909 
-0.0117095 0.0496049 0.00177317 
0.0263491 0.0279782 0.0586701 
-0.00124658 -0.0192289 -0.0247125 
0.0204851 0.0830805 0.104068 
0.00637612 -0.0152792 0.120151 
0.0193334 -0.0541302 0.114336 
0.0207361 -0.0200672 0.0511017 
0.0282742 -0.0272901 0.062324 
0.00549045 0.00899708 0.0791352 
0.0083315 0.00224752 0.0629133 
0.00896937 0.00879629 0.111433 
-0.000317456 0.00821188 0.116552 
-0.00415104 0.0455068 0.0978942 
0.0100676 0.0257731 0.114057 
0.0204345 0.0243725 0.112476 
-0.00573812 0.0312301 0.12771 
0.000624139 0.0071431 0.105263 
-0.000111138 0.0263716 0.134006 
0.00155788 0.0142286 0.130364 
0.0037385 0.017215 0.117662 
-0.00630791 -0.0159154 -0.0120203 
0.058823 -0.0380903 0.148915 
0.0274599 -0.0205263 0.0397914 
0.0279849 -0.051124 0.0416985 
0.000316932 0.00060472 0.0901328 
-1.36413e-05 0.00848941 0.0695262 
-0.00033392 -0.000600875 0.0493189 
0.000379693 0.00525287 0.0459063 
-0.000839191 -0.000813955 0.000598248 
0.0173931 0.0140541 0.083034 
0.00629932 0.00801631 0.0803733 
0.005133 0.00227 0.0604347 
0.0112742 -0.0148156 0.119196 
0.0212291 -0.0224427 0.0528696 
0.0148312 -0.0466528 0.109132 
0.0122083 -0.0207765 0.0800944 
-0.00618509 0.000873741 -0.0255185 
-0.00670736 0.0897642 0.102623 
0.00464883 0.0327673 0.0318454 
-0.00862821 0.0346151 0.0353602 
2.22315e-05 0.000226893 0.140113 
0.000394374 7.98941e-05 0.14432 
-0.000394844 -3.25421e-05 0.140952 
-0.00248537 -0.00583579 0.141 
-3.13307e-05 0.0107762 0.10404 
-0.00459248 0.0085138 0.0796419 
-0.000934373 0.0213002 0.14229 
-0.00490574 0.0136446 0.0938259 
-0.0389487 -0.00522499 0 
-0.0149499 0.023198 0 
0.0547039 0.00665728 0 
0.0293071 -0.0396054 0.11309 
0.000197066 0.00122367 0.0397528 
-0.000502557 -0.00114943 0.000161611 
0.000228444 0.000333425 0.000594175 
-0.000986265 0.00524402 0.0598593 
-0.000165268 -0.00262559 0.0017084 
-0.00325945 -0.00702776 0.0622303 
0.00154875 0.00141593 -0.000503581 
-0.00807573 -0.00925036 0.0523547 
-8.88669e-05 0.000383972 0.0757021 
0.00427954 -0.00216466 0.105906 
-0.000578159 -0.000316597 0.101251 
0.00349744 -0.00490685 0.0995158 
-0.00292252 0.00128201 -0.00352478 
0.00204436 0.00839254 -0.0108925 
0.00292424 -0.0529879 0.0509599 
0.00473577 -0.00718431 0.00448888 
0.00845297 -0.00623608 0.0125482 
0.00257975 -0.00182948 0.00219579 
0.00385801 -0.00153328 -0.0233796 
0.0254283 -0.0303497 0.0826255 
0.0110764 0.0246997 0.155254 
0.0554738 0.0215505 0.147313 
-0.004454 -0.00889643 0.189743 
-0.00220515 0.0325163 0.260437 
-0.00106977 0.0133325 0.0727487 
-0.000398712 0.0113174 0.0487266 
-0.000659339 0.00020113 -0.00019575 
-0.000996459 0.00541206 0.0466975 
0.000244265 0.00106727 0.00211865 
-0.000258073 -0.0010538 -0.000760934 
6.88742e-05 1.29542e-05 -0.00516756 
0.00659737 -0.00352216 0.0257573 
-0.0209729 -0.0303096 0.0430852 
-0.00179561 -0.0031391 0.00193954 
-0.00663721 -0.0119194 0.0260243 
-0.000858101 0.00125253 0.0274198 
0.0132266 -0.00267871 0.0968338 
0.00641522 -0.00529489 0.0755552 
0.0127231 -0.00471643 0.049582 
0.0163203 -0.00792585 0.0935304 
0.00871907 0.0087685 0.107594 
-0.000801957 -0.000303164 0.0837663 
0.0049228 0.00453234 0.0636095 
0.00452298 0.00336567 0.107491 
-0.000717755 0.000296957 0.00364659 
-0.00430994 -0.00558613 0.0869773 
0.00031582 0.000219808 0.0463423 
-0.0028887 -0.0043004 0.0596067 
0.0001869 7.32518e-05 0.0903406 
0.000325676 -0.000888596 0.049932 
-0.000188465 0.000742468 0.0850871 
0.00464481 0.00303753 0.0697181 
0.00401294 0.00588697 0.00336541 
0.0452358 0.0207316 0.0838704 
0.0186988 0.0178194 0.0842832 
0.0256711 0.0117976 0.0432987 
-0.00106581 0.00459599 0.0198201 
-0.00601157 0.034996 0.092711 
0.000787265 0.00107495 0.00356482 
-0.00235311 0.0125281 0.0889037 
-0.00474559 -0.00113403 -0.00531287 
0.0126429 -0.00324768 0.0249203 
-0.00210487 -0.000961813 -0.000351498 
0.010775 -0.00325092 0.0116589 
0.0396626 0.0322534 0.194956 
0.0465418 0.0930299 0.110118 
0.00581116 -0.0047786 0.331589 
0.0133412 -0.0186417 0.324602 
0.00733197 -0.0210124 0.117497 
0.0132207 -0.0185748 0.0799012 
0.0184001 -0.0447185 0.11446 
-0.00414399 -0.0278412 0.134108 
0.00605199 0.00340828 0.0683559 
0.00486308 0.00516915 0.0637615 
-0.00109874 0.000496816 0.0855035 
0.00469454 0.00255819 0.10663 
-0.0014951 0.000646896 0.0109161 
-0.00189798 0.00117646 -0.00523984 
0.00812073 -0.00467943 0.00337917 
0.0287407 -0.0184351 0.0762294 
-0.000173257 0.000757159 0.0734759 
-0.000214352 9.44593e-05 0.0778006 
0.00463605 -0.00826684 0.0762924 
0.00294083 -0.00547618 0.0995622 
-0.0072605 -0.0207643 0.095895 
-0.0037143 -0.00995149 0.0830364 
-0.000622797 -0.00710165 0.116767 
-0.00166845 -0.00816154 0.108108 
0.0209923 0.0386941 0.188648 
-0.0113098 0.116352 0.100619 
-0.00213492 0.0200792 0.35901 
-0.0308206 0.043065 0.16316 
0.0387627 -0.0621753 0.208465 
0.0451627 -0.0731535 0.104937 
0.0223882 -0.0456549 0.369973 
-0.0655835 -0.0617255 0.142599 
2.77562e-05 0.000202819 0.0453645 
-0.000276817 -0.000907646 0.0766596 
8.19691e-05 5.72746e-05 0.0453834 
0.00261987 -0.00394578 0.0619411 
0.000175908 5.1375e-05 0.0506486 
-0.000246812 -0.000181792 0.0381005 
-0.000289866 0.00035319 0.000655976 
0.00480838 0.00238704 0.0690361 
0.0472722 0.0105894 0.0355971 
-0.00564639 0.0520203 0.0460069 
-0.018461 0.0129568 -0.0475267 
0.0734729 0.0377785 0.145439 
0.000424312 -0.00028158 3.68079e-05 
4.22821e-05 -0.00080581 0.0012459 
0.000665119 -0.000422083 0.0452067 
0.00223072 -0.00318361 0.0633916 
0.00946435 0.0519409 0.0545949 
0.0415921 0.104881 0.200236 
0.0383276 0.063751 0.0893273 
0.00884232 0.000359694 -0.0515859 
0.000168499 -2.80822e-05 0.125951 
-8.87716e-05 -3.17979e-05 0.131912 
-0.000315376 -0.000399544 0.139678 
0.00283345 0.0106962 0.122379 
0.00209425 -0.00596506 0.359088 
0.0166389 -0.011419 0.356989 
0.00708136 0.0135872 0.355086 
-0.0874246 0.0701725 0.303957 
9.60509e-05 -9.80626e-06 0.103912 
0.00294977 -0.0082447 0.119547 
0.00359993 -0.00887771 0.07853 
0.00308433 -0.00580403 0.0986958 
-0.00221834 -0.0277973 0.113178 
-0.00366966 -0.0144859 0.13183 
-0.00475217 -0.0257323 0.133078 
0.000650565 -0.0355426 0.118927 
0.00619853 0.00787262 -0.00696557 
0.00304546 -0.00154767 -0.00218058 
-0.010226 0.0074734 -0.00812675 
0.0289829 -0.0319102 0.0492276 
-0.000110608 -0.00103026 0.000988897 
0.000143072 0.00167163 0.000671122 
-2.64437e-05 -0.000509761 -0.00127927 
0.000480443 0.0074898 0.0424907 
0.0250007 -0.00714476 0.0541102 
0.00823918 -0.00697882 0.0508269 
0.0246868 -0.00126934 0.0395144 
0.0151077 -0.000438167 -0.00169387 
0.00856072 -0.00220961 0.0139921 
0.00535793 0.0081694 -0.0196638 
0.015851 -0.0434678 0.0319329 
0.0277409 -0.031632 0.0826131 
-0.00118567 0.000779621 -0.00566121 
0.00170454 -0.00109358 0.0133329 
0.007502 -0.00509882 0.0041307 
-0.00285142 -0.01083 0.11912 
0.0177183 0.0195541 0.117394 
0.00423489 0.0518343 0.0939675 
-0.010092 0.0300685 0.126952 
0.00430012 0.032945 0.10938 
0.0278569 0.0502912 0.0198013 
-0.0289764 -0.0314933 -0.0231626 
0.074014 0.0699109 0.162085 
-0.00657586 -0.0373122 0.0350296 
0.00264173 -0.012081 -0.011173 
-0.000207615 -0.0441403 0.0571918 
-0.00463175 -0.00641522 0.0288044 
0.00601441 -0.00486004 0.0105707 
-0.0037452 0.00406966 -0.000836464 
-0.00165774 -0.0110545 0.0925823 
-0.0044606 -0.0129705 0.0835173 
-0.00355181 -0.0108573 0.0938464 
-0.000149635 0.000706373 0.00563524 
0.0158442 0.013588 0.0757853 
0.0051662 0.00274088 0.0612255 
0.00934521 0.00720109 0.0555664 
0.00225198 -0.00179522 -0.00153166 
-0.000743354 -0.000821791 0.00440168 
0.00752303 0.00733676 0.0905313 
0.0103066 0.0100432 0.082204 
0.00796515 -0.00499366 0.0761185 
0.00338416 -0.00646437 0.127693 
0.00206408 -0.0058128 0.0983774 
0.0141973 -0.00864496 0.0932058 
0.000641517 -0.000624095 -0.005056 
-0.00923422 -0.0107819 0.086075 
-0.00107464 0.000655945 0.00432141 
-0.00386608 -0.00608958 0.0972364 
-0.00440622 0.000478809 -0.00655949 
-0.000530739 0.0161486 0.0417277 
-0.00283979 0.0401432 0.0753227 
-0.00638412 0.0371487 0.0412166 
-0.00168721 -0.00108975 -0.000946571 
-0.00227967 -0.0081732 0.00800654 
0.000676563 0.0350424 0.0718247 
-0.00117953 0.0229034 0.0481109 
4.66075e-05 -0.000582147 0.127724 
0.0014965 -0.00517206 0.126039 
-0.000196092 0.000221889 0.139951 
-0.000232992 -0.00489335 0.139956 
0.000993056 0.00295029 0.00230949 
-0.00717225 -0.00857895 0.0908351 
-0.00224792 -0.00627983 0.0832668 
-0.00011586 -0.000272177 0.0632672 
-0.00365363 -0.00601811 0.0629678 
-0.000219932 -0.000199974 0.0659108 
-0.0006005 -0.000193896 0.047886 
-0.00110612 -0.00110769 0.091612 
-0.0177512 -0.0293338 0.143334 
-0.00460358 -0.0112069 0.108269 
-0.0272543 -0.0230003 0.146943 
-0.0146558 -0.00694288 0.0865496 
0.00202195 0.0180676 0.0312246 
-0.000450279 -0.0122582 0.0228068 
-0.00196526 -0.00338077 0.00328862 
-0.00655229 0.00124832 0.0319687 
0.0103877 0.034292 0 
0.0192683 0.00924891 0 
-0.00949989 -0.0222971 0 
-0.0132605 -0.0566835 0.0291176 
0.0378712 -0.00598547 0.0422772 
0.043236 0.0160516 0.136795 
0.0385507 0.00115658 0.175372 
0.0123391 -0.0185475 0.0699557 
-0.000363332 0.000120724 0.0595077 
-0.000203943 0.00228471 0.0649338 
0.00101567 0.00407644 0.0854918 
0.00155837 0.0076187 0.114695 
0.0135701 0.0299024 0.0998665 
6.8885e-05 0.0264658 0.042098 
0.0233868 0.0221856 0.0505936 
0.00135075 0.0682027 0.0818118 
0.00404123 6.40608e-05 -0.000733392 
-0.0066444 0.00106362 0.0042101 
-0.0201267 0.00388338 0.0924163 
-0.00223103 0.00622345 0.0852245 
0.0111731 -0.0124586 0 
-0.0053348 -5.13826e-05 0 
-0.0024697 0.0133579 0 
-0.0348243 -0.031637 0.0268147 
0.00364313 -0.0445326 0.0326534 
0.0236898 -0.0457066 0.143641 
-0.0119914 -0.110363 0.143625 
-0.0178414 -0.0668062 0.144768 
0.00190021 -0.00119146 0.00717268 
-0.00317956 0.00222699 -0.00496819 
0.00481972 -0.00363758 -0.000360169 
0.0159684 -0.00405545 0.104682 
-0.000356813 0.000158912 0.111759 
0.000957447 0.000758857 0.0926657 
-0.000407931 -0.000241582 0.123942 
0.000483613 -0.00870623 0.119697 
-0.00587846 0.018082 -0.036199 
-0.000987086 0.0333288 -0.0291762 
0.0362741 -0.0131966 0.0385436 
0.0858981 -0.0343717 0.15096 
0.0128756 -0.000800399 -0.00682939 
0.0015599 -0.000796005 -0.00284061 
-0.0312355 -0.0342661 0.0405722 
-0.0334122 -0.0341006 0.0332566 
-0.000378999 0.000112614 0.0451433 
0.00132904 0.00357172 0.0877605 
-0.000501957 -0.00082838 0.00147952 
0.00143638 0.00265729 0.0671751 
-6.63949e-05 -0.000500623 0.0462677 
-0.000952336 -0.000367206 0.00102582 
0.00347965 -0.000344067 0.0610161 
0.00173246 -0.000798899 0.0509146 
-0.000573848 0.00991012 0.104275 
-0.00269174 0.00838342 0.0879599 
0.00564819 0.00764244 0.0808498 
0.00281496 0.00211516 0.0640771 
0.00068291 0.00982797 0.10465 
0.00153578 0.0149509 0.132569 
-6.95016e-05 0.0245286 0.129301 
0.001254 0.00660539 0.112335 
-6.26603e-05 0.000497417 0.07435 
0.00439636 -0.00770614 0.0746028 
-0.000197824 5.72592e-05 0.0777822 
0.00242187 -0.00416807 0.056022 
0.00258998 0.0106552 0.104657 
-0.00139391 0.0140139 0.132364 
0.001976 0.00840491 0.113273 
0.00647274 0.016982 0.115716 
0.0118673 -0.0528904 0.14214 
-0.0223685 -0.0673118 0.159387 
0.00573534 -0.0317602 0.0937926 
-0.00522154 -0.0290193 0.134852 
-0.00552391 -0.0128783 0.0803719 
0.0148639 0.0208181 0.0490495 
0.00839103 0.0252571 0.0407001 
-0.00360998 -0.0128256 0.0149188 
0.0222796 0.0148906 0.0933385 
0.0504731 0.0217192 0.127581 
0.00325664 -0.0111685 -0.000750546 
0.016329 0.00925047 0.0920794 
-0.00232117 -0.0132979 0.133937 
-0.00708736 -0.0270498 0.12963 
-0.00814859 -0.0245984 0.127274 
-0.00486857 -0.0189411 0.12285 
-0.00447977 -0.022742 0.114551 
-0.00176783 -0.00608698 0.0871508 
-0.0136174 -0.0260268 0.0579801 
-0.022316 -0.01032 0.0989606 
-0.00116963 0.000191315 0.00285866 
-7.80646e-05 -0.000114592 -0.00254229 
0.00357133 -0.000483199 0.0577087 
0.0072771 -0.00232084 0.0508237 
-0.0020812 -0.042821 0.0732039 
-0.00445337 -0.0196063 0.116429 
-0.00515111 -0.0419205 0.114325 
-0.000740718 -0.00303948 0.0862308 
-0.000299856 -0.000916938 0.0727948 
0.000397208 0.000810823 0.0890022 
-0.000513901 -0.000545498 0.0491045 
0.000548938 0.00503085 0.0470107 
0.000416102 -0.000797806 -0.00121663 
0.000291552 0.00406357 -0.00031574 
0.0025463 0.0020253 -0.000829747 
0.00167662 0.00237583 0.00549313 
0.00251613 -0.00239253 0.0077708 
0.00220654 -0.00218869 -0.00438567 
-0.00169228 0.00161519 -0.00447947 
0.0161773 -0.0223755 0.0880464 
-0.000979448 -0.000274486 -0.00306498 
0.00236873 0.000664656 0.00761875 
0.00199919 0.000529897 -0.00129157 
0.0037896 -0.0030097 0.0978517 
0.0289374 -0.0578699 0.117225 
-0.0239599 -0.0662359 0.164219 
0.00249207 -0.0403649 0.0794482 
0.00741508 -0.070886 0.27655 
0.000758541 -0.00405979 0.000668876 
0.0135422 -0.0155888 0.050151 
-0.00295338 -0.000206346 0.000442247 
0.00476619 -0.00782226 0.0480087 
-0.00369629 -0.0149461 0.135719 
-0.00426059 -0.0250631 0.126672 
-0.00212187 -0.014571 0.126546 
-0.00202064 -0.00939018 0.127708 
-0.0290505 0.0714285 0.0254565 
0.0174661 0.0104161 0.182984 
-0.0536675 0.00824489 -0.0611763 
0.00325649 0.051295 0.198644 
0.000342501 0.000150119 0.0832351 
0.000147114 -0.000531761 0.111573 
6.13814e-05 5.73658e-05 0.0816438 
-0.00411728 -0.00784545 0.0807785 
0.00734089 -0.0769021 0.381661 
-0.081777 -0.00630701 0.0864152 
0.0189246 -0.0644739 0.162687 
0.0845397 -0.0405574 0.055945 
0.0127396 0.0228864 0 
0.000133651 -0.00813515 0 
0.000390099 0.00314548 0 
0.0129515 -0.00540623 0.0505151 
-0.00465297 -0.0100724 0.0901242 
-0.00136047 -0.00126875 0.00395169 
-0.00534712 -0.0161418 0.0766476 
-0.00514571 -0.00258399 0.0552689 
0.000102512 -0.00125659 0.00353255 
0.000145848 -0.0017878 -0.000570108 
1.67844e-05 -0.000205743 -0.00131061 
0.00368153 -0.00304464 0.00508324 
0.00424446 0.0562751 0.0770728 
-0.0324844 0.0122056 0.0477065 
-0.00413619 0.00809198 0.0676141 
-0.0235239 0.00132039 0.108395 
-0.0129039 -0.0201876 0.0958056 
-0.000613263 -0.0161409 0.125648 
-0.00129748 -0.033216 0.130186 
-0.00237552 -0.0234534 0.122172 
0.00152556 0.00148076 0.000983198 
0.00146 0.00145003 -0.00312923 
-0.00138878 -0.00135134 -0.000480704 
-0.0152164 -0.0158971 0.0811215 
-0.00165534 -0.000154875 0.00628056 
-0.00111438 0.000503204 -0.00382039 
0.0102174 -0.0052926 0.0107579 
0.00747343 -0.00542118 0.00666933 
-0.011889 0.0170192 -0.0248211 
0.0349688 -0.0298788 0.0130329 
-0.017793 -0.0293359 0.0454564 
0.040764 -0.096176 0.128551 
0.0108801 0.00432636 0.0777368 
-0.00327285 0.0123399 0.0943463 
-0.00217856 0.0113005 0.105858 
0.00431611 0.0151669 0.116292 
0.0275781 0.0147751 0.18163 
0.0155583 0.018137 0.0646083 
0.031936 -0.0156579 0.0949567 
0.0455834 -0.00513604 0.212343 
-0.0332748 0.0299293 0.386788 
0.0754336 0.108236 0.136027 
-0.0114064 0.0867353 0.205389 
-0.0345385 0.0365569 0.266182 
8.61286e-06 0.000188407 0.00197206 
3.41222e-05 -0.000739 -0.00253265 
-0.000103427 0.00115928 0.000150075 
0.00450066 -0.00749453 0.0493246 
-0.0108488 -0.0196372 0.0959105 
-0.00680922 -0.0123344 0.0474026 
-0.00110435 -0.00368787 0.0647307 
-0.0130314 -0.0203318 0.0510148 
2.78227e-05 -0.000251096 0.0913207 
-0.00033636 -0.000211797 0.0711035 
3.97878e-05 0.000259569 0.0888453 
0.000647085 0.00761697 0.10875 
0.00114599 0.00192231 0.00738801 
-0.00558287 -0.00163029 -0.00743289 
-0.0324184 -0.0251079 0.108853 
-0.0220541 -0.0215545 0.0572787 
0.000144185 -0.00234645 0.000269895 
0.00185711 0.0250722 0.0396892 
0.00105264 0.0156007 0.0427174 
-0.00756534 0.0313453 0.027397 
-0.000449614 4.0886e-05 0.0484334 
0.000643995 0.00014938 -0.000554767 
0.00189546 0.00153606 0.00323955 
0.00257765 0.0011237 0.063821 
-0.000776226 -0.000965103 0.0462693 
0.00127969 0.000332697 0.00476216 
0.00580856 0.00535889 0.0788731 
0.00358867 0.00325595 0.0625856 
-0.0034194 -0.00161832 -0.000161707 
0.0124388 0.00614519 0.0475134 
-0.00159361 0.000522098 -0.00108673 
0.0109154 0.00738404 0.053033 
0.00148078 0.0338204 0.0867071 
0.0701161 -0.00745847 0.059916 
-0.00685002 -0.0708537 0.0714279 
-0.0416872 -0.0914425 0.162156 
0.0150117 -0.0186978 0.118103 
-0.000167557 -0.006033 0.129543 
-0.0170734 -0.0162365 0.137424 
-0.00118963 -0.0395169 0.12651 
6.69459e-05 0.000456613 -0.00474399 
0.000269593 0.0010468 -0.000842126 
-0.000142462 -0.000605025 0.00164087 
0.00613475 -0.00313135 0.0440765 
0.000438697 0.000227761 0.0842643 
0.00454229 0.0059966 0.0764681 
-0.000133696 -0.00121474 0.0425762 
0.00176233 0.00302876 0.0641631 
-0.00116514 -0.000547824 0.000344565 
0.00191311 -0.00357037 0.0554529 
0.00586382 -0.00544211 0.0762743 
0.00238447 -0.00194639 0.0513473 
0.105273 0.0108288 0.0631424 
-0.0313407 0.00950043 0.0843411 
-0.0107924 0.0482696 0.0827884 
0.0970712 0.0280909 0.147482 
0.000252977 2.10972e-05 0.0750216 
-0.000233073 6.40364e-05 0.106657 
0.00415812 -0.00121434 0.104805 
0.00408491 0.0018561 0.1056 
0.00586652 0.00853724 0 
-0.0178269 -0.00189162 0 
0.00727659 0.0171067 0 
-0.0197976 -0.0201122 0.0166329 
6.0712e-05 -0.000156453 0.107499 
0.00485165 0.000847814 0.129154 
-0.001272 0.000515619 0.133843 
0.00437187 -0.00140788 0.104696 
-0.00188307 -0.000837766 0.000143568 
0.000339821 7.55802e-05 0.00515957 
0.00118607 0.000517531 0.00060528 
-0.00522076 -0.0060181 0.0949714 
-0.0105391 4.8759e-05 0.118508 
-0.0090152 0.000963363 0.137758 
-0.00159097 0.0181111 0.122218 
-0.0197101 0.00877891 0.113799 
6.15596e-05 -0.000390572 0.0481531 
0.00133374 0.0040555 0.0841814 
-0.000590908 0.000424032 0.058795 
-0.00012817 0.00226691 0.0646949 
0.000648391 -0.00433915 -0.00622071 
0.00130484 0.000485451 0.00378324 
-0.010361 0.0280531 0.0944224 
-0.00313278 0.0203622 0.0865038 
0.00339202 0.00690118 -0.0142538 
-0.00692397 -0.00692001 0.0014165 
-0.0369527 0.0090325 0.129253 
-0.0199476 -0.0146339 0.15259 
0.00358827 0.0181225 0.0309727 
0.00466442 0.00495476 -0.00336163 
-0.00155937 -0.0061717 0.00505084 
0.00112856 -0.00589063 0.0184405 
0.01897 -0.00419417 0.0383826 
0.0199482 -0.002669 0.0943885 
0.0101637 0.00379468 0.0447767 
0.00547155 0.00112719 0.0387072 
0.000620682 -0.0204902 0.110835 
-0.0252756 -0.0298964 0.0959029 
-0.0182147 -0.0154955 0.14025 
-0.0248983 -0.0103164 0.101019 
-0.00178191 -0.00191016 -0.000460008 
0.00164634 -0.00103212 0.000925272 
-0.00165241 0.00853564 0.0873993 
0.0023304 0.00110337 0.0672068 
0.000380771 -0.000258041 -0.00258077 
0.00180739 -0.00130643 -0.000486377 
0.000302212 -0.000238077 0.00274877 
0.00323612 0.00187972 0.0947429 
-0.0133786 0.0116731 -0.0175654 
-0.00931756 -0.00748606 -0.026691 
0.0271004 -0.0378222 0.0613412 
0.0418191 -0.125768 0.168456 
0.00010069 -0.000209036 0.133179 
-2.20273e-05 0.00402425 0.140038 
0.00241593 0.00188077 0.129395 
0.00273116 0.00571601 0.127451 
7.04352e-05 0.000186082 -0.00170977 
0.0170142 0.00962237 0.0897537 
0.00292472 0.000603877 0.00466771 
0.00432937 0.00822933 0.0819601 
-0.00352987 -0.0231244 0.116636 
-0.0139923 -0.0282324 0.0511209 
-0.0220173 -0.0291627 0.0912753 
-0.0252245 -0.00556853 0.101749 
-0.000365893 0.000978557 0.0844066 
0.00503761 0.00294409 0.0701066 
-0.000473047 -0.00112014 0.0502399 
0.00513909 0.00422203 0.0620537 
-0.00171543 0.00150549 0.00321671 
-0.0005455 -0.00775476 0.0862888 
-0.000127898 0.00187266 -0.000279411 
-0.00577409 -0.00414785 0.0949669 
-0.00642054 0.00316844 -0.0128542 
0.00573247 -0.0109793 -0.00401433 
0.0171222 -0.00041557 0.0461164 
0.0788931 0.0146853 0.0865283 
-0.0236384 -0.0394139 0.0617258 
-0.00513458 -0.0224287 0.0124454 
-0.00193119 0.0125482 -0.0396593 
-0.0436805 -0.0759247 0.102736 
-0.0208159 -0.00286399 0.372021 
0.00751094 -0.057994 0.154156 
0.00347234 0.00459278 0.392162 
-0.0441688 0.0519314 0.255393 
0.00566038 -0.00694623 0.0747183 
0.00127319 -0.00372355 0.0554492 
-0.000745419 0.00058681 0.00145179 
0.00638171 -0.00799577 0.050138 
5.8143e-05 -0.000774899 0.0871144 
9.07038e-05 0.00014196 0.115098 
7.5053e-05 0.000188264 0.114719 
0.00397334 0.00488306 0.129049 
-0.00189615 -0.00299444 0.00572983 
0.00208243 0.000115546 0.00426798 
0.0190858 0.0159872 0.0775855 
0.0109107 0.00969396 0.0558461 
-0.00220182 0.00294418 0.0173657 
-0.00919911 0.0231132 0.0951648 
0.0198883 0.00271116 0.101145 
0.0236843 -0.0109081 0.121629 
-0.017428 -0.0111511 -0.000413395 
-0.00592698 0.0138005 0.154797 
-0.0469056 -0.115699 0.0707578 
-0.0164473 0.0889188 0.132897 
-0.000478877 -0.000166592 0.000933435 
0.00264448 -0.00430907 0.0567172 
0.00605659 -0.0084404 0.076249 
0.00527911 -0.00811738 0.0528962 
-0.0273639 -0.0370548 0.0255188 
0.0162399 0.00529494 -0.010586 
0.0015126 -0.0172547 0.0172945 
-0.0527714 -0.0668961 0.0841992 
0.00427887 -0.000384635 -0.00481679 
-0.00715885 0.000593077 0.00416901 
0.00247859 -0.000442882 -0.0197605 
-0.0468144 -0.00624432 0.113686 
0.027228 0.0146789 -0.0334637 
-0.0564561 0.0196404 0.164913 
-0.0191641 -0.0787011 0.00760056 
-0.0484566 0.0304246 0.0718215 
-0.021425 -0.0100986 -0.0174971 
0.082646 -0.0121879 0.123957 
-0.000419652 -0.0650794 0.0714038 
0.0361765 -0.0518572 0.132914 
0.00578357 0.036982 0.193756 
0.0137185 0.0480394 0.143346 
0.0886778 0.0845004 0.088086 
0.0454642 0.0465208 0.226803 
-0.0133242 -0.0521388 0.167845 
0.0401601 -0.00580215 0.185654 
-0.00967172 0.0133082 0.372587 
-0.0415393 -0.158354 0.16082 
-0.000874759 0.00102818 -0.00617941 
-0.00879412 0.0433958 0.101591 
-0.0037141 -0.00318551 0.0107609 
-0.0169459 0.0503958 0.0978343 
0.000103034 2.58072e-05 -0.00220649 
-0.000177155 -3.19531e-05 0.00301722 
-0.000768185 6.9435e-05 7.78364e-05 
-0.0021828 0.00240887 0.0886879 
-0.0123804 0.0190392 0.136488 
-0.00900755 0.00650645 0.121317 
0.0109652 0.00559073 0.120253 
0.0152246 0.0367601 0.122822 
-0.00638258 0.0112428 -0.0169802 
0.0451373 -0.0399698 0.107177 
0.00133437 0.0085323 -0.00672232 
0.031332 -0.058337 0.12978 
0.0148249 -0.00985874 -0.0123549 
-0.0110787 -0.00725889 0.00347998 
0.0032883 -0.0438615 0.084882 
-0.0426952 -0.0913379 0.097553 
0.00117157 -0.00291021 0.00452254 
0.00771397 -0.0128931 0.0794953 
0.00188576 1.12619e-05 -0.00136731 
0.0027718 -0.00416759 0.0646644 
-0.00465484 0.000382465 -0.00354632 
-0.00464891 0.000295589 0.00528832 
0.00331855 -0.000177323 -0.00721741 
-0.0183118 -0.000842107 0.0694308 
0.022125 -0.00148472 0.0499385 
0.0223974 -0.0172032 0.0567222 
0.01303 -0.0249379 0.0514758 
0.0165641 -0.00373074 -0.00489857 
-0.000144354 0.000298046 0.0742861 
8.22649e-05 -0.000205467 0.0858868 
0.00385492 -0.000817135 0.0602686 
0.00457602 -0.00122469 0.105291 
-0.0123482 -0.00700109 0.0179604 
-0.0920581 0.0024379 0.124995 
-0.00147105 0.0144592 -0.00979658 
-0.0383639 -0.0572841 0.0545592 
-0.00180531 0.000884469 -0.00171063 
0.00306748 0.00464036 -0.00054972 
0.00376652 0.00131722 0.00221825 
0.00836975 0.0086467 0.00383305 
-0.000953894 4.64077e-05 0.141559 
-4.02566e-05 -0.000957431 0.126924 
0.000270405 0.000331017 0.121803 
0.00235276 -0.00482666 0.124631 
-0.00329769 0.000801699 0.000934556 
0.0117116 0.00401542 0.0458245 
0.00496829 0.00377 0.0662906 
0.00649205 0.000499358 0.0410965 
-0.00315075 0.00369366 0.0154543 
0.00183923 0.0176104 -0.0238397 
0.0552714 -0.0285122 0.0530755 
0.0522987 -0.00838351 0.124024 
0.0379573 -0.0332953 0.253403 
0.0287542 0.00918712 0.221693 
-0.00409072 -0.00488518 0.324476 
0.0177022 -0.00690304 0.310121 
5.91859e-06 -5.36105e-05 -0.00369713 
-0.000214172 0.000149316 1.07092e-05 
0.00229614 -0.00157484 0.00182539 
0.00301194 -0.00301576 0.10574 
-0.0382255 0.00140333 -0.031489 
-0.00707589 0.0214961 0.156443 
-0.000384476 0.0581107 0.0189199 
-0.0232744 -0.14278 0.0999121 
-0.00338528 -0.000652541 -0.00296028 
0.00969486 -0.00246333 0.0404781 
-0.00244106 -0.00142129 0.000647489 
0.0108178 -0.00458616 0.0154811 
0.0213989 -0.0345417 0.157492 
0.0145622 0.0190113 0.17003 
0.050932 -0.0442753 0.070233 
0.023849 -0.0254126 0.282103 
-4.44107e-06 -0.000126616 -0.00162955 
1.29142e-05 0.000151216 0.00169813 
-7.91223e-05 -0.000149869 0.000478583 
0.00235025 0.000621378 0.0621843 
0.015125 -0.0254456 0.16263 
0.0216341 -0.0652651 0.145865 
-0.00164952 -0.0469039 0.0999861 
0.00876929 -0.0472475 0.230446 
-8.28536e-05 -8.97443e-05 -0.00144273 
-0.000155731 -0.000491237 0.00180827 
0.000170362 0.000407247 -0.000154462 
-0.000930425 -0.00171992 0.0500135 
-0.00110522 0.000762749 -0.00119995 
0.000147309 -3.62838e-05 0.00111353 
0.00562015 0.00445212 0.0675462 
0.00846023 0.00498769 0.053586 
-0.000332116 -9.57778e-05 -0.0141952 
0.00432822 -0.00111241 -0.00100672 
-0.00433045 0.00113911 0.00306574 
-0.0275079 -0.000477907 0.0956101 
-0.000466258 -0.000188131 0.00111046 
0.00139069 0.000601447 0.00074288 
0.001237 0.000523237 -0.000520472 
-0.00691118 -0.00399115 0.0943945 
0.000497998 0.000415669 0.0370397 
-0.000540912 -0.000357333 0.0440013 
-0.000340928 -0.00218473 0.00243383 
0.00206864 -0.00169034 0.0580535 
0.005017 -0.0021314 0.00189212 
-0.0159773 0.00108642 0.0807126 
-0.0144725 0.00349509 0.00331694 
-0.00973604 -0.0123718 0.0925941 
-0.000631978 -0.00140881 0.00142247 
0.00137182 0.00318076 -0.00126403 
-0.000322515 -0.000812852 -0.000669943 
-0.00246955 -0.0107795 0.00589032 
-0.000315735 0.00146457 -0.0051047 
-0.000868228 0.00272064 0.000973498 
0.000155863 -0.000550377 0.000537148 
0.0112549 -0.0221244 0.0495516 
0.000389448 0.000110141 0.0503784 
-0.000128071 0.000393432 0.000463796 
-6.63647e-05 0.000441924 0.000446975 
0.00464014 0.00202434 0.0701802 
-0.00534297 0.00376953 -0.00699126 
0.0164468 -0.00610676 0.0182979 
-0.000537089 0.000735163 0.000953078 
0.0115192 0.00352151 0.0113273 
-0.00457766 0.00294029 -0.0155469 
0.0109771 0.0131103 0.00502494 
0.0208442 -0.0122913 0.0379205 
0.0255519 -0.0202415 0.044442 
-0.000258189 0.000326949 0.068979 
0.000627832 0.02148 0.0406985 
0.000834813 0.0150206 0.0422655 
-0.00301912 0.000283844 0.0250651 
-0.00627175 0.00158832 0.141454 
-0.025499 0.0103595 0.113124 
-0.00441741 -0.00318563 0.115383 
-0.0287333 -0.0069164 0.107752 
3.73738e-05 0.000617958 0.044922 
0.000214208 -3.57865e-05 0.0742452 
0.000121057 -0.000461214 0.0775539 
0.00160857 -0.00306358 0.0568492 
-0.0040551 4.98889e-05 -0.00350018 
0.00857139 0.00396645 0.00174539 
0.00321465 0.00186908 0.00219446 
0.0140515 0.0125848 0.0113188 
9.32595e-05 7.65316e-05 0.0395648 
0.00429982 0.00388283 0.081498 
0.000695584 -0.000353439 0.00168398 
0.00103968 0.00237967 0.0652035 
0.00167164 -0.000633162 -0.0024427 
-0.000290961 -7.94095e-05 0.00713557 
-0.00742224 0.00334939 -0.00819664 
0.0248134 -0.0208978 0.0506387 
-0.00732704 -0.0337659 0 
-0.000552703 0.0189484 0 
0.0171849 0.011738 0 
0.0298131 0.0600631 0.0489409 
0.00086595 0.00132709 0.00385407 
0.00348286 -0.000108895 -0.00642908 
0.0206694 0.0163984 0.0787009 
0.0122703 0.00851716 0.0563601 
0.000270163 0.000949334 0.132396 
0.00387496 0.000540064 0.129523 
-0.000380172 -0.000795673 0.120532 
0.00331502 -0.00168624 0.106 
0.0280749 -0.00827173 -0.00545558 
-0.0477859 0.0274233 0.161725 
-0.0058075 0.000741039 -0.00719755 
-0.00849078 -0.00230473 0.157682 
3.96085e-05 -0.000273924 0.129074 
0.000182358 0.00061172 0.120872 
-0.000380305 0.000754155 0.107401 
-0.00185673 -0.00698344 0.105168 
-0.00577272 -0.00263618 0.141065 
0.00540362 0.0018418 0.132793 
0.000277305 0.00533453 0.137947 
-0.00653844 0.000617279 0.135902 
0.0172275 -0.0163906 0.118496 
0.0137268 -0.0179366 0.052877 
0.00673806 -0.00892555 0.0479679 
0.0138468 -0.00760855 0.0910625 
-0.000274129 0.000273655 0.075943 
0.00414863 -0.00514578 0.099662 
0.0025007 -0.00374257 0.0557674 
0.00151386 -0.0013821 0.0515386 
0.00061175 0.00126135 0.00316164 
0.0135084 -0.0189609 0.0556363 
-0.00053729 -0.00218722 -0.00324221 
0.00680454 -0.00925454 0.0516893 
-0.00168464 0.00229734 0.00285153 
0.00151603 -0.00212457 0.00340714 
0.00124113 -0.00168349 -0.00304492 
0.0179041 -0.0220918 0.073382 
0.00228169 0.000113384 -0.00651409 
0.0242519 0.0155502 0.0787249 
0.0108123 0.0063501 0.0532356 
0.0218946 0.0149494 0.0459656 
-0.000492735 -0.00135135 0.0485753 
0.00043156 0.00153664 0.0955583 
0.001696 0.00520541 0.083709 
0.00167305 0.00327661 0.0655491 
-0.000456256 0.000889866 -0.00550824 
0.00533825 0.00478971 -0.0292962 
0.0135951 0.00313907 0.0874465 
0.0306404 0.0269786 0.108281 
-0.00075694 0.000626756 0.00889274 
-0.00209997 -0.00164726 -0.00523204 
-0.0332044 -0.0220176 0.12397 
-0.0144173 -0.014086 0.09339 
-0.000317591 -9.11535e-05 0.000763763 
-0.000520444 0.000180184 0.000394518 
3.82403e-05 -0.000204503 0.0453417 
0.003176 -0.00067045 0.0618261 
-0.000575007 -0.000383699 0.101547 
0.0043234 -0.00178513 0.105698 
0.00478428 -0.00566252 0.126519 
0.00339856 -0.00551402 0.0991662 
-0.000312517 -0.000303636 0.0835318 
-0.000107919 -4.69832e-05 0.0815342 
0.000243963 0.00157365 0.0506472 
-0.00354585 -0.00748144 0.0809782 
0.10929 0.0522855 0.081117 
-0.00395457 0.0871857 0.153205 
-0.00624529 0.0414288 0.326662 
0.0538346 0.0160185 0.218103 
-2.84824e-05 -5.16938e-05 0.0819851 
0.000594498 -0.000205469 0.109442 
-0.00140088 -0.00533819 0.129428 
-0.00172375 -0.00485646 0.0679289 
-0.0146273 -0.0356722 0.184728 
0.0436799 0.047713 0.316693 
0.0209268 0.00721851 0.35521 
-0.0877341 -0.200888 0.19779 
0.000396439 0.000161101 0.0856619 
0.00441626 -0.00179318 0.106033 
-0.000331874 -0.000159121 0.0752342 
0.0018052 -0.00178435 0.0515294 
-0.00160519 -0.0108318 0.103354 
-0.00240874 -0.0154127 0.130032 
-0.00393662 -0.00562512 0.0841334 
-0.000585787 0.0028139 0.0667501 
-0.0153952 7.18724e-05 -0.00408699 
-0.0337588 -0.085155 0.0947782 
-0.0324685 -0.0175212 0.0880914 
-0.0328508 0.0423323 0.11256 
-0.00263823 -0.00130003 0.00412477 
0.00290082 0.00099471 -0.00313494 
-0.0377347 -0.0261781 0.0325586 
-0.0102899 -0.0223611 0.053284 
-0.00191508 0.00630603 0.00646516 
-0.00117679 0.00173088 -0.00459125 
0.0587239 -0.00500001 0.135992 
0.0160287 0.0052173 0.0941036 
0.0331492 -0.0563784 0.126283 
0.0109933 -0.0158051 0.0859536 
0.0124128 -0.0186578 0.0431657 
0.0321641 -0.0431577 0.042115 
0.0225763 -0.00555843 0.042292 
0.0114534 -0.0018575 0.0492826 
0.0182193 -0.00199439 0.0935723 
0.00430942 0.00157174 0.0377 
-0.00260497 0.000873295 -0.0116013 
-0.0383274 -0.0281129 0.0520422 
-0.0557111 -0.0245763 0.120469 
-0.0102195 -0.0222514 0.051822 
-0.00075639 0.00139836 0.00153492 
0.00285731 0.00236614 -0.00259757 
0.000778113 0.000344891 -0.000369428 
-0.0020084 0.026245 0.00969259 
0.0110355 0.000832614 0.395126 
-0.0192334 0.0557378 0.342274 
0.0406202 -0.079696 0.186856 
0.0633212 -0.123943 0.017424 
0.0743067 -0.00432483 0 
-0.0466473 0.015073 0 
-0.0343641 0.0222639 0 
0.115315 -0.0211577 0.0923455 
-0.000134828 -0.000233011 0.138722 
0.000213713 -0.000442825 0.12641 
-5.31104e-06 1.94691e-06 0.126524 
0.00153409 0.0122631 0.130085 
0.00981065 0.0114332 0.111025 
0.00505797 0.00773284 0.0793158 
0.0181296 0.0145408 0.0812482 
0.00408568 0.00185336 0.0608872 
-0.0572452 -0.00844513 0 
0.0560858 0.0209031 0 
-0.060247 -0.0257059 0 
-0.0616937 -0.00630295 0.197939 
0.0530814 0.0242395 0.329363 
-0.0322428 0.0156836 -0.00734967 
0.0279167 -0.0334591 -0.0299142 
0.0210533 0.0150033 0.0791172 
1.568e-06 0.000189066 0.0793984 
-0.000479884 -0.00103388 0.112577 
-0.000401494 0.000411872 0.0695973 
0.000621111 -0.00369824 0.0645554 
0.00978607 0.00953246 0.108978 
0.00504634 0.00366819 0.0636387 
0.00685133 0.00318502 0.0679781 
0.00404981 0.00360096 0.106956 
0.00167397 -0.00172414 -0.00205189 
-0.0015853 -0.00466462 0.000293997 
-0.000304508 -0.000466472 -0.000329974 
-0.000843641 -0.00322553 0.00403758 
0.0007222 -0.00294687 0.111644 
-0.00142474 -0.00434355 0.0804265 
-0.00013577 0.000153981 0.0693605 
-0.000435706 -0.00297007 0.0655526 
-0.00434446 2.5163e-05 0.000828254 
0.0105944 0.00680678 0.0535243 
0.0145113 0.00688478 0.0458824 
0.0206387 0.0125045 0.0356174 
0.00117937 0.00533389 0 
0.00599869 -0.00265207 0 
-0.000581462 0.000488886 0 
0.00610313 -0.000945002 0.00267315 
0.0116189 -0.000240019 0.0970298 
0.00430356 -0.00112807 0.104124 
0.00453939 -5.89024e-05 0.130214 
0.00408766 0.00276859 0.105396 
0.000313779 -0.00199217 -0.00363581 
0.0140692 -0.0229589 0.0565935 
-0.00139951 0.0021483 0.00128777 
0.0178137 -0.0189376 0.0744686 
0.00405416 -0.00133823 0.0603055 
0.00919054 -0.00216529 0.0537068 
0.00665344 -0.00421744 0.0753297 
0.000826524 -0.0021405 0.0507288 
0.0258647 -0.035906 0.196987 
0.144318 0.0495279 0.0942387 
0.00881634 -0.0149422 0.362245 
-0.0383861 -0.0224232 0.210855 
-0.000106337 -0.000288197 -0.00351866 
-0.000823837 0.000204603 0.00275417 
0.00409002 -0.000378488 0.0580359 
0.00424646 -2.59767e-05 0.0414894 
0.00293581 -0.000592643 0.0585431 
0.0100915 -0.00256687 0.0488574 
-0.00277885 0.000202682 -0.000847445 
0.00633671 -0.000213576 0.039698 
-0.00120553 -0.000575755 0.0693805 
0.00109313 -0.00156992 0.00316247 
-0.000242615 0.000489078 0.045949 
0.000645096 -0.00133392 0.065586 
-0.00339846 0.000421974 0.0117735 
-0.0293185 -0.0268126 0.106313 
-0.0119164 -0.0171709 0.0820507 
-0.0182705 -0.0192634 0.0534548 
0.00473689 -0.00544063 -0.0180147 
0.0471901 0.0259412 0.0835834 
0.00789623 -0.00122945 0.00298065 
0.0238436 0.0166103 0.0447148 
-0.00452968 -0.0824964 0.135634 
0.0577969 0.0151851 0.055794 
0.0132422 -0.0110393 0.0965535 
-0.0238714 -0.0898914 0.159394 
-0.00317693 -0.00238212 -0.00116531 
-0.00325707 0.0372814 0.0731677 
-0.00172055 0.00117794 -0.00441448 
0.00275088 0.0206544 0.046765 
0.0147379 -0.0098757 0.0356625 
0.0139204 0.00287935 0.0479194 
0.0341971 0.014565 0.0731172 
0.0151565 0.00890299 0.00375212 
-0.021272 -0.0326667 0.0600516 
-0.00636562 -0.00906488 0.0456539 
-0.00820636 -0.0219218 0.0982506 
-0.0124611 -0.0192767 0.0506122 
0.000370681 7.01558e-05 0.0944504 
0.000563289 -0.00203732 0.0638542 
0.00131386 0.00635024 0.0828128 
0.000104855 0.00704525 0.113315 
0.00107856 0.00135766 0.00370426 
0.00121001 -0.000925732 0.00257924 
-0.00785613 -0.00913127 0.0899273 
-0.00549319 -0.00599127 0.0601383 
0.000355134 0.00244436 -0.0166904 
0.0136255 -0.0123361 0.0366924 
-0.00158944 0.000840976 -0.0139046 
0.03292 -0.0197348 0.0474317 
-0.000269726 0.000323638 0.0944273 
-0.000888436 0.000297911 0.0662616 
-0.00201159 -0.0059209 0.102971 
-0.00082506 -0.00165903 0.0910584 
0.00552654 0.000490215 -0.00774788 
-0.00832859 -0.000593972 -0.00482621 
-0.00159901 -0.000208375 0.00982557 
0.0129404 0.00917185 0.060434 
-0.0185888 0.0010137 0.170105 
-0.0618695 0.00664762 0.201928 
-0.0315727 -0.00684634 0.0738157 
-0.0413127 0.0145991 0.171206 
-0.00383335 -0.00641918 0.0640817 
-0.0026686 -0.00639038 0.103322 
-0.000587033 0.000815633 0.0662273 
-0.000611989 -0.00203916 0.0907209 
-0.000750934 0.00392245 0.00420005 
-0.00230909 0.00797739 0.0790384 
-0.000289783 -0.000426174 0.000102731 
0.00102765 0.00538125 0.0600823 
-3.23773e-05 -0.000144135 -0.0016598 
1.78751e-05 -3.88202e-05 0.00160375 
0.000263552 0.00351681 -9.55694e-05 
0.00113794 0.000889237 0.00591905 
0.0106286 0.0101432 0.111739 
0.00426286 0.00214178 0.0623227 
0.017163 0.0141519 0.0760891 
0.00972454 0.00763959 0.0539592 
-0.00353853 -0.0027815 -0.00513577 
-0.00163334 -0.00232161 -0.000198977 
0.010482 8.56595e-05 0.0481368 
0.00576464 0.0020212 0.039113 
-0.00137207 -0.00116941 0.00158459 
0.00553992 0.00392991 0.0614277 
-0.000556613 -0.000278436 -0.000183166 
0.00833175 0.00531081 0.05582 
-0.00581595 -0.00431865 -0.00138811 
-0.013266 -0.00972543 0.145167 
-0.0229589 0.0190135 0.113884 
-0.00412291 0.00830671 0.0946068 
-0.000504108 0.00030008 -0.0143852 
0.00203095 -0.00057947 0.00837503 
-0.00100292 0.000211318 0.00175829 
-0.042326 -0.00810436 0.0847865 
0.000419805 -0.00127389 0.111432 
-0.000283065 -0.0011423 0.112671 
-0.000191909 0.000698426 0.0699711 
-0.00131568 -0.00547534 0.0790342 
-0.00248208 -0.00111759 -0.0033245 
0.00193911 0.000890394 -0.00117372 
-0.00126082 -0.000582727 0.00158978 
0.0212234 0.0108817 0.0928191 
0.00653544 -0.000548246 0.00881145 
-0.0102052 0.000856098 0.00618913 
-4.21527e-05 3.53611e-06 -0.00194933 
-0.0334689 0.000776546 0.105976 
-0.0172117 6.36338e-05 0.327284 
-0.00725929 0.00395849 0.354088 
0.0228302 0.00856623 0.212238 
0.0416138 -0.0623087 0.361971 
-0.000462419 -0.000627217 0.126886 
0.00204025 -0.00884281 0.120597 
0.00277585 -0.00552183 0.126334 
-0.000909956 -0.00474763 0.139646 
0.0324096 0.028619 0 
-0.00012993 -0.0145374 0 
-0.0081417 -0.0228158 0 
0.0479248 0.0791283 0.0936132 
-0.00133236 0.00246028 0.0125987 
-0.00279464 0.00597832 -0.00524768 
0.000168542 -0.000396816 0.00172112 
-0.00813536 0.0329007 0.0990367 
0.00462572 -0.00842787 0.0764861 
0.00244832 -0.00401873 0.0554204 
-5.37516e-05 0.000607002 0.0739387 
0.00293268 -0.00534152 0.0993634 
-0.00464338 -0.0138019 -0.0305981 
-0.00389227 0.0719266 0.0678393 
-0.00876538 0.0024873 -0.00390727 
-0.0157523 0.0168492 0.0485464 
-0.000303251 -0.00257186 0.00128702 
0.00196019 0.0161774 0.0401449 
-0.000373087 0.0249307 0.0405724 
-0.00433937 0.00248384 0.0259551 
0.000518291 -0.000287087 0.107969 
-0.000992838 0.000434847 0.133791 
0.00400497 0.00108936 0.128229 
0.00420036 0.00217323 0.105645 
-0.00664147 -0.00513637 -0.0100168 
0.026992 -0.0156351 0.0202456 
-0.00143551 0.00296242 -0.00478623 
0.00924986 -0.00469545 0.0198415 
-0.000391693 -0.000581706 0.061486 
-0.000250535 -0.000588333 0.0488275 
4.362e-05 0.00107394 0.0967294 
0.00196385 0.00489744 0.081599 
0.000444246 4.71111e-05 0.126286 
0.000213931 0.000554078 0.129214 
-0.000468084 0.00054081 0.111772 
-0.00325399 -0.0133484 0.125343 
0.00283053 -0.00472094 -0.00347515 
-0.00108768 0.0152873 0.0398303 
0.00102789 0.00571644 0.00362453 
-0.00799875 0.0324297 0.0298686 
-0.00248829 0.0160757 0 
0.00841847 -0.0103973 0 
0.00649054 -0.00300799 0 
0.00863106 0.0282133 0.0241598 
0.00306704 0.00746041 0.00236144 
-0.00733415 -0.0109691 0.0997252 
-0.00150067 -0.00583985 0.0819568 
-0.0097294 -0.0101266 0.0972028 
-0.0317375 0.00260999 0.364826 
-0.0637845 -0.0237168 0.149726 
-0.0252418 -0.0947783 0.161383 
-0.00226598 -0.029278 0.271309 
0.00249369 0.000652374 0.000239994 
0.000117896 5.4685e-05 0.00535797 
-0.000683987 -0.000180531 -0.000423083 
0.00628681 0.00560408 0.0888346 
0.0211268 -0.00650105 0.0546447 
0.0036104 -0.0108564 0.0456927 
0.012745 -0.0158189 0.0495449 
0.0184239 -0.00703799 0.0965594 
-0.0740643 -0.053368 0.18769 
-0.0599401 0.0211282 0.0489177 
0.007043 -0.0154318 0.189154 
-0.0185376 0.000692454 0.229154 
-0.000137177 8.21619e-05 0.000861182 
-0.000322969 -0.000334782 0.0480162 
-0.000290278 0.000396324 0.0600498 
-0.000382755 0.00230746 0.0648652 
-0.000874722 7.13592e-05 0.00123259 
0.000255037 -2.08057e-05 -0.000666275 
-5.83808e-05 4.76266e-06 0.00307342 
0.000590791 0.0025133 0.0667615 
-0.000745364 -0.00045127 0.003317 
0.012563 0.00805281 0.0447976 
0.00120016 -0.000102815 -0.00626321 
0.0168662 0.0127615 0.0329389 
-0.000109145 -0.000878147 0.132601 
-0.000380386 0.000452848 0.132879 
0.000987413 0.00449612 0.141344 
0.00259203 0.00565502 0.127274 
-0.00198786 -0.0037544 -0.0071348 
-0.00134525 0.00501299 -0.00881018 
0.00993693 0.00978167 0.0166453 
0.0239143 -0.0130029 0.0316316 
0.0132431 0.00283304 -0.025785 
-0.0089799 -0.0168862 -0.0292079 
0.0337117 0.016144 0.129691 
0.0182788 -0.0406635 0.104944 
-0.018975 0.0172553 0.158607 
-0.0140089 -0.00989256 0.13965 
-0.0302381 -0.0280688 0.0871836 
-0.0275285 -0.0163801 0.104254 
-0.000103523 -0.000772647 0.0734902 
0.000162586 0.000228903 0.0502459 
-0.000461183 0.00087166 0.0476694 
-0.000332491 0.00422764 0.0445922 
-0.0423658 -0.0414358 0 
0.0156265 0.0488983 0 
0.0214637 0.0488095 0 
0.0496437 0.0496515 0.20463 
-0.00253021 0.00592376 0.00262059 
-0.00144131 -0.0111895 0.0928383 
-0.00370117 -0.0013699 2.23079e-05 
-0.00583853 -0.0140055 0.0804225 
0.00654421 0.00321018 -0.0271317 
7.83866e-05 -0.000253041 0.0145571 
0.00159547 0.000544233 0.00555708 
0.0561827 0.000508554 0.126074 
0.000256626 2.08588e-05 0.00172946 
0.000332018 2.69868e-05 0.00189977 
0.000104863 8.52337e-06 -0.000527331 
-0.000647553 -0.00249333 0.0657352 
-0.00221451 -0.000758853 0.00418467 
-0.0208457 0.00228538 0.112552 
-0.00865827 -0.00436302 -0.00616259 
-0.00198393 0.0114267 0.0981626 
-0.0712261 0.08837 0.0992898 
0.0165986 0.0440651 0.0730374 
-0.00183856 -0.0175873 0.088882 
-0.0504911 0.0878015 0.202483 
0.0012421 -0.00178324 0.002571 
0.000551436 0.00571592 0.08786 
0.000128903 -0.00136385 0.00168919 
-0.000735968 0.00599984 0.0805552 
0.000660099 0.00042516 0.0839662 
0.000247293 -0.00116937 0.0482703 
0.0041911 0.00586844 0.075119 
0.00315833 0.00339129 0.0615875 
0.0662461 0.0569182 0.0892025 
0.0229699 0.0279329 0.0585043 
-0.0197163 0.00914345 0.0560413 
-0.0127586 0.00800915 0.00516319 
-0.0169622 0.00577662 0.165301 
-0.015299 -0.0309299 0.104062 
-0.00131768 0.000952745 0.14329 
-0.0324943 0.0343638 0.164179 
-0.015636 -0.0367742 0.060121 
0.00937362 0.0065082 -0.0179742 
-0.0394439 -0.0265916 0.0158978 
-0.0705891 -0.0924042 0.172271 
0.000128314 7.93941e-05 -0.000173466 
-0.00102829 -0.00451956 0.00444355 
-0.0018307 0.0129515 0.0726447 
-0.000656141 0.00835785 0.0472032 
-0.0241068 0.0132111 0.202358 
0.00412013 -0.0191201 0.378507 
-0.00805211 -0.00686597 0.316644 
0.0514536 0.119825 0.181559 
0.0135577 -0.00130938 0.0926613 
0.00398889 -0.00142969 0.0601091 
0.00531358 0.00348829 0.0686299 
0.00682209 0.00100125 0.0388124 
-0.0674883 0.0291796 -0.00671343 
0.011513 0.0610791 0.115741 
0.0378804 -0.0227206 -0.0399756 
0.0168181 0.0528902 0.144626 
-0.00409535 0.00144664 -0.000875358 
-0.000307235 0.0037037 0.00011519 
0.0130946 0.00486814 0.0378343 
0.0188052 0.00528336 0.0195259 
1.03156e-05 -0.000355915 0.00269269 
-9.99711e-05 -0.00118195 0.0005489 
8.94398e-06 0.000210679 -0.000652825 
0.00372304 -0.00119355 0.0486138 
-0.000320962 3.75445e-06 0.140931 
7.0631e-05 7.81108e-05 0.142662 
0.000650925 0.000630709 0.137852 
-0.00132272 0.00415646 0.140447 
0.000259089 0.000533683 -0.000494897 
-0.000438558 -0.000916982 0.000418173 
0.000114022 0.000289521 0.00146522 
-0.00384241 -0.00613618 0.0613546 
-0.00535412 -0.0355113 0.0604395 
0.0119104 0.020209 0.0354248 
-0.00449217 -0.00786637 0.0945214 
-0.000192938 -0.0170448 0.0210473 
-0.000154092 0.00043865 0.0465945 
0.000371974 -0.000368917 0.00163746 
0.000492765 -0.000633176 0.0003048 
0.000799011 -0.00144686 0.066589 
0.00539775 0.010542 0 
-0.00880111 -0.024064 0 
-0.00553272 0.0098179 0 
-0.0239551 -0.00500035 0.0279607 
0.0142622 -0.00263945 0.0936273 
0.00420528 0.0035119 0.069047 
0.0129068 0.00528566 0.0457385 
0.00722138 0.000820133 0.0388237 
8.9319e-05 -0.000453695 0.00117367 
0.00116253 0.00446045 0.0877152 
0.00094361 -0.00149991 0.00434119 
0.000590448 0.00277725 0.067526 
-0.00219204 0.000939789 0.00143005 
0.00299887 0.00200082 0.0873664 
-0.00196355 -0.000304245 0.00225072 
0.000969314 0.00162744 0.0661736 
0.0003453 0.0103548 0.102456 
-0.00582397 0.0138133 0.0983307 
-0.000229462 0.0206343 0.139234 
0.00597303 0.0172203 0.11688 
-0.000433979 -0.000599606 7.94897e-05 
0.000252107 0.000362637 -0.0015416 
-0.000197918 -0.000285314 0.00127536 
0.00750018 0.00598435 0.0525778 
0.021726 -0.000853397 0.0921912 
-0.00322002 0.0169667 0.0878757 
0.0133071 0.0218855 0.168169 
0.0173171 -0.00307438 0.134553 
0.00284163 -0.00642313 0.125393 
0.00212711 -0.00868482 0.119575 
-0.000521961 0.000150869 0.127731 
0.00363215 -0.00556442 0.0994699 
0.000129167 0.000825345 0.083178 
0.000591021 -1.98634e-06 0.109614 
-0.000839951 -0.000140082 0.0954424 
-0.00146335 -0.00632861 0.128381 
-0.0509832 -0.0493463 0.100539 
-0.0281131 0.0248786 0.16434 
0.00462907 0.0122759 -0.00945146 
0.0223779 -0.0129691 0.162119 
-3.42158e-05 -8.72728e-05 0.0459085 
4.46717e-05 -0.000103264 0.0456657 
-0.000548975 3.62457e-05 0.000582699 
0.00165772 -0.00147001 0.0515034 
-0.00264045 0.00532759 0 
-3.13138e-05 0.00068652 0 
0.000716153 -8.8499e-07 0 
0.0131675 -0.00814012 0.00940393 
0.000666356 -0.000184588 0.00154952 
0.000912734 -0.000235618 -0.00215724 
-0.000988002 0.000261622 0.000701314 
-0.00710294 -0.00160259 0.0972416 
9.72311e-05 0.000357689 0.126406 
0.00107557 0.00761251 0.113908 
-7.83807e-05 -0.00185089 0.100841 
0.00182582 0.00815291 0.11365 
-0.000245248 3.3476e-05 0.106757 
0.00537866 0.000525945 0.130421 
0.00414067 -0.00124015 0.104083 
0.00419778 0.00212019 0.105596 
0.0447968 -0.0634474 0.0585207 
0.0375161 -0.0836915 0.134295 
0.00348995 -0.0323286 0.0400405 
0.0353035 -0.0138053 0.0423117 
0.000410365 0.000836295 0.0014841 
-0.000368972 0.00062866 0.0477005 
3.88273e-05 -8.07106e-05 0.0358933 
-0.000521377 0.00297178 0.0446094 
-0.00236131 -0.0109706 0.105093 
-0.00209798 -0.0237821 0.132494 
-0.00927716 -0.0150011 0.097638 
-0.0055749 -0.017488 0.121855 
-0.000264138 0.000581931 0.0689334 
-0.000708856 -0.00480464 0.0787426 
-0.00141824 -0.00236775 0.11407 
-2.77364e-05 -0.0030541 0.0646661 
0.00287617 0.00256534 0.12874 
0.00437924 0.00191866 0.105785 
-9.88864e-05 -0.000663476 0.132633 
0.00243745 0.00533495 0.128163 
-0.0011552 0.00163977 -0.00423423 
0.000116372 -0.000161947 0.00505788 
-0.00452028 0.00642691 -0.00152052 
0.00965282 -0.012337 0.146009 
0.00654567 -0.0340007 0.140942 
0.000690865 -0.040227 0.127843 
-0.00130097 -0.0288154 0.12199 
-0.00279206 -0.0201307 0.125589 
-0.000203459 -0.000130974 0.0146786 
0.00640747 -0.0015864 -0.00230851 
-0.0106761 0.00277175 -0.0065018 
-0.0456727 0.00913943 0.185834 
-4.34945e-05 -0.0429042 0 
-0.012066 -0.0099389 0 
-0.00941916 0.0434355 0 
0.0167158 0.114077 0.0808286 
-0.00624604 -0.0255631 0.126156 
-0.00628861 -0.0252082 0.131508 
-0.0195491 -0.030999 0.126095 
-0.00390578 -0.0182454 0.123521 
-0.0245111 -0.00508038 -0.0328483 
0.0613018 0.0129363 0.183462 
0.0152451 0.051917 0.0113677 
0.0214772 -0.0272921 0.0368726 
-0.0343889 -0.0219232 0.388022 
-0.062282 0.0101871 0.125862 
-0.0681935 -0.0246956 0.208343 
-0.0200574 -0.0930836 0.140829 
-0.00386571 -0.000462007 -0.00128535 
0.00147164 0.00340962 0.00210926 
0.0102471 0.00637244 0.0504957 
0.0222604 0.0126995 0.0391438 
0.0203284 0.011226 0.0746106 
-0.0146244 -0.0554721 0.133409 
0.0145348 -0.0250102 0.153922 
0.0467557 0.0195406 0.143734 
-0.00233744 0.00105204 -0.0152025 
0.00267134 -0.00148988 0.00241425 
-0.00408404 0.00224128 -0.00559038 
0.0323161 -0.0280862 0.0781491 
-0.0201791 -0.0311036 0.124182 
-0.00781378 -0.0109655 0.0970563 
-0.00291452 -0.0245514 0.132284 
-0.00449024 -0.01847 0.122856 
0.000629463 -0.00136453 -0.00145916 
-0.00040377 0.000843867 0.00406429 
-0.00110861 0.00244961 -0.00204927 
-0.0039525 0.0127576 0.081936 
5.75219e-05 3.18594e-05 0.0824819 
8.6643e-06 0.00024241 0.0942273 
-2.30368e-05 0.000357105 0.0650504 
-0.00339662 -0.00598281 0.104847 
-0.0134517 -0.00261936 0.146799 
-0.0126812 -0.0178431 0.142614 
-0.0307389 -0.0172703 0.0867507 
-0.0364979 0.0188349 0.119536 
0.0136118 -0.0178416 -0.06436 
3.36656e-05 -0.0327675 -0.0240456 
-0.0314639 0.0154645 0.0554263 
-0.0968063 0.0334864 0.219742 
-0.00427769 -0.00329358 0.000673346 
-0.011193 0.0023904 0.00949474 
0.0221088 0.00195149 0.11411 
0.0294518 -0.00967262 0.115856 
0.000419909 -0.000168725 0.067323 
-0.00182483 -0.00398494 0.0831874 
0.00091915 0.00177762 0.00187581 
0.000140126 -0.00296746 0.0668949 
-0.0175962 0.00412604 0.154815 
-0.0306229 -0.014711 0.0932302 
-0.0132874 -0.0197807 0.136113 
-0.0347861 0.0201611 0.127976 
9.40081e-05 -2.64456e-05 0.101981 
0.00358032 -0.00612288 0.125252 
-0.000820888 6.73419e-05 0.127908 
0.0033781 -0.00566526 0.0995261 
0.00403214 -0.014228 0.102677 
0.000483144 -0.0122304 0.121186 
0.00460687 -0.00841755 0.0781998 
0.00467295 -0.00182328 0.065354 
-0.000673235 -4.01891e-05 0.121043 
0.00408517 -0.00517917 0.125751 
-5.07948e-06 -0.000475567 0.102383 
0.00397332 -0.00154289 0.105314 
-0.000113527 -0.000235226 0.0506871 
0.000103368 6.39864e-05 0.073289 
-0.000417427 -0.000350392 0.0381225 
0.00487517 0.0026304 0.0686728 
0.000170928 -0.000263311 0.104478 
1.62203e-06 -0.000209809 0.0756829 
0.000413911 0.00440892 0.0656078 
0.00117449 0.00517154 0.115034 
0.000102805 0.000222762 0.0707192 
0.000942894 0.000654845 0.092843 
-0.000291657 -0.000208515 0.0530227 
-0.000351579 0.00564116 0.0587589 
-0.000736733 0.000949075 0.000829007 
0.000759557 -0.0013167 0.00510664 
0.00309677 -0.00546415 0.064067 
0.00140216 -0.00390795 0.0655178 
0.000880379 -0.000234667 -2.26858e-05 
0.000401178 -0.00012548 0.0015921 
-0.0025192 0.000642248 0.00259247 
-0.00450474 0.00426226 0.0842502 
-0.00240412 -0.0377695 0.0726825 
-0.00546595 -0.0453798 0.113249 
-0.00498344 -0.00272147 0.0834796 
-0.000141152 -0.00276991 0.0878524 
-0.000115864 0.000734686 0.0402479 
-0.00130378 -0.00238518 0.00312246 
0.000819393 -0.000439372 0.0472965 
-0.0022455 -0.00183951 0.060264 
-7.6839e-05 -0.0244212 0.124868 
-0.000907095 -0.0355975 0.130557 
-0.0016207 -0.014109 0.123628 
-0.00194421 -0.0244005 0.123017 
0.00626311 0.00569563 0 
-0.0137957 -0.00600024 0 
0.000964176 -0.00350113 0 
-0.0306747 -0.0412501 0.0464867 
-0.00226382 -0.0120261 0.202008 
0.0416757 0.0112363 0.206633 
-0.0139034 0.00349371 0.369485 
0.0349905 -0.0641535 0.338417 
0.00608617 -0.000451409 0 
0.0135227 -0.0227123 0 
-0.0129845 0.0189251 0 
-0.0310783 0.0785971 0.0544157 
0.0049273 0.0161835 0 
-0.00608735 -0.00871654 0 
9.58841e-05 0.0178096 0 
0.0182152 -0.0500792 0.00825619 
-9.87011e-05 0.000400173 -0.000547831 
8.2053e-05 -0.000372856 -0.000480519 
3.36678e-05 -5.50547e-05 0.00208404 
-0.0010051 0.00496864 0.0493032 
0.0200343 -0.00539182 0 
-0.0160789 0.0241294 0 
-0.00343152 0.0058017 0 
-0.00915623 0.0419132 0.0554688 
-0.0014564 -0.0096252 0.103734 
0.00047436 -0.00918177 0.0866384 
-0.00377456 -0.00913677 0.0910212 
0.000408289 -0.000150121 0.0696447 
0.00998495 0.0126309 0.349727 
0.0494868 0.104553 0.132432 
-0.0159741 -0.0245422 0.398089 
0.00753797 -0.0416612 0.284539 
-0.0217879 -0.0115959 0.15845 
-0.0296892 0.0090639 0.108952 
-0.00108643 -0.00906865 0.143665 
-0.0329369 0.00868442 0.107636 
-0.00370743 -0.00169864 0.00310889 
0.00163552 0.000751279 -0.000984993 
0.00264864 0.00126724 0.00855585 
0.0248193 0.0143128 0.0899598 
0.000445259 -1.03416e-05 0.0821636 
0.000718216 0.000649162 0.0648783 
-0.00350164 -0.00590906 0.0626517 
-0.00469385 -0.00618197 0.105514 
-0.0157242 -0.0899946 0.209312 
-0.0754384 -0.0590093 0.1515 
0.0950068 -0.0568028 0.130568 
-0.000624605 -0.0894473 0.280239 
-3.67248e-06 0.000171464 0.125549 
0.00113694 0.0121164 0.131551 
0.000253612 -0.000407005 0.126142 
0.00197729 0.00855771 0.113882 
0.000233281 -0.00026427 0.0474284 
-0.000330106 0.000327864 0.0317069 
6.23685e-05 -0.00119065 0.00177684 
-0.0037757 -0.00413088 0.0647853 
0.0218886 0.0118538 -0.020516 
0.0356873 0.0292708 0.0112717 
-0.0636228 -0.0703662 0.0558441 
-0.0738892 -0.0375809 0.144352 
-0.00321858 0.0022107 -0.00209721 
0.0247155 0.0165636 0.0945999 
0.00279037 -0.00118836 0.00292897 
0.0175035 0.00215638 0.0896801 
0.0162939 -0.020055 0.0598151 
0.0113032 -0.017881 0.0757792 
0.00351309 -0.00848406 0.0773691 
0.00664139 -0.00764915 0.047537 
-0.00572193 0.0661662 0.0239575 
0.0139627 -0.0571984 -0.029755 
-0.0125685 -0.0503181 0.13739 
0.00980604 0.122549 0.152173 
0.000190816 -0.000209712 0.125295 
0.00159458 0.0119102 0.133729 
0.00132497 0.00785991 0.114412 
0.00122229 0.00797975 0.113267 
-0.0434191 0.0190449 0.0404013 
-0.0990787 -0.0757828 0.212753 
0.00996635 0.0420944 -0.0176299 
-0.0438089 -0.0333618 0.019457 
0.00858749 -0.0142552 0.115782 
0.00325097 -0.00537691 0.125287 
0.00622736 -0.00633967 0.136485 
0.0172872 -0.00937087 0.0917531 
0.00428023 -0.00347828 0.0047512 
-0.000369966 -0.00178514 0.000158133 
-0.00731143 0.00740835 0.0867427 
-0.00717054 0.00601371 0.0868516 
-0.000170789 2.41016e-06 0.00475271 
-0.00668737 -0.00572299 0.0882024 
0.00100186 0.00175098 0.00316174 
-0.00418011 -0.00639821 0.0596729 
-0.0353582 -0.024644 0.303152 
0.000430499 -0.00684574 0.326278 
0.0797495 0.00464187 -0.0429748 
0.0324281 0.00860556 0.107934 
-0.0313059 -0.020134 0.164905 
-0.0177199 -0.0112262 0.345035 
-0.059321 0.058224 0.145776 
0.0474966 -0.0696057 0.145826 
0.0579013 -0.0151089 0 
0.0498648 -0.0333343 0 
-0.0383914 0.0411797 0 
0.101066 0.00639739 0.210181 
0.001926 -0.00228642 -0.0004296 
0.049053 0.029041 0.0859987 
-0.00136177 2.7628e-05 0.000434113 
0.0295043 0.0122816 0.045348 
0.000629059 -0.000263247 0.00146839 
-0.000301592 0.000151939 0.000100667 
0.000822122 -0.000372348 0.00103373 
0.00137219 0.00421987 0.0906332 
0.0403762 -0.0186252 0.0776454 
0.0142858 0.0140341 0.0739595 
0.0218128 0.0191102 0.190035 
0.0230912 -0.0185645 0.14842 
0.000416098 0.00011879 0.140601 
0.000152901 0.000603598 0.137054 
0.000342883 -0.000163665 0.129065 
-0.00333418 -0.00793432 0.139847 
-0.0169083 -0.0036751 0.146631 
-0.00257925 -0.00127122 0.132712 
-0.0221491 -0.0139648 0.160956 
-0.0355949 0.00688797 0.105631 
0.000485039 0.00209269 0.0499393 
-0.00401639 -0.00755804 0.082852 
-5.19713e-05 -0.000395449 0.0811236 
-0.00222252 -0.00477685 0.0581833 
-0.00131271 0.00478488 0 
-0.000338041 0.000231733 0 
-7.88906e-05 0.00298025 0 
-0.0134581 -0.0231803 0.00742495 
-0.00246943 0.000346431 0.0057341 
0.0281977 0.0153856 0.0755852 
-0.000669707 0.000824852 -0.00484157 
0.0241345 0.0121717 0.047267 
0.000433739 0.000562293 0.126838 
0.000322739 0.000128423 0.101845 
-6.35438e-05 -0.000318314 0.104613 
0.000895346 0.00639094 0.112118 
-0.00480301 -0.0372341 0.0789934 
-0.00858494 -0.0312405 0.0112815 
-0.0222037 -0.0348425 0.0625366 
-0.0293925 -0.0670113 0.0976228 
0.000187656 0.000640486 0.0496056 
-8.40379e-06 -0.000881452 0.0352774 
-0.000442146 0.000842072 0.0481741 
-0.000397073 0.00365437 0.0448312 
0.0107691 0.0319037 0.0913077 
0.0120253 0.0217082 0.050562 
-0.00497568 -0.0131249 0.0817542 
-0.00107621 -0.0046843 0.0901197 
0.0140479 -0.0151458 0.0342149 
0.0132406 0.014646 0.00635835 
0.0363621 0.0134646 0.0719245 
0.0258664 -0.0204257 0.0445599 
-0.008737 0.0211504 0.125062 
0.0150099 0.00379139 0.127942 
-0.0167027 0.00520284 0.129934 
-0.00677188 -0.00618939 0.136086 
-0.00054196 -0.00169718 0.000620093 
0.000228663 0.000962246 0.00256625 
0.000467464 0.0014377 -0.000835754 
-0.00375645 -0.00956305 0.045521 
-0.000170645 -0.000492917 -0.00182918 
-0.00188711 -0.00378522 0.00250033 
-0.000169026 -0.000250198 0.00143609 
-0.00549588 -0.0103056 0.0443477 
-0.0573417 -0.0171084 0.157014 
-0.0267117 0.00884923 0.108409 
-0.0202561 -0.0048934 0.157899 
-0.0308044 0.0100215 0.107187 
-0.000525606 -0.000847641 0.00111688 
-0.000797549 0.00524823 0.0832619 
-0.000169372 -0.00101376 0.000436129 
-0.000306778 0.00214059 0.0657291 
-0.000329626 -5.00985e-05 0.0472663 
0.000224377 0.00567549 0.0456673 
-0.00251814 0.00224058 0.0705159 
-0.000403973 0.000283534 0.0921117 
7.32779e-05 -0.000300869 0.0859123 
7.27932e-05 -0.000119197 0.0447211 
0.000117714 6.47054e-05 0.0734996 
0.00338584 -0.000529439 0.0616746 
0.00606078 0.0293702 0.149213 
-0.00566591 0.0264864 0.137458 
-0.00417877 0.0065684 0.0979801 
0.00708322 0.01762 0.117502 
0.0211284 -0.00364312 0.045417 
0.0184936 -0.00625116 -0.00408502 
0.0220958 -0.00682199 0.0547902 
0.0454446 0.00560959 0.0871903 
-0.00322511 -0.00182802 -0.0103765 
-0.00232596 -0.000823762 0.0119286 
-0.00383201 -0.00204581 -0.00737599 
0.0645385 0.018813 0.104169 
-0.000360785 0.000344184 0.126198 
0.00143976 0.00773772 0.114306 
0.00211357 0.0113071 0.133851 
0.00332888 0.00687248 0.126858 
-0.00135588 0.000735549 0.00218628 
0.00195629 -0.00736635 0.0889115 
-0.000582565 0.00142168 -0.000411297 
-3.98919e-05 -0.00175253 0.0695195 
0.00118518 0.00447354 0.00314098 
-0.00548003 -0.0135106 0.0978276 
-0.0033216 0.00282495 -0.000480321 
-0.000529108 -0.00869894 0.0895648 
0.000786716 -0.00154305 0.00226666 
-0.000200218 0.000392588 -0.000750802 
-0.00119215 0.00234335 0.00419219 
0.0135958 -0.0234123 0.0513424 
-0.000943477 0.00375982 -0.00383495 
0.0133777 0.00568749 0.0432685 
0.016927 0.00799395 0.0189469 
0.0209016 0.0110789 0.0321438 
0.00141326 -0.00015706 -0.00219007 
-0.00247903 0.000282612 0.00438634 
-0.00165837 0.000141868 -0.000680909 
-0.00803898 0.00509122 0.092598 
0.000260892 0.000487696 0.0487535 
0.000190789 0.000345907 0.000360895 
-0.000178676 -0.000303372 0.0353857 
-0.000385247 0.00349647 0.0458132 
0.000347551 -0.000536444 0.0860027 
-4.04812e-05 -6.95438e-06 0.045886 
0.00326508 -0.000440866 0.0604168 
0.00176607 -0.00141614 0.0516043 
0.000449885 9.49535e-05 0.124688 
0.00272781 0.0103476 0.123415 
0.00167749 0.0121622 0.130667 
0.00105519 0.00860445 0.115519 
0.000430975 -0.000840889 0.000634577 
0.000221153 -6.36732e-05 0.000140874 
-0.00095948 -0.00093753 -0.00122112 
0.00318372 -0.00481053 0.00218038 
-0.00079645 -0.000568026 0.124688 
0.0010032 -0.00899478 0.119541 
0.000715754 0.000373381 0.126773 
-0.000204366 -0.00558336 0.141852 
0.000727304 0.00154641 0.00180992 
-0.000421834 0.0024463 0.0658758 
0.00112848 -0.00230095 0.000329885 
-0.0013416 0.00141396 0.0659149 
0.0134847 0.00901605 0.110308 
0.00666277 0.00398386 0.0675596 
0.00284203 0.00225119 0.063629 
0.00921133 0.00733487 0.0548845 
0.00474521 0.00228397 0.000653505 
-0.0048591 -0.00237883 0.000902457 
-0.00763288 -0.0037308 0.00118345 
0.0192448 0.0193116 0.127085 
-0.000864879 0.0271234 0.117329 
-0.00187239 0.00356664 0.143093 
-0.0270271 -0.00897644 0.127655 
-0.0225439 0.00536577 0.113161 
-0.0119928 0.00721314 0.0643999 
-0.0210143 -0.023003 0.0513493 
0.00860999 -0.00612016 0.0862533 
-0.025153 -0.0101759 0.0988787 
-0.000228823 -0.000254644 0.127324 
0.000655655 1.11652e-05 0.102752 
0.000173194 0.00070452 0.121286 
0.00267287 -0.00602976 0.124601 
0.00882296 -0.00668535 0.35208 
0.0217384 -0.0127366 0.309417 
-0.00275989 -0.00197819 0.30512 
-0.0666995 0.00706982 0.289652 
0.0056416 -0.0326065 0.151642 
0.000947953 -0.004408 0.0920574 
-0.012826 -0.0144464 0.0878102 
-0.00260727 -0.0215426 0.122614 
0.00236596 0.00162377 0.00243844 
-0.000934556 -0.000641329 -0.00109146 
0.000989365 0.000681114 -0.00343948 
0.0107122 0.00864626 0.0580474 
-0.00126885 0.000710843 2.11822e-07 
0.00392271 0.000541254 0.0595643 
-0.00174532 -0.00146613 0.000219518 
0.00537494 0.00102964 0.0429831 
0.00117602 0.0016388 0.00167352 
0.000335245 0.000453596 -0.000941098 
-0.000925519 -0.00126062 0.00172414 
-0.0116339 -0.0161453 0.0500126 
-0.00152174 0.000293853 0 
0.00076288 0.000483418 0 
0.00275622 -0.000206383 0 
-0.00339791 -0.0123427 0.00300314 
0.00346901 -0.00139928 -0.00326812 
0.00136701 -0.00153899 -0.00109944 
0.000788435 -0.00176266 -0.00183015 
-0.0275913 -0.0200193 0.0144225 
0.000143715 -7.49714e-06 0.00574661 
0.000141022 0.000263766 -3.46349e-05 
0.000564395 0.0024451 0.0680082 
-0.00031671 0.00568147 0.0612601 
0.0611354 0.094259 0.0699509 
0.0193779 -0.0351513 0.0204999 
0.00235498 -0.0205465 0.156548 
0.0465188 0.0301092 0.128775 
-0.000408729 0.000223643 0.00143628 
1.49584e-05 5.20803e-05 -0.000778332 
0.00296114 -0.0010135 0.0605968 
0.00137563 -0.00104453 0.0506825 
-0.00608711 -0.00826201 0.0894666 
-0.000722799 -0.0124269 0.0920454 
0.00400278 -0.00939685 0.103552 
-0.00369047 -0.020346 0.121664 
-0.000958039 0.00218004 0.000646413 
0.000989856 -0.00227776 -0.00143845 
-2.58462e-05 0.000130053 0.00218581 
-0.00233366 0.0128107 0.0810635 
0.000768471 -0.000339654 -0.000301145 
-0.000554643 0.00023892 1.44846e-05 
-0.000251519 0.000174649 0.0021675 
-0.000776056 0.000969114 0.0660624 
0.0340249 -0.0409079 0.0555676 
0.0560269 0.00159271 0.216537 
0.0701529 -0.0784156 0.155119 
0.0444827 -0.0106645 0.151022 
0.001043 0.0371513 0.0855971 
-0.0329033 0.0454861 0.0983476 
-0.00324162 0.00848699 0.00774064 
-0.00436421 0.0464345 0.03767 
0.00230012 -0.0556364 0.111412 
0.0550027 -0.0338368 0.00541838 
0.0470604 -0.0610957 0.111743 
0.0483749 -0.0312965 0.227889 
-0.00338924 0.0100904 0.354249 
-0.00209835 0.0495457 0.204719 
0.0154784 0.00200218 0.331875 
-0.0865733 0.076505 0.321187 
-0.000344541 -0.000822419 0.0811199 
0.00297417 0.00729846 0.115456 
0.00516823 0.00685988 0.0791135 
0.00137057 0.00315396 0.0661801 
-0.000447948 0.000426769 0.142478 
0.000411171 -0.000259959 0.132479 
0.000291538 0.000401983 0.133757 
0.000378674 0.00399142 0.14122 
-0.0129821 0.0325273 0.360565 
-0.00701195 -0.00292659 0.370438 
-0.0423332 -0.00875063 0.243311 
-0.0540817 -0.17473 0.122499 
-0.000822365 0.0629107 0.0705288 
0.0335326 -0.0389722 -0.0770778 
-0.0605208 0.0731054 0.0890824 
0.0251247 0.0378806 0.227389 
-0.000492232 -0.00192363 0.00235541 
-0.000211023 0.00681635 0.0800627 
0.00149412 0.00522097 0.0865726 
-0.000687298 0.00189778 0.0651784 
-0.00586216 0.00153626 0.00116139 
-0.00221675 0.000620531 0.00931918 
0.00269019 -0.00072238 -0.00442949 
-0.0145357 -0.00460455 0.10051 
0.00282515 -0.00273558 0.00804163 
0.00084471 -0.000820523 -0.00246613 
-0.000867843 0.000843614 0.00370027 
0.0112508 -0.0182653 0.0844788 
9.46703e-05 -9.51748e-05 0.085816 
3.26407e-05 4.13853e-05 0.0454452 
-2.01956e-05 0.000216862 0.045684 
0.00167878 -0.00191536 0.0520852 
-0.00188934 0.00142213 0 
-0.0041113 -0.00106047 0 
-0.00056175 0.000822848 0 
0.0112805 0.0102941 -0.000443664 
-0.0575192 0.0326402 0.0691583 
0.0191479 0.00291219 0.00956419 
-0.00986084 -0.0214012 -0.0139477 
-0.0400133 0.0163303 0.149272 
0.000104644 5.71971e-05 0.081302 
0.000507855 0.000267264 0.069821 
-0.000248664 -0.00118686 0.114169 
-0.00123754 -0.003283 0.0638179 
-0.00616755 0.00757811 0.0578754 
0.012546 0.0297753 0.055988 
0.00273224 -0.00709042 0.0894643 
2.84084e-05 0.00136999 0.0158342 
-0.0616325 -0.0470088 0.16248 
-0.0734217 0.00267072 0.184169 
-0.0523142 0.00272626 -0.0108547 
-0.0262376 0.0185746 0.288119 
0.00228685 -0.00163676 -0.00958857 
-0.00286766 0.0021428 0.0205121 
0.0215646 -0.0145089 -0.00345854 
-0.0102897 0.00223531 0.249629 
-0.000639378 -0.000267986 -0.00306303 
0.00288628 0.00147481 -0.00763509 
0.00666626 0.00303763 0.0122151 
0.0259119 0.0150798 0.0910582 
-0.000604192 0.00182049 -0.0040407 
-0.00730116 0.00133965 -0.00615016 
0.0117984 -0.00756038 0.0111487 
0.00595182 -0.00570524 0.00671019 
6.01227e-05 -1.41248e-05 0.0353044 
0.000430192 0.000902325 0.000889482 
0.000136744 -6.37393e-05 2.97632e-05 
-0.000846926 0.000187244 0.0488253 
0.00293935 0.0120019 0.0744534 
-0.00286301 0.00375843 0.0620643 
0.00437341 0.0163885 0.101744 
0.00347752 0.0113627 0.109639 
-0.000195327 -0.000354345 -0.000754798 
-9.3521e-05 0.000240144 0.00115609 
-0.000252442 5.42972e-06 0.0317846 
-0.00383655 -0.00516597 0.0654884 
-0.011797 0.061838 0.20177 
0.0393328 -0.0124766 0.220369 
0.0851394 -0.0697988 0.064663 
0.0249285 -0.01301 0.15142 
7.98705e-05 -0.00013743 0.107462 
-0.000422485 0.000794595 0.13305 
1.24021e-05 -0.000299371 0.12066 
0.00322584 -0.00186587 0.105889 
0.00213298 -0.00330694 0.0557635 
0.00339534 -0.00517222 0.0996545 
0.00555133 -0.00556417 0.0758821 
0.00246075 -0.00137874 0.051548 
-0.0396003 -0.0321542 0.144793 
-0.0328266 -0.0467313 0.214192 
0.0420324 -0.0606413 0.136597 
-0.0326997 -0.0633162 0.186471 
-0.0122234 0.013521 0.0631432 
0.00140947 -0.00515426 0.0954184 
-0.0189723 -0.0298773 0.0503803 
0.00215622 -0.00167933 0.00674752 
-0.00147952 -0.0121446 -0.00412134 
0.00497564 -0.00908143 0.0218904 
-0.000236967 0.00997069 -0.00329129 
0.00899292 -0.00603786 0.00961576 
5.4464e-05 -4.17696e-05 0.114941 
0.000115666 -0.000467863 0.132819 
0.00313396 0.002913 0.106966 
0.00325648 0.00474303 0.127452 
-0.00178718 -0.0112335 0.103532 
-0.000356456 -0.00475591 0.0850524 
-0.00346099 -0.0124005 0.127713 
-0.00650076 -0.0176416 0.123725 
0.0293832 -0.0468324 0.322305 
0.0348336 -0.0749441 0.188103 
0.0452072 -0.0525165 0.125657 
0.0517415 -0.0317917 -0.0686316 
-1.41354e-05 -0.000494021 0.129277 
0.000469579 0.000578816 0.114601 
-0.000324594 -0.000989913 0.107795 
0.000927029 0.00667115 0.10867 
0.00441433 0.00745226 0.00257285 
-0.00440499 -0.00105297 -0.00136489 
-0.00834409 -0.00524444 0.102366 
-0.0096224 -0.0101062 0.0972298 
-0.0820196 0.017039 0.126391 
-0.00614773 0.0662383 0.0625297 
-0.0110686 -0.0142619 0.123451 
-0.0696303 0.0111667 0.216359 
0.000455845 -0.000107186 0.1315 
-0.000329189 -0.000240395 0.14238 
-0.000183768 -2.67878e-05 0.125652 
-0.00192293 -0.00886008 0.123848 
0.0046231 0.0285079 0.122104 
-0.0312829 0.019457 0.104743 
0.0315261 -0.0226568 0.0602933 
0.000522129 0.0254752 0.114796 
0.000528199 -0.0009104 0.0837613 
0.00152906 0.00678621 0.0605053 
-0.000567691 6.01968e-05 0.0918882 
0.000354642 0.00758236 0.110367 
0.0224448 0.022668 -0.0506223 
-0.0252289 -0.036546 0.0359138 
-0.029519 -0.0273841 0.0427715 
-0.0813285 -0.104501 0.185777 
-0.0276252 -0.0451995 0.0706849 
-0.00641803 -0.016106 0.101881 
-0.0149542 -0.0335451 0.151345 
-0.0512431 -0.0801943 0.121617 
0.0560487 0.0288148 0.437523 
0.0384712 -0.0833464 0.144096 
0.0840657 0.0225912 0.185187 
0.0626756 0.0430154 0.147392 
-0.000651766 -0.00149605 0.00420161 
0.000604423 0.00142068 -0.00257249 
-0.00144502 -0.00355432 -0.000125299 
-0.00285413 -0.00528459 0.00890244 
-0.000739105 -0.00017495 0.0992434 
0.00218017 0.00537797 0.114717 
0.00130494 -0.000412725 0.083476 
0.00177247 0.00512675 0.0663253 
-1.62514e-05 0.000396809 0.00136799 
0.000453453 -0.000434581 -0.00180881 
0.00240029 -0.0047188 0.0571265 
0.00522446 -0.00812844 0.0525294 
0.000251672 0.000154904 0.0376844 
-0.0003663 -0.000685165 -3.43134e-06 
0.000218008 0.00112839 0.0656229 
-0.000447972 0.000987132 0.0660188 
0.000945043 0.00111963 0.0429688 
-0.000553968 0.000344388 0.00141143 
-0.000745318 -0.000875066 2.65094e-05 
0.00271525 0.00133293 0.0653338 
-0.0134256 -0.0265935 0.0437643 
-0.00180242 -0.00730041 0.0975115 
-0.000514533 -0.0398907 0.0657215 
0.00417957 0.000259836 0.00960054 
0.0007044 0.00110392 0.0023141 
-0.00187258 -0.0040199 0.0812151 
0.000550131 0.000164208 0.0684193 
-0.00103724 -0.00257751 0.0649213 
-0.0278055 -0.0342885 0.141484 
-0.0249279 -0.0699147 0.175698 
0.0134238 -0.0531229 0.148499 
-0.00146285 -0.0253868 0.112603 
-0.00155086 -0.00103838 0.00384736 
-0.000804948 -0.00055463 -0.000995794 
0.00236419 0.00162644 0.0024383 
0.010592 0.0079432 0.0577711 
0.00023757 -8.86447e-05 0.0867789 
0.00347669 -0.000831443 0.0595258 
0.00505905 -0.00142006 0.105109 
0.00155003 -0.00185257 0.0514456 
-0.0023998 -0.0551427 0 
-0.017968 -0.0456018 0 
0.0437882 0.0858023 0 
-0.0582156 -0.0578787 0.186422 
0.0429687 -0.0571271 0.158181 
-0.0284399 -0.0585571 0.210602 
0.0654622 -0.0998776 0.0484879 
0.0248611 -0.0534479 0.350194 
-0.0292009 -0.0185181 0.0861626 
-0.00196614 -0.0436895 0.0872874 
-0.023515 0.000692065 0.147744 
-0.0543892 0.0213559 0.119203 
-0.00144599 0.0136989 0.0740597 
0.0024214 0.00488917 0.0679532 
0.000252104 0.0109285 0.0446866 
-0.00113714 0.00568376 0.0462129 
-0.00011424 -0.000624257 0.039695 
0.000230388 0.00175247 0.0640612 
0.000289573 0.00104343 0.0752599 
-0.000109576 0.00173186 0.0640989 
-0.00274972 0.0365486 0.312281 
0.0619299 0.0108402 0.172817 
0.01195 0.0498456 0.093556 
-0.0437632 0.0467544 0.213657 
0.0057516 -0.00670305 0.12703 
0.00409727 -0.0024214 0.105621 
0.00479508 -0.00502085 0.0766513 
0.00348047 -0.00479233 0.0991704 
3.04456e-05 0.000185764 0.000946255 
2.0009e-05 5.11059e-05 -0.000787374 
5.42459e-05 0.000280836 0.000690343 
0.00176941 -0.00104141 0.0611001 
0.000542546 6.35854e-05 0.138698 
-0.00300574 -0.00607399 0.136825 
0.000425059 -0.000276002 0.146404 
-0.00153546 -0.000987579 0.134811 
-0.012167 -0.00871319 -0.0173616 
0.00599179 0.00429875 0.00875579 
-0.00217185 -0.00157733 -0.00367731 
-0.0334399 0.00677901 0.152006 
-0.00241798 -0.00233188 -0.0079687 
-0.00141793 -0.0013653 -0.00110686 
0.000580236 0.000562334 0.00650203 
-0.0435003 -0.0194502 0.112845 
-0.00263963 -0.00605982 0.0836884 
-0.00636494 -0.00925992 0.0878821 
-0.00219611 -0.00942111 0.104781 
-0.000355335 -0.000107712 0.0637994 
0.00897473 0.000641067 -0.00678371 
-0.0828253 -0.0160592 0.12688 
0.0163176 -0.00373012 -0.0148027 
-0.0512431 -0.0267761 0.0525139 
0.000551613 4.52514e-05 -0.0104938 
0.000436558 3.5813e-05 0.00272446 
0.00946921 0.000776805 0.0026898 
-0.00778203 0.0022162 0.0757373 
0.0048081 3.81299e-05 -0.0160387 
0.00452113 -0.0110774 0.018243 
0.0111585 0.0219762 0.0361316 
0.00472024 0.00212723 0.0200021 
3.51776e-05 3.45363e-05 0.00403222 
0.0046966 0.00214803 0.000980792 
-0.000133953 -7.21859e-05 -0.00241077 
-0.00824338 -0.00383411 0.09432 
-0.0293247 -0.0349897 0.0435892 
-0.025789 -0.0250651 0.0840693 
-0.0247069 -0.0127907 0.108927 
-0.0286604 0.0382146 0.106425 
-0.000629159 -0.000536521 0.0736545 
0.00574174 0.00330273 0.0686941 
-0.000199661 -7.66818e-05 0.0903024 
0.00462299 0.00237861 0.106363 
0.00819609 0.0287615 0.111677 
0.00919622 0.0198342 0.0593179 
0.0329653 -0.0120432 0.106771 
0.0678121 0.00662084 0.167863 
-0.00167284 0.00691949 -0.00761488 
0.00106329 0.00464818 -0.0153282 
-0.0639272 0.0633151 0.0901131 
-0.000745872 0.0519071 0.0475745 
-0.0114411 0.000929949 0.000695073 
0.000435975 -3.54366e-05 0.00516065 
0.000550876 -4.47759e-05 -0.00903988 
-0.00780108 -0.000110852 0.0758699 
-0.00112002 0.000787348 -0.000548228 
0.00107219 -0.000753245 0.00149943 
0.00148035 -0.00103982 0.00241406 
-3.66482e-05 -0.00447886 0.067363 
-0.000275248 3.47277e-05 0.0387185 
0.000212892 0.000243311 0.00027026 
0.000216782 7.61675e-06 0.000147799 
-0.000790962 0.000474616 0.0656868 
0.00551761 -0.00360398 0.0149161 
0.00193585 -0.00951594 0.000277859 
0.00194104 0.0100289 0.102608 
0.00097609 0.0176146 0.0936128 
-0.0238592 0.0782208 0.214576 
0.00227989 0.0540022 0.368654 
0.106413 0.0413511 0.0479778 
-0.0208701 0.0768433 0.111288 
-0.0114145 -0.0284273 0.0945562 
-0.00517458 -0.0177168 0.0856536 
-0.00212779 -0.00737945 0.090097 
-0.00549399 -0.0200974 0.123158 
0.000178519 0.000155678 0.0735965 
-0.00023408 -0.0001557 0.104657 
-0.000276408 0.000171949 0.0777616 
0.00311796 -0.00472092 0.100279 
0.0320834 -0.0199028 0.0178999 
-0.00664847 0.00444582 -0.022119 
0.013 -0.0278055 0.0277706 
0.0356821 -0.0369502 0.052315 
0.00996858 0.0467213 0 
0.0228823 -0.0163306 0 
0.00246523 -0.0388371 0 
-0.0100577 0.0344235 0.133118 
0.000224495 -0.0129886 0.105432 
-0.0034145 -0.0113489 0.0897346 
-0.00301858 -0.00509843 0.0847576 
0.00338002 -0.00377164 0.0649578 
-0.00140924 -8.22049e-05 0.0897004 
0.00236983 0.0073378 0.107617 
-0.00020235 0.000540343 0.114998 
0.00245457 0.00870081 0.107797 
0.0163366 -0.0886139 -0.104288 
0.0589368 0.0469193 0.146686 
-0.00732982 -0.000711952 0.3386 
0.0344422 0.0395169 0.0963848 
-0.000496681 9.101e-05 0.133139 
0.00379342 0.0116013 0.123228 
-0.000192493 -0.000560267 0.114732 
0.00284486 0.00852649 0.10924 
0.006914 0.00961028 -0.00394769 
-0.0209046 -0.019059 0.0243707 
0.00494883 0.00580154 -0.00577018 
0.00201081 -0.00713659 0.00981198 
-0.0225752 -0.0200433 -0.0437248 
-0.0498536 0.0616401 0.0999696 
-0.0164282 0.0602615 0.0798666 
-0.0344435 0.00255464 0.281609 
0.00535733 -0.0091144 0.0782967 
0.00821951 -0.0166669 0.0743605 
0.0039249 -0.0132928 0.10314 
0.0021267 -0.00183951 0.0636661 
0.000270886 -0.0101868 0.107597 
-0.00379313 -0.0262049 0.129585 
-0.00249144 -0.0164045 0.127495 
-0.000916254 -0.0230756 0.120489 
0.0127544 -0.00275263 -0.0162647 
-0.0320741 -0.0351734 0.0396487 
0.00136612 0.000416071 0.00420781 
-0.00577238 -0.0150309 0.0242178 
0.00107716 -0.000435208 0.00220948 
0.00127365 0.00138258 0.000431244 
-0.0013816 -0.00254947 0.0686335 
-0.00193575 -0.00199379 0.0649522 
0.000732685 -0.00069224 0.0704276 
4.6128e-05 0.000105497 0.0454315 
-0.000249573 -0.000518466 0.00126908 
-0.000452087 -0.00142967 0.063796 
0.000350573 -8.47378e-05 0.0372833 
9.06523e-05 -0.000606047 0.00154161 
6.36656e-05 -0.00044723 -0.000602662 
0.00188685 -0.00244603 0.0585722 
-0.00294671 -0.0424521 0.114111 
0.015369 -0.059546 0.147992 
-0.00634259 -0.0592095 0.0370337 
-0.00504979 -0.0655128 0.146784 
0.0165734 0.0166329 0.0853332 
0.00418745 0.00358036 0.0792812 
0.010609 0.013972 0.110504 
0.009992 0.0165293 0.114917 
0.00047934 0.000694866 0.000245796 
-0.000461938 -0.000690356 0.000935438 
-0.000254309 -0.000385485 0.000822035 
0.00460922 0.00404786 0.0691949 
9.63889e-05 0.000543736 0.0498556 
-0.000101167 4.68484e-05 0.0349108 
-6.6379e-05 -0.000217555 0.0730216 
-0.000387545 7.4119e-05 0.0485239 
-0.00016888 -0.000215837 0.000926377 
0.000352828 0.000449433 -0.00199485 
0.000695557 0.000996569 0.000455614 
0.00419537 0.00337741 0.0687538 
-0.000401206 0.00489068 0.00382662 
0.000123535 -0.00150589 -0.00669847 
-6.29801e-05 0.000767725 0.000855075 
-0.00335965 0.0266204 0.0245636 
-0.00302705 -0.0147226 0.128605 
-0.00390841 -0.0245012 0.130232 
-0.000403253 -0.0142202 0.107124 
-0.00225021 -0.00995062 0.123703 
-0.000436174 -0.000387022 0.128354 
0.00248341 -0.00812614 0.118525 
9.73576e-05 5.96651e-05 0.104159 
0.00279211 -0.00523079 0.0997952 
-0.0207169 0.00574629 0.164018 
-0.0241536 -0.0332222 0.11044 
-0.0248748 -0.021247 0.0827095 
-0.0461404 0.0467153 0.124054 
-0.000427191 -0.000953338 -0.000438611 
-0.00184161 -0.00110197 -0.0009759 
-6.79899e-05 0.000599611 -0.000407684 
0.00220256 -0.00120068 0.00417642 
-0.000146393 6.61592e-05 0.0753917 
0.000331167 0.000159131 0.0855457 
-0.000311607 -9.90758e-05 0.101551 
0.00419109 -0.00213703 0.105897 
-0.0902648 0.00995642 0 
-0.0832681 0.0364232 0 
0.115699 -0.0094451 0 
-0.111493 0.0467115 0.208175 
-0.0606959 0.0347935 0 
0.0453714 -0.0262998 0 
-0.0591233 0.0196181 0 
-0.0824811 -0.0183889 0.318943 
0.0309409 0.0510746 0.231658 
-0.000239145 0.00386715 0.348705 
0.050202 0.00368693 0.122594 
0.123761 0.0198503 0.0407676 
0.00748569 -0.00538199 0.0761996 
0.00360513 -0.00198516 0.105016 
0.00347801 -0.000496556 0.0597035 
0.0014533 -0.00198224 0.0513905 
-0.00076434 0.00283152 0.00407747 
-0.000156836 0.000654259 -0.000650449 
0.000466152 -0.00195125 0.00206807 
-0.00202709 0.0117535 0.0737085 
-0.00176372 0.000891983 -0.000867309 
0.00292145 0.00197364 0.000425413 
-0.00195415 0.000234677 -0.00160712 
0.00848013 0.00858811 0.0045821 
-0.000699692 0.00315112 0.0165971 
-0.00577635 0.0108188 -0.00279042 
-0.0260152 -0.0249621 0.179397 
-0.00159209 -0.0111636 0.112409 
-0.000322375 0.000194209 0.0406828 
-0.000761806 -4.50763e-05 -0.00151846 
-0.000547667 -0.000324228 0.0016459 
-0.00265781 -0.0024167 0.0618388 
-0.000215845 1.34483e-05 0.0523086 
0.000415939 0.000515459 0.00155496 
-0.000903338 0.000430761 0.0440355 
0.000741076 0.00302156 0.0642468 
-0.000408367 0.00115177 0.0437173 
0.000387615 -0.001262 0.000800465 
0.000234012 -0.000252233 0.000329088 
-0.00114592 0.0034568 0.0668769 
0.000467085 0.000779708 -0.0080869 
-0.00333944 0.0387949 0.0787728 
-0.00296629 0.00878566 0.00759222 
-0.012062 0.0361682 0.0445707 
0.0120798 0.0232038 0.0350148 
0.00323998 -0.0174156 0.022774 
-0.00813815 -0.0379235 0.0594851 
0.0076814 0.00382718 0.0178568 
0.00127011 -0.00130084 0.00275268 
-0.00130091 0.00139806 0.00991126 
-0.000431247 0.000412383 -0.00661309 
0.0113314 1.16736e-05 0.111469 
-0.00221404 -0.00813471 0.0897546 
0.00682176 0.0161383 0.0409279 
-0.000371171 -0.0293038 0.0574977 
-0.00341132 -0.0032513 0.0913785 
0.0692243 -0.0724842 0.154718 
0.0102469 0.00800453 0.423671 
0.0567252 -0.0803422 0.204937 
-0.0284624 -0.0440747 -0.0932906 
0.00268971 0.00276828 -0.000649869 
-0.000110895 -0.00522175 0.000445367 
-0.00550036 -0.00847418 0.045494 
-0.00317197 -0.000697096 0.0292424 
-0.0327885 0.0243081 0.0948334 
-0.0128001 -0.0134618 0.179038 
0.00589869 0.0191068 0.173688 
-0.0063445 0.0106284 0.0796596 
0.00113106 0.00121777 0.0852312 
0.000364036 7.01865e-05 0.043375 
-6.79738e-05 -0.000370463 0.0548647 
0.000637425 0.00141969 0.062592 
0.0287556 0.0310443 0.174929 
0.0533812 0.0282969 0.212459 
0.0436295 0.0729083 0.113723 
0.0164813 0.0222213 0.106355 
0.00391632 -0.000333013 0.00137457 
-0.00620868 0.00051833 0.000171896 
0.00324441 -0.000287735 0.00403988 
-0.0145388 -0.00263325 0.0890724 
0.000402751 -3.74805e-05 -0.00103851 
-0.00107533 9.60275e-05 0.00161262 
0.000849202 -6.98355e-05 0.000447736 
-0.00679663 -0.00117117 0.0930309 
8.96575e-05 0.000374586 -0.00426013 
-8.37278e-05 -0.000657831 0.00183313 
-0.000154312 -0.00181713 -0.000833303 
0.00452218 -0.002368 0.0433608 
-0.000563917 0.000266086 -2.10184e-05 
0.00118216 -0.00058347 0.00172114 
0.000232879 -0.000117027 0.000475339 
3.4264e-05 0.00262062 0.0899077 
0.0106615 0.031688 0.0907198 
0.00931475 0.0345064 0.000453318 
0.0322464 0.0535055 0.127185 
0.0222288 0.0697062 0.124565 
-0.00196457 0.0190617 0.442404 
0.0176638 -0.0473841 0.161847 
0.0492375 0.0198779 0.171464 
0.115349 -0.0694608 0.132534 
-0.00149922 -0.00118423 0.00578964 
0.00209058 -0.000669484 0.00543899 
0.0276731 0.016267 0.0755222 
0.0242825 0.0164205 0.044529 
-0.00283018 0.0413395 0.0786695 
0.000308951 0.0128745 0.0374663 
0.00334018 0.0264792 0.0396967 
-0.00658212 0.0368539 0.0392853 
0.0230365 0.0191019 -0.0219502 
0.0101848 0.0477698 0.107388 
-0.00632289 0.013345 0.32953 
-0.0670518 -0.0252213 0.270427 
-0.109902 -0.018896 0.101634 
-0.0267953 -0.0407518 0.168572 
-0.0276948 -0.037095 0.177178 
-0.0491294 -0.0355084 0.0112613 
-0.000132777 -0.000201623 0.0407269 
-0.00025081 0.00074069 0.0839472 
0.000292306 -0.000180355 0.0517421 
0.00383441 0.00298785 0.0601578 
-0.00102258 -0.00197474 0.00744194 
-0.0304858 0.0545473 0.0953042 
-0.00392824 0.00429658 -0.0163521 
-0.0141018 0.0497026 0.0446455 
0.000220649 -0.000303518 0.00119869 
0.00141276 -0.00193646 -0.00319887 
-0.00156676 0.00215088 -0.00171455 
0.0154789 -0.019063 0.0754093 
0.002827 0.00728589 0.397804 
-0.0828298 -0.121024 0.126743 
-0.00470751 -0.0234778 0.36021 
0.011572 -0.0325476 0.290169 
-0.000552091 -0.000776449 0.00330668 
-0.00111578 -0.00150586 -0.00282063 
0.000751733 0.00103739 -0.00152728 
0.011701 0.00914311 0.0404464 
-0.00979438 -0.00591713 0.131375 
-0.00554764 0.00484739 0.0982725 
-0.00628431 -0.000977242 0.00452756 
0.00931604 0.00706789 0.0961488 
0.0116699 -0.0546694 0 
-0.00627781 0.0448993 0 
0.0281968 -0.0728044 0 
0.0316868 -0.101186 0.258353 
-0.000588035 -0.000562757 0.00104103 
0.000176976 0.000151372 -0.0039249 
0.00219414 0.0021311 0.00239147 
0.015875 0.0129859 0.0346282 
0.00139781 0.00539935 0.0855748 
-0.00203309 0.00823125 0.0810353 
-0.00102349 0.00992044 0.102741 
0.00122002 0.000369344 0.0646397 
0.000853907 0.00115166 0.0843302 
-0.000161803 0.00501406 0.0663231 
-0.000430326 -0.00106573 0.0430995 
0.000426887 0.00443294 0.0593677 
-0.00103373 -0.00051265 0.000193527 
-0.00057698 4.50088e-05 0.0409479 
7.48625e-05 0.00405869 0.0679085 
0.000528231 0.00343302 0.0613782 
-0.0538399 -0.016038 0.15272 
0.0176617 0.0219498 0.176748 
0.0221457 -0.0314153 0.158049 
0.0135471 -0.0304061 0.257679 
0.00407397 0.00308939 0.310847 
0.00324127 -0.004257 0.312756 
0.0117007 0.0160189 0.125972 
-0.083014 0.019577 0.287111 
-0.000156763 6.74629e-05 0.0526367 
0.000193862 -0.000388399 0.0481797 
0.000358698 0.000480595 0.00101584 
0.000593878 0.00279363 0.0646116 
-0.0163618 0.00318902 0 
-0.0253312 0.0167963 0 
0.0285515 -0.0286321 0 
0.0699054 -0.0353576 0.0591358 
-0.00495423 -0.00383752 0.000193845 
0.00391866 -0.000805205 -0.00367233 
0.0022267 -0.000897516 -0.00280938 
-0.0288601 -0.0210238 0.0171299 
0.00678788 -0.00282083 -0.00765992 
0.00757717 0.0281674 0.034612 
0.0109351 -0.010859 -0.00951024 
-0.00126856 -0.00113346 0.016621 
0.0204156 -0.0497452 0 
0.00146581 -0.0336611 0 
-0.00200836 0.0404368 0 
0.0627863 -0.0558278 0.131277 
-0.00143478 -0.00770292 0 
0.00153274 -0.00544735 0 
0.00323304 0.00109035 0 
0.000566668 0.044322 0.00235296 
-0.0009998 0.000929825 0.000130271 
-0.00157114 0.000327741 0.0014246 
0.00109612 -0.00206707 0.0711592 
0.00122761 -0.00151234 0.0655008 
0.000111758 0.000128363 0.0904134 
0.000136099 -0.000169986 0.0734982 
-0.000151792 -0.000539882 0.0504012 
0.00491617 0.00294429 0.0689783 
-0.000172826 0.00118477 -4.38437e-05 
0.000192962 0.00071923 -6.10507e-05 
-0.000614729 -0.000380094 -0.000239507 
0.00443795 0.00790868 0.00280335 
0.0114911 0.0393074 0.142361 
-0.0332375 0.0269923 0.232763 
-0.00511663 -0.00561826 0.32235 
0.0550341 0.0947634 0.116042 
-3.93557e-05 9.49383e-05 0.0948788 
0.000124701 -0.000114251 0.104469 
-0.000341275 -0.00133627 0.064438 
0.00109169 0.00614054 0.112756 
9.39901e-05 0.00293746 0.00184874 
0.00013759 -0.00194152 0.0847254 
0.00125891 -0.00125796 0.000213109 
5.60425e-05 -0.00417524 0.0664851 
-6.22395e-05 0.000256712 0.00124946 
0.000974604 -0.001849 0.0022148 
-0.000177968 0.000290467 -0.000877689 
0.00487191 -0.00895168 0.051863 
0.065858 -0.0605714 0.0782078 
0.0251068 -0.0736497 0.0856962 
-0.0357083 0.0443639 -0.0801247 
0.000725527 -0.0276936 0.260733 
0.00153737 0.000259937 0.00599338 
0.00146618 0.000135492 0.000247804 
-0.00171979 -0.00378489 0.0840437 
-0.000231922 -0.0046994 0.0663878 
-0.000808007 9.04305e-05 0.140633 
7.72327e-05 -0.000459282 0.125836 
0.00105492 -0.000106469 0.127025 
-0.000893318 -0.00560356 0.140971 
0.000517166 0.00370871 0.313072 
0.00636565 -0.0392764 0.149129 
0.0395202 -0.0171675 0.232663 
0.0133295 -0.0867594 0.122658 
4.93043e-05 0.000100144 -0.0015507 
0.000193803 0.000785728 0.000948737 
7.13157e-05 0.000346598 0.00138154 
0.00184608 -0.00114124 0.0407133 
7.35189e-05 -0.000764302 0.107381 
0.0007351 0.00647493 0.108101 
-8.76151e-06 0.000903482 0.0893972 
-0.000779011 0.000278489 0.0919043 
-0.000826778 0.000593083 0.000987267 
-0.00120662 -3.23108e-05 0.000394324 
0.000829402 0.000442459 0.047818 
0.00163398 0.000801201 0.0673257 
0.000335267 -0.000276275 0.105591 
0.000161969 0.00407627 0.063995 
-0.000754562 -0.000302527 0.0607473 
0.00122701 0.00511016 0.115405 
0.0133211 -0.000874218 0.378245 
-0.026557 0.0109379 0.182541 
-0.000539848 0.00188073 0.332547 
-0.0968813 -0.153574 0.183178 
0.00789907 -0.00526537 -0.00855005 
0.0018197 -0.00228812 -0.00175881 
-0.00252385 -0.00563278 -0.00482775 
-0.0433004 -0.00979662 0.0281205 
0.0060733 0.00426831 0.00519822 
0.00072419 0.000512552 -0.00668168 
-0.00160433 -0.00112527 -0.00594937 
-0.0459191 -0.0169944 0.132254 
-0.0102293 0.0052548 0.0144928 
-0.00633178 -0.0106092 0.102568 
-0.00217264 0.00202556 -0.00129988 
-0.0107624 -0.0122339 0.0972064 
0.00849817 0.0181813 0.34468 
-0.0155403 -0.0380301 0.168725 
0.00361338 0.016852 0.334057 
-0.0895228 -0.17164 0.170551 
0.000877446 -0.00322661 -0.00343657 
-0.00190147 0.00697757 0.00842303 
-0.000231758 0.000992429 -0.00841836 
-0.00583133 0.0376843 0.0780012 
-0.00126544 -0.0013481 0.0959253 
0.00350959 0.00990555 0.125267 
0.000564875 0.000488186 0.125894 
0.000733483 0.00756563 0.112271 
0.000836833 0.00118419 0.000942287 
0.000369699 0.000420241 0.00194671 
-0.000856702 -0.00113154 -0.0021657 
0.0076861 0.00825906 0.00477442 
-0.000440515 -0.00137577 -0.00031491 
0.000218118 -0.000259954 0.000170618 
0.000505047 0.000118136 0.00100431 
1.31287e-05 -0.00345198 0.00114246 
-0.00134765 0.00288888 -0.00240177 
0.00192873 -0.00424939 -0.0072198 
0.00100947 -0.00214728 0.00334657 
-0.0115132 0.0333266 0.096689 
-0.000356077 -0.000384737 0.00245413 
-0.000309688 -0.000276201 -0.00422227 
0.00759364 0.00473565 0.043642 
0.00555607 0.000927959 0.040616 
0.0221928 0.0200786 0.0870382 
0.00797823 0.00751968 0.105187 
0.0111672 0.0236715 0.132783 
0.00698752 0.0183986 0.117471 
0.000148556 0.000301107 0.000154109 
0.000435322 0.000909118 8.64277e-05 
0.000130554 0.000210037 0.000880189 
0.00179371 0.000154 0.0343891 
0.0017876 0.0123821 0.104366 
0.00372225 0.00774889 0.114506 
3.59488e-05 0.0128927 0.133261 
-0.0001438 0.00729984 0.113545 
-0.000627863 0.00169381 0.00244217 
-0.00755617 -0.0154223 0.052503 
-0.000498801 -0.0014996 -0.00432866 
-0.0118117 -0.0174486 0.0466825 
-0.0395349 -0.0355786 0.0724076 
-0.0609269 0.00282184 0.0944387 
0.0160549 0.0136271 -0.0460211 
-0.0416837 0.0281435 0.211113 
-3.95154e-07 0.000504462 0.0745434 
-0.00020381 -0.000248636 0.107068 
1.14187e-05 -2.03854e-05 0.0857578 
0.00433786 -0.00135459 0.104864 
0.000751656 0.000517157 -0.000786031 
-0.00235238 -0.00160579 3.44311e-05 
-0.00101735 -0.000712151 0.00339087 
-0.00949896 -0.00853961 0.0838208 
0.00317236 0.0311162 0.100279 
0.037526 0.0536563 0.108362 
0.0118071 0.028199 0.11266 
0.0220466 0.0331263 0.128882 
0.000683608 0.000164463 -0.000631932 
-0.000394259 -5.93209e-05 0.00322602 
1.72428e-05 1.29392e-05 0.000692061 
7.72871e-07 -0.00278022 0.0700587 
0.00280981 0.00233919 -0.0126018 
0.00427728 0.00258848 0.00636802 
0.000181127 -5.77311e-05 0.00466693 
0.0276418 0.0109814 0.0401411 
0.000602485 -0.000150516 0.000597647 
-0.000686236 0.000189374 0.000537741 
0.000241041 -6.72948e-05 -0.000241683 
-0.002718 0.00188166 0.085684 
0.000175885 -0.000448667 0.000653112 
0.000143349 -0.000319452 -0.00130533 
-0.000126198 0.000320344 -0.000405916 
0.00181841 -0.00468701 0.0579753 
-0.0021041 -0.000168831 -0.00172921 
-0.000409326 -3.03011e-05 -0.000958663 
-0.000551006 -6.14225e-05 0.00375853 
0.00181922 0.0026086 0.0931844 
0.00800853 0.0305041 0.160172 
0.031056 0.0110444 0.0781617 
0.00808092 0.0182472 0.117676 
0.00840228 0.00868806 0.105831 
0.00540055 -0.00244745 0 
0.00169086 -0.00050061 0 
0.000952167 0.0025414 0 
-0.019212 -0.0176139 0.00896433 
9.04379e-06 -1.18071e-05 0.114752 
0.000379578 -4.2098e-05 0.134362 
8.51267e-05 -0.000401706 0.114872 
0.00174148 0.00890683 0.107437 
0.000355863 -0.00036282 0.000807864 
8.94008e-06 -1.07529e-05 0.00280116 
-0.000221628 0.000225951 -0.000487077 
0.000846716 0.0024728 0.0688061 
0.000301165 0.000589493 0.00267749 
0.000897888 0.00176317 -0.000509062 
-0.000654944 -0.00128593 0.000108293 
-0.00761475 -0.0153739 0.0491055 
-0.000102938 0.000138234 0.00346658 
4.04546e-05 2.98302e-06 0.000886862 
0.000236684 -0.000155366 -0.00159402 
0.00113671 -0.00321195 0.0681341 
0.000397717 -0.00123106 0.00731762 
-0.00506107 -0.00587396 0.136904 
-0.0100053 -0.00156074 0.000882894 
0.0113595 0.00579609 0.100184 
-0.000195075 -0.0013734 0 
0.000116521 0.00221505 0 
-0.00107561 -0.00210601 -0.000333937 
-0.000574647 -0.00288024 0 
7.70241e-05 -7.15576e-05 0.00935377 
0.000802381 0.000536249 0.00168955 
-0.00500958 -0.00343705 -0.00389637 
-0.0125052 -0.0140662 0.0933178 
-0.039926 -0.0521833 0.234809 
0.00816448 -0.0627511 0.161857 
-0.0265319 0.000338374 0.394039 
-0.041015 0.0551053 0.231748 
0.002139 8.54105e-05 -0.00796517 
0.00180646 0.00611668 0 
-0.00185693 0.00826024 0 
-0.00115012 -0.00423607 0 
0.00234905 -0.00212202 0.00231832 
0.00166731 0.00091118 -0.00237813 
-0.00741477 -0.00274474 0.0116965 
-0.00399613 0.000469205 0.0209904 
0.015562 -0.00993389 0.395646 
-0.00789151 0.0328528 0.181215 
-0.0292942 -0.0168688 0.151922 
-0.131983 -0.006079 0.134373 
0.00190621 -6.04179e-05 0.00244521 
-0.0029347 -0.00184198 0.0826535 
0.0021645 0.000600897 0.00169386 
-0.00285528 -0.00235346 0.0654744 
0.061323 0.0231763 0 
0.0651627 4.54566e-05 0 
-0.0644162 -0.00243604 0 
0.0720486 0.0732704 0.184095 
-0.000767494 -0.000838465 0 
0.00638306 0.00428912 0 
0.00650178 0.00280584 0 
-0.0440113 -0.00550751 0.00746361 
-0.0240634 0.0332356 0.165432 
0.0147663 -0.00110667 0.353685 
-0.00103666 0.0501757 0.220174 
-0.087172 0.0794187 0.273316 
0.0031964 -0.00205269 -0.0121009 
-0.0107815 -0.00364193 0.00776202 
-0.00349451 -0.00502742 0.00835874 
-0.0370418 -0.0206062 0.0348182 
-0.000200186 0.000233585 0.00110826 
0.00180853 -0.00313335 0.0554682 
5.29631e-05 -0.00052296 -0.000291753 
0.00137528 -0.00210293 0.0518867 
0.0108629 0.0236772 0.160527 
0.0532904 0.0229263 0.139374 
0.0204306 0.0158978 0.0737734 
0.00957509 7.25659e-05 0.105111 
0.00118331 -0.00251459 0 
-0.0012614 0.000128241 0 
0.000360365 0.00064268 0 
0.00302667 -0.00640762 0.00205725 
-0.000468216 -0.000829737 -0.001847 
-0.000601631 -0.00133065 0.00170547 
0.000858559 0.00175271 -0.0001793 
-0.00556535 -0.0110688 0.0512892 
0.0201275 0.00574813 0.383383 
-0.0293234 0.00218032 0.228364 
-0.0214334 -0.0461924 0.159742 
-0.10472 -0.136529 0.10611 
0.00213092 0.00459139 0.0861239 
0.00057368 -0.000444525 0.0653909 
-0.000983909 0.0105423 0.102232 
0.000913657 0.0105614 0.114312 
-2.37254e-05 -0.000812639 0.00289024 
0.00135714 0.0129256 0.0793609 
-0.00195143 -0.000624075 -0.000951735 
-0.000712795 0.00586691 0.0628471 
0.00033635 0.000234223 0.104272 
-0.000684433 -0.000245439 0.124562 
0.000245726 0.000358771 0.0933313 
0.00157931 -0.00840907 0.117912 
5.77155e-05 0.000492237 0.0757527 
-0.00022121 0.000563269 0.0738363 
0.00232349 -0.00396506 0.0559984 
0.00359526 -0.00519203 0.09959 
0.0026172 0.0293212 0.164407 
0.00868271 -0.00652086 0.185846 
0.043191 0.0167405 0.14816 
0.0183441 8.5862e-05 0.0991328 
-0.000120393 0.000954483 0.109902 
0.000360895 0.000508278 0.112667 
0.000163698 -0.000799406 0.131391 
-0.000959989 -0.00865504 0.124648 
0.0157334 -0.0119817 -0.016926 
0.00507048 -0.00272685 0.000762637 
0.0106639 0.0431545 0.0337742 
0.0145435 0.0520569 0.0996783 
0.00542595 -0.0124393 0.356498 
-0.078863 -0.118231 0.0985254 
-0.00981784 -0.0675061 0.224021 
0.00504659 -0.0379068 0.323184 
-9.53043e-05 7.02782e-05 0.000167798 
0.000424493 -0.000276047 0.00133106 
-2.97578e-05 3.57983e-05 0.00083113 
0.00094398 0.00157173 0.0693047 
6.68179e-05 -0.000190215 0.000463011 
-0.00012912 0.000335372 -0.000416025 
-0.000408267 0.000844111 0.00190012 
0.00216106 -0.00467818 0.0580645 
0.0105461 0.0299857 0.146612 
0.0257393 0.0118557 0.0887175 
0.00886626 0.0322922 0.1304 
0.00686422 0.0183934 0.117527 
5.13706e-06 -0.000397156 0.140003 
0.000203769 0.000306524 0.14486 
-0.000153856 0.000470314 0.138051 
-0.00246213 -0.00712279 0.139491 
-0.00291057 -0.00949269 0.104216 
-0.00815651 -0.0116183 0.0941835 
-0.000342563 -0.00559004 0.0846564 
-0.00543036 -0.0191624 0.123139 
-0.00811513 -0.025877 0.113788 
-0.0085373 0.00279658 0.116953 
-0.00221292 -0.00543577 0.0877212 
-0.0176463 -0.0103927 0.0973113 
-0.0817429 -0.0684603 0.0943992 
-0.0526642 0.0348987 0.015284 
0.00665998 0.00464166 0.154317 
-0.0627556 -0.0513081 0.190548 
0.000376366 0.000418007 0.0489791 
1.39403e-05 0.000251064 0.000618167 
-3.81408e-07 0.000511571 -0.00028442 
-0.000815435 0.00335818 0.0471238 
0.000475618 -0.0504737 0.0151905 
0.00309129 0.0361394 -0.0177834 
-0.0114064 0.0280243 0.139884 
-0.026446 -0.117426 0.149255 
-0.00109036 -0.00359096 0 
0.00152193 0.00286825 0 
-0.00193546 -0.000726621 0 
0.00716383 -0.00118989 0.00586505 
0.00402571 5.44152e-05 0.317293 
0.0235265 0.0184462 0.167446 
-0.0119387 0.0315859 0.168633 
-0.103776 0.00793153 0.230448 
-0.000338528 -0.00117089 0.000693151 
-0.00112769 0.00085701 0.000160698 
0.00293321 -0.00415499 0.0549764 
0.0054061 -0.00778315 0.0507514 
0.0275185 -0.017872 0.107725 
0.0280962 0.0577858 0.0509598 
0.0742846 -0.0566584 0.0961138 
0.0619505 -0.0321731 0.178152 
0.000465345 0.0012116 0.131753 
-0.000366643 -7.99728e-05 0.129103 
0.000132909 -3.73899e-05 0.140802 
-0.00070265 0.000859321 0.135072 
-0.0114142 0.00598417 0.360458 
0.0487961 0.0381932 0.213717 
-0.0239428 0.0659525 0.201278 
0.0354625 0.0547721 -0.023727 
0.0421315 -0.0029252 0.391787 
-0.010945 -0.00477744 0.365578 
0.0174662 -0.0020059 0.349682 
-0.148316 0.00222399 0.290332 
-0.000110595 0.000778663 -0.000158631 
-6.52644e-05 -0.000437651 0.000399989 
8.61541e-05 -0.000630033 0.0446279 
0.000132413 -0.000574934 0.0460313 
0.00109376 7.41985e-05 0.0430132 
0.000105093 0.00075138 0.0011793 
0.000134867 -0.000384816 0.0549402 
0.000699226 0.00137605 0.0630617 
-0.00113796 0.000828497 0.00182663 
-0.00172162 0.00125597 -0.00271697 
0.00102555 -0.000747044 -0.000808054 
0.00865036 -0.00489197 0.0997777 
-0.00222073 0.00205399 0.0126071 
-0.00299333 0.00600729 -0.00399776 
0.00938517 0.00357404 -0.0190207 
-0.069583 0.0627704 0.0961918 
0.00564138 -0.000390465 -0.00523672 
-0.000544245 0.00174897 -0.00555471 
-0.0154334 -0.0159957 0.0191479 
0.00203201 -0.0059842 0.0156617 
0.0229373 0.029686 0.00830492 
0.00564928 -0.0653793 0.0662965 
0.00102229 0.00449679 -0.00845181 
-0.00821781 -0.0519391 0.169836 
-0.000350827 -0.000268132 0.00307165 
0.000646884 0.000413291 0.00195784 
-0.000659172 -0.000425801 -0.00155723 
-0.00346144 -0.00347495 0.0615459 
0.000521112 -0.00168046 0 
0.00569111 -0.00123727 0 
-0.012136 -0.0126606 0 
0.00941546 0.000983811 -0.00267964 
0.000130276 -0.000210102 0.0376683 
7.22677e-05 0.000305444 -0.00037118 
0.000123983 -0.0013978 0.0016412 
-0.000385852 -0.000257017 0.0438188 
0.00598993 -0.00861407 0.0785758 
0.00154521 -0.00309895 0.0549286 
0.00581233 -0.00684171 0.0756914 
0.00607283 -0.00856887 0.0500252 
-0.00821396 1.0134e-05 -0.00417566 
0.0022737 -0.00156444 -0.000838271 
0.0120947 -0.0083375 0.010565 
0.00557709 -0.0049085 0.00745735 
0.00508151 -0.00981719 0.0773043 
0.00613592 -0.00466922 0.0766949 
0.00211099 -0.00380037 0.0552625 
0.00254917 -0.00553773 0.0994296 
-0.0598484 -0.026071 0.1403 
-0.0332923 -0.0259214 0.0455314 
-0.0138251 -0.0428521 0.0345229 
-0.0125702 -0.0234961 0.0443835 
0.00012551 -3.64306e-05 0.00102076 
0.000457334 -0.000112692 0.00114284 
-0.000387907 8.92626e-05 -0.000157086 
-0.000139861 -0.000743516 0.0658257 
0.00868152 0.050451 0.254541 
0.00651016 -0.0106633 0.339166 
0.0651538 0.0514676 0.21845 
0.0438357 0.105973 -0.0225041 
-0.000513487 4.41891e-05 -0.00129031 
-0.000927544 7.98216e-05 0.00152799 
0.000538731 -4.63615e-05 -0.00111542 
-0.00690425 -0.000542226 0.093191 
0.0131047 -0.0281159 -0.0229057 
-0.00280061 -0.0279914 -0.0443589 
0.0099213 0.0348598 0.0407093 
0.0406062 0.0862269 0.126018 
-0.00027501 -0.000538924 0.00150488 
-0.000715296 -0.0014048 -0.00067997 
-0.00023179 -0.000455885 -0.00121572 
0.00388768 0.00427659 0.0383493 
0.00041648 0.000525222 0.000211284 
2.20258e-05 0.000167322 0.0659696 
-4.81738e-06 -0.00105174 0.000124433 
-0.00111096 0.00127069 0.0659237 
0.0349484 0.0154691 0.0784573 
0.0187634 0.00913326 0.00788248 
0.0111235 0.0020282 0.0411972 
0.0250362 0.0184438 0.040463 
0.0259151 0.00408583 -0.0201165 
-0.0215482 -0.0308359 0.0331514 
-0.000942792 -0.00356252 -0.0181045 
-0.0610855 -0.103512 0.127959 
0.00126036 0.0301422 0.0543584 
0.00902761 0.0735882 0.124468 
0.0101771 0.0446547 0.180367 
-0.0336313 0.058358 0.157403 
0.0130614 0.00835091 -0.00295404 
0.0103696 -0.0173874 0.158089 
-0.0037668 -0.00458764 0.000728572 
0.0123496 0.0020195 0.101134 
-0.00023369 -0.000329251 0.000905044 
-3.01455e-05 0.000152648 0.0461662 
-0.000510538 -0.000127934 0.0520915 
-0.000418135 -0.0013695 0.0633866 
-0.0451758 -0.0609837 0.108505 
-0.0577756 -0.0580026 0.239093 
-0.0739999 -0.0259029 0.075307 
-0.0312969 -0.0206738 -0.0393953 
-4.58271e-05 9.58555e-05 -0.000184733 
0.000104 0.000252601 0.000211558 
8.73754e-05 0.000181504 -0.000322361 
-9.82195e-05 -0.000224009 3.71253e-05 
9.45665e-05 -0.00124991 -0.00301793 
3.99522e-05 -0.000332521 0.00344182 
-0.000169902 0.00204209 0.000511914 
-0.00163041 0.0178347 0.0411065 
0.00347905 6.91554e-05 0 
-0.000932942 -0.00303036 0 
-7.74827e-05 0.000449828 0 
0.00198875 -0.00669749 0.00118882 
-0.000170515 0.000566474 0 
3.67162e-05 -0.000220425 0 
-0.00039904 0.000477947 7.07518e-05 
9.69549e-05 -0.000470539 0 
0.0110082 -0.000848336 0.220644 
-0.00793442 0.0146248 0.348224 
-0.017434 -0.0158998 0.244835 
0.0200077 -0.100798 0.309455 
0.00112058 -0.000469387 0.000546097 
-0.000299316 0.00011111 0.00058253 
-0.00101717 0.000359436 0.00290635 
1.80964e-05 -0.00243352 0.0845008 
-0.000625363 0.000105414 0.0952995 
-0.00169673 -0.00577638 0.102047 
0.000327814 0.000207367 0.122899 
-0.000559738 -0.00134326 0.0908853 
-0.00157491 -0.0010115 0.00638325 
-0.0022806 -0.0016265 -0.00284234 
0.00248146 0.00175028 0.0016381 
0.0243617 0.0178143 0.0435579 
-0.000637087 3.86357e-05 0.0393064 
0.000141283 -0.00036671 0.0554492 
-0.00025345 0.0002436 0.00102561 
0.000827032 0.00120578 0.0634357 
-9.41095e-05 -0.000547124 0.0557411 
-6.91943e-05 0.00111561 0.100975 
0.000394033 0.000571805 0.084406 
0.00154602 0.00233407 0.062914 
0.00976448 0.0111341 0.11097 
0.00513996 0.00567523 0.0792466 
0.0021873 0.00872777 0.114818 
0.00682666 0.0159791 0.112181 
-0.000441648 -0.000301728 0.00313891 
0.000285858 0.000195451 -0.00234435 
-0.000397234 -0.000270247 0.000552438 
-0.00339748 -0.00613892 0.0623617 
-0.0135106 -0.000130096 0 
-0.00377917 0.0127134 0 
0.0192925 -0.0138926 0 
0.0450777 -0.0220016 0.0286452 
0.00311671 -0.0141263 0.105346 
-0.00458896 -0.0220431 0.104371 
-0.00365801 -0.0265364 0.131087 
-0.00799401 -0.0168402 0.121665 
0.0379342 0.0358722 0.37219 
0.0766494 0.0375817 0.185133 
-0.0302072 0.0545521 0.0403194 
0.0561922 0.00895496 0.159996 
-0.00296808 -0.0349479 0.0574258 
-0.00171828 -0.00767612 0.0961488 
0.00914734 0.02614 0.0381089 
0.00353141 0.0031707 0.0202313 
0.0528903 0.00580318 0 
-0.00291099 -0.0415052 0 
-0.030801 -0.00138784 0 
0.008844 -0.0427612 0.0847402 
-0.000289935 -0.00118356 0.107336 
0.00052502 0.000397689 0.114793 
-0.000555668 -3.22115e-05 0.0887372 
0.000804999 0.00723337 0.109425 
8.91885e-05 -0.00106318 0.000645116 
7.88353e-06 -9.39767e-05 -0.0017044 
-9.19148e-06 0.000109568 0.000448203 
0.00105039 -0.00177441 0.0512532 
-0.00118036 0.00388455 0.000305122 
0.00486857 0.000983378 -0.00500619 
0.00111336 9.92736e-05 -0.00172331 
-0.00716661 0.0297668 0.0140295 
-0.000686766 -0.00128484 -0.00394254 
-0.00627482 -0.0100485 0.0443218 
-0.000554735 0.00123879 0.00438944 
-0.00215495 -0.00635638 0.0259378 
0.0306702 0.00386651 -0.0504719 
-0.02337 0.0482641 0.0302416 
-0.0430054 0.0792287 0.145624 
-0.00960431 0.0399859 0.0227875 
-0.000427893 -0.000415811 -0.00156913 
0.000879669 0.000852878 -0.000441819 
-0.000850847 -0.000824031 0.00212323 
0.0110682 0.00805298 0.0521309 
-0.00809431 0.00172694 0.352157 
-0.00787012 0.00846348 0.336662 
-0.00496508 -0.00746614 0.199496 
0.0348744 -0.0742725 0.367473 
-0.0135208 -0.0026927 0.311898 
-0.0434345 0.0153663 0.142097 
0.00311943 -0.00636857 0.322156 
-0.0877308 0.0597893 0.170687 
0.0205896 0.0180079 0.085523 
0.0448624 0.0205817 0.0916151 
0.0314683 0.0246964 0.0839222 
0.0252443 0.0118056 0.0394273 
-0.00030862 0.000577421 0.140714 
0.000240431 -0.000316037 0.137979 
-7.56607e-06 -0.000643112 0.14565 
-0.00088159 -0.000283319 0.136184 
-0.00820045 -0.00464877 0.0103151 
-0.0151045 -0.0145211 0.0799999 
0.00233022 -0.00252446 -0.00160677 
-0.0130782 -0.016793 0.0555738 
-0.0166715 -0.0107936 0.144161 
-0.0215244 -0.00471675 0.163642 
-0.0580918 -0.0127419 0.176242 
-0.029185 0.004228 0.101165 
-0.000146736 0.000203042 -0.000380154 
-0.00103339 0.00139807 0.00210242 
0.000355371 -0.000494454 0.00132846 
0.0134705 -0.016474 0.0736078 
0.00279449 -0.000696883 0.0605982 
0.0168541 -0.00198654 0.0937504 
0.0101242 -0.00394487 0.0500325 
0.00641713 0.000546758 0.0377038 
-6.56179e-05 7.64296e-05 0.0797054 
0.000131588 2.73076e-06 0.0542566 
0.000262785 -0.000953647 0.0938922 
0.000779543 -0.00319645 0.0634268 
0.000869857 7.13585e-05 -0.00595785 
0.0060197 0.000493824 0.003213 
-0.00450497 -0.000369564 -0.00712885 
-0.0193547 -0.0130286 0.149125 
-0.0349313 0.0218023 0.0334102 
-0.00455433 -0.0288614 -0.0395041 
-0.0418913 0.100467 0.163629 
-0.0160619 0.0507811 0.0142679 
5.03843e-05 0.000407451 0.0538833 
0.00189727 -0.00344536 0.0629793 
-0.00090338 -0.00184947 0.0926356 
0.00208485 -0.003307 0.0655145 
0.00255033 0.00177433 0 
0.00064485 0.00352446 0 
0.00443793 0.0024339 -0.00380999 
-0.00156043 -0.00322066 0 
0.00308061 -0.000811766 -0.00203396 
-0.0035874 0.000956478 0.000174535 
-0.000865386 0.00017975 0.0100562 
-0.00900763 -0.00487247 0.101958 
-0.000112126 -0.000306344 0.137899 
0.000489615 0.000716771 0.12783 
-2.78734e-05 -0.000463345 0.121691 
-0.00154352 0.000105304 0.135294 
9.06797e-05 0.000283485 0.0728071 
-0.00100287 -0.000107622 0.0478666 
-0.000118987 -0.00133073 0.0648469 
-0.00177048 0.000538892 0.0930294 
0.0767059 -0.0206676 0.181453 
0.0608051 0.0933776 0.00562878 
0.0571646 0.0378773 0.118231 
0.0617583 0.0399706 0.288744 
0.00138658 -0.0681924 0.0613793 
-0.0235684 -0.0479078 0.0580093 
0.0164595 0.0392571 -0.0604974 
0.0132023 -0.0500359 0.205311 
-0.000298673 -0.000285836 0.139635 
0.000225507 0.000238705 0.140951 
-0.000367988 -1.61652e-05 0.145967 
-0.00127656 -0.00526469 0.139427 
-0.0199908 -0.0314342 0.14067 
-0.000743753 -0.0300888 0.128225 
-0.0076376 -0.0162735 0.107515 
-0.00344787 -0.0183173 0.117499 
-7.59894e-05 0.000177947 0.138884 
-0.000272984 -0.000391208 0.142181 
0.000563521 4.37944e-05 0.134995 
-0.000138495 0.00515852 0.13977 
0.000346751 -2.84457e-05 0.000519444 
-0.0004338 3.55866e-05 0.0016279 
0.000109516 -8.98412e-06 -0.000404112 
-0.000890094 -0.00158078 0.0659158 
0.000543359 0.000180462 0.104735 
0.000235992 0.000207073 0.128544 
-0.000762737 -0.000226743 0.124241 
0.00150601 -0.00839541 0.117268 
-0.000378956 -0.00168901 0.00395211 
0.000643519 0.00257198 -0.000782 
0.000353577 0.00152835 -0.00273568 
-0.00401814 -0.0046779 0.00874769 
-0.000348383 0.000753937 0.0536958 
0.000197517 -0.000142842 0.0437032 
-9.28383e-05 0.000505499 0.000457435 
-0.000110092 0.0033872 0.057727 
0.00279754 0.0014823 0.129246 
0.0081315 0.0100664 0.107778 
0.00554564 0.00287972 0.105425 
0.000585458 0.00502099 0.128161 
-0.000224693 0.000566738 0.000833255 
-0.000987224 0.000601275 0.00030729 
0.000216934 0.00020882 0.043011 
-0.000593803 0.00223815 0.0600067 
-0.000983217 -0.00142585 0.000593834 
-0.00150526 -0.00197048 0.00406819 
0.00220993 0.00302414 -0.00402156 
-0.0229604 -0.024568 0.0179836 
0.000263716 -0.000658735 0.0492364 
0.000184353 -0.000193548 0.0524251 
0.000975812 0.000675897 0.0967195 
-0.000150064 0.00380139 0.0628489 
0.000847283 -0.000397986 0.115935 
-0.000692783 0.000500734 0.133551 
-3.75029e-05 -0.000888042 0.132449 
0.00256759 0.00531561 0.126684 
-0.000205545 -0.000495278 0.0526097 
-0.000218168 -1.44101e-05 0.000502827 
0.000134585 0.000151776 -0.000314803 
-7.50077e-05 -0.000269534 0.0467019 
-0.00213376 -0.00304705 0.00477376 
0.000573935 0.000890779 -0.00289814 
0.000729869 0.00119541 -0.00510531 
-0.0157755 -0.0222237 0.0483468 
1.33185e-05 -2.14838e-05 -0.000218141 
-0.000147153 0.000372968 0.0395372 
0.000100817 0.000277577 0.0563119 
-0.000121825 -7.64315e-05 0.000549723 
3.86367e-05 0.000473609 -0.000158272 
9.02005e-06 0.000110568 0.000803443 
-7.7365e-06 -9.48341e-05 -0.00107809 
0.0011904 -0.00176673 0.0503562 
0.0002099 0.00212556 0.000157406 
0.000159783 0.00161805 0.00172497 
-1.83606e-05 -0.000185929 -0.00180966 
0.00230877 -0.00652174 0.0461418 
-0.000225528 -0.000307141 -0.00364849 
0.00167699 0.00230028 0.00120423 
-0.000293277 -0.000403635 0.00192917 
0.00690333 0.00496713 0.0440094 
0.0123568 0.00704846 0.105087 
0.00525006 0.0157893 0.0881068 
0.00287163 0.0118482 0.0950702 
0.0146506 0.026244 0.134821 
-0.0275705 0.0615361 0.379104 
0.0489094 0.0447983 0.059683 
-0.0253602 0.0553984 0.160824 
-0.0617573 0.0185144 0.167505 
-0.00104657 -0.00147229 -0.00194841 
-0.0016819 -0.00254747 0.000539405 
0.00104428 0.00150181 0.00128175 
-0.000802716 -0.00238864 -0.000911313 
-0.000105752 -0.000332085 0.00010676 
-2.17437e-05 0.000123115 0.0357101 
0.000235841 0.000497026 0.0487276 
1.3501e-05 0.000299914 0.000139989 
-0.000392353 0.000874924 0.00187192 
-0.000132685 0.00029388 0.000719001 
0.000382786 -0.000891171 -0.000211564 
-0.00117049 0.00569206 0.0597281 
-0.000709506 0.000703021 0.00356325 
0.000540781 -0.000533254 -0.00219717 
-0.00107839 0.00102468 -0.00338498 
0.0141778 -0.01519 0.0838858 
0.00016573 0.000125935 0.107037 
-1.13165e-05 -0.000453185 0.0741791 
-9.55437e-05 5.03455e-05 0.0901565 
0.00400085 0.00220718 0.106017 
0.00200058 -0.000986743 0.0160748 
-0.00126349 0.000595223 -0.00405064 
-0.00723086 0.0032924 0.00169617 
-0.00419319 -0.0118668 0.114933 
-0.000214105 0.000150868 0.00119263 
0.00257267 -0.00187362 -0.00186761 
0.00163806 -0.00123295 0.00700765 
0.00884441 -0.0014653 0.100583 
-0.000702987 -0.000635487 0.000789418 
-0.000115408 -2.2679e-05 0.0469465 
-0.00305899 -0.00451999 0.0660793 
-0.00306849 -0.00321651 0.0574161 
6.45217e-05 4.72218e-05 0.037277 
-0.000480694 -0.000162599 0.000428298 
-5.9688e-05 -0.000219491 0.0438858 
0.00204977 -0.00273882 0.0556904 
0.00166972 -0.000479105 0.00152151 
0.00302165 0.00209522 0.0827381 
0.0030475 0.000341528 0.00289505 
-0.000605501 0.00327314 0.0651196 
0.00264329 -0.00283185 0 
-0.000445415 -0.00187465 0 
-0.00139243 0.00131177 0 
0.00420935 0.0125265 0.00373921 
9.22821e-05 0.000373479 -0.000173699 
2.12174e-05 -1.10049e-05 0.00100557 
-0.000219202 -0.000867688 0.000202643 
0.00146605 0.000236619 0.0597116 
-0.000269653 -0.000362105 0.0897588 
0.000290241 0.000335835 0.114902 
-0.000314886 -0.000279619 0.0920059 
0.00147102 0.00829244 0.106803 
-0.00185542 -0.0057618 0.0815988 
-0.00871014 -0.0102986 0.0933058 
-0.0077926 -0.0108949 0.101778 
-0.00494374 -0.0223033 0.123565 
-0.00961858 0.00826657 0.0643151 
0.00424973 -0.00606835 0.0878088 
-0.00855095 0.000377642 0.12107 
-0.0246667 -0.010464 0.0985062 
-0.00043947 0.000990992 -0.000911661 
0.000523203 -0.00125908 0.00216699 
1.66316e-05 0.000170396 -0.00280215 
0.00571274 -0.0112326 0.0519727 
0.0443595 0.0517544 0 
-0.0560251 -0.0626821 0 
0.0370606 0.0607038 0 
0.0488423 0.05877 0.204882 
0.000360914 0.000585943 0.041017 
-0.000446018 -0.000426517 -0.000593929 
0.000620304 0.000605183 0.000546876 
0.000101797 7.94985e-05 0.00055068 
0.000266283 -0.000964022 -0.00177097 
0.00104891 -0.00400393 0.00385244 
-0.000982854 0.00357008 0.00591472 
-0.00730466 0.0340802 0.0755047 
-0.0394909 -0.002025 0.22383 
-0.0399596 -0.0365385 0.159825 
-0.00935187 0.0108188 0.3242 
-0.0599353 -0.141416 0.11629 
-0.00306864 -0.00485275 0.0844083 
-0.00534926 -0.0125278 0.0962733 
0.00151044 -0.0144588 0.105317 
-0.00463908 -0.0199268 0.124886 
0.000897183 -0.00160399 0 
0.00400355 0.000629926 0 
0.00280092 0.00353893 0 
0.000834126 -0.00426065 0.000946206 
5.19307e-05 0.00010049 0.0406494 
-0.000444368 -0.000521911 0.0480188 
-0.000149118 -0.000578005 0.000416635 
-0.00265455 -0.0029807 0.0567847 
0.020668 0.0296705 0.151777 
-0.00418238 0.0162335 0.0897213 
0.0130272 -0.00233707 0.103497 
0.0256888 0.023806 0.132629 
4.52563e-05 -0.000194301 0.0437937 
0.00200901 -0.00264566 0.0555329 
-0.000712493 -0.000396057 0.000965673 
0.00156173 -0.00115186 0.0519651 
-0.000534844 -0.000801031 0.0017285 
0.000398631 0.000585398 -0.000826801 
-0.000439813 -0.000581938 -0.00162527 
-0.004019 -0.00675262 0.0654195 
-0.000393271 0.0013222 -0.00155996 
-0.0033786 8.13817e-06 -0.00115229 
0.0187915 0.0116765 0.0163812 
0.0244227 0.0134015 0.0302243 
0.000130942 -6.57727e-05 0.126014 
-0.000534824 -0.00117474 0.0970605 
-0.000157281 0.000134982 0.11476 
0.00290908 0.0101533 0.123647 
-0.00297685 0.00122918 0.326718 
0.00159967 -0.0247254 0.351165 
-0.00517315 -0.00675953 0.306709 
-0.0553062 0.0274994 0.278888 
0.00102494 0.00216368 -0.000297829 
0.000816532 0.00114852 0 
-0.000608428 -0.00221881 0 
0.00140427 0.00194951 0 
0.00340937 0.00832176 0.0803225 
0.00364314 0.0101296 0.115444 
0.00287281 0.00889984 0.105055 
4.28583e-05 -0.000423027 0.0664745 
-0.000786007 0.000756202 0.000427752 
0.000892561 -0.000860717 0.00284232 
0.000634564 -0.000610356 -0.000587514 
0.00305019 -0.00560519 0.0658263 
0.000103519 0.000579996 0 
-0.000172176 -0.000678979 -0.000310442 
8.1285e-05 -0.00043644 0 
-0.00012955 -0.000745064 0 
-0.00135824 -0.0123861 0.104486 
-0.00189788 -0.0106852 0.12458 
-0.00387642 -0.0232653 0.132472 
-0.00567924 -0.016842 0.122193 
0.00202552 0.00210411 0.00103025 
0.00160703 0.00160063 -0.000904684 
-0.00167365 -0.00169246 0.000303981 
0.00195417 0.00145408 -0.000514924 
0.000419359 -0.000687677 0.0832969 
-0.00282489 -0.00566614 0.0632518 
-3.95882e-05 0.000426818 0.0475408 
-0.00387026 -0.00380956 0.0587862 
0.00783045 0.0210785 0.167824 
-0.00968552 0.00603036 0.0871019 
-0.00701985 -0.00804581 0.160391 
0.0159298 0.00611872 0.0988252 
-0.0650267 0.00641193 0.0738151 
0.00120904 0.0098692 -0.0218861 
0.0280577 -0.0119486 0.0284078 
-0.0565538 0.0307243 0.146048 
-0.0328655 -0.00541679 0.390047 
-0.0646438 -0.0295811 0.181556 
-0.0154671 -0.0809951 0.0239473 
-0.0591212 0.00738561 0.234177 
0.000107212 0.00127804 0.000274543 
4.33803e-05 0.00051712 0.00322119 
8.19122e-05 0.000976445 -0.00171699 
0.003871 -0.00780316 0.00934731 
0.0164618 -0.00981122 0.0168686 
-0.0303026 0.000634431 -0.0181094 
-0.0147832 0.0433079 0.0799987 
-0.027774 0.0252027 0.241484 
0.000304614 0.000614446 -0.0010883 
0.00548505 0.00410344 0.0611974 
-0.001503 -0.000172607 0.000112944 
0.0089316 0.00355188 0.058119 
-9.66354e-05 0.000108423 0.000695533 
0.000330413 -0.000460436 -0.000750034 
-0.000444359 0.000636693 0.000691636 
-2.61451e-05 0.000553203 0.0430915 
4.68846e-05 -0.000327053 0.000444691 
-0.000395103 -0.000248065 0.0519596 
0.000298484 -0.000100328 0.000479514 
-0.00133365 -0.00078772 0.0646091 
0.0312939 0.0265022 0.033315 
-0.000223452 -0.0377915 -0.0485458 
0.0311885 -0.00406675 0.0239118 
0.0604314 0.0624309 0.143952 
0.000422574 0.000414714 0.000522727 
-0.00103335 -0.00101571 0.0014497 
-0.000307474 -0.000301897 -0.00013456 
0.00743362 0.00624914 0.0547203 
-0.000805365 -0.0761742 0 
-0.0401358 0.0281729 0 
-0.00380975 0.0441406 0 
-0.0165167 -0.123122 0.127624 
-0.0141797 -0.0246107 0.153254 
0.000996782 0.00556933 0.351632 
-0.0518077 0.0176692 0.135727 
-0.0742618 0.0396367 0.135893 
-7.50322e-05 0.000129952 0.0435466 
5.64514e-05 -7.99685e-05 0.0753734 
0.00223233 -0.00307909 0.0560965 
0.00150504 -0.0014364 0.0515763 
-3.17208e-05 0.000162394 0.000751491 
0.000135479 -0.000536515 -6.52912e-05 
-8.5902e-05 0.000330053 -0.000161384 
0.0019602 -0.00422823 0.055673 
0.0631748 -0.0170179 0.139996 
0.0172313 -0.0246896 0.320264 
0.0618769 -0.0509212 0.15194 
0.0109967 -0.031216 -0.129588 
0.0132624 0.0908923 0 
0.0399801 0.0825783 0 
-0.0472542 -0.109963 0 
0.0517441 0.108375 0.22042 
-0.00704688 -0.0158997 0.08926 
-0.00140999 -0.00933537 0.0923961 
-0.00216573 -0.00903004 0.0842036 
-0.00400916 -0.0209924 0.122229 
0.000489338 8.44189e-05 0.0839903 
-0.000259192 -9.84179e-05 0.0532781 
0.000525815 0.000658155 0.0936264 
-0.000191862 0.00535009 0.0576281 
-0.00239734 -0.00112088 0.00250121 
-0.000838611 -0.000393656 0.00118859 
-9.40638e-05 -3.35728e-05 -0.00199034 
0.00148252 0.000291234 0.100209 
-0.000252896 0.000232067 0.077134 
-3.96832e-07 0.00136836 0.102812 
-0.000196874 -0.000264413 0.0547781 
0.00157559 0.00167326 0.0616288 
-9.26763e-05 0.0001837 0.0506109 
-0.000102904 -0.00248852 0.06832 
-0.000247911 0.000673112 0.000174698 
-0.000985751 -0.00144132 0.0650876 
0.0538987 -0.0401706 0.0882597 
0.0225901 -0.0729182 0.140908 
0.0169335 -0.0338331 0.158675 
0.0162834 -0.0299733 0.260419 
-0.000115898 -0.00174527 0.000232711 
-0.000889732 -0.000903725 0 
0.000678367 0.00122725 0 
-0.000408969 -0.00113711 0 
9.95712e-05 -0.000231337 -0.000307016 
-0.000412378 0.000342143 0.000594242 
0.000152945 -0.000223632 0.0437459 
0.00146376 -0.00115004 0.052085 
0.0201825 0.0931916 0 
-0.0172904 -0.0718909 0 
-0.0272073 -0.0627123 0 
-0.0402026 -0.117825 0.191928 
0.00181031 -0.0104925 -0.0224393 
-0.00987523 -0.0194792 0.0185217 
0.011075 0.0569701 0.0512517 
0.0221979 0.048233 0.129149 
0.000168391 -0.000214213 0.000772291 
-0.000318996 0.000441367 -0.000743388 
0.000439912 -0.000647011 0.000249332 
-2.44943e-05 -0.000642155 0.045933 
-0.000767198 0.00296252 9.31964e-05 
0.000460145 -0.00199389 0.00228652 
-0.000162482 0.00102883 -0.00431239 
0.00471992 -0.00948501 0.00617196 
0.00170279 0.00143539 0.00177838 
0.00490724 0.00443607 0.0617717 
0.00130064 6.6386e-05 -0.00209825 
0.00709079 0.00422625 0.0602521 
-0.000243804 0.000638508 0.0016481 
-0.00144102 0.0104862 0.0475852 
8.6781e-05 0.00074331 -0.00176831 
-0.000719994 0.00551483 0.0454582 
0.00166048 -0.00178503 -0.00157898 
-0.000220646 -0.000524394 -0.000229625 
0.000511117 0.00225648 0.000289887 
-0.0012599 -0.00287834 0.00312369 
0.00100863 -0.00016173 0.113685 
0.00231719 0.00745472 0.113008 
-0.0011126 0.000279786 0.127129 
0.00237063 0.006309 0.12776 
-0.000351575 -0.00326523 0.000189146 
-0.0018081 0.000625752 0.00215464 
0.00181323 0.00191476 -0.000907119 
0.00383522 0.000106195 0.000400675 
-0.00481683 0.0550181 -0.063798 
-0.00212437 -0.0697209 0.0729547 
-0.0449131 -0.0725793 0.0856253 
-0.0263333 -0.0489954 0.222977 
-0.00780944 -0.0161116 0.104988 
-0.0107114 -0.00339724 0.0892045 
-0.0199409 -0.0315269 0.141736 
-0.00407184 -0.0195881 0.121832 
-0.00053056 -5.54971e-05 0.0404276 
-0.000552002 0.000433454 0.0763758 
-2.35139e-05 -0.000371528 0.0550264 
0.0015923 0.00166695 0.061573 
0.013194 -0.0185919 0.0425651 
0.0109207 -0.0294516 0.0368676 
0.0445659 -0.067234 0.134348 
0.0250651 -0.0396987 0.0417904 
0.0221553 -0.00429009 0.379739 
0.0615746 0.0499976 0.209558 
0.0640038 0.115233 -0.00394052 
0.051977 -0.00884242 0.213446 
-0.000108828 0.000136699 -0.000691266 
0.000175811 -0.000186877 0.00031618 
0.000235895 0.000529347 0.0439346 
-0.000385668 0.000331178 0.00116317 
-0.0337236 0.0185828 0.0343274 
0.0104413 0.035571 -0.027228 
-0.00751321 0.0075127 0.00341283 
-0.0747484 0.021359 0.137347 
-0.000207434 -0.000767343 -0.000315125 
-7.35363e-05 0.000283787 0.000421391 
0.000426687 0.00101043 0.054297 
-4.66168e-05 0.000220802 0.0436133 
-0.000243746 -6.73579e-05 0.0401422 
-0.000350424 -0.000507153 0.000570361 
-0.000259714 -0.000374371 0.000593406 
-0.00318598 -0.00239842 0.058256 
-0.00401769 0.063958 0.133548 
-0.0262038 0.057757 0.141145 
-0.00189767 0.0374485 0.0741206 
-0.0138293 0.0486314 0.00232601 
0.00589065 0.00459062 0.0781305 
0.00174314 0.010705 0.106136 
0.00212109 0.00866981 0.113853 
0.00662729 0.016478 0.113938 
0.00457401 0.00313181 -0.00322771 
0.00310648 0.00192453 -0.00301839 
0.00384196 0.00271621 0.00634721 
-0.00426942 -0.00279728 -0.000420036 
-0.00017584 1.84913e-05 0.0476513 
0.000699988 2.62956e-05 0.0416107 
-0.000113348 0.000428524 0.00144897 
0.00326652 0.00194561 0.0612076 
0.000470689 0.000817479 0.00107818 
-0.00437158 -0.00604722 0.0657888 
-0.000764635 -0.00088112 0.00192643 
-0.00317684 -0.00443824 0.0570292 
0.00581991 -0.0128865 0 
0.00804397 -0.0183136 0 
-0.0243221 -0.00186658 0 
-0.0470254 0.0252535 0.0268573 
-6.33757e-05 0.000145096 0.0442277 
0.000576739 0.0004408 0.0529519 
-0.000299816 -0.000332579 -0.000597674 
-0.00042216 0.00100852 0.00150099 
-0.0327977 0.0560896 0 
0.0600625 -0.0489801 0 
-0.0390366 0.0414454 0 
-0.0317841 0.12047 0.170755 
0.000491409 0.000478362 -0.000458086 
-0.000551278 -0.000486277 0.0403599 
-4.50218e-05 -3.31255e-05 0.000290863 
-0.000650117 -0.000634281 0.000572904 
-0.00125612 -0.000321295 -0.00152013 
-0.00227218 -0.000598667 0.00117013 
0.000795905 0.000205227 0.000593802 
0.00404179 0.000966728 0.0937389 
-0.00461804 -0.023959 0.129178 
-0.00156054 -0.0103871 0.125929 
-0.00274762 -0.0161958 0.134803 
-0.00600768 -0.017068 0.121427 
-0.000775528 0.0008047 0.00916722 
-0.000609614 0.000626396 -0.00399854 
0.00388182 -0.00400161 0.00190243 
-0.00102728 0.00876276 0.092011 
-0.00100831 -0.00107088 0.00220665 
0.00011359 0.000458109 -0.000473067 
-0.000279196 -0.000134193 0.0408657 
0.000523452 -0.000803721 0.0474681 
0.0267016 -0.0305481 0.204221 
0.0495581 0.00318702 0.133713 
-0.00727089 0.00161924 0.345442 
0.128525 0.0216408 0.032596 
-0.000355646 -0.000147839 0.00125506 
6.79439e-05 -0.00092855 -0.000171142 
2.00362e-05 0.00128837 0.0478944 
4.8068e-05 0.0035637 0.0447119 
0.0292962 0.0409049 0.190505 
-0.00687057 0.00141905 0.192796 
-0.0722237 -0.01353 0.0653736 
-0.021835 0.020452 0.225803 
0.00120527 -0.00127239 -0.00531396 
0.0131003 -0.0126929 0.0260173 
-0.00297188 0.0026409 -0.0234798 
0.0388897 -0.0447181 0.0518287 
0.000536141 0.000456391 0.00253169 
-0.00125446 -0.00110493 -0.00469776 
0.00337073 0.00328381 0.00221037 
0.0135241 0.011326 0.0114619 
-0.000401041 -1.60558e-05 0.0445851 
0.000375824 0.00137946 0.0850802 
-0.000380403 8.85524e-05 0.0525107 
0.00104711 0.00312963 0.0625425 
-0.000471699 -0.000102283 0.0602283 
0.000832057 0.00134138 0.106828 
-2.71939e-05 -6.76694e-05 0.075736 
-0.000359144 0.00243192 0.0627861 
-0.00039562 -0.000594202 -2.53358e-05 
0.000772872 0.00112029 -0.000770398 
0.000477758 0.000717118 2.14773e-05 
5.20232e-05 0.00144984 0.000236181 
0.000664202 0.000842512 -0.000705756 
-0.000197873 -0.000590708 -0.00040141 
-0.00272751 -0.00173119 -0.00207714 
0.00180666 -0.00283368 0.00147566 
0.000619457 -0.00577068 -0.00225333 
0.00259369 -0.00253118 0.0118758 
0.000920917 0.00520065 -0.00373068 
0.002256 -0.0112325 0.00991548 
0.000485457 0.000425855 0.110349 
-0.00085122 -0.000670374 0.125825 
0.000158705 0.00094718 0.0981686 
-0.00179093 -0.00840606 0.124242 
8.59582e-05 -0.000285086 0.107785 
-3.09899e-05 0.00027138 0.114951 
-0.00031241 5.47226e-06 0.133442 
0.00365501 0.00261057 0.106065 
0.00033875 -0.000705603 0.00121854 
-7.68103e-05 0.00015204 -0.000405777 
6.55721e-05 -0.000453071 0.0378302 
1.89163e-05 -8.47269e-05 -0.00066985 
0.000271303 -0.00103198 -0.000103778 
-0.00120864 -0.00108219 -0.00147525 
-0.00104475 0.000681397 -0.000923279 
0.00281038 -0.00449082 0.00493746 
-3.42691e-05 0.000489039 0.000196797 
-2.39228e-05 0.00044584 0.000743803 
5.32256e-05 -0.000643689 0.000367072 
0.000859179 -0.00249981 0.0517303 
-0.00665017 -0.0512954 0.203108 
0.00286717 -0.00829334 0.35338 
0.019077 0.00322117 0.352671 
-0.0991372 0.0674981 0.305853 
-0.00147976 0.0045944 -0.0204664 
-8.26294e-05 0.000338018 -0.00284539 
-0.00191126 0.00406825 0.0125593 
-0.0308305 0.053059 0.101613 
0.000215243 0.000826597 -1.3444e-05 
-0.000219547 -0.000368912 0.0406638 
-0.000105883 -0.000961578 0.0484318 
-0.000130337 -6.3214e-05 0.000212856 
-2.35758e-05 4.7558e-05 0.0458737 
0.000124829 0.000778179 0.00204433 
0.000306247 -0.000441726 0.0552614 
0.000919349 -0.00223443 0.0623262 
-0.000128916 -0.00012807 0.0057218 
0.00133285 0.00129217 0.000828032 
-0.00232989 -0.0022589 -0.00122908 
-0.0163386 -0.0157237 0.0811068 
0.000174568 0.00224061 0.00074483 
-0.000882152 -0.00180279 0 
0.00084757 0.0016805 0 
0.000767896 0.00292493 0 
-0.000496269 0.0306629 0.0297366 
-0.000337913 0.0758417 0.0970771 
-0.00115604 0.0323658 0.0883582 
-0.0088152 0.0359526 0.0359814 
-1.48448e-05 -8.59626e-05 -2.97744e-05 
1.6105e-05 -0.000244524 0.0437246 
-0.000302899 -0.000362818 0.000438389 
0.00151791 -0.001042 0.0522742 
0.0151498 0.00344592 -0.000962515 
-0.00472658 -0.000989771 -0.0106617 
0.00431244 0.00106138 -0.010615 
-0.00191164 -0.0292095 0.177835 
-0.000333806 -4.38021e-05 0 
-0.00288727 0.00207157 0 
0.000918088 0.0036168 0 
-0.0010023 -0.0100957 0.00092075 
-0.0436491 -0.0238959 0.406237 
-0.077534 -0.0186191 0.21009 
-0.0806268 0.000258958 0.227755 
-0.0650564 0.127472 0.106147 
0.0287663 -0.028027 -0.0112324 
0.0142994 -0.0242121 0.053236 
-0.00542651 -0.000283377 -0.0154271 
0.0250019 -0.0481649 0.0578903 
0.00311497 -0.00215999 -0.00598571 
-0.00213713 0.00746282 0.00160686 
-0.00275024 0.00914615 0.00215777 
-0.00962248 0.0374062 0.0235387 
0.000473027 -0.000611098 0.114538 
-0.000440309 0.000201598 0.126998 
-0.000359726 -0.000138881 0.133464 
0.00237624 0.00652668 0.127439 
-0.00218698 -0.00213966 0.00549909 
0.00184069 0.00178762 -0.00197118 
-0.000747865 -0.000703457 -0.00378435 
-0.0183247 -0.0204355 0.060019 
-0.00111343 0.000361085 0.00320194 
3.69382e-05 -2.42147e-05 -0.000644019 
-0.000287479 7.70191e-05 0.000114233 
-0.000382487 -0.00271954 0.0852924 
-9.72022e-05 0.000394236 0.0394083 
0.000380413 0.000516933 0.0501106 
0.000307702 -0.00076866 0.08183 
-0.00260188 -0.00329249 0.0571943 
-7.78505e-05 -0.000746796 -0.000221499 
0.000103281 0.000487104 0.0412638 
0.000136658 0.000567271 0.0508639 
5.04641e-06 0.00022172 0.000361597 
-0.000646313 0.0008789 -0.00665863 
0.000367509 -0.000756133 -0.000167377 
0.00248567 -0.0047849 0.00394556 
0.0116127 -0.0218616 0.0501475 
-0.000282645 0.000338386 0.0453701 
0.000215872 0.000256247 0.0362716 
0.000145373 -0.000237568 0.0742022 
0.0019137 -0.00269041 0.0565268 
-0.000185972 0.000417068 0.0847236 
-9.27642e-06 0.000458012 0.0842209 
-9.06798e-05 -0.00130714 0.0488294 
0.00353046 0.00365337 0.0607614 
-0.0017956 0.00351345 0.00168847 
-0.00164876 0.00873695 0.0018714 
0.00731123 0.00161185 -0.00675023 
-0.0109857 0.0301017 0.010911 
-9.0497e-05 -0.000245663 0.0646767 
0.00010597 0.000498867 0.0313617 
0.000140031 0.000241825 0.0486231 
-0.00315317 -0.00481516 0.0623749 
3.93294e-05 -0.000394728 0.0458489 
-7.77377e-05 -6.57327e-05 0.0437813 
-0.000150391 0.000407592 0.000922196 
0.001493 -0.00122527 0.0519974 
-8.02868e-05 0.000448611 0.0755268 
-0.000254226 -0.00046986 0.101291 
0.000142 0.000215907 0.0743599 
0.0032805 -0.00467943 0.0991687 
0.00029919 0.000422839 3.89437e-06 
-0.000311338 -0.00045224 0.00103433 
0.000761988 0.000380503 0.0417403 
0.00348732 0.00208972 0.0616722 
0.000298794 -0.000358338 0.00155179 
0.000287097 -0.00038132 -0.00020517 
-0.0002937 0.000375334 -0.000466423 
0.00304556 -0.00485416 0.0635588 
-0.0153405 0.0112391 0.360017 
-0.0592848 -0.0317017 0.199935 
-0.00146904 -0.0589818 0.214843 
-0.0199981 -0.0703007 -0.0256014 
0.00563279 -0.00196524 -0.00608029 
-0.0080167 -0.000343117 0 
0.00965461 -0.000847848 0 
0.00537133 0.00319333 0 
0.00111157 -0.00219163 0.00192336 
0.000856386 -0.00212839 -0.00688887 
0.00297472 -0.00581298 0.00613888 
-0.0299331 0.0569004 0.106533 
-0.0652605 0.0792241 0.0900704 
-0.024598 0.0581185 0.141387 
0.00705051 0.0622964 0.134686 
-0.00756329 0.0322185 0.000981636 
0.00071706 -0.00324048 -0.00059733 
-0.00203165 0.0127734 0.0399814 
0.00140112 0.00171721 -5.11581e-05 
-0.000859067 0.00410524 0.0267662 
0.00423628 0.00889648 0.352544 
-0.00137448 -0.0392002 0.171513 
0.000307262 0.02609 0.337939 
-0.0162791 -0.0877566 0.218512 
-7.45847e-06 0.000106303 0.000243842 
1.26804e-05 -0.000180728 -8.78532e-05 
-0.000106031 -7.27954e-05 0.0439011 
3.00437e-05 -0.000428201 8.86896e-05 
-0.000405915 -0.000292275 0.0410793 
-0.000194041 -0.000159894 -0.000885113 
0.000163856 8.90247e-05 -0.000520126 
-0.000658417 -0.000375715 0.00159423 
6.79447e-06 0.000117546 0.000158656 
4.06507e-05 0.0006978 0.000916178 
-1.56541e-05 -0.0003087 -0.00059454 
-0.000292512 -9.41391e-06 0.0485527 
0.000735697 -0.000348488 0.00116238 
-0.000347923 0.000170876 -0.000720309 
-0.000373108 0.000125564 0.00084848 
0.000120639 0.000741059 0.0482792 
0.000118499 -0.000127811 0.000209965 
-0.000217957 0.000160372 0.0383038 
0.000186524 -1.24481e-05 0.0353001 
-0.00101417 0.00021841 0.0487371 
-0.0204563 -0.00732051 0 
-0.0274637 0.0189646 0 
0.0276179 -0.00381732 0 
-0.0194393 -0.00742175 0.0579748 
0.000926846 0.000257782 -0.00620854 
-0.000667508 -4.0462e-06 0.0137432 
0.00329909 0.000856002 -0.0252425 
0.0202529 0.0243235 0.135061 
6.26968e-05 0.0014896 0.00131955 
0.000173678 0.000415822 0.0531524 
-0.000205972 0.000258124 0.0398851 
-6.94331e-05 -0.000384268 -0.00053075 
0.0175524 0.00146955 0 
-0.0106712 -0.00441882 0 
0.0110874 -0.00697667 0 
-0.0109494 -0.0203312 0.0101067 
0.000935168 -0.000270531 0.000710532 
0.00162814 -0.00298544 0.0641691 
0.000439181 8.10434e-05 0.0538642 
0.00172762 -0.00301482 0.0654932 
-0.00250053 0.00358765 -0.003072 
0.00338341 -0.00878865 -0.0073855 
-0.00507594 0.0130766 0.00924781 
-0.00124487 0.00285955 -0.00359745 
-0.000963366 -0.000748091 0.0695321 
-0.00011306 -0.000348971 0.0466432 
0.000906021 -0.000567705 0.00233095 
0.000338213 0.000228314 0.000108549 
0.00112536 0.000482877 -0.00113439 
0.00028542 0.000176755 0.00343561 
-0.00177146 -0.000755413 0.00210759 
0.00848028 0.00458683 0.081061 
0.000106917 -0.000230934 -0.000207501 
0.00030322 -0.000428419 0.0462513 
-0.000225485 0.000352402 0.0010086 
0.00103543 -0.00117355 0.0513205 
-0.00149508 0.000424636 0.00141314 
0.00123445 -0.000361033 -0.000779972 
0.000459887 -0.000129439 -0.000478441 
-0.00246747 0.00229417 0.0854432 
0.0156281 0.0166067 0.342611 
0.0203383 0.00364096 0.329205 
-0.00359409 -0.00119263 0.372194 
-0.103256 0.070783 0.331459 
-0.000432487 -5.18281e-05 0.140434 
0.000983586 0.000117519 0.128019 
0.000221243 0.00055711 0.140053 
-0.00118363 -0.00575635 0.13985 
0.000360953 0.000370134 0.00475051 
0.00159313 0.00213555 -0.00203534 
0.00177141 0.00243517 -0.00504229 
-0.0324039 -0.0295116 0.0290432 
0.0860346 0.00465233 0.0992775 
0.0670957 -0.060855 0.0829262 
-0.0218526 0.0429906 -0.0185713 
0.0969191 -0.00790264 0.248234 
-0.0561017 0.0310307 0.151419 
0.0129482 -0.00925315 0.410922 
-0.0161293 0.0583556 0.209894 
-0.0155456 0.130608 0.0163545 
-0.00138128 -0.00156721 0 
0.00116607 0.000738334 0 
-0.000864081 3.48531e-05 0 
0.00530255 0.00986101 0.00386282 
-0.000731019 -0.000179359 -0.000394745 
-0.00139689 -0.000336589 -0.00124907 
0.00064681 0.000147732 0.00123241 
0.00812927 0.00296029 0.0871565 
1.10455e-05 0.000974017 0.106269 
-0.000186255 -2.19548e-05 0.09531 
0.000160921 -0.000822393 0.121379 
-0.000347199 -0.000435748 0.0922528 
0.000323293 -0.000538457 0.0474587 
-0.000139037 5.31325e-05 -0.000133229 
0.000349923 -0.000109411 0.00134825 
-1.20887e-05 -1.06587e-05 -0.000648183 
0.000204391 -0.000448468 0.000939331 
-0.000176953 -0.000217696 0.0458291 
-0.000184352 -0.000616146 0.0709163 
0.000349049 0.000289807 -1.15942e-05 
0.000269228 2.18831e-05 -0.00090209 
0.000753943 6.12813e-05 0.0013681 
-6.16292e-05 -5.00929e-06 0.00195169 
0.000414662 0.00198347 0.0669636 
0.000385191 0.000824526 0.0846056 
0.00060096 0.000579098 0.0963162 
-0.000417665 -0.000503149 0.0529689 
0.00106323 0.00428916 0.0628057 
0.00157509 -0.00655673 -0.00537348 
0.000635425 -0.0015176 0.0106614 
-0.000701738 0.0024586 -0.00286915 
-0.0147535 0.0511002 0.0392063 
0.00016789 -0.000195407 0.0367407 
-0.000206382 -0.000486149 0.000792719 
-0.000126348 -0.000291927 0.000487516 
0.00206062 -0.00249554 0.0563602 
0.000303411 -0.000104176 0.00103214 
0.0022523 0.0037394 -0.00159457 
0.000990834 -0.000506911 -0.00288232 
0.000220151 -0.000149011 -0.002005 
-0.0873641 0.0170296 0.121634 
-0.0594844 0.0695062 0.123829 
0.0111329 0.0365811 -0.0157229 
-0.0565141 0.034283 0.300866 
-0.0003863 -8.13716e-05 0.0706147 
-3.09605e-05 0.000502468 0.0459567 
5.92969e-05 -0.00017439 0.0800693 
0.000670932 -0.00259741 0.0621432 
9.82344e-05 -0.000330172 0.0542991 
-0.00014205 0.00110709 0.00185276 
0.00055646 -0.00012291 0.0455901 
0.00146092 -0.00335701 0.0610889 
8.02275e-05 -0.00108349 0.00253277 
-0.000119084 0.00139004 0.00070456 
0.000117651 -0.00138329 -0.000492112 
-0.00165949 0.0146382 0.0451722 
-0.00379195 -0.00647473 0 
0.00749158 0.00917066 0 
0.00938131 0.00702921 0 
-0.0419023 -0.0394805 0.00542549 
-0.0516658 -0.0499582 0.164376 
-0.0475881 -0.0662937 0.152226 
-0.0327292 -0.0456145 0.0204287 
-0.0211497 0.00333656 0.0348889 
-0.00288063 -0.000908752 0.00716605 
-0.0032535 -0.000781243 -0.00268092 
-0.000312401 1.2212e-05 -0.00409131 
0.0327143 0.0183715 0.103313 
0.0166549 -0.0198285 0.198481 
-0.015795 0.0198904 0.370559 
-0.00106034 -0.046672 0.160108 
0.0118993 -0.0648186 0.178575 
-0.000605315 -0.00139606 2.38368e-05 
0.000439956 0.00104266 -0.00047279 
5.75666e-05 -0.00189431 7.51359e-05 
-0.000310936 -0.000692169 -0.000393982 
0.00802616 0.0312046 0.164639 
0.00774991 0.01887 0.116331 
-0.00954461 -0.00172225 0.089347 
0.0089769 0.0067859 0.103248 
0.000355649 -0.000357368 0.0460112 
-0.000154471 -0.000419107 0.000407278 
-0.000414145 2.26952e-05 0.000274978 
0.00119317 -0.00114635 0.0512521 
-0.00188704 0.00090084 0.000140566 
-3.55305e-05 -5.23966e-06 0.00180022 
0.000340117 -0.000145047 -0.00142763 
0.00158962 -0.00342575 0.10044 
0.00314608 -0.00617962 0.0247989 
-0.00353527 0.00662681 -0.0223493 
-0.000456079 0.00146067 -0.0134178 
-0.0355017 0.0342566 0.148664 
-4.84458e-05 -0.000490588 0.00157246 
6.51241e-07 6.59481e-06 -0.00185089 
-0.000210866 -0.00213534 -0.000582988 
-0.000396428 0.0126667 0.0409485 
-0.0088905 0.00973874 0 
0.00190123 -0.00245277 0 
-0.0109267 -0.0070836 0 
0.0432572 -0.0553083 0.00741987 
-5.0307e-05 7.51125e-06 -0.000306063 
2.63595e-05 -9.72116e-06 0.000630364 
0.000386512 -4.01012e-05 0.000921063 
9.62552e-05 0.00100099 0.065577 
0.000102064 0.000242395 0.00122186 
-0.000297126 -5.88971e-05 0.0613195 
0.000560778 -0.000140842 0.0384798 
-0.000732149 0.00173177 0.0631733 
-0.00273482 0.00116633 -0.00324661 
0.0105489 -0.00457263 0.00745929 
0.00461953 -0.00227109 -0.01516 
-0.0419188 0.0184721 0.213756 
0.000156653 0.00223271 0.000414081 
0.00101125 0.00175271 0.000576763 
-0.00010235 -0.00145875 -0.000748478 
-1.69512e-05 -0.000241598 -0.00103225 
0.00102806 0.000649181 -0.0123268 
-0.00485397 -0.00458067 0.00808173 
-1.55394e-05 7.17795e-05 0.00288453 
-0.034837 -0.0255124 0.0348137 
-0.00069294 -0.000977922 0.00185985 
0.000490921 0.000739685 0.00133459 
0.00012846 0.00017766 -0.000550301 
-0.00429624 -0.00604411 0.0651473 
0.000536255 -0.00140199 0.0963741 
-0.000346019 -0.000461926 0.0844318 
-6.57414e-05 0.000815032 0.0522503 
-0.00173141 -0.00345568 0.0662539 
0.000172807 -0.000672716 0 
0.00025693 0.000730809 -1.78348e-05 
7.50175e-05 0.000251549 0 
-2.99486e-05 0.00132852 0 
-5.19307e-05 0.000733471 0.000397765 
2.75713e-05 -0.000389418 0.000139197 
0.000447415 0.000406042 0.049045 
-2.23251e-05 0.00031532 -0.000237178 
0.000246127 0.000241716 -1.49556e-05 
-0.000506613 -0.000497506 7.89757e-05 
-0.000357877 -0.000350282 0.00206468 
-0.00378721 -0.00544742 0.0586719 
3.06455e-05 0.000445625 0.000574324 
8.07907e-06 0.00011748 -0.000168331 
6.03294e-05 -0.000516823 0.0463579 
-1.90338e-05 -0.000276776 0.000221128 
0.000422418 -0.000184157 -1.93928e-05 
-0.000361579 6.78807e-05 0.000556226 
0.000143627 -0.000357283 0.0554413 
0.000872582 0.00105847 0.0643442 
-0.000521575 0.000138752 0.115485 
7.17575e-05 -0.00013485 0.09008 
0.000286186 0.000392971 0.085993 
0.00381573 0.00251681 0.105759 
0.00107618 -0.00227168 -0.000433939 
0.00362659 -0.0023163 0.00502149 
0.00642424 -0.0079521 -4.51961e-05 
0.0252802 -0.0333949 0.00742597 
0.000112543 -0.00018097 0.054584 
0.000643702 -0.000765293 0.00116493 
-0.000447376 -8.14326e-05 -0.000274353 
0.00212137 -0.0018241 0.0636335 
0.000246072 -0.000340514 0.000304779 
0.000453404 -0.000697621 0.0555837 
-0.000555343 0.00108098 0.000801893 
0.00198126 -0.00231065 0.0641545 
-0.000861551 -0.000231913 -0.00467355 
-0.00025545 -5.44458e-05 0.000453744 
0.00309363 0.00055149 -0.0193556 
0.0323672 0.0314542 0.103907 
-0.000120122 0.000751847 0.12634 
0.00029407 0.000283901 0.127154 
4.62151e-05 -0.000414355 0.105178 
0.0011648 0.00700189 0.111318 
0.000567407 0.000337952 0.000983376 
-0.000107081 -5.08163e-05 -0.00054279 
6.11522e-05 4.50457e-05 -0.000131645 
0.000242874 0.000338678 0.042158 
0.0336094 -0.018932 -0.0198679 
-0.0166483 -0.03824 0.0680198 
-0.00245728 0.00829853 0.0111572 
-0.0178503 -0.0194241 0.146141 
-4.48492e-05 9.30564e-05 0.000175401 
-0.000284958 0.000604053 0.000905949 
0.000297951 0.000796084 0.0397716 
9.81481e-05 -0.00019303 -0.000556722 
-0.00584764 -0.00134093 0.00201499 
0.0103596 0.00573982 -0.00577556 
0.00371621 0.000809849 0.0012119 
0.00238769 0.000446141 0.00514827 
-0.00974662 -0.00914427 0 
0.00393797 0.00895182 0 
-0.0017615 -0.00931875 0 
0.029941 -0.0117031 0.0106929 
-0.000657991 0.000398746 0.0532394 
0.000289679 -0.000273383 0.0013887 
0.000201525 -0.000164186 0.0513038 
-0.00082021 -0.00261216 0.0664676 
-0.000836692 -0.000197206 -0.000229397 
0.000517305 0.000133795 0.00132845 
0.000560383 0.00014185 0.00113045 
0.00234665 0.00141454 0.0653587 
0.00119019 -0.000117531 0.00166717 
-0.00230486 0.000227606 0.0042636 
-0.000571541 5.64399e-05 -0.000988877 
-0.00457535 0.00288003 0.0896231 
1.96998e-05 -0.000282302 -0.000390277 
0.000793544 0.000838389 0.00141594 
-0.000107961 0.000372333 0.0478942 
8.65196e-05 6.28596e-05 0.0418713 
4.41591e-05 7.64692e-05 0.0727554 
-0.000282723 0.000328219 0.0376536 
-0.000311377 -0.000298218 0.0643462 
-0.000555219 -0.000516799 0.0487287 
-9.0084e-05 -6.37807e-06 0.000574046 
0.000183366 0.000459768 0.0562471 
2.38167e-05 1.68625e-06 -2.0037e-05 
-3.72267e-06 -2.6357e-07 1.79617e-05 
0.000121136 0.000157992 0.0939661 
-0.000172293 0.000635477 0.0829792 
0.00019938 0.000124451 0.108129 
-0.00333873 -0.00657261 0.104759 
-0.000902816 0.000120801 0.12152 
0.000174689 -0.000444542 0.102198 
0.000517212 0.00013662 0.0858648 
0.00373403 -0.00180643 0.105293 
-0.082725 -0.0116467 0.107213 
-0.0184367 0.0149139 -0.0612561 
-0.0564591 -0.0523707 0.08422 
-0.095994 -0.029742 0.268121 
-0.0242233 -0.000528443 0 
-0.00523391 -0.00823261 0 
0.00523137 0.00110371 0 
0.0895884 -0.0699377 0.0542888 
0.00078239 0.00254542 0.000166501 
-0.000275683 -0.000670997 -0.00208051 
-0.000230097 -0.00091119 0.00140624 
-0.00205264 -0.00540894 0.0277445 
1.07951e-05 0.000190573 -0.000336669 
-0.000356335 -0.00133777 0.0016635 
0.00029824 -0.000252945 0.0474533 
-0.000226971 -0.000103311 0.0320332 
-3.94287e-05 -0.000400784 0.0315591 
-0.000259648 0.000551502 -0.000302574 
0.000127635 -6.70352e-05 -0.000223257 
6.3649e-05 -0.00018312 0.0375366 
-0.000145409 -0.000318556 -0.000349143 
2.12633e-05 0.000258909 0.0385359 
-0.000102345 -0.000277664 0.000381288 
0.000332538 0.000753509 0.000505216 
0.000311704 -0.000119543 -0.000716519 
5.78954e-05 2.68887e-05 0.00130681 
-0.000608319 0.00014224 -0.00127246 
-0.00297155 0.00190243 0.0854502 
0.0138735 -0.000973402 -0.0108305 
-0.0160724 -0.005918 0.0139092 
0.00599503 -0.000420627 -0.0148043 
-0.0182356 0.00127946 0.0184148 
0.00131411 -0.00191208 0.00172316 
-0.000459243 0.000677911 0.000661038 
0.000946796 -0.00141321 -0.00339448 
-0.00589232 0.0126627 0.0853508 
0.00256097 0.000681115 -0.000457671 
-1.95225e-07 -9.842e-07 -0.000183094 
-0.000701698 -0.000159995 0.00535604 
0.0016446 -0.000642838 0.0951813 
0.00057254 0.000268905 0 
0.000125133 -0.00153243 0 
-0.00156062 -0.00178059 0 
0.00868374 -0.00211084 0.00147373 
0.00579916 -0.00951113 0 
-0.0050894 0.00126543 0 
0.00690963 -0.00415266 0 
0.00171248 0.00433636 -0.0114309 
2.0758e-05 -1.19088e-05 0.125518 
-6.73376e-05 6.54477e-05 0.115737 
4.92314e-05 0.000391579 0.132669 
0.00290426 0.0102189 0.12221 
-0.0339803 0.0213861 0 
0.0620818 -0.0434753 0 
-0.0463642 0.00826347 0 
-0.0218897 0.0717514 0.113977 
0.000243385 0.000363003 0.0850862 
0.000463811 -0.00115286 0.0442582 
2.92792e-05 -0.00024048 0.0530906 
-0.000613478 0.00533251 0.0565633 
-0.000345887 0.00485233 0.319855 
-0.022352 -0.0194289 0.177872 
0.0102353 -0.0505695 0.14942 
0.0107216 -0.074563 0.0996265 
0.00251008 0.0158621 0 
-0.00347953 -0.0200648 0 
-0.00530153 0.0139917 0 
-0.0368909 -0.0222561 0.0147237 
-0.00122202 -0.00167492 -0.00324943 
0.000526908 0.000731213 0.0018146 
-0.00118801 -0.00158231 -0.00105081 
0.0125442 0.0122884 0.0117237 
-0.00330766 -0.0293031 0 
-0.0398659 -0.0161696 0 
0.0215567 0.0139587 0 
-0.0717792 -0.051651 0.0658007 
0.000401243 -0.00055251 0.00104625 
0.000336748 4.26984e-05 -5.94202e-05 
-0.000139064 -1.31903e-05 0.0458642 
0.00110393 -0.00107004 0.0650144 
0.000158819 0.00071012 0.0488619 
1.04608e-05 -0.000466822 0.0827748 
-2.23818e-05 0.000319742 0.0645426 
-0.00321999 -0.00562238 0.0622835 
0.0014563 -0.00206492 0.00134931 
-0.00195461 0.00295563 0.00777 
-0.000287188 0.000399127 -0.000686779 
-0.00207987 0.0130673 0.0928832 
0.0127517 -0.0079698 0.0163213 
-0.00970848 0.00631052 -0.00506552 
0.0109759 -0.00777397 0.00451108 
0.00362718 -0.0027271 -0.0093105 
-7.99736e-05 -4.09414e-05 0.0384781 
3.58927e-05 0.000157194 -8.49269e-05 
0.000139607 0.000154351 0.000161124 
5.83545e-05 -0.00011228 0.0352073 
0.00139334 0.000947895 0.00189136 
-0.000839107 -0.000570521 -0.000482356 
0.000623427 0.00042297 -0.00145187 
0.00481912 0.00450291 0.0618616 
0.00221852 0.000360046 -0.000783735 
0.00433567 -0.0609408 0.0632794 
-0.0331612 0.0291165 -0.00580833 
-0.00745086 -0.0542422 0.156646 
-0.0142417 -0.01154 0 
0.00863423 0.0151168 0 
-0.00519754 -0.0056166 0 
-0.0109255 -0.0211704 0.0276039 
0.000147504 9.01041e-05 0.101641 
-0.000311953 -0.000253568 0.128357 
-0.000245306 0.000131947 0.104658 
0.00281395 -0.00548374 0.0994774 
-8.71402e-05 4.12565e-05 0.00044413 
0.000257766 0.00122395 0.000305651 
4.98778e-05 -0.00126383 0.0686242 
-0.00177657 -0.00200802 0.0649565 
0.000549237 0.000543035 0.121835 
-0.000143865 4.97021e-05 0.0950566 
-8.86513e-05 -0.000200598 0.107654 
-0.00263178 -0.00606843 0.103574 
0.000468093 0.0005141 0.0602373 
-0.000630611 0.000573235 0.00119879 
-0.00044612 -0.000458342 -0.000398339 
9.13655e-05 0.000160768 0.0484677 
-0.000440275 0.00028228 0.00078138 
9.06063e-05 -8.89044e-05 0.000918673 
0.000289004 -0.000179298 -0.000722968 
0.000301105 0.000662493 0.0478471 
7.50494e-05 -0.000299211 0.000414362 
0.000255073 -0.000866925 -0.00205083 
-0.000113918 0.000398518 0.000654396 
0.00420811 -0.0075393 0.0503031 
-0.000243767 2.87303e-05 0.0740163 
-8.87081e-05 0.000181194 0.0434721 
0.000200477 -0.000168138 0.0755615 
0.00220155 -0.00308381 0.0560874 
0.000439901 -0.000633149 0.0456843 
-0.000435787 0.00141545 0.000925496 
0.000213438 -0.000340455 -9.44765e-05 
0.00222103 -0.00301043 0.0626524 
0.00558087 -0.0105288 0 
-0.00671439 0.0147258 0 
0.00302264 0.0103218 0 
-0.00895707 0.0114982 0.00269104 
0.000116429 0.000858603 0.0532571 
-3.82676e-05 -0.000611172 -0.000398002 
0.000521045 0.000162825 0.000911589 
7.33523e-07 9.80241e-05 0.0483688 
0.000844994 -0.000326695 0.0801504 
-0.000165717 -0.000449766 0.0836607 
-0.000498859 0.000352307 0.0480969 
-0.00240327 -0.00411581 0.0575735 
5.8348e-05 1.66907e-05 0.00126045 
0.000176731 1.64051e-05 0.000327221 
0.000123166 9.61836e-06 4.25641e-05 
5.6584e-05 -0.000737726 0.0687597 
0.00154043 0.0010566 -0.00285868 
-0.000175802 -0.000120979 -0.000507628 
0.00104258 0.000716913 0.00185817 
-0.0175408 -0.0144419 0.0898326 
-0.0123792 0.0214013 0.0471731 
-0.0233992 0.00519059 0.0224668 
0.0111026 -0.0182961 -0.0247446 
-0.00115244 0.00122845 -0.0105472 
-0.000380731 -0.000500559 0.00120664 
0.000103531 0.000131249 -0.000446056 
-0.000110581 -0.000190118 -0.000733732 
-0.000190138 -0.000437593 0.0321734 
0.000342855 0.000247815 0.0386903 
9.18933e-05 0.00025924 0.0618527 
-0.000328055 0.000238245 0.000944502 
-0.00028014 -7.28741e-05 -7.11803e-05 
0.000349373 0.000294823 0.0458014 
0.000155658 -0.000272186 0.0771099 
-0.000902919 -0.000528741 0.0917832 
0.00214435 -0.00462129 0.0614252 
-0.00822963 0.00967765 0 
0.00969629 -0.00890801 0 
-0.0016701 -0.00892223 0 
-0.0114504 0.0501322 0.01143 
-0.029537 0.0128302 -0.0214086 
-0.00344957 0.00125505 0.0219784 
0.00381577 -0.00165882 0.00289998 
-0.0059752 0.00908905 0.236872 
0.000296796 -7.18836e-05 -0.00032755 
-2.05173e-05 -0.00144833 0.0710556 
-9.2006e-06 1.03182e-05 0.000486609 
-0.000797533 0.000199979 0.0012817 
2.68835e-05 7.02491e-05 6.86423e-05 
-0.000405924 -0.000902437 0.000820378 
0.000255188 0.000570788 -0.000475124 
-0.000178497 -0.00064095 0.0311758 
-0.0266808 -0.00208033 0.151878 
-0.0575099 -0.00892289 0.171939 
-0.0324747 -0.00511781 0.0370216 
-0.0270083 0.00182371 0.0999404 
0.000142258 -0.000171573 0.000498083 
0.00084503 0.000749156 0.000539844 
-0.000935051 -0.000530676 0.0535298 
-0.00144715 -0.00153442 0.0681342 
0.000431304 3.05369e-05 0.000296507 
-0.000218653 -1.5481e-05 0.000197425 
6.80125e-05 4.81538e-06 0.00014948 
-0.000299333 -0.000702315 0.0524145 
-1.28049e-05 -0.000237552 0.000395875 
-3.19225e-05 -0.000502759 0.000446116 
5.55803e-06 0.000133547 -0.000355835 
0.000902262 -0.000652987 0.0510246 
-0.00555285 -0.0064189 0 
0.0103693 0.00788461 0 
0.00818311 0.000971097 -0.00751484 
0.00220072 0.0128942 0 
0.0125644 -0.0130217 0 
-0.0110007 -0.00389069 0 
-0.0124299 0.000233544 0 
0.0326069 -0.0295168 0.01991 
0.000187413 0.000417159 0.000572141 
-0.000119272 -0.000322825 -0.0012484 
0.000537476 0.00113269 0.000659039 
0.00113626 0.00153763 0.0401595 
-5.45527e-05 -0.00305592 -0.00193167 
0.0033272 -0.000937984 0 
0.000143191 0.00383856 0 
-0.00259089 -0.00254645 0 
9.75792e-05 2.65524e-05 0.0943638 
0.000116741 0.000322595 0.0727745 
-0.000407759 -0.000765919 0.0653293 
-0.00137806 -0.000243495 0.0923721 
0.0293056 0.00782013 0 
-0.0214136 -0.0168666 0 
-0.0237386 -0.00114932 0 
-0.072218 -0.0165835 0.0518703 
-0.000123979 -0.000107581 0.0958833 
-9.21598e-05 0.000853631 0.127134 
-3.6653e-05 -0.000190182 0.104928 
0.00122784 0.00659196 0.11055 
-1.01301e-05 -5.71762e-05 0.0460216 
-0.000502896 8.33064e-05 0.000206188 
3.39858e-05 0.000146556 9.80779e-05 
-0.000174913 -0.000969819 0.0648655 
5.36803e-05 0.000481913 0 
-0.0131502 -0.00393345 0 
0.0114026 0.0162838 0 
0.0124135 -0.0289262 0.0106613 
-0.0564513 0.0235457 0 
0.0306476 0.00414817 0 
0.0393947 -0.0164597 0 
0.0246485 0.000281764 0.0969235 
0.00016392 0.000732256 -0.000525237 
-5.50671e-05 -0.00032122 0.00155675 
1.30785e-05 0.000101651 -0.000835059 
0.00152551 -0.00332071 0.00489345 
0.000226083 -0.000226563 9.26935e-05 
-0.000475862 0.000457694 -0.000675457 
0.000612068 -0.000584252 0.0009802 
0.00238924 -0.00197384 0.0643343 
0.000155002 0.000229197 0.0355044 
-1.92677e-05 -0.000280178 0.000363618 
-8.75095e-06 -0.00012725 -0.000159015 
2.09316e-05 0.000304373 0.000198708 
-4.17646e-05 -0.000511952 0.00129669 
4.06473e-05 0.000498256 -0.000598087 
-8.67312e-05 -0.00106315 -2.16424e-05 
-0.000227709 0.00465631 0.044257 
-3.68417e-05 -7.35976e-05 0.0457855 
0.000214141 -6.5426e-05 0.0857891 
-3.58636e-05 3.45314e-05 0.0749122 
0.00168715 -0.00179792 0.0517 
0.00955122 0.026479 0.148605 
0.00941852 0.0337959 0.131651 
-0.0081107 0.0284515 0.13686 
0.00669445 0.0179203 0.1172 
0.00291964 -0.00137132 -0.00429884 
-0.00108136 0.000527337 0.00549214 
0.00326427 -0.00151531 -0.00121903 
-0.00842862 -0.00143469 0.108126 
0.0109735 0.00953891 0 
-0.00183355 -0.026141 0.0148207 
0.0050688 -0.0102475 0 
-0.00179477 -0.000721816 0 
-0.000156477 -0.000607597 -1.73058e-05 
4.47691e-05 0.000224593 0.000552721 
0.000133062 0.000564391 0.000529649 
-0.000665321 -0.000940339 0.0475511 
0.000215827 0.00016666 0.0381165 
-1.29798e-05 -2.41925e-05 0.000465628 
0.000391699 -2.87135e-05 0.000301757 
-0.00166237 2.23923e-05 0.0486652 
-0.00765264 0.00149872 0.118954 
-0.0245149 0.00621905 0.11321 
-0.0115261 0.00635454 0.0619985 
-0.025507 -0.0117733 0.104271 
0.00196368 -0.00588571 -5.54716e-05 
0.00312367 -0.00387864 0 
-0.00136433 0.00477531 0 
0.00161814 -0.00245401 0 
-0.000175731 -0.000198956 0.00023629 
5.31911e-05 0.000188595 0.0386614 
0.000187051 -0.000459863 -6.44574e-05 
-9.65683e-05 0.000286492 0.0448268 
4.67853e-06 -7.36376e-06 -0.000650934 
8.00578e-05 -0.000115234 0.00347743 
-0.000568814 0.000837391 0.000596185 
-0.000527643 0.00524213 0.0623968 
0.0123848 0.00404587 0 
-0.00511975 0.0137181 0 
0.00589669 0.0118598 0 
0.0316583 -0.0912934 0.021096 
0.00361177 -0.000913485 -0.00532412 
-0.000501673 0.0023993 0.00219087 
0.00147175 -0.000428683 -0.00494448 
-0.00445605 0.00105392 0.0029753 
8.8598e-05 -0.000121377 0.070684 
-0.000165253 -0.000311729 0.0821556 
0.000137026 0.000316893 0.0461719 
-0.000637815 -0.00222372 0.0613201 
0.000488398 -0.00179258 0 
-0.00855188 -0.000376772 0 
-0.00087195 -0.000276397 0 
0.00635814 -0.00780359 -0.00401466 
0.000979537 -0.00234185 -5.36836e-05 
0.00129887 -0.00305531 -0.000657505 
-0.000850101 0.00200573 0.000359417 
0.000978177 -0.00319242 -0.000338267 
-0.000584472 -3.38699e-05 0.0919583 
0.000171456 0.000136911 0.114451 
-0.000343558 -0.000693122 0.0853956 
0.00170806 0.00769659 0.107652 
0.000494699 -0.000634525 0.000590997 
7.87122e-05 0.000104616 0.000253063 
-0.000611592 0.000773989 0.0617117 
-0.000852323 0.00113364 0.0641168 
-0.00128363 0.0023606 0 
0.00645151 -0.00379066 0 
-0.00724584 0.00557508 0 
-0.00634073 0.00326695 -0.000293474 
-0.00211984 0.000997258 -0.0251046 
0.0206027 -0.00412687 -0.0249334 
-0.0320838 0.00633653 0.0431814 
-0.0219729 0.00663282 0.0243507 
0.0198639 -0.00176024 0.417262 
-0.0335957 0.0517089 0.134729 
-0.0459484 -0.0270806 0.185451 
-0.132519 0.0950216 0.0806093 
-0.000518266 -0.00239564 -0.000157968 
0.00215243 -0.00033267 0.00114458 
-8.62956e-05 -0.000308831 0.000537878 
-0.00385363 -0.00425344 -0.00156011 
-6.05214e-05 0.000299842 0.00090844 
0.000348823 -0.00111948 0.0002119 
-0.0001184 0.000266923 -0.00108379 
0.00500807 -0.00982728 0.0483391 
-0.000523727 -0.000717748 0.00137598 
0.00109765 0.0015051 -0.00160462 
-0.00104747 -0.00143911 -0.00291525 
-0.0129278 -0.0173198 0.0510566 
-0.000674722 0.00101003 0.00216114 
0.00319595 -0.00441721 0.00432919 
-0.00014165 -2.4281e-05 -0.0089255 
0.0278945 -0.0347901 0.0358164 
0.0386266 -0.00585762 0.202428 
-0.0192283 -0.00309394 0.352377 
-0.00718239 0.0113506 0.345001 
0.143644 -0.0132843 0.254915 
-0.00816964 -0.0210172 -0.0079435 
-0.00248005 -0.00342849 -0.00924591 
0.0058401 -0.0233061 -0.00284956 
0.054651 -0.0165097 0.0468485 
-4.17424e-05 -0.000594938 -0.000340462 
3.77194e-05 0.0005376 -0.000134046 
-2.62035e-05 -0.000373469 -3.86386e-05 
-0.000102886 -0.000727884 -4.7017e-05 
0.0012183 -0.00779272 -0.00310517 
-0.00152882 -0.00120932 -0.00531443 
0.00024427 0.000974679 8.16015e-05 
0.0424638 -0.0348251 0.0244853 
0.000143643 -7.80676e-05 0.000467213 
0.000248925 -0.000136801 0.000764228 
-0.000387033 0.000207425 -0.0013465 
0.00194293 -0.00128749 0.0665141 
0.000581627 -0.000175215 0.107345 
-3.62496e-05 0.000913304 0.0893577 
-0.000741969 0.000111142 0.0725969 
-0.000375846 0.000362706 0.0922574 
-0.000415862 -8.57751e-05 -0.00495119 
0.00133503 0.0003621 -0.00114364 
-0.00223598 -0.000612266 0.00305501 
0.0151492 0.00418713 0.0904993 
0.000139067 -6.00924e-05 0.0457824 
-2.83259e-05 -0.000144004 0.000172824 
-0.000211138 -0.00025434 0.000293768 
-0.000123567 0.000165051 0.0458251 
-5.39894e-05 -0.000231813 0.0538921 
-0.000461317 -0.000212578 0.00118831 
-0.000333374 0.000193564 -5.58091e-05 
0.000449101 -0.000475526 0.051616 
4.23485e-05 -0.000472801 0.0465406 
-0.000236484 1.73138e-05 0.000359418 
0.000232021 -1.69871e-05 -7.9359e-05 
-0.000283134 2.07293e-05 0.000163785 
0.0122862 -0.00499061 0 
-0.0182094 0.00787005 0 
0.0130343 0.0133938 0 
-0.0521878 -0.0222954 0.026822 
-0.011383 -0.0690843 0.220954 
0.0151846 -0.0109508 0.361581 
-0.0290502 -0.0306125 0.227677 
-0.0933777 0.0929368 0.236427 
-3.40629e-05 0.000347052 0.000669086 
-3.27869e-05 0.000605313 -0.000995872 
-6.36271e-05 0.000958539 -0.000625926 
0.00178127 -0.00537652 0.00267935 
0.00338882 0.000969524 0.00405488 
-0.00453731 -0.00108888 0.00376685 
0.000714143 7.77636e-05 -0.00470769 
0.0165599 0.00632203 0.098744 
0.000243711 -0.000179422 0.00101926 
-3.44855e-05 2.56891e-05 -0.000169033 
0.000416048 -0.000291508 0.000519101 
-0.000488883 0.000725374 0.068342 
-0.00360021 -0.000474829 0.00315156 
-0.00495222 0.00561289 0.0982839 
0.00491271 -0.00288789 0.000399681 
0.00223737 0.00100206 0.0974825 
-0.00028788 -0.00125922 -0.000430921 
-3.59755e-05 -7.64854e-05 0.00143009 
2.0906e-05 6.94788e-05 -0.000371757 
-0.000772487 0.000225951 0.00401792 
-5.67407e-05 2.51477e-05 0.0439006 
0.000108403 -0.000271582 0.074015 
-2.48542e-05 0.00031585 0.0370393 
0.00202634 -0.00279513 0.0556246 
-0.00455258 -0.0023717 0 
0.00151914 0.00401016 0 
-0.00022984 -0.000883595 0 
0.0122236 -0.0124826 0.00618232 
0.0180384 -3.01739e-05 0.00292345 
0.00790291 0.003079 -0.00511708 
0.0103137 0.00469531 0.0215327 
-0.0102234 -0.00427308 -0.00546332 
0.00032577 0.000300382 -0.00216705 
0.000803352 0.000790404 0.000798903 
-0.000340752 -0.000333801 -0.000158452 
0.00730174 0.00617616 0.0546397 
-0.000963566 -0.00273069 0 
0.00105701 -0.00215138 -0.000388464 
0.000508619 0.00214024 0 
0.000360247 -0.00335527 0 
0.000586919 0.0015928 -0.0029591 
0.000150798 0.000520538 0.000235807 
-0.000404469 -0.00130686 0.000166952 
0.00131618 -0.0013872 0.038048 
0.00022355 0.000622172 0.00115049 
-0.000465477 -0.00151984 0.000181595 
5.87571e-05 0.000167303 0.00025904 
0.000835995 0.000868189 0.0380228 
-0.000176543 0.000416455 0.0391985 
-1.25967e-06 8.66272e-08 0.000205207 
0.000409166 -2.81382e-05 2.90768e-05 
-0.000181936 1.25117e-05 0.000102641 
0.0173195 -0.00845598 0.356384 
-0.0231037 0.0403303 0.152423 
0.00252064 0.00847793 0.360967 
-0.127866 0.111972 0.157866 
-0.000189334 4.78835e-05 -0.000338863 
2.35488e-05 0.000702495 0.0618437 
-0.000267572 4.0062e-05 0.000876022 
0.000242042 -5.60512e-05 0.000179847 
0.000271568 -0.0038006 0 
0.000973123 0.00474094 0 
-0.000345145 -0.00161774 -0.0043591 
-0.000642228 -0.00333976 0 
-8.39831e-05 -3.49889e-05 0.0601672 
0.000641396 0.000128953 0.0763299 
0.000246992 -0.000205221 0.0403685 
-0.0009357 0.00215448 0.0613378 
0.00210225 0.00177945 0 
0.00047863 0.000233092 0 
-0.000766626 0.000487482 0 
0.00445547 -0.0065803 0.000345849 
0.000295207 -0.00267959 -0.000759341 
-0.00197199 -0.00234067 -6.57236e-05 
-1.92925e-05 0.000345073 -0.000678375 
-0.00107515 -0.00582283 0.000967241 
0.000772632 -0.00375962 -0.00221188 
-0.00239463 0.0033614 0.00242454 
0.000955154 -0.00138213 3.52856e-05 
0.00337405 -0.00482114 -0.00135828 
-5.44236e-05 -0.000256706 -5.57899e-05 
8.82974e-05 -0.000136286 0.0380954 
3.31996e-05 0.000142046 -0.000120513 
4.06885e-05 0.000228635 0.000431694 
0.000168851 -0.000182545 0.0113602 
-0.00148762 0.00154449 0.00198873 
0.00381993 -0.00396564 -0.00559408 
0.0125435 -0.0116921 0.129433 
-0.00358893 -0.000262909 0.00128685 
-0.0198594 -0.00166627 -0.0169805 
0.00611154 0.000495648 0.00327301 
-0.00476156 -0.0264859 0.161171 
0.000164492 0.000424885 -0.000131193 
-4.41406e-05 -2.93686e-05 3.36757e-05 
-0.000165797 -0.000328021 0.0439824 
-2.71799e-05 -0.000302215 0.0373628 
-0.0240822 -0.0319921 0.263177 
0.0188005 -0.00709214 0.331566 
-0.0245478 0.0300013 0.210698 
-0.0923093 0.0967889 0.19641 
0.000202955 -0.00286503 -0.00181644 
0.000378387 -0.00542992 -0.00415633 
-9.47373e-05 0.00189775 0.00572762 
-0.00618407 0.0382702 0.0177163 
0.000642417 8.13009e-05 0.00783005 
-0.00837895 -0.000703413 0.000298487 
0.00114466 8.17056e-05 -0.00416922 
0.00832366 0.0023499 0.100338 
-1.26575e-05 -5.50466e-05 -3.64841e-05 
-5.36216e-05 -0.000292766 0.00047817 
5.86387e-05 0.000276921 -6.36439e-05 
-0.000144164 -3.12795e-05 0.0455496 
9.17819e-05 0.00139298 -0.00266991 
-7.30069e-05 -0.000968272 0.00115035 
0.000320143 0.0033234 0.00138107 
-0.000363282 0.000998984 0.0245971 
-3.4922e-05 0.00026269 0.0453668 
-0.000600919 -0.00067219 0.0930279 
-0.000493767 0.000277027 0.0550692 
0.00258527 -0.00431724 0.0604932 
-0.000738854 0.000742153 1.63097e-05 
8.28142e-06 -3.89335e-06 0.000324525 
0.000216378 -0.000204221 0.000958224 
-0.000454722 0.00085024 0.0678719 
0.000154639 -3.89055e-05 0.107206 
-0.000522273 5.18459e-05 0.121833 
0.000428591 0.000192082 0.0859963 
0.00363387 -0.00186249 0.104826 
0.00498345 0.00518799 -0.00281518 
-0.0064784 -0.00695518 0.00894156 
-0.00100618 -0.000813847 -0.00528334 
-0.00297397 -0.0026361 0.000112494 
-0.00010108 -0.00136989 -0.000159033 
3.18244e-05 0.000186906 -0.00136884 
-3.83088e-05 -0.00028374 0.00130665 
0.00117616 -0.00336217 0.00576933 
-0.000278195 -4.63501e-05 0.000789643 
-0.000292395 -7.29372e-05 -0.000340415 
0.000275632 6.88368e-05 0.000324828 
-0.000126957 -0.000523357 0.053906 
0.000843436 0.000837437 0.000184226 
-0.000706982 -0.000702439 -0.000118721 
0.000588607 0.000581837 0.000318963 
-0.00443756 -0.00438215 0.0587105 
2.16365e-05 -0.000314623 -0.000195998 
-4.73025e-05 0.00068784 0.000388279 
5.80123e-05 -0.000843575 -0.000937676 
-0.000732795 0.000145665 1.89107e-05 
0.0142579 -0.00883619 0 
0.0100498 -0.0302335 0.0199512 
-0.00550403 -0.00622028 0 
-0.00110927 0.0230491 0 
-2.12633e-05 5.4908e-05 0.000667253 
0.000117821 -0.000460933 -0.000822349 
-7.7921e-05 0.000316694 0.00032632 
0.0016466 -0.00324502 0.0565142 
-0.00045023 -0.000634611 0.101002 
-0.000347198 0.000263552 0.127571 
0.000254472 0.000307696 0.114402 
0.00243539 0.00667852 0.11111 
-0.0740683 -0.0500322 0 
0.053691 0.0368825 0 
0.0845078 0.0142501 0 
0.09833 0.0492044 0.173432 
9.61329e-05 6.46036e-05 0.0525989 
0.00023357 -0.00135573 0.0970578 
-1.47179e-05 0.000478842 0.052877 
-0.00124714 -0.00314051 0.0642808 
0.000252385 -0.0401474 0.150981 
-0.000456256 0.0167801 0.400905 
-0.0359045 -0.0333988 0.195196 
-0.0135547 -0.0784756 0.161218 
0.0127717 0.00329048 0 
0.00501744 -0.00464359 0 
-0.0107966 0.0120173 0 
-0.00362554 0.0424877 0.00559937 
7.05847e-05 -0.000248457 -0.000315514 
-1.4645e-05 0.000349569 0.0555698 
0.000168982 0.000311628 0.043188 
0.000550736 0.000345975 0.000843675 
0.000468505 -0.000113383 0.000422069 
0.00079753 0.000451406 0 
-0.000579837 -5.72859e-05 0 
-0.00035126 -0.000740097 0 
-0.000277729 -0.000394154 -0.00219755 
-0.000844097 -0.00112856 0.00372987 
0.00143547 0.001983 0.00322391 
-0.0168213 -0.0216972 0.0478952 
-0.00052669 0.000767069 -0.000268783 
-0.000645855 0.000938014 0.00345638 
-0.0010134 0.00147551 6.7225e-05 
-0.00188492 0.00757636 0.0891991 
0.000185948 -0.0025398 0.000867246 
-0.00018206 0.0024867 0.000483391 
-0.000185893 0.00253904 -0.00125451 
0.00138078 0.00250202 -0.000419051 
-0.0107922 -0.00357007 -0.00345827 
0.00132805 0.00384633 0 
0.0118411 0.00500768 0 
-0.0135253 -0.00356938 0 
0.000596083 -0.000555648 -0.00610745 
0.00187413 -0.00151239 -0.00508876 
-0.00225982 0.00183869 0.00704196 
0.0215517 -0.0299698 0.113515 
0.000363175 0.000426698 0.11086 
0.000139856 -0.000132596 0.131841 
-0.000390852 -0.000147948 0.126201 
-0.00163687 -0.00859391 0.122781 
0.000511953 -0.000586118 0.000585987 
5.62763e-05 0.000267145 -0.000161175 
-1.33432e-05 -2.33894e-05 -0.000399602 
-0.000151693 -0.000644998 -0.000388462 
0.000235825 0.000433523 0.0407249 
0.000151484 -0.000774344 0.081256 
1.4174e-05 0.000348395 0.0482857 
-0.00271945 -0.00357045 0.055826 
-0.0182905 -0.0124912 0.404238 
0.0496467 0.0345972 0.219662 
-0.0152083 0.0674537 0.175978 
0.0462783 0.142388 0.0618392 
7.65478e-05 -0.000465456 0.0370312 
-0.000117821 0.000505148 -0.000255954 
6.12311e-06 -1.49825e-05 0.000136807 
0.000162248 -0.000689797 0.000416378 
-0.0514326 0.0275537 0 
-0.0601477 0.0395118 0 
0.0603775 -0.0440907 0 
-0.068771 0.0659282 0.209842 
-0.00566362 -0.00245529 0.402485 
0.0611809 0.0301186 0.202825 
-0.028731 -0.0332985 0.330599 
0.147809 0.0667869 0.164708 
-0.0420574 0.0716417 0 
0.00050246 0.0782738 0 
0.0032423 -0.067348 0 
-0.0696897 0.0695138 0.217889 
-0.0316439 0.00338919 0.407624 
-0.0121841 0.0373891 0.152028 
-0.0404474 0.0473431 0.106525 
-0.0594694 0.0933082 0.134424 
-0.00035824 7.23697e-05 0.000841494 
0.000604282 -0.000128736 -0.00114098 
-0.000261817 3.0344e-05 0.00155737 
-0.000617715 0.00149028 0.0653716 
0.000156398 0.000132643 0.115209 
-0.000503648 0.000434191 0.133467 
0.00063627 -0.000276861 0.116259 
0.00282261 0.00526577 0.126766 
0.000256508 -0.000625711 0.0844633 
-0.000535941 -0.000639747 0.100154 
0.000489191 0.00050236 0.114779 
0.00247064 0.00664843 0.111806 
-0.0185558 0.013391 0.324529 
-0.00881813 0.00155902 0.364239 
-0.00811844 -0.00181597 0.360867 
0.0446979 -0.0651482 0.351717 
-0.000133495 -0.0197608 0.00502532 
0.00237321 -0.00295032 -0.0158214 
-0.000547272 0.00111968 0.014856 
-0.000110222 0.000842775 0.0187389 
0.0420448 0.0597932 0 
-0.0172581 -0.0825046 0 
-0.0391386 -0.0610983 0 
-0.0724316 -0.104619 0.208645 
-0.00948705 0.0295191 0 
0.0140356 -0.0321664 0 
-0.0078983 -0.0234261 0 
0.0497142 -0.0798082 0.0735198 
0.000213303 -0.000153117 0.101712 
-0.000221573 -4.88013e-05 0.104905 
0.000300562 0.000412947 0.0742627 
0.00276803 -0.0051538 0.0990476 
-0.000795932 -0.00164096 0 
0.000497195 0.00105984 0 
-0.000351957 -0.000814732 -7.63756e-06 
0.00060926 0.00029659 0 
7.0108e-05 -0.0003275 0.137436 
0.000190819 -0.000311729 0.141543 
-0.00016247 0.000201784 0.128136 
-0.00122294 0.000702187 0.13593 
-0.03026 0.0261117 0.0434039 
0.0342282 -0.0248279 0 
-0.0149452 0.0156499 0 
-0.0366752 0.0104893 0 
-0.000477847 -0.000457899 -0.00330071 
-5.4389e-05 -5.46188e-05 0.00378198 
-0.00185423 -0.00178291 -0.00268977 
0.0228321 0.0158303 0.0323726 
0.000428278 0.00074424 0.0490456 
-2.27474e-05 0.000503786 0.0391132 
-0.000354306 -0.000816212 -2.61006e-05 
4.94945e-05 0.000386767 -0.000181203 
-5.7807e-05 0.000792883 0.0845585 
-0.000179853 -0.000155259 0.0407373 
-0.000132062 -0.000447377 0.0493007 
0.0037676 0.00274696 0.0593449 
0.00267848 -0.00018964 -0.000182599 
-0.00207016 0.00014657 -0.00283732 
-0.00217149 -0.00321281 4.90305e-05 
-0.00311311 0.000220412 0.000374549 
9.89528e-06 -0.000241613 0.000833652 
-5.1658e-05 0.000602814 0.000676747 
2.91274e-05 -0.000402669 9.77781e-05 
-0.000534253 0.00488751 0.0463267 
-0.00456906 -0.000474892 0.0321637 
0.000858365 0.000133033 -0.00346174 
0.00565887 -0.014216 0.00701898 
0.00524364 0.000908115 -0.0155267 
0.000339774 -0.000674244 0.055863 
0.000390538 -0.000319595 -3.04574e-05 
-0.000650639 0.000509904 0.000804297 
-2.10798e-05 2.17201e-05 -0.000147753 
-0.00783733 0.00624616 -0.00748785 
0.00278161 0.000391653 0 
-0.00815505 -0.00691705 0 
-0.00149333 -0.0191529 0 
-0.0205245 -0.00662574 0.361558 
0.0612194 -0.0206504 0.207472 
0.00715713 0.0138517 0.219016 
0.114335 0.0224778 0.212547 
-0.000304741 0.000118895 -0.0100983 
-0.00932043 -0.00344299 -0.01388 
0.00075165 0.0106227 0.00766148 
0.0151866 0.00539378 0.0316242 
0.00233803 0.00219849 0 
0.000602923 -0.0049806 0 
-0.00224565 0.0043231 0 
0.00578334 0.000516345 0.00453917 
0.000495113 0.000555568 0.0384727 
0.000201989 -0.000855197 -0.000447823 
-7.46734e-05 0.000319803 0.00012587 
-0.000317419 0.00128713 0.00132212 
-0.00276595 -0.00257289 0.0230905 
0.00481631 0.00338848 -0.00745956 
-0.0192845 0.00518262 0.00195649 
-0.00581626 -0.00389111 0.00298236 
-0.000833751 0.000814231 0.000481255 
5.94927e-05 -5.9917e-05 2.57494e-05 
-0.000279628 0.000280485 -8.34246e-05 
0.00416144 -0.00476091 0.0650417 
-0.0108106 0.0162829 0 
0.00864589 0.00554261 0 
0.00023551 -0.0270269 0 
-0.00112192 0.0339944 0.0234061 
-0.000561657 -0.000366065 0.00102101 
-6.25037e-05 -4.01225e-05 0.000171395 
0.000329969 0.000232108 0.00100202 
0.00463766 0.00342949 0.0611816 
0.00010472 -3.68522e-06 0.115204 
-0.000246212 -0.000164485 0.0921179 
0.000122221 0.000331794 0.115291 
0.00149602 0.00806501 0.1062 
0.00350726 -0.00461314 0.405098 
-0.0353502 -0.0427588 0.136018 
-0.00982033 -0.0590228 0.181478 
-0.0593795 -0.126678 0.0948699 
9.3653e-05 -9.17507e-05 0.000782226 
-0.000524684 0.00032602 0.00055786 
0.000156477 -0.000123755 0.000530634 
0.00188716 -0.00292515 0.0664168 
-0.00011679 0.000663714 0.00265935 
0.000505727 -0.00233302 -0.000774015 
-0.000151776 0.000656974 -0.000625377 
0.00157759 -0.00575575 0.000427274 
0.00121809 0.000104825 -0.00372258 
0.00400434 0.000344601 0.00101087 
-0.0023589 -0.000203 0.00391395 
-0.00469577 0.00192049 0.0971642 
0.00102292 -0.00317485 0 
0.00254794 0.00495163 0 
0.00487716 0.00625753 0 
0.00167047 -0.0232198 0.00253706 
-4.78805e-06 -1.70399e-05 4.86319e-05 
-0.000533371 -0.000436284 0.000342928 
-0.000110189 -0.000520147 -0.000283564 
7.22924e-05 0.000291715 -0.000356872 
4.2761e-05 -0.000526088 1.38318e-05 
-0.000121104 0.00148994 0.00127168 
-4.1617e-05 0.000512013 -0.00171869 
-0.000316419 0.00467115 0.046122 
0.00028797 0.000842318 0.0429741 
-0.000470148 -0.000122151 0.000782896 
0.000140739 4.03379e-05 -0.00041662 
0.000367834 7.02189e-05 0.000612383 
0.000137665 -6.88391e-05 0.072622 
0.000118972 -9.79225e-05 0.0354606 
-0.000100141 0.000229873 0.0379484 
-0.0010439 -3.04751e-05 0.0486079 
-0.000565784 -0.000402281 -0.00896582 
0.00282836 0.00198985 0.00181864 
-8.72236e-05 -6.21737e-05 -0.00170023 
0.0243477 0.0141443 0.0435115 
-0.00125039 -0.00521339 0.341798 
0.038259 0.0268563 0.178965 
0.00708504 0.0515597 0.140694 
0.0489496 0.0804166 0.0633344 
2.02874e-05 7.21857e-05 0.000393916 
2.08696e-05 7.20048e-05 0.000449941 
-7.90573e-05 -0.000336315 -0.000442721 
-0.000721068 -1.122e-05 0.0484163 
0.00845182 0.000618788 0.0217789 
-0.00514422 -0.000376627 -0.0070386 
-0.0118622 -0.0131108 0.00280376 
-0.000980135 -7.17592e-05 0.000646004 
-0.000112878 3.08226e-05 0.000114298 
-0.000281117 6.556e-05 0.000659184 
-5.43705e-05 -0.000850965 0.0709656 
0.000288973 -0.000101233 0.000453825 
7.10084e-05 0.000102123 0.0527901 
9.87e-05 0.000203405 0.0463201 
-0.00027428 -0.000549207 0.0820127 
-0.000522078 -0.00191347 0.0610873 
-0.00088548 -0.00331554 6.28446e-05 
-0.000219803 -0.000695815 0.00294861 
0.000387171 0.0013237 -0.00293277 
-0.000867951 0.000805194 0.0228591 
8.04416e-05 0.000423234 0 
3.40057e-05 -0.000364617 0 
-0.000199586 -0.000319677 0.000357601 
-1.3652e-05 -0.000654375 0 
-0.001171 0.00221896 0 
-0.00183895 -0.00150919 0 
0.00383396 0.00323363 -0.00291393 
-0.00149205 -0.0012245 0 
4.34573e-05 -0.000504984 3.59614e-05 
-0.000248413 0.00288662 0.00160527 
-5.84183e-07 6.78833e-06 -0.00372688 
-0.00120595 0.0127935 0.0439701 
0.000107716 3.39849e-05 -4.95914e-05 
-0.000250917 -6.16011e-05 -0.000549648 
0.000490297 0.000123421 0.000958441 
-0.000526573 -0.000376074 0.0531412 
-0.00834856 -0.00820515 0.431304 
0.069333 0.00336142 0.141123 
0.0355038 0.0299591 0.150944 
0.105971 0.0608097 0.0841917 
0.000137334 -0.000556528 -0.000828471 
0.000436175 -0.00197605 -0.000416509 
-0.000270735 0.00127007 -0.000203876 
-0.00146839 -0.00175743 0.000550153 
0.000460075 0.00195718 0 
0.000220052 -0.00192665 0 
-0.00216459 0.000386365 0 
0.00596889 -0.000363217 -0.000146308 
-0.00715952 0.00519812 0.371543 
-0.0459604 -0.0367869 0.140359 
-0.00227953 -0.0528869 0.194964 
-0.054887 -0.129802 0.0523293 
-0.015462 -0.0070975 0.376776 
-0.0497501 -0.0102076 0.204726 
0.0147858 0.022448 0.340199 
-0.130513 -0.0258785 0.269454 
-0.000428323 3.20358e-05 -7.84955e-05 
-0.00071572 5.57907e-05 0.000126364 
0.000116524 2.2579e-06 0.00127202 
0.000120573 -0.000443968 0.0650045 
-0.000133837 0.000317833 0.0464221 
0.000148097 -0.000287757 0.0552471 
6.93722e-05 -5.00793e-05 0.080169 
0.000837095 -0.00250841 0.0611053 
-0.000510406 -0.000122752 0.00038496 
-8.77844e-06 -9.28222e-06 0.00072365 
0.000146801 3.18831e-05 0.000231477 
4.61157e-05 -0.000490732 0.0686743 
0.000618434 -0.0001876 0 
0.000965281 0.00135677 0 
-0.000115225 3.4953e-05 0 
9.04586e-05 3.70596e-05 -0.0025673 
-0.0110225 0.00239668 0.364922 
-0.0203503 0.000166301 0.341247 
-0.0119275 4.86396e-05 0.358268 
0.0493317 -0.0668904 0.350111 
0.000349799 0.00363116 -0.0006507 
0.000202273 0.00450128 0 
-0.0012486 -0.00324985 0 
0.00107832 0.00261795 0 
-0.000853791 -5.82477e-05 -0.000566287 
0.000563117 2.74678e-05 0.00149267 
-0.00134224 -0.000102056 0.000181418 
0.00268932 0.000709619 0.0651517 
-4.65582e-05 0.000285676 0.0438377 
6.56394e-05 -0.00019334 0.0459432 
0.00023225 -0.000216522 0.0749668 
0.00140642 -0.00151056 0.0515019 
-0.000730744 0.00163322 -0.0207605 
-0.0169104 0.0178367 -0.0162235 
0.00780476 -0.0144329 0.00605778 
0.031775 -0.0337179 0.0351905 
9.60269e-07 1.27806e-05 0.000332569 
-0.000117103 0.000122523 -0.00048079 
-0.000208611 0.000506209 0.0430111 
0.000300172 -0.000346824 0.000451447 
0.000574758 -0.000861246 -0.000303389 
0.000849416 -0.0012594 0.000397131 
-0.000491793 0.000743636 0.000682619 
-0.00290071 0.00545734 0.0609295 
5.17122e-05 0.000139995 0.0383025 
5.58648e-05 0.000129364 0.000487159 
-0.00019695 -0.000357691 0.000211261 
0.000158373 0.000276344 -0.000391137 
0.000570904 -0.00227748 -0.00693867 
-0.000505635 0.00210108 0.00369668 
-0.00161064 0.0070338 0.00182955 
-0.00910533 0.0374478 0.0237315 
-1.21764e-05 -0.000163883 0.0902993 
-0.000391617 0.000108513 0.115523 
0.000342315 -0.000157401 0.107414 
0.00378212 0.00256385 0.105552 
-0.0244827 -0.0100869 0 
-0.0218922 0.0141856 0 
0.0203018 -0.0156165 0 
0.060189 -0.0428624 0.0207864 
0.000383008 -7.46658e-05 0.000879876 
-0.000647693 0.000145028 0.000201896 
5.47654e-05 -8.19353e-06 0.000349412 
-4.27552e-05 0.00045264 0.0643963 
-9.48941e-06 -2.77394e-05 0.000712638 
0.000280335 -0.000597033 0.0371145 
-0.000125912 0.000403841 0.000135647 
4.06909e-05 -7.59878e-05 -0.000702138 
-0.0025312 -0.00573416 0 
-0.00115922 0.000461477 0 
-0.00111527 -0.0019965 0 
-4.03877e-05 -0.00665771 -0.00483582 
-0.00372001 0.00545447 -0.00159148 
-0.00188668 0.00287505 -0.00695845 
0.000234341 -0.000466634 0.00706275 
0.0419021 -0.0445512 0.0284517 
-0.00262453 -0.000192151 0.000650845 
0.00188469 -0.00303875 -0.00278054 
0.00215201 0.000157556 -0.0025116 
0.00246879 0.000180749 0.000708789 
-6.69814e-05 2.66409e-05 -0.00033603 
-3.13505e-05 2.20179e-05 0.000192954 
0.000337149 -0.000165096 0.000554373 
-8.10307e-05 0.000421031 0.047793 
0.000120139 -3.46703e-05 0 
3.07272e-05 0.000116828 -0.000187564 
-8.20108e-05 -0.000270353 0 
2.81265e-05 9.27206e-05 0 
-1.56204e-05 -0.000124874 0.000111995 
2.76736e-05 0.000458105 0.000588264 
1.9058e-06 -9.70371e-05 -0.00038653 
-7.40851e-05 -0.00027479 0.046657 
-0.000109095 -7.78067e-05 0.000340594 
0.000248858 0.000184875 -0.000562293 
-0.000531918 -0.000421213 0.000445041 
0.000705328 0.000558306 0.0411275 
4.93696e-05 1.35484e-05 0.000783367 
-0.000762937 -0.000400509 0.0402796 
-0.000167618 -0.000109306 -0.000820735 
0.000428806 0.000348634 9.52254e-05 
0.00987882 0.0329199 0.413287 
-0.0552452 -0.0114766 0.164154 
-0.0284619 -0.0198991 0.169884 
-0.119182 -0.0381354 0.21301 
0.00028784 0.000948882 0 
0.000112886 0.000372135 0 
-0.000448527 -0.0012847 0 
-0.000210023 -0.000735349 -0.000519153 
-0.0155638 -0.00472122 0 
0.0193158 0.000881228 0 
0.020932 0.00622787 0.00407153 
-0.0139449 -0.00423014 0 
-0.00181829 0.00340179 0 
-0.000975343 0.00182474 0 
0.00198412 -0.00381614 -0.0020412 
0.00142443 -0.0030401 0 
-0.00778066 0.00407347 0.42084 
0.0388862 -0.0338204 0.170402 
0.0532303 -0.000326485 0.167518 
0.122519 -0.0102763 0.189226 
-0.00687212 0.00609119 0 
0.00858417 -0.000845467 0 
0.0034588 -0.000340662 0 
-0.00811004 0.000805981 -0.000263908 
1.24383e-05 1.20159e-05 0.000312158 
0.000188888 4.9159e-05 -0.000308248 
-0.000361569 -9.88746e-05 0.000409233 
0.000187772 0.000433265 0.0428829 
-0.000616114 0.00287471 0.00154711 
-0.000454114 0.00506959 0.000723896 
0.000918063 -0.00401315 0.0012535 
-0.000848956 0.00357894 -0.00289799 
-0.00154097 -0.000734142 0 
-0.00155361 -0.00267242 0 
-0.000434446 0.00477485 0 
-0.000621852 -0.0105715 -0.000237249 
-6.34602e-06 1.94314e-05 0.000101479 
-0.00031008 0.000570663 -0.000126948 
-6.30478e-05 0.000850658 0.0538236 
0.000468129 -0.000831991 0.000588253 
0.00700295 0.00574717 0 
0.00329669 0.00270552 0 
-0.0126803 -0.0105244 -0.00394193 
0.00181797 -0.0042775 0 
-0.0357675 0.0127264 0.110632 
-0.0011333 0.00664521 0.357205 
-0.0319218 0.0323677 0.158211 
-0.0948543 0.0497371 0.111538 
2.89756e-05 0.000961881 0.0389232 
8.25896e-05 -0.000216726 0.000637988 
-0.000103514 0.000313977 -0.000313186 
0.000157025 -0.000509823 8.9838e-05 
4.52331e-05 -0.000106264 0.000322029 
0.000215304 -0.000399939 -4.26577e-05 
1.49915e-05 -0.000771131 0.0446218 
-0.000402866 0.000733726 0.000297388 
0.0104919 0.00574351 -0.00467256 
-0.00446219 -0.00238509 0 
-0.000267674 0.00376483 0 
-0.00499015 -0.00266729 0 
9.04613e-06 8.047e-05 0.000625068 
0.000233448 0.00058519 0.0491366 
6.1424e-05 -0.00060181 7.92179e-05 
-2.9979e-05 0.000287438 -6.14648e-05 
0.00371461 -0.00328074 -0.0149941 
-0.00241383 0.00216155 0.0087685 
0.000912196 -0.000641967 -0.00906279 
0.0139363 -0.0289756 0.143721 
-0.000508326 -8.206e-05 0.0729443 
-0.000387059 -0.000214867 0.0946514 
0.000579856 -0.000117217 0.107169 
-0.000509992 0.000394786 0.092301 
-0.000253347 -0.000473978 0 
0.000306281 0.000578393 -8.01006e-05 
-0.000105942 0.000567108 0 
-0.00010274 -0.000192214 0 
0.000552472 0.000126199 0.00538674 
0.00137225 0.000365688 0.000397839 
0.00444862 0.00120452 -0.0034357 
0.00817031 0.00260076 0.0954643 
0.000259765 0.000263894 0.0560731 
9.72999e-05 1.48341e-05 0.000193391 
-0.000564506 -3.98508e-05 0.000580003 
0.000301802 2.17576e-05 -0.000293433 
2.92106e-05 2.62795e-05 0.000556194 
-9.16857e-05 -0.000139628 -0.000625483 
0.000221055 0.000404234 0.000182916 
-0.000440158 -0.000700147 0.0311788 
-0.0011242 -0.00211929 -0.00023893 
0.000654817 0.00122508 0 
0.000643936 0.00120472 0 
-0.000322589 -0.00112913 0 
-3.75007e-05 -0.000380751 0 
-7.35117e-05 -0.000746377 0 
0.000153864 0.000835306 0 
5.32012e-05 0.000449788 -0.000325724 
0.00183204 -0.0138177 0 
-0.00456686 0.00556473 0 
-0.00265649 0.00323694 0 
0.000425903 -0.00113395 0.0168701 
-2.68885e-05 -4.73086e-07 -0.000268739 
0.000508017 -0.00012792 0.000815453 
-0.000348574 0.000413314 0.0611202 
-0.00024328 7.44604e-05 2.06228e-05 
0.00396094 -0.000823694 0 
-0.0048988 -0.00148603 0 
-0.00208942 -0.000633819 0 
0.00550631 0.0016792 0.000296864 
-4.47193e-05 7.77018e-07 -0.000190834 
0.000420909 2.7597e-05 0.000510423 
-0.00026633 -3.23198e-05 0.000224241 
-4.87449e-05 -0.000336355 0.0525038 
-0.000545104 -0.000642512 0.00039351 
0.000227652 0.000518422 0.0507607 
2.75727e-05 5.25708e-05 0.000344081 
0.000340069 0.000401816 -0.00022778 
-0.0173785 0.000989427 0 
0.0153707 0.00821582 0 
0.00936552 0.00500598 0 
-0.0128749 -0.0067093 0.0059487 
0.00047801 -0.000358645 0.046995 
-4.80687e-05 3.62467e-05 -0.000363943 
-0.000419268 0.000214438 0.00033333 
0.000329518 -0.000185757 0.000331948 
1.75644e-05 -0.00010957 -0.000247844 
-0.000109799 -0.00024627 0.044091 
3.51258e-06 -0.000190368 0.000557588 
-4.50561e-05 0.000413838 0.000157232 
-0.000221384 -0.000267818 -3.51793e-05 
-0.00021459 -0.000764412 0.0483809 
0.000566551 0.000667379 0.000416489 
-0.000117297 -0.000155893 0.000235148 
0.000497975 -0.000390803 0.000394982 
-0.000332413 0.000287923 0.000334086 
9.95212e-05 0.000504698 0.0533126 
-9.9792e-05 7.97955e-05 -4.64408e-05 
0.0541387 -0.0233476 0.0220976 
-0.0339801 0.0144009 0 
0.0100724 -0.0167826 0 
0.00123183 0.000321036 0 
7.71127e-05 0.000315404 0.000578109 
3.86922e-05 8.61742e-05 -0.000390874 
-9.95274e-05 -0.000314215 0.000131144 
-6.25298e-05 -0.000147438 0.0453119 
0.000716453 0.00146564 0 
-0.00048642 -0.000592704 0 
0.000940614 0.00119192 -0.000958367 
-0.000945189 -0.00115172 0 
-0.000702052 -0.000371244 0.000100728 
4.68133e-05 1.12657e-05 -0.000345522 
0.000650265 0.000486491 0.048641 
0.000266084 0.000159478 0.000433342 
-6.03002e-06 3.82296e-05 -0.000330292 
2.69133e-05 0.000247377 8.59417e-05 
-2.40459e-05 -0.000386053 0.000471295 
7.83462e-05 7.13524e-05 0.0356213 
0.00164303 -0.00541635 0 
-0.00233353 0.00643193 0 
0.00104424 -0.0034424 0 
-0.00138011 0.00466599 -0.00118039 
-0.0267807 0.00796944 0 
0.0143487 -0.00501453 0 
0.00293585 -0.0203924 0 
-0.0463163 -0.0224637 0.0271884 
-5.05687e-06 -1.57307e-07 -6.39387e-05 
0.000554529 0.00029242 0.000100019 
-0.000208984 -0.000135381 0.000594699 
-0.000348593 -0.000817174 0.0481989 
0.00817483 0.0547668 0.106976 
-0.00984369 -0.0310531 -0.0735887 
-0.000970222 -0.00889173 0.329643 
0.0285054 0.0379649 0.0991932 
-0.000330222 0.0010886 0 
-0.000428972 0.00141413 0 
0.000658455 -0.00225995 -0.000843694 
-0.000560348 -0.00222518 0 
-0.00132931 -0.00174037 -0.00252478 
0.000733843 0.000894191 0 
0.00162 0.00197397 0 
-0.000155942 -0.00197195 0 
0.0184374 -0.0152551 0.00315989 
0.0132669 -0.0084231 0 
-0.0117925 0.00967783 0 
-0.00680281 0.00558292 0 
-1.88071e-05 4.53101e-05 0.0377001 
0.000103002 0.000345945 -6.03812e-05 
-2.8507e-05 -5.01781e-05 -0.000413735 
-7.70354e-05 -0.000323135 0.000653556 
-6.65693e-05 8.00396e-05 2.25114e-05 
0.000324079 -0.000380384 -0.000303715 
0.00027856 -0.000629959 0.0459607 
-0.000581553 0.000671066 0.000786277 
0.000129692 -6.3906e-06 -0.000254998 
-0.000348504 2.15767e-05 0.000509282 
5.6715e-06 -0.000292052 0.0464692 
0.000164438 -2.16281e-05 0.000217024 
-0.00397895 -0.000414001 0 
0.00499077 -0.000491548 0 
0.00291062 -0.000286671 0 
-0.00608366 0.000528894 -0.00258894 
0.00261945 -0.0132544 0 
-0.000174706 0.0172008 0 
-0.000284317 -0.00815573 -0.010061 
-0.00403439 -0.012052 0 
-4.99589e-05 -0.000542971 0.000128781 
4.09973e-05 0.000416253 0 
4.45958e-05 0.000452789 0 
2.67324e-05 -0.000687671 0 
3.46087e-05 0.000242306 0.0392967 
4.85334e-05 -1.48796e-05 -0.000340548 
0.000287847 -1.35402e-05 0.000499393 
-0.000317387 3.82663e-05 0.00023625 
-0.00188806 0.000572738 0 
-0.00318905 0.00738178 0 
0.00497132 -0.00150803 0 
-0.00995968 0.00332915 0.0116609 
0.00253381 0.00185709 0 
0.00575799 -0.0029249 -0.0042545 
-0.00341355 0.00182458 0 
-0.00246633 0.00131828 0 
0.00563428 -0.010541 0 
0.00310122 -0.00580197 0 
-0.0075768 0.0149223 0 
-0.00550576 0.0100577 0.00447676 
0.00308205 -0.00401154 -0.00464344 
-0.0018261 0.00222511 0 
-0.00156176 0.00190301 0 
-0.00309519 -0.00353493 0 
-0.000241527 0.00284283 -0.00153678 
0.000210444 -0.00213667 0 
0.000168664 -0.00171247 0 
0.000871007 0.00245978 0 
2.54878e-05 -0.000317994 -0.000196649 
-4.72496e-05 0.000479734 0 
-3.02646e-05 0.000307281 0 
-2.45299e-05 -0.000378718 0 
-0.00077401 -0.00310241 0 
-0.00201689 -0.000198647 0 
-0.00344363 -0.000339168 0 
0.00806326 0.00067198 -0.00488119 
-0.00066924 -9.09522e-05 0.00100026 
0.0018707 0.000184248 0 
-0.00276984 3.19723e-05 0 
2.62409e-05 2.5845e-06 0 
-0.00820928 0.00333276 0.00804317 
-0.00389882 0.0126325 0.00662717 
0.0120298 -0.00472526 -0.0177638 
-0.0114714 0.00414339 0.0306067 
-0.00249058 0.00221404 0.0049403 
0.00129802 -0.00106526 0 
0.00817019 -0.0067051 0 
0.00973621 -0.00393737 0 
0.00609166 -0.00474071 0.0200996 
-0.00388734 0.00299903 -0.0121041 
-0.00057057 9.18662e-06 0.0101008 
0.0117936 -0.00168845 0.00105868 
-0.0040684 0.0150143 0.0334348 
-0.00880283 0.013361 0 
0.0183292 -0.0210928 0 
0.00714408 0.00189901 0 
-0.0160859 0.00859807 0 
-0.0119668 0.00639637 0 
0.0145597 -0.00746272 0.00802784 
0.0122041 -0.00246644 0 
-0.00162658 -0.00799421 0.106509 
-0.0006789 0.00104425 0.112215 
0.000122387 0.000989721 0.129151 
-0.00325203 -0.014046 0.126154 
-0.00193089 -0.00628643 0.106598 
0.000304404 -0.000373755 0.129027 
0.000249002 -0.000214326 0.112748 
-0.00073309 0.000486401 0.106615 
-0.0226136 0.00802715 0.034776 
0.000542446 0.00457895 0.017379 
0.041894 0.0541308 0.0718024 
-0.00867383 0.00749815 0.0655244 
0.0487706 0.0582758 0.0698648 
0.000365379 0.00503609 0.0172897 
-0.0147195 0.00318421 0.0349212 
-0.00810732 0.0071641 -0.0244201 
-0.0240106 -0.0689414 0.111882 
-0.0104919 -0.0175342 0.111192 
0.00685536 -0.0468481 0.0653802 
-0.00076759 -0.0362147 0.120496 
-0.0239472 -0.0661116 0.0946349 
0.00456765 -0.0457509 0.0816079 
-0.0089037 -0.0198171 0.10886 
-0.0302252 -0.0273744 0.0601618 
-0.00570943 -0.00640029 0.0780662 
-0.00692548 -0.0375188 0.0835888 
-0.00413247 -0.0214427 0.103283 
-0.00282227 -0.0411005 0.115398 
-0.00376928 -0.00370266 0.0758232 
-0.00675163 -0.021372 0.10764 
-0.00721645 -0.0390804 0.0835111 
-0.0151413 -0.0370901 0.0546752 
-0.00184131 -0.00248448 0.0900632 
0.0031601 0.0174508 0.074716 
-0.00126874 0.0032588 0.0691063 
0.00176546 0.00827264 0.107748 
-0.000433546 0.000318974 0.0917263 
-0.00110003 0.00334983 0.0694364 
0.00160427 0.0143922 0.0728567 
-0.000519945 0.00511831 0.0460596 
0.00299575 -0.0091977 0.121557 
-0.00544298 -0.0198764 0.138195 
-0.00121911 -0.0267469 0.127663 
0.0057324 -0.01764 0.117321 
0.00480334 -0.00805771 0.123928 
-0.00202366 -0.0263065 0.125528 
-0.00717464 -0.0209868 0.135944 
-0.00582161 -0.0142744 0.136369 
-0.0302804 -0.00368436 0.381157 
0.0924121 0.010514 0.229039 
-0.000634867 -0.0457321 0.164048 
0.0240869 -0.012936 0.37001 
0.00759666 -0.0295873 0.15278 
0.056096 0.00212905 0.218182 
-0.0146149 -0.0060372 0.391594 
0.0140189 0.0473181 0.175812 
1.53037e-05 0.000163081 -0.0018901 
-0.00122473 0.000109878 0.0469858 
-0.000240837 -0.000912435 2.95648e-05 
-6.5495e-05 -0.000285409 0.000677705 
5.64932e-05 -0.00074384 0.000601018 
-0.0010943 0.000133749 0.0472041 
-0.000108737 0.000246577 -0.00202921 
-0.0039206 -0.00677877 0.0489026 
-0.000134709 0.00535659 0.045271 
-0.00097198 0.000619405 0.0471672 
0.000110855 0.00888268 0.0440662 
0.000325006 -0.0026324 -0.000661685 
-8.52427e-06 0.00657463 0.0463838 
0.000668788 0.0110967 0.0428037 
-0.00159622 -0.00274676 0.0468466 
-0.000126004 0.00298286 0.0688329 
-0.000448235 0.000171111 -0.0021017 
0.0013339 0.00670355 0.0414256 
-0.00131924 0.000211214 0.0463764 
-0.000689237 -0.000547773 0.00194439 
-0.000335927 0.000254274 -0.00178935 
0.000982747 -0.00063475 0.0490828 
-0.00127573 0.00848824 0.039554 
-0.00131709 0.00203358 0.0678404 
0.00954755 -0.0243301 0.0234419 
0.000917277 0.00103506 -0.00690517 
0.00152968 -0.000799047 0.00249957 
0.00553788 -0.00859582 0.00627733 
0.0132981 -0.0278178 0.0181692 
1.25789e-05 0.000182482 0.00296712 
-0.00145363 0.00308232 -0.00418314 
0.00169699 -0.0039169 0.000419332 
0.0101017 0.00217406 0.0419891 
0.00238412 0.00307421 -0.00994574 
0.00179561 -0.00181759 0.0393332 
0.00169627 0.00228659 -0.00291079 
0.0108016 0.00500104 0.0445153 
0.00568713 0.000869909 0.0396047 
-0.0022124 0.000652213 -0.00947115 
0.0163338 -0.00282748 0.0300457 
-0.000515853 -0.00107139 0.000241959 
0.00444505 0.00110064 0.0328334 
0.000126613 -0.000141166 -0.00411403 
0.000462755 0.000991686 8.96895e-05 
-0.00214312 -0.000495312 0.00169889 
-0.00102219 0.000690302 -0.00253294 
0.00349719 0.00172465 0.0340572 
0.0151686 -0.00235966 0.0271957 
-0.00210338 -0.000447266 -0.00292775 
-0.00276327 -0.00662835 0.0254759 
-0.00812483 -0.0135738 0.0418308 
0.00184777 0.00182147 -0.00122373 
-0.00554191 -0.0131822 0.0448415 
-0.00425242 -0.00216334 0.0238228 
-0.00222935 -0.00142592 -0.0030915 
-0.0129721 -0.0248847 0.042711 
-0.0392405 0.0144317 0.0604445 
-0.0237145 -0.0109097 0.100919 
-0.0242156 -0.0147876 0.0425253 
-0.00800749 0.0107993 0.0663962 
-0.0347226 -0.000882266 0.0311766 
-0.0259379 -0.00471955 0.10069 
-0.0349969 -0.00833671 0.0535544 
-0.0638502 0.00190679 0.161635 
0.0212253 0.0219355 0.175195 
-0.0113861 -0.00390645 0.173486 
0.00719324 -0.0247382 0.145261 
0.00086942 0.0300079 0.117666 
0.0322126 0.0160104 0.196874 
0.00943365 -0.012954 0.10577 
-0.033277 -0.00194371 0.163559 
0.0290354 -0.00758145 0.178679 
-0.00135132 0.0151542 0.0388426 
-0.00359501 -0.00305259 -0.000748178 
0.00930743 -0.00654136 -0.00981372 
-0.00357336 0.00232037 0.00728564 
-0.00847494 0.020389 0.0266864 
0.0140035 -0.0108244 0 
0.000370067 -0.00318407 0 
-0.0029693 -0.00495095 0 
0.00264039 -0.00776857 0.122741 
-0.00377126 -0.0193284 0.121708 
-0.00330996 -0.0263526 0.125362 
-0.00485752 -0.0144083 0.13691 
-0.0017612 -0.0282612 0.12915 
-0.00737415 -0.0159845 0.12289 
0.00344416 -0.00819026 0.119521 
0.00148735 -0.0148468 0.104128 
0.00229732 0.000798356 0.0891415 
0.000521458 -0.000495662 0.00467236 
-0.000403888 0.000391278 -0.00272917 
-0.00383503 0.00391885 -0.00134194 
0.00273223 0.00863011 0.0930048 
-0.000689688 -0.000721727 -0.00758342 
0.000335942 -4.63655e-05 0.000848735 
0.00454383 0.00236642 0.101781 
0.00249326 0.0108869 0.111643 
0.0041294 0.0100289 0.128828 
0.0089406 0.0238468 0.102463 
0.00103488 0.00704035 0.107389 
0.000375018 0.00993173 0.112628 
0.0141067 0.0244223 0.104554 
0.00292704 0.00974829 0.128717 
0.00102941 0.0121771 0.124663 
0.000396602 0.00743166 0.109751 
-0.000298267 1.16145e-05 0.0703072 
0.00184656 0.00733739 0.0615724 
-0.000509608 -3.15089e-05 0.0914314 
0.00239149 0.00905325 0.110032 
0.000215775 0.0068411 0.0621426 
-0.00031593 -0.00132923 0.0690247 
0.000663292 0.0110672 0.0739327 
0.0560223 -0.00866816 0.181223 
0.0404083 0.0422675 0 
-0.043502 -0.0531542 0 
0.0647122 0.0334209 0 
0.00680754 -0.0190125 0.183227 
-0.00211459 -0.00795793 -0.0415537 
0.0616096 0.0311166 0.016186 
-0.0117502 -0.010173 0.0868841 
-0.0492888 0.0129354 0.0504148 
0.0139183 -0.00275615 0.00568642 
-0.0240924 -0.00633402 0.0454359 
0.0100642 -0.00084078 -0.0217141 
-0.023034 -0.0231575 0.0433697 
0.00227172 0.00235138 0.00444304 
-0.0344162 0.0185947 0.0536253 
-0.0092348 0.00814319 0.0685587 
-0.00104848 -0.0617901 0.121687 
0.0103116 -0.0392945 0.224474 
-0.0377883 -0.0194492 0.151911 
0.0138525 -0.0284195 0.162765 
-0.0542199 -0.00890395 0.149572 
0.00838859 -0.0594696 0.261118 
0.00422613 -0.0503992 0.0969579 
-0.0262475 -0.0704359 0.166956 
-0.0287931 -0.00573701 0.0458276 
-0.00856336 -0.0340409 0.000587829 
-0.0671228 -0.0489934 0.0988185 
-0.0547172 -0.0747896 0.162457 
0.0223058 0.0172613 -0.0478042 
-0.0345287 -0.0427078 0.0281115 
-0.030479 -0.0389611 0.0707297 
-0.0507288 -0.073019 0.121186 
-0.00981677 -0.0143687 0.0281224 
0.00454745 0.00292141 0.0232092 
0.00314074 -0.00908939 0.0856037 
-0.0244295 -0.0335661 0.0452128 
-0.000458605 -0.00874884 0.0813393 
-0.0029521 0.00287105 0.0288659 
-0.00226093 -0.0144205 0.0243869 
-0.000239668 0.0199531 0.0331316 
0.000237831 0.000142996 0.041045 
-0.000388382 0.000550799 0.000739908 
0.00391867 0.0022943 0.0611449 
0.000289175 0.000620375 0.050787 
0.00337804 0.00218407 0.0617808 
0.000358771 0.000599125 0.000905872 
0.000541736 0.000223184 0.0405045 
0.0003686 0.000535911 0.000659192 
0.00265726 0.0138798 0.113046 
0.000909876 0.000815216 0.0700174 
-0.000946869 0.00367216 0.0605244 
0.0053286 0.0155106 0.100052 
0.00232556 0.00765096 0.112602 
0.000209369 0.00551993 0.0607095 
0.00113988 0.00627578 0.0704033 
-0.000315969 0.000290832 0.0810891 
0.00565438 -0.00716034 0.00936516 
0.0806215 -0.0128448 0.117349 
-0.017563 0.00741728 -0.022011 
0.0486519 -0.00039528 0.015099 
0.00700619 -0.00574123 -0.0254453 
0.0533945 0.00809023 0.106451 
0.0144909 -0.0146652 0.0145464 
0.0292261 -0.0067286 0.0478852 
0.00503225 0.000993369 0.0427261 
-0.00141637 0.000345733 0.00262817 
0.00445153 0.000339648 0.0612378 
0.00530044 0.00206639 0.0669366 
0.00489449 0.00146263 0.0432452 
0.00402119 0.0011232 0.0607928 
-0.000777295 -0.000953968 0.00287685 
-0.00106081 3.88723e-05 -0.00103947 
-0.0117784 -0.00249387 0.073455 
0.0086664 -0.00231712 0 
0.0355753 -0.0159009 0 
-0.0302032 0.0197052 0 
0.0122156 0.0337037 0.126525 
0.0443494 -0.0563188 -0.0135318 
-0.0113023 -0.00233671 -0.0256853 
0.0481172 -0.000502438 0.0861445 
0.0539309 0.0159445 0.134851 
0.00807169 0.0560894 0.0884403 
0.018373 0.0234277 0.121975 
0.00170419 0.0191923 0.0940364 
0.0588841 -0.00708736 0.177686 
0.025827 0.0218333 0.131733 
0.00679203 0.087932 0.0345383 
0.0347366 0.0374573 0.1221 
0.00295765 0.00660997 0.00498604 
0.00217031 0.00326774 -0.000397699 
-0.0035207 0.0367661 0.0181252 
0.00314299 -0.0107538 -0.00516007 
0.00139239 -0.0110081 0.00404424 
-0.00450187 0.0387615 0.0220737 
0.00454383 0.0152852 -0.00408586 
-0.00189166 0.0249118 0.0331185 
0.00867724 0.00538724 0.0499621 
0.0326297 0.0191439 0.0857402 
0.0238574 0.0145694 0.0392671 
0.0227951 0.0159454 0.0845646 
0.00999788 0.00590717 0.0597988 
0.0228576 0.0161992 0.0382637 
0.0324984 0.0167087 0.0771721 
0.0122262 0.00306794 0.0422799 
-0.00152403 0.00272904 0.0495547 
4.51112e-05 0.0022011 0.00222891 
0.00110248 0.00044752 0.0391374 
-0.000250866 0.000119526 -0.000187692 
-0.000526835 0.00562943 0.0475327 
0.000555331 -0.000232779 0.0389751 
-0.000442749 0.000570441 0.00351362 
-0.00158315 0.00866798 0.073145 
-0.00186767 0.0148452 0.0517093 
-0.000408656 0.0016341 0.00406818 
0.000292841 -0.00114408 -0.00133866 
-0.000305603 0.00114555 -0.00143651 
-0.00103825 0.0105675 0.0496918 
0.000101868 0.000536592 -0.000689159 
-0.00116939 0.00666362 0.00621272 
-0.000407006 0.0121174 0.0740921 
-0.0173246 -0.0924622 0.271062 
0.0391367 -0.0659999 0.0676928 
0.000294959 0.0156602 -0.0593329 
0.0113297 -0.0773481 0.097943 
-0.0105353 -0.0429079 0.19069 
0.00910283 -0.0357751 0.0117795 
0.0480675 -0.0843366 0.0885482 
0.0278481 -0.0662443 0.154628 
0.0706798 -0.111832 0.0663089 
0.0296468 -0.0581529 0.345248 
0.0482088 0.0183192 0.203493 
0.0376136 -0.048966 0.153864 
0.127131 -0.019078 0.181209 
0.0878499 -0.0280231 0.27603 
-0.0441321 -0.0931876 0.131435 
0.0151399 -0.0401539 0.0795101 
0.0839784 0.00758897 0 
-0.0711221 -0.0218298 0 
0.0386967 -0.0962614 0.260786 
0.0801797 -0.01961 0 
0.0437272 -0.0445662 0.220718 
-0.0106841 -0.0354343 -0.0553576 
0.0725978 -0.0218985 0.0319367 
0.013077 -0.0477917 0.0996991 
-0.0294601 -0.0234382 0.0661713 
0.0109178 0.0148944 -0.0208293 
-0.0248699 -0.0420698 -0.00116599 
-0.0294091 -0.0416856 0.0544267 
-0.037153 -0.0807894 0.0251733 
-0.00711972 -0.0279071 0 
0.0075045 0.0387983 0 
0.00375717 0.0204771 0 
-0.0282553 0.0884507 0.159802 
-0.0376231 0.0632896 0.317975 
0.0100434 0.0507188 -0.0696837 
-0.0589156 0.0584753 0.11709 
-0.0684495 0.051981 0.0360269 
0.0141594 0.0901057 0.240639 
-0.0307447 0.100845 0.159759 
0.0455165 0.0563988 0.18158 
0.022364 -0.0302763 0.0313466 
-0.00434116 2.66716e-05 -0.00570729 
0.00253911 -0.0024686 0.00463447 
0.0131367 -0.0209421 0.0499283 
0.0222977 -0.0365712 0.0259848 
-0.000771169 0.00146387 0.00531043 
-0.00185479 0.00394913 -0.000415848 
-0.0002831 0.000722501 -0.00375067 
0.0185764 0.00711849 0 
0.043384 0.0176081 0.028314 
-0.0184808 0.00163394 0 
-0.0182962 0.00264889 0 
-0.00757549 -0.0202378 -0.0315285 
-0.00111381 0.0341023 0.0966912 
0.0436555 0.0452672 0.000768556 
0.049033 0.0802757 0.102637 
-0.0542614 -0.0666304 0.176944 
0.0239905 -0.0370737 0.340021 
-0.029389 -0.0282753 0.21605 
0.0377419 -0.0837533 0.134276 
-0.05437 -0.166192 0.136042 
-0.0440028 -0.0184717 0.239234 
0.0215837 0.0203114 0.366831 
-0.00569635 -0.00153144 0.364915 
0.0019458 -0.00350372 0.0663025 
-0.000470766 0.00161119 0.00457346 
-0.00224664 -0.0115623 0.090412 
-0.00273065 -0.00515197 0.0845792 
0.00264839 -0.0040027 0.0684429 
-0.000692711 -0.0129744 0.0950884 
-0.00157347 0.00330376 0.001384 
-8.11462e-05 0.00201619 -0.000587967 
-0.097384 0.0660362 0.102615 
0.011858 -0.0250969 0 
0.0263622 -0.0240748 0 
-0.0491014 0.0415731 0 
-0.0819186 0.0233152 0.131084 
0.00706873 0.00502989 -0.0264688 
0.000715435 0.00119666 -0.0188336 
-0.0151929 -0.0179311 0.0286867 
0.023763 0.061919 0.179227 
0.0200084 0.0531 0.364335 
0.0348392 0.0676096 0.229436 
0.120311 -0.0306185 0.0692978 
0.0515663 0.180331 0.193353 
0.0289101 0.0197119 0.211787 
-0.0014787 -0.0615497 0.338463 
0.00303778 -0.0100615 0.363488 
-0.00471514 0.00936299 0.0863625 
-0.00266293 -0.000118295 0.00352469 
-0.0100505 0.00250034 0.0872006 
0.00061191 -0.000532761 4.21193e-05 
-0.0014829 0.0043785 0.081978 
-0.00571341 0.0104184 0.0942311 
-0.00589136 -0.00701822 -0.00259799 
-0.0240072 0.0103905 0.107514 
0.000119675 4.72291e-05 -1.70867e-05 
0.000144521 0.000337414 0.0509585 
-0.000188316 -0.000247081 5.76129e-05 
0.000133922 0.00014514 0.0380761 
-2.66829e-05 -5.10998e-05 0.000303676 
-0.000139882 -0.000198539 -8.86874e-05 
0.000133961 0.00046322 0.0506482 
0.000411933 0.000592016 8.31788e-05 
-0.000560814 -0.00107665 0.0982399 
-0.000691584 -0.00318908 0.0638638 
-6.50332e-05 0.00085584 0.0516161 
-0.000120446 -0.000341028 0.0813104 
-0.000148194 0.000412699 0.0516089 
-0.00118373 -0.00146811 0.0650795 
-9.55519e-05 -0.00295025 0.0970191 
-0.000557069 -0.0030055 0.0663751 
-0.000228054 -0.00057021 0.0490661 
-0.000452265 -0.000789644 0.00121911 
8.26421e-05 0.000343131 -0.000611468 
-0.000211089 -0.000240455 0.0523361 
-0.000138665 -0.00128695 0.0486303 
6.08764e-05 8.95736e-06 -0.000653704 
-0.000446616 -0.000156065 0.00138955 
0.000334351 0.000156666 0.000461434 
0.000894574 0.000327349 0.00222713 
0.000299502 0.000977232 0.0492204 
-0.000271503 -0.000102395 -0.000561151 
0.000185031 9.47312e-05 -0.000558163 
0.000695465 0.000592303 0.00171338 
-0.000383331 -0.000213418 -0.000826693 
0.000644071 0.000439859 0.0501164 
-0.000229396 0.00060549 0.0425903 
-0.000586368 -0.000431959 -0.000339732 
-0.000415813 0.00155764 -0.000489729 
0.00905572 -0.00120733 0.00949867 
-0.000943698 0.00117019 -0.000861574 
0.007453 -0.00328291 0.0140554 
-0.000257782 0.00247516 -0.00164034 
-0.000797687 0.00127394 -0.00168643 
-0.000308249 -8.7715e-05 -0.000258141 
-0.0538673 -0.0966995 0.281985 
0.10883 0.015759 0 
-0.108385 -0.0180755 0 
-0.0849192 -0.0406083 0 
-0.101806 -0.0393254 0.215533 
-0.0553986 -0.0303614 0.0553602 
0.0191224 -0.0297366 -0.0702725 
0.00905018 -0.0553872 0.0655113 
-0.104396 0.0724361 0.104663 
0.0345039 -0.0312291 0 
0.0280863 0.000216682 0 
-0.052134 0.0442379 0 
-0.0457322 0.0458489 0.147049 
-0.0146914 0.0112552 -0.0206732 
-0.0114989 -0.00181847 -0.0437341 
-0.0227299 -0.0290015 0.0734184 
0.0489088 0.00269807 0.357075 
-0.126228 0.0449729 0.181615 
-0.0363867 0.0275068 0.17346 
0.00990821 0.0165189 0.322203 
-0.0632861 0.0388588 0.16822 
-0.0344437 0.0348315 0.157948 
-0.0494655 0.00381397 0.396614 
0.0327049 0.135017 0.0697471 
0.00443956 0.00303113 0.0640775 
-6.88233e-05 -5.78689e-05 0.00286356 
0.000435037 0.000186317 -4.85027e-05 
-0.000418808 -0.000170004 -0.00089501 
0.00685606 0.00672571 0.0631867 
-0.000708902 -0.00102583 0.000524559 
-0.00255034 -0.00331101 0.00393085 
0.00865897 0.00616939 0.0800607 
0.0238667 -0.106254 0.183355 
0.00560444 0.0095425 0.373961 
0.0328309 -0.00883235 0.209041 
-0.00400541 0.00771347 0.303118 
-8.93376e-05 -0.0441142 0.160161 
0.05998 -0.042813 0.206751 
0.0108075 -0.0319555 0.400956 
0.0995366 0.0254745 0.197564 
TENSORS Stress float 
-9.60208 -0.0395799 0.226739 
-0.0395799 -9.28748 0.0367122 
0.226739 0.0367122 -9.65175 
-9.4289 -0.0378981 0.0496454 
-0.0378981 -9.3234 0.0843971 
0.0496454 0.0843971 -9.78901 
-9.52324 -0.121599 0.242833 
-0.121599 -9.30772 0.0826541 
0.242833 0.0826541 -9.71035 
-9.67827 -0.0877371 0.188559 
-0.0877371 -9.28443 -0.0714546 
0.188559 -0.0714546 -9.5786 
-9.34416 -0.0514216 -0.403359 
-0.0514216 -9.49263 0.00373821 
-0.403359 0.00373821 -9.76504 
-9.34435 -0.0574324 -0.474215 
-0.0574324 -9.50143 0.0318944 
-0.474215 0.0318944 -9.75605 
-9.51448 -0.0251444 -0.452795 
-0.0251444 -9.39911 -0.014489 
-0.452795 -0.014489 -9.68824 
-9.30389 -0.00927884 -0.512635 
-0.00927884 -9.4985 0.0158035 
-0.512635 0.0158035 -9.79944 
-9.96071 -0.128607 0.6102 
-0.128607 -9.78789 0.145446 
0.6102 0.145446 -9.5145 
-9.84824 -0.112146 0.419847 
-0.112146 -9.84666 0.0483917 
0.419847 0.0483917 -9.56819 
-9.88936 -0.101731 0.427813 
-0.101731 -9.82528 0.0201389 
0.427813 0.0201389 -9.54846 
-9.82882 0.00669409 0.545576 
0.00669409 -9.77443 0.168426 
0.545576 0.168426 -9.65985 
-7.94889 0.491691 -0.406585 
0.491691 -7.23758 -2.33999 
-0.406585 -2.33999 -4.56613 
-6.90784 0.0652349 0.00881231 
0.0652349 -7.29648 -0.32827 
0.00881231 -0.32827 -5.54828 
-7.5709 0.0240133 -0.399206 
0.0240133 -7.74075 -1.86257 
-0.399206 -1.86257 -4.44095 
-7.86276 -0.357818 -0.586099 
-0.357818 -7.46361 -1.65951 
-0.586099 -1.65951 -4.42623 
-9.72675 0.0216856 -0.416705 
0.0216856 -9.74108 -0.249961 
-0.416705 -0.249961 -9.75465 
-9.72211 -0.0146118 -0.482106 
-0.0146118 -9.7569 -0.259064 
-0.482106 -0.259064 -9.74347 
-9.73485 0.0169551 -0.49539 
0.0169551 -9.79212 -0.260361 
-0.49539 -0.260361 -9.69551 
-9.69832 -0.0426538 -0.50441 
-0.0426538 -9.76381 -0.250241 
-0.50441 -0.250241 -9.76035 
-9.52381 -0.117067 0.0918063 
-0.117067 -9.33624 0.0494572 
0.0918063 0.0494572 -9.92198 
-9.57524 -0.0134586 0.112767 
-0.0134586 -9.43068 0.0422993 
0.112767 0.0422993 -9.77611 
-9.65471 0.0320073 0.227405 
0.0320073 -9.37066 -0.0463333 
0.227405 -0.0463333 -9.75666 
-9.53394 0.0397819 0.0183583 
0.0397819 -9.49269 0.128808 
0.0183583 0.128808 -9.75539 
-9.64188 0.143796 -0.175345 
0.143796 -9.26958 0.0321679 
-0.175345 0.0321679 -9.6156 
-10.0903 0.122396 -0.156526 
0.122396 -9.51498 0.192465 
-0.156526 0.192465 -8.92176 
-9.74987 0.0896983 0.107563 
0.0896983 -9.12039 0.126497 
0.107563 0.126497 -9.65681 
-9.85556 0.210194 -0.0747667 
0.210194 -9.23955 0.133491 
-0.0747667 0.133491 -9.43195 
-9.81668 -0.0193909 0.442702 
-0.0193909 -9.80898 0.116675 
0.442702 0.116675 -9.72496 
-9.816 -0.0405797 0.434464 
-0.0405797 -9.84128 0.0894439 
0.434464 0.0894439 -9.69334 
-9.81951 -0.0280448 0.473315 
-0.0280448 -9.85475 0.100783 
0.473315 0.100783 -9.67637 
-9.81215 -0.0529336 0.483984 
-0.0529336 -9.80342 0.0538533 
0.483984 0.0538533 -9.73505 
-10.7865 -0.0447631 0.648634 
-0.0447631 -8.45943 -1.14394 
0.648634 -1.14394 -6.97353 
-10.3139 0.225255 -0.198479 
0.225255 -7.50267 -1.29731 
-0.198479 -1.29731 -8.40286 
-10.5807 0.21513 0.448133 
0.21513 -8.75637 -1.54207 
0.448133 -1.54207 -6.88237 
-10.2662 0.219816 0.734506 
0.219816 -7.81731 -1.35702 
0.734506 -1.35702 -8.13586 
-9.6888 -0.00484882 -0.0201797 
-0.00484882 -9.73841 -0.52261 
-0.0201797 -0.52261 -9.67277 
-9.72731 -0.0156729 0.00808776 
-0.0156729 -9.78283 -0.588189 
0.00808776 -0.588189 -9.58984 
-9.71901 -0.0349723 -0.00271548 
-0.0349723 -9.76672 -0.546232 
-0.00271548 -0.546232 -9.61425 
-9.7249 -0.00161249 -0.0158844 
-0.00161249 -9.74044 -0.563099 
-0.0158844 -0.563099 -9.63464 
-9.51367 -0.0505948 0.596022 
-0.0505948 -9.32098 0.288465 
0.596022 0.288465 -9.98256 
-9.90123 0.0119746 0.572145 
0.0119746 -9.82671 0.129309 
0.572145 0.129309 -9.08927 
-9.51809 -0.0366025 0.415289 
-0.0366025 -9.68888 0.0886328 
0.415289 0.0886328 -9.61023 
-9.47087 -0.0833358 0.442381 
-0.0833358 -9.73442 -0.0409976 
0.442381 -0.0409976 -9.61191 
-9.26453 0.179161 -0.806228 
0.179161 -9.68595 -0.411466 
-0.806228 -0.411466 -8.43976 
-9.35811 0.114872 -0.503621 
0.114872 -9.29678 -0.235444 
-0.503621 -0.235444 -8.73535 
-9.40686 -0.491024 -1.0246 
-0.491024 -9.67608 0.207932 
-1.0246 0.207932 -8.30729 
-9.37413 0.0944883 -0.706896 
0.0944883 -9.61524 -0.270919 
-0.706896 -0.270919 -8.40087 
-9.38538 -0.00637204 -0.543923 
-0.00637204 -9.45724 -0.230859 
-0.543923 -0.230859 -9.94024 
-9.40291 0.0179851 -0.939068 
0.0179851 -9.36189 -0.110141 
-0.939068 -0.110141 -10.0181 
-9.49222 0.162904 -0.959462 
0.162904 -9.50019 -0.2007 
-0.959462 -0.2007 -9.79046 
-9.29882 0.143253 -0.990911 
0.143253 -9.3545 -0.0279234 
-0.990911 -0.0279234 -10.1295 
-9.2787 -0.437032 -0.148057 
-0.437032 -10.1719 -0.177877 
-0.148057 -0.177877 -11.6477 
-10.0313 0.19099 0.217959 
0.19099 -9.71288 -0.0843987 
0.217959 -0.0843987 -11.3541 
-10.2122 0.216009 -0.122445 
0.216009 -9.87991 0.073266 
-0.122445 0.073266 -11.0061 
-9.66182 -0.340318 -0.129551 
-0.340318 -10.2463 -0.514917 
-0.129551 -0.514917 -11.1902 
-9.75167 -0.0155721 0.445911 
-0.0155721 -9.75471 0.122397 
0.445911 0.122397 -9.79979 
-9.73231 -0.0252165 0.471518 
-0.0252165 -9.78876 0.131279 
0.471518 0.131279 -9.7851 
-9.75663 0.000104338 0.420002 
0.000104338 -9.85175 0.0888619 
0.420002 0.0888619 -9.69779 
-9.78013 0.0103658 0.503695 
0.0103658 -9.81668 0.145772 
0.503695 0.145772 -9.70936 
-9.50309 0.00314228 -1.29093 
0.00314228 -8.75739 0.539556 
-1.29093 0.539556 -10.5635 
-10.1406 -0.300439 -0.389769 
-0.300439 -10.1382 1.7706 
-0.389769 1.7706 -8.54515 
-9.48075 0.06709 -0.422404 
0.06709 -9.49155 0.299453 
-0.422404 0.299453 -9.85168 
-10.4778 -0.59766 -0.60173 
-0.59766 -8.14778 0.832647 
-0.60173 0.832647 -10.1984 
-9.80646 0.0250742 0.12672 
0.0250742 -9.62574 -0.0472835 
0.12672 -0.0472835 -9.9866 
-9.77251 0.054824 0.162091 
0.054824 -9.63093 -0.00734205 
0.162091 -0.00734205 -10.0154 
-9.74148 0.102031 0.125951 
0.102031 -9.63986 -0.0338326 
0.125951 -0.0338326 -10.0375 
-9.67877 0.017737 0.262812 
0.017737 -9.79112 0.112945 
0.262812 0.112945 -9.94891 
-8.93376 0.141824 -1.18668 
0.141824 -8.54841 -0.793128 
-1.18668 -0.793128 -9.44551 
-9.67041 -0.0404458 -1.0611 
-0.0404458 -8.71799 -0.464854 
-1.0611 -0.464854 -8.53929 
-9.24669 0.570222 -0.517671 
0.570222 -8.51202 -0.277995 
-0.517671 -0.277995 -9.16898 
-9.39858 0.362711 -0.889868 
0.362711 -8.54588 -0.548196 
-0.889868 -0.548196 -8.98323 
-8.90333 -0.0814626 -0.6217 
-0.0814626 -8.66188 -0.568046 
-0.6217 -0.568046 -9.70084 
-9.03972 -0.0484755 -0.515686 
-0.0484755 -9.49632 0.199941 
-0.515686 0.199941 -8.73002 
-9.34312 0.0529943 -0.723741 
0.0529943 -9.93014 -0.590812 
-0.723741 -0.590812 -7.99279 
-9.11724 -0.124394 -0.318578 
-0.124394 -9.35191 -0.265473 
-0.318578 -0.265473 -8.7969 
-9.48031 0.281624 0.507819 
0.281624 -9.44595 -0.128208 
0.507819 -0.128208 -10.3932 
-9.58216 0.199195 0.513799 
0.199195 -9.26096 -0.182498 
0.513799 -0.182498 -10.4763 
-9.53966 0.234373 0.324442 
0.234373 -9.34595 -0.282494 
0.324442 -0.282494 -10.4339 
-9.88911 0.475067 0.35576 
0.475067 -9.39551 0.026087 
0.35576 0.026087 -10.0348 
-9.75421 0.0293775 -0.140341 
0.0293775 -9.61003 0.0511417 
-0.140341 0.0511417 -9.73213 
-9.79203 0.0298471 -0.0920099 
0.0298471 -9.62084 0.0517365 
-0.0920099 0.0517365 -9.68351 
-9.78532 0.023209 -0.135565 
0.023209 -9.61869 0.0430217 
-0.135565 0.0430217 -9.69236 
-9.79598 0.044637 -0.100394 
0.044637 -9.6213 0.005559 
-0.100394 0.005559 -9.6791 
-9.7857 0.00950884 0.367517 
0.00950884 -9.89231 0.0783742 
0.367517 0.0783742 -9.7622 
-9.77209 -0.0457081 0.36446 
-0.0457081 -9.89625 0.0991616 
0.36446 0.0991616 -9.77187 
-9.80491 0.0183224 0.330718 
0.0183224 -9.87799 0.0977191 
0.330718 0.0977191 -9.75731 
-9.79368 -0.030852 0.3567 
-0.030852 -9.87427 0.122184 
0.3567 0.122184 -9.77226 
-9.10565 -0.384138 0.112184 
-0.384138 -9.75776 0.386301 
0.112184 0.386301 -9.74471 
-9.82126 0.0933258 0.675738 
0.0933258 -9.2261 -0.24696 
0.675738 -0.24696 -9.56076 
-9.33876 -0.447592 -0.199144 
-0.447592 -9.46884 0.281273 
-0.199144 0.281273 -9.80053 
-9.63999 -0.72672 0.260517 
-0.72672 -8.79264 0.021845 
0.260517 0.021845 -10.1755 
-9.33688 0.159393 0.178072 
0.159393 -9.19774 0.0308119 
0.178072 0.0308119 -10.2155 
-9.61985 0.361498 0.292322 
0.361498 -8.97656 0.183357 
0.292322 0.183357 -10.1537 
-9.13438 0.550566 0.666824 
0.550566 -9.38914 0.708929 
0.666824 0.708929 -10.2266 
-9.70579 0.373151 0.402669 
0.373151 -8.6611 0.132404 
0.402669 0.132404 -10.3832 
-9.80958 0.000234136 -0.0452207 
0.000234136 -9.65665 0.0712454 
-0.0452207 0.0712454 -9.76855 
-9.86059 -0.00669564 -0.0416453 
-0.00669564 -9.63476 -0.00518457 
-0.0416453 -0.00518457 -9.73943 
-9.81551 0.0579452 -0.0210749 
0.0579452 -9.61368 0.0655389 
-0.0210749 0.0655389 -9.80559 
-9.75691 0.0231919 -0.0550121 
0.0231919 -9.70602 -0.0504201 
-0.0550121 -0.0504201 -9.77185 
-10.1137 0.162426 -0.0197073 
0.162426 -10.2975 0.128993 
-0.0197073 0.128993 -10.948 
-10.1131 0.576345 -0.0851277 
0.576345 -10.019 -0.201459 
-0.0851277 -0.201459 -11.227 
-10.0214 -0.0602321 0.0474791 
-0.0602321 -10.1861 0.11131 
0.0474791 0.11131 -11.1517 
-9.87865 -0.143113 0.573089 
-0.143113 -10.1455 0.716154 
0.573089 0.716154 -11.335 
-9.51227 -0.122743 0.556417 
-0.122743 -9.48508 0.437928 
0.556417 0.437928 -9.55505 
-9.60757 -0.284525 0.588212 
-0.284525 -9.70291 -0.251507 
0.588212 -0.251507 -9.24193 
-9.32388 0.0191218 0.768962 
0.0191218 -9.7417 -0.0432241 
0.768962 -0.0432241 -9.48683 
-9.62855 -0.0042864 0.061062 
-0.0042864 -9.56845 0.277704 
0.061062 0.277704 -9.3554 
-9.65845 0.00111708 -0.0883907 
0.00111708 -9.79973 -0.495499 
-0.0883907 -0.495499 -9.79116 
-9.77922 -0.0262187 -0.0537966 
-0.0262187 -9.74759 -0.678649 
-0.0537966 -0.678649 -9.72253 
-9.7238 -0.00668527 -0.0667457 
-0.00668527 -9.80833 -0.615421 
-0.0667457 -0.615421 -9.71721 
-9.75484 -0.0807545 -0.0207571 
-0.0807545 -9.82553 -0.642343 
-0.0207571 -0.642343 -9.66898 
-9.54616 -0.0658932 -0.497818 
-0.0658932 -9.60185 0.0527927 
-0.497818 0.0527927 -9.74904 
-9.5045 -0.091036 -0.518829 
-0.091036 -9.62801 -0.00766877 
-0.518829 -0.00766877 -9.76455 
-9.52084 -0.0625146 -0.404784 
-0.0625146 -9.61476 -0.105744 
-0.404784 -0.105744 -9.76147 
-9.64595 0.0273141 -0.552454 
0.0273141 -9.51713 -0.0512187 
-0.552454 -0.0512187 -9.73399 
-11.1208 -0.0942292 -1.98102 
-0.0942292 -7.62927 -2.63003 
-1.98102 -2.63003 -9.42493 
-10.4736 -0.761486 0.546038 
-0.761486 -9.79064 -1.61213 
0.546038 -1.61213 -7.91073 
-8.80623 -0.828801 0.46926 
-0.828801 -7.70693 -0.0777426 
0.46926 -0.0777426 -11.6618 
-9.12457 -0.429213 -0.123427 
-0.429213 -9.98905 -1.62322 
-0.123427 -1.62322 -9.06132 
-9.84939 -0.0642779 0.213537 
-0.0642779 -9.82963 -0.394424 
0.213537 -0.394424 -9.66386 
-9.71416 -0.0138063 0.293968 
-0.0138063 -9.82918 -0.443925 
0.293968 -0.443925 -9.79954 
-9.75189 0.0101003 0.241291 
0.0101003 -9.76069 -0.485126 
0.241291 -0.485126 -9.8303 
-9.79055 -0.0801342 0.273462 
-0.0801342 -9.83157 -0.471748 
0.273462 -0.471748 -9.72077 
-9.7557 -0.0131507 0.490029 
-0.0131507 -9.8585 0.22972 
0.490029 0.22972 -9.65206 
-9.69119 0.0275763 0.362908 
0.0275763 -9.89189 0.150037 
0.362908 0.150037 -9.68318 
-9.80218 -0.0196591 0.495373 
-0.0196591 -9.86665 0.200699 
0.495373 0.200699 -9.59743 
-9.81019 0.0158426 0.508156 
0.0158426 -9.82237 0.286209 
0.508156 0.286209 -9.63369 
-9.73058 0.0249709 0.0557291 
0.0249709 -9.67748 0.00879216 
0.0557291 0.00879216 -9.85489 
-9.78372 0.0348273 0.0587645 
0.0348273 -9.72183 -0.113839 
0.0587645 -0.113839 -9.75742 
-9.68629 0.0554926 0.0869116 
0.0554926 -9.66383 -0.0555598 
0.0869116 -0.0555598 -9.91284 
-9.68772 -0.00285008 0.0335425 
-0.00285008 -9.75204 -0.102467 
0.0335425 -0.102467 -9.82321 
-9.76893 0.0349581 0.183324 
0.0349581 -9.63051 -0.0589605 
0.183324 -0.0589605 -10.0144 
-9.74346 0.0445817 0.158959 
0.0445817 -9.65528 -0.0769297 
0.158959 -0.0769297 -10.0151 
-9.76161 0.0669716 0.151708 
0.0669716 -9.67205 -0.059204 
0.151708 -0.059204 -9.98014 
-9.81018 0.0716306 0.0874025 
0.0716306 -9.68868 -0.0862084 
0.0874025 -0.0862084 -9.91493 
-9.78014 -0.0474436 0.0221592 
-0.0474436 -9.95699 -0.51346 
0.0221592 -0.51346 -9.74242 
-9.83916 0.0666431 -0.0205889 
0.0666431 -9.74551 -0.440406 
-0.0205889 -0.440406 -9.89487 
-9.87446 0.0361948 0.0444067 
0.0361948 -9.90696 -0.413842 
0.0444067 -0.413842 -9.69812 
-9.82523 -0.00619004 0.00785807 
-0.00619004 -9.87478 -0.457809 
0.00785807 -0.457809 -9.77953 
-9.8385 0.00225074 -0.395328 
0.00225074 -9.80711 -0.336695 
-0.395328 -0.336695 -9.82917 
-9.82138 0.0120005 -0.433638 
0.0120005 -9.86021 -0.389484 
-0.433638 -0.389484 -9.79318 
-9.78244 -0.0323905 -0.412481 
-0.0323905 -9.83958 -0.342212 
-0.412481 -0.342212 -9.85275 
-9.82404 -0.0239574 -0.448689 
-0.0239574 -9.88037 -0.384055 
-0.448689 -0.384055 -9.77036 
-9.66621 0.211706 0.00502197 
0.211706 -9.08886 -0.119673 
0.00502197 -0.119673 -9.15911 
-9.56311 -0.210882 -0.111378 
-0.210882 -9.13358 -0.0197112 
-0.111378 -0.0197112 -9.21749 
-9.69295 0.440441 -0.396822 
0.440441 -9.44253 -0.00958158 
-0.396822 -0.00958158 -8.7787 
-9.55047 0.335555 -0.237487 
0.335555 -9.31448 -0.141845 
-0.237487 -0.141845 -9.04923 
-9.09473 0.202653 0.26459 
0.202653 -8.99296 0.114524 
0.26459 0.114524 -10.1941 
-9.20778 0.094783 0.183167 
0.094783 -8.98709 -0.0835575 
0.183167 -0.0835575 -10.087 
-9.04711 0.117166 0.140812 
0.117166 -9.03059 -0.143727 
0.140812 -0.143727 -10.2041 
-9.30198 0.126089 0.0816647 
0.126089 -9.21818 -0.0649333 
0.0816647 -0.0649333 -9.76168 
-9.79162 0.146108 0.0994527 
0.146108 -9.2341 -0.0649394 
0.0994527 -0.0649394 -9.35455 
-9.5052 0.0732033 -0.14951 
0.0732033 -9.3876 -0.151746 
-0.14951 -0.151746 -9.48747 
-9.70604 -0.0251351 -0.09554 
-0.0251351 -9.34581 0.103358 
-0.09554 0.103358 -9.32843 
-9.55314 0.155381 -0.102604 
0.155381 -9.47581 -0.214392 
-0.102604 -0.214392 -9.35133 
-9.59329 0.213766 -0.221065 
0.213766 -9.12823 -0.0390471 
-0.221065 -0.0390471 -9.63313 
-9.56501 0.185338 -0.203209 
0.185338 -9.23406 0.0341645 
-0.203209 0.0341645 -9.55558 
-9.64904 -0.0397911 -0.0175252 
-0.0397911 -9.36889 -0.0317333 
-0.0175252 -0.0317333 -9.33673 
-10.008 0.320293 -0.28991 
0.320293 -9.1185 0.155526 
-0.28991 0.155526 -9.22819 
-7.88762 1.37631 -0.329265 
1.37631 -9.69168 -1.45098 
-0.329265 -1.45098 -2.1693 
-6.62516 1.59831 -0.320507 
1.59831 -8.79528 -2.05307 
-0.320507 -2.05307 -4.32817 
-8.78091 -0.512725 0.48496 
-0.512725 -7.27018 -1.91217 
0.48496 -1.91217 -3.69751 
-8.23091 -0.228769 -0.239443 
-0.228769 -8.04718 -1.35234 
-0.239443 -1.35234 -3.47051 
-9.75213 -0.0288732 -0.444826 
-0.0288732 -9.8358 -0.373851 
-0.444826 -0.373851 -9.73828 
-9.76694 0.0534186 -0.517252 
0.0534186 -9.82744 -0.46677 
-0.517252 -0.46677 -9.73183 
-9.72129 -0.051619 -0.351157 
-0.051619 -9.77105 -0.29591 
-0.351157 -0.29591 -9.83387 
-9.72229 -0.00415864 -0.476962 
-0.00415864 -9.92408 -0.355655 
-0.476962 -0.355655 -9.67983 
-9.76174 -0.000778023 0.0996911 
-0.000778023 -9.80995 0.00745209 
0.0996911 0.00745209 -9.93731 
-9.82197 0.0222195 0.0957899 
0.0222195 -9.77552 -0.0127465 
0.0957899 -0.0127465 -9.9115 
-9.83506 0.0905727 0.0899308 
0.0905727 -9.70678 -0.0472813 
0.0899308 -0.0472813 -9.96716 
-9.77104 -0.0468609 0.0504728 
-0.0468609 -9.87223 -0.127396 
0.0504728 -0.127396 -9.86573 
-9.52969 -0.0174709 0.387855 
-0.0174709 -9.47849 -0.476191 
0.387855 -0.476191 -10.0979 
-9.70896 0.0384797 0.164587 
0.0384797 -9.76699 -0.435631 
0.164587 -0.435631 -9.63015 
-9.89333 0.0172481 0.296953 
0.0172481 -10.0508 -0.600087 
0.296953 -0.600087 -9.162 
-9.70905 -0.0270752 0.149384 
-0.0270752 -9.84018 -0.316996 
0.149384 -0.316996 -9.55687 
-9.67205 0.0304636 -0.0755274 
0.0304636 -9.39648 -0.0251908 
-0.0755274 -0.0251908 -9.46082 
-9.45588 -0.00474679 -0.143857 
-0.00474679 -9.49207 -0.126038 
-0.143857 -0.126038 -9.5814 
-9.57894 0.20888 -0.0162193 
0.20888 -9.44616 0.147784 
-0.0162193 0.147784 -9.50425 
-9.52463 0.131711 -0.103151 
0.131711 -9.45955 0.0671309 
-0.103151 0.0671309 -9.54517 
-8.98115 -0.107161 0.611877 
-0.107161 -9.51674 -0.56566 
0.611877 -0.56566 -8.59139 
-9.02292 0.0603654 0.868587 
0.0603654 -9.63528 -0.43529 
0.868587 -0.43529 -8.43109 
-8.87241 -0.127175 0.652531 
-0.127175 -9.63925 -0.73056 
0.652531 -0.73056 -8.57763 
-9.17305 -0.250435 -0.0214959 
-0.250435 -9.19372 -0.527068 
-0.0214959 -0.527068 -8.72252 
-9.08251 0.272459 0.17422 
0.272459 -9.24114 -0.207023 
0.17422 -0.207023 -10.1948 
-9.03457 0.0802129 0.0920395 
0.0802129 -9.17285 -0.106073 
0.0920395 -0.106073 -10.311 
-9.03229 0.22004 -0.0904961 
0.22004 -9.08388 -0.19114 
-0.0904961 -0.19114 -10.4023 
-9.16534 0.129611 0.134695 
0.129611 -9.29355 -0.435881 
0.134695 -0.435881 -10.0595 
-9.48863 0.0791597 0.410064 
0.0791597 -9.07792 -0.188787 
0.410064 -0.188787 -10.3344 
-9.18747 0.344558 0.201315 
0.344558 -9.67334 -0.12423 
0.201315 -0.12423 -10.0401 
-9.12154 0.206001 0.483321 
0.206001 -9.2495 0.205821 
0.483321 0.205821 -10.5299 
-10.1148 0.267652 0.655428 
0.267652 -8.57439 0.483645 
0.655428 0.483645 -10.2118 
-9.67583 0.0790519 0.0468304 
0.0790519 -9.66768 -0.48475 
0.0468304 -0.48475 -9.11658 
-8.72426 0.0577203 0.443772 
0.0577203 -9.46016 0.536529 
0.443772 0.536529 -10.2757 
-9.21989 0.311245 0.86595 
0.311245 -9.28938 0.109401 
0.86595 0.109401 -9.95081 
-8.64312 -0.0233079 0.777967 
-0.0233079 -10.2762 -0.486991 
0.777967 -0.486991 -9.54079 
-9.40332 -0.0100308 -0.475117 
-0.0100308 -9.58832 0.198872 
-0.475117 0.198872 -9.59081 
-9.47099 -0.101607 -0.532742 
-0.101607 -9.63329 0.19765 
-0.532742 0.19765 -9.47818 
-9.3565 0.0463721 -0.545268 
0.0463721 -9.52782 0.221852 
-0.545268 0.221852 -9.69813 
-9.41809 0.0708874 -0.411075 
0.0708874 -9.51402 0.341304 
-0.411075 0.341304 -9.65035 
-9.67508 -0.00367275 0.154959 
-0.00367275 -9.70985 -0.000545614 
0.154959 -0.000545614 -9.88428 
-9.72711 0.0835568 0.107284 
0.0835568 -9.58919 -0.120262 
0.107284 -0.120262 -9.9529 
-9.74467 0.0344241 0.10292 
0.0344241 -9.63512 -0.116616 
0.10292 -0.116616 -9.8894 
-9.81782 0.0363337 0.0405312 
0.0363337 -9.74438 -0.222753 
0.0405312 -0.222753 -9.70701 
-9.78681 0.00125076 -0.106613 
0.00125076 -9.66942 -0.00954699 
-0.106613 -0.00954699 -9.83173 
-9.77692 -0.00145132 -0.128746 
-0.00145132 -9.70065 -0.00354609 
-0.128746 -0.00354609 -9.81039 
-9.77918 0.00991769 -0.125074 
0.00991769 -9.70957 0.00578914 
-0.125074 0.00578914 -9.79922 
-9.8245 0.00930653 -0.173463 
0.00930653 -9.73638 0.00955247 
-0.173463 0.00955247 -9.72708 
-9.62451 -0.32879 0.471014 
-0.32879 -9.35051 -0.148165 
0.471014 -0.148165 -9.85302 
-9.83798 -0.43626 0.22435 
-0.43626 -8.9646 -0.0148683 
0.22435 -0.0148683 -10.0255 
-9.7845 -0.393903 0.0649425 
-0.393903 -8.92827 0.0696524 
0.0649425 0.0696524 -10.1153 
-9.49843 -0.570628 0.281967 
-0.570628 -9.11807 -0.0711836 
0.281967 -0.0711836 -10.2115 
-9.37193 -0.0346694 -0.528403 
-0.0346694 -9.47861 0.131702 
-0.528403 0.131702 -9.73425 
-9.38411 0.00720382 -0.382992 
0.00720382 -9.49396 0.272761 
-0.382992 0.272761 -9.70672 
-9.50786 0.0249587 -0.621564 
0.0249587 -9.67844 0.210874 
-0.621564 0.210874 -9.3985 
-9.61141 0.113273 -0.608795 
0.113273 -9.3882 0.17246 
-0.608795 0.17246 -9.58518 
-10.1107 0.173178 0.442232 
0.173178 -8.3111 0.123016 
0.442232 0.123016 -8.61851 
-8.89622 0.0723428 -0.316967 
0.0723428 -8.10192 -1.14599 
-0.316967 -1.14599 -10.0422 
-9.25294 -0.0895035 -0.507077 
-0.0895035 -8.71215 -1.3086 
-0.507077 -1.3086 -9.07527 
-9.32555 0.0068451 0.0146131 
0.0068451 -8.80308 -1.62502 
0.0146131 -1.62502 -8.91173 
-9.69181 0.0413004 0.35364 
0.0413004 -9.74386 -0.118346 
0.35364 -0.118346 -9.77097 
-9.7442 0.0256773 0.363833 
0.0256773 -9.66929 -0.040597 
0.363833 -0.040597 -9.79315 
-9.75861 0.0758618 0.383171 
0.0758618 -9.7723 -0.0280981 
0.383171 -0.0280981 -9.67574 
-9.72149 0.0393777 0.359725 
0.0393777 -9.72237 -0.0600244 
0.359725 -0.0600244 -9.76279 
-8.65444 0.0304212 0.679242 
0.0304212 -8.96602 -0.605887 
0.679242 -0.605887 -8.50993 
-8.6821 0.351169 0.758939 
0.351169 -9.2962 -0.605247 
0.758939 -0.605247 -8.15208 
-8.62027 -0.673058 0.868403 
-0.673058 -8.68133 -0.67076 
0.868403 -0.67076 -8.82879 
-9.55458 -0.117737 0.434822 
-0.117737 -8.10837 -0.338437 
0.434822 -0.338437 -8.46744 
-8.60507 0.459924 1.41478 
0.459924 -8.79135 1.14153 
1.41478 1.14153 -13.9159 
-10.6387 -0.261153 -1.09906 
-0.261153 -11.3517 -0.716439 
-1.09906 -0.716439 -9.32189 
-9.94878 0.454373 -0.500553 
0.454373 -10.944 -0.70833 
-0.500553 -0.70833 -10.4196 
-7.69321 2.12226 -1.43649 
2.12226 -10.2498 -0.459916 
-1.43649 -0.459916 -13.3693 
-8.75213 0.256896 0.272388 
0.256896 -9.89227 0.439384 
0.272388 0.439384 -10.8675 
-8.89081 0.558914 -0.13084 
0.558914 -9.99361 0.227136 
-0.13084 0.227136 -10.6275 
-10.3086 -0.464776 -0.701751 
-0.464776 -9.36723 -0.344185 
-0.701751 -0.344185 -9.83612 
-8.7037 0.575223 -0.405871 
0.575223 -9.99635 0.0230291 
-0.405871 0.0230291 -10.8119 
-9.59384 0.0718947 0.245305 
0.0718947 -9.43449 -0.103445 
0.245305 -0.103445 -9.90904 
-9.60163 0.0291463 0.117425 
0.0291463 -9.42426 0.0157268 
0.117425 0.0157268 -9.91147 
-9.58885 -0.1049 0.184579 
-0.1049 -9.37123 0.118796 
0.184579 0.118796 -9.97729 
-9.65182 -0.0584847 0.0134316 
-0.0584847 -9.54623 0.144479 
0.0134316 0.144479 -9.73932 
-9.96449 0.0386721 -0.171449 
0.0386721 -9.77569 -0.00616866 
-0.171449 -0.00616866 -9.85687 
-9.90433 0.013187 -0.223355 
0.013187 -9.84629 0.00583353 
-0.223355 0.00583353 -9.84643 
-9.72169 -0.0322327 -0.223299 
-0.0322327 -9.889 0.013955 
-0.223299 0.013955 -9.98637 
-9.90815 0.000611475 -0.220196 
0.000611475 -9.82714 0.0390636 
-0.220196 0.0390636 -9.86176 
-9.79919 0.0154334 -0.0927979 
0.0154334 -9.65789 -0.0171252 
-0.0927979 -0.0171252 -9.77901 
-9.86862 -0.0374427 -0.0544243 
-0.0374427 -9.56503 -0.0275232 
-0.0544243 -0.0275232 -9.80244 
-9.82431 0.0411166 -0.0355643 
0.0411166 -9.67355 0.0618689 
-0.0355643 0.0618689 -9.73823 
-9.76692 -0.0213443 -0.0702593 
-0.0213443 -9.7091 0.138081 
-0.0702593 0.138081 -9.76006 
-9.56991 0.214585 -0.366426 
0.214585 -9.41965 0.115272 
-0.366426 0.115272 -9.6461 
-9.69439 0.0759464 -0.198625 
0.0759464 -9.36734 0.0618393 
-0.198625 0.0618393 -9.57394 
-9.65999 0.0470717 -0.255933 
0.0470717 -9.33391 0.048875 
-0.255933 0.048875 -9.64176 
-9.72762 0.272113 -0.0847191 
0.272113 -9.34346 0.0807777 
-0.0847191 0.0807777 -9.56458 
-9.50354 0.0329637 0.300628 
0.0329637 -9.43171 -0.0237916 
0.300628 -0.0237916 -9.99347 
-9.60839 0.0409539 0.185523 
0.0409539 -9.21782 0.0543789 
0.185523 0.0543789 -10.1025 
-9.51176 -0.00298841 0.179157 
-0.00298841 -9.419 0.0303237 
0.179157 0.0303237 -9.99798 
-9.73125 0.0508175 0.136871 
0.0508175 -9.2601 0.0269728 
0.136871 0.0269728 -9.93738 
-9.77694 0.0103424 0.130512 
0.0103424 -9.75753 -0.0727515 
0.130512 -0.0727515 -9.90716 
-9.77023 0.0149987 0.150447 
0.0149987 -9.76059 -0.0694186 
0.150447 -0.0694186 -9.91081 
-9.86044 -0.000695921 0.192038 
-0.000695921 -9.63873 -0.0340933 
0.192038 -0.0340933 -9.94246 
-9.8527 0.0451381 0.0895517 
0.0451381 -9.71293 -0.105369 
0.0895517 -0.105369 -9.876 
-9.54256 0.461575 0.67026 
0.461575 -8.64706 0.98334 
0.67026 0.98334 -9.41648 
-9.30262 0.279422 0.235051 
0.279422 -8.33958 0.544986 
0.235051 0.544986 -9.9639 
-9.25295 0.307685 0.439703 
0.307685 -8.57394 0.499514 
0.439703 0.499514 -9.77921 
-9.31076 0.135957 0.558389 
0.135957 -8.61832 0.297072 
0.558389 0.297072 -9.67702 
-9.58104 0.328291 0.337753 
0.328291 -9.48152 0.308806 
0.337753 0.308806 -9.6321 
-9.47402 0.357282 0.60349 
0.357282 -9.27939 0.296466 
0.60349 0.296466 -9.94125 
-9.30482 0.0839651 0.231671 
0.0839651 -9.09989 -0.0972642 
0.231671 -0.0972642 -10.2899 
-9.66749 0.280002 0.372103 
0.280002 -9.14859 0.146595 
0.372103 0.146595 -9.87858 
-9.69413 0.0493088 0.0546806 
0.0493088 -9.43577 0.00212328 
0.0546806 0.00212328 -11.2928 
-9.31208 0.0333559 0.199256 
0.0333559 -10.059 0.0724515 
0.199256 0.0724515 -11.0516 
-10.0503 0.369847 0.301219 
0.369847 -9.53887 -0.0394195 
0.301219 -0.0394195 -10.8336 
-9.94134 -0.00426784 0.0160203 
-0.00426784 -9.35993 -0.0907509 
0.0160203 -0.0907509 -11.1214 
-9.34093 0.0300877 -0.577223 
0.0300877 -9.1228 -0.0652135 
-0.577223 -0.0652135 -9.70624 
-9.36137 -0.00349596 -0.72946 
-0.00349596 -8.90441 -0.190677 
-0.72946 -0.190677 -9.90418 
-9.21815 0.139109 -0.775418 
0.139109 -9.23482 -0.239969 
-0.775418 -0.239969 -9.717 
-9.11363 -0.116823 -0.61232 
-0.116823 -9.33466 0.24959 
-0.61232 0.24959 -9.72168 
-8.91806 0.287236 0.609041 
0.287236 -10.1326 -0.22896 
0.609041 -0.22896 -11.2721 
-10.5364 0.387528 0.0848975 
0.387528 -9.33839 -0.038293 
0.0848975 -0.038293 -10.4479 
-9.57479 0.202408 -0.304749 
0.202408 -9.86861 0.0570141 
-0.304749 0.0570141 -10.8793 
-9.94721 0.50878 -0.10946 
0.50878 -9.30896 0.44663 
-0.10946 0.44663 -11.0666 
-9.8615 -0.0265931 -0.116094 
-0.0265931 -9.73683 -0.00484911 
-0.116094 -0.00484911 -9.87082 
-9.84072 -0.014052 -0.0809872 
-0.014052 -9.78905 0.0326976 
-0.0809872 0.0326976 -9.83938 
-9.83489 -0.0222135 -0.103305 
-0.0222135 -9.78369 0.0197715 
-0.103305 0.0197715 -9.85057 
-9.88445 -0.0119295 -0.135991 
-0.0119295 -9.76355 0.00719223 
-0.135991 0.00719223 -9.82116 
-9.53948 -0.101338 0.581396 
-0.101338 -9.61718 0.112101 
0.581396 0.112101 -9.09529 
-9.62128 -0.195952 0.531768 
-0.195952 -9.5466 -0.0847244 
0.531768 -0.0847244 -9.08407 
-9.61065 -0.0648399 0.532966 
-0.0648399 -9.52164 0.131939 
0.532966 0.131939 -9.11966 
-9.3503 0.0533516 0.783099 
0.0533516 -9.98638 0.115301 
0.783099 0.115301 -8.91527 
-10.5928 -0.0489492 0.114082 
-0.0489492 -10.7801 -0.0399162 
0.114082 -0.0399162 -11.3832 
-10.6989 0.226078 -0.141845 
0.226078 -10.6584 -0.055408 
-0.141845 -0.055408 -11.3987 
-11.5366 -0.0413866 0.0210696 
-0.0413866 -11.0211 0.42552 
0.0210696 0.42552 -10.1983 
-10.7757 0.130265 0.227592 
0.130265 -10.5745 0.15892 
0.227592 0.15892 -11.4058 
-9.35938 -0.0249841 -0.369378 
-0.0249841 -9.45812 0.00974901 
-0.369378 0.00974901 -9.93595 
-9.44763 -0.0360656 -0.440132 
-0.0360656 -9.54513 0.0242427 
-0.440132 0.0242427 -9.7607 
-9.50123 -0.0713718 -0.373737 
-0.0713718 -9.5807 0.0114203 
-0.373737 0.0114203 -9.67153 
-9.42668 -0.0138727 -0.468368 
-0.0138727 -9.59267 -0.0277217 
-0.468368 -0.0277217 -9.7341 
-9.87612 -0.0128506 -0.0771145 
-0.0128506 -9.76815 0.0653736 
-0.0771145 0.0653736 -9.88816 
-9.93664 -0.0164588 0.017151 
-0.0164588 -9.69231 0.0175676 
0.017151 0.0175676 -9.90348 
-9.718 0.0819552 -0.0751048 
0.0819552 -9.86213 0.0810901 
-0.0751048 0.0810901 -9.9523 
-9.78575 0.0687573 0.0767547 
0.0687573 -9.92121 -0.0845129 
0.0767547 -0.0845129 -9.82547 
-9.43354 0.0132926 0.0340704 
0.0132926 -9.41664 -0.120061 
0.0340704 -0.120061 -9.11242 
-9.44245 -0.07352 0.0352352 
-0.07352 -9.54561 -0.0905113 
0.0352352 -0.0905113 -8.97454 
-9.34557 0.0351019 0.0789596 
0.0351019 -9.42145 -0.175096 
0.0789596 -0.175096 -9.19558 
-9.32389 -0.112103 -0.0544152 
-0.112103 -9.47093 -0.00859332 
-0.0544152 -0.00859332 -9.16778 
-6.59274 0.161757 0.971516 
0.161757 -8.49992 -1.2451 
0.971516 -1.2451 -3.48459 
-5.31214 -0.64423 0.045329 
-0.64423 -8.69186 -1.02023 
0.045329 -1.02023 -4.57326 
-7.2343 -0.230398 0.522706 
-0.230398 -8.39241 -1.56144 
0.522706 -1.56144 -2.95054 
-6.99322 -0.311841 -0.141941 
-0.311841 -8.34692 -1.36036 
-0.141941 -1.36036 -3.23711 
-9.50972 0.0317966 0.258132 
0.0317966 -9.28312 -0.0956772 
0.258132 -0.0956772 -9.68891 
-9.5442 0.0150407 0.26551 
0.0150407 -9.08631 0.0335292 
0.26551 0.0335292 -9.85125 
-9.3491 -0.0656309 0.16582 
-0.0656309 -9.20033 0.359615 
0.16582 0.359615 -9.93232 
-9.45672 -0.27381 0.516925 
-0.27381 -9.03241 -0.282801 
0.516925 -0.282801 -9.99262 
-9.79345 0.142899 0.103911 
0.142899 -9.36779 0.114021 
0.103911 0.114021 -9.63356 
-9.70587 0.0712532 -0.0399995 
0.0712532 -9.28365 0.0241615 
-0.0399995 0.0241615 -9.80527 
-9.79527 0.113454 0.114602 
0.113454 -9.43622 0.0871448 
0.114602 0.0871448 -9.56331 
-9.94757 0.0343202 -0.0231142 
0.0343202 -9.46226 0.220116 
-0.0231142 0.220116 -9.38498 
-9.58071 0.0387978 -0.194326 
0.0387978 -9.40644 -0.0841472 
-0.194326 -0.0841472 -9.08702 
-9.613 0.0216123 -0.210477 
0.0216123 -9.3119 -0.0305189 
-0.210477 -0.0305189 -9.14927 
-9.51026 0.0312415 -0.0457382 
0.0312415 -9.56219 0.0304699 
-0.0457382 0.0304699 -9.00172 
-9.57162 -0.0186657 -0.176252 
-0.0186657 -9.43135 -0.142338 
-0.176252 -0.142338 -9.0712 
-9.284 -0.19578 -0.685359 
-0.19578 -9.55316 -0.459081 
-0.685359 -0.459081 -9.12537 
-9.32514 0.176231 -0.359856 
0.176231 -9.3027 -0.444718 
-0.359856 -0.444718 -9.33469 
-9.33033 -0.172321 -0.500446 
-0.172321 -9.56205 -0.236148 
-0.500446 -0.236148 -9.07016 
-9.42191 -0.118418 -0.571507 
-0.118418 -9.52851 -0.165758 
-0.571507 -0.165758 -9.01211 
-8.40996 -0.420685 -0.178777 
-0.420685 -9.55964 -0.0599174 
-0.178777 -0.0599174 -10.2462 
-9.89012 0.564792 0.300765 
0.564792 -9.53175 0.0175885 
0.300765 0.0175885 -8.79395 
-9.17298 0.370678 0.277653 
0.370678 -9.41806 0.00327539 
0.277653 0.00327539 -9.62478 
-8.62642 0.194135 1.11892 
0.194135 -9.2938 -0.386299 
1.11892 -0.386299 -10.2956 
-9.01374 0.511033 0.350391 
0.511033 -9.14024 -0.803642 
0.350391 -0.803642 -10.1544 
-9.12672 0.307594 0.531681 
0.307594 -8.87998 -0.53088 
0.531681 -0.53088 -10.3017 
-9.12212 0.240087 0.472856 
0.240087 -8.89752 -0.0720983 
0.472856 -0.0720983 -10.2888 
-9.2005 1.17777 0.615894 
1.17777 -8.12283 -0.202037 
0.615894 -0.202037 -10.9851 
-11.9542 -0.942296 -3.44941 
-0.942296 -5.93614 3.70168 
-3.44941 3.70168 -9.92409 
-7.83825 0.841446 -0.246634 
0.841446 -11.0442 1.96687 
-0.246634 1.96687 -8.93205 
-8.85776 1.12388 -0.154923 
1.12388 -6.94102 -0.0417692 
-0.154923 -0.0417692 -12.0157 
-11.4048 -0.652754 1.34447 
-0.652754 -10.39 2.62173 
1.34447 2.62173 -6.01969 
-9.71709 -0.0901252 0.477742 
-0.0901252 -9.62284 0.0937178 
0.477742 0.0937178 -9.27195 
-9.7613 -0.183835 0.649934 
-0.183835 -9.52709 0.00314991 
0.649934 0.00314991 -9.32349 
-9.62894 0.0178894 0.539851 
0.0178894 -9.37759 -0.234925 
0.539851 -0.234925 -9.60535 
-9.73223 -0.081094 0.444882 
-0.081094 -9.65605 0.141852 
0.444882 0.141852 -9.2236 
-6.96893 0.201041 -0.270068 
0.201041 -6.31301 -1.81241 
-0.270068 -1.81241 -9.36314 
-7.75662 -0.0583154 -0.167533 
-0.0583154 -8.55766 -0.111711 
-0.167533 -0.111711 -6.33081 
-10.5777 0.413891 -1.59991 
0.413891 -8.8999 -1.6568 
-1.59991 -1.6568 -3.1675 
-8.21241 0.0890206 0.962121 
0.0890206 -8.0907 -0.512228 
0.962121 -0.512228 -6.34196 
-9.54971 -0.125854 -0.410465 
-0.125854 -9.23385 0.299951 
-0.410465 0.299951 -9.6801 
-9.35815 -0.227595 -1.0787 
-0.227595 -9.36076 0.467996 
-1.0787 0.467996 -9.74474 
-9.22097 -0.0925485 -1.14108 
-0.0925485 -9.55625 0.266384 
-1.14108 0.266384 -9.68644 
-9.84114 -0.386773 -0.954785 
-0.386773 -9.72516 0.599809 
-0.954785 0.599809 -8.89736 
-9.8842 0.0910111 -0.062413 
0.0910111 -9.73799 0.0679989 
-0.062413 0.0679989 -9.84549 
-9.85405 0.0351748 -0.0545775 
0.0351748 -9.7421 0.0108431 
-0.0545775 0.0108431 -9.87153 
-9.83106 0.0205126 -0.0659747 
0.0205126 -9.77362 0.00950843 
-0.0659747 0.00950843 -9.86299 
-9.92029 0.0651484 -0.0726979 
0.0651484 -9.7777 0.0517256 
-0.0726979 0.0517256 -9.76969 
-9.63327 0.102396 -0.183514 
0.102396 -9.37459 0.049748 
-0.183514 0.049748 -9.5686 
-9.61614 0.112167 -0.213498 
0.112167 -9.41577 0.0539235 
-0.213498 0.0539235 -9.54456 
-9.65988 0.0846395 -0.0683198 
0.0846395 -9.33091 0.0966251 
-0.0683198 0.0966251 -9.58567 
-9.6114 0.0259616 -0.122869 
0.0259616 -9.3911 0.000694755 
-0.122869 0.000694755 -9.57396 
-9.52354 -0.0740759 0.648592 
-0.0740759 -9.62483 0.186941 
0.648592 0.186941 -9.34051 
-9.77884 -0.197179 0.540674 
-0.197179 -9.7251 -0.15096 
0.540674 -0.15096 -8.98495 
-9.5913 -0.0738893 0.482065 
-0.0738893 -9.59516 0.128853 
0.482065 0.128853 -9.30243 
-9.39195 0.09626 0.388804 
0.09626 -9.44298 -0.0953173 
0.388804 -0.0953173 -9.65396 
-9.9307 -0.00130647 -0.184389 
-0.00130647 -9.88093 0.0162229 
-0.184389 0.0162229 -9.97785 
-9.89384 -0.00734062 -0.1704 
-0.00734062 -9.87291 0.0434286 
-0.1704 0.0434286 -10.0227 
-9.97566 0.00824816 -0.151889 
0.00824816 -9.90101 0.020989 
-0.151889 0.020989 -9.91281 
-9.9686 0.0257277 -0.171417 
0.0257277 -9.9211 0.0333922 
-0.171417 0.0333922 -9.89979 
-8.84721 0.00933291 -0.551872 
0.00933291 -9.52066 -0.176872 
-0.551872 -0.176872 -9.43172 
-8.68783 0.0426987 -0.437718 
0.0426987 -9.31407 -0.192237 
-0.437718 -0.192237 -9.79769 
-8.94059 -0.647474 -0.566579 
-0.647474 -9.62799 0.00434837 
-0.566579 0.00434837 -9.23101 
-9.2969 -0.419501 -0.670731 
-0.419501 -8.97904 -0.387056 
-0.670731 -0.387056 -9.52365 
-9.60435 0.758817 -1.38297 
0.758817 -8.3659 -1.45141 
-1.38297 -1.45141 -9.06247 
-9.36536 2.19936 -0.544492 
2.19936 -7.84281 -1.40555 
-0.544492 -1.40555 -9.82456 
-9.01161 0.982182 -0.788742 
0.982182 -8.00116 -1.19949 
-0.788742 -1.19949 -10.02 
-9.19849 1.07341 0.245354 
1.07341 -9.412 -1.13654 
0.245354 -1.13654 -8.42223 
-9.49665 -0.0389473 -0.558554 
-0.0389473 -9.47579 -0.368951 
-0.558554 -0.368951 -9.87753 
-9.74133 -0.0252162 -0.473698 
-0.0252162 -9.86576 -0.302362 
-0.473698 -0.302362 -9.24287 
-9.50821 -0.0185455 -0.428343 
-0.0185455 -9.70094 -0.242649 
-0.428343 -0.242649 -9.64081 
-9.54628 0.0406331 -0.437504 
0.0406331 -9.6912 -0.13389 
-0.437504 -0.13389 -9.61249 
-9.41753 -0.197058 0.48484 
-0.197058 -9.98437 -0.50423 
0.48484 -0.50423 -8.30247 
-9.5608 0.0520913 0.976583 
0.0520913 -9.82617 -0.113375 
0.976583 -0.113375 -8.31739 
-9.60764 -0.314864 0.306856 
-0.314864 -9.19742 -0.223551 
0.306856 -0.223551 -8.8993 
-9.64753 0.188215 0.706374 
0.188215 -9.86915 -0.435227 
0.706374 -0.435227 -8.18768 
-8.54833 -0.270451 -0.307366 
-0.270451 -10.0143 0.121807 
-0.307366 0.121807 -10.4217 
-8.90749 0.0633458 -0.878894 
0.0633458 -9.69003 0.510683 
-0.878894 0.510683 -10.3868 
-9.22717 -0.11288 -0.479048 
-0.11288 -9.85939 -0.392042 
-0.479048 -0.392042 -9.89778 
-9.67879 0.320419 -0.193101 
0.320419 -9.34553 0.11664 
-0.193101 0.11664 -9.96001 
-9.65128 0.0713798 -0.091263 
0.0713798 -9.38157 -0.0644891 
-0.091263 -0.0644891 -9.44573 
-9.64387 -0.0812028 -0.151813 
-0.0812028 -9.28468 -0.0813631 
-0.151813 -0.0813631 -9.55002 
-9.74211 0.136857 -0.238699 
0.136857 -9.31723 0.0198791 
-0.238699 0.0198791 -9.41923 
-9.71777 -0.0513299 -0.202921 
-0.0513299 -9.34779 -0.10296 
-0.202921 -0.10296 -9.41301 
-9.82882 -0.00699492 -0.0541958 
-0.00699492 -9.53675 0.000247455 
-0.0541958 0.000247455 -9.59649 
-9.84759 0.0252158 -0.0197494 
0.0252158 -9.54321 0.0011766 
-0.0197494 0.0011766 -9.57125 
-9.86167 -0.027723 -0.0243111 
-0.027723 -9.52142 -0.00891999 
-0.0243111 -0.00891999 -9.57897 
-9.85943 -0.00369777 -0.0240954 
-0.00369777 -9.51894 0.0100476 
-0.0240954 0.0100476 -9.58368 
-6.87212 1.10377 -0.18263 
1.10377 -6.90003 -0.87848 
-0.18263 -0.87848 -2.14452 
-6.57085 -0.723402 0.5412 
-0.723402 -6.2081 -1.67522 
0.5412 -1.67522 -3.13772 
-7.85999 -0.991148 0.1967 
-0.991148 -6.96909 -2.21657 
0.1967 -2.21657 -1.0876 
-6.19556 0.0793087 0.0100357 
0.0793087 -6.87649 -0.0219902 
0.0100357 -0.0219902 -2.84462 
-8.81152 0.261065 0.575278 
0.261065 -9.76545 0.102811 
0.575278 0.102811 -11.2827 
-9.00902 0.151072 0.733154 
0.151072 -9.81912 0.273881 
0.733154 0.273881 -11.0315 
-9.64144 -0.551916 0.507833 
-0.551916 -9.9141 0.097052 
0.507833 0.097052 -10.3041 
-8.85016 0.175483 0.898881 
0.175483 -9.97966 0.171761 
0.898881 0.171761 -11.0298 
-9.77255 0.0748877 0.0407248 
0.0748877 -9.36086 -0.00505893 
0.0407248 -0.00505893 -9.72389 
-9.6354 0.032065 0.0125347 
0.032065 -9.44345 0.10188 
0.0125347 0.10188 -9.77846 
-9.72084 0.11463 -0.0354993 
0.11463 -9.46951 -0.0230097 
-0.0354993 -0.0230097 -9.66696 
-9.58624 0.0687261 0.0151853 
0.0687261 -9.4795 0.0165965 
0.0151853 0.0165965 -9.79157 
-9.76056 -0.0127277 0.210217 
-0.0127277 -9.84921 0.0259639 
0.210217 0.0259639 -9.93746 
-9.85509 0.0229149 0.197471 
0.0229149 -9.79669 -0.0361588 
0.197471 -0.0361588 -9.89545 
-9.85456 0.00650176 0.164674 
0.00650176 -9.76839 -0.087817 
0.164674 -0.087817 -9.92428 
-9.80728 0.0636598 0.118154 
0.0636598 -9.82984 -0.121125 
0.118154 -0.121125 -9.91011 
-9.43907 0.61039 -0.301117 
0.61039 -9.48364 0.272958 
-0.301117 0.272958 -10.1176 
-9.19094 0.413711 0.254788 
0.413711 -9.42026 0.0879825 
0.254788 0.0879825 -10.4291 
-9.51481 -0.075546 0.796822 
-0.075546 -9.96775 -0.452295 
0.796822 -0.452295 -9.55771 
-8.831 0.284306 0.262707 
0.284306 -9.96233 -0.0591632 
0.262707 -0.0591632 -10.2469 
-8.69313 0.151959 -0.193778 
0.151959 -8.24488 -0.744437 
-0.193778 -0.744437 -8.6462 
-8.61026 0.307506 0.0365471 
0.307506 -8.25498 -0.884779 
0.0365471 -0.884779 -8.71896 
-8.69975 0.606989 0.285092 
0.606989 -8.22046 -0.938536 
0.285092 -0.938536 -8.664 
-8.87693 0.159955 0.0287815 
0.159955 -8.22468 -0.975409 
0.0287815 -0.975409 -8.48259 
-9.57565 0.0714351 0.338982 
0.0714351 -9.13584 0.238793 
0.338982 0.238793 -9.77815 
-9.35769 0.31135 0.487247 
0.31135 -9.29715 0.337726 
0.487247 0.337726 -9.8348 
-9.49701 0.129315 0.471845 
0.129315 -9.27892 0.339466 
0.471845 0.339466 -9.71372 
-9.90102 0.0616537 0.836976 
0.0616537 -8.99125 0.438627 
0.836976 0.438627 -9.59737 
-9.38681 0.530513 -0.454991 
0.530513 -7.20855 1.28156 
-0.454991 1.28156 -5.47483 
-8.22439 0.385031 -0.106966 
0.385031 -7.67975 1.35081 
-0.106966 1.35081 -6.16606 
-9.426 0.0907312 0.156302 
0.0907312 -7.6375 0.779779 
0.156302 0.779779 -5.00668 
-9.02668 0.370688 -0.186928 
0.370688 -7.41315 1.78327 
-0.186928 1.78327 -5.63037 
-9.69462 -0.214143 0.089973 
-0.214143 -8.74476 -0.641138 
0.089973 -0.641138 -10.3188 
-9.71495 0.194065 0.228604 
0.194065 -8.93555 -0.00987378 
0.228604 -0.00987378 -10.1076 
-9.47224 0.116804 0.305665 
0.116804 -9.20706 0.0864091 
0.305665 0.0864091 -10.0788 
-9.6476 0.542505 0.314514 
0.542505 -8.69586 0.135974 
0.314514 0.135974 -10.4147 
-8.5296 0.400382 2.34534 
0.400382 -9.29394 -1.12583 
2.34534 -1.12583 -9.52706 
-9.63897 -0.200095 -0.840054 
-0.200095 -8.17709 0.880246 
-0.840054 0.880246 -9.53454 
-9.27554 -0.0661574 -1.018 
-0.0661574 -8.7092 1.33535 
-1.018 1.33535 -9.36587 
-10.3006 -0.258828 -0.013968 
-0.258828 -7.83684 2.1103 
-0.013968 2.1103 -9.21313 
-9.32968 0.697415 -3.08577 
0.697415 -8.05558 -1.44688 
-3.08577 -1.44688 -6.40012 
-7.95501 0.482777 -1.57139 
0.482777 -7.31701 -1.06517 
-1.57139 -1.06517 -8.51336 
-8.03794 -0.232935 -1.31699 
-0.232935 -8.7793 -0.114849 
-1.31699 -0.114849 -6.96814 
-8.5469 0.34879 -0.723062 
0.34879 -8.63134 -0.477787 
-0.723062 -0.477787 -6.60714 
-9.62583 0.0108583 0.136706 
0.0108583 -9.48108 0.109949 
0.136706 0.109949 -9.78938 
-9.50499 0.017045 0.0784994 
0.017045 -9.45636 0.0304238 
0.0784994 0.0304238 -9.93493 
-9.59623 -0.0129764 0.100171 
-0.0129764 -9.50329 0.0723768 
0.100171 0.0723768 -9.79676 
-9.61307 -0.0754667 0.0981795 
-0.0754667 -9.50745 0.0632424 
0.0981795 0.0632424 -9.77577 
-9.64038 0.177371 0.160671 
0.177371 -8.83464 -0.617188 
0.160671 -0.617188 -9.50859 
-9.61562 0.387104 -0.053521 
0.387104 -8.72598 -0.742674 
-0.053521 -0.742674 -9.64202 
-9.1725 -0.0384884 0.155603 
-0.0384884 -9.47586 -0.396232 
0.155603 -0.396232 -9.33525 
-9.87954 0.129698 -0.0154974 
0.129698 -8.31692 -0.939575 
-0.0154974 -0.939575 -9.78716 
-9.39574 0.195398 0.285695 
0.195398 -9.18951 -0.165002 
0.285695 -0.165002 -9.57188 
-9.41847 0.0864343 0.161949 
0.0864343 -9.23552 0.13455 
0.161949 0.13455 -9.50314 
-9.40258 0.112296 0.233242 
0.112296 -9.31972 0.135802 
0.233242 0.135802 -9.43484 
-9.64977 0.20175 0.285002 
0.20175 -9.0448 0.256694 
0.285002 0.256694 -9.46256 
-9.75833 0.0198567 -0.00607248 
0.0198567 -9.52589 0.0497139 
-0.00607248 0.0497139 -9.66704 
-9.72968 0.0806319 -0.178252 
0.0806319 -9.50671 0.0197849 
-0.178252 0.0197849 -9.71488 
-9.93425 0.00747155 0.0818915 
0.00747155 -9.43002 -0.0117353 
0.0818915 -0.0117353 -9.587 
-9.58655 -0.0425346 -0.0516302 
-0.0425346 -9.56538 0.062306 
-0.0516302 0.062306 -9.79934 
-8.93359 0.0574137 -0.0781781 
0.0574137 -8.75534 2.08878 
-0.0781781 2.08878 -9.50002 
-9.75497 -0.3956 0.187573 
-0.3956 -8.1247 1.32207 
0.187573 1.32207 -9.30928 
-9.61665 -0.267493 0.291807 
-0.267493 -7.86271 1.45145 
0.291807 1.45145 -9.70958 
-9.89063 -0.389313 0.178857 
-0.389313 -8.57699 0.812726 
0.178857 0.812726 -8.72132 
-9.33954 0.01102 -0.276872 
0.01102 -9.48497 0.0331161 
-0.276872 0.0331161 -9.86435 
-9.11361 -0.0205638 -0.371509 
-0.0205638 -9.59747 -0.0312743 
-0.371509 -0.0312743 -9.97779 
-9.36475 0.0259373 -0.48288 
0.0259373 -9.5087 5.7519e-05 
-0.48288 5.7519e-05 -9.81542 
-9.47268 -0.0930669 -0.581452 
-0.0930669 -9.45357 0.0108723 
-0.581452 0.0108723 -9.76262 
-9.97814 -0.0109943 -0.388444 
-0.0109943 -9.98492 -0.289609 
-0.388444 -0.289609 -9.87268 
-9.88833 -0.0183253 -0.379468 
-0.0183253 -9.90614 -0.286186 
-0.379468 -0.286186 -10.0413 
-9.92852 -0.0329224 -0.359179 
-0.0329224 -9.93373 -0.275804 
-0.359179 -0.275804 -9.97349 
-9.93159 -0.0231481 -0.389923 
-0.0231481 -9.99484 -0.211044 
-0.389923 -0.211044 -9.90932 
-9.74267 -0.0520768 -0.311493 
-0.0520768 -9.75628 -0.195062 
-0.311493 -0.195062 -9.32391 
-9.75412 0.0467488 -0.22984 
0.0467488 -9.7866 -0.359105 
-0.22984 -0.359105 -9.28214 
-9.54494 0.0958445 -0.164781 
0.0958445 -9.61537 -0.264927 
-0.164781 -0.264927 -9.66255 
-9.68587 -0.048359 -0.221834 
-0.048359 -9.7766 -0.245635 
-0.221834 -0.245635 -9.36039 
-9.79376 0.497114 0.537463 
0.497114 -8.81866 0.843243 
0.537463 0.843243 -9.91773 
-9.40959 0.287823 0.375077 
0.287823 -8.79244 0.527748 
0.375077 0.527748 -10.3281 
-9.59844 0.241426 0.157084 
0.241426 -8.72696 0.359769 
0.157084 0.359769 -10.2047 
-9.47859 0.197772 0.418751 
0.197772 -8.39202 0.242517 
0.418751 0.242517 -10.6595 
-9.79596 -0.0599 -0.0798722 
-0.0599 -9.67854 0.474278 
-0.0798722 0.474278 -9.73763 
-9.73167 0.00896992 -0.0760666 
0.00896992 -9.77751 0.603314 
-0.0760666 0.603314 -9.70294 
-9.71963 -0.00523501 -0.0726475 
-0.00523501 -9.82146 0.582297 
-0.0726475 0.582297 -9.67103 
-9.76804 -0.0194934 -0.1344 
-0.0194934 -9.79229 0.567037 
-0.1344 0.567037 -9.65179 
-9.77719 0.0314799 0.32057 
0.0314799 -9.7899 -0.0169254 
0.32057 -0.0169254 -9.86981 
-9.80433 0.033894 0.388361 
0.033894 -9.80472 -0.0351563 
0.388361 -0.0351563 -9.82785 
-9.79641 0.0355203 0.337594 
0.0355203 -9.78551 -0.0296288 
0.337594 -0.0296288 -9.85498 
-9.81713 0.0307249 0.358101 
0.0307249 -9.8059 -0.0823065 
0.358101 -0.0823065 -9.81386 
-9.5031 -0.0398605 -0.523429 
-0.0398605 -9.58697 -0.0838698 
-0.523429 -0.0838698 -9.69823 
-9.47932 -0.0480956 -0.392517 
-0.0480956 -9.56757 -0.0795442 
-0.392517 -0.0795442 -9.74142 
-9.47022 -0.0848871 -0.52998 
-0.0848871 -9.59776 -0.0443531 
-0.52998 -0.0443531 -9.72033 
-9.52319 -0.0196866 -0.533858 
-0.0196866 -9.5844 -0.0723497 
-0.533858 -0.0723497 -9.68072 
-9.59885 0.0470367 -0.225683 
0.0470367 -9.54205 -0.191831 
-0.225683 -0.191831 -9.69835 
-9.73169 -0.0177007 -0.186636 
-0.0177007 -9.79258 -0.38218 
-0.186636 -0.38218 -9.31498 
-9.59318 -0.0536627 -0.0476881 
-0.0536627 -9.93611 -0.442508 
-0.0476881 -0.442508 -9.30996 
-9.66953 -0.107793 -0.133701 
-0.107793 -9.7959 -0.316145 
-0.133701 -0.316145 -9.37382 
-9.78633 0.0194043 0.281223 
0.0194043 -9.68682 -0.106401 
0.281223 -0.106401 -9.9519 
-9.79796 0.0485007 0.295735 
0.0485007 -9.66028 -0.0791009 
0.295735 -0.0791009 -9.96681 
-9.87393 0.0338191 0.327644 
0.0338191 -9.65558 -0.0757253 
0.327644 -0.0757253 -9.89554 
-9.89356 0.0121952 0.341789 
0.0121952 -9.68632 -0.0191365 
0.341789 -0.0191365 -9.84518 
-9.09665 -0.418934 -0.57656 
-0.418934 -10.1773 -0.627286 
-0.57656 -0.627286 -8.68584 
-9.12418 0.155348 -0.493795 
0.155348 -9.04414 -0.536696 
-0.493795 -0.536696 -9.79151 
-9.14072 0.271092 -0.454675 
0.271092 -9.31738 -0.495096 
-0.454675 -0.495096 -9.50174 
-9.22723 -0.165256 -0.658917 
-0.165256 -9.55261 0.0426548 
-0.658917 0.0426548 -9.17999 
-7.76918 -0.16216 0.477562 
-0.16216 -8.96307 -1.1125 
0.477562 -1.1125 -8.8464 
-8.77816 -0.221214 0.684968 
-0.221214 -9.31629 -0.785334 
0.684968 -0.785334 -7.4842 
-8.7991 -0.190062 0.427177 
-0.190062 -8.63566 -0.936221 
0.427177 -0.936221 -8.1439 
-8.999 0.0981823 0.177688 
0.0981823 -8.16683 -1.02349 
0.177688 -1.02349 -8.41282 
-9.36219 0.0701935 0.0457133 
0.0701935 -9.61037 -0.168139 
0.0457133 -0.168139 -9.25685 
-9.34249 -0.0549661 0.0851904 
-0.0549661 -9.56918 0.119903 
0.0851904 0.119903 -9.31774 
-9.50745 -0.0908316 -0.160296 
-0.0908316 -9.22789 -0.171387 
-0.160296 -0.171387 -9.49406 
-9.46701 0.0741081 0.112596 
0.0741081 -9.52874 0.150953 
0.112596 0.150953 -9.23366 
-9.76016 0.0589701 0.116254 
0.0589701 -9.0996 -0.225179 
0.116254 -0.225179 -10.0858 
-9.70502 0.134622 0.126326 
0.134622 -9.10185 -0.198632 
0.126326 -0.198632 -10.1387 
-9.75207 0.153973 0.136884 
0.153973 -9.05217 -0.189207 
0.136884 -0.189207 -10.1414 
-9.63222 0.147818 0.298973 
0.147818 -9.2764 -0.169702 
0.298973 -0.169702 -10.037 
-9.49966 0.379494 0.134066 
0.379494 -10.0192 -0.0369826 
0.134066 -0.0369826 -10.7615 
-9.63166 0.118756 0.0142547 
0.118756 -9.54942 -0.223612 
0.0142547 -0.223612 -11.0992 
-9.64337 0.249818 0.0108678 
0.249818 -9.69667 0.16012 
0.0108678 0.16012 -10.9403 
-10.0473 0.554227 -0.146903 
0.554227 -9.38569 0.395925 
-0.146903 0.395925 -10.8473 
-9.90559 0.0320783 -0.140693 
0.0320783 -9.83919 0.0994201 
-0.140693 0.0994201 -10.0347 
-9.98461 0.0369309 -0.0998599 
0.0369309 -9.88688 0.0424542 
-0.0998599 0.0424542 -9.90794 
-9.8676 0.0206381 -0.126095 
0.0206381 -9.93342 0.0496105 
-0.126095 0.0496105 -9.97841 
-10.0036 0.0187212 -0.14672 
0.0187212 -9.84311 0.0128257 
-0.14672 0.0128257 -9.93277 
-9.60026 -0.0416069 -0.00615318 
-0.0416069 -9.75286 -0.541273 
-0.00615318 -0.541273 -9.45727 
-9.59508 0.0548859 -0.0158782 
0.0548859 -9.6476 -0.559212 
-0.0158782 -0.559212 -9.5677 
-9.59217 -0.0102048 0.0123355 
-0.0102048 -9.7359 -0.54357 
0.0123355 -0.54357 -9.48232 
-9.61331 0.0167864 0.0442968 
0.0167864 -9.74708 -0.545792 
0.0442968 -0.545792 -9.44999 
-4.38843 0.187562 -0.980211 
0.187562 -4.6103 -0.532466 
-0.980211 -0.532466 0.666398 
-3.01056 0.133106 0.103456 
0.133106 -2.70979 -1.4011 
0.103456 -1.4011 -2.61198 
-4.00515 -0.303181 -0.365368 
-0.303181 -4.31055 -1.19816 
-0.365368 -1.19816 -0.016638 
-5.04709 0.909718 1.59155 
0.909718 -3.28941 -0.531942 
1.59155 -0.531942 0.00416129 
-9.66738 0.0253406 0.332527 
0.0253406 -9.41154 -0.0150145 
0.332527 -0.0150145 -9.862 
-9.37805 0.015444 -0.0612077 
0.015444 -9.28646 0.246199 
-0.0612077 0.246199 -10.2764 
-9.4167 -0.0011352 0.257394 
-0.0011352 -9.47682 0.010953 
0.257394 0.010953 -10.0474 
-9.68884 -0.212019 0.551405 
-0.212019 -8.99386 -0.274245 
0.551405 -0.274245 -10.2582 
-9.54463 -0.572041 0.455176 
-0.572041 -9.2391 0.234423 
0.455176 0.234423 -10.0244 
-9.28149 -0.43763 -0.015781 
-0.43763 -9.27375 -0.0996 
-0.015781 -0.0996 -10.2529 
-9.48203 -0.198488 -0.478414 
-0.198488 -9.73939 -0.148184 
-0.478414 -0.148184 -9.58674 
-9.4275 0.138512 -0.229456 
0.138512 -9.51088 0.0789739 
-0.229456 0.0789739 -9.86978 
-9.40219 -0.0440252 -0.024813 
-0.0440252 -9.06259 -0.0676539 
-0.024813 -0.0676539 -9.31356 
-9.46376 -0.0160755 -0.252755 
-0.0160755 -8.91228 -0.0133003 
-0.252755 -0.0133003 -9.40228 
-9.83631 -0.125426 -0.0630282 
-0.125426 -8.8294 -0.117625 
-0.0630282 -0.117625 -9.11261 
-9.57488 -0.0811218 -0.0709792 
-0.0811218 -8.92977 -0.158056 
-0.0709792 -0.158056 -9.27368 
-9.51942 -0.0406203 -0.617762 
-0.0406203 -9.40088 -0.0409989 
-0.617762 -0.0409989 -9.61283 
-9.524 0.0177028 -0.457682 
0.0177028 -9.37866 -0.0525094 
-0.457682 -0.0525094 -9.63047 
-9.5072 -0.0680252 -0.435941 
-0.0680252 -9.38769 -0.0187224 
-0.435941 -0.0187224 -9.63825 
-9.27596 -0.0471959 -0.555472 
-0.0471959 -9.51596 -0.000876587 
-0.555472 -0.000876587 -9.74122 
-8.96173 -0.103219 0.148794 
-0.103219 -9.42294 0.544958 
0.148794 0.544958 -9.39466 
-9.23602 -0.0764573 -0.100777 
-0.0764573 -9.15844 0.670159 
-0.100777 0.670159 -9.38487 
-8.73605 -0.354245 0.259649 
-0.354245 -9.32647 0.570227 
0.259649 0.570227 -9.71681 
-9.04531 -0.152969 0.35597 
-0.152969 -9.46314 0.593156 
0.35597 0.593156 -9.27089 
-9.83825 -0.0904616 -0.434977 
-0.0904616 -9.75048 -0.16277 
-0.434977 -0.16277 -9.91548 
-9.89723 -0.0583007 -0.40169 
-0.0583007 -9.8611 -0.118123 
-0.40169 -0.118123 -9.74587 
-9.83218 -0.0231293 -0.378892 
-0.0231293 -9.85534 -0.129922 
-0.378892 -0.129922 -9.81669 
-9.84405 -0.0176931 -0.394656 
-0.0176931 -9.83183 -0.1522 
-0.394656 -0.1522 -9.82833 
-9.63468 0.0779867 -0.15755 
0.0779867 -9.71128 0.530717 
-0.15755 0.530717 -9.4784 
-9.66041 0.0319558 -0.0600272 
0.0319558 -9.82298 0.510097 
-0.0600272 0.510097 -9.34096 
-9.61263 -0.0218329 -0.0879392 
-0.0218329 -9.79054 0.543664 
-0.0879392 0.543664 -9.42118 
-9.6054 -0.0241983 -0.0771374 
-0.0241983 -9.70851 0.590824 
-0.0771374 0.590824 -9.51044 
-9.55877 0.189973 0.462655 
0.189973 -7.78835 -0.722908 
0.462655 -0.722908 -10.1008 
-9.86825 0.371251 0.210061 
0.371251 -8.75778 -0.907702 
0.210061 -0.907702 -8.82185 
-9.3911 -0.22976 0.373741 
-0.22976 -8.30789 -1.45862 
0.373741 -1.45862 -9.74889 
-9.4759 0.36903 0.581214 
0.36903 -9.18317 -0.693067 
0.581214 -0.693067 -8.7888 
-9.63982 0.000811666 -0.00239921 
0.000811666 -9.32728 -0.548248 
-0.00239921 -0.548248 -10.0528 
-9.98397 0.114894 0.376308 
0.114894 -8.56646 -0.710752 
0.376308 -0.710752 -10.4695 
-9.96431 0.184239 0.519903 
0.184239 -8.86535 -0.611427 
0.519903 -0.611427 -10.1902 
-9.80836 -0.158283 0.278965 
-0.158283 -9.25558 -0.745966 
0.278965 -0.745966 -9.95596 
-9.52003 -0.0254666 0.185352 
-0.0254666 -9.60889 -0.663068 
0.185352 -0.663068 -9.2602 
-9.48185 -0.0740608 0.266373 
-0.0740608 -9.48958 -0.457471 
0.266373 -0.457471 -9.4177 
-9.59829 0.0513964 0.295391 
0.0513964 -9.49876 -0.802433 
0.295391 -0.802433 -9.29208 
-9.53056 -0.00693337 0.0313709 
-0.00693337 -9.7329 -0.59764 
0.0313709 -0.59764 -9.12567 
-9.14662 -0.118206 -0.483805 
-0.118206 -9.53765 0.0491722 
-0.483805 0.0491722 -9.80854 
-9.35591 -0.18815 -0.487153 
-0.18815 -9.43643 0.0907473 
-0.487153 0.0907473 -9.70047 
-9.23583 -0.166276 -0.407708 
-0.166276 -9.5639 -0.0974534 
-0.407708 -0.0974534 -9.69308 
-9.34895 -0.0426861 -0.315745 
-0.0426861 -9.34615 -0.113252 
-0.315745 -0.113252 -9.79771 
-9.77571 0.0229412 0.430061 
0.0229412 -9.80974 -0.220908 
0.430061 -0.220908 -9.81447 
-9.78082 -0.0114524 0.372038 
-0.0114524 -9.78407 -0.24116 
0.372038 -0.24116 -9.83503 
-9.77814 -0.0174294 0.458098 
-0.0174294 -9.85577 -0.20909 
0.458098 -0.20909 -9.76601 
-9.74938 0.0569447 0.458697 
0.0569447 -9.80376 -0.211404 
0.458697 -0.211404 -9.84678 
-9.54457 0.0825345 -0.383234 
0.0825345 -9.46317 0.201315 
-0.383234 0.201315 -9.77195 
-9.47028 0.0439035 -0.406966 
0.0439035 -9.56239 0.200179 
-0.406966 0.200179 -9.74702 
-9.35565 -0.0995757 -0.456094 
-0.0995757 -9.57857 0.189151 
-0.456094 0.189151 -9.84548 
-9.57314 0.121492 -0.549042 
0.121492 -9.4788 0.290032 
-0.549042 0.290032 -9.72776 
-9.36243 -0.0466824 -0.368863 
-0.0466824 -9.57581 0.301118 
-0.368863 0.301118 -9.65329 
-9.45589 0.10728 -0.468415 
0.10728 -9.62906 0.208835 
-0.468415 0.208835 -9.50657 
-9.31535 0.0168663 -0.313229 
0.0168663 -9.4604 0.25722 
-0.313229 0.25722 -9.81577 
-9.43341 0.0654 -0.435506 
0.0654 -9.54084 0.271857 
-0.435506 0.271857 -9.61728 
-9.08045 0.114055 -0.268257 
0.114055 -9.53565 0.231404 
-0.268257 0.231404 -10.0215 
-9.08707 -0.0748101 -0.0168686 
-0.0748101 -9.58952 -0.0218088 
-0.0168686 -0.0218088 -9.96107 
-9.06642 0.0365512 -0.224114 
0.0365512 -9.5131 -0.0229814 
-0.224114 -0.0229814 -10.0581 
-9.03869 -0.00879152 -0.255263 
-0.00879152 -9.46429 -0.0887037 
-0.255263 -0.0887037 -10.1347 
-8.88129 0.156194 0.332968 
0.156194 -9.4909 -0.125824 
0.332968 -0.125824 -9.5802 
-8.95343 0.00751912 0.553531 
0.00751912 -9.51457 0.0971081 
0.553531 0.0971081 -9.48439 
-9.24238 0.0486261 0.581421 
0.0486261 -9.4549 0.221513 
0.581421 0.221513 -9.25511 
-9.03572 0.212893 0.57254 
0.212893 -9.27393 -0.230106 
0.57254 -0.230106 -9.64275 
-9.30126 -0.121267 0.193735 
-0.121267 -9.60565 -0.615642 
0.193735 -0.615642 -10.123 
-9.96642 -0.0889902 0.499921 
-0.0889902 -10.119 -0.482589 
0.499921 -0.482589 -8.94451 
-9.80223 0.0429779 0.332781 
0.0429779 -9.66689 -0.336115 
0.332781 -0.336115 -9.56083 
-9.78701 0.0598371 0.219329 
0.0598371 -9.69257 -0.270993 
0.219329 -0.270993 -9.55035 
-8.03925 0.10981 0.63866 
0.10981 -8.22061 -0.794255 
0.63866 -0.794255 -7.70441 
-8.39235 -0.0812646 -0.830064 
-0.0812646 -8.40894 -0.972716 
-0.830064 -0.972716 -7.16298 
-8.397 0.094135 -0.273971 
0.094135 -8.1858 -0.915461 
-0.273971 -0.915461 -7.38147 
-8.25445 0.360592 0.0874805 
0.360592 -8.74552 -2.09667 
0.0874805 -2.09667 -6.9643 
-9.78156 0.0119427 0.264692 
0.0119427 -9.79745 -0.423254 
0.264692 -0.423254 -9.74089 
-9.58819 -0.0194441 0.268046 
-0.0194441 -9.97296 -0.453597 
0.268046 -0.453597 -9.75875 
-9.88621 0.000115904 0.246792 
0.000115904 -9.70784 -0.296647 
0.246792 -0.296647 -9.72586 
-9.89986 -0.082735 0.402072 
-0.082735 -9.79694 -0.414814 
0.402072 -0.414814 -9.6231 
-9.52777 0.0558756 0.449627 
0.0558756 -9.53966 -0.070899 
0.449627 -0.070899 -9.70385 
-9.45744 0.0342035 0.503511 
0.0342035 -9.65184 -0.0133315 
0.503511 -0.0133315 -9.66199 
-9.45458 0.189091 0.51376 
0.189091 -9.54155 -0.00724026 
0.51376 -0.00724026 -9.77514 
-9.50535 0.0775498 0.433949 
0.0775498 -9.58175 -0.131005 
0.433949 -0.131005 -9.68418 
-9.75564 0.0396901 -0.492009 
0.0396901 -9.72816 0.23982 
-0.492009 0.23982 -9.89415 
-9.71341 -0.034604 -0.446337 
-0.034604 -9.80944 0.168646 
-0.446337 0.168646 -9.8551 
-9.76315 -0.012593 -0.381605 
-0.012593 -9.81168 0.134019 
-0.381605 0.134019 -9.80313 
-9.72269 -0.0153205 -0.440755 
-0.0153205 -9.74911 0.171759 
-0.440755 0.171759 -9.90615 
-9.24968 -0.0857042 0.0632626 
-0.0857042 -9.19057 0.704439 
0.0632626 0.704439 -9.48052 
-9.371 -0.0953549 0.472715 
-0.0953549 -9.42436 0.618363 
0.472715 0.618363 -9.1254 
-9.41623 -0.115281 0.171013 
-0.115281 -9.37739 0.491955 
0.171013 0.491955 -9.12716 
-9.27719 -0.13961 0.229086 
-0.13961 -9.40413 0.541181 
0.229086 0.541181 -9.23944 
-8.88981 -0.242765 -0.722428 
-0.242765 -9.52757 0.0403203 
-0.722428 0.0403203 -9.79055 
-8.85379 -0.290137 -0.657755 
-0.290137 -9.6011 0.162113 
-0.657755 0.162113 -9.75305 
-8.99406 -0.531548 -0.89109 
-0.531548 -9.41286 0.0360211 
-0.89109 0.0360211 -9.80102 
-9.00565 -0.543373 -0.82361 
-0.543373 -9.34567 0.127519 
-0.82361 0.127519 -9.85663 
-9.71569 0.0331568 0.0770033 
0.0331568 -9.66362 -0.0457485 
0.0770033 -0.0457485 -9.91113 
-9.79676 0.0775213 0.116129 
0.0775213 -9.74036 -0.0845451 
0.116129 -0.0845451 -9.75332 
-9.73162 0.00576725 0.0281292 
0.00576725 -9.68817 0.0248966 
0.0281292 0.0248966 -9.87066 
-9.81436 0.0754372 0.146597 
0.0754372 -9.67934 -0.0333444 
0.146597 -0.0333444 -9.79674 
-9.41153 -0.0159754 -0.516299 
-0.0159754 -9.24968 0.349057 
-0.516299 0.349057 -9.46068 
-9.80679 -0.334095 -1.0792 
-0.334095 -9.48618 0.622934 
-1.0792 0.622934 -8.8289 
-9.31186 0.125884 -1.00047 
0.125884 -9.61226 0.0198276 
-1.00047 0.0198276 -9.19776 
-9.3563 0.201097 -0.78053 
0.201097 -9.8146 -0.0710293 
-0.78053 -0.0710293 -8.95098 
-9.58681 0.0287861 0.0985727 
0.0287861 -9.36527 0.0980544 
0.0985727 0.0980544 -9.88095 
-9.63782 -0.00256828 0.202164 
-0.00256828 -9.48108 0.070602 
0.202164 0.070602 -9.71413 
-9.53955 0.00744496 0.162622 
0.00744496 -9.43235 0.211341 
0.162622 0.211341 -9.86113 
-9.54654 -0.00410332 0.132734 
-0.00410332 -9.36454 0.091528 
0.132734 0.091528 -9.92195 
-9.50006 0.0992155 0.0632002 
0.0992155 -9.40787 -0.114042 
0.0632002 -0.114042 -9.99285 
-9.41298 0.0435229 0.106807 
0.0435229 -9.42479 -0.102258 
0.106807 -0.102258 -10.063 
-9.5345 0.0379086 0.143413 
0.0379086 -9.37537 -0.103213 
0.143413 -0.103213 -9.99092 
-9.46937 0.110606 0.0873845 
0.110606 -9.41492 -0.123753 
0.0873845 -0.123753 -10.0165 
-9.67142 -0.0234169 -0.118778 
-0.0234169 -9.44984 0.0212834 
-0.118778 0.0212834 -9.50456 
-9.84512 0.056061 -0.246032 
0.056061 -9.33496 0.072088 
-0.246032 0.072088 -9.44574 
-9.62433 -0.0309455 -0.249782 
-0.0309455 -9.37495 -0.058736 
-0.249782 -0.058736 -9.62654 
-9.46955 -0.0374372 -0.302786 
-0.0374372 -9.48046 0.0345152 
-0.302786 0.0345152 -9.67581 
-9.44403 0.951597 -0.549754 
0.951597 -9.00064 -0.000681018 
-0.549754 -0.000681018 -9.93759 
-9.05008 0.0978465 -0.784395 
0.0978465 -9.64237 0.101736 
-0.784395 0.101736 -9.68981 
-8.83716 0.547509 -0.697883 
0.547509 -9.32428 -0.0257285 
-0.697883 -0.0257285 -10.2208 
-8.59552 0.661002 -0.577275 
0.661002 -9.52875 0.0533128 
-0.577275 0.0533128 -10.258 
-9.34872 0.085484 0.215077 
0.085484 -9.32172 -0.0220665 
0.215077 -0.0220665 -10.1696 
-9.5695 0.0358359 0.110269 
0.0358359 -9.66657 -0.11896 
0.110269 -0.11896 -9.60401 
-9.70251 0.0857324 0.115178 
0.0857324 -9.55703 -0.311807 
0.115178 -0.311807 -9.58054 
-9.61274 -0.0344604 0.151875 
-0.0344604 -9.62271 -0.1534 
0.151875 -0.1534 -9.60463 
-9.67029 0.139585 -1.98378 
0.139585 -7.17743 -1.05033 
-1.98378 -1.05033 -9.26865 
-8.93564 -0.775535 -1.53501 
-0.775535 -9.0544 -0.35067 
-1.53501 -0.35067 -8.12634 
-9.6764 0.433765 -1.10721 
0.433765 -9.33894 -0.685896 
-1.10721 -0.685896 -7.10104 
-8.55196 1.33949 1.16822 
1.33949 -8.4009 -0.539696 
1.16822 -0.539696 -9.16352 
-9.88804 -0.369688 0.521162 
-0.369688 -9.06153 -0.100487 
0.521162 -0.100487 -10.6017 
-9.59814 -0.455256 0.363842 
-0.455256 -9.89422 0.057261 
0.363842 0.057261 -10.0589 
-10.2721 -0.470267 0.43558 
-0.470267 -8.88233 -0.135374 
0.43558 -0.135374 -10.3969 
-10.1129 -0.500526 0.378682 
-0.500526 -8.8266 -0.0247694 
0.378682 -0.0247694 -10.6118 
-9.47475 -0.0576536 0.490038 
-0.0576536 -9.70474 0.426815 
0.490038 0.426815 -9.65403 
-9.55548 0.0856757 0.474717 
0.0856757 -9.76309 0.195575 
0.474717 0.195575 -9.51496 
-9.72867 -0.159221 0.552643 
-0.159221 -9.79339 0.0699821 
0.552643 0.0699821 -9.31147 
-9.69314 0.12432 0.496246 
0.12432 -9.64235 0.407201 
0.496246 0.407201 -9.49804 
-9.49856 -0.0316524 0.539927 
-0.0316524 -9.53493 -0.358219 
0.539927 -0.358219 -8.58705 
-9.48091 -0.0753555 0.505274 
-0.0753555 -9.61308 -0.464358 
0.505274 -0.464358 -8.52655 
-9.30369 -0.14098 0.455629 
-0.14098 -9.92328 -0.0705961 
0.455629 -0.0705961 -8.39356 
-9.39353 -0.0420979 0.377853 
-0.0420979 -9.21739 -0.221953 
0.377853 -0.221953 -9.00961 
-9.57405 -0.0250326 0.145675 
-0.0250326 -9.45799 -0.345773 
0.145675 -0.345773 -9.39238 
-9.57187 0.11286 0.145193 
0.11286 -9.34879 -0.0915441 
0.145193 -0.0915441 -9.50376 
-9.53551 0.105451 0.134245 
0.105451 -9.46199 -0.145554 
0.134245 -0.145554 -9.42693 
-9.4217 -0.0231129 0.157293 
-0.0231129 -9.51564 -0.0611937 
0.157293 -0.0611937 -9.48708 
-9.62083 0.084144 0.124522 
0.084144 -9.37904 -0.127774 
0.124522 -0.127774 -9.87786 
-9.55933 0.0582933 0.067533 
0.0582933 -9.55158 -0.257475 
0.067533 -0.257475 -9.76682 
-9.58341 0.0374485 0.0613016 
0.0374485 -9.41339 -0.130219 
0.0613016 -0.130219 -9.88093 
-9.61946 0.0412741 0.0367602 
0.0412741 -9.49286 -0.130645 
0.0367602 -0.130645 -9.7654 
-9.16957 -0.116736 0.182811 
-0.116736 -10.2766 -0.0148656 
0.182811 -0.0148656 -11.4504 
-9.40776 -0.227677 0.421841 
-0.227677 -10.1812 -0.144055 
0.421841 -0.144055 -11.3077 
-10.0396 -0.0316354 0.328599 
-0.0316354 -9.91691 -0.450908 
0.328599 -0.450908 -10.9401 
-9.25606 -0.552781 0.555604 
-0.552781 -9.99355 -0.0447331 
0.555604 -0.0447331 -11.6471 
-9.84599 0.0200872 0.239929 
0.0200872 -9.75933 -0.0130746 
0.239929 -0.0130746 -9.97075 
-9.83296 0.0366167 0.196835 
0.0366167 -9.75249 -0.0375837 
0.196835 -0.0375837 -9.99063 
-9.80975 0.0930742 0.186118 
0.0930742 -9.76375 -0.0044583 
0.186118 -0.0044583 -10.0026 
-9.88755 -0.0105551 0.174679 
-0.0105551 -9.74348 -0.0676067 
0.174679 -0.0676067 -9.94504 
-9.8264 -0.0193524 0.403655 
-0.0193524 -9.84185 -0.168852 
0.403655 -0.168852 -9.91637 
-9.86114 -0.0194902 0.410134 
-0.0194902 -9.87568 -0.140146 
0.410134 -0.140146 -9.84779 
-9.8602 0.0499978 0.377744 
0.0499978 -9.85363 -0.188797 
0.377744 -0.188797 -9.87079 
-9.83138 0.0220266 0.36951 
0.0220266 -9.87807 -0.1455 
0.36951 -0.1455 -9.87517 
-9.56864 0.206929 0.274555 
0.206929 -9.05308 -0.226614 
0.274555 -0.226614 -9.98236 
-9.17473 -0.350961 0.988126 
-0.350961 -9.57028 -0.856783 
0.988126 -0.856783 -9.85908 
-9.42199 -0.568875 0.269837 
-0.568875 -9.80642 -0.31348 
0.269837 -0.31348 -9.37568 
-10.0071 0.269452 0.276327 
0.269452 -9.07423 -0.684235 
0.276327 -0.684235 -9.52279 
-9.83278 0.00311029 -0.0700422 
0.00311029 -9.83469 -0.515218 
-0.0700422 -0.515218 -9.83288 
-9.80129 -0.0524414 -0.0339399 
-0.0524414 -9.82163 -0.524434 
-0.0339399 -0.524434 -9.87743 
-9.84627 0.00109885 -0.0870969 
0.00109885 -9.85974 -0.579557 
-0.0870969 -0.579557 -9.79434 
-9.83643 -0.0481808 -0.0927699 
-0.0481808 -9.91169 -0.59465 
-0.0927699 -0.59465 -9.75224 
-9.12713 -0.141313 -0.0155726 
-0.141313 -9.42948 0.643503 
-0.0155726 0.643503 -9.15558 
-9.11967 -0.0828151 0.212669 
-0.0828151 -9.31268 0.545198 
0.212669 0.545198 -9.27984 
-9.27376 -0.136831 0.216475 
-0.136831 -9.29296 0.685732 
0.216475 0.685732 -9.14547 
-9.33917 -0.072665 0.266705 
-0.072665 -9.34102 0.657271 
0.266705 0.657271 -9.032 
-9.53226 -0.141222 -0.575762 
-0.141222 -9.60574 -0.384905 
-0.575762 -0.384905 -9.88351 
-9.25193 -0.461582 -0.400763 
-0.461582 -9.35183 0.154038 
-0.400763 0.154038 -10.4178 
-9.34984 -0.648546 0.112227 
-0.648546 -9.45606 0.342697 
0.112227 0.342697 -10.2156 
-8.78198 -0.334368 -0.381345 
-0.334368 -9.94874 -0.344502 
-0.381345 -0.344502 -10.2908 
-9.8129 -0.0118493 0.164438 
-0.0118493 -9.7336 0.00729984 
0.164438 0.00729984 -9.9222 
-9.81686 0.0240033 0.146012 
0.0240033 -9.74405 0.0220723 
0.146012 0.0220723 -9.90779 
-9.79392 0.0475844 0.170057 
0.0475844 -9.76571 0.0371742 
0.170057 0.0371742 -9.90906 
-9.86479 -0.0409812 0.216603 
-0.0409812 -9.74559 0.0551559 
0.216603 0.0551559 -9.85832 
-9.31042 0.07768 -0.760642 
0.07768 -9.20091 -0.235881 
-0.760642 -0.235881 -9.08227 
-9.39658 -0.112527 -0.453715 
-0.112527 -9.33505 0.221319 
-0.453715 0.221319 -8.86197 
-8.99486 0.0516193 -0.231557 
0.0516193 -9.60586 -0.216418 
-0.231557 -0.216418 -8.99288 
-9.5809 -0.162924 -0.426163 
-0.162924 -9.07317 -0.0636301 
-0.426163 -0.0636301 -8.93953 
-8.80606 -0.104372 0.269925 
-0.104372 -9.13466 -1.03978 
0.269925 -1.03978 -6.53431 
-8.37307 -0.446919 -0.164089 
-0.446919 -8.99207 -0.87051 
-0.164089 -0.87051 -7.10989 
-8.16028 -0.179027 -0.344053 
-0.179027 -8.82567 -1.28541 
-0.344053 -1.28541 -7.48908 
-8.83935 0.485621 -0.407795 
0.485621 -7.81102 -0.117433 
-0.407795 -0.117433 -7.82466 
-9.88615 0.0219228 -0.0925832 
0.0219228 -9.81811 0.0979187 
-0.0925832 0.0979187 -9.89904 
-9.87745 -0.0546849 -0.13509 
-0.0546849 -9.74302 -0.0489328 
-0.13509 -0.0489328 -9.98284 
-9.93785 -0.0150063 -0.116203 
-0.0150063 -9.82395 0.140547 
-0.116203 0.140547 -9.8415 
-9.91858 -0.00190237 -0.115087 
-0.00190237 -9.77051 -0.00700974 
-0.115087 -0.00700974 -9.91421 
-9.38378 0.0490754 0.230087 
0.0490754 -9.04596 -0.0709962 
0.230087 -0.0709962 -9.24152 
-9.31407 0.0661033 0.073481 
0.0661033 -9.14381 -0.0148541 
0.073481 -0.0148541 -9.21338 
-9.41012 0.097998 0.290145 
0.097998 -9.07698 -0.0172256 
0.290145 -0.0172256 -9.18416 
-9.48456 0.210036 0.297174 
0.210036 -9.0895 -0.107854 
0.297174 -0.107854 -9.09719 
-9.83422 0.0560387 -0.0972993 
0.0560387 -9.88795 0.354032 
-0.0972993 0.354032 -9.74094 
-9.88157 -0.134267 -0.087288 
-0.134267 -9.73532 0.337279 
-0.087288 0.337279 -9.84622 
-9.93486 -0.0882585 -0.0663712 
-0.0882585 -9.84428 0.316327 
-0.0663712 0.316327 -9.68397 
-9.8068 0.0347289 -0.0995847 
0.0347289 -9.90951 0.304809 
-0.0995847 0.304809 -9.7468 
-9.15965 -0.23822 -0.0872012 
-0.23822 -9.6153 -0.0161008 
-0.0872012 -0.0161008 -9.94927 
-9.45424 -0.501165 -0.172065 
-0.501165 -9.19348 -0.268102 
-0.172065 -0.268102 -10.0765 
-9.34558 -0.220575 -0.210904 
-0.220575 -9.46157 -0.00718109 
-0.210904 -0.00718109 -9.91706 
-9.49213 0.168836 -0.381087 
0.168836 -9.50479 0.292393 
-0.381087 0.292393 -9.72728 
-9.63207 0.0544167 0.460325 
0.0544167 -9.74449 -0.194173 
0.460325 -0.194173 -9.53729 
-9.61994 0.0628862 0.511782 
0.0628862 -9.6908 -0.0924816 
0.511782 -0.0924816 -9.60311 
-9.53269 0.0258453 0.466478 
0.0258453 -9.80521 -0.202697 
0.466478 -0.202697 -9.57595 
-9.56411 -0.0190248 0.449501 
-0.0190248 -9.66264 -0.209421 
0.449501 -0.209421 -9.6871 
-9.87503 0.00682112 -0.0251429 
0.00682112 -9.81923 0.0493809 
-0.0251429 0.0493809 -10.0407 
-9.87233 0.0259235 -0.0127052 
0.0259235 -9.8172 -0.00381434 
-0.0127052 -0.00381434 -10.0454 
-9.9875 -0.00230165 -0.0256874 
-0.00230165 -9.92065 0.0330094 
-0.0256874 0.0330094 -9.82681 
-9.97441 0.00017086 0.0870698 
0.00017086 -9.83529 0.0644039 
0.0870698 0.0644039 -9.92527 
-8.08892 -0.273446 -0.394721 
-0.273446 -7.50453 -1.41074 
-0.394721 -1.41074 -7.56416 
-7.39156 1.46914 -0.30743 
1.46914 -7.4876 -1.93785 
-0.30743 -1.93785 -8.27844 
-8.79968 -2.17915 -0.536467 
-2.17915 -8.37195 -1.262 
-0.536467 -1.262 -5.98597 
-9.32198 1.11194 1.5196 
1.11194 -6.71579 -0.834624 
1.5196 -0.834624 -7.11983 
-9.62452 0.379216 0.113566 
0.379216 -9.34268 -0.407021 
0.113566 -0.407021 -9.34185 
-8.95279 0.00227773 0.261549 
0.00227773 -9.69765 -0.040222 
0.261549 -0.040222 -9.65862 
-8.3999 -0.0329081 0.187714 
-0.0329081 -9.78325 0.116553 
0.187714 0.116553 -10.1259 
-8.91862 -0.183663 0.745525 
-0.183663 -9.74124 -0.00761916 
0.745525 -0.00761916 -9.6492 
-9.56241 -0.0382635 -0.0885285 
-0.0382635 -9.55148 -0.0520233 
-0.0885285 -0.0520233 -9.34657 
-9.55437 -0.0344628 -0.0200407 
-0.0344628 -9.52551 -0.109882 
-0.0200407 -0.109882 -9.38058 
-9.52398 -0.0233874 -0.0025493 
-0.0233874 -9.51694 -0.0885686 
-0.0025493 -0.0885686 -9.41954 
-9.58512 0.134058 -0.0208365 
0.134058 -9.47278 -0.223314 
-0.0208365 -0.223314 -9.40256 
-9.61078 0.148059 0.188508 
0.148059 -9.38251 -0.0274703 
0.188508 -0.0274703 -9.73941 
-9.64092 0.151465 0.238363 
0.151465 -9.32005 0.0363682 
0.238363 0.0363682 -9.77173 
-9.52908 0.0491813 0.11675 
0.0491813 -9.36794 -0.0118564 
0.11675 -0.0118564 -9.83568 
-9.54805 0.0877377 0.179011 
0.0877377 -9.36475 -0.0579593 
0.179011 -0.0579593 -9.8199 
-8.29253 0.368469 0.041276 
0.368469 -9.4711 0.0209463 
0.041276 0.0209463 -10.1017 
-9.26906 -0.690477 -0.338587 
-0.690477 -9.35102 -0.077154 
-0.338587 -0.077154 -9.24527 
-9.36775 -0.352696 -0.34912 
-0.352696 -9.48994 -0.0123218 
-0.34912 -0.0123218 -9.00766 
-8.88964 -0.0419176 -1.07214 
-0.0419176 -8.83301 -0.354229 
-1.07214 -0.354229 -10.1427 
-9.11259 -0.0363702 0.264027 
-0.0363702 -9.44096 -0.0870022 
0.264027 -0.0870022 -9.5707 
-9.116 0.542908 0.768562 
0.542908 -9.50762 -0.00235972 
0.768562 -0.00235972 -9.50064 
-9.38226 0.36136 1.06617 
0.36136 -9.42344 -0.0208509 
1.06617 -0.0208509 -9.31856 
-7.27662 -0.0302529 0.976151 
-0.0302529 -10.1682 -0.0407121 
0.976151 -0.0407121 -10.6794 
-9.41206 0.239408 -0.479312 
0.239408 -8.76998 0.765111 
-0.479312 0.765111 -9.1163 
-9.79314 0.921045 -0.129462 
0.921045 -8.67934 0.606458 
-0.129462 0.606458 -8.82586 
-10.0217 0.138139 -0.18243 
0.138139 -8.25287 0.958147 
-0.18243 0.958147 -9.02376 
-9.6858 0.178246 -0.388687 
0.178246 -8.28582 0.688432 
-0.388687 0.688432 -9.32672 
-8.57942 -0.0312684 -0.536636 
-0.0312684 -9.18014 0.682364 
-0.536636 0.682364 -10.099 
-8.9402 -0.214259 -0.0681757 
-0.214259 -9.10432 0.622109 
-0.0681757 0.622109 -9.81402 
-8.8909 -0.213037 -1.30206 
-0.213037 -9.84955 -0.0420046 
-1.30206 -0.0420046 -9.11809 
-8.21657 0.283911 -0.397177 
0.283911 -9.41647 0.560586 
-0.397177 0.560586 -10.2255 
-9.6711 0.345912 -0.210768 
0.345912 -8.84103 0.528188 
-0.210768 0.528188 -9.52672 
-9.63406 0.436257 -0.0348816 
0.436257 -9.01289 0.477028 
-0.0348816 0.477028 -9.39191 
-9.76096 0.0248679 -0.659531 
0.0248679 -9.04761 0.528788 
-0.659531 0.528788 -9.23029 
-9.39924 -0.105961 -0.491053 
-0.105961 -9.14203 0.324722 
-0.491053 0.324722 -9.49758 
-9.48491 0.584447 0.521288 
0.584447 -8.94773 -0.814544 
0.521288 -0.814544 -10.3778 
-9.68219 0.318761 0.77973 
0.318761 -8.84396 -1.08882 
0.77973 -1.08882 -10.2843 
-9.43593 -0.198521 0.229005 
-0.198521 -9.16364 -0.523649 
0.229005 -0.523649 -10.2109 
-10.0018 0.534609 1.88816 
0.534609 -8.94985 -0.685669 
1.88816 -0.685669 -9.85881 
-9.49171 0.224257 0.175003 
0.224257 -9.22237 -0.192699 
0.175003 -0.192699 -10.0561 
-9.60986 0.132724 0.334708 
0.132724 -9.35386 0.0217116 
0.334708 0.0217116 -9.80643 
-9.53238 0.191534 0.263895 
0.191534 -9.26006 -0.00238386 
0.263895 -0.00238386 -9.97771 
-9.65354 0.161984 0.380547 
0.161984 -9.11354 0.188905 
0.380547 0.188905 -10.0031 
-9.30684 -0.42488 0.287645 
-0.42488 -9.01816 -0.483794 
0.287645 -0.483794 -8.23121 
-9.50141 -0.235166 0.117372 
-0.235166 -8.76398 -0.793286 
0.117372 -0.793286 -8.29082 
-8.34882 0.618852 0.67626 
0.618852 -8.87991 -0.841263 
0.67626 -0.841263 -9.32747 
-9.48688 0.194879 0.672964 
0.194879 -9.584 -0.705612 
0.672964 -0.705612 -7.48533 
-9.51251 -0.0670797 -0.565165 
-0.0670797 -9.74821 0.126704 
-0.565165 0.126704 -8.68344 
-9.58884 0.0187149 -0.562719 
0.0187149 -9.48631 0.154265 
-0.562719 0.154265 -8.86901 
-9.54887 0.00729031 -0.431056 
0.00729031 -9.58489 0.104398 
-0.431056 0.104398 -8.81041 
-9.70952 0.0784008 -0.445182 
0.0784008 -9.4962 0.285661 
-0.445182 0.285661 -8.73845 
-8.83106 -0.172142 -0.645939 
-0.172142 -8.82562 0.040712 
-0.645939 0.040712 -7.01403 
-9.41701 0.754668 -1.37655 
0.754668 -8.7575 -0.665376 
-1.37655 -0.665376 -6.4962 
-8.73673 -0.109037 -0.858635 
-0.109037 -8.70747 -0.00339749 
-0.858635 -0.00339749 -7.2265 
-8.79358 -0.0538167 0.0226868 
-0.0538167 -8.33417 -0.657282 
0.0226868 -0.657282 -7.54295 
-9.28729 0.225271 0.299327 
0.225271 -9.46738 -0.00735233 
0.299327 -0.00735233 -9.19869 
-9.18723 -0.0792539 0.0533819 
-0.0792539 -9.48727 -0.0301797 
0.0533819 -0.0301797 -9.27886 
-9.30835 0.020453 0.121605 
0.020453 -9.48374 0.0432866 
0.121605 0.0432866 -9.16127 
-9.41501 -0.09096 0.0921999 
-0.09096 -9.4 0.0522456 
0.0921999 0.0522456 -9.13835 
-8.87926 -0.125935 -0.789509 
-0.125935 -9.58613 0.210521 
-0.789509 0.210521 -9.49427 
-8.47811 -0.183176 -0.337283 
-0.183176 -9.71471 -0.156681 
-0.337283 -0.156681 -9.76685 
-8.79702 -0.544231 -0.537176 
-0.544231 -9.6631 -0.169076 
-0.537176 -0.169076 -9.49955 
-8.94288 -0.336213 -0.482455 
-0.336213 -9.46515 0.64786 
-0.482455 0.64786 -9.55164 
-7.67094 -0.373149 1.76765 
-0.373149 -9.1827 -0.537074 
1.76765 -0.537074 -7.7897 
-7.30497 -0.659365 1.59841 
-0.659365 -8.1512 -0.840215 
1.59841 -0.840215 -9.18717 
-6.68474 -0.358659 1.53096 
-0.358659 -9.75745 -0.744755 
1.53096 -0.744755 -8.20114 
-7.62905 0.632373 0.762383 
0.632373 -9.68215 -0.590103 
0.762383 -0.590103 -7.33214 
-9.73559 0.114863 0.116367 
0.114863 -9.37094 -0.196082 
0.116367 -0.196082 -10.0783 
-9.65819 0.0878987 0.138022 
0.0878987 -9.46295 -0.224673 
0.138022 -0.224673 -10.0636 
-9.71884 0.128627 0.129163 
0.128627 -9.39896 -0.110833 
0.129163 -0.110833 -10.067 
-9.73558 -0.0904828 0.0301742 
-0.0904828 -9.32773 -0.0407249 
0.0301742 -0.0407249 -10.1215 
-9.81806 0.0140531 -0.4426 
0.0140531 -9.81829 0.171171 
-0.4426 0.171171 -9.91349 
-9.79973 -0.01988 -0.465424 
-0.01988 -9.8534 0.169513 
-0.465424 0.169513 -9.89672 
-9.79726 -0.0120245 -0.42577 
-0.0120245 -9.81884 0.170597 
-0.42577 0.170597 -9.93374 
-9.81834 0.00479358 -0.448428 
0.00479358 -9.81747 0.179176 
-0.448428 0.179176 -9.91403 
-8.12797 -1.57925 5.94695 
-1.57925 -9.77552 -3.49715 
5.94695 -3.49715 -5.53825 
-7.9818 -0.357047 2.68169 
-0.357047 -7.73639 -1.41143 
2.68169 -1.41143 -7.72354 
-5.58112 -1.90161 1.91249 
-1.90161 -7.05052 -3.11489 
1.91249 -3.11489 -10.8101 
-10.4897 2.25962 -0.978463 
2.25962 -6.4698 -0.366997 
-0.978463 -0.366997 -6.48227 
-9.44892 -0.150857 0.284016 
-0.150857 -9.00856 0.0771406 
0.284016 0.0771406 -9.57126 
-9.47499 0.00374841 0.0424274 
0.00374841 -9.10911 -0.00430751 
0.0424274 -0.00430751 -9.44465 
-9.36597 -0.0105289 0.40749 
-0.0105289 -9.27237 0.018226 
0.40749 0.018226 -9.39041 
-9.33762 -0.0579404 0.184165 
-0.0579404 -9.02385 0.0176356 
0.184165 0.0176356 -9.66728 
-9.30773 0.218283 0.300866 
0.218283 -9.69798 -0.20002 
0.300866 -0.20002 -9.79534 
-9.41589 0.224278 0.344642 
0.224278 -9.5829 0.0516529 
0.344642 0.0516529 -9.80225 
-9.35543 0.123953 0.345197 
0.123953 -9.58941 0.0673791 
0.345197 0.0673791 -9.8562 
-9.48871 0.0861473 0.254338 
0.0861473 -9.36765 -0.12493 
0.254338 -0.12493 -9.94469 
-8.44124 -0.0149384 0.323022 
-0.0149384 -9.70282 -0.270549 
0.323022 -0.270549 -10.479 
-9.56859 0.638664 -0.91918 
0.638664 -9.4662 0.983053 
-0.91918 0.983053 -9.58827 
-8.63471 -0.617863 0.186065 
-0.617863 -9.89336 -0.106428 
0.186065 -0.106428 -10.095 
-8.49698 -0.593748 -0.218593 
-0.593748 -9.74773 0.10968 
-0.218593 0.10968 -10.3784 
-9.60248 -0.0415446 0.317009 
-0.0415446 -9.67247 -0.573574 
0.317009 -0.573574 -9.86551 
-9.72179 -0.214832 0.249457 
-0.214832 -9.6563 -0.622878 
0.249457 -0.622878 -9.76238 
-9.82969 0.101196 0.318767 
0.101196 -9.87794 -0.574138 
0.318767 -0.574138 -9.43284 
-9.69603 -0.0793486 0.129258 
-0.0793486 -9.78895 -0.556739 
0.129258 -0.556739 -9.65548 
-7.7083 0.116399 0.0400492 
0.116399 -9.86784 -0.289872 
0.0400492 -0.289872 -10.2571 
-8.26495 0.0273392 0.240172 
0.0273392 -9.55053 -0.481754 
0.240172 -0.481754 -10.0178 
-8.18427 -0.0741783 0.110349 
-0.0741783 -9.69724 -1.11611 
0.110349 -1.11611 -9.95173 
-7.89267 0.0234297 0.222063 
0.0234297 -9.48159 -0.474142 
0.222063 -0.474142 -10.459 
-9.38065 0.113617 -0.0320603 
0.113617 -9.44222 -0.238016 
-0.0320603 -0.238016 -9.79543 
-9.41685 -0.0643676 0.0420974 
-0.0643676 -9.53254 -0.190736 
0.0420974 -0.190736 -9.66891 
-9.49296 0.275175 0.16727 
0.275175 -9.29291 -0.101943 
0.16727 -0.101943 -9.83244 
-9.34175 0.00929342 -0.0941995 
0.00929342 -9.36431 -0.320128 
-0.0941995 -0.320128 -9.91225 
-9.77782 0.0299648 0.272968 
0.0299648 -9.70142 0.02781 
0.272968 0.02781 -9.95908 
-9.83993 0.0126422 0.176562 
0.0126422 -9.69864 -0.0719962 
0.176562 -0.0719962 -9.89974 
-9.76989 0.0777896 0.252668 
0.0777896 -9.58795 0.0258607 
0.252668 0.0258607 -10.0805 
-9.80446 0.0393435 0.217476 
0.0393435 -9.66536 0.00884726 
0.217476 0.00884726 -9.96849 
-9.58002 0.188481 0.214156 
0.188481 -9.76107 -0.103858 
0.214156 -0.103858 -9.89319 
-9.49811 0.305928 0.0329136 
0.305928 -9.56176 -0.108852 
0.0329136 -0.108852 -10.1744 
-9.62532 0.358723 -0.213293 
0.358723 -9.62331 0.0445281 
-0.213293 0.0445281 -9.98565 
-9.65965 -0.0806177 0.234529 
-0.0806177 -9.61798 0.0602631 
0.234529 0.0602631 -9.95665 
-9.57743 -0.0778428 -0.251261 
-0.0778428 -9.39499 0.227806 
-0.251261 0.227806 -9.75612 
-9.14707 -0.200124 -0.42839 
-0.200124 -9.62817 0.211385 
-0.42839 0.211385 -9.9533 
-9.18623 -0.0266865 -0.176773 
-0.0266865 -9.76413 -0.397322 
-0.176773 -0.397322 -9.77819 
-9.43148 0.0584895 -0.696085 
0.0584895 -9.44141 -0.351659 
-0.696085 -0.351659 -9.85565 
-9.55155 -0.00672308 0.0568275 
-0.00672308 -9.4547 0.0580447 
0.0568275 0.0580447 -9.70436 
-9.53998 0.000719969 0.0576885 
0.000719969 -9.45821 0.0664637 
0.0576885 0.0664637 -9.71243 
-9.56707 -0.0252403 0.117317 
-0.0252403 -9.40437 0.152281 
0.117317 0.152281 -9.73918 
-9.52229 -0.064304 0.0693635 
-0.064304 -9.42532 0.0623234 
0.0693635 0.0623234 -9.76302 
-9.46118 -0.0692181 -0.341149 
-0.0692181 -9.21238 -0.0384593 
-0.341149 -0.0384593 -9.92608 
-9.39574 0.0634965 -0.522535 
0.0634965 -9.58294 0.0730791 
-0.522535 0.0730791 -9.62097 
-9.30554 -0.125961 -0.303701 
-0.125961 -9.69837 0.0130906 
-0.303701 0.0130906 -9.59574 
-9.30234 0.0423237 -0.535026 
0.0423237 -9.39888 -0.0277054 
-0.535026 -0.0277054 -9.89843 
-9.63317 0.135059 -0.932973 
0.135059 -9.3905 -0.0664157 
-0.932973 -0.0664157 -9.77988 
-9.38892 0.141011 -1.0513 
0.141011 -10.2872 0.0252306 
-1.0513 0.0252306 -9.12746 
-9.62536 0.212101 -0.981041 
0.212101 -9.67201 -0.100404 
-0.981041 -0.100404 -9.50618 
-9.80472 0.111932 -1.03571 
0.111932 -9.44159 -0.488839 
-1.03571 -0.488839 -9.55724 
-9.72497 0.1074 -0.332003 
0.1074 -9.28421 0.139677 
-0.332003 0.139677 -9.53424 
-9.82469 0.111293 -0.356984 
0.111293 -9.01707 -0.0170856 
-0.356984 -0.0170856 -9.70166 
-9.64154 0.169498 -0.297553 
0.169498 -9.38091 0.0145127 
-0.297553 0.0145127 -9.52096 
-9.67236 0.143527 -0.446446 
0.143527 -9.20725 -0.00259989 
-0.446446 -0.00259989 -9.6638 
-8.19916 -0.410696 0.26801 
-0.410696 -8.56987 0.595916 
0.26801 0.595916 -10.1302 
-8.00172 -0.343648 -0.194711 
-0.343648 -8.6335 0.390858 
-0.194711 0.390858 -10.264 
-7.91447 -0.0903563 -0.445641 
-0.0903563 -8.81957 -0.677955 
-0.445641 -0.677955 -10.1652 
-8.35588 -0.853768 -0.71028 
-0.853768 -8.12296 0.444723 
-0.71028 0.444723 -10.4204 
-9.43535 0.16036 0.0925786 
0.16036 -8.87137 -0.147403 
0.0925786 -0.147403 -9.53333 
-9.74648 0.161424 0.182503 
0.161424 -8.77048 -0.573479 
0.182503 -0.573479 -9.3231 
-9.5175 0.104861 0.0790924 
0.104861 -9.67283 -0.270982 
0.0790924 -0.270982 -8.64972 
-9.75672 0.288907 -0.269355 
0.288907 -9.51618 -0.299056 
-0.269355 -0.299056 -8.56715 
-8.51055 -0.585533 0.132796 
-0.585533 -10.2731 0.173614 
0.132796 0.173614 -9.71572 
-9.29013 -0.396825 0.302848 
-0.396825 -9.42336 0.039915 
0.302848 0.039915 -9.78593 
-9.99779 -0.0731915 0.334182 
-0.0731915 -9.06253 -0.332848 
0.334182 -0.332848 -9.43909 
-9.67455 -0.769749 0.612218 
-0.769749 -8.90314 0.0285237 
0.612218 0.0285237 -9.92173 
-10.2735 0.0439535 0.203795 
0.0439535 -8.901 0.0791788 
0.203795 0.0791788 -11.385 
-10.0235 0.239491 -0.0272949 
0.239491 -9.89156 0.434139 
-0.0272949 0.434139 -10.6444 
-10.7106 0.16883 -0.0315371 
0.16883 -8.66259 -0.0112869 
-0.0315371 -0.0112869 -11.1863 
-9.93392 -0.149052 -0.0981465 
-0.149052 -9.35331 -0.142863 
-0.0981465 -0.142863 -11.2723 
-9.82299 -0.00982135 0.324584 
-0.00982135 -9.76676 -0.0994509 
0.324584 -0.0994509 -9.88726 
-9.81384 0.0724591 0.288008 
0.0724591 -9.71582 -0.0431871 
0.288008 -0.0431871 -9.94736 
-9.83151 -0.00588163 0.30961 
-0.00588163 -9.7501 -0.0824016 
0.30961 -0.0824016 -9.89541 
-9.87025 0.0260219 0.313488 
0.0260219 -9.73676 -0.142782 
0.313488 -0.142782 -9.87 
-9.16927 0.0378112 -0.557925 
0.0378112 -9.535 0.21376 
-0.557925 0.21376 -9.46883 
-9.14007 -0.0199735 -0.553101 
-0.0199735 -9.45571 0.268787 
-0.553101 0.268787 -9.57732 
-9.1105 -0.000545216 -0.568918 
-0.000545216 -9.49801 0.21582 
-0.568918 0.21582 -9.56459 
-9.14232 0.0846689 -0.538889 
0.0846689 -9.4527 0.112702 
-0.538889 0.112702 -9.57808 
-9.44346 -0.0086917 0.296908 
-0.0086917 -8.99067 -0.361055 
0.296908 -0.361055 -9.71657 
-9.41047 -0.0102948 0.275816 
-0.0102948 -8.95581 -0.281112 
0.275816 -0.281112 -9.78441 
-9.53643 -0.00680389 0.239369 
-0.00680389 -9.08553 -0.279427 
0.239369 -0.279427 -9.52874 
-9.5259 -0.0103798 0.272472 
-0.0103798 -8.90502 -0.550968 
0.272472 -0.550968 -9.71977 
-9.04904 0.162152 0.446509 
0.162152 -9.41344 -0.586682 
0.446509 -0.586682 -8.70673 
-9.00136 0.0884022 0.57113 
0.0884022 -9.46104 -0.452327 
0.57113 -0.452327 -8.7068 
-8.98358 0.122434 0.428684 
0.122434 -9.54493 -0.382679 
0.428684 -0.382679 -8.6407 
-9.01033 0.0517974 0.655554 
0.0517974 -9.392 -0.491126 
0.655554 -0.491126 -8.76688 
-8.86573 -0.90884 0.357645 
-0.90884 -9.54784 -0.246988 
0.357645 -0.246988 -10.4573 
-9.50381 0.802047 1.72472 
0.802047 -9.95506 -0.901709 
1.72472 -0.901709 -9.41196 
-8.87283 0.277932 -1.16415 
0.277932 -8.97148 0.578614 
-1.16415 0.578614 -11.0265 
-8.18923 -1.01517 -0.219081 
-1.01517 -9.71844 -0.682299 
-0.219081 -0.682299 -10.9632 
-8.13404 0.23578 -0.038574 
0.23578 -9.55861 -0.268276 
-0.038574 -0.268276 -10.5628 
-8.94441 0.953711 1.40781 
0.953711 -8.06628 0.647949 
1.40781 0.647949 -11.2447 
-8.78641 0.467316 0.346823 
0.467316 -8.6527 -0.297536 
0.346823 -0.297536 -10.8163 
-9.19525 0.656887 0.395927 
0.656887 -9.01217 -0.371988 
0.395927 -0.371988 -10.048 
-9.81732 -0.0139954 0.0750065 
-0.0139954 -9.84097 0.00622187 
0.0750065 0.00622187 -9.86498 
-9.8729 0.0336815 0.0725228 
0.0336815 -9.7881 -0.0334261 
0.0725228 -0.0334261 -9.86228 
-9.81586 0.0421042 0.0547263 
0.0421042 -9.80548 0.0595598 
0.0547263 0.0595598 -9.90193 
-9.83658 0.00624281 0.0611325 
0.00624281 -9.82517 0.0206889 
0.0611325 0.0206889 -9.86152 
-9.36619 -0.648148 0.716095 
-0.648148 -8.62119 0.00928748 
0.716095 0.00928748 -11.8474 
-9.49516 -1.13857 0.027039 
-1.13857 -10.4228 -0.632977 
0.027039 -0.632977 -9.91683 
-10.4537 0.0317607 0.58475 
0.0317607 -8.38395 -0.729251 
0.58475 -0.729251 -10.9971 
-10.3662 0.162124 0.236999 
0.162124 -7.84667 -1.14833 
0.236999 -1.14833 -11.6218 
-9.62104 0.0754949 -0.240569 
0.0754949 -9.2843 0.145517 
-0.240569 0.145517 -9.52385 
-9.7406 0.16825 -0.293063 
0.16825 -9.28844 0.143083 
-0.293063 0.143083 -9.40014 
-9.60047 0.126545 -0.229165 
0.126545 -9.31019 0.119471 
-0.229165 0.119471 -9.51852 
-9.63874 -0.115788 -0.41648 
-0.115788 -9.3264 0.189202 
-0.41648 0.189202 -9.46404 
-9.79564 0.00962488 0.220817 
0.00962488 -9.94749 -0.552995 
0.220817 -0.552995 -9.77736 
-9.77373 0.0456342 0.130211 
0.0456342 -9.90083 -0.488658 
0.130211 -0.488658 -9.84593 
-9.86884 -0.111958 0.328746 
-0.111958 -9.86352 -0.660472 
0.328746 -0.660472 -9.78813 
-9.7997 -0.0271934 0.268747 
-0.0271934 -10.0341 -0.523334 
0.268747 -0.523334 -9.68666 
-9.8464 0.00711862 0.0413558 
0.00711862 -9.78017 0.0216187 
0.0413558 0.0216187 -9.90753 
-9.85551 -0.0042416 0.0105865 
-0.0042416 -9.73307 -0.0102889 
0.0105865 -0.0102889 -9.94552 
-9.87045 0.00848248 0.041649 
0.00848248 -9.76738 0.0440345 
0.041649 0.0440345 -9.89626 
-9.8318 0.0154665 0.0522696 
0.0154665 -9.80017 0.0114084 
0.0522696 0.0114084 -9.90213 
-8.17627 0.513572 -0.399629 
0.513572 -7.74651 -2.16375 
-0.399629 -2.16375 -4.71733 
-9.13012 0.610025 0.74648 
0.610025 -6.34902 -2.14093 
0.74648 -2.14093 -5.16098 
-6.42899 -0.870469 0.13512 
-0.870469 -6.4656 0.410222 
0.13512 0.410222 -7.74553 
-8.53202 -0.0301339 -0.245134 
-0.0301339 -6.34682 -1.60825 
-0.245134 -1.60825 -5.76128 
-8.58782 -0.41854 -1.37928 
-0.41854 -8.92951 0.420881 
-1.37928 0.420881 -8.28784 
-8.54363 0.181667 -1.02279 
0.181667 -8.61684 0.278423 
-1.02279 0.278423 -8.64471 
-8.11748 -0.291114 -1.25286 
-0.291114 -9.27341 -0.458153 
-1.25286 -0.458153 -8.41428 
-8.51487 -0.483946 -1.08582 
-0.483946 -9.13392 0.381849 
-1.08582 0.381849 -8.15639 
-9.92142 -0.128454 0.134558 
-0.128454 -9.53463 0.0580619 
0.134558 0.0580619 -9.56126 
-9.81245 -0.291174 0.539072 
-0.291174 -9.35264 -0.534846 
0.539072 -0.534846 -9.85223 
-9.53145 -0.261119 0.213469 
-0.261119 -9.55386 -0.614618 
0.213469 -0.614618 -9.93201 
-9.51825 -0.37118 0.61195 
-0.37118 -9.76426 -0.0694107 
0.61195 -0.0694107 -9.7348 
-9.66463 0.0435424 -0.288024 
0.0435424 -9.29777 0.108463 
-0.288024 0.108463 -9.33366 
-9.66878 0.033953 -0.218904 
0.033953 -9.32571 0.070263 
-0.218904 0.070263 -9.30157 
-9.7156 0.0401523 -0.226109 
0.0401523 -9.31424 0.0796545 
-0.226109 0.0796545 -9.26622 
-9.68712 0.0197465 -0.219345 
0.0197465 -9.29968 0.105809 
-0.219345 0.105809 -9.30926 
-9.98103 0.45467 -0.391711 
0.45467 -9.09696 -0.990087 
-0.391711 -0.990087 -9.43216 
-10.1962 0.425466 -0.460453 
0.425466 -9.18219 -1.01422 
-0.460453 -1.01422 -9.13179 
-10.0843 0.797888 -0.599627 
0.797888 -8.70514 -1.31365 
-0.599627 -1.31365 -9.72069 
-9.82608 -0.0261264 0.192533 
-0.0261264 -8.85344 -0.278296 
0.192533 -0.278296 -9.83064 
-9.63022 -0.0225387 -0.697828 
-0.0225387 -9.12783 -0.129782 
-0.697828 -0.129782 -9.60082 
-9.45889 0.0117598 -0.307269 
0.0117598 -9.40608 0.209392 
-0.307269 0.209392 -9.49389 
-9.30022 -0.0719028 -0.579175 
-0.0719028 -9.28723 -0.152439 
-0.579175 -0.152439 -9.77142 
-9.42681 0.0630695 -0.71816 
0.0630695 -9.52928 -0.00254417 
-0.71816 -0.00254417 -9.40278 
-9.74457 -0.00396932 0.118853 
-0.00396932 -9.71512 -0.00477182 
0.118853 -0.00477182 -9.94835 
-9.8107 -0.000108361 0.194854 
-0.000108361 -9.69849 0.0630398 
0.194854 0.0630398 -9.89885 
-9.75525 0.0220908 0.160582 
0.0220908 -9.66591 0.0298689 
0.160582 0.0298689 -9.98688 
-9.8067 0.0200496 0.192626 
0.0200496 -9.67386 0.0159477 
0.192626 0.0159477 -9.92748 
-9.22851 -0.115487 -0.289385 
-0.115487 -9.50039 -0.113102 
-0.289385 -0.113102 -9.87767 
-9.54335 0.171578 -0.483674 
0.171578 -9.27241 -0.0309771 
-0.483674 -0.0309771 -9.79081 
-9.03844 -0.0206108 -0.343088 
-0.0206108 -9.57924 -0.0504918 
-0.343088 -0.0504918 -9.98889 
-9.0728 -0.0491318 -0.405958 
-0.0491318 -9.46332 0.0393947 
-0.405958 0.0393947 -10.0704 
-9.55555 0.0859461 0.457462 
0.0859461 -9.75309 -0.18427 
0.457462 -0.18427 -9.64847 
-9.54237 0.044308 0.55094 
0.044308 -9.80655 -0.181015 
0.55094 -0.181015 -9.60819 
-9.55324 0.102109 0.445979 
0.102109 -9.75679 -0.0864858 
0.445979 -0.0864858 -9.64708 
-9.53737 0.0294602 0.352494 
0.0294602 -9.68206 -0.237189 
0.352494 -0.237189 -9.73767 
-9.18724 -0.166639 -0.729417 
-0.166639 -9.5102 0.274595 
-0.729417 0.274595 -9.6736 
-9.29918 -0.143312 -0.599721 
-0.143312 -9.28276 0.257183 
-0.599721 0.257183 -9.7891 
-9.30223 -0.0863013 -0.622324 
-0.0863013 -9.38894 0.251711 
-0.622324 0.251711 -9.67987 
-9.01766 0.13943 -0.42637 
0.13943 -9.64828 -0.0597964 
-0.42637 -0.0597964 -9.7051 
-9.54935 0.0435447 0.230976 
0.0435447 -9.28964 -0.0243463 
0.230976 -0.0243463 -9.93571 
-9.67228 0.0562207 0.217463 
0.0562207 -9.30494 -0.0796205 
0.217463 -0.0796205 -9.79748 
-9.50413 0.0861033 0.345421 
0.0861033 -9.43556 -0.102421 
0.345421 -0.102421 -9.83501 
-9.49701 -0.0445577 0.232109 
-0.0445577 -9.40364 0.00526539 
0.232109 0.00526539 -9.87405 
-9.74144 0.0727137 -0.056932 
0.0727137 -9.53055 -0.0535736 
-0.056932 -0.0535736 -9.67617 
-9.57797 0.0887284 -0.0597964 
0.0887284 -9.44609 0.113126 
-0.0597964 0.113126 -9.9241 
-9.78665 0.0907394 -0.063558 
0.0907394 -9.40112 0.0810957 
-0.063558 0.0810957 -9.76039 
-9.73959 0.0363394 -0.114655 
0.0363394 -9.54722 -0.0062192 
-0.114655 -0.0062192 -9.66136 
-9.63207 0.138468 0.274463 
0.138468 -9.33912 -0.24015 
0.274463 -0.24015 -9.91889 
-9.56617 0.0711258 0.313369 
0.0711258 -9.19211 0.189589 
0.313369 0.189589 -10.1318 
-9.7024 0.0270726 0.322465 
0.0270726 -8.98532 -0.152356 
0.322465 -0.152356 -10.2024 
-9.62649 0.126181 0.270863 
0.126181 -9.17718 -0.0813771 
0.270863 -0.0813771 -10.0864 
-9.91609 0.0467429 0.101493 
0.0467429 -9.64879 0.214557 
0.101493 0.214557 -9.56584 
-9.74756 0.0072883 -0.171581 
0.0072883 -9.79779 0.20941 
-0.171581 0.20941 -9.58536 
-9.93663 0.0070424 -0.239997 
0.0070424 -9.53419 0.00133236 
-0.239997 0.00133236 -9.6599 
-9.75253 -0.127084 -0.0783879 
-0.127084 -9.59553 -0.164673 
-0.0783879 -0.164673 -9.78266 
-9.64894 0.0392084 0.116184 
0.0392084 -8.97654 -0.114903 
0.116184 -0.114903 -9.77444 
-9.75572 1.28916 -0.76481 
1.28916 -8.42456 -0.66903 
-0.76481 -0.66903 -10.2196 
-10.0002 -0.0275758 -0.0795614 
-0.0275758 -9.02101 -0.6543 
-0.0795614 -0.6543 -9.37873 
-10.0056 0.527189 -0.212276 
0.527189 -8.84331 -0.30275 
-0.212276 -0.30275 -9.55096 
-9.62188 0.0530219 -0.445986 
0.0530219 -9.47475 0.324767 
-0.445986 0.324767 -9.47871 
-9.83857 0.154537 -0.722225 
0.154537 -9.13307 0.384216 
-0.722225 0.384216 -9.60369 
-9.87147 0.157461 -0.071011 
0.157461 -9.71136 0.343465 
-0.071011 0.343465 -8.9925 
-9.6765 0.0573038 -0.457779 
0.0573038 -9.3285 0.260615 
-0.457779 0.260615 -9.57034 
-9.71213 -0.0188827 -0.0334752 
-0.0188827 -9.73696 0.0381437 
-0.0334752 0.0381437 -9.77218 
-9.7987 0.0548859 -0.0750563 
0.0548859 -9.69208 0.0157928 
-0.0750563 0.0157928 -9.73049 
-9.83966 0.0609449 -0.0864776 
0.0609449 -9.68286 0.0177926 
-0.0864776 0.0177926 -9.69875 
-9.8007 0.0328102 -0.0920013 
0.0328102 -9.75073 -0.0437468 
-0.0920013 -0.0437468 -9.66983 
-9.79283 0.0137892 0.186948 
0.0137892 -9.71105 -0.0516648 
0.186948 -0.0516648 -9.79791 
-9.75773 0.0123778 0.178924 
0.0123778 -9.72376 -0.0937865 
0.178924 -0.0937865 -9.82031 
-9.77567 0.0435815 0.172049 
0.0435815 -9.72966 -0.0840122 
0.172049 -0.0840122 -9.79646 
-9.79738 0.0226934 0.129873 
0.0226934 -9.75081 -0.119962 
0.129873 -0.119962 -9.75359 
-9.91732 -0.00188481 0.236794 
-0.00188481 -9.98462 -0.433768 
0.236794 -0.433768 -9.89423 
-9.94032 0.0232831 0.26087 
0.0232831 -9.96228 -0.424699 
0.26087 -0.424699 -9.89357 
-9.85005 0.0109741 0.240676 
0.0109741 -9.83046 -0.343957 
0.240676 -0.343957 -10.1157 
-9.96255 0.00145254 0.233656 
0.00145254 -9.98998 -0.40153 
0.233656 -0.40153 -9.84364 
-9.42401 -0.0796869 -0.385875 
-0.0796869 -9.524 0.268313 
-0.385875 0.268313 -9.60791 
-9.38586 0.0121065 -0.475245 
0.0121065 -9.44898 0.264818 
-0.475245 0.264818 -9.7211 
-9.34658 0.0720307 -0.493316 
0.0720307 -9.54899 0.263068 
-0.493316 0.263068 -9.66035 
-9.45441 -0.044329 -0.345017 
-0.044329 -9.6134 0.238904 
-0.345017 0.238904 -9.48812 
-9.44372 -0.0257919 -0.266112 
-0.0257919 -9.49998 0.0644437 
-0.266112 0.0644437 -9.83497 
-9.38764 -0.0681857 -0.319635 
-0.0681857 -9.47011 0.179263 
-0.319635 0.179263 -9.92092 
-9.20882 -0.179319 -0.321784 
-0.179319 -9.52449 0.143026 
-0.321784 0.143026 -10.0454 
-9.56054 0.0385331 -0.542102 
0.0385331 -9.32714 0.216603 
-0.542102 0.216603 -9.89099 
-9.70374 -0.011427 -0.213487 
-0.011427 -9.73562 -0.116158 
-0.213487 -0.116158 -9.65753 
-9.71555 -0.00266861 -0.17418 
-0.00266861 -9.74819 -0.113595 
-0.17418 -0.113595 -9.63315 
-9.73104 -0.0072087 -0.169598 
-0.0072087 -9.76247 -0.107205 
-0.169598 -0.107205 -9.60339 
-9.71339 -0.0217431 -0.179375 
-0.0217431 -9.72524 -0.0945936 
-0.179375 -0.0945936 -9.65826 
-10.1388 0.296217 -1.53056 
0.296217 -9.52551 -1.00109 
-1.53056 -1.00109 -9.67756 
-10.485 0.402967 -0.488839 
0.402967 -8.47444 -0.546102 
-0.488839 -0.546102 -10.3825 
-9.14455 1.82186 -0.993723 
1.82186 -8.09979 -0.0441103 
-0.993723 -0.0441103 -12.0976 
-9.69907 0.0695607 0.298807 
0.0695607 -8.33358 2.04213 
0.298807 2.04213 -11.3092 
-9.41029 0.104439 -0.0825059 
0.104439 -9.36139 -0.213884 
-0.0825059 -0.213884 -9.36073 
-9.51358 -0.0162711 0.0271097 
-0.0162711 -9.53372 -0.224894 
0.0271097 -0.224894 -9.08511 
-9.43785 0.135508 0.0571013 
0.135508 -9.36758 -0.054542 
0.0571013 -0.054542 -9.32697 
-9.44501 0.0571698 -0.0224391 
0.0571698 -9.40122 -0.157533 
-0.0224391 -0.157533 -9.28617 
-9.83281 0.0286363 0.0403136 
0.0286363 -9.85131 -0.577855 
0.0403136 -0.577855 -9.8 
-9.65158 -0.0406094 0.0422242 
-0.0406094 -9.91602 -0.525343 
0.0422242 -0.525343 -9.91652 
-9.87339 0.0202425 0.00567878 
0.0202425 -9.80696 -0.559472 
0.00567878 -0.559472 -9.80377 
-9.81984 -0.0131946 0.0340211 
-0.0131946 -9.9252 -0.617315 
0.0340211 -0.617315 -9.73908 
-9.54765 0.0656707 0.535614 
0.0656707 -8.87485 1.11893 
0.535614 1.11893 -7.19228 
-8.61169 0.582981 0.76 
0.582981 -8.02897 1.49523 
0.76 1.49523 -8.97412 
-7.47267 0.519286 0.782657 
0.519286 -8.08708 0.702465 
0.782657 0.702465 -10.055 
-8.25238 0.32238 1.69861 
0.32238 -8.158 1.84917 
1.69861 1.84917 -9.20439 
-9.88327 0.00342017 0.11421 
0.00342017 -9.91328 0.0256972 
0.11421 0.0256972 -10.0208 
-9.94201 0.00207689 0.0926326 
0.00207689 -9.94339 -0.000895064 
0.0926326 -0.000895064 -9.93194 
-9.91379 0.00150489 0.123792 
0.00150489 -9.91907 0.00817452 
0.123792 0.00817452 -9.98447 
-9.92189 0.010098 0.099925 
0.010098 -9.93108 -0.0245026 
0.099925 -0.0245026 -9.96436 
-11.819 -0.487622 0.483998 
-0.487622 -7.8537 0.946503 
0.483998 0.946503 -12.0433 
-10.1655 -0.0710491 0.0856226 
-0.0710491 -9.64641 -0.227403 
0.0856226 -0.227403 -11.904 
-10.1008 0.0964263 0.397868 
0.0964263 -11.0376 0.444505 
0.397868 0.444505 -10.5776 
-11.2986 0.404496 -0.268513 
0.404496 -9.02489 -0.416047 
-0.268513 -0.416047 -11.3925 
-9.62654 0.00452687 0.472186 
0.00452687 -9.60071 -0.0201491 
0.472186 -0.0201491 -9.88258 
-9.73606 -0.0162539 0.36248 
-0.0162539 -9.5731 -0.0500196 
0.36248 -0.0500196 -9.80068 
-9.78845 -0.0825504 0.457044 
-0.0825504 -9.67505 -0.100718 
0.457044 -0.100718 -9.64633 
-9.6958 -0.125312 0.429144 
-0.125312 -9.6956 -0.101008 
0.429144 -0.101008 -9.71843 
-9.68713 0.00277249 -0.438172 
0.00277249 -9.58517 0.0250707 
-0.438172 0.0250707 -9.65127 
-9.70786 0.0178031 -0.453861 
0.0178031 -9.56497 0.0730593 
-0.453861 0.0730593 -9.65074 
-9.71892 0.0104546 -0.44364 
0.0104546 -9.56876 0.0271784 
-0.44364 0.0271784 -9.63589 
-9.67876 0.0242073 -0.423989 
0.0242073 -9.53574 0.0423069 
-0.423989 0.0423069 -9.70907 
-9.71601 -0.0215218 -0.353198 
-0.0215218 -9.71709 -0.174222 
-0.353198 -0.174222 -9.74015 
-9.73347 -0.0129422 -0.384622 
-0.0129422 -9.73859 -0.0800327 
-0.384622 -0.0800327 -9.70119 
-9.859 -0.0125214 -0.393326 
-0.0125214 -9.84622 -0.160186 
-0.393326 -0.160186 -9.46802 
-9.79778 -0.0221933 -0.369993 
-0.0221933 -9.6924 -0.0423427 
-0.369993 -0.0423427 -9.68307 
-9.59151 0.093696 0.139267 
0.093696 -9.44249 -0.0875909 
0.139267 -0.0875909 -9.96066 
-9.692 0.072465 0.158404 
0.072465 -9.38757 -0.0803216 
0.158404 -0.0803216 -9.9151 
-9.45216 0.0394559 -0.00301328 
0.0394559 -9.59746 -0.162493 
-0.00301328 -0.162493 -9.94504 
-9.55187 0.183821 0.193734 
0.183821 -9.45311 -0.022765 
0.193734 -0.022765 -9.98969 
-5.28874 1.0299 0.772633 
1.0299 -6.58844 -0.24111 
0.772633 -0.24111 -2.25405 
-9.00558 -0.976127 2.15672 
-0.976127 -4.85731 0.307778 
2.15672 0.307778 -0.268352 
-4.19004 0.188114 1.97959 
0.188114 -6.84414 -0.632145 
1.97959 -0.632145 -3.09706 
-6.48252 -1.52264 2.44263 
-1.52264 -2.83531 -2.5843 
2.44263 -2.5843 -4.81341 
-9.5694 0.266583 0.132124 
0.266583 -9.59197 0.0156337 
0.132124 0.0156337 -9.96882 
-9.59577 0.535875 0.11577 
0.535875 -9.38964 -0.244606 
0.11577 -0.244606 -10.1448 
-9.35159 0.268507 -0.0099941 
0.268507 -9.74714 -0.0173185 
-0.0099941 -0.0173185 -10.0315 
-9.82573 -0.13603 0.344825 
-0.13603 -9.51963 0.254026 
0.344825 0.254026 -9.78483 
-9.20532 0.187824 0.445959 
0.187824 -9.68119 -0.0583999 
0.445959 -0.0583999 -9.75584 
-9.34312 0.0691063 0.40372 
0.0691063 -9.67345 0.0143485 
0.40372 0.0143485 -9.62578 
-9.57036 0.0104666 0.395377 
0.0104666 -9.43853 -0.122925 
0.395377 -0.122925 -9.63347 
-9.38148 0.130186 0.597838 
0.130186 -9.63569 -0.0632103 
0.597838 -0.0632103 -9.62518 
-9.85429 -0.0402301 -0.0691325 
-0.0402301 -9.75346 -0.0298575 
-0.0691325 -0.0298575 -9.91108 
-9.84989 0.0477126 -0.028964 
0.0477126 -9.82891 -0.0343722 
-0.028964 -0.0343722 -9.84003 
-9.87734 -7.24616e-05 0.00179397 
-7.24616e-05 -9.80798 -0.0610614 
0.00179397 -0.0610614 -9.83351 
-9.86819 0.0276211 0.00384404 
0.0276211 -9.80003 -0.0393976 
0.00384404 -0.0393976 -9.85061 
-8.84525 0.108014 -1.23439 
0.108014 -9.4317 -0.255586 
-1.23439 -0.255586 -8.50252 
-8.40506 -0.136448 -1.23872 
-0.136448 -9.55454 -0.789201 
-1.23872 -0.789201 -8.81987 
-9.37925 -0.418057 -1.53349 
-0.418057 -9.52826 0.414869 
-1.53349 0.414869 -7.87196 
-9.0802 0.11283 0.014719 
0.11283 -9.01269 -0.257192 
0.014719 -0.257192 -8.68658 
-9.60061 0.0204952 0.147706 
0.0204952 -9.37975 0.0486686 
0.147706 0.0486686 -10.1371 
-9.58699 0.0203884 0.172952 
0.0203884 -9.43606 0.0694172 
0.172952 0.0694172 -10.0945 
-9.63079 0.0499879 0.204642 
0.0499879 -9.28208 0.0735044 
0.204642 0.0735044 -10.2047 
-9.65151 0.0323 0.173784 
0.0323 -9.36202 -0.00198746 
0.173784 -0.00198746 -10.104 
-9.61366 -0.00520213 -0.482228 
-0.00520213 -9.5443 -0.0220473 
-0.482228 -0.0220473 -9.70892 
-9.61964 -0.00682276 -0.443376 
-0.00682276 -9.52585 -0.00500332 
-0.443376 -0.00500332 -9.72139 
-9.6226 -0.00387886 -0.47787 
-0.00387886 -9.52632 -0.022045 
-0.47787 -0.022045 -9.71797 
-9.60511 -0.0438665 -0.435675 
-0.0438665 -9.53959 -0.049851 
-0.435675 -0.049851 -9.72218 
-9.71663 -0.0133722 -0.0958399 
-0.0133722 -9.78018 0.360975 
-0.0958399 0.360975 -9.59704 
-9.79991 -0.0415368 -0.133067 
-0.0415368 -9.87747 0.467677 
-0.133067 0.467677 -9.41648 
-9.74904 -0.0111769 -0.0834357 
-0.0111769 -9.84135 0.391115 
-0.0834357 0.391115 -9.50347 
-9.69085 0.0100624 -0.159279 
0.0100624 -9.83818 0.320325 
-0.159279 0.320325 -9.56483 
-9.49059 -0.072329 -0.498599 
-0.072329 -9.60621 -0.100745 
-0.498599 -0.100745 -9.72067 
-9.53417 -0.0740631 -0.503662 
-0.0740631 -9.60207 -0.111315 
-0.503662 -0.111315 -9.68122 
-9.52329 -0.0806153 -0.542881 
-0.0806153 -9.55267 -0.0553116 
-0.542881 -0.0553116 -9.7415 
-9.47201 0.0254119 -0.485929 
0.0254119 -9.59611 -0.0936969 
-0.485929 -0.0936969 -9.74935 
-9.61659 0.00207946 -0.479704 
0.00207946 -9.52624 0.066182 
-0.479704 0.066182 -9.63665 
-9.62891 0.000157328 -0.488066 
0.000157328 -9.50806 0.0917586 
-0.488066 0.0917586 -9.6425 
-9.60226 -0.00630974 -0.522835 
-0.00630974 -9.49736 0.0812815 
-0.522835 0.0812815 -9.67986 
-9.56851 0.0372457 -0.489001 
0.0372457 -9.51352 0.0978326 
-0.489001 0.0978326 -9.69745 
-9.77858 -0.00180735 0.0444283 
-0.00180735 -9.73324 0.063038 
0.0444283 0.063038 -9.95709 
-9.90117 0.0419132 -0.0347483 
0.0419132 -9.79123 -0.0885816 
-0.0347483 -0.0885816 -9.77651 
-9.89633 0.0682182 0.0311196 
0.0682182 -9.67432 0.00132727 
0.0311196 0.00132727 -9.89827 
-9.84137 0.0492724 0.080158 
0.0492724 -9.69192 -0.0135805 
0.080158 -0.0135805 -9.93563 
-9.84531 0.000487391 0.11772 
0.000487391 -9.79259 -0.000921506 
0.11772 -0.000921506 -10.0276 
-9.88507 0.0389343 0.157675 
0.0389343 -9.7355 -0.0281557 
0.157675 -0.0281557 -10.0449 
-9.88163 0.0284024 0.122465 
0.0284024 -9.79202 -0.0587256 
0.122465 -0.0587256 -9.99183 
-9.82969 -0.0253509 0.16114 
-0.0253509 -9.85839 0.0715961 
0.16114 0.0715961 -9.97739 
-9.11541 0.0334447 -0.0799236 
0.0334447 -9.77969 -0.124603 
-0.0799236 -0.124603 -9.08075 
-9.0944 0.0143253 -0.0568311 
0.0143253 -9.82282 -0.305499 
-0.0568311 -0.305499 -9.05864 
-9.25795 0.0026159 0.0795656 
0.0026159 -9.49425 -0.308679 
0.0795656 -0.308679 -9.22365 
-9.13698 -0.0930634 -0.110176 
-0.0930634 -9.80823 -0.0179015 
-0.110176 -0.0179015 -9.03064 
-9.70046 0.0298104 -0.205397 
0.0298104 -9.23908 0.135536 
-0.205397 0.135536 -9.0888 
-9.54459 0.0776271 -0.182075 
0.0776271 -9.2257 0.0720183 
-0.182075 0.0720183 -9.25805 
-9.57229 0.123893 -0.136948 
0.123893 -9.25482 0.117195 
-0.136948 0.117195 -9.20122 
-9.66923 0.0765695 -0.209983 
0.0765695 -9.21787 0.169379 
-0.209983 0.169379 -9.14123 
-9.50762 -0.0256648 -0.184414 
-0.0256648 -9.67024 -0.0204897 
-0.184414 -0.0204897 -9.84543 
-9.63023 -0.130933 -0.349487 
-0.130933 -9.49595 0.0993434 
-0.349487 0.0993434 -9.89711 
-9.41973 0.100611 -0.0540907 
0.100611 -9.62152 0.131172 
-0.0540907 0.131172 -9.98204 
-9.44295 -0.0539955 -0.153776 
-0.0539955 -9.75465 -0.11163 
-0.153776 -0.11163 -9.82569 
-9.63238 -0.116132 -0.465071 
-0.116132 -9.68434 -0.403102 
-0.465071 -0.403102 -9.67601 
-9.70643 -0.130621 -0.47641 
-0.130621 -9.75028 -0.412965 
-0.47641 -0.412965 -9.53603 
-9.58388 0.109776 -0.494706 
0.109776 -9.70887 -0.477662 
-0.494706 -0.477662 -9.69999 
-9.50816 -0.011947 -0.480978 
-0.011947 -9.8679 -0.374047 
-0.480978 -0.374047 -9.61667 
-9.2421 -0.00576526 -0.20227 
-0.00576526 -9.62141 -0.0989927 
-0.20227 -0.0989927 -9.97793 
-9.26343 -0.0477501 -0.417431 
-0.0477501 -9.58586 0.160005 
-0.417431 0.160005 -9.99216 
-9.55969 0.0268152 -0.332889 
0.0268152 -9.45759 0.0903903 
-0.332889 0.0903903 -9.82417 
-9.28137 -0.202649 -0.01955 
-0.202649 -9.63187 -0.116048 
-0.01955 -0.116048 -9.9282 
-9.59356 -0.0655173 0.157583 
-0.0655173 -9.91365 -0.526574 
0.157583 -0.526574 -10.004 
-9.80825 -0.0103065 0.178469 
-0.0103065 -10.1244 -0.480307 
0.178469 -0.480307 -9.57866 
-9.90259 -0.0184141 0.276163 
-0.0184141 -9.80122 -0.444996 
0.276163 -0.444996 -9.80746 
-9.92649 0.0555921 0.252226 
0.0555921 -9.828 -0.380199 
0.252226 -0.380199 -9.75677 
-9.87464 0.00265197 0.130514 
0.00265197 -9.84362 -0.0428715 
0.130514 -0.0428715 -9.93203 
-9.84697 0.0104835 0.14418 
0.0104835 -9.81371 -0.0265959 
0.14418 -0.0265959 -9.98959 
-9.84454 0.00554012 0.110935 
0.00554012 -9.81902 -0.0191013 
0.110935 -0.0191013 -9.98672 
-9.87347 -0.00573435 0.131547 
-0.00573435 -9.85068 -0.068312 
0.131547 -0.068312 -9.92614 
-9.70344 -0.0478548 -0.285422 
-0.0478548 -9.85951 -0.185093 
-0.285422 -0.185093 -9.89282 
-9.81579 -0.0415811 -0.312269 
-0.0415811 -9.93907 -0.161824 
-0.312269 -0.161824 -9.70092 
-9.91427 -0.00412307 -0.259301 
-0.00412307 -9.78251 -0.153089 
-0.259301 -0.153089 -9.75899 
-9.87897 0.0163909 -0.271514 
0.0163909 -9.79897 -0.0825795 
-0.271514 -0.0825795 -9.77784 
-9.78415 0.000727861 -0.148888 
0.000727861 -9.85087 0.477284 
-0.148888 0.477284 -9.91194 
-9.87932 0.00386357 -0.149193 
0.00386357 -9.84612 0.560549 
-0.149193 0.560549 -9.82151 
-9.87187 -0.0142699 -0.129015 
-0.0142699 -9.85473 0.56531 
-0.129015 0.56531 -9.82035 
-9.88127 -0.00405705 -0.169929 
-0.00405705 -9.88163 0.589911 
-0.169929 0.589911 -9.78405 
-9.90502 -0.00169286 -0.0772388 
-0.00169286 -9.85649 -0.0201787 
-0.0772388 -0.0201787 -10.0089 
-9.8758 0.0296295 -0.069809 
0.0296295 -9.87342 -0.0591989 
-0.069809 -0.0591989 -10.0212 
-9.95053 -0.0262033 -0.0764493 
-0.0262033 -9.93631 -0.035029 
-0.0764493 -0.035029 -9.88363 
-9.9705 -0.00603272 -0.0158506 
-0.00603272 -9.88376 -0.00920812 
-0.0158506 -0.00920812 -9.91621 
-8.95374 0.100121 0.55889 
0.100121 -9.46653 -0.228355 
0.55889 -0.228355 -9.47517 
-9.09227 0.180841 0.846144 
0.180841 -9.7729 -0.217222 
0.846144 -0.217222 -9.03027 
-8.99163 -0.131381 0.468242 
-0.131381 -9.55891 0.0222829 
0.468242 0.0222829 -9.34489 
-8.42887 0.209571 0.723083 
0.209571 -9.25047 -0.632418 
0.723083 -0.632418 -10.2161 
-9.87542 -0.01333 0.334495 
-0.01333 -9.78564 -0.0398961 
0.334495 -0.0398961 -10.0058 
-9.91447 0.0264969 0.342511 
0.0264969 -9.78764 -0.0964418 
0.342511 -0.0964418 -9.96472 
-9.88011 0.00136379 0.329049 
0.00136379 -9.81028 -0.107229 
0.329049 -0.107229 -9.97645 
-9.90937 -0.0320466 0.339786 
-0.0320466 -9.79491 -0.0195986 
0.339786 -0.0195986 -9.96255 
-9.76845 -0.143537 -0.418195 
-0.143537 -9.89301 0.0144837 
-0.418195 0.0144837 -9.64275 
-9.4814 -0.0992185 -0.078149 
-0.0992185 -9.6386 0.0336833 
-0.078149 0.0336833 -10.1842 
-9.64991 0.0343807 0.254745 
0.0343807 -9.55159 -0.097496 
0.254745 -0.097496 -10.1027 
-9.51871 -0.193003 -0.0836874 
-0.193003 -9.66569 0.0606083 
-0.0836874 0.0606083 -10.1198 
-9.47086 -0.184602 0.674836 
-0.184602 -9.1649 0.519602 
0.674836 0.519602 -10.7227 
-9.9103 0.0724904 0.630937 
0.0724904 -8.49658 -0.210695 
0.630937 -0.210695 -10.9515 
-9.24561 0.0940165 -0.720173 
0.0940165 -9.10633 -0.425905 
-0.720173 -0.425905 -11.0065 
-9.90288 -0.0128334 -0.272172 
-0.0128334 -8.66335 0.667976 
-0.272172 0.667976 -10.7922 
-9.79825 0.0153601 -0.114095 
0.0153601 -9.78411 -0.0395568 
-0.114095 -0.0395568 -9.82037 
-9.83033 0.0569613 -0.165365 
0.0569613 -9.7345 0.0202313 
-0.165365 0.0202313 -9.8379 
-9.85741 0.0356517 -0.129088 
0.0356517 -9.75362 0.0180334 
-0.129088 0.0180334 -9.79171 
-9.84441 0.0107668 -0.110714 
0.0107668 -9.77186 -0.05973 
-0.110714 -0.05973 -9.78647 
-9.63424 0.0315579 0.465599 
0.0315579 -9.58876 -0.318856 
0.465599 -0.318856 -9.90018 
-9.61804 0.0343888 0.384207 
0.0343888 -9.78251 -0.221324 
0.384207 -0.221324 -9.72263 
-9.7168 0.0403991 0.442506 
0.0403991 -9.95506 -0.248035 
0.442506 -0.248035 -9.45132 
-9.63919 -0.0196874 0.378508 
-0.0196874 -9.7593 -0.0747351 
0.378508 -0.0747351 -9.72469 
-8.38355 0.211537 -0.137452 
0.211537 -9.52331 -0.303666 
-0.137452 -0.303666 -8.87279 
-8.4574 -0.140734 -0.321551 
-0.140734 -9.53723 -0.45113 
-0.321551 -0.45113 -8.78501 
-8.42974 -0.0783959 -0.149596 
-0.0783959 -9.42835 -0.339631 
-0.149596 -0.339631 -8.92155 
-8.87539 0.256524 -0.186228 
0.256524 -9.26951 -0.335557 
-0.186228 -0.335557 -8.63475 
-8.7587 -0.068588 0.0812756 
-0.068588 -9.47479 -0.535265 
0.0812756 -0.535265 -9.20015 
-8.17509 -0.152861 0.20631 
-0.152861 -8.94635 -0.532563 
0.20631 -0.532563 -10.3122 
-8.78306 0.063868 0.0764607 
0.063868 -9.12497 -0.824659 
0.0764607 -0.824659 -9.52561 
-8.58392 0.0839275 0.239933 
0.0839275 -9.25983 -0.816169 
0.239933 -0.816169 -9.58988 
-8.60586 0.123468 -0.971206 
0.123468 -8.48879 1.3196 
-0.971206 1.3196 -7.61187 
-9.00457 -0.380744 -0.853116 
-0.380744 -8.89077 0.832667 
-0.853116 0.832667 -6.81119 
-8.41356 0.0914427 -0.796721 
0.0914427 -8.91186 0.90948 
-0.796721 0.90948 -7.3811 
-8.63042 -0.674208 -0.125564 
-0.674208 -8.13326 0.759628 
-0.125564 0.759628 -7.94284 
-9.51664 0.0306937 0.00881494 
0.0306937 -9.53624 0.147458 
0.00881494 0.147458 -10.3262 
-9.5642 -0.142613 -0.286532 
-0.142613 -9.8688 0.214919 
-0.286532 0.214919 -9.94606 
-9.76116 0.12378 -0.126838 
0.12378 -9.95166 0.098715 
-0.126838 0.098715 -9.66625 
-9.73358 0.0140689 -0.215923 
0.0140689 -9.56256 0.132039 
-0.215923 0.132039 -10.0829 
-9.52153 -0.0571014 -0.432076 
-0.0571014 -9.59283 0.078739 
-0.432076 0.078739 -9.74112 
-9.50093 -0.0133509 -0.47167 
-0.0133509 -9.55045 0.025557 
-0.47167 0.025557 -9.8041 
-9.50447 -0.0258159 -0.479694 
-0.0258159 -9.57883 0.0571491 
-0.479694 0.0571491 -9.77218 
-9.52551 -0.0377403 -0.498612 
-0.0377403 -9.55041 0.0241659 
-0.498612 0.0241659 -9.77955 
-8.50219 0.268831 0.174409 
0.268831 -8.31616 -1.35407 
0.174409 -1.35407 -7.41241 
-7.96902 0.0157829 1.04379 
0.0157829 -9.00696 -0.82699 
1.04379 -0.82699 -7.25478 
-8.3201 -0.0690143 1.50732 
-0.0690143 -8.69061 -0.765892 
1.50732 -0.765892 -7.22005 
-8.03246 -0.873599 1.88352 
-0.873599 -8.93709 -1.70026 
1.88352 -1.70026 -7.26121 
-9.85069 -0.0128416 -0.203236 
-0.0128416 -9.83864 0.0272691 
-0.203236 0.0272691 -9.94444 
-9.91387 -0.012271 -0.228483 
-0.012271 -9.85506 0.0770614 
-0.228483 0.0770614 -9.86484 
-9.9484 0.0320251 -0.196237 
0.0320251 -9.80437 0.0642236 
-0.196237 0.0642236 -9.881 
-9.91247 4.46416e-05 -0.213606 
4.46416e-05 -9.83959 0.0373573 
-0.213606 0.0373573 -9.88171 
-8.83316 -0.0091461 0.556042 
-0.0091461 -9.05345 0.16692 
0.556042 0.16692 -9.49316 
-8.97966 0.0111664 0.214517 
0.0111664 -8.88585 0.0752332 
0.214517 0.0752332 -9.51426 
-9.02739 -0.275663 0.189678 
-0.275663 -8.93143 -0.0690872 
0.189678 -0.0690872 -9.42095 
-9.0568 0.0383426 0.269713 
0.0383426 -8.86712 0.0841385 
0.269713 0.0841385 -9.45585 
-8.30516 -0.269941 -0.251586 
-0.269941 -9.44593 0.243769 
-0.251586 0.243769 -9.46633 
-8.49956 -0.219912 -0.630141 
-0.219912 -9.77475 0.426257 
-0.630141 0.426257 -8.94312 
-8.25712 0.0288564 -0.49109 
0.0288564 -9.85996 -0.285937 
-0.49109 -0.285937 -9.10035 
-8.76083 0.148671 -0.522331 
0.148671 -9.90951 -0.584514 
-0.522331 -0.584514 -8.54709 
-10.1063 -0.157827 -0.15648 
-0.157827 -9.29665 0.14558 
-0.15648 0.14558 -14.4719 
-7.51376 -0.305411 -0.0595235 
-0.305411 -10.1712 0.0846882 
-0.0595235 0.0846882 -16.1899 
-9.61209 -0.0653248 0.382813 
-0.0653248 -11.465 0.338661 
0.382813 0.338661 -12.7978 
-8.87571 -0.500229 0.732452 
-0.500229 -11.9827 -0.432412 
0.732452 -0.432412 -13.0165 
-9.28061 -0.0836662 0.0901342 
-0.0836662 -9.40176 0.219798 
0.0901342 0.219798 -10.0017 
-9.71736 -0.0196056 -0.347318 
-0.0196056 -9.11579 0.428785 
-0.347318 0.428785 -9.85088 
-9.04053 -0.428412 -0.241649 
-0.428412 -9.398 0.330303 
-0.241649 0.330303 -10.2455 
-9.36161 -0.227639 -0.0218618 
-0.227639 -9.32415 0.263139 
-0.0218618 0.263139 -9.99827 
-11.0322 -0.883373 -0.0823868 
-0.883373 -10.6993 0.139939 
-0.0823868 0.139939 -10.1399 
-10.2654 0.33923 -0.0614304 
0.33923 -10.0057 0.222876 
-0.0614304 0.222876 -11.6002 
-11.137 -0.00357966 0.0433699 
-0.00357966 -9.54899 0.492914 
0.0433699 0.492914 -11.1854 
-10.8736 -0.111572 0.849525 
-0.111572 -10.0973 0.925606 
0.849525 0.925606 -10.9005 
-7.89864 0.73978 -2.32014 
0.73978 -8.24271 -0.837905 
-2.32014 -0.837905 -4.57364 
-6.98468 0.530115 -0.999441 
0.530115 -6.97656 -1.42905 
-0.999441 -1.42905 -6.75375 
-8.36514 -0.0839864 -0.781883 
-0.0839864 -6.52395 -0.636196 
-0.781883 -0.636196 -5.82591 
-7.60384 -0.196025 -1.95234 
-0.196025 -8.1649 -0.560055 
-1.95234 -0.560055 -4.94624 
-9.08066 -0.272796 -0.534887 
-0.272796 -9.53674 0.318078 
-0.534887 0.318078 -10.0389 
-9.42915 -0.375894 -0.3592 
-0.375894 -9.50155 -0.168714 
-0.3592 -0.168714 -9.72558 
-9.35208 -0.385071 -0.683231 
-0.385071 -9.43686 0.0168238 
-0.683231 0.0168238 -9.86735 
-9.03101 -0.326421 -0.578963 
-0.326421 -9.83851 -0.389204 
-0.578963 -0.389204 -9.78676 
-9.5592 0.145713 -0.368358 
0.145713 -9.50109 0.0979225 
-0.368358 0.0979225 -9.543 
-9.50245 -0.0151664 -0.63645 
-0.0151664 -9.68304 0.168895 
-0.63645 0.168895 -9.4178 
-9.48362 0.0333898 -0.395206 
0.0333898 -9.47937 0.245102 
-0.395206 0.245102 -9.6403 
-9.53679 0.106845 -0.447725 
0.106845 -9.47384 0.0784526 
-0.447725 0.0784526 -9.59265 
-9.55439 0.0182977 0.0958958 
0.0182977 -9.38938 -0.0821003 
0.0958958 -0.0821003 -9.93525 
-9.50142 0.0529385 0.0401944 
0.0529385 -9.49874 -0.132541 
0.0401944 -0.132541 -9.87887 
-9.5621 0.0467502 0.113836 
0.0467502 -9.4332 -0.118613 
0.113836 -0.118613 -9.88373 
-9.52091 0.0990346 0.125674 
0.0990346 -9.44089 -0.211833 
0.125674 -0.211833 -9.91723 
-9.58399 0.0512853 -0.0616719 
0.0512853 -9.50147 -0.0526004 
-0.0616719 -0.0526004 -9.80864 
-9.51656 -0.0555492 -0.0516993 
-0.0555492 -9.43875 0.040121 
-0.0516993 0.040121 -9.93878 
-9.70642 0.116344 0.100071 
0.116344 -9.51191 -0.0637812 
0.100071 -0.0637812 -9.67577 
-9.72172 0.1193 0.00703007 
0.1193 -9.58313 0.025484 
0.00703007 0.025484 -9.58924 
-9.69354 -0.00708509 0.312934 
-0.00708509 -9.60311 -0.136699 
0.312934 -0.136699 -9.88407 
-9.59718 0.0841356 0.405364 
0.0841356 -9.59284 -0.0595781 
0.405364 -0.0595781 -9.9907 
-9.72056 0.0220102 0.383505 
0.0220102 -9.57183 -0.0708019 
0.383505 -0.0708019 -9.88833 
-9.83471 -0.0148026 0.481071 
-0.0148026 -9.50928 -0.0212051 
0.481071 -0.0212051 -9.83674 
-9.81487 -0.457504 -1.07947 
-0.457504 -9.64587 -0.482404 
-1.07947 -0.482404 -9.66711 
-9.82916 0.518459 -0.861619 
0.518459 -8.99444 -1.49116 
-0.861619 -1.49116 -10.3042 
-9.81067 0.216316 -0.725802 
0.216316 -8.67243 -0.309651 
-0.725802 -0.309651 -10.6447 
-9.84264 0.716058 -0.236969 
0.716058 -8.01221 0.0523996 
-0.236969 0.0523996 -11.273 
-9.61063 0.256758 -0.129908 
0.256758 -8.17034 0.526111 
-0.129908 0.526111 -8.93909 
-9.38125 0.156428 -0.430949 
0.156428 -8.39892 0.171362 
-0.430949 0.171362 -8.93989 
-9.39424 0.0204176 -0.499275 
0.0204176 -8.17634 0.242424 
-0.499275 0.242424 -9.14948 
-8.93911 0.276762 0.178088 
0.276762 -8.20775 -0.100399 
0.178088 -0.100399 -9.57321 
-8.99692 0.299307 0.55764 
0.299307 -9.40583 -0.0849138 
0.55764 -0.0849138 -9.57286 
-9.21154 0.268549 0.728209 
0.268549 -9.36097 0.40795 
0.728209 0.40795 -9.4031 
-8.98469 0.0525045 0.362668 
0.0525045 -9.1488 0.0791435 
0.362668 0.0791435 -9.84212 
-9.28449 0.290023 0.56177 
0.290023 -9.25357 -0.0593994 
0.56177 -0.0593994 -9.43754 
-9.95482 0.0204892 -0.129305 
0.0204892 -9.97631 0.357245 
-0.129305 0.357245 -9.86441 
-9.9523 0.0207558 -0.12565 
0.0207558 -9.92078 0.315855 
-0.12565 0.315855 -9.92246 
-9.87132 0.0014532 -0.181648 
0.0014532 -9.85152 0.274836 
-0.181648 0.274836 -10.0727 
-9.9543 -0.00350871 -0.106973 
-0.00350871 -9.99763 0.326904 
-0.106973 0.326904 -9.84362 
-9.54433 -0.0451927 -0.541668 
-0.0451927 -9.58775 -0.0140338 
-0.541668 -0.0140338 -9.78055 
-9.5708 -0.0193887 -0.46725 
-0.0193887 -9.60544 -0.0162449 
-0.46725 -0.0162449 -9.7364 
-9.54072 -0.0376314 -0.551537 
-0.0376314 -9.61309 -0.0619146 
-0.551537 -0.0619146 -9.75882 
-9.55313 -0.0513805 -0.491219 
-0.0513805 -9.5964 -0.0302332 
-0.491219 -0.0302332 -9.76311 
-9.71815 -0.0616823 0.331825 
-0.0616823 -9.72933 0.217692 
0.331825 0.217692 -9.77794 
-9.88207 0.000107972 0.205565 
0.000107972 -9.85463 0.0048468 
0.205565 0.0048468 -9.48873 
-9.71103 -0.000238034 0.259779 
-0.000238034 -9.73813 0.0762465 
0.259779 0.0762465 -9.77625 
-9.79544 0.029002 0.281664 
0.029002 -9.70668 0.0626848 
0.281664 0.0626848 -9.72331 
-10.2575 -0.177168 -0.190121 
-0.177168 -9.67228 -0.582279 
-0.190121 -0.582279 -8.97903 
-10.4841 -0.412176 0.352081 
-0.412176 -9.4347 -0.557863 
0.352081 -0.557863 -8.99002 
-11.0508 0.156539 0.52314 
0.156539 -9.52254 -1.77782 
0.52314 -1.77782 -8.33549 
-9.86196 -0.607384 0.372722 
-0.607384 -11.2025 -0.249001 
0.372722 -0.249001 -7.84432 
-9.55667 0.0792048 -0.481091 
0.0792048 -9.58573 -0.180997 
-0.481091 -0.180997 -9.58975 
-9.45398 0.0222158 -0.515208 
0.0222158 -9.43279 -0.00723658 
-0.515208 -0.00723658 -9.84537 
-9.4785 -0.0538808 -0.472303 
-0.0538808 -9.5285 -0.0896208 
-0.472303 -0.0896208 -9.72516 
-9.44087 -0.123301 -0.442623 
-0.123301 -9.58482 -0.121722 
-0.442623 -0.121722 -9.70646 
-9.10576 -0.00420542 0.354536 
-0.00420542 -9.07532 0.613854 
0.354536 0.613854 -9.18085 
-8.8406 -0.18811 0.192475 
-0.18811 -9.18212 0.498171 
0.192475 0.498171 -9.33922 
-8.87807 0.0317008 0.376092 
0.0317008 -9.20274 0.664117 
0.376092 0.664117 -9.28113 
-9.00199 -0.0230465 0.360829 
-0.0230465 -9.18801 0.733185 
0.360829 0.733185 -9.17193 
-9.8009 -0.00355363 0.43684 
-0.00355363 -9.69533 -0.0728487 
0.43684 -0.0728487 -9.84223 
-9.80661 -0.0319068 0.353867 
-0.0319068 -9.70755 -0.124661 
0.353867 -0.124661 -9.8243 
-9.81466 0.0308751 0.412655 
0.0308751 -9.67367 -0.0521985 
0.412655 -0.0521985 -9.85014 
-9.79341 -0.0070147 0.419774 
-0.0070147 -9.69519 -0.0687902 
0.419774 -0.0687902 -9.84986 
-11.2549 0.309314 -0.694888 
0.309314 -9.45943 -0.488663 
-0.694888 -0.488663 -11.176 
-9.96963 -0.709563 -0.0688654 
-0.709563 -11.4198 0.55229 
-0.0688654 0.55229 -10.501 
-10.1333 0.280006 0.234296 
0.280006 -10.2556 0.476082 
0.234296 0.476082 -11.5015 
-10.2712 -0.0416948 0.114717 
-0.0416948 -10.4801 0.219719 
0.114717 0.219719 -11.1391 
-9.5341 0.372534 0.283539 
0.372534 -9.74394 -0.0404856 
0.283539 -0.0404856 -9.16739 
-9.31045 0.189813 0.244235 
0.189813 -9.55647 -0.03176 
0.244235 -0.03176 -9.57851 
-8.88083 -0.256102 0.339103 
-0.256102 -9.65191 -0.190156 
0.339103 -0.190156 -9.91269 
-9.25125 0.0807152 -0.21074 
0.0807152 -9.36914 0.295307 
-0.21074 0.295307 -9.82504 
-9.8971 -0.00416386 0.251794 
-0.00416386 -9.83122 0.0232245 
0.251794 0.0232245 -10.0855 
-9.95878 -0.00984431 0.22156 
-0.00984431 -9.94772 -0.0776573 
0.22156 -0.0776573 -9.90732 
-9.91778 0.0159926 0.224498 
0.0159926 -9.94307 -0.0659142 
0.224498 -0.0659142 -9.95297 
-9.94663 0.0522407 0.209166 
0.0522407 -9.82689 -0.0824903 
0.209166 -0.0824903 -10.0403 
-9.75182 0.0920983 0.163827 
0.0920983 -9.84969 -0.448872 
0.163827 -0.448872 -9.96745 
-9.87393 -0.0482755 0.272618 
-0.0482755 -9.84052 -0.575056 
0.272618 -0.575056 -9.8545 
-9.88733 -0.0203266 0.253481 
-0.0203266 -9.85543 -0.518984 
0.253481 -0.518984 -9.8262 
-9.8719 0.0383848 0.245148 
0.0383848 -9.93127 -0.555827 
0.245148 -0.555827 -9.76579 
-10.0867 -0.0936206 0.343854 
-0.0936206 -9.75051 -0.0045934 
0.343854 -0.0045934 -9.44692 
-9.82162 -0.0396917 0.101036 
-0.0396917 -9.9443 0.0141506 
0.101036 0.0141506 -9.51818 
-9.75357 -0.0183285 0.259335 
-0.0183285 -9.93587 0.0345522 
0.259335 0.0345522 -9.59465 
-9.8133 -0.0631585 0.256173 
-0.0631585 -9.87571 0.0757926 
0.256173 0.0757926 -9.59508 
-8.53606 0.391921 1.12591 
0.391921 -9.50369 0.508589 
1.12591 0.508589 -9.87918 
-9.13937 -0.377366 -0.145556 
-0.377366 -9.2472 0.202736 
-0.145556 0.202736 -9.53236 
-8.70369 -0.0386221 -0.203768 
-0.0386221 -9.27794 0.565106 
-0.203768 0.565106 -9.9373 
-8.32343 0.322536 -0.374845 
0.322536 -9.80971 0.291646 
-0.374845 0.291646 -9.78579 
-8.10478 0.146848 0.500352 
0.146848 -8.17807 0.00382464 
0.500352 0.00382464 -3.2952 
-7.4327 0.213229 0.216444 
0.213229 -8.14394 0.492604 
0.216444 0.492604 -4.0014 
-8.04172 0.460371 0.588775 
0.460371 -6.44735 -0.710394 
0.588775 -0.710394 -5.08897 
-7.74281 0.0453927 0.824861 
0.0453927 -7.9222 0.064253 
0.824861 0.064253 -3.91304 
-9.47991 0.0710046 -0.617666 
0.0710046 -9.30376 0.0205769 
-0.617666 0.0205769 -9.56764 
-9.26157 0.00481467 -0.59179 
0.00481467 -9.3561 0.0276993 
-0.59179 0.0276993 -9.73363 
-9.39432 -0.0665985 -0.481342 
-0.0665985 -9.37276 -0.114882 
-0.481342 -0.114882 -9.58423 
-9.54589 -0.122208 -0.586947 
-0.122208 -9.42387 0.0976348 
-0.586947 0.0976348 -9.38154 
-9.5283 -0.0203673 -0.484537 
-0.0203673 -9.57843 0.0423017 
-0.484537 0.0423017 -9.82671 
-9.56127 -0.0196061 -0.469784 
-0.0196061 -9.61914 0.0953812 
-0.469784 0.0953812 -9.75303 
-9.55568 -0.0524822 -0.450735 
-0.0524822 -9.57062 0.043799 
-0.450735 0.043799 -9.80714 
-9.55257 -0.0179968 -0.485273 
-0.0179968 -9.61405 0.0780209 
-0.485273 0.0780209 -9.76683 
-6.43861 -1.22055 1.00105 
-1.22055 -10.1973 -0.283322 
1.00105 -0.283322 -11.8332 
-8.93502 -1.07711 0.854407 
-1.07711 -9.60816 0.0728234 
0.854407 0.0728234 -9.9259 
-8.84601 -0.451561 1.26589 
-0.451561 -11.0012 0.569255 
1.26589 0.569255 -8.62192 
-7.61354 0.205581 -1.3926 
0.205581 -8.96937 0.796515 
-1.3926 0.796515 -11.8862 
-9.63236 -0.228627 0.286646 
-0.228627 -9.36864 -0.709593 
0.286646 -0.709593 -9.76442 
-9.33965 -0.164285 0.353008 
-0.164285 -9.27304 -0.45828 
0.353008 -0.45828 -10.1527 
-9.85728 -0.0677211 0.230822 
-0.0677211 -9.3046 -0.849453 
0.230822 -0.849453 -9.60355 
-10.0673 -0.187101 0.488469 
-0.187101 -9.13558 -0.775769 
0.488469 -0.775769 -9.56257 
-9.02031 0.15962 -0.222319 
0.15962 -9.45453 0.0214172 
-0.222319 0.0214172 -9.76878 
-9.30927 -0.263692 -0.372979 
-0.263692 -9.54549 -0.186936 
-0.372979 -0.186936 -9.38886 
-9.41563 -0.291687 -0.452294 
-0.291687 -9.50166 -0.0775949 
-0.452294 -0.0775949 -9.32633 
-9.04535 -0.0391215 -0.507419 
-0.0391215 -9.27855 -0.389354 
-0.507419 -0.389354 -9.91972 
-9.64344 -0.00998996 0.370185 
-0.00998996 -9.53318 -0.0974912 
0.370185 -0.0974912 -9.90009 
-9.66949 0.0107696 0.341228 
0.0107696 -9.51751 -0.108526 
0.341228 -0.108526 -9.8897 
-9.67484 0.0166506 0.362035 
0.0166506 -9.52576 -0.101731 
0.362035 -0.101731 -9.87612 
-9.66609 0.0129608 0.339403 
0.0129608 -9.52397 -0.0958792 
0.339403 -0.0958792 -9.88665 
-9.96259 -0.00960705 -0.29632 
-0.00960705 -9.9663 -0.248237 
-0.29632 -0.248237 -9.88753 
-9.85276 -0.0122124 -0.302572 
-0.0122124 -9.83986 -0.262742 
-0.302572 -0.262742 -10.1238 
-9.95619 0.0350577 -0.294688 
0.0350577 -9.99022 -0.267142 
-0.294688 -0.267142 -9.87001 
-9.97043 -0.0137342 -0.354262 
-0.0137342 -9.97479 -0.176486 
-0.354262 -0.176486 -9.8712 
-9.32078 -0.085322 -0.341621 
-0.085322 -9.56771 -0.00960299 
-0.341621 -0.00960299 -9.64187 
-9.83838 -0.011415 -0.325134 
-0.011415 -9.275 -0.0796632 
-0.325134 -0.0796632 -9.41698 
-9.29707 -0.0606991 -0.429025 
-0.0606991 -9.4695 -0.00404926 
-0.429025 -0.00404926 -9.76379 
-9.38779 0.0506911 -0.374351 
0.0506911 -9.49996 -0.0570928 
-0.374351 -0.0570928 -9.64261 
-9.44915 0.17396 0.372883 
0.17396 -9.57706 -0.0543893 
0.372883 -0.0543893 -9.46724 
-9.49596 0.28534 0.340411 
0.28534 -9.58025 -0.182794 
0.340411 -0.182794 -9.41724 
-9.14097 -0.130846 0.12975 
-0.130846 -9.53053 0.055986 
0.12975 0.055986 -9.82194 
-9.15626 -0.0298658 0.410593 
-0.0298658 -9.29695 -0.315579 
0.410593 -0.315579 -10.0402 
-9.70592 0.0669821 -0.313626 
0.0669821 -9.77335 -0.333061 
-0.313626 -0.333061 -9.65907 
-9.73437 -0.0545817 -0.386278 
-0.0545817 -9.79692 -0.453429 
-0.386278 -0.453429 -9.60704 
-9.71714 -0.0143094 -0.394178 
-0.0143094 -9.77863 -0.45474 
-0.394178 -0.45474 -9.64257 
-9.73729 -0.00686371 -0.426673 
-0.00686371 -9.80988 -0.404861 
-0.426673 -0.404861 -9.59116 
-9.18213 -0.218571 0.0250351 
-0.218571 -9.60869 0.226924 
0.0250351 0.226924 -9.73366 
-9.19811 -0.0134725 -0.293343 
-0.0134725 -9.36973 0.0886723 
-0.293343 0.0886723 -9.95664 
-9.3111 0.00501533 -0.209563 
0.00501533 -9.25047 0.047428 
-0.209563 0.047428 -9.9629 
-9.3621 0.0700345 -0.360055 
0.0700345 -9.53079 0.407474 
-0.360055 0.407474 -9.63159 
-9.8739 -0.00365388 0.0863307 
-0.00365388 -9.88071 -0.46422 
0.0863307 -0.46422 -10.0744 
-9.95184 0.02525 0.0584242 
0.02525 -9.95603 -0.502292 
0.0584242 -0.502292 -9.92116 
-9.97428 0.00466992 0.0197869 
0.00466992 -9.99414 -0.522735 
0.0197869 -0.522735 -9.86061 
-9.99981 -0.0186645 0.0701072 
-0.0186645 -9.98327 -0.518271 
0.0701072 -0.518271 -9.84595 
-9.61265 0.112591 -0.541797 
0.112591 -9.23263 0.279509 
-0.541797 0.279509 -9.42092 
-9.51788 -0.0239637 -0.260239 
-0.0239637 -9.27275 0.203359 
-0.260239 0.203359 -9.47558 
-9.807 0.0878887 -0.372607 
0.0878887 -9.43313 0.196864 
-0.372607 0.196864 -9.02608 
-9.65467 0.0643644 -0.41831 
0.0643644 -9.26135 0.248695 
-0.41831 0.248695 -9.35018 
-9.71214 -0.0493385 0.0310557 
-0.0493385 -9.77029 0.000838696 
0.0310557 0.000838696 -9.89797 
-9.71655 -0.000984364 0.0611813 
-0.000984364 -9.74058 -0.0196474 
0.0611813 -0.0196474 -9.92326 
-9.84097 0.0486214 -0.150496 
0.0486214 -9.67787 0.0886246 
-0.150496 0.0886246 -9.86155 
-9.63282 -0.0822907 -0.00886872 
-0.0822907 -9.79054 0.00839476 
-0.00886872 0.00839476 -9.95703 
-9.68604 0.0207781 -0.170828 
0.0207781 -9.80536 -0.651247 
-0.170828 -0.651247 -9.67614 
-9.63057 -0.00501398 -0.168298 
-0.00501398 -9.96044 -0.53731 
-0.168298 -0.53731 -9.57653 
-9.88106 -0.0895772 -0.209761 
-0.0895772 -9.53317 -0.392437 
-0.209761 -0.392437 -9.75332 
-9.84545 -0.042825 -0.0469523 
-0.042825 -9.83318 -0.524109 
-0.0469523 -0.524109 -9.48892 
-9.78733 0.00966977 -0.4247 
0.00966977 -9.78286 0.171181 
-0.4247 0.171181 -9.84875 
-9.77594 -0.0217318 -0.503236 
-0.0217318 -9.78346 0.220999 
-0.503236 0.220999 -9.85954 
-9.78915 0.0152839 -0.407391 
0.0152839 -9.821 0.12159 
-0.407391 0.12159 -9.80879 
-9.78221 -0.0285216 -0.467843 
-0.0285216 -9.73366 0.156363 
-0.467843 0.156363 -9.90307 
-9.19969 0.0575694 0.544491 
0.0575694 -9.13502 -0.487657 
0.544491 -0.487657 -9.08937 
-9.1454 -0.102918 0.375057 
-0.102918 -9.3339 -0.17087 
0.375057 -0.17087 -8.94478 
-9.35231 0.16097 0.525687 
0.16097 -9.25961 -0.368123 
0.525687 -0.368123 -8.81216 
-9.44672 0.051828 0.569037 
0.051828 -9.51866 -0.455451 
0.569037 -0.455451 -8.45871 
-9.609 -0.0938375 0.109655 
-0.0938375 -9.35187 -0.359715 
0.109655 -0.359715 -9.28446 
-9.64477 -0.00676162 0.108005 
-0.00676162 -9.36656 -0.120018 
0.108005 -0.120018 -9.234 
-9.34149 -0.0605707 0.0855665 
-0.0605707 -9.5192 -0.082509 
0.0855665 -0.082509 -9.38464 
-9.27114 0.0623822 -0.144076 
0.0623822 -10.1543 -0.281155 
-0.144076 -0.281155 -8.81984 
-9.73715 0.0659799 -0.432651 
0.0659799 -9.4572 -0.0027452 
-0.432651 -0.0027452 -9.54994 
-9.66972 0.0538196 -0.452176 
0.0538196 -9.48759 -0.0100467 
-0.452176 -0.0100467 -9.58698 
-9.73459 0.0157208 -0.454534 
0.0157208 -9.43673 0.0292169 
-0.454534 0.0292169 -9.57297 
-9.63612 0.0719312 -0.480937 
0.0719312 -9.59507 -0.0217961 
-0.480937 -0.0217961 -9.5131 
-9.76339 0.015251 0.174986 
0.015251 -9.64263 0.0090924 
0.174986 0.0090924 -9.87808 
-9.73349 0.0143433 0.205042 
0.0143433 -9.68203 0.0658239 
0.205042 0.0658239 -9.86858 
-9.76467 -0.014516 0.229933 
-0.014516 -9.75229 0.0935977 
0.229933 0.0935977 -9.76714 
-9.77415 -0.00103582 0.162786 
-0.00103582 -9.74351 0.100524 
0.162786 0.100524 -9.76644 
-9.85607 0.0277666 -0.434746 
0.0277666 -9.83449 0.163636 
-0.434746 0.163636 -9.9289 
-9.83779 0.00293737 -0.456799 
0.00293737 -9.83229 0.156774 
-0.456799 0.156774 -9.94939 
-9.83852 -0.007936 -0.478533 
-0.007936 -9.86255 0.161996 
-0.478533 0.161996 -9.9184 
-9.83559 -0.011708 -0.480986 
-0.011708 -9.86768 0.167018 
-0.480986 0.167018 -9.91619 
-9.59706 0.00498941 -0.132529 
0.00498941 -9.41581 -0.808017 
-0.132529 -0.808017 -7.65161 
-9.40489 0.26122 -0.0145782 
0.26122 -8.91711 -0.285854 
-0.0145782 -0.285854 -8.34247 
-9.5398 0.364878 -0.336272 
0.364878 -8.65053 0.0422252 
-0.336272 0.0422252 -8.47414 
-8.84901 -0.470971 0.497343 
-0.470971 -8.92999 -0.136582 
0.497343 -0.136582 -8.88547 
-9.0415 -0.199007 0.138986 
-0.199007 -8.78395 -0.0233205 
0.138986 -0.0233205 -9.65522 
-9.13534 -0.137972 0.195156 
-0.137972 -8.8083 0.035732 
0.195156 0.035732 -9.53704 
-9.06734 -0.14491 0.198031 
-0.14491 -8.89041 0.154338 
0.198031 0.154338 -9.52292 
-9.10517 -0.17544 0.214883 
-0.17544 -8.82621 0.0256548 
0.214883 0.0256548 -9.5493 
-9.44702 0.0138605 1.11855 
0.0138605 -7.99985 -0.899267 
1.11855 -0.899267 -10.4468 
-8.58725 -0.431769 0.616728 
-0.431769 -8.84194 -0.661558 
0.616728 -0.661558 -10.4644 
-9.6786 -0.0148116 0.252197 
-0.0148116 -8.46507 -0.492837 
0.252197 -0.492837 -9.74995 
-9.56332 -0.280307 0.793063 
-0.280307 -7.98976 -0.918143 
0.793063 -0.918143 -10.3405 
-6.6469 -1.15425 0.410939 
-1.15425 -6.9601 -0.0145373 
0.410939 -0.0145373 -2.54998 
-5.7352 1.9254 0.75511 
1.9254 -6.54558 0.317696 
0.75511 0.317696 -3.87621 
-7.23336 0.912241 0.271482 
0.912241 -7.65025 0.662629 
0.271482 0.662629 -1.27338 
-7.8814 -2.03502 1.6286 
-2.03502 -6.55797 1.52978 
1.6286 1.52978 -1.71762 
-9.51191 -2.76902 -1.28304 
-2.76902 -4.83409 -1.95551 
-1.28304 -1.95551 -2.93078 
-10.5132 6.4034 -0.485725 
6.4034 -8.92439 -8.56774 
-0.485725 -8.56774 2.16084 
-1.64837 3.31503 2.85247 
3.31503 -5.41701 -3.68763 
2.85247 -3.68763 -10.2114 
-5.52673 -0.938295 1.19758 
-0.938295 -6.49429 -3.63883 
1.19758 -3.63883 -5.25576 
-14.981 -0.254648 1.11857 
-0.254648 -12.0472 -1.47474 
1.11857 -1.47474 -9.34965 
-11.8312 0.326641 -0.242356 
0.326641 -10.0678 -0.152635 
-0.242356 -0.152635 -14.4789 
-9.90249 0.847202 0.136573 
0.847202 -11.4543 0.394 
0.136573 0.394 -15.0211 
-11.2475 -0.83078 1.32675 
-0.83078 -10.0132 -1.3094 
1.32675 -1.3094 -15.1173 
-9.52388 -0.0474088 -0.447017 
-0.0474088 -9.57388 -0.0183066 
-0.447017 -0.0183066 -9.71091 
-9.45328 -0.022047 -0.462867 
-0.022047 -9.64155 0.0069298 
-0.462867 0.0069298 -9.71385 
-9.62964 -0.038214 -0.467533 
-0.038214 -9.52795 -0.0413985 
-0.467533 -0.0413985 -9.65109 
-9.53687 -0.118296 -0.396163 
-0.118296 -9.5655 -0.0160094 
-0.396163 -0.0160094 -9.7063 
-7.474 -0.100088 -1.35227 
-0.100088 -7.9147 1.67438 
-1.35227 1.67438 -4.04281 
-8.34981 -0.235829 -1.45372 
-0.235829 -7.93604 2.01959 
-1.45372 2.01959 -3.14566 
-7.7426 -0.216793 -1.62595 
-0.216793 -7.35967 1.77074 
-1.62595 1.77074 -4.32924 
-7.40095 0.0871448 -1.2311 
0.0871448 -7.81879 1.13381 
-1.2311 1.13381 -4.21177 
-9.17501 0.751805 -0.410335 
0.751805 -8.72315 -0.428143 
-0.410335 -0.428143 -11.5928 
-10.2532 0.752872 -0.851888 
0.752872 -9.71926 0.0136455 
-0.851888 0.0136455 -9.51856 
-8.58395 0.491342 -1.64838 
0.491342 -9.11698 -1.57636 
-1.64838 -1.57636 -11.7901 
-10.1929 1.12565 -0.90007 
1.12565 -8.3752 -0.224325 
-0.90007 -0.224325 -10.9229 
-9.77758 -0.0193099 -0.0275443 
-0.0193099 -9.86947 -0.0100813 
-0.0275443 -0.0100813 -9.97054 
-9.91718 0.0138302 0.0217397 
0.0138302 -9.76195 0.011587 
0.0217397 0.011587 -9.93846 
-9.93244 0.0183091 -0.0155039 
0.0183091 -9.78796 -0.00225776 
-0.0155039 -0.00225776 -9.89718 
-9.81602 0.0238858 0.0308047 
0.0238858 -9.87619 0.150095 
0.0308047 0.150095 -9.92537 
-9.67357 0.0703348 -0.114041 
0.0703348 -9.61738 0.0221277 
-0.114041 0.0221277 -9.4703 
-9.6391 -0.0735841 -0.168168 
-0.0735841 -9.5395 0.143674 
-0.168168 0.143674 -9.58266 
-9.70069 0.0775213 -0.179003 
0.0775213 -9.59417 0.0191408 
-0.179003 0.0191408 -9.46639 
-9.74264 -0.00685024 -0.137972 
-0.00685024 -9.66161 0.0958373 
-0.137972 0.0958373 -9.357 
-8.74116 -0.250019 -0.734944 
-0.250019 -9.6102 -0.451885 
-0.734944 -0.451885 -8.9013 
-8.89903 0.306835 -0.622067 
0.306835 -9.21758 -0.404344 
-0.622067 -0.404344 -9.13605 
-8.85245 0.0117164 -0.643842 
0.0117164 -9.33351 -0.332451 
-0.643842 -0.332451 -9.06669 
-8.92014 -0.256989 -0.72126 
-0.256989 -9.28419 -0.329809 
-0.72126 -0.329809 -9.04832 
-8.45119 -0.142794 -0.282989 
-0.142794 -9.56991 -0.733347 
-0.282989 -0.733347 -9.78828 
-9.31922 0.313623 -0.276734 
0.313623 -8.92868 0.0163343 
-0.276734 0.0163343 -9.56148 
-9.60724 -0.244493 0.405241 
-0.244493 -9.07643 -1.07967 
0.405241 -1.07967 -9.1257 
-8.92731 0.0178735 -0.268739 
0.0178735 -8.67684 -0.442604 
-0.268739 -0.442604 -10.2052 
-10.1456 -1.33361 0.156812 
-1.33361 -10.1191 -0.698226 
0.156812 -0.698226 -12.7985 
-9.90529 -0.0669464 -0.165436 
-0.0669464 -10.0405 -0.0474075 
-0.165436 -0.0474075 -13.1173 
-10.6058 0.186632 -0.354526 
0.186632 -10.6791 -0.422757 
-0.354526 -0.422757 -11.7782 
-10.9128 -1.57099 0.306192 
-1.57099 -9.85571 0.432983 
0.306192 0.432983 -12.2946 
-8.05205 0.350418 -1.12542 
0.350418 -10.1819 -0.781083 
-1.12542 -0.781083 -11.557 
-8.31154 -0.136033 -1.11736 
-0.136033 -11.2177 -0.133691 
-1.11736 -0.133691 -10.2617 
-9.85491 1.30367 -0.987034 
1.30367 -9.0346 -0.149206 
-0.987034 -0.149206 -10.9014 
-9.30264 0.511525 -1.7477 
0.511525 -9.14524 -0.620626 
-1.7477 -0.620626 -11.343 
-9.85638 0.0437571 0.259744 
0.0437571 -9.79283 -0.024635 
0.259744 -0.024635 -9.99221 
-9.92174 -0.019137 0.278499 
-0.019137 -9.77621 -0.0871141 
0.278499 -0.0871141 -9.94348 
-9.88033 0.0420678 0.222923 
0.0420678 -9.78859 -0.057328 
0.222923 -0.057328 -9.97251 
-9.8918 0.021788 0.248392 
0.021788 -9.78966 -0.0401082 
0.248392 -0.0401082 -9.95997 
-9.26051 0.0118906 -0.624872 
0.0118906 -9.4186 0.0105894 
-0.624872 0.0105894 -9.55246 
-9.27704 0.0393862 -0.593843 
0.0393862 -9.32252 -0.12645 
-0.593843 -0.12645 -9.63201 
-9.40138 0.0465294 -0.593587 
0.0465294 -9.24821 0.00593148 
-0.593587 0.00593148 -9.58199 
-9.31563 0.0210034 -0.75533 
0.0210034 -9.37269 0.0410264 
-0.75533 0.0410264 -9.54325 
-9.48986 -0.0183925 -0.432477 
-0.0183925 -9.40871 -0.0346017 
-0.432477 -0.0346017 -9.43315 
-9.43743 -0.0352916 -0.485678 
-0.0352916 -9.42208 -0.0710905 
-0.485678 -0.0710905 -9.47222 
-9.46896 0.000795621 -0.405818 
0.000795621 -9.46503 -0.0320525 
-0.405818 -0.0320525 -9.39773 
-9.56164 -0.030402 -0.540654 
-0.030402 -9.44558 0.0935372 
-0.540654 0.0935372 -9.3245 
-8.63505 -0.394646 -1.16011 
-0.394646 -10.2464 -1.11872 
-1.16011 -1.11872 -10.2515 
-8.93077 0.0372946 -0.702131 
0.0372946 -9.38692 -0.363189 
-0.702131 -0.363189 -10.8153 
-9.30999 0.183687 -0.00308787 
0.183687 -9.46725 0.36843 
-0.00308787 0.36843 -10.3558 
-8.95396 0.48099 0.159128 
0.48099 -9.51183 -0.370711 
0.159128 -0.370711 -10.6672 
-10.049 0.0161512 0.132975 
0.0161512 -9.34655 0.15287 
0.132975 0.15287 -10.7418 
-10.1036 0.0673813 0.174129 
0.0673813 -9.16648 -0.0230519 
0.174129 -0.0230519 -10.8672 
-9.9942 0.121064 0.100449 
0.121064 -9.15898 0.027989 
0.100449 0.027989 -10.9842 
-10.5651 0.187642 -0.422806 
0.187642 -9.52294 -0.691805 
-0.422806 -0.691805 -10.0493 
-8.39132 -0.188261 0.281982 
-0.188261 -9.5488 0.0128756 
0.281982 0.0128756 -9.43889 
-9.25543 0.292964 0.561972 
0.292964 -9.26775 -0.242549 
0.561972 -0.242549 -8.85582 
-8.99234 0.303353 0.533082 
0.303353 -9.33163 -0.294535 
0.533082 -0.294535 -9.05504 
-8.50317 -0.18807 0.888636 
-0.18807 -9.198 -0.0148395 
0.888636 -0.0148395 -9.67784 
-9.72519 0.00371479 0.139042 
0.00371479 -9.1249 -0.204098 
0.139042 -0.204098 -9.98505 
-9.56628 -0.0173572 0.276167 
-0.0173572 -9.20655 -0.093644 
0.276167 -0.093644 -10.0623 
-9.52247 0.257942 0.310735 
0.257942 -9.16664 -0.08294 
0.310735 -0.08294 -10.146 
-9.52674 -0.0832336 0.353626 
-0.0832336 -9.3295 -0.0539464 
0.353626 -0.0539464 -9.9789 
-8.8497 0.16164 1.07547 
0.16164 -9.67612 -0.585067 
1.07547 -0.585067 -8.69372 
-9.00953 -0.310575 -0.154452 
-0.310575 -8.9053 -0.349268 
-0.154452 -0.349268 -9.30472 
-8.8261 -0.0144633 1.52852 
-0.0144633 -9.1498 -0.899967 
1.52852 -0.899967 -9.24364 
-9.43002 -0.255976 0.903103 
-0.255976 -9.72241 -0.622861 
0.903103 -0.622861 -8.06712 
-7.82705 -0.839744 0.990823 
-0.839744 -8.60994 -0.629815 
0.990823 -0.629815 -6.82199 
-9.00069 -0.273522 0.739952 
-0.273522 -8.2773 -0.945273 
0.739952 -0.945273 -5.98099 
-8.68312 -0.836225 1.49642 
-0.836225 -9.54813 -0.584769 
1.49642 -0.584769 -5.02774 
-9.0513 -0.56091 1.49784 
-0.56091 -8.612 -0.858207 
1.49784 -0.858207 -5.59568 
-3.36187 0.577814 0.0512253 
0.577814 -3.74785 0.695457 
0.0512253 0.695457 -0.378706 
-5.65234 -0.664665 1.12357 
-0.664665 -3.44688 -0.236498 
1.12357 -0.236498 1.61079 
-2.09687 0.22505 -0.479983 
0.22505 -3.58494 1.23313 
-0.479983 1.23313 -1.80661 
-4.37394 2.07332 -1.15431 
2.07332 -3.50857 0.480271 
-1.15431 0.480271 0.394084 
-9.20157 -0.360936 0.721304 
-0.360936 -8.90615 0.583418 
0.721304 0.583418 -7.33196 
-8.34673 0.725557 -0.176334 
0.725557 -8.6285 -0.875601 
-0.176334 -0.875601 -8.46444 
-8.2112 -0.136029 0.791981 
-0.136029 -9.33025 0.770195 
0.791981 0.770195 -7.89823 
-9.14509 -0.635099 1.04144 
-0.635099 -9.55287 -0.325695 
1.04144 -0.325695 -6.74172 
-9.67666 -0.0244334 -0.381228 
-0.0244334 -9.46487 -0.0607946 
-0.381228 -0.0607946 -9.55305 
-9.59321 -0.0468776 -0.391235 
-0.0468776 -9.51068 0.0314311 
-0.391235 0.0314311 -9.59068 
-9.66768 -0.00962737 -0.409371 
-0.00962737 -9.50038 -0.070896 
-0.409371 -0.070896 -9.52652 
-9.56923 -0.0253535 -0.392365 
-0.0253535 -9.53374 -0.0583041 
-0.392365 -0.0583041 -9.5916 
-9.70782 -0.0546647 0.464646 
-0.0546647 -9.67291 -0.0316821 
0.464646 -0.0316821 -9.83729 
-9.75313 -0.00947004 0.470597 
-0.00947004 -9.71589 -0.182831 
0.470597 -0.182831 -9.74901 
-9.77571 0.0103355 0.483662 
0.0103355 -9.6581 -0.0536212 
0.483662 -0.0536212 -9.78421 
-9.575 0.0193296 0.341546 
0.0193296 -9.6727 -0.06037 
0.341546 -0.06037 -9.97032 
-9.59287 0.0416503 -0.0806701 
0.0416503 -9.65434 0.0440288 
-0.0806701 0.0440288 -9.57458 
-9.73007 0.0422463 -0.0622143 
0.0422463 -9.59855 -0.0132003 
-0.0622143 -0.0132003 -9.49316 
-9.57407 -0.0430331 -0.248831 
-0.0430331 -9.6261 0.0984494 
-0.248831 0.0984494 -9.62161 
-9.60288 0.054929 -0.175812 
0.054929 -9.56378 0.118912 
-0.175812 0.118912 -9.65514 
-9.73399 -0.0239706 -0.248655 
-0.0239706 -9.66956 -0.545981 
-0.248655 -0.545981 -9.64251 
-9.71896 0.0106996 -0.142756 
0.0106996 -9.73453 -0.653756 
-0.142756 -0.653756 -9.59258 
-9.64139 0.019314 -0.0373248 
0.019314 -9.73022 -0.500406 
-0.0373248 -0.500406 -9.67445 
-9.70933 -0.00787594 -0.204382 
-0.00787594 -9.73881 -0.619043 
-0.204382 -0.619043 -9.59792 
-8.91201 0.0762821 -0.395705 
0.0762821 -8.95022 0.0125051 
-0.395705 0.0125051 -10.8807 
-8.10269 0.954638 0.864843 
0.954638 -9.90305 0.213976 
0.864843 0.213976 -10.7372 
-10.0487 -0.0210311 0.486485 
-0.0210311 -8.45762 -0.195573 
0.486485 -0.195573 -10.2366 
-9.32671 0.501075 0.69294 
0.501075 -9.28661 -0.544653 
0.69294 -0.544653 -10.1296 
-9.86949 0.0587804 0.312434 
0.0587804 -9.17662 -0.466324 
0.312434 -0.466324 -9.39365 
-9.50255 0.029384 0.284437 
0.029384 -9.3896 -0.326298 
0.284437 -0.326298 -9.54761 
-9.67413 0.182392 0.0590532 
0.182392 -9.00378 0.0397322 
0.0590532 0.0397322 -9.76185 
-9.35799 -0.0933194 0.139683 
-0.0933194 -9.65354 -0.22292 
0.139683 -0.22292 -9.42823 
-3.64273 0.48585 -2.91397 
0.48585 -10.0856 -1.06575 
-2.91397 -1.06575 -2.21545 
-7.09505 0.112377 -1.94479 
0.112377 -5.61154 0.0217444 
-1.94479 0.0217444 -3.23721 
-6.59696 0.125037 -2.14875 
0.125037 -6.11218 -0.741517 
-2.14875 -0.741517 -3.23465 
-5.51717 -0.141702 0.530658 
-0.141702 -7.09987 0.536516 
0.530658 0.536516 -3.32676 
-8.23877 0.052272 -0.36102 
0.052272 -8.75753 -1.40747 
-0.36102 -1.40747 -8.16437 
-9.33989 0.548439 -0.274983 
0.548439 -8.40699 -1.29806 
-0.274983 -1.29806 -7.41379 
-9.49562 -0.160713 0.0303508 
-0.160713 -9.5397 -1.14884 
0.0303508 -1.14884 -6.12535 
-7.77041 -0.479793 -0.678808 
-0.479793 -8.44503 0.656398 
-0.678808 0.656398 -8.94524 
-9.36284 0.00898527 -0.643268 
0.00898527 -9.57842 0.00846991 
-0.643268 0.00846991 -9.93219 
-9.37573 -0.0144629 -0.45403 
-0.0144629 -9.56934 0.0641328 
-0.45403 0.0641328 -9.92838 
-9.32914 0.00134588 -0.617476 
0.00134588 -9.54388 0.0228983 
-0.617476 0.0228983 -10.0004 
-9.36903 -0.0178637 -0.462522 
-0.0178637 -9.57089 -0.0303637 
-0.462522 -0.0303637 -9.93353 
-9.56623 0.0562226 -0.0929432 
0.0562226 -9.70315 0.170474 
-0.0929432 0.170474 -9.7445 
-9.41408 0.0311168 -0.0990975 
0.0311168 -9.70774 0.0627747 
-0.0990975 0.0627747 -9.89207 
-9.41497 0.00286589 -0.316463 
0.00286589 -9.54865 -0.0301048 
-0.316463 -0.0301048 -10.0503 
-9.4266 0.0840497 -0.0820768 
0.0840497 -9.6244 0.058024 
-0.0820768 0.058024 -9.96289 
-9.84061 -0.0216755 -0.250538 
-0.0216755 -9.83802 -0.316734 
-0.250538 -0.316734 -9.717 
-9.83159 0.00777163 -0.268039 
0.00777163 -9.84735 -0.325962 
-0.268039 -0.325962 -9.71668 
-9.78578 0.0573835 -0.25117 
0.0573835 -9.83766 -0.335361 
-0.25117 -0.335361 -9.77218 
-9.82185 0.0456783 -0.305155 
0.0456783 -9.87775 -0.288668 
-0.305155 -0.288668 -9.69602 
-12.4735 -0.688855 0.724806 
-0.688855 -11.4647 -1.29011 
0.724806 -1.29011 -14.3928 
-12.1185 -0.448305 0.333537 
-0.448305 -11.0605 -1.86998 
0.333537 -1.86998 -15.152 
-14.7476 -0.403203 -0.408514 
-0.403203 -13.656 -0.41059 
-0.408514 -0.41059 -9.92736 
-12.4117 -0.625042 0.232517 
-0.625042 -10.8864 -0.275444 
0.232517 -0.275444 -15.0328 
-9.26554 0.181329 0.182246 
0.181329 -8.98073 -0.115485 
0.182246 -0.115485 -10.0606 
-9.14492 0.130687 0.154512 
0.130687 -9.17699 -0.148333 
0.154512 -0.148333 -9.98499 
-9.19135 0.234452 0.136826 
0.234452 -9.026 -0.196134 
0.136826 -0.196134 -10.0896 
-9.23753 0.179331 0.15941 
0.179331 -9.00241 -0.135461 
0.15941 -0.135461 -10.067 
-9.91363 -0.00778593 0.175582 
-0.00778593 -9.88281 -0.00519874 
0.175582 -0.00519874 -9.88853 
-9.87981 0.0101116 0.18704 
0.0101116 -9.87063 -0.00583587 
0.18704 -0.00583587 -9.93453 
-9.84006 0.00296546 0.202495 
0.00296546 -9.78009 0.066584 
0.202495 0.066584 -10.0648 
-9.92866 0.036264 0.142001 
0.036264 -9.80764 -0.0619943 
0.142001 -0.0619943 -9.94867 
-9.6712 0.00854872 -0.111026 
0.00854872 -9.47355 -0.747367 
-0.111026 -0.747367 -9.77103 
-9.52554 -0.0697413 -0.0720384 
-0.0697413 -10.0707 -0.654697 
-0.0720384 -0.654697 -9.31956 
-9.70295 -0.0147055 -0.0420588 
-0.0147055 -9.6196 -0.664863 
-0.0420588 -0.664863 -9.59323 
-9.68677 0.0177657 0.0176354 
0.0177657 -9.55417 -0.413008 
0.0176354 -0.413008 -9.67484 
-9.68533 0.131767 -0.151048 
0.131767 -9.52602 0.0587215 
-0.151048 0.0587215 -9.67378 
-9.49203 0.00340144 -0.224501 
0.00340144 -9.56272 0.0982631 
-0.224501 0.0982631 -9.83038 
-9.36825 -0.113827 -0.167293 
-0.113827 -9.62504 0.147399 
-0.167293 0.147399 -9.89184 
-9.49319 0.170313 -0.399895 
0.170313 -9.65497 0.168404 
-0.399895 0.168404 -9.73697 
-8.56114 0.113908 -0.84001 
0.113908 -8.6645 0.320314 
-0.84001 0.320314 -6.96699 
-9.31351 -0.43284 -1.14044 
-0.43284 -8.80426 0.840888 
-1.14044 0.840888 -6.07487 
-8.64945 0.123794 -0.634782 
0.123794 -8.74783 0.16983 
-0.634782 0.16983 -6.79536 
-8.58516 -0.0942678 -0.114499 
-0.0942678 -8.54738 0.928708 
-0.114499 0.928708 -7.0601 
-9.88385 0.370182 -0.62861 
0.370182 -7.59285 -0.293116 
-0.62861 -0.293116 -8.4526 
-9.48343 -0.0668383 -0.638346 
-0.0668383 -8.38519 -0.4684 
-0.638346 -0.4684 -8.06068 
-9.23373 -0.419408 -0.237678 
-0.419408 -8.9265 -0.256732 
-0.237678 -0.256732 -7.76908 
-9.54081 -0.0436721 -0.829139 
-0.0436721 -8.31348 -0.70351 
-0.829139 -0.70351 -8.07502 
-8.67179 -0.509329 -0.689978 
-0.509329 -9.2341 0.206564 
-0.689978 0.206564 -9.48885 
-8.76102 0.155934 -0.379765 
0.155934 -9.40313 -0.236093 
-0.379765 -0.236093 -9.23059 
-8.9404 -0.121086 -0.644226 
-0.121086 -8.9103 -0.00630757 
-0.644226 -0.00630757 -9.54403 
-9.32964 -0.0605379 -0.792226 
-0.0605379 -9.11699 -0.422751 
-0.792226 -0.422751 -8.9481 
-8.33175 -0.420109 -0.311537 
-0.420109 -9.22846 -0.124627 
-0.311537 -0.124627 -8.9503 
-8.52568 -0.33698 0.311281 
-0.33698 -9.14238 -0.238965 
0.311281 -0.238965 -8.84245 
-8.60308 -0.128292 0.0208639 
-0.128292 -9.04499 0.364689 
0.0208639 0.364689 -8.86245 
-8.14022 0.0731535 0.528008 
0.0731535 -9.24054 -0.575846 
0.528008 -0.575846 -9.12975 
-9.62723 0.133459 -0.0908056 
0.133459 -9.61217 0.0413341 
-0.0908056 0.0413341 -9.59763 
-9.68429 0.0979451 -0.052881 
0.0979451 -9.57183 0.0907081 
-0.052881 0.0907081 -9.58092 
-9.16576 -0.128925 -0.264682 
-0.128925 -9.78634 0.0545873 
-0.264682 0.0545873 -9.88494 
-9.33569 0.136713 0.0766677 
0.136713 -9.56643 0.0263711 
0.0766677 0.0263711 -9.93492 
-9.96723 -0.0115428 -0.354682 
-0.0115428 -10.0312 -0.297345 
-0.354682 -0.297345 -9.83189 
-9.96148 -0.0012187 -0.340273 
-0.0012187 -9.97786 -0.275759 
-0.340273 -0.275759 -9.891 
-9.84357 0.0116902 -0.338985 
0.0116902 -9.84968 -0.288615 
-0.338985 -0.288615 -10.1371 
-9.99111 -0.0219013 -0.318329 
-0.0219013 -9.98537 -0.157259 
-0.318329 -0.157259 -9.85387 
-7.14223 -0.873288 -0.620355 
-0.873288 -7.75178 1.01468 
-0.620355 1.01468 -9.04689 
-7.95586 -0.698581 -0.934178 
-0.698581 -7.89811 1.31389 
-0.934178 1.31389 -8.08693 
-8.96635 -0.468975 -0.808449 
-0.468975 -8.41022 0.658721 
-0.808449 0.658721 -6.56433 
-7.73947 -0.0894485 -1.34785 
-0.0894485 -7.90412 1.55816 
-1.34785 1.55816 -8.29731 
-8.53307 -0.145179 1.54776 
-0.145179 -9.54254 -1.09222 
1.54776 -1.09222 -3.96833 
-7.14207 0.373023 -0.726433 
0.373023 -7.887 0.101422 
-0.726433 0.101422 -7.01487 
-7.94814 0.35289 0.744265 
0.35289 -8.83047 -0.347482 
0.744265 -0.347482 -5.26533 
-8.24967 0.450718 0.51281 
0.450718 -9.03224 -0.254341 
0.51281 -0.254341 -4.76204 
-6.52819 -1.35556 0.63224 
-1.35556 -9.60442 0.312376 
0.63224 0.312376 -13.9992 
-10.8703 -1.07989 2.41853 
-1.07989 -9.24549 1.07191 
2.41853 1.07191 -10.016 
-6.96365 -1.09174 0.159401 
-1.09174 -10.8552 0.226791 
0.159401 0.226791 -12.313 
-6.50311 -1.14781 -0.519803 
-1.14781 -11.4229 -0.0811007 
-0.519803 -0.0811007 -12.2058 
-9.65117 -0.0546447 0.177832 
-0.0546447 -9.68505 -0.170553 
0.177832 -0.170553 -10.0966 
-9.76854 -0.172262 -0.19635 
-0.172262 -9.96391 0.0139711 
-0.19635 0.0139711 -9.70036 
-9.42306 0.0742222 -0.130476 
0.0742222 -9.92422 -0.0532251 
-0.130476 -0.0532251 -10.0855 
-9.55665 -0.00640696 -0.111547 
-0.00640696 -9.71716 -0.0305997 
-0.111547 -0.0305997 -10.159 
-9.4968 -0.0934914 0.162244 
-0.0934914 -9.22942 -0.00988036 
0.162244 -0.00988036 -9.46148 
-9.56179 0.022643 0.121322 
0.022643 -9.17771 -0.0200512 
0.121322 -0.0200512 -9.44821 
-9.53706 -0.0484007 0.168699 
-0.0484007 -9.18907 -0.000234777 
0.168699 -0.000234777 -9.46158 
-9.66034 -0.0999017 0.0750713 
-0.0999017 -9.13846 -0.0805925 
0.0750713 -0.0805925 -9.38891 
-8.61129 0.316933 -0.466339 
0.316933 -9.53297 -0.231772 
-0.466339 -0.231772 -9.85127 
-9.06992 -0.169559 -0.293532 
-0.169559 -9.49831 -0.0943 
-0.293532 -0.0943 -9.42731 
-9.43612 -0.62205 -0.360779 
-0.62205 -9.58392 -0.0817934 
-0.360779 -0.0817934 -8.97549 
-9.13218 -0.0631292 0.203202 
-0.0631292 -9.12739 0.368842 
0.203202 0.368842 -9.73597 
-9.47491 -0.199176 0.021023 
-0.199176 -9.72788 0.0136025 
0.021023 0.0136025 -9.95569 
-9.70575 0.0622166 -0.110142 
0.0622166 -9.65059 0.0491568 
-0.110142 0.0491568 -9.80213 
-9.73452 0.100673 -0.105793 
0.100673 -9.68388 0.0361634 
-0.105793 0.0361634 -9.74008 
-9.46884 0.0261704 -0.207256 
0.0261704 -9.74895 0.244476 
-0.207256 0.244476 -9.94069 
-9.35275 0.299327 0.533239 
0.299327 -9.50351 -0.26751 
0.533239 -0.26751 -9.41072 
-9.04187 -0.134781 0.028751 
-0.134781 -9.56049 0.389867 
0.028751 0.389867 -9.66461 
-9.90719 -0.0172378 0.704609 
-0.0172378 -9.42769 -0.264622 
0.704609 -0.264622 -8.9321 
-9.59538 -0.380871 0.690207 
-0.380871 -10.0564 0.672237 
0.690207 0.672237 -8.6152 
-8.29597 0.00850467 1.37184 
0.00850467 -8.71845 -0.0955405 
1.37184 -0.0955405 -8.63818 
-8.4266 -0.0798995 0.465867 
-0.0798995 -9.32627 -1.07063 
0.465867 -1.07063 -7.89974 
-8.5732 -0.522266 0.778732 
-0.522266 -8.72964 -0.823924 
0.778732 -0.823924 -8.34977 
-9.00213 -0.0899866 1.92251 
-0.0899866 -8.65627 -1.16251 
1.92251 -1.16251 -7.9942 
-9.57264 0.037113 0.424162 
0.037113 -9.56674 0.050101 
0.424162 0.050101 -9.47509 
-9.53151 0.103913 0.570696 
0.103913 -9.6043 0.0798076 
0.570696 0.0798076 -9.47866 
-9.63289 -0.0195497 0.385252 
-0.0195497 -9.57623 0.00785545 
0.385252 0.00785545 -9.40535 
-9.4814 0.13199 0.433235 
0.13199 -9.55103 -0.0536841 
0.433235 -0.0536841 -9.58204 
-9.93364 0.00627977 0.185523 
0.00627977 -9.84545 -0.0883049 
0.185523 -0.0883049 -9.98763 
-9.87348 0.0133489 0.21779 
0.0133489 -9.83887 -0.0491186 
0.21779 -0.0491186 -10.0544 
-9.94214 -0.0300178 0.172552 
-0.0300178 -9.94009 -0.0497308 
0.172552 -0.0497308 -9.88448 
-9.91742 0.00709972 0.130099 
0.00709972 -9.88286 -0.0998281 
0.130099 -0.0998281 -9.96644 
-9.43004 0.0408237 0.210831 
0.0408237 -9.59876 -0.141502 
0.210831 -0.141502 -8.39774 
-9.27017 0.10991 0.0366882 
0.10991 -9.40486 -0.0407378 
0.0366882 -0.0407378 -8.7515 
-9.29957 0.144971 -0.0424065 
0.144971 -9.50239 -0.0851641 
-0.0424065 -0.0851641 -8.62459 
-9.32888 0.138906 0.078237 
0.138906 -9.43692 -0.109683 
0.078237 -0.109683 -8.66074 
-8.37791 -0.479102 -0.535022 
-0.479102 -9.21489 0.320383 
-0.535022 0.320383 -8.83533 
-9.00473 -0.135126 -0.0386334 
-0.135126 -9.24829 0.772669 
-0.0386334 0.772669 -8.1751 
-8.58258 -0.4189 -0.805562 
-0.4189 -9.49747 0.34373 
-0.805562 0.34373 -8.34807 
-9.15511 0.0547077 -0.21435 
0.0547077 -9.15699 0.386889 
-0.21435 0.386889 -8.11603 
-9.5878 -0.0323126 0.234342 
-0.0323126 -9.29616 -0.305319 
0.234342 -0.305319 -9.58614 
-9.5406 0.00568711 0.235598 
0.00568711 -9.27697 -0.311472 
0.235598 -0.311472 -9.65253 
-9.56177 0.0736742 0.267553 
0.0736742 -9.18484 -0.347399 
0.267553 -0.347399 -9.72349 
-9.52124 -0.0400599 0.207281 
-0.0400599 -9.2118 -0.288992 
0.207281 -0.288992 -9.73705 
-9.81778 0.00435998 0.0393534 
0.00435998 -9.76041 -0.0237648 
0.0393534 -0.0237648 -9.9036 
-9.83705 0.0145769 0.0958438 
0.0145769 -9.69783 0.0125165 
0.0958438 0.0125165 -9.94691 
-9.7657 0.0232414 0.0689761 
0.0232414 -9.79431 -0.0424195 
0.0689761 -0.0424195 -9.92178 
-9.89537 0.0310649 0.157542 
0.0310649 -9.71176 0.0132603 
0.157542 0.0132603 -9.87465 
-9.46107 0.152222 0.418612 
0.152222 -9.35475 0.182796 
0.418612 0.182796 -9.81236 
-9.53282 0.143317 0.505521 
0.143317 -9.53202 0.089265 
0.505521 0.089265 -9.56334 
-9.5501 0.0978947 0.42656 
0.0978947 -9.39367 0.124742 
0.42656 0.124742 -9.68441 
-9.48943 0.128336 0.389682 
0.128336 -9.51523 -0.0902498 
0.389682 -0.0902498 -9.62352 
-8.98355 -0.174234 -0.505458 
-0.174234 -9.41947 -0.0464277 
-0.505458 -0.0464277 -9.58249 
-9.02946 -0.00366606 -0.398714 
-0.00366606 -9.13958 -0.0934748 
-0.398714 -0.0934748 -9.81647 
-9.08717 -0.288617 -0.72631 
-0.288617 -9.19616 0.210425 
-0.72631 0.210425 -9.70218 
-9.29595 -0.206347 -0.744222 
-0.206347 -9.34933 -0.118116 
-0.744222 -0.118116 -9.34023 
-8.4071 0.799741 1.06967 
0.799741 -8.19933 -0.0337288 
1.06967 -0.0337288 -4.33482 
-8.46686 0.964513 1.43785 
0.964513 -7.68423 -0.644752 
1.43785 -0.644752 -4.79016 
-7.40364 -0.909936 0.394143 
-0.909936 -6.6918 -1.1623 
0.394143 -1.1623 -6.84582 
-7.87978 0.650319 0.625573 
0.650319 -8.50816 -0.463033 
0.625573 -0.463033 -4.55331 
-9.45858 0.582552 0.358481 
0.582552 -9.58074 0.38382 
0.358481 0.38382 -10.091 
-9.76821 -0.228371 0.600593 
-0.228371 -9.77351 0.197215 
0.600593 0.197215 -9.58862 
-9.8542 -0.303898 0.841139 
-0.303898 -10.1092 0.108495 
0.841139 0.108495 -9.16691 
-9.90722 -0.394818 0.413073 
-0.394818 -9.57589 -0.22399 
0.413073 -0.22399 -9.64724 
-8.76835 -0.368978 -0.846725 
-0.368978 -9.01873 -0.167398 
-0.846725 -0.167398 -8.65676 
-8.40522 0.169794 -0.435742 
0.169794 -9.09096 0.0826894 
-0.435742 0.0826894 -8.94767 
-8.57433 0.0605621 -0.395218 
0.0605621 -9.251 0.177071 
-0.395218 0.177071 -8.61852 
-8.41208 -0.114233 -0.654345 
-0.114233 -9.3573 0.26814 
-0.654345 0.26814 -8.67447 
-9.37859 -0.0870664 -0.570904 
-0.0870664 -9.33952 -0.00094796 
-0.570904 -0.00094796 -9.58348 
-9.22677 -0.040008 -0.588956 
-0.040008 -9.50827 0.172075 
-0.588956 0.172075 -9.56655 
-9.3197 -0.0222554 -0.612908 
-0.0222554 -9.46293 0.00454795 
-0.612908 0.00454795 -9.51896 
-9.31515 0.0258959 -0.69584 
0.0258959 -9.46111 -0.0440667 
-0.69584 -0.0440667 -9.52533 
-9.2673 0.23151 -0.16725 
0.23151 -9.26003 -0.161634 
-0.16725 -0.161634 -8.95962 
-9.41639 0.0662861 0.0554713 
0.0662861 -9.25419 -0.118784 
0.0554713 -0.118784 -8.81638 
-9.27422 0.174345 -0.00200742 
0.174345 -9.21029 -0.264196 
-0.00200742 -0.264196 -9.00244 
-9.29149 0.0736561 -0.186613 
0.0736561 -9.01919 -0.378973 
-0.186613 -0.378973 -9.17626 
-9.52617 -0.0579669 -0.377311 
-0.0579669 -9.59591 0.0743391 
-0.377311 0.0743391 -9.70524 
-9.52551 -0.0207767 -0.422988 
-0.0207767 -9.56251 0.0696499 
-0.422988 0.0696499 -9.73929 
-9.49584 0.0018723 -0.462378 
0.0018723 -9.58072 0.0740085 
-0.462378 0.0740085 -9.75076 
-9.53135 -0.0146336 -0.496234 
-0.0146336 -9.58889 0.0277907 
-0.496234 0.0277907 -9.70707 
-9.66083 -0.00324473 -0.174159 
-0.00324473 -9.72492 -0.256549 
-0.174159 -0.256549 -9.52153 
-9.68311 0.00226152 -0.183358 
0.00226152 -9.72197 -0.241583 
-0.183358 -0.241583 -9.50221 
-9.69741 -0.0130179 -0.143541 
-0.0130179 -9.67055 -0.225333 
-0.143541 -0.225333 -9.53933 
-9.69844 -0.00853995 -0.244301 
-0.00853995 -9.75887 -0.252602 
-0.244301 -0.252602 -9.44997 
-9.71449 0.0202349 0.0233998 
0.0202349 -9.65864 -0.292782 
0.0233998 -0.292782 -8.56759 
-9.64649 0.0265545 0.00578348 
0.0265545 -9.70548 -0.167846 
0.00578348 -0.167846 -8.58874 
-9.59845 0.195113 0.251803 
0.195113 -9.76324 -0.30083 
0.251803 -0.30083 -8.57903 
-9.3233 -0.0200301 0.452615 
-0.0200301 -9.50575 -0.261586 
0.452615 -0.261586 -9.11166 
-9.69381 0.00652622 -0.44707 
0.00652622 -9.56995 -0.0123195 
-0.44707 -0.0123195 -9.60874 
-9.67209 -0.00149866 -0.423859 
-0.00149866 -9.53336 0.0377276 
-0.423859 0.0377276 -9.66704 
-9.69476 0.00592359 -0.43353 
0.00592359 -9.52041 0.029735 
-0.43353 0.029735 -9.65732 
-9.64848 -0.0246195 -0.36529 
-0.0246195 -9.50836 -0.0696927 
-0.36529 -0.0696927 -9.71565 
-9.38636 -1.45494 -1.21926 
-1.45494 -8.00583 2.576 
-1.21926 2.576 -10.6607 
-8.73659 -0.151006 -1.06421 
-0.151006 -10.2737 2.69896 
-1.06421 2.69896 -9.04262 
-9.05395 -0.999689 -1.53 
-0.999689 -7.58827 3.1985 
-1.53 3.1985 -11.4107 
-10.9749 -2.06839 -0.349005 
-2.06839 -6.31559 -0.0728729 
-0.349005 -0.0728729 -10.7624 
-9.5159 -0.0426049 -0.344344 
-0.0426049 -9.49565 -0.0015361 
-0.344344 -0.0015361 -9.69519 
-9.53083 -0.0185739 -0.629435 
-0.0185739 -9.51297 0.129429 
-0.629435 0.129429 -9.66293 
-9.40901 -0.0110354 -0.594539 
-0.0110354 -9.55607 0.231885 
-0.594539 0.231885 -9.74165 
-9.52311 0.0449259 -0.703875 
0.0449259 -9.6294 0.0313497 
-0.703875 0.0313497 -9.55423 
-9.27674 -0.133134 -0.124188 
-0.133134 -8.81492 -1.12011 
-0.124188 -1.12011 -8.14987 
-9.11589 -0.000692782 0.147736 
-0.000692782 -9.08379 -0.879716 
0.147736 -0.879716 -8.04185 
-9.07558 -0.458796 0.47976 
-0.458796 -9.44444 -0.946264 
0.47976 -0.946264 -7.72151 
-8.19868 -0.216858 0.059682 
-0.216858 -8.59144 -0.158133 
0.059682 -0.158133 -9.45142 
-9.86241 0.0220545 0.0823632 
0.0220545 -9.85462 -0.0314359 
0.0823632 -0.0314359 -9.93225 
-9.82898 0.00848583 0.089998 
0.00848583 -9.79737 -0.0016327 
0.089998 -0.0016327 -10.0229 
-9.85261 0.011797 0.0661836 
0.011797 -9.84854 -0.0292822 
0.0661836 -0.0292822 -9.94812 
-9.88853 0.0299646 0.0674047 
0.0299646 -9.862 -0.0530791 
0.0674047 -0.0530791 -9.89874 
-8.51351 -0.125512 -0.423279 
-0.125512 -11.3753 0.560543 
-0.423279 0.560543 -12.2299 
-10.0949 0.501149 -0.129087 
0.501149 -10.2037 0.135164 
-0.129087 0.135164 -11.8199 
-10.7263 1.12749 -0.400237 
1.12749 -9.99367 0.184425 
-0.400237 0.184425 -11.3987 
-10.093 0.0965541 -0.0935544 
0.0965541 -10.0622 -0.522417 
-0.0935544 -0.522417 -11.9634 
-8.55888 -0.210294 0.369673 
-0.210294 -8.97001 -0.0593394 
0.369673 -0.0593394 -7.52378 
-8.64848 -0.10123 0.295335 
-0.10123 -8.85334 -0.104931 
0.295335 -0.104931 -7.55085 
-8.99798 0.0586601 0.418612 
0.0586601 -9.06787 -0.758601 
0.418612 -0.758601 -6.98683 
-8.55483 0.174726 -0.127907 
0.174726 -8.7751 0.0443694 
-0.127907 0.0443694 -7.72274 
-9.5752 -0.0327883 -0.479907 
-0.0327883 -9.66936 0.00615964 
-0.479907 0.00615964 -9.73931 
-9.5973 -0.0446314 -0.505666 
-0.0446314 -9.65047 0.00826144 
-0.505666 0.00826144 -9.7361 
-9.59297 -0.0399651 -0.486833 
-0.0399651 -9.64296 -0.0356987 
-0.486833 -0.0356987 -9.74794 
-9.58583 -0.00801806 -0.492937 
-0.00801806 -9.62636 -0.0109013 
-0.492937 -0.0109013 -9.77168 
-9.86132 -0.138964 -0.0327766 
-0.138964 -9.51037 0.658813 
-0.0327766 0.658813 -9.7964 
-9.79674 0.086284 -0.0992951 
0.086284 -9.9321 0.72237 
-0.0992951 0.72237 -9.43926 
-9.67466 -0.0609241 -0.0984999 
-0.0609241 -9.6357 0.639904 
-0.0984999 0.639904 -9.85774 
-9.74741 -0.0420973 0.0781798 
-0.0420973 -9.78767 0.620541 
0.0781798 0.620541 -9.63302 
-9.85468 -0.0432288 -0.321684 
-0.0432288 -9.82629 -0.372781 
-0.321684 -0.372781 -9.6746 
-9.6847 0.052848 -0.302935 
0.052848 -9.90459 -0.389117 
-0.302935 -0.389117 -9.76627 
-9.81225 -0.0260064 -0.272071 
-0.0260064 -9.86358 -0.339964 
-0.272071 -0.339964 -9.67974 
-9.77873 0.0454521 -0.301692 
0.0454521 -9.93545 -0.25987 
-0.301692 -0.25987 -9.64139 
-7.24102 -0.078808 0.215305 
-0.078808 -8.5926 -0.0541521 
0.215305 -0.0541521 -6.27817 
-8.44083 0.0258577 -0.80856 
0.0258577 -7.9367 0.0380475 
-0.80856 0.0380475 -5.73426 
-8.39883 0.0560357 -1.29938 
0.0560357 -7.52743 0.218144 
-1.29938 0.218144 -6.18553 
-8.56019 -0.0811534 -0.848583 
-0.0811534 -7.99528 0.370926 
-0.848583 0.370926 -5.55632 
-9.44062 -0.217377 -0.427157 
-0.217377 -9.23328 0.1491 
-0.427157 0.1491 -8.78807 
-9.48205 -0.177222 0.164608 
-0.177222 -9.09797 0.024713 
0.164608 0.024713 -8.88194 
-9.31869 0.0336413 -0.296131 
0.0336413 -9.20544 -0.0817988 
-0.296131 -0.0817988 -8.93783 
-9.48687 -0.0702223 -0.294622 
-0.0702223 -9.21249 -0.00033968 
-0.294622 -0.00033968 -8.76261 
-9.53759 0.00158566 0.360143 
0.00158566 -9.64571 -0.0107611 
0.360143 -0.0107611 -9.90819 
-9.8096 0.0747272 0.360373 
0.0747272 -9.56889 -0.185581 
0.360373 -0.185581 -9.71301 
-9.78918 -0.0761549 0.38537 
-0.0761549 -9.47593 -0.347423 
0.38537 -0.347423 -9.82639 
-9.81301 -0.00354049 0.319533 
-0.00354049 -9.60909 -0.242138 
0.319533 -0.242138 -9.66939 
-9.85785 -0.0355129 0.406771 
-0.0355129 -9.72216 -0.0813176 
0.406771 -0.0813176 -9.88249 
-9.83312 0.0317575 0.377496 
0.0317575 -9.74074 -0.0705223 
0.377496 -0.0705223 -9.88864 
-9.83729 -0.0101576 0.38301 
-0.0101576 -9.74449 -0.0739319 
0.38301 -0.0739319 -9.88072 
-9.8166 -0.0640807 0.291368 
-0.0640807 -9.76202 -0.1309 
0.291368 -0.1309 -9.88388 
-9.8224 0.0302192 0.220695 
0.0302192 -9.74753 0.00649902 
0.220695 0.00649902 -9.91613 
-9.82369 0.0164253 0.216509 
0.0164253 -9.75988 -0.0166241 
0.216509 -0.0166241 -9.90249 
-9.84758 -0.0206874 0.189391 
-0.0206874 -9.71828 -0.00165641 
0.189391 -0.00165641 -9.9202 
-9.80896 0.0740593 0.166926 
0.0740593 -9.81461 0.0637193 
0.166926 0.0637193 -9.86249 
-9.30011 0.0723798 0.791117 
0.0723798 -9.12416 0.074052 
0.791117 0.074052 -9.54045 
-9.11935 0.0949275 0.849832 
0.0949275 -9.14406 -0.0224115 
0.849832 -0.0224115 -9.7013 
-9.12436 0.17909 0.825983 
0.17909 -9.08292 -0.0522183 
0.825983 -0.0522183 -9.75744 
-8.90738 0.117793 0.778817 
0.117793 -9.09345 -0.0904583 
0.778817 -0.0904583 -9.96388 
-9.87777 0.0147392 0.345509 
0.0147392 -9.82782 -0.0938834 
0.345509 -0.0938834 -9.99809 
-9.88956 0.00415555 0.35811 
0.00415555 -9.83839 -0.0727181 
0.35811 -0.0727181 -9.97572 
-9.89605 0.0082207 0.335992 
0.0082207 -9.86603 -0.0700856 
0.335992 -0.0700856 -9.94159 
-9.91233 0.0111739 0.322284 
0.0111739 -9.85631 -0.0513592 
0.322284 -0.0513592 -9.93503 
-9.7792 -0.0637814 0.508378 
-0.0637814 -9.57245 -0.0208832 
0.508378 -0.0208832 -9.65288 
-9.62176 -0.0777424 0.49044 
-0.0777424 -9.66453 0.0112183 
0.49044 0.0112183 -9.71823 
-9.60129 -0.0783641 0.452535 
-0.0783641 -9.64619 0.00958286 
0.452535 0.00958286 -9.75704 
-9.62054 -0.0162767 0.477188 
-0.0162767 -9.6516 -0.0141968 
0.477188 -0.0141968 -9.73238 
-10.6353 -0.901705 0.731571 
-0.901705 -10.6977 -0.393098 
0.731571 -0.393098 -11.5289 
-10.6815 0.420188 -0.249241 
0.420188 -10.3258 -0.125545 
-0.249241 -0.125545 -11.8545 
-10.4006 0.833878 0.380562 
0.833878 -9.90804 0.527752 
0.380562 0.527752 -12.5532 
-10.9169 -0.180928 -0.507596 
-0.180928 -9.59334 -0.3737 
-0.507596 -0.3737 -12.3517 
-9.68211 -0.0915771 0.157569 
-0.0915771 -9.89518 -0.0830515 
0.157569 -0.0830515 -9.90053 
-9.86937 0.0326178 -0.154708 
0.0326178 -9.77504 -0.0400727 
-0.154708 -0.0400727 -9.83342 
-9.78678 0.00655962 -0.043897 
0.00655962 -9.7818 0.00875981 
-0.043897 0.00875981 -9.90925 
-9.64145 0.0327838 -0.0308616 
0.0327838 -9.82505 0.042809 
-0.0308616 0.042809 -10.0113 
-9.87305 -0.0574452 -0.135147 
-0.0574452 -9.82432 0.38138 
-0.135147 0.38138 -9.72665 
-9.87049 0.0880706 -0.17309 
0.0880706 -9.89544 0.349714 
-0.17309 0.349714 -9.65809 
-9.75081 0.139976 -0.180259 
0.139976 -9.79582 0.383434 
-0.180259 0.383434 -9.8774 
-9.83377 -0.0443418 -0.140125 
-0.0443418 -9.84125 0.328476 
-0.140125 0.328476 -9.74899 
-9.42119 -0.0271599 -0.269421 
-0.0271599 -9.46849 0.163731 
-0.269421 0.163731 -9.81196 
-9.21562 -0.0860503 -0.372641 
-0.0860503 -9.55073 0.135892 
-0.372641 0.135892 -9.9353 
-9.37952 -0.0243676 -0.383312 
-0.0243676 -9.49305 0.133209 
-0.383312 0.133209 -9.82907 
-9.46187 -0.0277814 -0.484211 
-0.0277814 -9.43104 0.151692 
-0.484211 0.151692 -9.80873 
-9.63599 0.326945 0.231563 
0.326945 -8.967 0.0809032 
0.231563 0.0809032 -10.0948 
-9.47235 0.289618 0.323433 
0.289618 -8.96831 0.0725086 
0.323433 0.0725086 -10.2571 
-9.68416 0.345007 0.219936 
0.345007 -8.98073 0.111006 
0.219936 0.111006 -10.0329 
-9.5017 0.285445 0.267935 
0.285445 -8.93639 0.11655 
0.267935 0.11655 -10.2597 
-9.43147 0.0719646 -0.370046 
0.0719646 -9.66999 0.254951 
-0.370046 0.254951 -9.50995 
-9.39672 -0.112548 -0.396431 
-0.112548 -9.56564 0.351744 
-0.396431 0.351744 -9.64906 
-9.37395 0.0817373 -0.37941 
0.0817373 -9.67121 0.227008 
-0.37941 0.227008 -9.56627 
-9.39592 0.0371463 -0.301857 
0.0371463 -9.52141 0.267517 
-0.301857 0.267517 -9.69409 
-9.81354 -0.0480078 0.131166 
-0.0480078 -9.76256 -0.0517782 
0.131166 -0.0517782 -10.1317 
-9.74377 -0.0909921 -0.0220994 
-0.0909921 -9.71885 0.0339141 
-0.0220994 0.0339141 -10.2452 
-9.3931 -0.5296 0.0933193 
-0.5296 -9.81669 -0.116103 
0.0933193 -0.116103 -10.498 
-9.65935 -0.117406 -0.0594744 
-0.117406 -9.87075 0.0188838 
-0.0594744 0.0188838 -10.1777 
-9.5285 0.0751124 -0.564679 
0.0751124 -8.58163 -0.171465 
-0.564679 -0.171465 -9.48858 
-10.0708 0.0270372 -0.485417 
0.0270372 -7.70241 -0.358121 
-0.485417 -0.358121 -9.8255 
-9.62172 -0.013886 -0.611754 
-0.013886 -8.29359 -0.0375177 
-0.611754 -0.0375177 -9.6834 
-9.65774 -0.440541 -0.252885 
-0.440541 -8.27637 0.738781 
-0.252885 0.738781 -9.66459 
-9.18962 0.226083 0.135037 
0.226083 -8.58402 -0.217664 
0.135037 -0.217664 -9.67722 
-9.80943 -0.0103268 -0.547854 
-0.0103268 -8.9074 -0.185714 
-0.547854 -0.185714 -8.73403 
-9.69992 0.111074 -0.527386 
0.111074 -9.04814 -0.467497 
-0.527386 -0.467497 -8.7028 
-9.58419 -0.129009 -0.331444 
-0.129009 -9.01603 -0.281438 
-0.331444 -0.281438 -8.85065 
-9.74343 -0.134257 -0.308436 
-0.134257 -9.87829 0.253194 
-0.308436 0.253194 -9.88047 
-9.87819 0.0984895 0.22213 
0.0984895 -9.58675 -0.127527 
0.22213 -0.127527 -10.0373 
-9.61366 -0.0262331 0.011067 
-0.0262331 -9.59822 0.0471701 
0.011067 0.0471701 -10.2903 
-9.54165 -0.064069 0.0112377 
-0.064069 -9.84727 0.0861714 
0.0112377 0.0861714 -10.1133 
-9.27635 0.344841 -0.200825 
0.344841 -9.00003 -0.428845 
-0.200825 -0.428845 -9.9971 
-9.05214 0.196932 0.0014569 
0.196932 -8.95397 -0.134478 
0.0014569 -0.134478 -10.2674 
-9.1507 0.0888179 -0.0469843 
0.0888179 -9.00117 -0.248954 
-0.0469843 -0.248954 -10.1216 
-9.48694 0.0666615 0.424298 
0.0666615 -9.05331 -0.0929322 
0.424298 -0.0929322 -9.73323 
-9.1356 0.108608 0.143612 
0.108608 -9.49819 -0.0832797 
0.143612 -0.0832797 -9.27788 
-9.22858 0.124785 0.200843 
0.124785 -9.46398 -0.258309 
0.200843 -0.258309 -9.21911 
-9.24628 -0.082655 -0.0940169 
-0.082655 -9.40359 -0.220062 
-0.0940169 -0.220062 -9.2618 
-9.10257 -0.0544012 -0.0424791 
-0.0544012 -9.67482 -0.148019 
-0.0424791 -0.148019 -9.13429 
-9.49165 0.232995 0.214895 
0.232995 -9.57534 0.0320428 
0.214895 0.0320428 -10.6039 
-9.72689 0.261808 -0.528871 
0.261808 -9.63264 -0.14631 
-0.528871 -0.14631 -10.3114 
-9.16626 0.156894 -0.00264013 
0.156894 -9.61419 0.133495 
-0.00264013 0.133495 -10.8904 
-9.30592 0.0120346 -0.149332 
0.0120346 -9.62418 0.0760067 
-0.149332 0.0760067 -10.7408 
-9.70503 1.98293 2.32571 
1.98293 -6.07206 3.6094 
2.32571 3.6094 -10.204 
-7.4021 0.0625632 0.896601 
0.0625632 -8.45378 -0.335291 
0.896601 -0.335291 -10.1252 
-7.62952 0.550639 1.03229 
0.550639 -9.68437 1.89241 
1.03229 1.89241 -8.66721 
-8.67375 0.506839 0.0298595 
0.506839 -9.37091 2.18201 
0.0298595 2.18201 -7.93644 
-9.39346 -0.0464593 -0.525552 
-0.0464593 -9.49888 -0.137374 
-0.525552 -0.137374 -9.67122 
-9.37736 -0.0649122 -0.564929 
-0.0649122 -9.46036 -0.0533799 
-0.564929 -0.0533799 -9.72585 
-9.39594 -0.0756141 -0.520611 
-0.0756141 -9.52974 -0.0421582 
-0.520611 -0.0421582 -9.63789 
-9.42329 -0.0474986 -0.55603 
-0.0474986 -9.57104 0.00355867 
-0.55603 0.00355867 -9.56924 
-9.53427 -0.0697122 0.152992 
-0.0697122 -9.7158 0.0951667 
0.152992 0.0951667 -9.36129 
-9.48552 -0.0815431 0.193002 
-0.0815431 -9.75442 0.159462 
0.193002 0.159462 -9.37142 
-9.46999 -0.0792792 0.145096 
-0.0792792 -9.7372 0.154926 
0.145096 0.154926 -9.40417 
-9.5093 -0.058718 0.173461 
-0.058718 -9.63152 0.240388 
0.173461 0.240388 -9.47053 
-11.4228 0.0479131 -0.318525 
0.0479131 -9.54991 0.363249 
-0.318525 0.363249 -11.4981 
-10.0009 -0.289793 -0.389994 
-0.289793 -9.82393 0.238533 
-0.389994 0.238533 -12.646 
-9.1087 -1.5377 0.851399 
-1.5377 -11.229 -0.108364 
0.851399 -0.108364 -12.1331 
-9.17345 -0.0909511 -0.523871 
-0.0909511 -10.6996 -0.295486 
-0.523871 -0.295486 -12.5978 
-8.3567 0.0785769 0.165512 
0.0785769 -9.07766 0.558195 
0.165512 0.558195 -9.32482 
-8.47391 -0.224256 -0.106181 
-0.224256 -9.26065 0.0675278 
-0.106181 0.0675278 -9.02462 
-8.47839 0.457916 -0.252462 
0.457916 -9.23086 0.042088 
-0.252462 0.042088 -9.04994 
-8.53016 0.0538871 0.0331528 
0.0538871 -9.2466 -0.0222931 
0.0331528 -0.0222931 -8.98242 
-9.79935 0.0508594 -0.419254 
0.0508594 -8.91737 0.0212513 
-0.419254 0.0212513 -9.54684 
-9.10269 -0.247751 -0.702683 
-0.247751 -9.06484 0.177491 
-0.702683 0.177491 -10.096 
-9.32663 0.0994488 -1.25161 
0.0994488 -9.38925 -0.5969 
-1.25161 -0.5969 -9.54768 
-9.54995 0.291504 -0.324557 
0.291504 -9.69727 -0.229708 
-0.324557 -0.229708 -9.01635 
-8.89806 0.693591 -0.333054 
0.693591 -9.11596 -1.27132 
-0.333054 -1.27132 -9.73393 
-9.10556 0.0805407 -0.399244 
0.0805407 -9.24364 -1.13909 
-0.399244 -1.13909 -9.39875 
-8.48073 0.84269 -0.393543 
0.84269 -9.5532 -1.10207 
-0.393543 -1.10207 -9.71401 
-9.33314 1.14264 0.21081 
1.14264 -8.6561 -1.28386 
0.21081 -1.28386 -9.7587 
-9.53699 -0.0277694 -0.355721 
-0.0277694 -9.61032 0.349377 
-0.355721 0.349377 -9.74395 
-9.5223 0.0174158 -0.42458 
0.0174158 -9.72719 0.253679 
-0.42458 0.253679 -9.64177 
-9.54933 0.000717758 -0.419037 
0.000717758 -9.66326 0.248721 
-0.419037 0.248721 -9.67867 
-9.56801 0.026843 -0.394899 
0.026843 -9.5644 0.403598 
-0.394899 0.403598 -9.75885 
-9.1144 0.229074 0.89589 
0.229074 -9.42154 -0.447835 
0.89589 -0.447835 -8.71259 
-9.14436 0.0536421 0.607168 
0.0536421 -9.21154 -0.539715 
0.607168 -0.539715 -8.89262 
-8.9826 -0.149889 0.241368 
-0.149889 -9.23004 -0.745123 
0.241368 -0.745123 -9.03588 
-9.14847 0.0849614 0.39368 
0.0849614 -9.17247 -0.391768 
0.39368 -0.391768 -8.92758 
-9.40837 -0.021704 0.0830609 
-0.021704 -9.5484 0.151236 
0.0830609 0.151236 -9.19408 
-9.35253 -0.0311129 0.315132 
-0.0311129 -9.55795 0.304621 
0.315132 0.304621 -9.24037 
-9.23674 -0.0387097 0.0695837 
-0.0387097 -9.5889 0.114314 
0.0695837 0.114314 -9.32521 
-9.38326 -0.0880398 -0.10543 
-0.0880398 -9.83151 0.372963 
-0.10543 0.372963 -8.93608 
-7.51698 0.964862 -1.11017 
0.964862 -7.78034 -1.54131 
-1.11017 -1.54131 -4.83586 
-7.83798 0.124547 -1.02661 
0.124547 -7.34349 -2.28375 
-1.02661 -2.28375 -4.9517 
-6.19094 -0.0943079 -0.596007 
-0.0943079 -7.43888 0.00318917 
-0.596007 0.00318917 -6.50335 
-6.51272 0.646578 -0.79238 
0.646578 -7.86061 -1.80967 
-0.79238 -1.80967 -5.75985 
-13.2171 1.06533 -1.06721 
1.06533 -6.49007 -2.65971 
-1.06721 -2.65971 -8.45843 
-9.44071 -2.0847 1.45893 
-2.0847 -10.3987 -2.25659 
1.45893 -2.25659 -8.32615 
-6.9882 -2.37819 0.848536 
-2.37819 -9.36941 -3.86296 
0.848536 -3.86296 -11.808 
-9.97374 -0.171481 1.37693 
-0.171481 -8.22034 -2.4347 
1.37693 -2.4347 -9.97148 
-9.44362 0.225673 -0.00367002 
0.225673 -9.20038 -0.125164 
-0.00367002 -0.125164 -9.92294 
-9.42447 0.101825 0.0384487 
0.101825 -9.32457 -0.220804 
0.0384487 -0.220804 -9.81789 
-9.40314 0.16751 0.00676402 
0.16751 -9.21489 -0.115381 
0.00676402 -0.115381 -9.94891 
-9.47148 0.0738558 0.0418404 
0.0738558 -9.23666 -0.239507 
0.0418404 -0.239507 -9.85879 
-8.84283 -0.0886966 0.287991 
-0.0886966 -9.20151 1.39504 
0.287991 1.39504 -9.40125 
-8.63491 -0.0886637 -0.236 
-0.0886637 -9.00047 0.00776515 
-0.236 0.00776515 -9.81021 
-8.45686 0.153336 0.0726555 
0.153336 -9.10496 0.122035 
0.0726555 0.122035 -9.88376 
-8.4126 0.724687 -0.207805 
0.724687 -8.88396 0.307294 
-0.207805 0.307294 -10.149 
-9.82117 0.244192 -0.798065 
0.244192 -8.93918 -1.0782 
-0.798065 -1.0782 -7.16285 
-9.74665 0.533307 -0.967297 
0.533307 -9.68579 -1.15397 
-0.967297 -1.15397 -6.49076 
-9.06427 0.694312 -0.791234 
0.694312 -9.32021 -2.2293 
-0.791234 -2.2293 -7.53872 
-9.81479 0.2177 -1.3033 
0.2177 -10.0671 -0.883491 
-1.3033 -0.883491 -6.04126 
-12.1908 -0.09205 0.0524938 
-0.09205 -11.6426 -0.264856 
0.0524938 -0.264856 -11.2213 
-10.4107 0.247626 0.538036 
0.247626 -11.6619 0.265529 
0.538036 0.265529 -12.982 
-11.7662 0.364283 0.329557 
0.364283 -11.3356 -0.0512252 
0.329557 -0.0512252 -11.953 
-11.6888 0.075912 0.401609 
0.075912 -11.084 -0.362643 
0.401609 -0.362643 -12.2819 
-9.65699 0.147181 -0.203993 
0.147181 -9.2862 0.245399 
-0.203993 0.245399 -9.69792 
-9.30242 -0.150247 -0.168847 
-0.150247 -9.36409 0.22809 
-0.168847 0.22809 -9.9746 
-9.40011 -0.00304661 -0.286663 
-0.00304661 -9.70176 0.0802519 
-0.286663 0.0802519 -9.53924 
-9.28271 -0.0272888 -0.621082 
-0.0272888 -9.66705 -0.00149512 
-0.621082 -0.00149512 -9.69135 
-9.68389 -0.0561088 -0.0912346 
-0.0561088 -9.89744 -0.0973936 
-0.0912346 -0.0973936 -9.87835 
-9.84922 -0.0212579 -0.0359413 
-0.0212579 -9.82278 -0.0685877 
-0.0359413 -0.0685877 -9.78769 
-9.90614 -0.0141501 -0.0964331 
-0.0141501 -9.78739 -0.104413 
-0.0964331 -0.104413 -9.76615 
-9.80335 -0.0135536 -0.0398631 
-0.0135536 -9.85543 0.00197602 
-0.0398631 0.00197602 -9.8009 
-9.3384 0.0155823 0.17048 
0.0155823 -9.38859 -0.140962 
0.17048 -0.140962 -9.35103 
-9.46373 -0.0630042 0.163603 
-0.0630042 -9.39093 -0.223302 
0.163603 -0.223302 -9.22335 
-9.55231 -0.0290346 0.142008 
-0.0290346 -9.38886 -0.184841 
0.142008 -0.184841 -9.13685 
-9.49846 0.00213699 0.275566 
0.00213699 -9.30767 -0.211824 
0.275566 -0.211824 -9.27189 
-7.20197 -0.887565 0.536334 
-0.887565 -7.61216 -0.965802 
0.536334 -0.965802 -9.2479 
-7.70682 -0.554062 0.836413 
-0.554062 -7.977 -1.16236 
0.836413 -1.16236 -8.3782 
-9.03527 -0.204065 0.81383 
-0.204065 -7.99245 -0.645149 
0.81383 -0.645149 -7.03431 
-7.93846 -0.333824 1.4968 
-0.333824 -7.95962 -1.50416 
1.4968 -1.50416 -8.16395 
-7.89665 -0.537116 0.229012 
-0.537116 -8.4089 -0.865002 
0.229012 -0.865002 -3.37755 
-7.52506 -0.154896 0.792511 
-0.154896 -6.71124 -0.719956 
0.792511 -0.719956 -5.4468 
-7.67638 -0.763486 -0.39937 
-0.763486 -8.12383 -1.66466 
-0.39937 -1.66466 -3.88289 
-7.60083 -0.323119 0.496092 
-0.323119 -8.22559 -1.15066 
0.496092 -1.15066 -3.85669 
-9.75914 0.0146929 0.0287344 
0.0146929 -9.74861 -0.0121402 
0.0287344 -0.0121402 -9.86049 
-9.78652 0.0123303 0.0221902 
0.0123303 -9.73873 -0.00935628 
0.0221902 -0.00935628 -9.84299 
-9.75395 -0.0619711 -0.0360912 
-0.0619711 -9.7105 -0.135235 
-0.0360912 -0.135235 -9.90379 
-9.88958 -0.00429242 0.0753802 
-0.00429242 -9.80378 0.0381235 
0.0753802 0.0381235 -9.67487 
-10.3992 0.56215 0.0189662 
0.56215 -9.46652 -0.568623 
0.0189662 -0.568623 -11.0198 
-10.1304 -1.29891 -0.2013 
-1.29891 -8.99906 -0.700229 
-0.2013 -0.700229 -11.7561 
-10.2011 0.354107 -0.116389 
0.354107 -9.44982 0.0969084 
-0.116389 0.0969084 -11.2347 
-10.7845 -0.632053 0.407243 
-0.632053 -9.36118 1.07464 
0.407243 1.07464 -10.7399 
-9.56398 0.0778582 0.118995 
0.0778582 -9.44333 -0.0584485 
0.118995 -0.0584485 -9.83351 
-9.57492 0.0813532 0.0681528 
0.0813532 -9.42104 -0.0839289 
0.0681528 -0.0839289 -9.84487 
-9.58397 0.0985818 0.0709199 
0.0985818 -9.43649 -0.0550626 
0.0709199 -0.0550626 -9.82036 
-9.6021 0.0722759 0.108259 
0.0722759 -9.50008 -0.0665153 
0.108259 -0.0665153 -9.73865 
-9.78891 0.00686709 -0.431361 
0.00686709 -9.77842 0.0256122 
-0.431361 0.0256122 -9.90072 
-9.79412 -0.0124939 -0.423432 
-0.0124939 -9.77744 0.0450008 
-0.423432 0.0450008 -9.89649 
-9.81241 -0.0131674 -0.413981 
-0.0131674 -9.79734 0.036971 
-0.413981 0.036971 -9.8583 
-9.80014 -0.025789 -0.439897 
-0.025789 -9.81081 0.0586333 
-0.439897 0.0586333 -9.8571 
-9.36171 -0.0400325 0.0681186 
-0.0400325 -9.40003 0.223822 
0.0681186 0.223822 -9.25682 
-9.29661 0.0194445 0.125376 
0.0194445 -9.46984 0.171986 
0.125376 0.171986 -9.25209 
-9.24798 -0.074049 0.289936 
-0.074049 -9.51399 0.25059 
0.289936 0.25059 -9.25659 
-9.29052 -0.0434726 0.179156 
-0.0434726 -9.51784 0.239031 
0.179156 0.239031 -9.21019 
-9.39804 -0.0408729 -0.738288 
-0.0408729 -9.44722 -0.154828 
-0.738288 -0.154828 -10.2895 
-9.30489 0.0308173 -0.836002 
0.0308173 -9.59976 -0.195808 
-0.836002 -0.195808 -10.2301 
-9.17121 0.160383 -0.92691 
0.160383 -9.59922 -0.211502 
-0.92691 -0.211502 -10.3644 
-9.52504 0.0346005 -0.713169 
0.0346005 -9.24426 -0.474108 
-0.713169 -0.474108 -10.3655 
-10.1637 0.147988 -0.00495389 
0.147988 -9.30282 -0.203221 
-0.00495389 -0.203221 -10.8572 
-10.0812 0.192012 -0.0184279 
0.192012 -9.01023 0.0133543 
-0.0184279 0.0133543 -11.2323 
-10.1572 0.109113 0.410341 
0.109113 -9.60238 0.354497 
0.410341 0.354497 -10.5641 
-10.0223 0.250897 0.170583 
0.250897 -9.42773 -0.0862879 
0.170583 -0.0862879 -10.8737 
-9.77926 0.0178581 -0.442234 
0.0178581 -9.78566 0.113277 
-0.442234 0.113277 -9.81894 
-9.73063 -0.0301027 -0.408003 
-0.0301027 -9.77163 0.136665 
-0.408003 0.136665 -9.88159 
-9.73903 0.00394341 -0.399656 
0.00394341 -9.74571 0.150577 
-0.399656 0.150577 -9.89911 
-9.79832 0.000645196 -0.455733 
0.000645196 -9.73607 0.15433 
-0.455733 0.15433 -9.84947 
-9.81183 0.0205422 0.296509 
0.0205422 -9.66542 -0.040492 
0.296509 -0.040492 -9.62824 
-9.61311 0.0484285 0.389567 
0.0484285 -9.50368 -0.124607 
0.389567 -0.124607 -9.9887 
-9.63587 0.00396773 0.251858 
0.00396773 -9.62834 -0.0808074 
0.251858 -0.0808074 -9.84128 
-9.68659 -0.0516354 0.277343 
-0.0516354 -9.58511 -0.0416367 
0.277343 -0.0416367 -9.8338 
-8.79595 -0.00694947 0.149682 
-0.00694947 -9.29928 -0.471244 
0.149682 -0.471244 -9.47507 
-8.44919 0.0456127 0.411777 
0.0456127 -9.10424 -0.733158 
0.411777 -0.733158 -10.0169 
-8.85375 -0.0207332 0.109046 
-0.0207332 -9.31099 -0.66101 
0.109046 -0.66101 -9.40555 
-8.85161 0.184917 0.495987 
0.184917 -9.80573 -0.692973 
0.495987 -0.692973 -8.91295 
-9.03514 0.229734 -0.530743 
0.229734 -9.70559 -0.226404 
-0.530743 -0.226404 -11.1332 
-9.57767 -0.511068 0.222605 
-0.511068 -9.6055 0.0903128 
0.222605 0.0903128 -10.6907 
-10.7097 -0.999091 -0.148239 
-0.999091 -9.34785 0.122558 
-0.148239 0.122558 -9.81636 
-9.47646 -0.652325 0.110991 
-0.652325 -9.72493 -0.00918775 
0.110991 -0.00918775 -10.6725 
-9.59737 -0.125817 0.171429 
-0.125817 -8.62062 -0.458086 
0.171429 -0.458086 -8.75646 
-9.46275 -0.0249488 0.216664 
-0.0249488 -8.72576 -0.309377 
0.216664 -0.309377 -8.78594 
-9.46647 0.0483841 0.230637 
0.0483841 -8.72251 -0.361158 
0.230637 -0.361158 -8.78546 
-9.45897 0.138567 0.157242 
0.138567 -8.83171 -0.4106 
0.157242 -0.4106 -8.68377 
-8.48662 -0.0507226 0.894456 
-0.0507226 -9.42403 -0.656191 
0.894456 -0.656191 -8.09672 
-8.9386 -0.315974 0.901402 
-0.315974 -8.35317 -0.276966 
0.901402 -0.276966 -8.7156 
-8.57058 0.0277901 0.82931 
0.0277901 -9.28992 -0.350511 
0.82931 -0.350511 -8.14687 
-8.76635 0.0114581 0.992796 
0.0114581 -9.45452 0.0243332 
0.992796 0.0243332 -7.7865 
-9.37998 -0.0654757 -0.618615 
-0.0654757 -9.60787 0.148424 
-0.618615 0.148424 -9.52495 
-9.17415 0.164185 -0.147523 
0.164185 -9.69728 0.361536 
-0.147523 0.361536 -9.64136 
-9.13032 -0.0794101 -0.290562 
-0.0794101 -9.6276 0.305309 
-0.290562 0.305309 -9.75488 
-9.06552 -0.00494102 -0.420113 
-0.00494102 -9.59853 0.0647447 
-0.420113 0.0647447 -9.84873 
-7.22986 0.236172 -0.838595 
0.236172 -12.1196 0.201449 
-0.838595 0.201449 -9.29408 
-10.2234 1.14459 -0.837194 
1.14459 -8.52328 -2.5416 
-0.837194 -2.5416 -9.89686 
-11.9375 2.28653 -1.82412 
2.28653 -3.10499 -1.72437 
-1.82412 -1.72437 -13.601 
-9.53426 -0.0195692 -0.362215 
-0.0195692 -8.63638 -2.68562 
-0.362215 -2.68562 -10.4729 
-9.66919 -0.0444221 -0.33008 
-0.0444221 -9.30729 -0.346845 
-0.33008 -0.346845 -7.47153 
-10.241 -0.0774322 -0.00838476 
-0.0774322 -9.01104 0.735641 
-0.00838476 0.735641 -7.19592 
-9.46203 0.254707 0.00372893 
0.254707 -9.55855 -0.080335 
0.00372893 -0.080335 -7.42743 
-9.31128 0.666596 0.109308 
0.666596 -10.5009 -0.0924282 
0.109308 -0.0924282 -6.63585 
-8.81895 -0.1872 0.0386382 
-0.1872 -9.17706 0.652499 
0.0386382 0.652499 -9.63215 
-8.78784 -0.317129 -0.0442775 
-0.317129 -9.23216 0.534959 
-0.0442775 0.534959 -9.60816 
-8.83062 0.10108 0.182735 
0.10108 -9.50101 0.446469 
0.182735 0.446469 -9.29653 
-9.33855 -0.307375 0.0306859 
-0.307375 -9.09566 0.792691 
0.0306859 0.792691 -9.19395 
-5.54429 0.107549 1.28025 
0.107549 -9.85252 -0.0513593 
1.28025 -0.0513593 -0.649259 
-7.91552 0.113656 -0.459252 
0.113656 -5.91097 -0.173314 
-0.459252 -0.173314 -2.21958 
-7.60109 0.454336 -1.04943 
0.454336 -6.33494 -0.987316 
-1.04943 -0.987316 -2.11004 
-3.83979 -0.214854 -3.86207 
-0.214854 -7.67619 -2.07072 
-3.86207 -2.07072 -4.53009 
-9.82237 0.0921189 0.181607 
0.0921189 -9.76776 0.0966987 
0.181607 0.0966987 -9.95906 
-9.86323 -0.0526365 0.260364 
-0.0526365 -9.87445 0.0578515 
0.260364 0.0578515 -9.81152 
-9.89765 -0.0102832 0.238884 
-0.0102832 -9.87939 0.0169674 
0.238884 0.0169674 -9.77215 
-9.86546 -0.0173158 0.240534 
-0.0173158 -9.85629 0.055156 
0.240534 0.055156 -9.82744 
-8.94067 0.0781857 -0.0291894 
0.0781857 -9.65292 -0.0200439 
-0.0291894 -0.0200439 -9.32384 
-9.49813 -0.0724887 0.201857 
-0.0724887 -9.45716 -0.064434 
0.201857 -0.064434 -8.96213 
-9.43389 -0.317254 0.366831 
-0.317254 -9.88616 0.476797 
0.366831 0.476797 -8.59738 
-8.91065 -0.140447 -0.347371 
-0.140447 -9.50258 0.555404 
-0.347371 0.555404 -9.5042 
-5.48254 -0.0964797 -1.34922 
-0.0964797 -4.93462 -3.25127 
-1.34922 -3.25127 -5.15595 
-5.50996 -0.354051 -0.425907 
-0.354051 -6.41737 -3.66171 
-0.425907 -3.66171 -3.64579 
-6.83903 0.150994 -1.09599 
0.150994 -3.93994 -2.68983 
-1.09599 -2.68983 -4.79414 
-5.28025 -0.301888 -0.524816 
-0.301888 -5.57226 -3.28312 
-0.524816 -3.28312 -4.7206 
-9.68918 -0.0728986 0.408769 
-0.0728986 -9.68811 -0.0527363 
0.408769 -0.0527363 -9.8312 
-9.76332 -0.0846006 0.458053 
-0.0846006 -9.59767 -0.109733 
0.458053 -0.109733 -9.8475 
-9.70418 -0.0657649 0.415617 
-0.0657649 -9.68927 -0.0519848 
0.415617 -0.0519848 -9.81504 
-9.76101 0.0925098 0.399241 
0.0925098 -9.67183 0.0483609 
0.399241 0.0483609 -9.77565 
-9.82257 0.0284822 0.332858 
0.0284822 -9.83563 -0.144151 
0.332858 -0.144151 -9.81396 
-9.80223 0.0246532 0.393389 
0.0246532 -9.80204 -0.17586 
0.393389 -0.17586 -9.86789 
-9.87129 0.131639 0.318945 
0.131639 -9.89126 -0.143816 
0.318945 -0.143816 -9.7096 
-9.80497 -0.0212947 0.322268 
-0.0212947 -9.84155 -0.0840912 
0.322268 -0.0840912 -9.82564 
-9.94842 -0.488036 -0.327264 
-0.488036 -10.1724 -0.318595 
-0.327264 -0.318595 -13.0066 
-10.1788 1.45867 -0.954702 
1.45867 -10.5944 0.0467156 
-0.954702 0.0467156 -12.3542 
-10.1365 0.250196 0.447383 
0.250196 -9.83927 -0.109742 
0.447383 -0.109742 -13.1517 
-9.86389 -1.23156 -0.589015 
-1.23156 -10.2409 -0.231229 
-0.589015 -0.231229 -13.0226 
-9.7849 0.0170495 -0.196421 
0.0170495 -9.61215 0.0542182 
-0.196421 0.0542182 -9.35055 
-9.6462 -0.15925 -0.108849 
-0.15925 -9.41018 -0.260025 
-0.108849 -0.260025 -9.69122 
-9.95076 0.0213746 0.0900363 
0.0213746 -9.34944 0.109857 
0.0900363 0.109857 -9.4474 
-9.5628 -0.0123745 -0.163605 
-0.0123745 -9.72669 0.0414417 
-0.163605 0.0414417 -9.45811 
-8.08138 -0.250712 1.54092 
-0.250712 -8.85234 0.157876 
1.54092 0.157876 -4.52056 
-8.32055 -0.506568 1.00198 
-0.506568 -8.37081 0.168028 
1.00198 0.168028 -4.76291 
-8.02671 -0.585883 0.899542 
-0.585883 -8.36213 0.181697 
0.899542 0.181697 -5.06544 
-7.36445 -0.288469 1.79667 
-0.288469 -8.3283 0.839334 
1.79667 0.839334 -5.76153 
-9.91095 -0.00159334 -0.439709 
-0.00159334 -9.91045 0.163255 
-0.439709 0.163255 -9.93269 
-9.8784 -0.00762286 -0.449298 
-0.00762286 -9.88608 0.145539 
-0.449298 0.145539 -9.98961 
-9.87799 -0.000607479 -0.432658 
-0.000607479 -9.88846 0.133902 
-0.432658 0.133902 -9.98765 
-9.90517 -0.00797491 -0.428282 
-0.00797491 -9.88594 0.188068 
-0.428282 0.188068 -9.96299 
-9.72084 -0.0512129 0.442654 
-0.0512129 -9.39686 0.0215585 
0.442654 0.0215585 -9.81917 
-9.69852 -0.0357692 0.434858 
-0.0357692 -9.56238 -0.136391 
0.434858 -0.136391 -9.67597 
-9.64777 -0.149924 0.40416 
-0.149924 -9.63399 -0.0974099 
0.40416 -0.0974099 -9.6551 
-9.8206 0.0848469 0.24387 
0.0848469 -9.47184 -0.180628 
0.24387 -0.180628 -9.64443 
-8.01022 -0.678834 -1.10912 
-0.678834 -8.90333 0.590716 
-1.10912 0.590716 -11.1681 
-8.10113 -0.393128 -0.665016 
-0.393128 -8.79005 0.429946 
-0.665016 0.429946 -11.1905 
-9.51602 -0.304293 -0.720615 
-0.304293 -8.91688 0.621098 
-0.720615 0.621098 -9.64874 
-8.99471 -0.100078 -0.903955 
-0.100078 -9.14438 0.200202 
-0.903955 0.200202 -9.94255 
-9.587 -0.060835 0.0643428 
-0.060835 -9.51792 0.0339416 
0.0643428 0.0339416 -9.36374 
-9.50424 -0.057618 0.0211721 
-0.057618 -9.50838 -0.0865113 
0.0211721 -0.0865113 -9.45604 
-9.43958 -0.00905594 -0.0177351 
-0.00905594 -9.47832 -0.072369 
-0.0177351 -0.072369 -9.55076 
-9.33728 -0.1613 -0.0378284 
-0.1613 -9.61474 -0.231158 
-0.0378284 -0.231158 -9.51663 
-9.73969 -0.00542219 -0.143804 
-0.00542219 -9.71605 0.117122 
-0.143804 0.117122 -9.87937 
-9.72591 -0.0508417 0.130214 
-0.0508417 -9.80371 -0.0506491 
0.130214 -0.0506491 -9.80549 
-9.77188 0.00855187 -0.138388 
0.00855187 -9.65987 0.0367341 
-0.138388 0.0367341 -9.90335 
-9.66282 -0.0578731 -0.0234841 
-0.0578731 -9.61718 0.0136977 
-0.0234841 0.0136977 -10.0551 
-9.85795 -0.213365 0.0982331 
-0.213365 -9.51529 -0.0971616 
0.0982331 -0.0971616 -10.0677 
-9.77062 -0.520857 0.152297 
-0.520857 -9.10632 -0.135049 
0.152297 -0.135049 -10.564 
-9.4668 0.0408002 0.0261334 
0.0408002 -9.69336 -0.187242 
0.0261334 -0.187242 -10.2808 
-9.55771 0.442471 -0.177813 
0.442471 -9.74907 0.574117 
-0.177813 0.574117 -10.1341 
-9.38345 -0.0151088 0.50817 
-0.0151088 -9.22523 -0.513706 
0.50817 -0.513706 -9.1985 
-9.27214 0.0907369 0.528593 
0.0907369 -9.31008 -0.414897 
0.528593 -0.414897 -9.22495 
-8.75962 0.0907413 0.197952 
0.0907413 -9.38376 0.00278987 
0.197952 0.00278987 -9.66378 
-9.50818 -0.109187 0.421596 
-0.109187 -9.89884 -0.564299 
0.421596 -0.564299 -8.40014 
-7.52108 -0.0350179 0.772689 
-0.0350179 -8.19077 -0.755622 
0.772689 -0.755622 -7.90718 
-9.26227 0.0287333 1.54853 
0.0287333 -8.91877 0.0734185 
1.54853 0.0734185 -5.438 
-9.44962 0.0031347 1.08568 
0.0031347 -9.36374 -0.237179 
1.08568 -0.237179 -4.80568 
-9.36132 -0.173601 1.57569 
-0.173601 -8.70483 0.139316 
1.57569 0.139316 -5.55288 
-9.66974 0.19385 -0.208238 
0.19385 -9.3774 -0.508279 
-0.208238 -0.508279 -10.1456 
-9.55791 0.121155 -0.170432 
0.121155 -9.33801 -0.402701 
-0.170432 -0.402701 -10.2968 
-9.56478 0.115887 -0.146493 
0.115887 -9.4311 -0.372863 
-0.146493 -0.372863 -10.1969 
-9.50368 0.420835 -0.304525 
0.420835 -9.35344 -0.233646 
-0.304525 -0.233646 -10.3356 
-8.34735 -0.119593 0.939695 
-0.119593 -9.57434 0.972176 
0.939695 0.972176 -8.09266 
-9.1226 0.224493 0.782606 
0.224493 -9.25827 0.989139 
0.782606 0.989139 -7.63349 
-8.78397 -0.161966 0.891093 
-0.161966 -8.74895 1.19309 
0.891093 1.19309 -8.48144 
-8.80318 0.372368 0.0105822 
0.372368 -8.40712 0.708168 
0.0105822 0.708168 -8.80405 
-9.74147 -1.65347 -2.07463 
-1.65347 -7.05961 5.28042 
-2.07463 5.28042 -7.42165 
-8.47033 -0.641102 -1.47072 
-0.641102 -9.50317 1.91371 
-1.47072 1.91371 -6.24922 
-6.49452 -0.438986 -1.19916 
-0.438986 -7.57207 -0.258503 
-1.19916 -0.258503 -10.1561 
-8.36747 0.110804 -0.776526 
0.110804 -9.14047 2.23978 
-0.776526 2.23978 -6.71479 
-9.52249 -0.0371866 -0.153249 
-0.0371866 -9.65958 -0.00325025 
-0.153249 -0.00325025 -9.79041 
-9.60342 -0.0849241 -0.1593 
-0.0849241 -9.6119 0.0500588 
-0.1593 0.0500588 -9.75717 
-9.59747 -0.0663828 -0.118545 
-0.0663828 -9.63357 -0.0119628 
-0.118545 -0.0119628 -9.74145 
-9.57978 -0.05411 -0.162976 
-0.05411 -9.62049 -0.0128404 
-0.162976 -0.0128404 -9.77222 
-9.51141 -0.123536 0.130325 
-0.123536 -9.40573 0.243198 
0.130325 0.243198 -9.88192 
-9.60885 -0.0584951 0.191426 
-0.0584951 -9.44255 0.14601 
0.191426 0.14601 -9.74767 
-9.53758 0.0345177 0.12422 
0.0345177 -9.45211 0.132997 
0.12422 0.132997 -9.80937 
-9.64988 0.0891863 0.0777951 
0.0891863 -9.41107 0.280048 
0.0777951 0.280048 -9.73812 
-9.81959 -2.08314 -1.05835 
-2.08314 -9.08891 1.98338 
-1.05835 1.98338 -10.8001 
-8.24364 -0.792889 -0.128844 
-0.792889 -9.71995 -0.183472 
-0.128844 -0.183472 -11.745 
-8.64067 -0.623924 -1.10065 
-0.623924 -10.9653 1.13782 
-1.10065 1.13782 -10.1025 
-9.07362 -1.14025 -1.72493 
-1.14025 -10.5296 0.780268 
-1.72493 0.780268 -10.1054 
-8.56518 0.169319 -1.59517 
0.169319 -7.87929 -0.101138 
-1.59517 -0.101138 -1.42937 
-6.97197 0.361501 -2.56991 
0.361501 -9.4404 -2.48214 
-2.56991 -2.48214 -1.46146 
-7.98855 1.72958 -1.30319 
1.72958 -7.80095 -1.39565 
-1.30319 -1.39565 -2.08434 
-7.54302 -0.877871 -2.65557 
-0.877871 -7.27256 -0.0586211 
-2.65557 -0.0586211 -3.05825 
-8.32994 0.332634 -0.0957633 
0.332634 -8.58957 1.19845 
-0.0957633 1.19845 -8.75322 
-8.67433 -1.13643 -0.197489 
-1.13643 -10.701 0.854478 
-0.197489 0.854478 -6.29739 
-8.57303 1.60081 -0.26818 
1.60081 -6.26021 0.871478 
-0.26818 0.871478 -10.8395 
-8.97946 0.343981 2.38087 
0.343981 -7.6247 2.65695 
2.38087 2.65695 -9.06857 
-8.35257 0.403761 -0.20323 
0.403761 -10.0201 0.232267 
-0.20323 0.232267 -10.3055 
-9.154 0.0166824 -0.522733 
0.0166824 -9.68908 0.879606 
-0.522733 0.879606 -9.83513 
-8.73947 0.0396735 -0.876934 
0.0396735 -9.583 -0.241506 
-0.876934 -0.241506 -10.3557 
-9.52317 -0.425595 -0.210658 
-0.425595 -9.37489 0.358268 
-0.210658 0.358268 -9.78014 
-9.68126 0.115548 -0.0290985 
0.115548 -8.73454 -0.142484 
-0.0290985 -0.142484 -9.50203 
-9.81745 0.138066 -0.23658 
0.138066 -9.02958 -0.364592 
-0.23658 -0.364592 -9.07082 
-9.8711 0.0944237 -0.13177 
0.0944237 -8.79848 -0.201711 
-0.13177 -0.201711 -9.24825 
-9.83825 0.151433 -0.088102 
0.151433 -8.96459 -0.258354 
-0.088102 -0.258354 -9.11499 
-6.84422 -0.46373 0.265911 
-0.46373 -8.30188 0.836135 
0.265911 0.836135 -1.03649 
-5.46401 2.03495 -2.15013 
2.03495 -7.94225 1.97984 
-2.15013 1.97984 -2.77633 
-7.6951 -1.86744 0.547105 
-1.86744 -6.52434 1.79676 
0.547105 1.79676 -1.96314 
-6.19061 -0.842797 -1.80365 
-0.842797 -8.79746 1.75757 
-1.80365 1.75757 -1.19451 
-9.9504 -0.53351 0.10519 
-0.53351 -8.92041 0.145573 
0.10519 0.145573 -9.84464 
-9.75987 -0.249709 -0.12635 
-0.249709 -9.25898 1.03046 
-0.12635 1.03046 -9.6966 
-8.49466 -0.0945414 -0.0105217 
-0.0945414 -9.59057 -0.149093 
-0.0105217 -0.149093 -10.6302 
-9.17926 -0.32689 -0.700152 
-0.32689 -8.88191 -0.415698 
-0.700152 -0.415698 -10.6543 
-9.42249 -0.0671141 0.195213 
-0.0671141 -9.24593 0.463665 
0.195213 0.463665 -9.0782 
-9.00309 0.011229 0.276882 
0.011229 -9.82955 0.197717 
0.276882 0.197717 -8.91398 
-9.28226 -0.0320537 0.251197 
-0.0320537 -9.33393 0.15475 
0.251197 0.15475 -9.13043 
-9.22728 0.0221746 0.100052 
0.0221746 -9.43605 0.288724 
0.100052 0.288724 -9.08329 
-9.44249 0.0141776 0.0575357 
0.0141776 -9.40086 0.0689754 
0.0575357 0.0689754 -9.66404 
-9.50921 -0.0303818 0.030174 
-0.0303818 -9.36926 0.026896 
0.030174 0.026896 -9.62893 
-9.50123 -0.0136054 0.0440937 
-0.0136054 -9.27473 0.124455 
0.0440937 0.124455 -9.73143 
-9.32045 -0.128691 0.0668332 
-0.128691 -9.59247 0.274781 
0.0668332 0.274781 -9.59447 
-7.98359 -0.401922 0.160224 
-0.401922 -7.22633 0.596387 
0.160224 0.596387 -5.57928 
-9.02305 -0.626747 -0.695195 
-0.626747 -7.06165 0.0954205 
-0.695195 0.0954205 -4.70451 
-8.89063 0.243628 -1.41057 
0.243628 -8.97542 0.689072 
-1.41057 0.689072 -2.92315 
-9.07881 -0.36161 -0.0941076 
-0.36161 -8.25625 0.206304 
-0.0941076 0.206304 -3.45415 
-9.39166 0.132941 -0.113542 
0.132941 -9.3366 -0.417118 
-0.113542 -0.417118 -9.50462 
-9.31861 -0.094138 0.0491679 
-0.094138 -9.41138 -0.119475 
0.0491679 -0.119475 -9.50288 
-9.18962 -0.0145946 -0.189501 
-0.0145946 -9.35384 -0.402054 
-0.189501 -0.402054 -9.68941 
-9.43566 0.173686 -0.235151 
0.173686 -9.96292 -0.386571 
-0.235151 -0.386571 -8.83429 
-8.62938 -0.07865 0.34695 
-0.07865 -9.46567 0.276762 
0.34695 0.276762 -8.98828 
-8.99083 -0.239312 0.211431 
-0.239312 -9.43433 0.155217 
0.211431 0.155217 -8.65816 
-8.8812 -0.211808 0.475102 
-0.211808 -9.61324 0.0358642 
0.475102 0.0358642 -8.58889 
-8.9602 -0.100573 0.276112 
-0.100573 -9.38279 0.171962 
0.276112 0.171962 -8.74034 
-9.22519 0.220315 0.371799 
0.220315 -9.04759 0.548335 
0.371799 0.548335 -6.90689 
-8.771 0.0931689 0.158316 
0.0931689 -9.20725 -0.20691 
0.158316 -0.20691 -7.20143 
-9.33801 -0.0827729 0.17184 
-0.0827729 -8.46947 0.40306 
0.17184 0.40306 -7.3722 
-9.5943 0.0272572 0.100661 
0.0272572 -8.68399 0.259913 
0.100661 0.259913 -6.90139 
-9.45377 0.125104 0.682101 
0.125104 -8.81154 -0.460397 
0.682101 -0.460397 -9.61737 
-9.60146 -0.00351821 0.183761 
-0.00351821 -9.62797 -0.811019 
0.183761 -0.811019 -8.65326 
-9.23596 -0.182194 0.329832 
-0.182194 -9.68007 -0.373685 
0.329832 -0.373685 -8.96666 
-9.29471 -0.0669962 0.382226 
-0.0669962 -9.48484 -0.553251 
0.382226 -0.553251 -9.10314 
-9.3786 0.037982 0.0699413 
0.037982 -9.46302 -0.0715344 
0.0699413 -0.0715344 -9.77562 
-9.51672 -0.110834 0.0736786 
-0.110834 -9.63568 -0.300435 
0.0736786 -0.300435 -9.46484 
-9.63167 0.0747001 0.0792156 
0.0747001 -9.32783 -0.289507 
0.0792156 -0.289507 -9.65774 
-9.4176 0.0594021 0.122775 
0.0594021 -9.46125 -0.272444 
0.122775 -0.272444 -9.73839 
-8.99743 -0.000996757 -0.414506 
-0.000996757 -9.66731 -0.0334442 
-0.414506 -0.0334442 -10.0219 
-9.29328 -0.286126 -0.421873 
-0.286126 -9.46507 0.0882565 
-0.421873 0.0882565 -9.92826 
-9.26909 0.0452004 -0.393798 
0.0452004 -9.53487 -0.0203742 
-0.393798 -0.0203742 -9.88264 
-9.25484 -0.210252 -0.282598 
-0.210252 -9.52311 0.0827781 
-0.282598 0.0827781 -9.90865 
-9.67112 -0.0751399 0.374764 
-0.0751399 -9.66369 -0.0878785 
0.374764 -0.0878785 -9.79682 
-9.8024 -0.00258727 0.433689 
-0.00258727 -9.51807 -0.238317 
0.433689 -0.238317 -9.81116 
-9.62123 -0.0953935 0.34295 
-0.0953935 -9.68227 -0.167319 
0.34295 -0.167319 -9.82814 
-9.76121 -0.0409639 0.348047 
-0.0409639 -9.67463 -0.19668 
0.348047 -0.19668 -9.69579 
-8.79405 0.0714804 -0.205709 
0.0714804 -8.84242 1.11421 
-0.205709 1.11421 -8.50268 
-9.46625 0.0175418 -0.233856 
0.0175418 -8.81025 1.1452 
-0.233856 1.1452 -7.86265 
-9.27592 -0.265401 -0.366732 
-0.265401 -8.6523 1.35293 
-0.366732 1.35293 -8.21093 
-8.69474 0.00107583 0.00527178 
0.00107583 -8.62673 0.882393 
0.00527178 0.882393 -8.81768 
-9.46652 0.249173 -0.333827 
0.249173 -8.98632 0.174683 
-0.333827 0.174683 -9.33976 
-9.44223 0.21693 -0.404497 
0.21693 -8.94317 0.153721 
-0.404497 0.153721 -9.40719 
-9.49461 0.238432 -0.289167 
0.238432 -8.92008 0.10879 
-0.289167 0.10879 -9.37791 
-9.31942 0.295658 -0.341586 
0.295658 -8.90508 0.172564 
-0.341586 0.172564 -9.5681 
-9.83259 -0.0865823 -0.0608174 
-0.0865823 -9.79297 0.43356 
-0.0608174 0.43356 -9.96717 
-9.81272 0.0478602 -0.0105394 
0.0478602 -10.0167 0.469592 
-0.0105394 0.469592 -9.76329 
-9.9497 -0.0470679 -0.0197515 
-0.0470679 -9.90475 0.336891 
-0.0197515 0.336891 -9.73827 
-9.88409 0.0629421 0.104358 
0.0629421 -9.95454 0.470348 
0.104358 0.470348 -9.7541 
-9.72768 0.0344693 -0.197967 
0.0344693 -9.64176 -0.638004 
-0.197967 -0.638004 -9.60595 
-9.60184 -0.0929832 -0.0753576 
-0.0929832 -10.0344 -0.649855 
-0.0753576 -0.649855 -9.33917 
-9.63194 0.00288566 -0.16033 
0.00288566 -9.54857 -0.723096 
-0.16033 -0.723096 -9.79489 
-9.71502 0.0301429 -0.144456 
0.0301429 -9.58838 -0.416457 
-0.144456 -0.416457 -9.67199 
-9.69004 0.0959167 0.409089 
0.0959167 -9.58634 -0.0796917 
0.409089 -0.0796917 -9.59279 
-9.62902 0.0633858 0.425332 
0.0633858 -9.57293 -0.0230586 
0.425332 -0.0230586 -9.66723 
-9.62462 0.0549024 0.389186 
0.0549024 -9.71119 -0.00340905 
0.389186 -0.00340905 -9.53336 
-9.68052 0.070481 0.354564 
0.070481 -9.54657 -0.0257009 
0.354564 -0.0257009 -9.64208 
-9.1653 1.22179 -0.865235 
1.22179 -8.78097 0.145962 
-0.865235 0.145962 -15.8205 
-10.1467 -1.44311 0.663502 
-1.44311 -11.7457 0.194615 
0.663502 0.194615 -11.8744 
-6.35331 -0.240966 -0.100357 
-0.240966 -11.0452 0.122753 
-0.100357 0.122753 -16.3683 
-7.57902 0.0536207 1.40731 
0.0536207 -12.5667 1.54268 
1.40731 1.54268 -13.6211 
-9.43218 0.181166 0.244872 
0.181166 -9.21281 0.0849195 
0.244872 0.0849195 -9.90407 
-9.5536 0.129234 0.357366 
0.129234 -9.1379 0.1353 
0.357366 0.1353 -9.85757 
-9.47234 0.120054 0.410813 
0.120054 -9.18364 0.0181915 
0.410813 0.0181915 -9.89308 
-9.51571 0.112028 0.272655 
0.112028 -9.07975 -0.0433815 
0.272655 -0.0433815 -9.95359 
-8.95705 0.184055 0.317486 
0.184055 -8.90689 0.637424 
0.317486 0.637424 -9.33545 
-8.91834 0.0605476 0.25666 
0.0605476 -9.10057 0.62536 
0.25666 0.62536 -9.1805 
-8.76938 -0.216182 0.226309 
-0.216182 -9.28273 0.528324 
0.226309 0.528324 -9.14729 
-8.77439 0.0241215 0.482907 
0.0241215 -9.31877 0.734534 
0.482907 0.734534 -9.10624 
-9.87338 0.0297431 0.385305 
0.0297431 -9.87149 -0.032081 
0.385305 -0.032081 -9.98382 
-9.90643 -0.0179825 0.465462 
-0.0179825 -9.90255 -0.0619985 
0.465462 -0.0619985 -9.91971 
-9.90659 0.0071357 0.456615 
0.0071357 -9.86371 -0.0648983 
0.456615 -0.0648983 -9.95839 
-9.88355 -0.0112765 0.385904 
-0.0112765 -9.89944 -0.0445076 
0.385904 -0.0445076 -9.94569 
-9.67885 0.124203 0.0733775 
0.124203 -9.95121 -0.103411 
0.0733775 -0.103411 -11.6672 
-9.59668 0.340191 0.00976727 
0.340191 -10.2046 0.150739 
0.00976727 0.150739 -11.4959 
-9.95056 0.0708711 -0.0582529 
0.0708711 -10.1779 -0.0191908 
-0.0582529 -0.0191908 -11.1688 
-10.1097 0.52232 0.363138 
0.52232 -9.96736 0.695538 
0.363138 0.695538 -11.2202 
-9.69715 -0.0246615 -0.438994 
-0.0246615 -9.58945 0.0285218 
-0.438994 0.0285218 -9.6441 
-9.70424 -0.00777365 -0.424815 
-0.00777365 -9.60208 -0.0464202 
-0.424815 -0.0464202 -9.62438 
-9.66498 -0.0111275 -0.411322 
-0.0111275 -9.60658 -0.0357105 
-0.411322 -0.0357105 -9.65914 
-9.63617 0.0281052 -0.365679 
0.0281052 -9.5038 -0.013024 
-0.365679 -0.013024 -9.79073 
-9.85513 0.0353789 -0.102707 
0.0353789 -9.78708 0.106124 
-0.102707 0.106124 -9.88679 
-9.86692 0.0197765 -0.03286 
0.0197765 -9.78085 0.074436 
-0.03286 0.074436 -9.88123 
-9.85199 0.0101541 -0.0436178 
0.0101541 -9.82222 0.0474534 
-0.0436178 0.0474534 -9.85478 
-9.88887 0.0145472 -0.0512178 
0.0145472 -9.81937 0.0384787 
-0.0512178 0.0384787 -9.82075 
-8.82539 0.05905 0.046207 
0.05905 -8.82213 -0.952338 
0.046207 -0.952338 -8.78634 
-8.58579 -0.00563173 -0.203381 
-0.00563173 -8.84687 -0.374423 
-0.203381 -0.374423 -9.00121 
-8.78858 0.172635 -0.31527 
0.172635 -9.42509 -1.02781 
-0.31527 -1.02781 -8.2202 
-8.79682 -0.0267682 -0.0330863 
-0.0267682 -9.04695 -0.888218 
-0.0330863 -0.888218 -8.59009 
-9.87555 0.00030331 -0.213301 
0.00030331 -9.8291 0.0718052 
-0.213301 0.0718052 -10.0876 
-9.94034 0.00420451 -0.201952 
0.00420451 -9.90983 0.0697122 
-0.201952 0.0697122 -9.94206 
-9.93269 0.00905457 -0.198954 
0.00905457 -9.9406 0.0529752 
-0.198954 0.0529752 -9.91894 
-9.95697 0.0179955 -0.200812 
0.0179955 -9.9297 0.0994053 
-0.200812 0.0994053 -9.90557 
-9.85818 0.0436381 0.0491194 
0.0436381 -9.80411 -0.0327615 
0.0491194 -0.0327615 -9.94742 
-9.86762 -0.0145692 0.0320092 
-0.0145692 -9.83791 -0.0114919 
0.0320092 -0.0114919 -9.90418 
-9.87796 -0.0360208 0.0477786 
-0.0360208 -9.82638 -0.0108345 
0.0477786 -0.0108345 -9.90537 
-9.89348 0.0395051 0.0642476 
0.0395051 -9.83029 -0.0540243 
0.0642476 -0.0540243 -9.88594 
-9.86247 -0.00343299 0.103886 
-0.00343299 -9.83518 0.0129513 
0.103886 0.0129513 -9.97353 
-9.85813 0.0135735 0.141143 
0.0135735 -9.82527 -0.00750214 
0.141143 -0.00750214 -9.98778 
-9.86632 -0.000329326 0.0869356 
-0.000329326 -9.85896 0.0333898 
0.0869356 0.0333898 -9.94591 
-9.86918 -0.0130071 0.124699 
-0.0130071 -9.8463 0.0138417 
0.124699 0.0138417 -9.95571 
-9.78019 0.0139784 -0.406719 
0.0139784 -9.79397 0.114659 
-0.406719 0.114659 -9.81644 
-9.7867 -0.00825103 -0.409875 
-0.00825103 -9.75661 0.141409 
-0.409875 0.141409 -9.84729 
-9.78356 0.00918797 -0.398032 
0.00918797 -9.73017 0.148412 
-0.398032 0.148412 -9.87686 
-9.78545 0.0192181 -0.430063 
0.0192181 -9.7522 0.134137 
-0.430063 0.134137 -9.85293 
-9.67218 0.0191596 -0.45883 
0.0191596 -9.7268 0.207633 
-0.45883 0.207633 -9.66876 
-9.60573 -0.0532735 -0.460476 
-0.0532735 -9.67598 0.211138 
-0.460476 0.211138 -9.78602 
-9.57808 -0.0199444 -0.475742 
-0.0199444 -9.69293 0.179361 
-0.475742 0.179361 -9.79672 
-9.60439 0.0587003 -0.34237 
0.0587003 -9.66066 0.118941 
-0.34237 0.118941 -9.80269 
-9.46652 0.00765134 0.381317 
0.00765134 -9.52256 0.484623 
0.381317 0.484623 -9.55759 
-9.47144 0.0127009 0.15892 
0.0127009 -9.64461 0.560242 
0.15892 0.560242 -9.43063 
-9.52662 -0.0896185 0.188241 
-0.0896185 -9.63672 0.660758 
0.188241 0.660758 -9.38334 
-9.42754 -0.129394 0.284552 
-0.129394 -9.6467 0.45506 
0.284552 0.45506 -9.47243 
-9.46579 -0.0330364 -0.546935 
-0.0330364 -9.73495 -0.307472 
-0.546935 -0.307472 -9.35816 
-9.51715 -0.0548869 -0.49285 
-0.0548869 -9.65901 -0.22478 
-0.49285 -0.22478 -9.38275 
-9.48979 0.081225 -0.52485 
0.081225 -9.46093 -0.266991 
-0.52485 -0.266991 -9.60818 
-9.59425 -0.121227 -0.545022 
-0.121227 -9.66869 0.000521048 
-0.545022 0.000521048 -9.29598 
-9.84764 0.196674 1.16137 
0.196674 -9.40087 1.42856 
1.16137 1.42856 -6.76211 
-9.92657 0.340317 -0.497413 
0.340317 -7.92778 0.766643 
-0.497413 0.766643 -8.15626 
-8.91856 -0.33216 0.285114 
-0.33216 -7.98946 2.55296 
0.285114 2.55296 -9.10259 
-8.93532 0.0991611 0.290595 
0.0991611 -9.49532 1.56294 
0.290595 1.56294 -7.57998 
-9.75307 0.0455279 -0.00664556 
0.0455279 -9.79092 0.00928624 
-0.00664556 0.00928624 -9.80586 
-9.80056 0.0482698 -0.0017966 
0.0482698 -9.79871 0.0712721 
-0.0017966 0.0712721 -9.75058 
-9.83483 0.0479219 -0.0197256 
0.0479219 -9.81044 0.0299081 
-0.0197256 0.0299081 -9.70459 
-9.78387 0.038582 -0.0322527 
0.038582 -9.76255 0.0152121 
-0.0322527 0.0152121 -9.80343 
-10.4908 3.90353 -2.84059 
3.90353 -6.27067 2.45879 
-2.84059 2.45879 1.51953 
-7.14261 -2.24421 -0.371843 
-2.24421 -6.78799 -2.04428 
-0.371843 -2.04428 -1.31138 
-3.08536 0.0992038 -1.86023 
0.0992038 -7.35067 -1.56076 
-1.86023 -1.56076 -4.80595 
-3.11951 4.40544 -2.07913 
4.40544 -3.52635 -0.0113888 
-2.07913 -0.0113888 -8.59612 
-3.80531 -0.278133 -0.950273 
-0.278133 -2.71526 -0.0201182 
-0.950273 -0.0201182 -1.20053 
-5.63762 -0.393402 0.41852 
-0.393402 -4.46563 0.824518 
0.41852 0.824518 2.38215 
-3.72077 0.529716 -0.10972 
0.529716 -4.58058 0.409127 
-0.10972 0.409127 0.580247 
-3.84387 -0.988437 -0.0566945 
-0.988437 -3.34371 -0.562849 
-0.0566945 -0.562849 -0.533517 
-9.24472 0.133722 0.0522193 
0.133722 -9.18192 -0.102405 
0.0522193 -0.102405 -10.6435 
-9.50135 0.169426 -0.0898715 
0.169426 -9.17332 -0.0798372 
-0.0898715 -0.0798372 -10.3954 
-9.42946 0.0708022 0.0801397 
0.0708022 -9.15436 -0.141832 
0.0801397 -0.141832 -10.4863 
-9.69701 -0.127107 0.357381 
-0.127107 -9.01065 0.0271857 
0.357381 0.0271857 -10.3625 
-9.85672 0.0278589 0.00437994 
0.0278589 -9.84488 0.0247982 
0.00437994 0.0247982 -9.92318 
-9.88793 -0.012284 -0.0207559 
-0.012284 -9.851 0.0235369 
-0.0207559 0.0235369 -9.88585 
-9.8605 0.00912835 0.0178984 
0.00912835 -9.82102 0.0150347 
0.0178984 0.0150347 -9.94327 
-9.87053 0.0115425 0.00574192 
0.0115425 -9.84872 0.0262526 
0.00574192 0.0262526 -9.90554 
-6.86095 0.373493 0.634641 
0.373493 -8.89371 0.897664 
0.634641 0.897664 -11.6532 
-8.17855 -0.0989344 1.64238 
-0.0989344 -8.82571 0.932969 
1.64238 0.932969 -10.4036 
-8.0164 0.757949 1.26987 
0.757949 -9.38709 -1.55007 
1.26987 -1.55007 -10.0043 
-8.55688 0.694671 2.33303 
0.694671 -9.39557 0.360989 
2.33303 0.360989 -9.45538 
-8.4827 -0.586259 -0.137776 
-0.586259 -9.33815 0.0589494 
-0.137776 0.0589494 -9.67175 
-8.80084 0.100641 -0.624779 
0.100641 -9.25839 0.531564 
-0.624779 0.531564 -9.43338 
-8.83071 -0.532979 -0.297405 
-0.532979 -9.43658 0.693457 
-0.297405 0.693457 -9.22532 
-8.39242 -0.489139 -0.264899 
-0.489139 -9.24921 0.358092 
-0.264899 0.358092 -9.85098 
-6.10856 0.0799172 0.59263 
0.0799172 -6.96079 0.741969 
0.59263 0.741969 -0.826487 
-6.77738 -0.696098 -0.650309 
-0.696098 -5.21296 -0.27883 
-0.650309 -0.27883 -1.90548 
-4.63908 0.0544024 0.0610121 
0.0544024 -7.60608 0.411766 
0.0610121 0.411766 -1.65067 
-5.88736 0.5143 -0.456582 
0.5143 -6.82641 0.21458 
-0.456582 0.21458 -1.18206 
-8.09649 0.740218 0.076731 
0.740218 -9.59585 1.32559 
0.076731 1.32559 -12.5776 
-8.88924 0.455502 0.307214 
0.455502 -9.98117 1.07763 
0.307214 1.07763 -11.3995 
-10.2434 0.84451 0.095063 
0.84451 -9.9595 -0.75439 
0.095063 -0.75439 -10.067 
-9.37805 0.297481 1.64994 
0.297481 -9.61597 0.383974 
1.64994 0.383974 -11.2759 
-9.68171 -0.0694834 0.211094 
-0.0694834 -9.90477 0.14109 
0.211094 0.14109 -9.4911 
-9.74337 -0.0228105 0.233022 
-0.0228105 -9.67451 0.166937 
0.233022 0.166937 -9.6597 
-9.70963 0.00680364 0.246389 
0.00680364 -9.72177 0.274796 
0.246389 0.274796 -9.64618 
-9.71187 -0.0169823 0.198855 
-0.0169823 -9.7719 0.201778 
0.198855 0.201778 -9.59382 
-9.90297 0.00871698 -0.0948734 
0.00871698 -9.87174 -0.437775 
-0.0948734 -0.437775 -10.0616 
-9.91522 -0.0112867 -0.0494197 
-0.0112867 -9.92955 -0.445357 
-0.0494197 -0.445357 -9.99157 
-9.98049 -0.0282953 -0.07217 
-0.0282953 -10.0415 -0.506037 
-0.07217 -0.506037 -9.81432 
-9.92857 0.0152842 -0.061714 
0.0152842 -10.0758 -0.364291 
-0.061714 -0.364291 -9.83197 
-8.61776 -0.136563 -0.0714914 
-0.136563 -9.23916 -0.578568 
-0.0714914 -0.578568 -8.35789 
-8.39445 -0.241347 0.362362 
-0.241347 -8.93958 -0.78283 
0.362362 -0.78283 -8.88078 
-8.61724 -0.564665 -0.190682 
-0.564665 -7.59387 -0.842463 
-0.190682 -0.842463 -10.0037 
-8.54502 -0.160888 0.438017 
-0.160888 -8.80303 -1.17859 
0.438017 -1.17859 -8.86676 
-7.67077 -0.0675678 -0.244074 
-0.0675678 -9.09036 -0.149305 
-0.244074 -0.149305 -8.68474 
-7.60253 0.0629193 -0.636308 
0.0629193 -9.42324 -0.260385 
-0.636308 -0.260385 -8.42009 
-7.82346 -0.149642 -0.247816 
-0.149642 -8.98985 -0.412437 
-0.247816 -0.412437 -8.63256 
-8.00798 0.0335313 -0.125385 
0.0335313 -8.8553 -0.0368476 
-0.125385 -0.0368476 -8.58259 
-9.12541 -0.147766 0.0445022 
-0.147766 -9.85577 0.107977 
0.0445022 0.107977 -10.0356 
-9.6717 0.0397095 -0.0828257 
0.0397095 -9.66667 0.0506683 
-0.0828257 0.0506683 -9.67837 
-9.88516 0.24093 -0.0498664 
0.24093 -9.55609 0.0592611 
-0.0498664 0.0592611 -9.57549 
-9.56132 -0.0523786 -0.38001 
-0.0523786 -9.55447 0.061343 
-0.38001 0.061343 -9.90096 
-9.77663 0.0398073 -0.246236 
0.0398073 -9.75518 0.143797 
-0.246236 0.143797 -9.76029 
-9.81823 0.0521729 -0.189207 
0.0521729 -9.78861 0.152742 
-0.189207 0.152742 -9.68527 
-9.88156 -0.010183 -0.341283 
-0.010183 -9.83789 0.209761 
-0.341283 0.209761 -9.57266 
-9.82714 0.0693624 -0.196443 
0.0693624 -9.768 0.131129 
-0.196443 0.131129 -9.69696 
-9.40192 -0.240867 -0.318711 
-0.240867 -8.63611 0.90897 
-0.318711 0.90897 -10.2576 
-9.10149 -0.186273 0.0177958 
-0.186273 -9.2527 0.319746 
0.0177958 0.319746 -9.94147 
-9.46237 -0.49183 -0.306971 
-0.49183 -8.82259 1.20906 
-0.306971 1.20906 -10.0107 
-8.95334 -0.337595 0.164572 
-0.337595 -8.42575 0.748159 
0.164572 0.748159 -10.9166 
-10.1138 -0.394893 1.62126 
-0.394893 -8.2846 0.410406 
1.62126 0.410406 -6.609 
-9.72922 -0.325134 0.943139 
-0.325134 -8.71862 0.167679 
0.943139 0.167679 -6.55959 
-7.76735 0.109435 1.04199 
0.109435 -9.46136 -0.0428694 
1.04199 -0.0428694 -7.77873 
-9.80504 -0.198525 0.839963 
-0.198525 -8.85112 0.498491 
0.839963 0.498491 -6.35127 
-9.09861 -0.244463 0.0152068 
-0.244463 -9.14673 0.340419 
0.0152068 0.340419 -9.80883 
-9.35438 0.0838903 0.0368746 
0.0838903 -8.92188 0.881752 
0.0368746 0.881752 -9.7779 
-9.54395 -0.750211 -0.174973 
-0.750211 -9.06909 1.1271 
-0.174973 1.1271 -9.44112 
-9.73238 0.470964 -0.115092 
0.470964 -9.03499 0.465727 
-0.115092 0.465727 -9.28679 
-9.58972 0.0681349 0.171871 
0.0681349 -9.35405 -0.0445605 
0.171871 -0.0445605 -9.99824 
-9.63901 0.0488727 0.173816 
0.0488727 -9.37772 -0.0807787 
0.173816 -0.0807787 -9.92527 
-9.6035 0.0491261 0.139076 
0.0491261 -9.39959 -0.0626359 
0.139076 -0.0626359 -9.93892 
-9.69859 0.0983916 0.14378 
0.0983916 -9.28564 -0.209868 
0.14378 -0.209868 -9.95778 
-12.5454 -0.925485 -0.513356 
-0.925485 -12.5365 -0.392337 
-0.513356 -0.392337 -9.5062 
-10.846 -0.395665 0.69367 
-0.395665 -9.684 -0.358841 
0.69367 -0.358841 -14.0581 
-12.0298 -0.0115044 0.127993 
-0.0115044 -9.58399 -1.06671 
0.127993 -1.06671 -12.9743 
-10.6275 -0.179388 -1.43861 
-0.179388 -10.3828 -1.57134 
-1.43861 -1.57134 -13.5779 
-8.76663 0.138875 -0.000241428 
0.138875 -8.88301 -0.669446 
-0.000241428 -0.669446 -9.05828 
-8.75575 0.1476 -0.0476635 
0.1476 -8.94102 -0.791576 
-0.0476635 -0.791576 -9.01114 
-8.61382 0.139772 -0.114436 
0.139772 -8.95732 -0.724778 
-0.114436 -0.724778 -9.13678 
-8.77398 -0.0117682 -0.0660368 
-0.0117682 -8.92245 -0.91059 
-0.0660368 -0.91059 -9.01149 
-9.76642 0.093236 0.165453 
0.093236 -9.32757 -0.237619 
0.165453 -0.237619 -10.1067 
-9.79774 0.163804 0.157145 
0.163804 -9.27779 -0.2077 
0.157145 -0.2077 -10.1251 
-9.70578 0.116427 0.170561 
0.116427 -9.34334 -0.169063 
0.170561 -0.169063 -10.1515 
-9.68232 0.109822 0.182981 
0.109822 -9.42085 -0.173748 
0.182981 -0.173748 -10.0975 
-9.45222 0.0531264 0.150858 
0.0531264 -7.73031 -1.11754 
0.150858 -1.11754 -10.5522 
-9.07247 1.06372 -0.580834 
1.06372 -8.6201 -2.13895 
-0.580834 -2.13895 -10.0421 
-8.5125 0.13214 -1.70818 
0.13214 -10.2103 2.01523 
-1.70818 2.01523 -9.01184 
-10.1226 0.602021 2.84372 
0.602021 -6.081 -0.656371 
2.84372 -0.656371 -11.5311 
-9.81652 0.07208 0.0928238 
0.07208 -9.63136 -0.0191264 
0.0928238 -0.0191264 -9.99629 
-9.80453 0.0265793 0.118344 
0.0265793 -9.68873 -0.0109725 
0.118344 -0.0109725 -9.95091 
-9.75654 0.0211197 0.0706914 
0.0211197 -9.71279 -0.0619286 
0.0706914 -0.0619286 -9.97484 
-9.84229 0.0180233 0.156025 
0.0180233 -9.73913 0.0868146 
0.156025 0.0868146 -9.86275 
-10.1016 -0.13583 0.145135 
-0.13583 -10.0701 -0.0783811 
0.145135 -0.0783811 -9.70068 
-9.74843 -0.0485431 0.0530095 
-0.0485431 -9.78183 -0.0480816 
0.0530095 -0.0480816 -10.3421 
-9.73534 0.0619181 -0.0915931 
0.0619181 -9.65185 -0.0373343 
-0.0915931 -0.0373343 -10.4852 
-9.57777 0.0120717 0.329857 
0.0120717 -10.0121 0.213689 
0.329857 0.213689 -10.2825 
-9.82018 -0.0129267 0.142915 
-0.0129267 -9.78684 0.01596 
0.142915 0.01596 -9.93323 
-9.8168 -0.00168682 0.180344 
-0.00168682 -9.7496 0.0402224 
0.180344 0.0402224 -9.97385 
-9.80911 0.0550546 0.171315 
0.0550546 -9.73955 -0.0449591 
0.171315 -0.0449591 -9.99159 
-9.85699 0.0331644 0.18708 
0.0331644 -9.75622 -0.04728 
0.18708 -0.04728 -9.92704 
-9.4804 -0.180878 0.131345 
-0.180878 -9.09035 0.318897 
0.131345 0.318897 -10.086 
-9.65463 0.0270114 0.135259 
0.0270114 -9.13522 0.472712 
0.135259 0.472712 -9.86693 
-9.46778 0.110518 0.153155 
0.110518 -9.38351 -0.00775441 
0.153155 -0.00775441 -9.80549 
-9.3989 0.0109051 0.0428045 
0.0109051 -9.03645 0.23993 
0.0428045 0.23993 -10.2214 
-9.91704 -0.481114 0.481051 
-0.481114 -9.1219 -0.519208 
0.481051 -0.519208 -11.243 
-9.71913 -0.598753 0.344269 
-0.598753 -9.01931 -0.791522 
0.344269 -0.791522 -11.5435 
-9.93661 -0.47299 0.59854 
-0.47299 -8.50248 -0.796492 
0.59854 -0.796492 -11.8428 
-9.60545 0.570666 0.562796 
0.570666 -9.7281 -0.832684 
0.562796 -0.832684 -10.9484 
-9.47993 -0.0136888 0.280535 
-0.0136888 -9.39068 -0.172757 
0.280535 -0.172757 -8.96545 
-9.44451 0.101018 0.314266 
0.101018 -9.41997 -0.303951 
0.314266 -0.303951 -8.97157 
-9.40374 0.041248 0.284803 
0.041248 -9.4844 -0.261421 
0.284803 -0.261421 -8.94793 
-9.20827 -0.028456 0.215889 
-0.028456 -9.78877 -0.365266 
0.215889 -0.365266 -8.83902 
-9.25769 -0.0158624 -0.429955 
-0.0158624 -9.53614 -0.615425 
-0.429955 -0.615425 -9.92175 
-9.62436 0.0170264 -0.33449 
0.0170264 -9.63006 -0.34712 
-0.33449 -0.34712 -9.46116 
-9.70319 -0.0296414 -0.597537 
-0.0296414 -10.0465 -0.434872 
-0.597537 -0.434872 -8.96594 
-9.64593 -0.000186168 -0.333164 
-0.000186168 -9.62825 -0.441768 
-0.333164 -0.441768 -9.4414 
-9.96277 -0.00558955 -0.015495 
-0.00558955 -9.93734 0.0508143 
-0.015495 0.0508143 -9.94588 
-9.95579 0.01001 -0.0340056 
0.01001 -9.91834 0.0456695 
-0.0340056 0.0456695 -9.97186 
-9.934 0.0227475 -0.0402555 
0.0227475 -9.90556 0.00124074 
-0.0402555 0.00124074 -10.0064 
-9.97835 0.0213703 -0.0150004 
0.0213703 -9.89806 0.0592441 
-0.0150004 0.0592441 -9.96958 
-9.43838 -0.0956522 0.292846 
-0.0956522 -9.48859 0.679644 
0.292846 0.679644 -9.45281 
-9.45318 -0.115879 0.270536 
-0.115879 -9.59145 0.563991 
0.270536 0.563991 -9.33515 
-9.41182 0.0459512 0.306433 
0.0459512 -9.46921 0.458204 
0.306433 0.458204 -9.49875 
-9.43384 -0.132869 0.19818 
-0.132869 -9.75461 0.569517 
0.19818 0.569517 -9.19132 
-9.70426 -0.0271025 -0.518643 
-0.0271025 -9.75185 0.0915827 
-0.518643 0.0915827 -9.76602 
-9.70676 0.0175749 -0.42143 
0.0175749 -9.69906 0.0424323 
-0.42143 0.0424323 -9.8163 
-9.75665 -8.8669e-05 -0.419582 
-8.8669e-05 -9.72093 0.0930304 
-0.419582 0.0930304 -9.74456 
-9.73894 0.00610617 -0.444815 
0.00610617 -9.71194 0.0552613 
-0.444815 0.0552613 -9.77125 
-9.86873 0.00714821 -0.528402 
0.00714821 -9.8889 -0.164269 
-0.528402 -0.164269 -9.91148 
-9.85635 -0.0306998 -0.482527 
-0.0306998 -9.86215 -0.124456 
-0.482527 -0.124456 -9.95061 
-9.86271 -0.030525 -0.512391 
-0.030525 -9.8805 -0.168634 
-0.512391 -0.168634 -9.92589 
-9.86725 0.00352935 -0.529531 
0.00352935 -9.90117 -0.159119 
-0.529531 -0.159119 -9.90069 
-9.46677 0.121159 0.479214 
0.121159 -9.60714 0.393438 
0.479214 0.393438 -9.33969 
-9.79605 0.0289073 0.434439 
0.0289073 -9.49507 0.484324 
0.434439 0.484324 -9.12248 
-9.5285 -0.0979855 0.528795 
-0.0979855 -9.54034 0.226812 
0.528795 0.226812 -9.34476 
-9.43811 -0.0646968 0.381414 
-0.0646968 -9.60964 0.0568008 
0.381414 0.0568008 -9.36585 
-9.37855 0.0408984 0.145358 
0.0408984 -9.45076 -0.0708642 
0.145358 -0.0708642 -9.7631 
-9.42973 0.0696202 0.205944 
0.0696202 -9.34705 -0.116725 
0.205944 -0.116725 -9.81562 
-9.41266 0.11571 0.222795 
0.11571 -9.50631 -0.111326 
0.222795 -0.111326 -9.67344 
-9.37878 0.0476918 0.189806 
0.0476918 -9.43684 -0.102222 
0.189806 -0.102222 -9.77679 
-9.74754 -0.00514145 0.447109 
-0.00514145 -9.69282 0.0227524 
0.447109 0.0227524 -9.79748 
-9.75894 -0.0410924 0.449209 
-0.0410924 -9.67667 -0.0584185 
0.449209 -0.0584185 -9.80223 
-9.70101 -0.00529819 0.447887 
-0.00529819 -9.73641 -0.0601999 
0.447887 -0.0601999 -9.80041 
-9.75295 -0.0445582 0.42898 
-0.0445582 -9.69817 -0.0596575 
0.42898 -0.0596575 -9.78671 
-9.06636 0.226371 0.816293 
0.226371 -9.10097 -0.0191551 
0.816293 -0.0191551 -9.43462 
-9.18917 0.298891 0.44159 
0.298891 -8.71035 0.286938 
0.44159 0.286938 -9.70243 
-9.23611 0.0455162 0.0776864 
0.0455162 -8.58706 0.207678 
0.0776864 0.207678 -9.77879 
-9.22179 0.464087 -0.0412446 
0.464087 -8.7104 0.859154 
-0.0412446 0.859154 -9.66977 
-9.11598 -0.00867739 -0.183357 
-0.00867739 -7.69807 -0.146845 
-0.183357 -0.146845 -9.78514 
-8.52398 0.310451 -0.197579 
0.310451 -9.13041 -0.551173 
-0.197579 -0.551173 -8.94481 
-8.10502 0.0925046 -0.245384 
0.0925046 -9.70268 -0.784743 
-0.245384 -0.784743 -8.79149 
-8.54294 0.874614 0.274251 
0.874614 -8.15139 -1.14059 
0.274251 -1.14059 -9.90487 
-10.1302 -0.122123 0.145506 
-0.122123 -10.1755 0.346837 
0.145506 0.346837 -11.2514 
-10.3748 0.027244 -0.157695 
0.027244 -11.5751 0.0103131 
-0.157695 0.0103131 -9.60732 
-10.9562 0.0538017 -0.0389058 
0.0538017 -9.79923 0.307932 
-0.0389058 0.307932 -10.8018 
-10.8722 -0.138997 -0.0594111 
-0.138997 -11.0144 -0.718846 
-0.0594111 -0.718846 -9.67061 
-8.55648 -0.182884 0.105578 
-0.182884 -9.68999 0.406115 
0.105578 0.406115 -9.56398 
-9.15827 -0.150569 -0.150145 
-0.150569 -9.37168 0.560448 
-0.150145 0.560448 -9.28051 
-8.88484 -0.19749 0.153919 
-0.19749 -9.61515 0.399416 
0.153919 0.399416 -9.31046 
-9.06565 -0.119562 0.253508 
-0.119562 -9.38222 0.472169 
0.253508 0.472169 -9.36259 
-8.71067 -0.375307 -1.23021 
-0.375307 -9.6421 0.37876 
-1.23021 0.37876 -9.15728 
-8.51751 -0.0650175 -1.1598 
-0.0650175 -9.52411 0.447093 
-1.1598 0.447093 -9.46844 
-8.76701 -0.12841 -1.18231 
-0.12841 -9.01221 0.190694 
-1.18231 0.190694 -9.73083 
-8.75011 -0.734654 -1.40087 
-0.734654 -9.32504 1.42742 
-1.40087 1.42742 -9.4349 
-8.7556 -0.113413 0.0690174 
-0.113413 -9.60008 -0.0938081 
0.0690174 -0.0938081 -10.1153 
-10.1594 -0.522482 0.333737 
-0.522482 -8.96981 -0.190462 
0.333737 -0.190462 -9.34174 
-9.4682 -0.165251 0.257894 
-0.165251 -9.50518 0.00498051 
0.257894 0.00498051 -9.49758 
-9.64367 0.3065 0.592149 
0.3065 -8.9034 -0.17628 
0.592149 -0.17628 -9.92388 
-9.39485 -0.0543666 0.0130062 
-0.0543666 -9.67067 -0.622795 
0.0130062 -0.622795 -9.29835 
-9.39814 -0.0500419 -0.00175512 
-0.0500419 -9.66519 -0.619225 
-0.00175512 -0.619225 -9.30055 
-9.43771 -0.026254 0.00708346 
-0.026254 -9.57646 -0.650691 
0.00708346 -0.650691 -9.34971 
-9.40766 -0.0505999 0.00664295 
-0.0505999 -9.68033 -0.574734 
0.00664295 -0.574734 -9.27588 
-9.73339 0.0808701 -0.227057 
0.0808701 -9.56742 -0.0159335 
-0.227057 -0.0159335 -9.53666 
-9.62546 -0.017228 -0.205709 
-0.017228 -9.67539 -0.209354 
-0.205709 -0.209354 -9.53662 
-9.72542 0.0108049 -0.196968 
0.0108049 -9.62321 -0.136184 
-0.196968 -0.136184 -9.48884 
-9.66849 0.0830998 -0.145929 
0.0830998 -9.63359 -0.0507651 
-0.145929 -0.0507651 -9.53539 
-9.86061 0.024855 0.480097 
0.024855 -9.83076 0.127636 
0.480097 0.127636 -9.84063 
-9.81429 -0.0668975 0.453226 
-0.0668975 -9.80258 0.109713 
0.453226 0.109713 -9.91513 
-9.85198 -0.0098273 0.472842 
-0.0098273 -9.84126 0.115925 
0.472842 0.115925 -9.83877 
-9.86737 -0.0252367 0.521779 
-0.0252367 -9.86597 0.13524 
0.521779 0.13524 -9.79866 
-9.5706 -0.123948 0.147926 
-0.123948 -9.04086 0.23156 
0.147926 0.23156 -10.339 
-9.17359 -0.302329 0.1587 
-0.302329 -8.98565 0.332225 
0.1587 0.332225 -10.7912 
-9.70913 0.000172438 -0.273745 
0.000172438 -8.64121 0.435252 
-0.273745 0.435252 -10.6001 
-9.54149 0.171077 0.163817 
0.171077 -8.9484 0.14653 
0.163817 0.14653 -10.4606 
-9.83568 -0.0420676 0.430768 
-0.0420676 -9.839 -0.0539944 
0.430768 -0.0539944 -9.87727 
-9.84339 -0.0235086 0.452974 
-0.0235086 -9.86024 -0.0692535 
0.452974 -0.0692535 -9.84831 
-9.83341 0.00788426 0.447625 
0.00788426 -9.78396 -0.00798425 
0.447625 -0.00798425 -9.93458 
-9.81347 -0.0195174 0.444559 
-0.0195174 -9.82298 -0.0703563 
0.444559 -0.0703563 -9.91549 
-8.40577 -0.220122 -0.164712 
-0.220122 -8.52274 1.08767 
-0.164712 1.08767 -7.65408 
-8.55515 -0.244863 -0.786198 
-0.244863 -8.22132 0.956637 
-0.786198 0.956637 -7.80612 
-8.30574 -0.377588 -0.563189 
-0.377588 -7.92484 1.26885 
-0.563189 1.26885 -8.35202 
-8.57189 -0.285853 -0.473554 
-0.285853 -7.92497 1.21335 
-0.473554 1.21335 -8.08573 
-8.83374 0.0416693 0.309656 
0.0416693 -9.31322 0.845384 
0.309656 0.845384 -8.92275 
-8.90099 -0.0635569 0.386366 
-0.0635569 -9.37274 0.655978 
0.386366 0.655978 -8.79598 
-8.86807 -0.135812 0.534909 
-0.135812 -9.36733 0.622382 
0.534909 0.622382 -8.83431 
-9.0684 0.0393878 0.360394 
0.0393878 -8.87577 0.403835 
0.360394 0.403835 -9.12555 
-9.91562 -0.00171233 -0.202829 
-0.00171233 -9.91782 0.478292 
-0.202829 0.478292 -10.051 
-10.0158 -0.00444316 -0.17045 
-0.00444316 -9.99246 0.475926 
-0.17045 0.475926 -9.87617 
-9.89051 -0.00463245 -0.197238 
-0.00463245 -9.98621 0.44915 
-0.197238 0.44915 -10.0077 
-10.0271 -0.0340908 -0.237421 
-0.0340908 -9.96256 0.459661 
-0.237421 0.459661 -9.89483 
-9.27202 0.208216 0.427746 
0.208216 -9.325 -0.808056 
0.427746 -0.808056 -7.52813 
-8.28674 0.245232 -0.455021 
0.245232 -8.46431 -1.43514 
-0.455021 -1.43514 -9.3741 
-8.05184 0.399832 -0.858178 
0.399832 -7.84206 -0.667373 
-0.858178 -0.667373 -10.2312 
-9.13457 0.515642 -0.406511 
0.515642 -8.12905 -1.60932 
-0.406511 -1.60932 -8.86152 
-9.97 0.300222 0.900243 
0.300222 -9.57508 0.194439 
0.900243 0.194439 -8.79466 
-9.4116 0.408398 1.61271 
0.408398 -9.99258 0.457915 
1.61271 0.457915 -8.93556 
-10.1518 0.00766664 0.856362 
0.00766664 -9.57695 -0.232429 
0.856362 -0.232429 -8.61101 
-9.16132 0.16632 0.0568626 
0.16632 -9.11325 0.537307 
0.0568626 0.537307 -10.0652 
-9.52257 -0.0737425 0.058895 
-0.0737425 -9.68907 -0.718738 
0.058895 -0.718738 -9.33088 
-9.43511 0.0691682 -0.1915 
0.0691682 -9.79517 -0.547323 
-0.1915 -0.547323 -9.31224 
-9.57577 0.127207 -0.353174 
0.127207 -9.4647 -0.633183 
-0.353174 -0.633183 -9.50206 
-9.58477 0.00948873 -0.0286564 
0.00948873 -9.62921 -0.581252 
-0.0286564 -0.581252 -9.32854 
-9.54563 -0.0230203 0.327445 
-0.0230203 -9.27057 -0.250224 
0.327445 -0.250224 -9.68786 
-9.61444 -0.01525 0.303606 
-0.01525 -9.1506 -0.360294 
0.303606 -0.360294 -9.73902 
-9.68372 -0.0490186 0.295676 
-0.0490186 -9.09365 -0.234166 
0.295676 -0.234166 -9.72669 
-9.59178 -0.0343997 0.558334 
-0.0343997 -9.22881 -0.199281 
0.558334 -0.199281 -9.68347 
-9.31083 0.0947696 0.467974 
0.0947696 -9.60313 -0.268305 
0.467974 -0.268305 -9.39539 
-9.36372 0.138234 0.415669 
0.138234 -9.55155 -0.290355 
0.415669 -0.290355 -9.39408 
-9.19608 -0.111303 0.596426 
-0.111303 -9.6475 -0.272462 
0.596426 -0.272462 -9.46577 
-9.14643 0.0955049 0.4595 
0.0955049 -9.58197 -0.186683 
0.4595 -0.186683 -9.58095 
-8.90047 -0.00130638 0.0841721 
-0.00130638 -9.81685 0.352584 
0.0841721 0.352584 -8.9293 
-9.11576 -0.107363 0.122234 
-0.107363 -9.27328 0.480192 
0.122234 0.480192 -9.25758 
-9.08031 -0.221788 -0.0864624 
-0.221788 -9.42097 0.600912 
-0.0864624 0.600912 -9.14535 
-9.16594 -0.141231 0.112718 
-0.141231 -9.59975 0.424255 
0.112718 0.424255 -8.88094 
-9.47707 0.177157 0.0876765 
0.177157 -8.75173 -0.292096 
0.0876765 -0.292096 -10.0741 
-9.57292 0.172767 0.061648 
0.172767 -8.68735 -0.399602 
0.061648 -0.399602 -10.0427 
-9.36926 0.0907809 0.141487 
0.0907809 -9.05996 -0.155527 
0.141487 -0.155527 -9.87372 
-9.42659 0.199122 0.0142058 
0.199122 -8.67668 -0.219694 
0.0142058 -0.219694 -10.1997 
-9.47394 -0.0834628 0.120473 
-0.0834628 -9.4326 -0.47809 
0.120473 -0.47809 -9.24521 
-9.52262 -0.136895 0.23326 
-0.136895 -9.4597 -0.412646 
0.23326 -0.412646 -9.16942 
-9.3208 0.0175073 -0.0998836 
0.0175073 -9.34602 -0.153528 
-0.0998836 -0.153528 -9.48492 
-9.70202 -0.155136 0.377354 
-0.155136 -9.81835 -0.30978 
0.377354 -0.30978 -8.63138 
-10.2016 -0.0993845 0.428666 
-0.0993845 -9.43852 -0.0814367 
0.428666 -0.0814367 -8.48694 
-9.60334 0.17194 0.436181 
0.17194 -9.3477 0.0956591 
0.436181 0.0956591 -9.17602 
-9.87992 0.0407767 0.488718 
0.0407767 -9.38425 0.144789 
0.488718 0.144789 -8.86289 
-9.77961 0.00471597 0.534969 
0.00471597 -9.39535 0.175634 
0.534969 0.175634 -8.95209 
-10.6761 0.323299 -0.216514 
0.323299 -10.743 -0.289857 
-0.216514 -0.289857 -9.77598 
-9.51264 -0.0669348 0.402047 
-0.0669348 -9.43105 -0.345803 
0.402047 -0.345803 -12.2514 
-10.0619 0.140845 -0.145083 
0.140845 -10.3963 -0.10988 
-0.145083 -0.10988 -10.7369 
-9.2456 -0.145313 -1.26745 
-0.145313 -10.7336 0.332323 
-1.26745 0.332323 -11.2159 
-9.53813 -0.014475 -0.109059 
-0.014475 -9.52029 -0.7236 
-0.109059 -0.7236 -9.27378 
-9.55088 0.0128492 -0.100425 
0.0128492 -9.54565 -0.577162 
-0.100425 -0.577162 -9.23567 
-9.42943 0.00639009 -0.222111 
0.00639009 -9.4558 -0.418857 
-0.222111 -0.418857 -9.44697 
-9.37768 0.0361753 -0.183586 
0.0361753 -10.0108 -0.545457 
-0.183586 -0.545457 -8.94375 
-8.45168 0.141868 -1.28484 
0.141868 -8.56904 0.748286 
-1.28484 0.748286 -6.5481 
-8.92523 0.109867 -1.31955 
0.109867 -8.98365 0.156408 
-1.31955 0.156408 -5.65993 
-9.05831 0.191611 -1.39811 
0.191611 -8.43723 -0.180438 
-1.39811 -0.180438 -6.07328 
-8.80075 0.171291 -1.33781 
0.171291 -8.74113 0.212668 
-1.33781 0.212668 -6.02693 
-9.66384 -0.152876 0.330614 
-0.152876 -9.8842 -0.0307117 
0.330614 -0.0307117 -9.60138 
-9.65055 0.0286427 0.413939 
0.0286427 -9.58951 -0.0873952 
0.413939 -0.0873952 -9.90935 
-9.80385 -0.110684 0.2955 
-0.110684 -9.45263 -0.0750263 
0.2955 -0.0750263 -9.89293 
-9.64748 0.0305308 0.567335 
0.0305308 -9.75972 -0.125297 
0.567335 -0.125297 -9.74221 
-9.14713 -0.152553 -0.324501 
-0.152553 -9.50214 0.145824 
-0.324501 0.145824 -10.0188 
-9.68922 0.159564 -0.304375 
0.159564 -9.21581 0.191464 
-0.304375 0.191464 -9.76306 
-9.19373 0.0217567 -0.174135 
0.0217567 -9.54417 0.0746145 
-0.174135 0.0746145 -9.93019 
-9.24625 0.022309 -0.309806 
0.022309 -9.37914 0.12061 
-0.309806 0.12061 -10.0427 
-10.1927 0.888834 0.608498 
0.888834 -9.18703 0.962334 
0.608498 0.962334 -9.48731 
-9.4803 0.784449 1.52046 
0.784449 -10.2496 0.6385 
1.52046 0.6385 -9.13715 
-10.0611 0.608066 0.770483 
0.608066 -9.60108 0.803427 
0.770483 0.803427 -9.20488 
-9.35418 0.331035 -0.157803 
0.331035 -9.4554 -0.161002 
-0.157803 -0.161002 -10.0575 
-9.86211 0.0708134 -0.322903 
0.0708134 -9.77381 0.162867 
-0.322903 0.162867 -9.78652 
-9.84566 0.0281321 -0.266954 
0.0281321 -9.76784 0.206564 
-0.266954 0.206564 -9.80895 
-9.83789 0.0332048 -0.284794 
0.0332048 -9.78647 0.126168 
-0.284794 0.126168 -9.79808 
-9.8639 0.0234596 -0.274924 
0.0234596 -9.77312 0.117954 
-0.274924 0.117954 -9.78542 
-9.90286 -0.0135683 0.180691 
-0.0135683 -9.87034 -0.00035636 
0.180691 -0.00035636 -9.89344 
-9.88545 0.0127769 0.186949 
0.0127769 -9.90132 -0.00316919 
0.186949 -0.00316919 -9.87986 
-9.79667 0.0199195 0.174724 
0.0199195 -9.7409 -0.0796754 
0.174724 -0.0796754 -10.1291 
-9.93954 0.0329072 0.206914 
0.0329072 -9.7867 0.097732 
0.206914 0.097732 -9.94039 
-8.22351 -0.332342 1.9719 
-0.332342 -7.01989 -1.64263 
1.9719 -1.64263 -2.23296 
-7.97349 -1.09657 2.887 
-1.09657 -6.89532 -1.33432 
2.887 -1.33432 -2.60755 
-6.87475 0.329158 1.15513 
0.329158 -7.00863 -2.89544 
1.15513 -2.89544 -3.59297 
-8.16883 0.119215 2.74706 
0.119215 -6.26569 -2.46219 
2.74706 -2.46219 -3.04184 
-9.03981 0.10709 -0.393541 
0.10709 -9.58886 -0.311404 
-0.393541 -0.311404 -10.6864 
-9.32439 0.163193 -0.319919 
0.163193 -9.49288 -0.368789 
-0.319919 -0.368789 -10.4978 
-9.38996 0.204419 -0.0582569 
0.204419 -9.42154 -0.420995 
-0.0582569 -0.420995 -10.5035 
-9.41565 0.426426 -0.439187 
0.426426 -9.50564 -0.289759 
-0.439187 -0.289759 -10.3937 
-10.1593 -0.147769 0.274794 
-0.147769 -7.06393 0.501606 
0.274794 0.501606 -9.60243 
-9.33023 0.746775 -0.37185 
0.746775 -7.22422 0.441761 
-0.37185 0.441761 -10.2712 
-8.42171 0.0147589 -1.02068 
0.0147589 -8.326 1.24378 
-1.02068 1.24378 -10.0779 
-9.27133 0.492922 -0.366281 
0.492922 -7.68405 1.50405 
-0.366281 1.50405 -9.87024 
-8.30474 0.276643 0.417456 
0.276643 -9.96137 -1.51179 
0.417456 -1.51179 -8.77606 
-9.19681 -0.475493 -0.425592 
-0.475493 -8.34731 -0.418477 
-0.425592 -0.418477 -9.49804 
-8.82118 -0.610415 -0.247399 
-0.610415 -8.50785 -0.0267289 
-0.247399 -0.0267289 -9.71313 
-8.18189 -1.20079 0.0111659 
-1.20079 -8.76008 -0.575985 
0.0111659 -0.575985 -10.1002 
-9.69357 -0.182209 0.106899 
-0.182209 -9.62225 -0.312126 
0.106899 -0.312126 -8.60896 
-9.6306 0.0813597 0.272207 
0.0813597 -9.86633 -0.00487264 
0.272207 -0.00487264 -8.42786 
-9.69314 0.0403852 0.205864 
0.0403852 -9.55747 -0.0127846 
0.205864 -0.0127846 -8.67417 
-9.60994 0.000940732 0.333364 
0.000940732 -9.58646 -0.0875319 
0.333364 -0.0875319 -8.72839 
-9.81005 -0.0234148 0.106227 
-0.0234148 -9.78376 0.0424814 
0.106227 0.0424814 -9.90602 
-9.81054 -0.00542217 0.109868 
-0.00542217 -9.77798 0.0244952 
0.109868 0.0244952 -9.91132 
-9.81344 0.0125194 0.111516 
0.0125194 -9.73865 0.00869562 
0.111516 0.00869562 -9.94774 
-9.83217 -0.0152665 0.132893 
-0.0152665 -9.78319 0.0242799 
0.132893 0.0242799 -9.88448 
-9.79918 -0.0419917 -0.163414 
-0.0419917 -9.66577 -0.0911468 
-0.163414 -0.0911468 -9.61086 
-9.75368 -0.0216738 -0.113655 
-0.0216738 -9.73061 -0.0655434 
-0.113655 -0.0655434 -9.59151 
-9.74558 -0.0388919 -0.159476 
-0.0388919 -9.67101 -0.0827155 
-0.159476 -0.0827155 -9.65922 
-9.71142 -0.0472269 -0.14648 
-0.0472269 -9.73161 -0.0614658 
-0.14648 -0.0614658 -9.63277 
-9.82235 0.512189 -0.0514802 
0.512189 -11.5345 -0.605422 
-0.0514802 -0.605422 -11.1236 
-10.7124 0.0364195 0.0917997 
0.0364195 -9.55975 0.642613 
0.0917997 0.642613 -12.2084 
-11.9045 -0.274011 -0.177829 
-0.274011 -7.21407 -0.746459 
-0.177829 -0.746459 -13.362 
-10.9784 -0.459976 0.0265293 
-0.459976 -9.40315 0.487221 
0.0265293 0.487221 -12.0989 
-8.31702 0.141408 -0.187204 
0.141408 -9.20061 -0.683743 
-0.187204 -0.683743 -8.85242 
-8.7451 0.0173735 0.124743 
0.0173735 -8.77804 -0.645359 
0.124743 -0.645359 -8.84691 
-8.63946 0.056355 0.101061 
0.056355 -8.19556 -0.522748 
0.101061 -0.522748 -9.53504 
-8.47909 -0.282009 -0.0649128 
-0.282009 -8.70226 -0.814821 
-0.0649128 -0.814821 -9.1887 
-9.76843 -0.0368466 0.263944 
-0.0368466 -9.85796 0.213774 
0.263944 0.213774 -9.83766 
-9.80382 0.0142462 0.27228 
0.0142462 -9.86065 0.192867 
0.27228 0.192867 -9.79959 
-9.80019 0.0368178 0.251136 
0.0368178 -9.85311 0.188865 
0.251136 0.188865 -9.81075 
-9.83961 -0.0958888 0.210796 
-0.0958888 -9.8988 0.0989245 
0.210796 0.0989245 -9.72565 
-9.86821 -0.0261024 0.167744 
-0.0261024 -9.89958 0.020123 
0.167744 0.020123 -10.0493 
-9.93802 0.00241268 0.153451 
0.00241268 -9.92455 -0.0120794 
0.153451 -0.0120794 -9.95452 
-9.95143 -0.00677632 0.163056 
-0.00677632 -9.94039 -0.0231261 
0.163056 -0.0231261 -9.92528 
-9.93756 0.0144667 0.131799 
0.0144667 -9.9373 -0.0434321 
0.131799 -0.0434321 -9.94224 
-9.05477 -0.122071 0.763487 
-0.122071 -9.68339 -0.732828 
0.763487 -0.732828 -8.05555 
-9.12022 0.122476 0.384557 
0.122476 -9.47416 -0.44962 
0.384557 -0.44962 -8.19932 
-9.00821 0.0639444 0.488316 
0.0639444 -9.54998 -0.238334 
0.488316 -0.238334 -8.2355 
-7.81037 -0.180623 -0.173497 
-0.180623 -9.18268 -0.630376 
-0.173497 -0.630376 -9.80065 
-8.87511 -0.183086 -0.756832 
-0.183086 -9.73039 -0.231623 
-0.756832 -0.231623 -9.90072 
-8.88665 -0.0180819 -0.997473 
-0.0180819 -9.93758 0.382578 
-0.997473 0.382578 -9.682 
-9.36534 0.23107 -1.46674 
0.23107 -9.40957 -0.286817 
-1.46674 -0.286817 -9.73131 
-9.23227 0.130861 0.364949 
0.130861 -9.37594 0.658926 
0.364949 0.658926 -9.89801 
-9.36034 -0.103488 0.131546 
-0.103488 -8.77386 0.883867 
0.131546 0.883867 -8.3818 
-9.26438 -0.223701 0.416658 
-0.223701 -8.74395 0.90573 
0.416658 0.90573 -8.50766 
-9.46659 0.0298283 0.257136 
0.0298283 -9.15254 1.23086 
0.257136 1.23086 -7.89687 
-9.32068 0.202642 -0.0621791 
0.202642 -8.72906 1.45831 
-0.0621791 1.45831 -8.46625 
-9.49811 -0.039465 -0.457436 
-0.039465 -9.55843 0.097112 
-0.457436 0.097112 -9.78425 
-9.52637 -0.0367245 -0.553339 
-0.0367245 -9.53546 0.100681 
-0.553339 0.100681 -9.77896 
-9.58043 -0.0520483 -0.424219 
-0.0520483 -9.45495 0.115256 
-0.424219 0.115256 -9.80541 
-9.36299 0.0358802 -0.462338 
0.0358802 -9.6178 0.12059 
-0.462338 0.12059 -9.86 
-9.91079 0.0020984 -0.152668 
0.0020984 -9.75869 -0.644642 
-0.152668 -0.644642 -9.73851 
-9.78998 -0.0122155 -0.161916 
-0.0122155 -9.82588 -0.614314 
-0.161916 -0.614314 -9.79213 
-9.63761 -0.059471 -0.235169 
-0.059471 -9.81062 -0.433762 
-0.235169 -0.433762 -9.95977 
-9.90821 -0.0503802 -0.118263 
-0.0503802 -9.96562 -0.590808 
-0.118263 -0.590808 -9.53416 
-8.79836 -0.0219026 -0.562488 
-0.0219026 -10.3882 0.0179005 
-0.562488 0.0179005 -10.4678 
-9.69705 -0.227348 -0.315019 
-0.227348 -9.90942 -1.19438 
-0.315019 -1.19438 -10.048 
-9.10186 0.0866917 -0.623739 
0.0866917 -10.0551 -0.146155 
-0.623739 -0.146155 -10.4975 
-9.07953 0.39742 -0.783755 
0.39742 -9.96334 -0.116957 
-0.783755 -0.116957 -10.6116 
-9.59446 0.0414207 0.292099 
0.0414207 -9.57141 -0.0849697 
0.292099 -0.0849697 -9.81477 
-9.58751 0.0138432 0.468435 
0.0138432 -9.64534 -0.0931215 
0.468435 -0.0931215 -9.74779 
-9.54616 0.115414 0.417945 
0.115414 -9.62737 -0.0267724 
0.417945 -0.0267724 -9.8071 
-9.61033 0.0133389 0.447077 
0.0133389 -9.6038 -0.0672813 
0.447077 -0.0672813 -9.76651 
-9.51458 -0.119236 0.138174 
-0.119236 -9.22244 0.148067 
0.138174 0.148067 -9.71916 
-9.40883 0.0244984 0.220515 
0.0244984 -9.40093 -0.0275548 
0.220515 -0.0275548 -9.64643 
-9.52759 -0.234165 -0.0151175 
-0.234165 -9.39966 0.236174 
-0.0151175 0.236174 -9.52894 
-9.44735 -0.136551 0.122835 
-0.136551 -9.26769 0.143011 
0.122835 0.143011 -9.74115 
-9.73607 -0.0516591 0.466804 
-0.0516591 -9.04735 1.10824 
0.466804 1.10824 -7.56319 
-8.93049 -0.102837 0.132817 
-0.102837 -8.90331 0.552998 
0.132817 0.552998 -8.5128 
-8.62277 0.0516815 0.713329 
0.0516815 -8.44677 0.807538 
0.713329 0.807538 -9.27706 
-8.97469 0.0394883 0.432694 
0.0394883 -9.0462 0.578785 
0.432694 0.578785 -8.32571 
-9.89621 -0.0206914 -0.446614 
-0.0206914 -9.86982 -0.16701 
-0.446614 -0.16701 -10.0211 
-9.94193 -0.00715337 -0.469944 
-0.00715337 -9.95073 -0.197498 
-0.469944 -0.197498 -9.89449 
-9.91881 -0.00369978 -0.4763 
-0.00369978 -9.90002 -0.176638 
-0.4763 -0.176638 -9.96831 
-9.91908 -0.00733065 -0.490753 
-0.00733065 -9.97922 -0.164342 
-0.490753 -0.164342 -9.88884 
-9.76293 0.0036415 0.0382804 
0.0036415 -9.727 -0.0199449 
0.0382804 -0.0199449 -9.89989 
-9.78777 0.0152689 0.0987974 
0.0152689 -9.66022 0.0156366 
0.0987974 0.0156366 -9.94184 
-9.84529 0.014125 0.0553275 
0.014125 -9.65255 0.0247209 
0.0553275 0.0247209 -9.89198 
-9.85682 0.0449333 0.0144665 
0.0449333 -9.72987 0.173364 
0.0144665 0.173364 -9.80313 
-9.80332 -0.0585878 0.516701 
-0.0585878 -9.81561 0.130267 
0.516701 0.130267 -9.8291 
-9.81572 -0.0533256 0.472575 
-0.0533256 -9.74169 0.073787 
0.472575 0.073787 -9.89062 
-9.78977 0.0195888 0.508549 
0.0195888 -9.87771 0.154497 
0.508549 0.154497 -9.78055 
-9.8554 -0.0293291 0.527708 
-0.0293291 -9.85405 0.166383 
0.527708 0.166383 -9.73858 
-8.68179 0.878245 1.42928 
0.878245 -10.1573 1.0135 
1.42928 1.0135 -10.0873 
-8.86451 0.825261 0.945806 
0.825261 -9.93241 1.0541 
0.945806 1.0541 -10.1294 
-8.60145 0.326596 1.00736 
0.326596 -10.121 -0.441931 
1.00736 -0.441931 -10.2039 
-8.79658 0.761282 1.0487 
0.761282 -10.2004 0.0848137 
1.0487 0.0848137 -9.92934 
-9.43536 -0.380586 0.185672 
-0.380586 -9.04096 0.302277 
0.185672 0.302277 -10.0531 
-9.49976 0.058953 -0.108638 
0.058953 -8.76389 1.18568 
-0.108638 1.18568 -10.2658 
-9.88632 -0.0658583 -0.0755438 
-0.0658583 -9.19648 0.345776 
-0.0755438 0.345776 -9.44663 
-8.74 0.291962 0.461034 
0.291962 -8.78453 -0.028318 
0.461034 -0.028318 -11.0049 
-9.59366 -0.0167712 -0.514095 
-0.0167712 -9.60686 0.109149 
-0.514095 0.109149 -9.82375 
-9.62644 -0.0211093 -0.486609 
-0.0211093 -9.56357 0.113138 
-0.486609 0.113138 -9.83426 
-9.59414 -0.0162986 -0.415559 
-0.0162986 -9.58842 0.0879035 
-0.415559 0.0879035 -9.84171 
-9.67234 0.0390493 -0.499012 
0.0390493 -9.5767 0.0900168 
-0.499012 0.0900168 -9.77523 
-9.33743 0.0433386 0.144025 
0.0433386 -9.43231 -0.0245401 
0.144025 -0.0245401 -9.86406 
-9.64811 0.0171765 0.135421 
0.0171765 -9.11829 0.397948 
0.135421 0.397948 -9.8674 
-9.55467 0.082482 0.236868 
0.082482 -8.97921 0.215831 
0.236868 0.215831 -10.0999 
-9.57142 0.0382867 0.169615 
0.0382867 -8.97706 0.204359 
0.169615 0.204359 -10.0853 
-10.8334 0.798902 0.0477026 
0.798902 -11.1218 0.129816 
0.0477026 0.129816 -12.5745 
-11.2308 0.694099 0.281937 
0.694099 -10.9199 0.00453283 
0.281937 0.00453283 -12.379 
-8.84471 0.959045 0.389001 
0.959045 -9.06303 -0.355323 
0.389001 -0.355323 -16.6219 
-11.0444 0.904563 -1.11708 
0.904563 -10.9211 -0.483848 
-1.11708 -0.483848 -12.5642 
-9.77665 0.181799 0.30237 
0.181799 -8.79555 -0.0735766 
0.30237 -0.0735766 -9.58835 
-10.3612 0.18851 0.715188 
0.18851 -8.41363 0.476428 
0.715188 0.476428 -9.38574 
-10.0421 0.193572 -0.432483 
0.193572 -8.29971 0.147561 
-0.432483 0.147561 -9.81875 
-9.901 -0.289226 -0.364059 
-0.289226 -8.74371 0.490985 
-0.364059 0.490985 -9.51584 
-7.71769 0.169195 3.23719 
0.169195 -9.82087 1.61425 
3.23719 1.61425 -8.52763 
-6.46761 -0.540497 1.05281 
-0.540497 -8.21786 -0.917925 
1.05281 -0.917925 -11.3807 
-8.64521 -0.486163 1.73957 
-0.486163 -9.98735 -0.0252245 
1.73957 -0.0252245 -7.43364 
-9.00368 -0.353739 1.55754 
-0.353739 -9.0673 0.536157 
1.55754 0.536157 -7.99521 
-9.08539 0.00609906 0.178661 
0.00609906 -8.89758 -0.281256 
0.178661 -0.281256 -9.73351 
-9.08686 -0.338028 0.0166832 
-0.338028 -9.4134 -0.248292 
0.0166832 -0.248292 -9.21623 
-8.91011 0.108376 0.184477 
0.108376 -9.16957 -0.585646 
0.184477 -0.585646 -9.6368 
-8.86853 0.0363759 0.083001 
0.0363759 -9.04788 -0.307681 
0.083001 -0.307681 -9.80007 
-8.96971 -0.856763 -0.14568 
-0.856763 -10.7274 0.558282 
-0.14568 0.558282 -13.0842 
-10.3999 0.308352 0.65788 
0.308352 -9.92951 -0.168265 
0.65788 -0.168265 -12.452 
-11.3697 0.674099 -0.047369 
0.674099 -9.71908 0.661879 
-0.047369 0.661879 -11.6926 
-10.0429 -0.925522 0.032096 
-0.925522 -10.9362 -0.947381 
0.032096 -0.947381 -11.8022 
-8.0798 -0.253327 -1.01174 
-0.253327 -9.93984 0.157781 
-1.01174 0.157781 -10.7374 
-8.32568 -0.0022413 -2.21397 
-0.0022413 -10.6022 0.197815 
-2.21397 0.197815 -9.82917 
-9.72545 0.808719 0.157971 
0.808719 -9.65411 -0.139351 
0.157971 -0.139351 -9.37746 
-8.49644 -0.295959 -0.819932 
-0.295959 -9.82674 0.672836 
-0.819932 0.672836 -10.4338 
-9.87462 -0.0320104 0.227666 
-0.0320104 -9.79901 0.00416315 
0.227666 0.00416315 -9.84447 
-9.85337 -0.0205901 0.187632 
-0.0205901 -9.81098 -0.0259453 
0.187632 -0.0259453 -9.85374 
-9.87107 -0.0162501 0.221063 
-0.0162501 -9.84164 -0.0101167 
0.221063 -0.0101167 -9.80539 
-9.89601 0.0163602 0.151209 
0.0163602 -9.79454 -0.0471281 
0.151209 -0.0471281 -9.82754 
-9.94386 -0.00557618 0.367928 
-0.00557618 -9.95641 -0.222389 
0.367928 -0.222389 -9.96316 
-9.9513 -0.00882576 0.37726 
-0.00882576 -9.97255 -0.215883 
0.37726 -0.215883 -9.93957 
-9.92363 0.006114 0.379162 
0.006114 -9.91085 -0.226988 
0.379162 -0.226988 -10.0289 
-9.94903 -0.0035284 0.366578 
-0.0035284 -9.98373 -0.237723 
0.366578 -0.237723 -9.93066 
-9.79684 -0.0692595 -0.433634 
-0.0692595 -9.80334 -0.195768 
-0.433634 -0.195768 -9.94699 
-9.8156 -0.05054 -0.474018 
-0.05054 -9.87274 -0.243622 
-0.474018 -0.243622 -9.85883 
-9.82394 0.0233078 -0.527431 
0.0233078 -9.88528 -0.27728 
-0.527431 -0.27728 -9.83796 
-9.81464 -0.00858434 -0.545305 
-0.00858434 -9.9175 -0.210479 
-0.545305 -0.210479 -9.81504 
-8.42886 -0.0354398 -0.13476 
-0.0354398 -9.17127 0.879101 
-0.13476 0.879101 -8.63645 
-8.99831 0.415824 0.665266 
0.415824 -8.83275 1.04081 
0.665266 1.04081 -8.40552 
-9.13982 -0.0642506 0.253326 
-0.0642506 -8.75564 1.19765 
0.253326 1.19765 -8.34113 
-8.82953 0.0378926 0.177425 
0.0378926 -8.77825 1.0019 
0.177425 1.0019 -8.62881 
-8.49175 0.0678028 -0.165087 
0.0678028 -9.92438 -0.0698472 
-0.165087 -0.0698472 -10.2064 
-8.57848 0.0696919 -0.00404187 
0.0696919 -9.50943 0.371313 
-0.00404187 0.371313 -10.5346 
-8.98352 0.287907 0.263949 
0.287907 -9.63782 0.772107 
0.263949 0.772107 -10.0012 
-9.37539 -0.146883 0.515502 
-0.146883 -9.02983 0.452288 
0.515502 0.452288 -10.2173 
-9.38527 -0.0555954 -0.502117 
-0.0555954 -9.12442 0.342109 
-0.502117 0.342109 -9.87279 
-9.15171 -0.0611261 -0.567789 
-0.0611261 -9.3586 -0.00303521 
-0.567789 -0.00303521 -9.87217 
-9.25586 0.225786 -0.508265 
0.225786 -9.06703 0.349436 
-0.508265 0.349436 -10.0596 
-9.42417 0.188773 -0.595481 
0.188773 -9.21462 0.141149 
-0.595481 0.141149 -9.74369 
-9.66717 0.0589263 -0.191946 
0.0589263 -9.81894 0.463215 
-0.191946 0.463215 -9.83027 
-9.77985 -0.00595005 -0.196108 
-0.00595005 -9.81219 0.630219 
-0.196108 0.630219 -9.72433 
-9.82267 -0.023914 -0.20771 
-0.023914 -9.78139 0.647748 
-0.20771 0.647748 -9.71232 
-9.8178 -0.00453856 -0.205148 
-0.00453856 -9.8659 0.623259 
-0.205148 0.623259 -9.63268 
-9.58906 0.176617 0.265746 
0.176617 -9.39671 0.134044 
0.265746 0.134044 -9.81177 
-9.64996 0.0198343 0.317021 
0.0198343 -9.21206 0.0403969 
0.317021 0.0403969 -9.93552 
-9.56846 0.0910677 0.306632 
0.0910677 -9.34462 0.0225123 
0.306632 0.0225123 -9.88446 
-9.52884 0.118603 0.32402 
0.118603 -9.36228 -0.0239223 
0.32402 -0.0239223 -9.90642 
-9.31326 0.379629 -0.084956 
0.379629 -9.02969 -0.0531104 
-0.084956 -0.0531104 -10.4151 
-9.47409 0.27638 -0.0948005 
0.27638 -8.99068 -0.0853206 
-0.0948005 -0.0853206 -10.2933 
-9.25684 0.290634 -0.16776 
0.290634 -8.82338 -0.487632 
-0.16776 -0.487632 -10.6778 
-9.43428 0.283263 0.132905 
0.283263 -8.74017 -0.12574 
0.132905 -0.12574 -10.5836 
-9.33043 0.0104303 0.168364 
0.0104303 -9.55514 0.257817 
0.168364 0.257817 -9.23508 
-9.43047 -0.117303 0.110099 
-0.117303 -9.61416 0.164692 
0.110099 0.164692 -9.07602 
-9.23742 0.0526037 0.155411 
0.0526037 -9.70527 0.185231 
0.155411 0.185231 -9.17796 
-9.36027 -0.142637 0.203978 
-0.142637 -9.48932 0.137783 
0.203978 0.137783 -9.27106 
-8.96733 0.44918 0.466379 
0.44918 -8.72298 0.263091 
0.466379 0.263091 -9.58341 
-9.08359 0.266588 0.350057 
0.266588 -9.05348 0.506395 
0.350057 0.506395 -9.13665 
-8.35589 0.0926224 0.090516 
0.0926224 -9.95289 0.492988 
0.090516 0.492988 -8.96494 
-9.16791 0.019675 0.469021 
0.019675 -8.82674 0.697112 
0.469021 0.697112 -9.27907 
-9.94613 -0.0583836 -0.296147 
-0.0583836 -10.6727 -0.388425 
-0.296147 -0.388425 -10.6431 
-10.0149 0.498965 0.220101 
0.498965 -10.1012 0.176417 
0.220101 0.176417 -11.1459 
-11.0406 -0.119393 0.336986 
-0.119393 -9.61063 -0.319864 
0.336986 -0.319864 -10.6107 
-10.6111 0.0452104 0.324277 
0.0452104 -9.36418 -0.0751908 
0.324277 -0.0751908 -11.2867 
-9.91038 -0.0313556 0.439328 
-0.0313556 -9.85361 0.248837 
0.439328 0.248837 -9.939 
-9.87198 -0.0132057 0.450752 
-0.0132057 -9.93996 0.26202 
0.450752 0.26202 -9.89105 
-9.87591 -0.0178837 0.479478 
-0.0178837 -9.94231 0.255343 
0.479478 0.255343 -9.88477 
-9.95299 -0.0179421 0.51843 
-0.0179421 -9.91332 0.273681 
0.51843 0.273681 -9.83668 
-9.33673 -0.0312647 0.0272333 
-0.0312647 -9.4929 -0.672255 
0.0272333 -0.672255 -9.30207 
-9.32225 -0.0660326 -0.0223463 
-0.0660326 -9.54498 -0.672661 
-0.0223463 -0.672661 -9.26448 
-9.39719 -0.0483737 -0.0911266 
-0.0483737 -9.3955 -0.657182 
-0.0911266 -0.657182 -9.33902 
-9.33183 -0.0201781 0.0257877 
-0.0201781 -9.50396 -0.667443 
0.0257877 -0.667443 -9.29592 
-9.65025 -0.045467 -0.517513 
-0.045467 -9.68811 -0.011369 
-0.517513 -0.011369 -9.77568 
-9.65902 -0.0325219 -0.539738 
-0.0325219 -9.65251 -0.021263 
-0.539738 -0.021263 -9.8025 
-9.59802 -0.0365664 -0.49775 
-0.0365664 -9.72624 -0.0424072 
-0.49775 -0.0424072 -9.78978 
-9.60397 0.00981652 -0.444349 
0.00981652 -9.6957 -0.0185734 
-0.444349 -0.0185734 -9.81436 
-8.87322 -0.0935852 0.0090956 
-0.0935852 -9.44859 -0.41399 
0.0090956 -0.41399 -8.96981 
-8.91568 -0.00291153 0.160439 
-0.00291153 -9.38385 -0.451921 
0.160439 -0.451921 -8.99208 
-8.98509 -0.0721577 0.0935481 
-0.0721577 -9.47955 -0.450416 
0.0935481 -0.450416 -8.82697 
-9.22056 -0.068753 0.067024 
-0.068753 -9.27742 -0.438806 
0.067024 -0.438806 -8.79363 
-9.52657 -0.0436073 -0.440433 
-0.0436073 -9.60982 -0.0472647 
-0.440433 -0.0472647 -9.61396 
-9.52584 -0.0658901 -0.423483 
-0.0658901 -9.58823 -0.0830329 
-0.423483 -0.0830329 -9.63629 
-9.47592 -0.0507082 -0.47929 
-0.0507082 -9.56571 -0.0995398 
-0.47929 -0.0995398 -9.70872 
-9.47488 -0.0283661 -0.43848 
-0.0283661 -9.60133 -0.108028 
-0.43848 -0.108028 -9.67415 
-9.29834 0.109378 -0.641363 
0.109378 -8.98467 0.0379001 
-0.641363 0.0379001 -9.46299 
-9.1542 -0.120207 -0.723587 
-0.120207 -9.04059 0.21656 
-0.723587 0.21656 -9.55121 
-9.03337 0.0419307 -0.526357 
0.0419307 -9.04525 -0.0466187 
-0.526357 -0.0466187 -9.66738 
-9.32365 -0.20877 -0.652062 
-0.20877 -9.06484 0.034614 
-0.652062 0.034614 -9.35752 
-9.3274 -0.0978104 -0.128521 
-0.0978104 -9.59364 -0.642703 
-0.128521 -0.642703 -8.9334 
-9.34543 0.0222242 -0.0972345 
0.0222242 -9.38504 -0.650102 
-0.0972345 -0.650102 -9.12398 
-9.33376 -0.102626 0.00882488 
-0.102626 -9.60182 -0.606182 
0.00882488 -0.606182 -8.91886 
-9.41492 -0.117599 0.0233806 
-0.117599 -9.63955 -0.510671 
0.0233806 -0.510671 -8.79997 
-9.55949 0.0642607 -0.380249 
0.0642607 -9.6911 0.213074 
-0.380249 0.213074 -9.52447 
-9.53874 -0.0032864 -0.433349 
-0.0032864 -9.58014 0.22628 
-0.433349 0.22628 -9.65618 
-9.55708 0.0365919 -0.428339 
0.0365919 -9.33044 0.235683 
-0.428339 0.235683 -9.88754 
-9.60165 0.09349 -0.60253 
0.09349 -9.55712 0.173503 
-0.60253 0.173503 -9.6163 
-9.94322 0.0421027 0.322764 
0.0421027 -9.90408 -0.107419 
0.322764 -0.107419 -9.93458 
-9.85171 0.0165302 0.298092 
0.0165302 -9.83905 -0.104573 
0.298092 -0.104573 -10.0911 
-9.94147 0.0267703 0.332437 
0.0267703 -9.95192 -0.125825 
0.332437 -0.125825 -9.88849 
-9.93413 0.0219932 0.316346 
0.0219932 -9.9611 -0.0816695 
0.316346 -0.0816695 -9.88664 
-9.61537 -0.109766 0.555828 
-0.109766 -9.41217 -0.0110491 
0.555828 -0.0110491 -9.69141 
-9.51503 0.0364745 0.40992 
0.0364745 -9.50278 -0.0495989 
0.40992 -0.0495989 -9.70114 
-9.55491 -0.0101339 0.34947 
-0.0101339 -9.4859 0.0193953 
0.34947 0.0193953 -9.67814 
-9.58096 -0.105543 0.486794 
-0.105543 -9.53162 -0.0361071 
0.486794 -0.0361071 -9.60637 
-9.41646 -0.0545286 -0.111949 
-0.0545286 -9.57397 -0.616468 
-0.111949 -0.616468 -9.25486 
-9.38502 -0.0196666 -0.10545 
-0.0196666 -9.50887 -0.708575 
-0.10545 -0.708575 -9.3514 
-9.47953 -0.000228137 -0.174435 
-0.000228137 -9.60255 -0.654731 
-0.174435 -0.654731 -9.16322 
-9.60755 -0.0697422 -0.0910698 
-0.0697422 -9.54036 -0.568805 
-0.0910698 -0.568805 -9.09739 
-9.39699 -0.138851 -0.520719 
-0.138851 -9.63431 0.0322306 
-0.520719 0.0322306 -9.52645 
-9.42858 -0.0167103 -0.489269 
-0.0167103 -9.52726 -0.115623 
-0.489269 -0.115623 -9.60191 
-9.30164 -0.0638686 -0.444662 
-0.0638686 -9.58543 -0.202522 
-0.444662 -0.202522 -9.67068 
-9.42522 0.00922778 -0.497248 
0.00922778 -9.50248 -0.0842031 
-0.497248 -0.0842031 -9.63005 
-9.5597 -0.0324271 0.209862 
-0.0324271 -9.52063 -0.610614 
0.209862 -0.610614 -9.38188 
-9.41379 0.0623079 0.0965555 
0.0623079 -9.61843 -0.70826 
0.0965555 -0.70826 -9.42999 
-9.37897 -0.0109371 0.0094796 
-0.0109371 -9.54482 -0.647351 
0.0094796 -0.647351 -9.53843 
-9.49891 0.0255808 0.208164 
0.0255808 -9.67234 -0.5989 
0.208164 -0.5989 -9.29097 
-9.81128 0.0210875 -0.275991 
0.0210875 -9.70815 0.0417038 
-0.275991 0.0417038 -9.78745 
-9.86654 0.0154587 -0.292387 
0.0154587 -9.75136 0.0909528 
-0.292387 0.0909528 -9.68897 
-9.85633 0.0287171 -0.308571 
0.0287171 -9.69684 0.0586435 
-0.308571 0.0586435 -9.7537 
-9.80799 0.0405749 -0.346222 
0.0405749 -9.66454 0.0911309 
-0.346222 0.0911309 -9.83434 
-9.23386 0.145804 -1.21692 
0.145804 -9.79872 0.405095 
-1.21692 0.405095 -9.52539 
-9.23311 0.206315 -0.610117 
0.206315 -9.12553 0.00647311 
-0.610117 0.00647311 -10.1993 
-9.53169 -0.0945867 -0.609566 
-0.0945867 -9.45864 0.128181 
-0.609566 0.128181 -9.56764 
-9.5433 -0.120256 -0.525902 
-0.120256 -9.71153 0.11477 
-0.525902 0.11477 -9.30314 
-9.93542 -0.00825099 0.400523 
-0.00825099 -9.94466 -0.048933 
0.400523 -0.048933 -9.98434 
-9.96219 -0.00104431 0.413792 
-0.00104431 -9.92799 -0.048685 
0.413792 -0.048685 -9.97423 
-9.94898 -0.00802252 0.414315 
-0.00802252 -9.92896 -0.0290228 
0.414315 -0.0290228 -9.98647 
-9.96476 0.00168838 0.417659 
0.00168838 -9.94082 -0.0574501 
0.417659 -0.0574501 -9.95883 
-9.71744 -0.00190565 -0.2963 
-0.00190565 -9.72474 0.24981 
-0.2963 0.24981 -9.65687 
-9.71721 0.00666581 -0.297231 
0.00666581 -9.74138 0.253704 
-0.297231 0.253704 -9.64046 
-9.73221 -0.000643986 -0.313701 
-0.000643986 -9.74844 0.259316 
-0.313701 0.259316 -9.6184 
-9.71911 -0.0117541 -0.331083 
-0.0117541 -9.74639 0.244149 
-0.331083 0.244149 -9.63355 
-9.49816 0.106221 0.121279 
0.106221 -9.40715 -0.16173 
0.121279 -0.16173 -10.1075 
-9.4956 0.0898309 0.126993 
0.0898309 -9.41856 -0.152907 
0.126993 -0.152907 -10.0986 
-9.47552 0.0577667 0.101268 
0.0577667 -9.40505 -0.143219 
0.101268 -0.143219 -10.1322 
-9.5054 0.091976 0.108112 
0.091976 -9.41143 -0.151376 
0.108112 -0.151376 -10.0959 
-9.48439 -0.0489715 -0.370292 
-0.0489715 -9.35313 0.255802 
-0.370292 0.255802 -9.59318 
-9.156 0.0473104 -0.487123 
0.0473104 -9.3233 0.159537 
-0.487123 0.159537 -9.95141 
-9.28091 0.0645301 -0.467961 
0.0645301 -9.25757 0.284918 
-0.467961 0.284918 -9.89223 
-9.43604 0.204165 -0.508869 
0.204165 -9.16141 0.0657492 
-0.508869 0.0657492 -9.83325 
-5.76348 -0.52205 -0.196434 
-0.52205 -4.66254 -0.911149 
-0.196434 -0.911149 2.07472 
-2.78449 -0.287914 -0.427759 
-0.287914 -4.48737 -0.870534 
-0.427759 -0.870534 -1.07944 
-3.06002 0.265336 -0.37632 
0.265336 -3.01714 -1.05671 
-0.37632 -1.05671 -2.27415 
-3.42063 -0.108543 -1.95247 
-0.108543 -2.83191 0.295385 
-1.95247 0.295385 -2.09876 
-9.65389 0.0808591 0.400329 
0.0808591 -9.77892 0.459955 
0.400329 0.459955 -8.99891 
-9.45248 -0.138096 0.560529 
-0.138096 -9.71826 0.370226 
0.560529 0.370226 -9.26098 
-9.67448 -0.180865 0.509549 
-0.180865 -9.61089 0.354607 
0.509549 0.354607 -9.14634 
-9.53131 -0.112562 0.385331 
-0.112562 -9.87182 0.264089 
0.385331 0.264089 -9.02859 
-9.5499 -0.22471 -0.0873208 
-0.22471 -9.69641 0.125689 
-0.0873208 0.125689 -10.6363 
-9.79959 -0.192849 0.016434 
-0.192849 -9.63239 0.286399 
0.016434 0.286399 -10.4506 
-9.62043 -0.194249 -0.0734238 
-0.194249 -9.53383 0.0567171 
-0.0734238 0.0567171 -10.7283 
-9.72141 -0.283048 -0.0819407 
-0.283048 -9.37568 0.17278 
-0.0819407 0.17278 -10.7855 
-9.38659 -0.118621 0.673436 
-0.118621 -9.18711 0.165291 
0.673436 0.165291 -8.9367 
-9.45325 0.509563 0.505487 
0.509563 -8.61455 0.823429 
0.505487 0.823429 -9.4426 
-9.14967 0.0158593 -0.0252622 
0.0158593 -8.65874 0.14434 
-0.0252622 0.14434 -9.70199 
-9.47236 -0.46349 0.45034 
-0.46349 -9.28634 0.451866 
0.45034 0.451866 -8.7517 
-9.36832 -0.0759638 -0.0461422 
-0.0759638 -9.66225 0.218352 
-0.0461422 0.218352 -9.14475 
-9.5414 -0.0122519 0.0273666 
-0.0122519 -9.6583 0.365523 
0.0273666 0.365523 -8.97563 
-9.51533 0.0246167 0.015087 
0.0246167 -9.65305 0.196333 
0.015087 0.196333 -9.00695 
-9.59173 -0.158168 0.0951731 
-0.158168 -9.8513 0.166604 
0.0951731 0.166604 -8.7323 
-9.19324 0.711545 0.887572 
0.711545 -8.97713 0.250804 
0.887572 0.250804 -10.649 
-9.54352 0.650757 0.67731 
0.650757 -8.92133 0.25422 
0.67731 0.25422 -10.3545 
-9.21612 0.755219 0.727599 
0.755219 -8.8895 0.233819 
0.727599 0.233819 -10.7137 
-9.60672 1.15873 0.325865 
1.15873 -9.25018 0.925147 
0.325865 0.925147 -9.96244 
-9.73998 -0.0034472 -0.101094 
-0.0034472 -9.2751 0.00954423 
-0.101094 0.00954423 -9.4892 
-9.75203 0.0363621 -0.216615 
0.0363621 -9.33622 -0.017182 
-0.216615 -0.017182 -9.41602 
-9.50953 0.0993171 -0.226864 
0.0993171 -9.4052 0.0667599 
-0.226864 0.0667599 -9.58955 
-9.68697 0.0370495 -0.219228 
0.0370495 -9.38396 0.0333635 
-0.219228 0.0333635 -9.43335 
-9.59697 0.0353374 0.210484 
0.0353374 -9.3832 -0.0144002 
0.210484 -0.0144002 -9.99756 
-9.80569 0.041929 0.301106 
0.041929 -9.61022 -0.087092 
0.301106 -0.087092 -9.56184 
-9.60941 0.0156204 0.347241 
0.0156204 -9.5583 -0.0680157 
0.347241 -0.0680157 -9.81003 
-9.66143 -0.0289503 0.344446 
-0.0289503 -9.48757 -0.108284 
0.344446 -0.108284 -9.82874 
-8.60974 -0.0173474 0.855101 
-0.0173474 -9.29336 -1.04733 
0.855101 -1.04733 -6.98663 
-8.91784 -0.0836784 0.998088 
-0.0836784 -8.89978 -0.103461 
0.998088 -0.103461 -7.0721 
-8.85381 0.33748 1.50296 
0.33748 -9.61936 -0.139675 
1.50296 -0.139675 -6.41655 
-8.78341 0.367179 1.1172 
0.367179 -10.039 -0.0801727 
1.1172 -0.0801727 -6.06736 
-7.77827 -0.177052 0.569019 
-0.177052 -9.32231 -0.255477 
0.569019 -0.255477 -9.15805 
-6.91376 0.364814 -0.0307471 
0.364814 -9.66753 -0.237515 
-0.0307471 -0.237515 -9.67733 
-6.36709 0.383816 0.13926 
0.383816 -9.84634 -0.424241 
0.13926 -0.424241 -10.0452 
-6.63735 0.552289 0.194438 
0.552289 -9.71768 -0.000636425 
0.194438 -0.000636425 -9.90359 
-8.67832 -0.012713 -0.0152494 
-0.012713 -9.21795 -0.782865 
-0.0152494 -0.782865 -9.22391 
-8.46737 0.0391359 -0.0591059 
0.0391359 -9.43651 -0.653981 
-0.0591059 -0.653981 -9.21629 
-9.17632 0.120642 -0.105706 
0.120642 -9.01633 -0.66338 
-0.105706 -0.66338 -8.92752 
-8.63281 -0.0159753 0.278154 
-0.0159753 -9.25255 -0.600975 
0.278154 -0.600975 -9.23481 
-9.41099 -0.103057 -0.623227 
-0.103057 -9.47003 -0.334478 
-0.623227 -0.334478 -9.31114 
-9.45462 0.0164529 -0.576655 
0.0164529 -9.35142 -0.255108 
-0.576655 -0.255108 -9.38612 
-9.34585 -0.00243788 -0.485478 
-0.00243788 -9.47058 -0.319251 
-0.485478 -0.319251 -9.37573 
-9.35432 -0.0384137 -0.386539 
-0.0384137 -9.56368 -0.374705 
-0.386539 -0.374705 -9.27416 
-8.90479 0.0507988 0.80945 
0.0507988 -8.74537 -0.705145 
0.80945 -0.705145 -7.42776 
-8.2872 -0.413705 0.199082 
-0.413705 -8.63733 -1.00366 
0.199082 -1.00366 -8.15338 
-8.98793 -0.130982 0.948802 
-0.130982 -8.51161 -1.00121 
0.948802 -1.00121 -7.57838 
-9.11125 -0.250061 0.269477 
-0.250061 -9.18587 -1.19619 
0.269477 -1.19619 -6.7808 
-9.80783 0.00337623 0.0276261 
0.00337623 -9.83594 -0.0566079 
0.0276261 -0.0566079 -9.85307 
-9.84394 0.0132949 0.0453265 
0.0132949 -9.82679 -0.106852 
0.0453265 -0.106852 -9.82611 
-9.77406 -0.0237187 0.0284265 
-0.0237187 -9.85438 -0.130303 
0.0284265 -0.130303 -9.86841 
-9.84526 -0.0547441 0.044967 
-0.0547441 -9.84566 0.0161889 
0.044967 0.0161889 -9.80592 
-5.59774 0.339788 0.901715 
0.339788 -6.09086 0.456356 
0.901715 0.456356 -2.18308 
-6.01634 0.184305 0.703997 
0.184305 -5.91202 0.544235 
0.703997 0.544235 -1.94331 
-5.26592 0.428843 0.403338 
0.428843 -6.08968 0.281779 
0.403338 0.281779 -2.51607 
-5.74479 0.415582 0.452505 
0.415582 -5.94165 0.472094 
0.452505 0.472094 -2.18523 
-9.35561 0.228267 0.147894 
0.228267 -8.59393 -0.0463246 
0.147894 -0.0463246 -9.29648 
-9.21343 -0.35064 0.123401 
-0.35064 -9.33805 0.465405 
0.123401 0.465405 -8.69454 
-9.69377 0.298965 0.166106 
0.298965 -8.2535 0.610176 
0.166106 0.610176 -9.29875 
-9.40826 -0.0389012 -0.269271 
-0.0389012 -8.77937 0.487405 
-0.269271 0.487405 -9.0584 
-9.44687 0.00448629 0.074946 
0.00448629 -9.24495 0.0117765 
0.074946 0.0117765 -10.0057 
-9.55911 0.108439 0.0800194 
0.108439 -9.33513 0.0296411 
0.0800194 0.0296411 -9.80325 
-9.52161 0.0775022 0.100041 
0.0775022 -9.34905 0.0300004 
0.100041 0.0300004 -9.82682 
-9.46659 0.0670656 0.219382 
0.0670656 -9.4562 0.0823497 
0.219382 0.0823497 -9.77469 
-9.4118 -0.277522 0.458942 
-0.277522 -9.40014 -0.236842 
0.458942 -0.236842 -9.52783 
-9.33319 -0.211185 0.446252 
-0.211185 -9.20854 -0.448338 
0.446252 -0.448338 -9.79804 
-9.4866 -0.208711 0.672969 
-0.208711 -9.76531 -0.262877 
0.672969 -0.262877 -9.08787 
-9.53623 -0.29591 0.408985 
-0.29591 -9.18451 -0.136693 
0.408985 -0.136693 -9.61903 
-9.18926 -0.265612 0.483028 
-0.265612 -8.97173 0.76184 
0.483028 0.76184 -8.76036 
-9.13347 -0.117408 0.437901 
-0.117408 -9.21378 0.676354 
0.437901 0.676354 -8.57411 
-9.01499 0.23145 0.219576 
0.23145 -8.99456 0.48302 
0.219576 0.48302 -8.91181 
-9.06496 -0.178797 0.412497 
-0.178797 -9.22991 0.696599 
0.412497 0.696599 -8.62648 
-10.3904 0.190662 -0.0250818 
0.190662 -8.52147 1.62548 
-0.0250818 1.62548 -11.1053 
-9.89168 1.38382 -0.161911 
1.38382 -9.72952 0.694782 
-0.161911 0.694782 -10.396 
-10.521 -0.0591223 0.33809 
-0.0591223 -8.1763 0.909725 
0.33809 0.909725 -11.3199 
-10.2658 -0.172081 0.084192 
-0.172081 -8.31943 1.57971 
0.084192 1.57971 -11.4319 
-9.59143 -0.128067 -0.110236 
-0.128067 -9.68354 0.590048 
-0.110236 0.590048 -9.21423 
-9.57981 -0.00819381 -0.100066 
-0.00819381 -9.51462 0.604456 
-0.100066 0.604456 -9.39478 
-9.62154 -0.0428271 -0.0832561 
-0.0428271 -9.70513 0.550149 
-0.0832561 0.550149 -9.16253 
-9.64972 0.010381 -0.258198 
0.010381 -9.69668 0.51357 
-0.258198 0.51357 -9.1428 
-9.44281 -0.161412 -0.553458 
-0.161412 -9.5229 -0.251642 
-0.553458 -0.251642 -9.5889 
-9.42173 0.000401297 -0.520873 
0.000401297 -9.47109 -0.155471 
-0.520873 -0.155471 -9.6618 
-9.37567 -0.0411871 -0.526934 
-0.0411871 -9.67389 -0.0572497 
-0.526934 -0.0572497 -9.50506 
-9.49717 -0.0653652 -0.544581 
-0.0653652 -9.58483 -0.0829149 
-0.544581 -0.0829149 -9.47261 
-9.8974 1.11892 -0.954107 
1.11892 -7.53316 -2.48336 
-0.954107 -2.48336 -10.7435 
-10.1641 1.12435 -0.948727 
1.12435 -7.09976 -1.67824 
-0.948727 -1.67824 -10.9102 
-9.90267 0.933326 -1.08814 
0.933326 -7.18845 -2.9433 
-1.08814 -2.9433 -11.083 
-8.73477 0.391005 -0.660429 
0.391005 -10.2353 -2.54808 
-0.660429 -2.54808 -9.20396 
-9.63775 0.0317291 -0.436141 
0.0317291 -9.61858 0.133974 
-0.436141 0.133974 -9.8452 
-9.64982 0.00937552 -0.4571 
0.00937552 -9.61876 0.164258 
-0.4571 0.164258 -9.83296 
-9.62028 -0.0382524 -0.404176 
-0.0382524 -9.66539 0.12447 
-0.404176 0.12447 -9.81586 
-9.6984 0.0106854 -0.463019 
0.0106854 -9.61212 0.148276 
-0.463019 0.148276 -9.79101 
-9.41602 -0.138805 -0.110341 
-0.138805 -9.63161 -0.00648875 
-0.110341 -0.00648875 -9.86675 
-9.41291 -0.0929075 -0.163644 
-0.0929075 -9.66264 0.00423846 
-0.163644 0.00423846 -9.83883 
-9.53869 -0.255148 -0.104392 
-0.255148 -9.64851 -0.0628718 
-0.104392 -0.0628718 -9.72718 
-9.41236 -0.202582 -0.0981872 
-0.202582 -9.68047 0.0195044 
-0.0981872 0.0195044 -9.82155 
-9.91357 0.0243272 -0.340799 
0.0243272 -9.88365 -0.485004 
-0.340799 -0.485004 -9.85413 
-9.89444 0.0267162 -0.351673 
0.0267162 -9.90699 -0.51376 
-0.351673 -0.51376 -9.84993 
-9.8402 -0.0708266 -0.296193 
-0.0708266 -9.86785 -0.466432 
-0.296193 -0.466432 -9.94332 
-9.9207 -0.0395156 -0.338094 
-0.0395156 -9.9349 -0.510181 
-0.338094 -0.510181 -9.79576 
-9.39275 -0.135083 0.0636306 
-0.135083 -9.74843 0.270594 
0.0636306 0.270594 -9.27399 
-9.49219 -0.0840845 0.0815041 
-0.0840845 -9.46077 -0.0875797 
0.0815041 -0.0875797 -9.4622 
-9.48157 -0.0315867 0.0725205 
-0.0315867 -9.71692 0.132493 
0.0725205 0.132493 -9.21668 
-9.46547 0.0628977 -0.0958729 
0.0628977 -9.76354 -0.106771 
-0.0958729 -0.106771 -9.18615 
-9.80238 0.0260076 -0.258044 
0.0260076 -9.87432 0.30726 
-0.258044 0.30726 -9.45401 
-9.72961 -0.0195308 -0.284394 
-0.0195308 -9.75628 0.267513 
-0.284394 0.267513 -9.64483 
-9.68815 0.0171129 -0.257499 
0.0171129 -9.75799 0.335517 
-0.257499 0.335517 -9.68457 
-9.76779 -0.0144547 -0.282517 
-0.0144547 -9.73564 0.265365 
-0.282517 0.265365 -9.62729 
-10.4672 0.258356 0.652856 
0.258356 -10.6757 -0.556242 
0.652856 -0.556242 -13.1179 
-10.8164 0.325015 -0.150693 
0.325015 -13.8132 -0.170405 
-0.150693 -0.170405 -9.63111 
-11.3836 0.472942 0.111102 
0.472942 -11.257 0.223833 
0.111102 0.223833 -11.6202 
-10.9751 0.0588595 -0.116319 
0.0588595 -11.1774 0.946595 
-0.116319 0.946595 -12.1082 
-8.812 -1.61211 0.851997 
-1.61211 -9.65463 -1.282 
0.851997 -1.282 -11.3206 
-9.52967 -0.71289 2.37057 
-0.71289 -8.68806 -2.11553 
2.37057 -2.11553 -11.5695 
-10.4555 0.39033 1.32531 
0.39033 -8.64679 -0.879293 
1.32531 -0.879293 -10.6849 
-8.78341 -0.784977 0.77988 
-0.784977 -9.45241 -2.05415 
0.77988 -2.05415 -11.5514 
-9.59311 -0.2155 0.30846 
-0.2155 -9.32444 -0.248474 
0.30846 -0.248474 -9.80712 
-9.64574 -0.351478 0.249558 
-0.351478 -8.88526 -0.303891 
0.249558 -0.303891 -10.1937 
-9.44735 -0.30919 0.259069 
-0.30919 -9.47513 -0.295518 
0.259069 -0.295518 -9.80219 
-9.75328 -0.191947 0.588171 
-0.191947 -9.21329 -0.0915771 
0.588171 -0.0915771 -9.7581 
-10.499 0.105176 -0.0339841 
0.105176 -10.6392 -0.245592 
-0.0339841 -0.245592 -12.2792 
-12.0412 0.579851 -0.260518 
0.579851 -10.7822 -0.343293 
-0.260518 -0.343293 -10.5939 
-10.6102 -0.0962409 -0.00245059 
-0.0962409 -9.1767 -0.804717 
-0.00245059 -0.804717 -13.6304 
-11.6998 0.119374 0.886795 
0.119374 -10.0361 0.109667 
0.886795 0.109667 -11.6814 
-9.20355 0.0173667 0.338129 
0.0173667 -9.32027 -0.245619 
0.338129 -0.245619 -8.82727 
-9.23429 0.0151047 0.214335 
0.0151047 -9.50498 -0.141521 
0.214335 -0.141521 -8.61182 
-9.3283 -0.265004 0.210842 
-0.265004 -9.17123 0.116072 
0.210842 0.116072 -8.85157 
-9.27073 -0.00505671 0.289563 
-0.00505671 -9.42106 -0.111101 
0.289563 -0.111101 -8.6593 
-9.68995 -0.198984 -0.121725 
-0.198984 -9.00203 0.145187 
-0.121725 0.145187 -10.39 
-9.04186 -0.135312 0.0305577 
-0.135312 -9.41591 0.198395 
0.0305577 0.198395 -10.6242 
-9.45277 0.056962 0.131726 
0.056962 -8.91201 0.363468 
0.131726 0.363468 -10.7172 
-9.72066 -0.027969 0.300249 
-0.027969 -8.73658 -0.0226155 
0.300249 -0.0226155 -10.6247 
-9.78117 0.359513 0.00243809 
0.359513 -8.75816 -0.426633 
0.00243809 -0.426633 -10.3125 
-9.76311 0.239903 0.0301187 
0.239903 -8.79196 -0.0245585 
0.0301187 -0.0245585 -10.2968 
-9.51513 0.277773 -0.107551 
0.277773 -8.89802 -0.484486 
-0.107551 -0.484486 -10.4387 
-9.38598 0.537637 0.410425 
0.537637 -8.52761 -0.0894992 
0.410425 -0.0894992 -10.9383 
-8.76008 -0.218556 0.622684 
-0.218556 -8.86658 -0.12105 
0.622684 -0.12105 -9.49932 
-9.28367 -0.112085 0.821585 
-0.112085 -9.58651 -0.518053 
0.821585 -0.518053 -8.25581 
-9.09741 -0.441266 0.857057 
-0.441266 -9.25474 0.0199161 
0.857057 0.0199161 -8.77384 
-9.32729 -0.184232 0.833455 
-0.184232 -9.31438 0.124272 
0.833455 0.124272 -8.48432 
-7.18752 0.560277 1.39006 
0.560277 -7.74593 -0.706711 
1.39006 -0.706711 3.29365 
-4.63026 0.191186 1.11106 
0.191186 -5.07137 -0.583119 
1.11106 -0.583119 -1.93817 
-4.45653 -0.113443 0.721184 
-0.113443 -4.02908 0.0793341 
0.721184 0.0793341 -3.15419 
-4.32024 0.391817 1.53329 
0.391817 -4.24278 -1.76582 
1.53329 -1.76582 -3.07678 
-9.74854 0.00861821 -0.30878 
0.00861821 -9.54247 -0.00325132 
-0.30878 -0.00325132 -9.65309 
-9.73955 -0.0145581 -0.330827 
-0.0145581 -9.51548 -0.0410878 
-0.330827 -0.0410878 -9.68907 
-9.71184 -0.0162393 -0.330421 
-0.0162393 -9.55093 -0.00294423 
-0.330421 -0.00294423 -9.68132 
-9.73911 0.0349379 -0.32612 
0.0349379 -9.55135 -0.00771762 
-0.32612 -0.00771762 -9.65363 
-9.59311 -0.0192292 -0.0295803 
-0.0192292 -9.50882 0.20996 
-0.0295803 0.20996 -9.65531 
-9.6802 -0.0879465 0.0978386 
-0.0879465 -9.56927 -0.0979827 
0.0978386 -0.0979827 -9.50777 
-9.50328 -0.123053 0.0931825 
-0.123053 -9.68117 0.0237064 
0.0931825 0.0237064 -9.57279 
-9.51094 -0.114257 0.110779 
-0.114257 -9.71167 -0.00521049 
0.110779 -0.00521049 -9.53463 
-9.75973 -0.0260822 0.100572 
-0.0260822 -9.84211 -0.0234047 
0.100572 -0.0234047 -10.0981 
-9.67167 -0.0809729 -0.102384 
-0.0809729 -9.88882 -0.0818297 
-0.102384 -0.0818297 -10.1394 
-9.07501 0.285266 0.107294 
0.285266 -10.1372 -0.187373 
0.107294 -0.187373 -10.4877 
-9.76957 0.031999 -0.0991515 
0.031999 -9.73029 0.000226582 
-0.0991515 0.000226582 -10.2 
-8.99317 -0.0889016 0.501183 
-0.0889016 -9.2384 -0.541069 
0.501183 -0.541069 -9.08139 
-8.88846 0.0724082 0.510243 
0.0724082 -9.47597 -0.569863 
0.510243 -0.569863 -8.94854 
-8.93418 -0.109847 0.545508 
-0.109847 -9.2383 -0.574404 
0.545508 -0.574404 -9.14049 
-8.9374 -0.116619 0.434558 
-0.116619 -9.31918 -0.431348 
0.434558 -0.431348 -9.05638 
-9.78954 0.076205 0.360181 
0.076205 -9.54021 0.105499 
0.360181 0.105499 -9.80673 
-9.72426 0.105504 0.380261 
0.105504 -9.66977 -0.00826892 
0.380261 -0.00826892 -9.74245 
-9.72331 0.0494969 0.339366 
0.0494969 -9.67085 -0.00590346 
0.339366 -0.00590346 -9.74233 
-9.66948 0.0243651 0.355837 
0.0243651 -9.55299 -0.0578686 
0.355837 -0.0578686 -9.91402 
-9.90041 -0.000192283 0.111503 
-0.000192283 -9.87331 -0.0398009 
0.111503 -0.0398009 -10.0242 
-9.92811 -0.000209794 0.126599 
-0.000209794 -9.90894 0.00494649 
0.126599 0.00494649 -9.96085 
-9.92232 0.00315673 0.119168 
0.00315673 -9.91855 0.00811572 
0.119168 0.00811572 -9.95702 
-9.94333 0.0148469 0.12821 
0.0148469 -9.88034 0.0276256 
0.12821 0.0276256 -9.97423 
-9.67162 -0.0347801 -0.0500715 
-0.0347801 -9.71088 0.19246 
-0.0500715 0.19246 -9.25396 
-9.57189 0.123798 0.0664899 
0.123798 -9.75417 -0.0477903 
0.0664899 -0.0477903 -9.31041 
-9.34862 0.036231 0.171972 
0.036231 -9.55931 0.163011 
0.171972 0.163011 -9.72853 
-9.45177 -0.176607 0.0717565 
-0.176607 -9.69134 0.0849253 
0.0717565 0.0849253 -9.49335 
-9.06014 0.0164136 -0.0410354 
0.0164136 -9.81644 0.15802 
-0.0410354 0.15802 -9.70613 
-9.09975 -0.0484346 -0.234524 
-0.0484346 -9.78637 0.120152 
-0.234524 0.120152 -9.69658 
-9.10746 0.0149026 -0.284577 
0.0149026 -9.78419 0.218415 
-0.284577 0.218415 -9.69105 
-8.9814 0.0321315 -0.0747849 
0.0321315 -9.73136 0.174875 
-0.0747849 0.174875 -9.86994 
-10.964 0.732337 -0.0186151 
0.732337 -10.3045 -0.13415 
-0.0186151 -0.13415 -13.4041 
-11.375 0.778113 0.160078 
0.778113 -9.49181 0.660669 
0.160078 0.660669 -13.8057 
-13.6726 1.30117 0.742015 
1.30117 -5.33675 -0.0534838 
0.742015 -0.0534838 -15.6632 
-11.762 0.154821 -0.206002 
0.154821 -9.44419 1.01776 
-0.206002 1.01776 -13.4663 
-9.25611 0.092855 0.500941 
0.092855 -9.49596 -0.446029 
0.500941 -0.446029 -9.17893 
-8.98912 0.22578 0.487786 
0.22578 -10.0043 -0.213347 
0.487786 -0.213347 -8.93762 
-9.57543 -0.272089 0.2058 
-0.272089 -8.99518 -0.1323 
0.2058 -0.1323 -9.36038 
-9.56514 -0.0755477 0.749073 
-0.0755477 -9.63088 -0.140753 
0.749073 -0.140753 -8.73498 
-8.82966 -0.386373 0.916697 
-0.386373 -8.91899 -0.77905 
0.916697 -0.77905 -7.6817 
-8.28267 -0.25835 0.951591 
-0.25835 -8.56855 -0.698992 
0.951591 -0.698992 -8.57913 
-8.12916 -0.362265 0.0736184 
-0.362265 -8.47194 -0.969875 
0.0736184 -0.969875 -8.82925 
-8.43413 -0.276434 0.7881 
-0.276434 -8.53552 -0.734116 
0.7881 -0.734116 -8.4607 
-9.39983 -0.138399 -0.0694888 
-0.138399 -9.40596 0.51689 
-0.0694888 0.51689 -9.28466 
-9.51538 0.14863 -0.129325 
0.14863 -9.42424 0.587423 
-0.129325 0.587423 -9.15083 
-9.3952 0.045091 -0.0906555 
0.045091 -9.5869 0.769344 
-0.0906555 0.769344 -9.10835 
-9.48776 -0.0480617 -0.0629906 
-0.0480617 -9.54351 0.740954 
-0.0629906 0.740954 -9.05917 
-8.9711 0.297354 0.956385 
0.297354 -9.11491 0.262746 
0.956385 0.262746 -9.75835 
-9.10499 0.0248376 1.04179 
0.0248376 -9.06588 -0.0183725 
1.04179 -0.0183725 -9.67348 
-8.45612 0.187746 0.918508 
0.187746 -10.0565 0.380069 
0.918508 0.380069 -9.33176 
-8.99255 0.140367 0.975334 
0.140367 -9.1311 0.25117 
0.975334 0.25117 -9.7207 
-9.27078 0.187269 0.72219 
0.187269 -9.52242 0.220509 
0.72219 0.220509 -9.26656 
-9.3833 0.0176327 0.206084 
0.0176327 -9.27519 0.290625 
0.206084 0.290625 -9.40128 
-9.14369 -0.0954209 -0.0785669 
-0.0954209 -9.1262 -0.314123 
-0.0785669 -0.314123 -9.78988 
-9.55007 0.0897889 -0.0963923 
0.0897889 -9.20879 0.205035 
-0.0963923 0.205035 -9.30091 
-9.39832 -0.0705807 0.0753583 
-0.0705807 -9.41642 -0.588425 
0.0753583 -0.588425 -9.24271 
-9.3819 0.0445036 0.101346 
0.0445036 -9.54598 -0.640159 
0.101346 -0.640159 -9.12957 
-9.31925 0.0225491 0.0992715 
0.0225491 -9.53839 -0.683519 
0.0992715 -0.683519 -9.19982 
-9.40852 0.00670601 0.0526819 
0.00670601 -9.61586 -0.59595 
0.0526819 -0.59595 -9.03307 
-8.95424 -0.175644 0.28283 
-0.175644 -9.33485 0.270716 
0.28283 0.270716 -8.79333 
-8.90282 -0.0720984 0.510419 
-0.0720984 -9.24068 0.369876 
0.510419 0.369876 -8.93892 
-8.84108 -0.139859 0.312139 
-0.139859 -9.38804 0.478413 
0.312139 0.478413 -8.85331 
-9.1319 -0.105391 0.341666 
-0.105391 -8.92692 0.326117 
0.341666 0.326117 -9.0236 
-8.18766 -1.5746 -0.903496 
-1.5746 -10.9905 -1.17503 
-0.903496 -1.17503 -13.9112 
-8.59098 -1.63365 -0.344302 
-1.63365 -10.873 -0.905184 
-0.344302 -0.905184 -13.6254 
-7.95359 -1.00109 -0.815767 
-1.00109 -10.8895 0.921945 
-0.815767 0.921945 -14.2463 
-9.11385 -0.432521 -0.975974 
-0.432521 -10.4334 0.293716 
-0.975974 0.293716 -13.5422 
-9.45365 -0.076456 -0.0206344 
-0.076456 -9.61757 -0.73239 
-0.0206344 -0.73239 -9.73163 
-9.77048 -0.12092 -0.308383 
-0.12092 -9.76716 -0.686285 
-0.308383 -0.686285 -9.26521 
-9.6978 0.0482676 -0.19673 
0.0482676 -9.61661 -0.480256 
-0.19673 -0.480256 -9.48845 
-9.44538 0.0644302 -0.0936443 
0.0644302 -9.69151 -0.503248 
-0.0936443 -0.503248 -9.66596 
-12.8027 -0.798435 -0.0246703 
-0.798435 -14.7859 -2.70814 
-0.0246703 -2.70814 -8.21865 
-10.3602 -0.560185 0.249468 
-0.560185 -10.1317 0.903437 
0.249468 0.903437 -15.3153 
-10.1988 -2.16518 0.651712 
-2.16518 -9.79377 0.123655 
0.651712 0.123655 -15.8147 
-10.9141 -0.764257 -0.637615 
-0.764257 -9.30563 -2.02375 
-0.637615 -2.02375 -15.5875 
-9.73046 -0.0707664 -0.16985 
-0.0707664 -9.89885 0.223143 
-0.16985 0.223143 -9.96989 
-9.89435 -0.0223006 -0.20663 
-0.0223006 -9.9372 0.14555 
-0.20663 0.14555 -9.76766 
-9.92399 0.0190055 -0.232069 
0.0190055 -9.84107 0.175612 
-0.232069 0.175612 -9.83414 
-9.92121 0.0420094 -0.218141 
0.0420094 -9.82726 0.139468 
-0.218141 0.139468 -9.85073 
-10.3254 0.134864 -0.0357519 
0.134864 -11.309 0.36009 
-0.0357519 0.36009 -13.6303 
-12.9523 0.543232 0.115706 
0.543232 -9.55714 0.200849 
0.115706 0.200849 -12.7553 
-11.2917 -0.968366 -0.123985 
-0.968366 -11.1377 0.7531 
-0.123985 0.7531 -12.8354 
-11.5976 -0.228125 -0.361208 
-0.228125 -11.2525 1.02529 
-0.361208 1.02529 -12.4147 
-8.63889 -0.223629 0.219442 
-0.223629 -9.14885 0.506468 
0.219442 0.506468 -8.32044 
-8.47563 0.0374138 0.168429 
0.0374138 -9.27969 1.15627 
0.168429 1.15627 -8.35286 
-9.10968 -0.364469 1.06402 
-0.364469 -8.74752 1.67823 
1.06402 1.67823 -8.25098 
-9.45799 -0.150761 0.486257 
-0.150761 -8.79459 1.36831 
0.486257 1.36831 -7.85559 
-9.18009 -0.387065 -0.550362 
-0.387065 -9.60987 0.283349 
-0.550362 0.283349 -9.43002 
-9.21126 0.090095 -0.267271 
0.090095 -9.68592 0.213249 
-0.267271 0.213249 -9.3228 
-9.2243 0.192744 -0.0965645 
0.192744 -9.61891 0.282731 
-0.0965645 0.282731 -9.37678 
-8.94965 -0.0209758 -0.390412 
-0.0209758 -9.60519 0.119805 
-0.390412 0.119805 -9.66515 
-9.54766 0.0943715 0.27623 
0.0943715 -9.26583 0.225872 
0.27623 0.225872 -9.82512 
-9.52775 0.120573 0.365383 
0.120573 -9.14859 0.228395 
0.365383 0.228395 -9.96226 
-9.56624 0.0205655 0.105056 
0.0205655 -9.33515 0.0161006 
0.105056 0.0161006 -9.73722 
-9.66658 0.04012 0.224195 
0.04012 -9.26422 0.357503 
0.224195 0.357503 -9.70779 
-9.00023 0.0569806 0.00590888 
0.0569806 -9.55662 -0.132747 
0.00590888 -0.132747 -9.08206 
-8.73088 0.00767488 -0.0688266 
0.00767488 -9.54729 -0.391913 
-0.0688266 -0.391913 -9.36075 
-8.94897 -0.0722527 -0.228903 
-0.0722527 -9.0651 0.0609592 
-0.228903 0.0609592 -9.62484 
-8.84579 -0.191017 -0.341888 
-0.191017 -9.31672 -0.0702346 
-0.341888 -0.0702346 -9.4764 
-9.77733 -0.0241546 0.0531644 
-0.0241546 -9.69107 0.0438535 
0.0531644 0.0438535 -9.7071 
-9.80313 0.037559 0.0670376 
0.037559 -9.64649 -0.067438 
0.0670376 -0.067438 -9.72588 
-9.73406 -0.109486 0.063618 
-0.109486 -9.70955 0.0862616 
0.063618 0.0862616 -9.73189 
-9.67719 -0.0156525 0.0117959 
-0.0156525 -9.76185 -0.0189993 
0.0117959 -0.0189993 -9.73645 
-9.96604 0.443254 0.0275965 
0.443254 -7.55619 -0.444812 
0.0275965 -0.444812 -11.4828 
-10.1276 0.255223 -0.130016 
0.255223 -8.16515 0.0548545 
-0.130016 0.0548545 -10.7123 
-10.319 -0.273758 0.405019 
-0.273758 -8.78327 -0.206907 
0.405019 -0.206907 -9.90271 
-9.35342 0.48777 0.575546 
0.48777 -7.9037 0.375956 
0.575546 0.375956 -11.7479 
-6.92195 -0.331875 1.46748 
-0.331875 -7.53331 -0.00335582 
1.46748 -0.00335582 -10.2278 
-8.97333 -1.98544 1.32487 
-1.98544 -7.87635 -4.78515 
1.32487 -4.78515 -7.83343 
-7.94823 -0.633303 1.68039 
-0.633303 -10.1617 -1.72997 
1.68039 -1.72997 -6.57321 
-8.39467 0.0460988 1.07571 
0.0460988 -9.24422 -2.13429 
1.07571 -2.13429 -7.04421 
-8.5296 0.353793 -0.236378 
0.353793 -8.94058 -0.37505 
-0.236378 -0.37505 -10.8906 
-8.49946 0.373739 -0.212447 
0.373739 -9.22533 -0.354331 
-0.212447 -0.354331 -10.636 
-8.54074 0.470901 -0.350676 
0.470901 -9.16597 -0.362328 
-0.350676 -0.362328 -10.6541 
-8.65377 0.626006 -0.610754 
0.626006 -9.11886 -0.798168 
-0.610754 -0.798168 -10.5881 
-8.92285 -0.199691 -0.180072 
-0.199691 -8.86184 -1.05913 
-0.180072 -1.05913 -8.71348 
-8.89857 0.139104 -0.154417 
0.139104 -8.87699 -1.0914 
-0.154417 -1.0914 -8.72261 
-8.56531 0.158578 -0.398047 
0.158578 -9.54645 -1.11727 
-0.398047 -1.11727 -8.38641 
-9.54137 0.49684 -0.0553973 
0.49684 -8.56165 -1.26277 
-0.0553973 -1.26277 -8.39516 
-9.57116 -0.0951763 -0.18199 
-0.0951763 -9.59769 0.0438655 
-0.18199 0.0438655 -9.88867 
-9.5116 -0.130105 -0.267501 
-0.130105 -9.73337 0.0232426 
-0.267501 0.0232426 -9.81255 
-9.44417 -0.0626318 -0.141191 
-0.0626318 -9.54868 0.0568542 
-0.141191 0.0568542 -10.0647 
-9.53864 -0.0244186 -0.190023 
-0.0244186 -9.61099 0.0638489 
-0.190023 0.0638489 -9.90788 
-9.43119 0.00140674 0.0978606 
0.00140674 -9.60033 0.603944 
0.0978606 0.603944 -9.49796 
-9.40493 0.0416415 0.0976091 
0.0416415 -9.71237 0.602755 
0.0976091 0.602755 -9.41219 
-9.48391 0.00265027 0.166259 
0.00265027 -9.65312 0.619154 
0.166259 0.619154 -9.39246 
-9.61988 -0.0619288 0.0389939 
-0.0619288 -9.41498 0.400841 
0.0389939 0.400841 -9.49463 
-9.51118 0.0215953 0.497021 
0.0215953 -9.7442 -0.0619489 
0.497021 -0.0619489 -9.53453 
-9.52427 -0.0832746 0.420399 
-0.0832746 -9.42856 -0.155744 
0.420399 -0.155744 -9.83708 
-9.64514 0.0685078 0.475634 
0.0685078 -9.39432 -0.167363 
0.475634 -0.167363 -9.75045 
-9.57132 -0.183886 0.15911 
-0.183886 -9.64727 -0.130657 
0.15911 -0.130657 -9.57132 
-9.86752 -0.017815 0.158738 
-0.017815 -9.68343 -0.0643474 
0.158738 -0.0643474 -9.91225 
-9.84279 0.00616843 0.198773 
0.00616843 -9.81126 -0.0199063 
0.198773 -0.0199063 -9.80915 
-9.7811 0.00122106 0.189491 
0.00122106 -9.85351 -0.0571963 
0.189491 -0.0571963 -9.82858 
-9.83177 -0.00599549 0.166738 
-0.00599549 -9.80424 -0.0406283 
0.166738 -0.0406283 -9.8272 
-9.71002 -0.0358967 0.6662 
-0.0358967 -9.61859 -0.0805262 
0.6662 -0.0805262 -9.63999 
-9.88714 -0.0362241 0.625299 
-0.0362241 -9.47327 -0.17242 
0.625299 -0.17242 -9.60819 
-9.82003 -0.00480636 0.602284 
-0.00480636 -9.50654 -0.116709 
0.602284 -0.116709 -9.64203 
-9.90629 0.0262846 0.54822 
0.0262846 -9.42265 -0.0854878 
0.54822 -0.0854878 -9.63966 
-9.62936 0.0236746 -0.388106 
0.0236746 -9.66364 0.116987 
-0.388106 0.116987 -9.81505 
-9.70574 0.0257178 -0.450218 
0.0257178 -9.64568 0.101763 
-0.450218 0.101763 -9.75664 
-9.6455 0.0188125 -0.396855 
0.0188125 -9.60487 0.152807 
-0.396855 0.152807 -9.85768 
-9.73268 0.0698996 -0.436331 
0.0698996 -9.62034 0.133462 
-0.436331 0.133462 -9.75503 
-9.01965 -0.054698 -0.156249 
-0.054698 -8.80356 0.617338 
-0.156249 0.617338 -7.07021 
-9.0342 0.0395644 -0.0332382 
0.0395644 -8.85756 0.64242 
-0.0332382 0.64242 -7.00167 
-8.88587 -0.0860683 0.525137 
-0.0860683 -8.74853 0.776665 
0.525137 0.776665 -7.25903 
-8.77071 -0.147203 -0.348468 
-0.147203 -9.25528 0.844464 
-0.348468 0.844464 -6.86743 
-9.74349 -0.0129778 0.268957 
-0.0129778 -9.82129 0.574438 
0.268957 0.574438 -9.7776 
-9.70986 -0.0416184 0.25169 
-0.0416184 -9.77966 0.466434 
0.25169 0.466434 -9.85288 
-9.81254 0.0150228 0.255907 
0.0150228 -9.78853 0.576718 
0.255907 0.576718 -9.74132 
-9.83067 -0.00294921 0.256077 
-0.00294921 -9.85994 0.590196 
0.256077 0.590196 -9.65179 
-9.86393 0.0147904 0.0827444 
0.0147904 -9.86682 -0.0602837 
0.0827444 -0.0602837 -10.0433 
-9.92124 -0.00109467 0.0629944 
-0.00109467 -9.91993 -0.033375 
0.0629944 -0.033375 -9.93284 
-9.90001 0.00510792 0.0578167 
0.00510792 -9.92874 -0.0299405 
0.0578167 -0.0299405 -9.94526 
-9.94423 0.000721674 0.0522676 
0.000721674 -9.92203 -0.00743487 
0.0522676 -0.00743487 -9.90774 
-9.94875 0.0405811 0.418896 
0.0405811 -9.69876 0.0145308 
0.418896 0.0145308 -9.96336 
-9.88076 -0.0173808 0.424932 
-0.0173808 -9.91021 0.0181977 
0.424932 0.0181977 -9.81991 
-9.82285 -0.0440615 0.442147 
-0.0440615 -9.95766 0.0688194 
0.442147 0.0688194 -9.83037 
-9.88097 -0.0445333 0.453159 
-0.0445333 -9.90887 0.00190764 
0.453159 0.00190764 -9.82104 
-9.30695 0.181772 -0.888293 
0.181772 -9.50301 -0.361256 
-0.888293 -0.361256 -10.1098 
-9.28379 -0.342821 -0.548158 
-0.342821 -9.63879 -0.0081388 
-0.548158 -0.0081388 -9.99721 
-9.31511 0.114155 -0.533623 
0.114155 -9.39493 -0.184419 
-0.533623 -0.184419 -10.2097 
-9.23894 0.269992 -0.445811 
0.269992 -9.35775 -0.0396409 
-0.445811 -0.0396409 -10.3231 
-9.88088 -0.220014 0.978603 
-0.220014 -8.80367 -0.0232247 
0.978603 -0.0232247 -9.90868 
-8.98928 -0.446646 0.0345707 
-0.446646 -9.7987 0.295705 
0.0345707 0.295705 -9.80525 
-9.37148 -0.248379 -0.226688 
-0.248379 -9.20483 0.282405 
-0.226688 0.282405 -10.0169 
-8.71156 -0.48633 0.0256057 
-0.48633 -9.63775 0.0760438 
0.0256057 0.0760438 -10.2439 
-9.95868 0.0137261 0.356889 
0.0137261 -9.93051 -0.267052 
0.356889 -0.267052 -9.98057 
-9.90747 0.0148534 0.37549 
0.0148534 -9.93195 -0.267566 
0.37549 -0.267566 -10.0303 
-9.96319 -0.0135904 0.371131 
-0.0135904 -9.97944 -0.263488 
0.371131 -0.263488 -9.92714 
-9.95367 0.0125353 0.359166 
0.0125353 -9.97676 -0.232524 
0.359166 -0.232524 -9.93934 
-10.6292 0.42668 -0.530527 
0.42668 -8.15519 2.60752 
-0.530527 2.60752 -9.87922 
-11.0736 0.984795 -0.621988 
0.984795 -7.54508 1.63617 
-0.621988 1.63617 -10.0449 
-11.3438 0.879849 -1.10982 
0.879849 -8.54282 1.53156 
-1.10982 1.53156 -8.77703 
-10.772 1.07678 0.447237 
1.07678 -6.50567 0.882711 
0.447237 0.882711 -11.386 
-9.79437 -0.0313537 -0.478808 
-0.0313537 -9.75189 -0.210647 
-0.478808 -0.210647 -9.84501 
-9.80139 -0.00912749 -0.489234 
-0.00912749 -9.80701 -0.293692 
-0.489234 -0.293692 -9.78286 
-9.76348 -0.0652132 -0.51934 
-0.0652132 -9.77289 -0.288304 
-0.51934 -0.288304 -9.8549 
-9.80799 -0.0185302 -0.513501 
-0.0185302 -9.77268 -0.299988 
-0.513501 -0.299988 -9.81059 
-9.142 0.0483557 -0.739618 
0.0483557 -8.85724 -0.887258 
-0.739618 -0.887258 -7.93566 
-9.39799 -0.216695 -0.0313564 
-0.216695 -9.33338 -1.01277 
-0.0313564 -1.01277 -7.20353 
-9.02292 -0.108978 -0.741807 
-0.108978 -8.93549 -0.755816 
-0.741807 -0.755816 -7.97649 
-8.73331 0.104685 -0.766932 
0.104685 -8.84227 -0.138459 
-0.766932 -0.138459 -8.35932 
-9.03798 0.0702024 -0.161985 
0.0702024 -9.97529 -0.177646 
-0.161985 -0.177646 -10.3978 
-9.02963 -0.0510081 -0.488251 
-0.0510081 -9.82716 -0.172693 
-0.488251 -0.172693 -10.5543 
-9.78839 -0.34211 -0.356798 
-0.34211 -9.74405 0.702074 
-0.356798 0.702074 -9.87864 
-8.79162 -0.205433 -0.475041 
-0.205433 -10.1085 0.0426626 
-0.475041 0.0426626 -10.511 
-9.17246 0.535664 -0.121196 
0.535664 -9.37371 -0.125453 
-0.121196 -0.125453 -10.436 
-9.70676 0.23679 -0.433904 
0.23679 -8.91316 -0.563459 
-0.433904 -0.563459 -10.3622 
-10.2283 0.182525 0.0299447 
0.182525 -8.51759 -0.55541 
0.0299447 -0.55541 -10.2362 
-9.91079 0.231938 0.124383 
0.231938 -9.20487 -1.00887 
0.124383 -1.00887 -9.86649 
-8.75547 0.018484 0.843385 
0.018484 -9.01643 0.0218217 
0.843385 0.0218217 -8.03999 
-8.79374 -0.20194 1.36815 
-0.20194 -8.94892 0.124319 
1.36815 0.124319 -8.06923 
-8.73029 -0.407362 1.34612 
-0.407362 -9.17324 -0.227971 
1.34612 -0.227971 -7.90836 
-7.88617 0.17815 1.32243 
0.17815 -10.4007 0.36748 
1.32243 0.36748 -7.52505 
-9.98957 -0.0101548 0.349041 
-0.0101548 -10.0037 -0.332429 
0.349041 -0.332429 -9.86484 
-9.92084 0.0252803 0.35032 
0.0252803 -9.9682 -0.302929 
0.35032 -0.302929 -9.96911 
-9.87811 -0.00492333 0.368759 
-0.00492333 -9.89522 -0.321716 
0.368759 -0.321716 -10.0848 
-9.96101 -0.0361537 0.377875 
-0.0361537 -10.0058 -0.257402 
0.377875 -0.257402 -9.89138 
-9.23919 -0.0317841 0.739528 
-0.0317841 -9.55032 0.0732399 
0.739528 0.0732399 -9.10481 
-9.35216 -0.0786076 0.667231 
-0.0786076 -9.62921 0.441594 
0.667231 0.441594 -8.91296 
-9.28852 -0.161963 0.774153 
-0.161963 -9.23112 0.251353 
0.774153 0.251353 -9.37468 
-9.20197 -0.0899842 0.65433 
-0.0899842 -9.48236 0.191073 
0.65433 0.191073 -9.21 
-9.82717 -0.0723991 -0.0217047 
-0.0723991 -9.70657 -0.0401976 
-0.0217047 -0.0401976 -9.78149 
-9.72663 0.122154 -0.00129433 
0.122154 -9.76798 -0.11217 
-0.00129433 -0.11217 -9.82062 
-9.78943 -0.0385726 0.0303729 
-0.0385726 -9.70817 -0.038122 
0.0303729 -0.038122 -9.81764 
-9.8558 -0.0101062 -0.151087 
-0.0101062 -9.74403 0.0220485 
-0.151087 0.0220485 -9.7154 
-9.38123 -0.0750182 0.779364 
-0.0750182 -9.63347 1.14236 
0.779364 1.14236 -7.84562 
-8.93063 0.471762 0.123715 
0.471762 -8.05614 0.753076 
0.123715 0.753076 -9.87355 
-8.97961 -0.146294 0.989017 
-0.146294 -9.27235 0.552961 
0.989017 0.552961 -8.60836 
-9.03907 -0.106473 0.798733 
-0.106473 -9.36432 0.344977 
0.798733 0.344977 -8.45693 
-9.67261 -0.0119862 0.231998 
-0.0119862 -9.76376 -0.16077 
0.231998 -0.16077 -9.78711 
-9.80624 0.0237154 0.175196 
0.0237154 -9.68673 -0.0544902 
0.175196 -0.0544902 -9.7305 
-9.75149 -0.0227261 0.163459 
-0.0227261 -9.67981 -0.0467637 
0.163459 -0.0467637 -9.79217 
-9.86519 0.00121305 0.147094 
0.00121305 -9.83371 0.0438057 
0.147094 0.0438057 -9.52457 
-7.77184 0.646137 0.975997 
0.646137 -9.14551 0.255508 
0.975997 0.255508 -10.0607 
-7.85707 1.23283 1.47877 
1.23283 -9.47942 0.526879 
1.47877 0.526879 -9.64154 
-10.5971 0.758173 0.160463 
0.758173 -8.93295 0.460589 
0.160463 0.460589 -7.44801 
-8.0702 0.456006 1.13238 
0.456006 -9.32713 -0.0248745 
1.13238 -0.0248745 -9.58069 
-9.57482 0.0554942 -0.337574 
0.0554942 -9.62267 -0.59663 
-0.337574 -0.59663 -9.54988 
-9.38294 0.120292 -0.474144 
0.120292 -9.57732 -0.455148 
-0.474144 -0.455148 -9.78711 
-9.69905 -0.0397942 -0.515021 
-0.0397942 -9.77053 -0.590002 
-0.515021 -0.590002 -9.27779 
-9.57028 -0.0326121 -0.315895 
-0.0326121 -9.7211 -0.579753 
-0.315895 -0.579753 -9.45599 
-9.72258 -0.0161345 0.15332 
-0.0161345 -9.85424 0.195103 
0.15332 0.195103 -9.37961 
-9.77083 -0.105153 0.172038 
-0.105153 -9.65605 0.0944654 
0.172038 0.0944654 -9.52954 
-9.70962 -0.113877 0.146542 
-0.113877 -9.78739 0.196496 
0.146542 0.196496 -9.45941 
-9.6321 -0.0422917 0.16697 
-0.0422917 -9.69669 0.0487348 
0.16697 0.0487348 -9.62764 
-9.81518 -0.0113093 -0.281465 
-0.0113093 -9.88371 0.279804 
-0.281465 0.279804 -9.82344 
-9.89898 0.0304735 -0.266006 
0.0304735 -9.86756 0.200958 
-0.266006 0.200958 -9.75579 
-9.81332 0.111257 -0.296204 
0.111257 -9.79905 0.342757 
-0.296204 0.342757 -9.90996 
-9.84233 0.00576747 -0.302581 
0.00576747 -9.86808 0.306065 
-0.302581 0.306065 -9.81192 
-9.33789 0.511089 0.801455 
0.511089 -8.1711 1.25786 
0.801455 1.25786 -6.46264 
-8.72887 0.572345 0.151431 
0.572345 -8.60262 0.83357 
0.151431 0.83357 -6.64015 
-9.79883 0.0318476 1.33459 
0.0318476 -8.20723 1.64224 
1.33459 1.64224 -5.96557 
-9.27166 0.11884 0.282952 
0.11884 -8.45142 1.38806 
0.282952 1.38806 -6.24855 
-9.59783 0.0415987 0.336613 
0.0415987 -9.5028 0.554413 
0.336613 0.554413 -9.62299 
-9.53725 0.0966137 0.297144 
0.0966137 -9.49186 0.577112 
0.297144 0.577112 -9.6945 
-9.58072 -0.173235 0.38299 
-0.173235 -9.7414 0.670741 
0.38299 0.670741 -9.40149 
-9.6665 -0.0476855 0.200645 
-0.0476855 -9.69983 0.459541 
0.200645 0.459541 -9.3573 
-9.7756 -0.054569 -0.540126 
-0.054569 -9.78789 -0.167852 
-0.540126 -0.167852 -9.86901 
-9.7584 -0.0201989 -0.475565 
-0.0201989 -9.86785 -0.129707 
-0.475565 -0.129707 -9.80624 
-9.79078 -0.0470144 -0.520765 
-0.0470144 -9.82135 -0.148281 
-0.520765 -0.148281 -9.82037 
-9.76858 -0.00162272 -0.501418 
-0.00162272 -9.81429 -0.154214 
-0.501418 -0.154214 -9.84963 
-8.96543 -0.186706 -0.671415 
-0.186706 -9.50258 0.272616 
-0.671415 0.272616 -9.38995 
-9.03496 -0.0674937 -0.968087 
-0.0674937 -9.67203 0.380016 
-0.968087 0.380016 -9.15096 
-8.78205 -0.0351033 -0.815613 
-0.0351033 -9.4347 0.291147 
-0.815613 0.291147 -9.64121 
-9.17263 -0.148576 -0.552599 
-0.148576 -9.16388 0.347809 
-0.552599 0.347809 -9.52145 
-9.86471 0.00895121 -0.0431382 
0.00895121 -9.80639 -0.0772452 
-0.0431382 -0.0772452 -9.80189 
-9.79388 0.0871722 -0.00555898 
0.0871722 -9.79883 -0.033882 
-0.00555898 -0.033882 -9.88027 
-9.83195 0.244793 -0.096338 
0.244793 -9.7273 -0.0765334 
-0.096338 -0.0765334 -9.91373 
-9.82946 0.105358 0.028389 
0.105358 -9.73769 -0.061017 
0.028389 -0.061017 -9.90584 
-9.58815 -0.126572 0.185011 
-0.126572 -9.63468 -0.637944 
0.185011 -0.637944 -9.56025 
-9.58078 -0.11106 0.236984 
-0.11106 -9.55083 -0.657209 
0.236984 -0.657209 -9.65146 
-9.58905 0.117016 0.297888 
0.117016 -9.74563 -0.680648 
0.297888 -0.680648 -9.44839 
-9.72928 -0.0489543 0.215393 
-0.0489543 -9.61964 -0.5289 
0.215393 -0.5289 -9.43416 
-9.77919 0.390604 0.976197 
0.390604 -9.36234 0.306208 
0.976197 0.306208 -10.5629 
-9.73094 0.175018 0.903688 
0.175018 -9.58102 0.405866 
0.903688 0.405866 -10.3925 
-9.71176 0.704285 1.0091 
0.704285 -9.40985 0.559207 
1.0091 0.559207 -10.5828 
-9.46532 -0.0256756 0.56675 
-0.0256756 -9.32566 0.153396 
0.56675 0.153396 -10.9134 
-9.07448 -0.500598 -0.322026 
-0.500598 -8.93768 0.421502 
-0.322026 0.421502 -10.6051 
-9.25736 -0.527337 -0.342806 
-0.527337 -9.07253 0.838071 
-0.342806 0.838071 -10.2874 
-8.88659 -0.084536 0.066195 
-0.084536 -9.41913 0.134457 
0.066195 0.134457 -10.3115 
-9.3021 -0.658711 -0.219053 
-0.658711 -8.66951 0.388642 
-0.219053 0.388642 -10.6456 
-7.22887 0.589039 -0.611184 
0.589039 -7.92181 -1.08804 
-0.611184 -1.08804 -6.95854 
-8.01261 0.0651133 -0.136271 
0.0651133 -7.90497 -0.41062 
-0.136271 -0.41062 -6.19164 
-8.34238 0.248594 -0.317975 
0.248594 -8.74557 -0.153569 
-0.317975 -0.153569 -5.02127 
-8.2037 -0.335851 -0.745927 
-0.335851 -8.73989 0.319994 
-0.745927 0.319994 -5.16564 
-14.4604 -1.50036 -0.99549 
-1.50036 -13.5145 -1.0714 
-0.99549 -1.0714 -10.8451 
-12.412 0.210993 1.02997 
0.210993 -11.3236 0.490383 
1.02997 0.490383 -15.0844 
-13.3896 0.83944 0.222575 
0.83944 -10.8538 -0.156269 
0.222575 -0.156269 -14.5767 
-12.7776 0.531042 -0.406753 
0.531042 -11.8516 -0.44358 
-0.406753 -0.44358 -14.1909 
-8.41275 0.0968774 0.00553039 
0.0968774 -9.16774 -0.593192 
0.00553039 -0.593192 -9.29142 
-8.57233 -0.03305 0.114564 
-0.03305 -9.29557 -0.569002 
0.114564 -0.569002 -9.00401 
-8.83848 -0.0741612 -0.127522 
-0.0741612 -9.51341 -0.612318 
-0.127522 -0.612318 -8.52003 
-8.44689 0.0504209 0.480496 
0.0504209 -9.37964 -0.506065 
0.480496 -0.506065 -9.04538 
-9.11242 -0.179283 -0.233825 
-0.179283 -10.0135 0.0811875 
-0.233825 0.0811875 -10.1358 
-9.44378 0.0692023 -0.421932 
0.0692023 -9.76251 0.00116674 
-0.421932 0.00116674 -10.0554 
-9.02796 -0.26751 -0.181365 
-0.26751 -10.0206 0.0177197 
-0.181365 0.0177197 -10.2132 
-9.207 -0.0475692 -0.308584 
-0.0475692 -10.0202 -0.0592845 
-0.308584 -0.0592845 -10.0346 
-8.91502 0.870777 0.210439 
0.870777 -9.7423 -0.0753856 
0.210439 -0.0753856 -11.2791 
-10.8189 -1.08809 -0.867767 
-1.08809 -9.17694 -1.09371 
-0.867767 -1.09371 -9.94055 
-8.71879 0.859513 0.0353099 
0.859513 -10.1405 -0.286827 
0.0353099 -0.286827 -11.0771 
-8.70608 0.839762 -0.707824 
0.839762 -9.87412 -0.794489 
-0.707824 -0.794489 -11.3562 
-10.9758 0.361539 -0.180041 
0.361539 -10.4051 -0.306204 
-0.180041 -0.306204 -11.4425 
-10.0421 0.323929 -0.141534 
0.323929 -11.7103 -0.140194 
-0.141534 -0.140194 -11.0711 
-9.79533 1.36232 -0.680825 
1.36232 -9.88922 -0.488971 
-0.680825 -0.488971 -13.1389 
-10.0223 0.790319 0.564931 
0.790319 -11.0529 -1.10835 
0.564931 -1.10835 -11.7483 
-8.81921 -0.0172712 0.0134981 
-0.0172712 -8.97888 -0.719222 
0.0134981 -0.719222 -9.16563 
-9.00186 0.105753 0.0739117 
0.105753 -9.1071 -0.703379 
0.0739117 -0.703379 -8.85476 
-9.02018 0.0860186 0.100561 
0.0860186 -9.16553 -0.814202 
0.100561 -0.814202 -8.778 
-8.82989 0.0802548 0.0520547 
0.0802548 -9.17327 -0.714473 
0.0520547 -0.714473 -8.96055 
-9.91708 -0.0211073 0.364364 
-0.0211073 -9.9903 0.0987922 
0.364364 0.0987922 -9.92135 
-9.82376 0.00160226 0.360119 
0.00160226 -9.84526 0.0500425 
0.360119 0.0500425 -10.1597 
-9.99121 -0.0255185 0.404028 
-0.0255185 -9.98557 0.123514 
0.404028 0.123514 -9.85195 
-9.99502 -0.0296883 0.346827 
-0.0296883 -9.97449 0.0750035 
0.346827 0.0750035 -9.85922 
-8.67254 -0.193515 0.332781 
-0.193515 -8.7785 -0.844409 
0.332781 -0.844409 -8.72794 
-8.41714 -0.273025 0.511078 
-0.273025 -8.69651 -0.930814 
0.511078 -0.930814 -9.06533 
-8.46494 -0.219972 0.299458 
-0.219972 -8.86607 -0.715571 
0.299458 -0.715571 -8.84797 
-9.07812 0.0729689 0.198337 
0.0729689 -8.89026 -1.2165 
0.198337 -1.2165 -8.21061 
-9.48043 -0.011659 -0.41729 
-0.011659 -9.68394 0.398441 
-0.41729 0.398441 -9.58385 
-9.47045 -0.0536706 -0.472067 
-0.0536706 -9.72774 0.469237 
-0.472067 0.469237 -9.55002 
-9.48403 -0.00231649 -0.451211 
-0.00231649 -9.74982 0.309973 
-0.451211 0.309973 -9.51436 
-9.47124 -0.000810931 -0.295014 
-0.000810931 -9.5435 0.377051 
-0.295014 0.377051 -9.73347 
-9.80974 0.0240231 0.0231141 
0.0240231 -9.86531 -0.0871209 
0.0231141 -0.0871209 -9.99728 
-9.88085 0.0560133 0.010538 
0.0560133 -9.84417 -0.0538131 
0.010538 -0.0538131 -9.94731 
-9.86292 0.0113471 0.0721627 
0.0113471 -9.80658 0.0740981 
0.0721627 0.0740981 -10.0028 
-9.89076 0.0716621 0.110125 
0.0716621 -9.82243 0.0403148 
0.110125 0.0403148 -9.95915 
-9.40389 -0.328063 0.454657 
-0.328063 -9.49225 -0.0544384 
0.454657 -0.0544384 -9.5036 
-9.51962 -0.329497 0.5043 
-0.329497 -9.24926 -0.0984459 
0.5043 -0.0984459 -9.63086 
-9.46056 -0.179779 0.457429 
-0.179779 -9.34839 -0.107012 
0.457429 -0.107012 -9.59079 
-9.47695 0.00437265 0.432525 
0.00437265 -9.67371 -0.163477 
0.432525 -0.163477 -9.24908 
-9.43551 0.0291195 -0.462977 
0.0291195 -9.55418 0.172845 
-0.462977 0.172845 -9.66965 
-9.37418 -0.0161727 -0.468381 
-0.0161727 -9.5145 0.180598 
-0.468381 0.180598 -9.77067 
-9.38278 -0.00038262 -0.377554 
-0.00038262 -9.5464 0.175891 
-0.377554 0.175891 -9.73017 
-9.39449 -0.0283132 -0.427845 
-0.0283132 -9.51346 0.197155 
-0.427845 0.197155 -9.7514 
-4.52291 3.71893 -0.654167 
3.71893 -8.79674 -0.527331 
-0.654167 -0.527331 -19.7895 
-4.46485 2.08709 -0.0757206 
2.08709 -11.328 -1.06333 
-0.0757206 -1.06333 -17.3163 
-9.72673 2.51866 1.02401 
2.51866 -11.5276 0.924044 
1.02401 0.924044 -11.8548 
-8.69494 0.750145 -0.929382 
0.750145 -10.9718 -0.422664 
-0.929382 -0.422664 -13.4424 
-9.62873 0.171465 0.310305 
0.171465 -9.52169 0.0242368 
0.310305 0.0242368 -10.3622 
-9.70474 0.0417853 0.213839 
0.0417853 -9.40701 -0.0506785 
0.213839 -0.0506785 -10.4009 
-9.64124 0.201961 0.300024 
0.201961 -9.47644 0.025817 
0.300024 0.025817 -10.3949 
-9.60507 0.165394 0.257964 
0.165394 -9.46791 0.0397958 
0.257964 0.0397958 -10.4396 
-9.3055 -0.0759367 0.0618046 
-0.0759367 -8.91504 1.03285 
0.0618046 1.03285 -8.4391 
-9.01515 0.0425391 -0.0366565 
0.0425391 -9.07423 0.998539 
-0.0366565 0.998539 -8.57026 
-9.1394 0.00227863 0.231558 
0.00227863 -9.22947 0.978302 
0.231558 0.978302 -8.29077 
-9.38648 -0.107313 0.0550948 
-0.107313 -8.90727 1.04183 
0.0550948 1.04183 -8.36588 
-8.02504 -0.0277461 1.16043 
-0.0277461 -8.72154 0.515228 
1.16043 0.515228 -6.25844 
-8.69948 -0.287619 0.724606 
-0.287619 -8.59557 1.11606 
0.724606 1.11606 -5.70997 
-9.34839 0.891035 2.13135 
0.891035 -8.66795 2.77891 
2.13135 2.77891 -4.98867 
-8.64508 -0.608492 0.418839 
-0.608492 -8.31661 1.25567 
0.418839 1.25567 -6.04333 
-9.88124 -0.0258395 0.433529 
-0.0258395 -9.86181 -0.0275629 
0.433529 -0.0275629 -9.93614 
-9.90165 -0.00297919 0.471704 
-0.00297919 -9.84306 -0.0488947 
0.471704 -0.0488947 -9.93448 
-9.88518 0.00413889 0.450178 
0.00413889 -9.86682 -0.0401423 
0.450178 -0.0401423 -9.92719 
-9.89442 -0.00353519 0.454561 
-0.00353519 -9.86376 -0.0370092 
0.454561 -0.0370092 -9.92101 
-9.45799 -0.00629068 0.296871 
-0.00629068 -9.23631 0.129607 
0.296871 0.129607 -10.0814 
-9.52263 0.0207091 0.134408 
0.0207091 -9.22629 0.070006 
0.134408 0.070006 -10.0267 
-9.44252 -0.0205373 0.280414 
-0.0205373 -9.22772 0.0478525 
0.280414 0.0478525 -10.1054 
-9.38126 0.00982359 0.0798134 
0.00982359 -9.09963 0.14779 
0.0798134 0.14779 -10.2948 
-9.5314 -0.0325162 0.109734 
-0.0325162 -9.77156 0.14012 
0.109734 0.14012 -9.84944 
-9.62131 -0.170955 -0.0952689 
-0.170955 -9.7136 -0.139973 
-0.0952689 -0.139973 -9.81749 
-9.6268 -0.172497 -0.0936115 
-0.172497 -9.68397 -0.0949292 
-0.0936115 -0.0949292 -9.84163 
-9.5937 -0.145357 -0.0819488 
-0.145357 -9.60846 -0.128205 
-0.0819488 -0.128205 -9.95024 
-9.70385 -0.00870217 0.167665 
-0.00870217 -9.75551 0.539054 
0.167665 0.539054 -9.59208 
-9.69076 -0.00182298 0.115338 
-0.00182298 -9.81178 0.539853 
0.115338 0.539853 -9.5489 
-9.72856 -0.0380696 0.20344 
-0.0380696 -9.77329 0.547462 
0.20344 0.547462 -9.54958 
-9.65276 0.0324141 0.200635 
0.0324141 -9.72771 0.521434 
0.200635 0.521434 -9.67097 
-8.94455 -0.600517 -0.665749 
-0.600517 -9.57446 0.1015 
-0.665749 0.1015 -8.82767 
-8.45435 0.152005 -1.30575 
0.152005 -10.1587 -0.202091 
-1.30575 -0.202091 -8.73366 
-9.53546 0.290275 -1.11726 
0.290275 -9.24138 -0.572022 
-1.11726 -0.572022 -8.56984 
-8.6543 -0.0271331 -0.968271 
-0.0271331 -9.6216 -0.0842946 
-0.968271 -0.0842946 -9.07078 
-9.58044 -0.00722808 0.514088 
-0.00722808 -9.7936 0.368767 
0.514088 0.368767 -9.84747 
-9.92382 -0.103624 0.654096 
-0.103624 -9.81715 0.264217 
0.654096 0.264217 -9.48053 
-9.57032 0.0931554 0.548253 
0.0931554 -9.88295 0.317153 
0.548253 0.317153 -9.76824 
-9.75916 -0.017745 0.402533 
-0.017745 -9.897 0.374129 
0.402533 0.374129 -9.56534 
-9.83332 0.00632428 0.156949 
0.00632428 -9.86431 0.137952 
0.156949 0.137952 -10.1233 
-9.93444 -0.0444287 0.209048 
-0.0444287 -9.98256 0.134411 
0.209048 0.134411 -9.90389 
-9.9327 -0.00143049 0.206859 
-0.00143049 -10.0044 0.135562 
0.206859 0.135562 -9.88375 
-9.96724 0.00282058 0.208226 
0.00282058 -9.99769 0.088427 
0.208226 0.088427 -9.85597 
-9.8529 -0.00108498 -0.0348312 
-0.00108498 -9.84186 0.216877 
-0.0348312 0.216877 -9.85192 
-9.83182 -0.00924765 -0.0482173 
-0.00924765 -9.86485 0.181039 
-0.0482173 0.181039 -9.85002 
-9.93545 -0.0225903 0.0256844 
-0.0225903 -9.8443 0.207256 
0.0256844 0.207256 -9.76694 
-9.82514 0.0199508 -0.00402368 
0.0199508 -9.89353 0.187287 
-0.00402368 0.187287 -9.82802 
-8.61888 -0.0148229 0.439352 
-0.0148229 -9.44389 0.476013 
0.439352 0.476013 -8.23397 
-8.87305 0.171889 0.0984178 
0.171889 -9.35935 0.231664 
0.0984178 0.231664 -8.06434 
-8.98198 -0.238751 0.772673 
-0.238751 -9.19211 0.0167216 
0.772673 0.0167216 -8.12265 
-9.03684 -0.101168 0.548107 
-0.101168 -8.86124 -0.0960681 
0.548107 -0.0960681 -8.39866 
-9.76672 0.0289394 0.256802 
0.0289394 -9.58403 -0.000232218 
0.256802 -0.000232218 -9.96497 
-9.82589 0.0510194 0.226194 
0.0510194 -9.70813 0.120516 
0.226194 0.120516 -9.7817 
-9.74555 0.023042 0.269983 
0.023042 -9.68968 -0.0560266 
0.269983 -0.0560266 -9.88049 
-9.79285 0.0539604 0.227431 
0.0539604 -9.63965 0.015634 
0.227431 0.015634 -9.88322 
-9.48905 0.555073 -0.0343822 
0.555073 -8.69927 0.0941841 
-0.0343822 0.0941841 -9.28064 
-9.46979 0.427663 -0.00146189 
0.427663 -8.58748 0.133686 
-0.00146189 0.133686 -9.41169 
-9.53225 0.391717 -0.0359335 
0.391717 -8.60481 0.165186 
-0.0359335 0.165186 -9.3319 
-9.41052 0.278466 0.0163066 
0.278466 -8.67997 0.0801773 
0.0163066 0.0801773 -9.37847 
-8.76228 1.38463 -0.885325 
1.38463 -9.9312 -0.668375 
-0.885325 -0.668375 -11.2131 
-9.49487 -1.40155 -0.38056 
-1.40155 -11.725 -3.38179 
-0.38056 -3.38179 -8.68675 
-6.50878 -1.62855 0.19538 
-1.62855 -9.85681 2.66185 
0.19538 2.66185 -13.541 
-8.9114 1.20632 -1.34406 
1.20632 -9.05433 0.165882 
-1.34406 0.165882 -11.9409 
-9.78497 -0.0176604 -0.455703 
-0.0176604 -9.79065 0.00306403 
-0.455703 0.00306403 -9.89407 
-9.80459 -0.0213032 -0.440182 
-0.0213032 -9.82263 -0.00596744 
-0.440182 -0.00596744 -9.84247 
-9.80455 -0.0235956 -0.450203 
-0.0235956 -9.79358 0.00626108 
-0.450203 0.00626108 -9.87155 
-9.80279 -0.0256995 -0.47388 
-0.0256995 -9.80584 0.0155702 
-0.47388 0.0155702 -9.86106 
-8.98273 -0.135878 0.166424 
-0.135878 -9.89354 0.243752 
0.166424 0.243752 -9.32387 
-9.48646 0.0910477 0.301248 
0.0910477 -9.14236 -0.0858036 
0.301248 -0.0858036 -9.57133 
-9.61871 -0.554507 0.14572 
-0.554507 -8.80452 -0.348958 
0.14572 -0.348958 -9.77692 
-9.42226 0.0929733 0.584644 
0.0929733 -9.34991 -0.0457956 
0.584644 -0.0457956 -9.42798 
-9.5757 0.22801 0.397604 
0.22801 -8.85513 0.791083 
0.397604 0.791083 -9.41992 
-9.42497 -0.117918 0.0929862 
-0.117918 -8.93953 0.444626 
0.0929862 0.444626 -9.48624 
-9.37671 0.202029 0.0311444 
0.202029 -8.70899 0.442146 
0.0311444 0.442146 -9.76504 
-9.63114 0.0428797 0.364453 
0.0428797 -8.66818 0.53265 
0.364453 0.53265 -9.55142 
-7.86728 0.0725519 0.00845804 
0.0725519 -8.58635 1.00689 
0.00845804 1.00689 -8.19598 
-8.58372 0.561175 0.693441 
0.561175 -7.69747 1.0642 
0.693441 1.0642 -8.36841 
-8.6737 0.373372 0.114774 
0.373372 -8.00287 1.13177 
0.114774 1.13177 -7.97303 
-8.72082 0.165186 0.168745 
0.165186 -7.98978 1.21671 
0.168745 1.21671 -7.939 
-9.92235 -0.00524755 0.478749 
-0.00524755 -9.90002 0.0468916 
0.478749 0.0468916 -10.0229 
-9.94631 -0.00697852 0.451292 
-0.00697852 -9.93573 0.0540686 
0.451292 0.0540686 -9.96326 
-9.9653 -0.0138161 0.460372 
-0.0138161 -9.96806 0.0715898 
0.460372 0.0715898 -9.91194 
-9.95986 -0.0014744 0.445599 
-0.0014744 -9.98489 0.0459894 
0.445599 0.0459894 -9.90054 
-0.645829 -0.596642 2.64735 
-0.596642 -0.280981 -0.0649983 
2.64735 -0.0649983 -14.4625 
-7.63839 -0.448588 -2.54282 
-0.448588 -10.1504 0.121125 
-2.54282 0.121125 2.3995 
-11.5566 -0.439904 -0.862172 
-0.439904 -11.6823 -0.194058 
-0.862172 -0.194058 7.84958 
-5.27873 4.09128 -7.29904 
4.09128 -6.8361 -12.2128 
-7.29904 -12.2128 -3.27446 
-14.7177 -3.65847 -2.66481 
-3.65847 -8.99791 6.446 
-2.66481 6.446 -9.33075 
-6.12976 -5.64344 2.77406 
-5.64344 0.399064 -9.82978 
2.77406 -9.82978 -27.3157 
-8.31199 -3.45032 4.83135 
-3.45032 3.16888 -9.48485 
4.83135 -9.48485 -27.9033 
-9.88117 4.03179 0.848085 
4.03179 -18.184 -2.92655 
0.848085 -2.92655 -4.98122 
-9.73709 0.0954084 0.372595 
0.0954084 -9.45686 -0.0748576 
0.372595 -0.0748576 -9.86434 
-9.6766 0.0580987 0.386124 
0.0580987 -9.44839 -0.0346777 
0.386124 -0.0346777 -9.9333 
-9.71526 0.0746317 0.386904 
0.0746317 -9.46183 -0.0424796 
0.386904 -0.0424796 -9.8812 
-9.63658 0.0394706 0.392332 
0.0394706 -9.48556 0.00439476 
0.392332 0.00439476 -9.93615 
-9.52175 -0.0138431 -0.522492 
-0.0138431 -9.63561 0.0828901 
-0.522492 0.0828901 -9.85751 
-9.57711 -0.0275198 -0.438683 
-0.0275198 -9.6267 0.0656526 
-0.438683 0.0656526 -9.81105 
-9.5453 -0.00934636 -0.496217 
-0.00934636 -9.60248 0.0461384 
-0.496217 0.0461384 -9.86708 
-9.57737 0.00729837 -0.451225 
0.00729837 -9.608 0.0572554 
-0.451225 0.0572554 -9.82949 
-9.48184 -0.0835319 -0.0823078 
-0.0835319 -9.71618 0.0264168 
-0.0823078 0.0264168 -9.92478 
-9.39014 -0.146158 -0.197316 
-0.146158 -9.74876 0.0917136 
-0.197316 0.0917136 -9.9839 
-9.9208 0.238025 -0.143374 
0.238025 -9.559 0.0470639 
-0.143374 0.0470639 -9.643 
-9.84045 -0.23263 -0.0511875 
-0.23263 -9.35799 0.0167075 
-0.0511875 0.0167075 -9.92436 
-9.49938 -0.337154 0.273404 
-0.337154 -9.01471 -0.476258 
0.273404 -0.476258 -9.99304 
-9.41519 0.153388 0.516798 
0.153388 -10.0574 -0.790132 
0.516798 -0.790132 -9.03452 
-9.44634 -0.0530817 0.399327 
-0.0530817 -9.64704 -0.522092 
0.399327 -0.522092 -9.41375 
-9.47221 0.0746304 0.487193 
0.0746304 -9.92939 -0.170187 
0.487193 -0.170187 -9.10553 
-8.80887 -0.176679 -0.638954 
-0.176679 -9.34711 0.458844 
-0.638954 0.458844 -9.11382 
-8.77358 -0.0873277 -0.687634 
-0.0873277 -9.18682 0.492252 
-0.687634 0.492252 -9.30941 
-8.83974 -0.222558 -0.720079 
-0.222558 -9.32537 0.633863 
-0.720079 0.633863 -9.10469 
-8.78728 -0.276259 -0.752658 
-0.276259 -9.52833 0.451141 
-0.752658 0.451141 -8.95419 
-9.83588 -0.0348366 -0.227633 
-0.0348366 -9.89046 -0.117028 
-0.227633 -0.117028 -9.82423 
-9.9507 0.00802813 -0.228932 
0.00802813 -9.70043 -0.137675 
-0.228932 -0.137675 -9.89944 
-9.91992 -0.0108924 -0.135988 
-0.0108924 -9.86715 -0.0943077 
-0.135988 -0.0943077 -9.7635 
-9.86947 -0.0490194 -0.187589 
-0.0490194 -9.86898 -0.0953025 
-0.187589 -0.0953025 -9.81212 
-9.47252 -0.058059 -0.398913 
-0.058059 -9.70285 0.451551 
-0.398913 0.451551 -9.45475 
-9.54019 -0.00190262 -0.386963 
-0.00190262 -9.67905 0.437389 
-0.386963 0.437389 -9.41089 
-9.51719 0.0153142 -0.463817 
0.0153142 -9.6968 0.330867 
-0.463817 0.330867 -9.41613 
-9.5066 -0.0741833 -0.371432 
-0.0741833 -9.45208 0.345671 
-0.371432 0.345671 -9.67144 
-8.83451 0.570808 -0.342359 
0.570808 -9.13451 -0.761254 
-0.342359 -0.761254 -8.83097 
-9.15601 -0.601166 -0.87656 
-0.601166 -9.54352 -1.29006 
-0.87656 -1.29006 -8.10046 
-8.79037 0.359066 -0.392192 
0.359066 -8.7087 -0.881846 
-0.392192 -0.881846 -9.30092 
-9.90458 -0.0486582 -0.462631 
-0.0486582 -9.11117 -0.273057 
-0.462631 -0.273057 -7.78424 
-9.83377 0.213867 0.0211047 
0.213867 -9.40251 0.0358208 
0.0211047 0.0358208 -9.46889 
-9.82073 0.0790724 -0.146544 
0.0790724 -9.54264 0.129623 
-0.146544 0.129623 -9.3418 
-9.52654 -0.00625172 0.00401619 
-0.00625172 -9.43737 0.170373 
0.00401619 0.170373 -9.74127 
-9.905 0.120491 -0.128389 
0.120491 -9.35381 0.0406329 
-0.128389 0.0406329 -9.44636 
-9.70057 -0.0334187 0.334872 
-0.0334187 -9.73683 0.516006 
0.334872 0.516006 -9.48093 
-9.64418 -0.0716738 0.304822 
-0.0716738 -9.80693 0.439588 
0.304822 0.439588 -9.46722 
-9.66332 -0.0141487 0.368515 
-0.0141487 -9.7058 0.467057 
0.368515 0.467057 -9.54922 
-9.70074 -0.016833 0.326153 
-0.016833 -9.67981 0.481086 
0.326153 0.481086 -9.53779 
-9.54109 0.116632 0.120593 
0.116632 -8.84459 0.308624 
0.120593 0.308624 -10.083 
-9.59497 0.170751 0.0377499 
0.170751 -9.04673 0.280602 
0.0377499 0.280602 -9.82693 
-9.33704 -0.0467394 0.222114 
-0.0467394 -9.04566 0.724304 
0.222114 0.724304 -10.0859 
-9.59231 0.141497 0.229389 
0.141497 -8.7242 0.177224 
0.229389 0.177224 -10.1521 
-2.77402 1.05014 0.386896 
1.05014 -6.18133 -2.43647 
0.386896 -2.43647 -0.827685 
-5.11269 0.362418 0.500751 
0.362418 -4.94468 -2.35581 
0.500751 -2.35581 0.27434 
-3.15787 0.353154 -0.41716 
0.353154 -3.84707 -1.75215 
-0.41716 -1.75215 -2.77809 
-4.68797 1.06514 -0.713658 
1.06514 -3.39434 -0.729987 
-0.713658 -0.729987 -1.70072 
-9.70565 -0.000265906 0.174861 
-0.000265906 -9.64849 0.129248 
0.174861 0.129248 -9.75602 
-9.70211 0.030214 0.186338 
0.030214 -9.65491 0.130649 
0.186338 0.130649 -9.75315 
-9.671 0.0268241 0.180444 
0.0268241 -9.60141 0.0480848 
0.180444 0.0480848 -9.83776 
-9.7543 0.0355469 0.199829 
0.0355469 -9.52354 0.157353 
0.199829 0.157353 -9.83233 
-9.21392 0.0134972 0.0795742 
0.0134972 -9.31002 -0.420586 
0.0795742 -0.420586 -9.27755 
-9.21989 -0.0382078 -0.00601175 
-0.0382078 -9.38732 -0.214338 
-0.00601175 -0.214338 -9.19429 
-9.20834 -0.056345 0.035092 
-0.056345 -9.37464 -0.158377 
0.035092 -0.158377 -9.21851 
-9.22498 -0.0396578 -0.188625 
-0.0396578 -9.53196 -0.137848 
-0.188625 -0.137848 -9.04455 
-9.77046 0.0296475 0.524367 
0.0296475 -9.87894 0.345104 
0.524367 0.345104 -9.714 
-9.79005 -0.114946 0.355738 
-0.114946 -9.73511 0.325708 
0.355738 0.325708 -9.83824 
-9.74733 -0.00294967 0.543221 
-0.00294967 -9.85287 0.340701 
0.543221 0.340701 -9.7632 
-9.86655 -0.0295064 0.591036 
-0.0295064 -9.92113 0.369138 
0.591036 0.369138 -9.57573 
-8.07042 0.186089 0.602233 
0.186089 -8.28015 -0.136217 
0.602233 -0.136217 -6.94364 
-8.11294 -0.0096963 0.611573 
-0.0096963 -8.1847 -0.0423853 
0.611573 -0.0423853 -6.99657 
-8.34218 -0.147797 0.459933 
-0.147797 -8.00924 0.543079 
0.459933 0.543079 -6.9428 
-8.09682 0.0206106 0.796471 
0.0206106 -8.58556 -0.136579 
0.796471 -0.136579 -6.61183 
-9.66246 0.126643 0.376057 
0.126643 -9.5225 0.0119111 
0.376057 0.0119111 -9.89911 
-9.66215 0.132191 0.385114 
0.132191 -9.56041 0.0297726 
0.385114 0.0297726 -9.86151 
-9.78551 0.0305159 0.398466 
0.0305159 -9.4341 0.178352 
0.398466 0.178352 -9.86446 
-9.63892 -0.00608067 0.330092 
-0.00608067 -9.51773 -0.0544134 
0.330092 -0.0544134 -9.92742 
-9.2885 -0.101544 0.398862 
-0.101544 -9.49765 -0.178566 
0.398862 -0.178566 -9.88446 
-9.49409 0.242033 0.365965 
0.242033 -9.68072 -0.148318 
0.365965 -0.148318 -9.4958 
-9.46047 0.186112 0.295733 
0.186112 -9.59919 -0.20426 
0.295733 -0.20426 -9.61095 
-9.32327 0.0951786 0.293903 
0.0951786 -9.70576 0.0989852 
0.293903 0.0989852 -9.64157 
-9.77359 -0.0393281 0.0463663 
-0.0393281 -9.8662 -0.395924 
0.0463663 -0.395924 -9.51625 
-9.72285 -0.017537 0.0165946 
-0.017537 -9.84538 -0.355611 
0.0165946 -0.355611 -9.5878 
-9.71564 -0.00478894 0.0169632 
-0.00478894 -9.76485 -0.380637 
0.0169632 -0.380637 -9.67554 
-9.67825 -0.00283067 0.115277 
-0.00283067 -9.82409 -0.308701 
0.115277 -0.308701 -9.65369 
-9.95095 0.0135462 -0.0122257 
0.0135462 -9.75945 0.0178203 
-0.0122257 0.0178203 -10.2545 
-9.99199 0.0537942 0.0441889 
0.0537942 -9.58757 0.0363497 
0.0441889 0.0363497 -10.3853 
-9.70899 -0.113514 -0.0738693 
-0.113514 -9.86464 0.0133504 
-0.0738693 0.0133504 -10.3912 
-9.78605 -0.0620976 0.0872287 
-0.0620976 -9.99194 0.158702 
0.0872287 0.158702 -10.1869 
-9.19484 -0.26748 -0.0925619 
-0.26748 -9.71391 -0.444702 
-0.0925619 -0.444702 -9.94092 
-9.1862 -0.422694 -0.0880467 
-0.422694 -9.51843 -0.206588 
-0.0880467 -0.206588 -10.145 
-8.93341 -0.154775 0.409057 
-0.154775 -10.2076 -0.227262 
0.409057 -0.227262 -9.70862 
-9.12669 -0.378563 0.113561 
-0.378563 -9.76539 -0.462652 
0.113561 -0.462652 -9.95758 
-9.86769 0.0738295 -0.0363459 
0.0738295 -9.88467 0.329352 
-0.0363459 0.329352 -9.52498 
-9.75915 -0.0178565 0.0918903 
-0.0178565 -9.87548 0.341753 
0.0918903 0.341753 -9.64271 
-9.74594 0.0133842 0.0244329 
0.0133842 -9.7987 0.351611 
0.0244329 0.351611 -9.73271 
-9.78938 -0.049779 0.0883917 
-0.049779 -9.81216 0.377071 
0.0883917 0.377071 -9.6758 
-9.2152 -0.0525862 -0.214503 
-0.0525862 -9.37776 -0.0867572 
-0.214503 -0.0867572 -9.80763 
-9.27912 -0.0762832 -0.386865 
-0.0762832 -9.57916 -0.0802483 
-0.386865 -0.0802483 -9.54231 
-9.22947 -0.0323481 -0.240904 
-0.0323481 -9.40285 -0.123119 
-0.240904 -0.123119 -9.76828 
-9.15382 -0.0378784 -0.331565 
-0.0378784 -9.39291 -0.149366 
-0.331565 -0.149366 -9.85386 
-8.89393 -0.41624 -0.692979 
-0.41624 -9.44339 0.78319 
-0.692979 0.78319 -8.58219 
-9.0825 -0.0411895 -1.22579 
-0.0411895 -9.69695 0.390558 
-1.22579 0.390558 -8.14006 
-8.35692 -0.00896904 -0.289564 
-0.00896904 -8.77776 0.217017 
-0.289564 0.217017 -9.78483 
-9.20208 -0.0622723 -0.835498 
-0.0622723 -9.42578 0.754495 
-0.835498 0.754495 -8.29165 
-7.71451 -0.338145 1.71744 
-0.338145 -8.06478 0.184139 
1.71744 0.184139 -7.73111 
-5.93637 0.869638 -0.196755 
0.869638 -10.1988 -0.811459 
-0.196755 -0.811459 -7.37519 
-9.09837 1.41077 0.0370889 
1.41077 -9.88639 1.72797 
0.0370889 1.72797 -4.52563 
-10.3928 -0.1332 1.04764 
-0.1332 -6.58229 0.849631 
1.04764 0.849631 -6.5353 
-9.7771 0.046747 -0.380233 
0.046747 -9.73615 0.213354 
-0.380233 0.213354 -9.80237 
-9.78986 0.0699098 -0.361657 
0.0699098 -9.74968 0.180578 
-0.361657 0.180578 -9.77608 
-9.77494 0.0143646 -0.30685 
0.0143646 -9.79893 0.190772 
-0.30685 0.190772 -9.74174 
-9.81184 -0.00749796 -0.291058 
-0.00749796 -9.73711 0.222334 
-0.291058 0.222334 -9.76666 
-9.14356 0.0544074 0.0304516 
0.0544074 -8.96829 -0.580331 
0.0304516 -0.580331 -8.56775 
-9.21039 0.26187 0.35671 
0.26187 -9.60784 -0.740443 
0.35671 -0.740443 -7.86136 
-9.81134 -0.0753635 -0.239068 
-0.0753635 -9.16496 0.327073 
-0.239068 0.327073 -7.7033 
-9.84402 0.169441 -0.16081 
0.169441 -8.80882 -0.436236 
-0.16081 -0.436236 -8.02675 
-10.3346 -0.0883967 0.304366 
-0.0883967 -7.67916 -0.101981 
0.304366 -0.101981 -10.7782 
-9.80548 -0.0603973 0.0610415 
-0.0603973 -8.84804 -0.232586 
0.0610415 -0.232586 -10.1385 
-9.67421 -0.234683 0.53042 
-0.234683 -8.51967 -0.205635 
0.53042 -0.205635 -10.5982 
-9.73826 0.441058 0.233114 
0.441058 -9.18851 0.0398441 
0.233114 0.0398441 -9.86525 
-9.42016 0.0470473 0.308458 
0.0470473 -9.41593 0.639923 
0.308458 0.639923 -9.468 
-9.39182 0.0166788 0.369698 
0.0166788 -9.42215 0.597374 
0.369698 0.597374 -9.49013 
-9.45414 -0.102915 0.270478 
-0.102915 -9.49523 0.678211 
0.270478 0.678211 -9.35473 
-9.34101 -0.0236631 0.228035 
-0.0236631 -9.4863 0.629327 
0.228035 0.629327 -9.47679 
-9.45756 0.0375597 -0.104986 
0.0375597 -9.06507 0.0353974 
-0.104986 0.0353974 -9.3003 
-9.42078 -0.0383563 -0.0812208 
-0.0383563 -9.02861 0.0285672 
-0.0812208 0.0285672 -9.37354 
-9.67457 0.0879867 -0.0124691 
0.0879867 -9.01437 0.0131084 
-0.0124691 0.0131084 -9.13399 
-9.5041 -0.0466035 -0.0403168 
-0.0466035 -9.03362 0.112835 
-0.0403168 0.112835 -9.28521 
-9.49209 -0.0574064 0.438384 
-0.0574064 -9.53659 0.34704 
0.438384 0.34704 -9.1324 
-9.6259 -0.0513238 0.452339 
-0.0513238 -9.48931 0.309304 
0.452339 0.309304 -9.04587 
-9.41294 -0.0303741 0.475893 
-0.0303741 -9.51274 0.305571 
0.475893 0.305571 -9.23541 
-9.36086 0.0068924 0.31407 
0.0068924 -9.58646 0.321285 
0.31407 0.321285 -9.21376 
-7.69427 0.429447 -3.12108 
0.429447 -7.49902 -2.18859 
-3.12108 -2.18859 -4.81138 
-7.76901 0.909615 -3.97798 
0.909615 -8.47203 -2.28627 
-3.97798 -2.28627 -3.76363 
-7.18894 0.720706 -2.78157 
0.720706 -7.50165 -2.31107 
-2.78157 -2.31107 -5.31409 
-7.63992 -0.967786 -1.26404 
-0.967786 -7.36425 -1.1691 
-1.26404 -1.1691 -5.0005 
-9.36516 0.193651 0.502784 
0.193651 -9.17756 0.21556 
0.502784 0.21556 -9.4993 
-9.10538 0.216825 0.337536 
0.216825 -9.17579 0.219361 
0.337536 0.219361 -9.76084 
-9.10723 0.326444 0.661494 
0.326444 -9.4419 0.394142 
0.661494 0.394142 -9.49289 
-9.34576 0.189284 0.513369 
0.189284 -9.22392 0.115845 
0.513369 0.115845 -9.47233 
-8.63588 -0.397934 1.07985 
-0.397934 -9.06351 -0.439069 
1.07985 -0.439069 -8.42439 
-8.43626 -0.456058 0.448575 
-0.456058 -9.0958 -0.0722584 
0.448575 -0.0722584 -8.59171 
-8.59117 0.0446854 1.041 
0.0446854 -8.87217 -0.237341 
1.041 -0.237341 -8.66044 
-8.99072 0.235586 0.902953 
0.235586 -8.92361 0.13086 
0.902953 0.13086 -8.20946 
-8.46416 0.328718 0.249118 
0.328718 -8.82097 0.849526 
0.249118 0.849526 -9.05483 
-8.85763 0.059468 0.427739 
0.059468 -8.74779 0.802135 
0.427739 0.802135 -8.73454 
-8.83848 0.163601 0.697817 
0.163601 -9.09576 0.78155 
0.697817 0.78155 -8.4057 
-8.81252 -0.100214 0.260312 
-0.100214 -8.75829 0.838838 
0.260312 0.838838 -8.76914 
-9.1993 -0.0456973 -0.554864 
-0.0456973 -9.38078 -0.115126 
-0.554864 -0.115126 -9.57404 
-9.12774 -0.0316669 -0.507284 
-0.0316669 -9.4501 0.0201167 
-0.507284 0.0201167 -9.57628 
-9.06863 -0.143802 -0.386578 
-0.143802 -9.50983 -0.0793177 
-0.386578 -0.0793177 -9.57565 
-9.18574 -0.188118 -0.576852 
-0.188118 -9.24924 -0.28342 
-0.576852 -0.28342 -9.71913 
-9.28481 0.188648 0.487728 
0.188648 -9.54478 -0.236583 
0.487728 -0.236583 -9.32162 
-8.93835 -0.0396535 0.459586 
-0.0396535 -9.5965 -0.302698 
0.459586 -0.302698 -9.61636 
-9.31241 0.10483 0.434357 
0.10483 -9.55075 -0.277321 
0.434357 -0.277321 -9.28805 
-9.23946 0.0419845 0.622923 
0.0419845 -9.52135 -0.260693 
0.622923 -0.260693 -9.3904 
-9.76429 0.0206138 -0.0409834 
0.0206138 -9.83132 0.250107 
-0.0409834 0.250107 -9.44563 
-9.69678 0.00534519 -0.0183241 
0.00534519 -9.75544 0.182961 
-0.0183241 0.182961 -9.58902 
-9.68603 0.00376099 -0.0127163 
0.00376099 -9.76191 0.277814 
-0.0127163 0.277814 -9.5933 
-9.71136 0.00347525 -0.00964611 
0.00347525 -9.7572 0.197472 
-0.00964611 0.197472 -9.57268 
-9.69188 -0.0995849 0.457524 
-0.0995849 -9.56499 -0.123633 
0.457524 -0.123633 -9.68943 
-9.68433 -0.0489848 0.420351 
-0.0489848 -9.77887 -0.212554 
0.420351 -0.212554 -9.4831 
-9.56421 -0.0515611 0.407299 
-0.0515611 -9.60044 -0.0649632 
0.407299 -0.0649632 -9.78166 
-9.74004 -0.168454 0.465674 
-0.168454 -9.4807 -0.168896 
0.465674 -0.168896 -9.72557 
-3.31042 3.21052 0.636604 
3.21052 -11.28 -0.29523 
0.636604 -0.29523 -19.0948 
-11.5571 1.58975 1.44336 
1.58975 -12.8111 0.532407 
1.44336 0.532407 -9.31699 
-8.12012 1.27862 -0.0011564 
1.27862 -10.6123 0.300552 
-0.0011564 0.300552 -14.9528 
-9.29124 0.738393 -3.08872 
0.738393 -11.2387 -0.0272661 
-3.08872 -0.0272661 -13.1552 
-9.88771 -0.0207709 -0.115033 
-0.0207709 -9.45615 0.0399822 
-0.115033 0.0399822 -9.66857 
-9.92931 0.101207 -0.0863603 
0.101207 -9.51657 0.0337109 
-0.0863603 0.0337109 -9.56655 
-9.82055 0.0305472 -0.0598842 
0.0305472 -9.61747 0.0416033 
-0.0598842 0.0416033 -9.57441 
-9.85901 0.0367458 -0.0351627 
0.0367458 -9.57275 0.0296636 
-0.0351627 0.0296636 -9.58067 
-9.7993 -0.159264 0.155371 
-0.159264 -9.70785 -0.20521 
0.155371 -0.20521 -10.5127 
-9.89573 0.155224 -0.139036 
0.155224 -9.82069 0.0418081 
-0.139036 0.0418081 -10.3034 
-10.0128 0.648312 0.0803482 
0.648312 -10.0259 -0.105324 
0.0803482 -0.105324 -9.98119 
-10.0222 0.0462835 0.0279644 
0.0462835 -9.7494 0.058026 
0.0279644 0.058026 -10.2483 
-9.39722 -0.0835865 -0.0529591 
-0.0835865 -9.98261 -0.0535833 
-0.0529591 -0.0535833 -9.95241 
-9.71365 -0.0566487 -0.0925817 
-0.0566487 -9.72123 -0.0220048 
-0.0925817 -0.0220048 -9.89736 
-9.90111 0.0281584 -0.0852482 
0.0281584 -9.63952 0.00731163 
-0.0852482 0.00731163 -9.79161 
-9.83726 -0.213894 -0.250151 
-0.213894 -9.58179 0.00041174 
-0.250151 0.00041174 -9.91319 
-9.26728 0.0187098 -0.601063 
0.0187098 -9.55339 -0.410514 
-0.601063 -0.410514 -9.36631 
-9.24747 0.00101089 -0.566051 
0.00101089 -9.5315 -0.437428 
-0.566051 -0.437428 -9.40802 
-9.20213 -0.223737 -0.545501 
-0.223737 -9.60997 -0.337821 
-0.545501 -0.337821 -9.3749 
-9.23933 0.00311567 -0.630915 
0.00311567 -9.60081 -0.46274 
-0.630915 -0.46274 -9.34685 
-9.96513 -0.0506848 -0.265374 
-0.0506848 -9.97417 -0.115622 
-0.265374 -0.115622 -9.90375 
-9.96653 -0.0222909 -0.253618 
-0.0222909 -9.97536 -0.114624 
-0.253618 -0.114624 -9.90116 
-9.87361 0.0139797 -0.308381 
0.0139797 -9.89433 -0.104661 
-0.308381 -0.104661 -10.0751 
-9.99089 -0.0187186 -0.237911 
-0.0187186 -9.97508 -0.0951193 
-0.237911 -0.0951193 -9.87708 
-9.38483 0.00912823 0.0455042 
0.00912823 -9.21218 0.728997 
0.0455042 0.728997 -8.98306 
-9.57878 0.00580624 0.0303063 
0.00580624 -9.52339 0.520495 
0.0303063 0.520495 -8.47789 
-9.27704 -0.00364987 0.00473211 
-0.00364987 -9.53345 0.758269 
0.00473211 0.758269 -8.76958 
-9.20753 -0.0446552 -0.0399102 
-0.0446552 -9.60227 0.664301 
-0.0399102 0.664301 -8.77026 
-9.52143 -0.0382419 -0.378611 
-0.0382419 -9.28235 0.0317638 
-0.378611 0.0317638 -9.30173 
-9.54742 -0.0481865 -0.333783 
-0.0481865 -9.26896 0.00707293 
-0.333783 0.00707293 -9.28913 
-9.60166 0.015677 -0.343123 
0.015677 -9.27985 0.019613 
-0.343123 0.019613 -9.22402 
-9.56969 -0.115953 -0.320198 
-0.115953 -9.26349 0.0342194 
-0.320198 0.0342194 -9.27234 
-10.11 -0.212011 0.0124096 
-0.212011 -9.54586 0.139109 
0.0124096 0.139109 -10.0642 
-10.0301 -0.223107 -0.144395 
-0.223107 -9.39752 0.164927 
-0.144395 0.164927 -10.2924 
-9.79367 0.183381 0.0058488 
0.183381 -9.60746 0.146096 
0.0058488 0.146096 -10.3189 
-9.89793 0.242539 0.191176 
0.242539 -9.56456 -0.337694 
0.191176 -0.337694 -10.2575 
-9.32511 -0.269206 0.744009 
-0.269206 -9.45123 -0.268978 
0.744009 -0.268978 -9.32916 
-9.30953 -0.23948 0.646074 
-0.23948 -9.25949 -0.223361 
0.646074 -0.223361 -9.53648 
-9.40658 -0.293931 0.642813 
-0.293931 -9.33081 -0.21934 
0.642813 -0.21934 -9.3681 
-9.35004 -0.495798 0.662548 
-0.495798 -9.39924 -0.32041 
0.662548 -0.32041 -9.35622 
-9.22739 0.025195 0.0450472 
0.025195 -9.52358 -0.163955 
0.0450472 -0.163955 -9.48827 
-9.28579 0.0268755 0.0758932 
0.0268755 -9.49881 -0.149375 
0.0758932 -0.149375 -9.45464 
-9.26553 -0.0697091 0.0490474 
-0.0697091 -9.43658 -0.0505451 
0.0490474 -0.0505451 -9.53713 
-9.23742 0.00439686 0.114866 
0.00439686 -9.42819 -0.135722 
0.114866 -0.135722 -9.57364 
-9.54944 -0.138694 0.443782 
-0.138694 -9.79483 0.397681 
0.443782 0.397681 -9.00391 
-9.62091 -0.148585 0.368548 
-0.148585 -9.76855 0.448567 
0.368548 0.448567 -8.95871 
-9.525 -0.0731478 0.496371 
-0.0731478 -9.71348 0.415215 
0.496371 0.415215 -9.10969 
-9.68723 0.00453248 0.396752 
0.00453248 -9.82461 0.292982 
0.396752 0.292982 -8.83633 
-8.40718 -0.552539 0.311578 
-0.552539 -8.99453 0.713786 
0.311578 0.713786 -9.51285 
-8.71899 -0.382951 0.0534879 
-0.382951 -9.23138 0.62184 
0.0534879 0.62184 -8.96419 
-8.47248 -0.443935 0.0582595 
-0.443935 -8.9251 0.625641 
0.0582595 0.625641 -9.51697 
-8.1906 -0.143832 -0.535755 
-0.143832 -8.76956 1.31875 
-0.535755 1.31875 -9.95439 
-9.06285 -0.036047 0.851574 
-0.036047 -9.20807 0.2319 
0.851574 0.2319 -9.14976 
-8.94961 -0.185431 0.576562 
-0.185431 -9.27202 -0.0445948 
0.576562 -0.0445948 -9.19904 
-9.20224 -0.0720806 0.864169 
-0.0720806 -9.38852 -0.150071 
0.864169 -0.150071 -8.82992 
-8.97328 -0.12584 0.709522 
-0.12584 -9.38419 -0.0555418 
0.709522 -0.0555418 -9.06321 
-8.85001 -1.11089 -0.530117 
-1.11089 -7.54601 1.37461 
-0.530117 1.37461 -3.41445 
-7.91199 0.543454 -0.181495 
0.543454 -7.51027 0.251675 
-0.181495 0.251675 -4.38822 
-7.7611 0.449973 0.280615 
0.449973 -7.44976 -1.10942 
0.280615 -1.10942 -4.59961 
-8.15872 0.497067 -0.295509 
0.497067 -7.67626 0.360513 
-0.295509 0.360513 -3.97549 
-2.48989 1.883 0.291595 
1.883 -7.09444 -2.26795 
0.291595 -2.26795 0.411501 
-3.45038 -0.125131 0.520801 
-0.125131 -0.822686 2.79001 
0.520801 2.79001 -4.89976 
-5.56522 -0.938078 -0.607303 
-0.938078 -5.9913 -2.3537 
-0.607303 -2.3537 2.38369 
-3.69921 -0.791996 -2.10671 
-0.791996 -6.35149 0.553466 
-2.10671 0.553466 0.877866 
-9.73671 -0.000321638 0.231605 
-0.000321638 -9.7196 -0.187596 
0.231605 -0.187596 -9.74965 
-9.70915 -0.0447466 0.143795 
-0.0447466 -9.74786 -0.090561 
0.143795 -0.090561 -9.74896 
-9.70405 -0.0236819 0.157931 
-0.0236819 -9.81369 -0.0918517 
0.157931 -0.0918517 -9.68822 
-9.84007 -0.00705708 0.127385 
-0.00705708 -9.86872 -0.00585117 
0.127385 -0.00585117 -9.49717 
-9.59195 -0.0301667 -0.46302 
-0.0301667 -9.49642 0.27884 
-0.46302 0.27884 -9.42485 
-9.90399 0.0633112 -0.325341 
0.0633112 -9.46546 0.268644 
-0.325341 0.268644 -9.14377 
-9.60937 0.0790789 -0.265206 
0.0790789 -9.21232 0.0980846 
-0.265206 0.0980846 -9.69154 
-9.67117 0.148892 -0.411089 
0.148892 -9.31504 0.228927 
-0.411089 0.228927 -9.52702 
-8.92452 0.318953 2.00083 
0.318953 -8.59808 -0.241064 
2.00083 -0.241064 -6.28119 
-10.2188 0.59601 0.380918 
0.59601 -6.5597 0.145578 
0.380918 0.145578 -7.0253 
-8.43032 0.0664518 0.283812 
0.0664518 -8.63728 1.62237 
0.283812 1.62237 -6.73618 
-7.15939 -0.0561445 0.678488 
-0.0561445 -10.1801 0.148304 
0.678488 0.148304 -6.46426 
-9.05709 0.232796 -0.152298 
0.232796 -8.26101 1.27457 
-0.152298 1.27457 -5.01194 
-8.27092 -0.22013 -0.64896 
-0.22013 -7.81966 0.408517 
-0.64896 0.408517 -6.23945 
-8.50117 -0.0486707 0.144557 
-0.0486707 -6.92823 0.573415 
0.144557 0.573415 -6.90063 
-9.19702 -0.029508 -0.455931 
-0.029508 -7.94858 1.32923 
-0.455931 1.32923 -5.18443 
-9.27074 -0.204855 -0.55636 
-0.204855 -8.76507 0.219379 
-0.55636 0.219379 -9.45101 
-9.41013 -0.149454 -0.581505 
-0.149454 -8.82061 0.154145 
-0.581505 0.154145 -9.25607 
-9.3014 0.0622994 -0.586287 
0.0622994 -8.83932 0.0571055 
-0.586287 0.0571055 -9.34609 
-9.68455 0.103278 -0.841496 
0.103278 -8.44639 0.52929 
-0.841496 0.52929 -9.35587 
-9.75337 0.182382 -0.419536 
0.182382 -9.35283 0.25341 
-0.419536 0.25341 -9.40511 
-9.37665 -0.0568423 -0.2624 
-0.0568423 -9.48583 0.113365 
-0.2624 0.113365 -9.64883 
-9.26705 -0.0394865 -0.199489 
-0.0394865 -9.5683 0.104506 
-0.199489 0.104506 -9.67596 
-9.31231 -0.0520925 -0.374118 
-0.0520925 -9.47234 0.115182 
-0.374118 0.115182 -9.72667 
-9.47465 0.0883008 -0.462216 
0.0883008 -9.68673 -0.451499 
-0.462216 -0.451499 -9.58143 
-9.62242 -0.341395 -0.541923 
-0.341395 -9.87769 -0.476244 
-0.541923 -0.476244 -9.2427 
-9.48924 0.153344 -0.540424 
0.153344 -9.55121 -0.489282 
-0.540424 -0.489282 -9.70236 
-9.65559 0.0181678 -0.387278 
0.0181678 -9.54898 -0.170848 
-0.387278 -0.170848 -9.53823 
-9.93196 0.187048 -0.611556 
0.187048 -9.74918 -0.0392377 
-0.611556 -0.0392377 -8.40898 
-9.59459 -0.194352 -0.494435 
-0.194352 -9.7946 0.271846 
-0.494435 0.271846 -8.70093 
-9.26176 0.23805 -0.360357 
0.23805 -9.48651 0.101163 
-0.360357 0.101163 -9.34184 
-9.75385 -0.113103 -0.588931 
-0.113103 -9.73718 0.260377 
-0.588931 0.260377 -8.59908 
-9.7234 0.0204965 0.0911115 
0.0204965 -9.4912 0.0865995 
0.0911115 0.0865995 -9.88255 
-9.61546 -0.00251823 -0.00480226 
-0.00251823 -9.58055 -0.0570913 
-0.00480226 -0.0570913 -9.90114 
-9.72495 0.073515 0.155283 
0.073515 -9.49907 -0.0412067 
0.155283 -0.0412067 -9.87312 
-9.68023 0.0269321 0.11909 
0.0269321 -9.5353 0.0331437 
0.11909 0.0331437 -9.88162 
-8.63494 -0.0161623 0.0399164 
-0.0161623 -9.19076 0.609147 
0.0399164 0.609147 -8.83857 
-8.10345 -0.0666816 0.273077 
-0.0666816 -9.60626 0.576783 
0.273077 0.576783 -8.95457 
-9.09831 0.314297 0.551473 
0.314297 -8.07063 0.885491 
0.551473 0.885491 -9.49532 
-8.47825 -0.0245636 0.279499 
-0.0245636 -8.60943 -0.0216584 
0.279499 -0.0216584 -9.5766 
-7.3659 -1.64268 2.13652 
-1.64268 -10.6485 -0.225755 
2.13652 -0.225755 -14.5558 
-8.24254 1.74861 0.354102 
1.74861 -11.9132 -0.807094 
0.354102 -0.807094 -12.4145 
-9.20574 -0.797448 2.0706 
-0.797448 -11.4289 -2.11041 
2.0706 -2.11041 -11.9357 
-8.28917 -0.695073 2.19659 
-0.695073 -11.9633 -0.369037 
2.19659 -0.369037 -12.3178 
-9.63047 0.0842046 0.27013 
0.0842046 -9.50998 0.144563 
0.27013 0.144563 -9.76241 
-9.64563 0.0235326 0.223494 
0.0235326 -9.47558 0.0830932 
0.223494 0.0830932 -9.78164 
-9.63726 0.0779506 0.261222 
0.0779506 -9.54464 0.160996 
0.261222 0.160996 -9.72095 
-9.73517 0.0343869 0.237615 
0.0343869 -9.40368 0.181444 
0.237615 0.181444 -9.76401 
-8.54233 0.28582 1.70371 
0.28582 -7.70366 -0.895203 
1.70371 -0.895203 -0.877488 
-7.87666 -1.71341 3.18945 
-1.71341 -4.90888 1.92979 
3.18945 1.92979 -4.33794 
-4.7218 1.8604 2.06949 
1.8604 -9.45839 -0.860251 
2.06949 -0.860251 -2.94328 
-7.73487 1.75785 3.35932 
1.75785 -7.26552 0.902956 
3.35932 0.902956 -2.12309 
-9.72656 0.101971 0.383277 
0.101971 -9.64133 0.580876 
0.383277 0.580876 -9.75118 
-9.69388 0.0666912 0.351595 
0.0666912 -9.74552 0.558584 
0.351595 0.558584 -9.67965 
-9.75615 -0.228856 0.304552 
-0.228856 -9.87472 0.590853 
0.304552 0.590853 -9.48819 
-9.69825 0.0925952 0.182019 
0.0925952 -9.74097 0.368837 
0.182019 0.368837 -9.67984 
-9.86734 0.0249608 0.272229 
0.0249608 -9.82918 -0.0312933 
0.272229 -0.0312933 -9.94558 
-9.91662 -0.00566454 0.30076 
-0.00566454 -9.82491 -0.0159523 
0.30076 -0.0159523 -9.90056 
-9.87823 0.0228968 0.275343 
0.0228968 -9.81283 -0.0178715 
0.275343 -0.0178715 -9.95103 
-9.88034 0.0341521 0.287187 
0.0341521 -9.83269 -0.0207952 
0.287187 -0.0207952 -9.92906 
-9.6971 0.0207974 -0.0148822 
0.0207974 -9.71514 0.14223 
-0.0148822 0.14223 -9.67963 
-9.74413 -0.021111 0.0164824 
-0.021111 -9.73569 0.141514 
0.0164824 0.141514 -9.61205 
-9.75858 0.0126383 -0.0140171 
0.0126383 -9.7786 0.149872 
-0.0140171 0.149872 -9.55468 
-9.6943 -0.00638921 -0.00763916 
-0.00638921 -9.73551 0.16688 
-0.00763916 0.16688 -9.66206 
-9.9774 -0.00771182 -0.175443 
-0.00771182 -9.94348 -0.00155805 
-0.175443 -0.00155805 -9.89622 
-9.88762 0.000532224 -0.215095 
0.000532224 -9.91556 -0.048147 
-0.215095 -0.048147 -10.0139 
-9.90133 0.0273365 -0.229082 
0.0273365 -9.8898 -0.0101927 
-0.229082 -0.0101927 -10.026 
-10.0065 -0.0186481 -0.210108 
-0.0186481 -9.9203 -0.0136005 
-0.210108 -0.0136005 -9.89031 
-9.79386 -0.000486445 -0.50176 
-0.000486445 -9.8101 0.0699094 
-0.50176 0.0699094 -9.88134 
-9.80232 0.00198542 -0.485188 
0.00198542 -9.81799 0.0772158 
-0.485188 0.0772158 -9.86499 
-9.77453 0.0370351 -0.436736 
0.0370351 -9.85555 0.095444 
-0.436736 0.095444 -9.85523 
-9.75299 -0.0242013 -0.472672 
-0.0242013 -9.84284 0.115142 
-0.472672 0.115142 -9.88947 
-9.36093 0.0307504 0.456138 
0.0307504 -9.60884 -0.270745 
0.456138 -0.270745 -9.42518 
-9.43207 -0.0153249 0.51833 
-0.0153249 -9.55438 -0.279355 
0.51833 -0.279355 -9.40849 
-9.44579 0.00720531 0.510143 
0.00720531 -9.59139 -0.361825 
0.510143 -0.361825 -9.35777 
-9.39371 0.0174447 0.482338 
0.0174447 -9.71042 -0.320528 
0.482338 -0.320528 -9.29081 
-9.75323 -0.0696125 0.405713 
-0.0696125 -9.88124 0.212109 
0.405713 0.212109 -9.93548 
-9.96796 0.0406085 0.402396 
0.0406085 -9.80058 0.181186 
0.402396 0.181186 -9.8014 
-9.84756 -0.0445068 0.309999 
-0.0445068 -10.0102 0.0499192 
0.309999 0.0499192 -9.71218 
-9.94078 0.0020614 0.349255 
0.0020614 -9.79041 0.110145 
0.349255 0.110145 -9.83875 
-9.69439 -0.0280543 0.170394 
-0.0280543 -9.69902 0.278592 
0.170394 0.278592 -9.66835 
-9.6788 0.00861036 0.144754 
0.00861036 -9.71306 0.187022 
0.144754 0.187022 -9.66991 
-9.71553 -0.0147392 0.15395 
-0.0147392 -9.87684 0.140094 
0.15395 0.140094 -9.4694 
-9.68827 -0.000432167 0.185947 
-0.000432167 -9.77875 0.194101 
0.185947 0.194101 -9.59475 
-9.08791 0.17617 -0.327586 
0.17617 -9.43278 -0.0525172 
-0.327586 -0.0525172 -7.81469 
-9.67996 -0.0542052 -1.26047 
-0.0542052 -9.28761 0.181792 
-1.26047 0.181792 -7.36781 
-8.88088 -0.0926804 -1.0877 
-0.0926804 -8.13028 -0.156803 
-1.0877 -0.156803 -9.32422 
-9.14805 0.223525 -0.746918 
0.223525 -9.24186 -0.151996 
-0.746918 -0.151996 -7.94547 
-10.1124 0.502595 -0.261689 
0.502595 -9.29987 0.0263791 
-0.261689 0.0263791 -7.71729 
-9.67201 0.145929 -0.504522 
0.145929 -8.91648 0.18093 
-0.504522 0.18093 -8.54104 
-9.90479 -0.22425 0.0507704 
-0.22425 -9.11706 0.0429871 
0.0507704 0.0429871 -8.10768 
-9.39803 -0.203251 -0.385271 
-0.203251 -9.27413 0.458855 
-0.385271 0.458855 -8.45737 
-9.70295 -0.436913 -0.0912813 
-0.436913 -9.69126 0.0110837 
-0.0912813 0.0110837 -9.65187 
-9.35428 0.055234 -0.256569 
0.055234 -9.75355 -0.14412 
-0.256569 -0.14412 -9.93825 
-9.43078 -0.0293256 -0.16513 
-0.0293256 -9.74556 -0.0256417 
-0.16513 -0.0256417 -9.86974 
-9.79983 -0.0723929 -0.0309151 
-0.0723929 -9.23648 -0.0799398 
-0.0309151 -0.0799398 -10.0098 
-9.38322 0.0420363 0.042619 
0.0420363 -9.35454 0.133459 
0.042619 0.133459 -9.56264 
-9.38603 -0.124509 0.0634946 
-0.124509 -9.25733 0.0903048 
0.0634946 0.0903048 -9.65705 
-9.49474 -0.0928987 -0.0119458 
-0.0928987 -9.27717 -0.0347243 
-0.0119458 -0.0347243 -9.52849 
-9.56751 0.0638719 0.0919205 
0.0638719 -9.22819 0.0762154 
0.0919205 0.0762154 -9.50471 
-9.62311 0.115571 0.232828 
0.115571 -9.30534 -0.0666733 
0.232828 -0.0666733 -9.87134 
-9.60651 0.0872265 0.249684 
0.0872265 -9.29596 0.074358 
0.249684 0.074358 -9.89732 
-9.53121 0.0399459 0.194967 
0.0399459 -9.26337 -0.131809 
0.194967 -0.131809 -10.0052 
-9.66339 0.062515 0.365539 
0.062515 -9.40633 -0.0314669 
0.365539 -0.0314669 -9.73008 
-9.59747 -0.0346366 0.0258888 
-0.0346366 -9.59388 -0.0433751 
0.0258888 -0.0433751 -9.70753 
-9.6165 -0.0658328 0.0479309 
-0.0658328 -9.61423 0.00939102 
0.0479309 0.00939102 -9.66815 
-9.60444 -0.0424263 0.0798235 
-0.0424263 -9.61691 -0.0064281 
0.0798235 -0.0064281 -9.67753 
-9.60347 -0.0449304 0.0390545 
-0.0449304 -9.63994 0.0386593 
0.0390545 0.0386593 -9.65547 
-8.90484 -0.189949 -0.54414 
-0.189949 -9.21208 0.163443 
-0.54414 0.163443 -10.1017 
-9.46177 0.154961 -1.27388 
0.154961 -9.7671 0.00670263 
-1.27388 0.00670263 -8.98977 
-9.10431 0.0729155 -0.914767 
0.0729155 -9.76359 -0.289265 
-0.914767 -0.289265 -9.35074 
-9.48923 0.092113 -1.06835 
0.092113 -9.59815 -0.292187 
-1.06835 -0.292187 -9.13126 
-9.88927 0.00100788 -0.255509 
0.00100788 -9.78999 0.160405 
-0.255509 0.160405 -9.9162 
-9.85049 0.0139795 -0.29006 
0.0139795 -9.8577 0.15331 
-0.29006 0.15331 -9.88727 
-9.90691 0.00726953 -0.266487 
0.00726953 -9.80996 0.17133 
-0.266487 0.17133 -9.87858 
-9.84269 0.033874 -0.277478 
0.033874 -9.87011 0.148627 
-0.277478 0.148627 -9.88266 
-9.1901 0.290669 0.329296 
0.290669 -8.70825 0.155349 
0.329296 0.155349 -9.71407 
-8.73304 0.155782 0.746816 
0.155782 -8.76431 0.0310811 
0.746816 0.0310811 -10.1151 
-9.69321 0.29263 1.0938 
0.29263 -8.47028 0.313641 
1.0938 0.313641 -9.44894 
-9.38637 0.378875 0.750285 
0.378875 -8.52582 0.477937 
0.750285 0.477937 -9.70023 
-9.46527 -0.485048 -0.00630501 
-0.485048 -10.1218 -0.02083 
-0.00630501 -0.02083 -12.101 
-11.3519 0.351061 0.352031 
0.351061 -9.29368 -0.598382 
0.352031 -0.598382 -11.0425 
-9.33217 -0.874388 -0.250514 
-0.874388 -10.423 -0.131164 
-0.250514 -0.131164 -11.933 
-8.77932 -1.03211 0.748314 
-1.03211 -10.4414 -0.675635 
0.748314 -0.675635 -12.4674 
-9.73502 0.017838 0.0448699 
0.017838 -9.72979 -0.108349 
0.0448699 -0.108349 -9.74294 
-9.73521 0.00232782 0.0567021 
0.00232782 -9.79748 -0.026008 
0.0567021 -0.026008 -9.67506 
-9.77456 -0.00173179 0.0512528 
-0.00173179 -9.70764 -0.0881688 
0.0512528 -0.0881688 -9.72556 
-9.73326 0.00142095 0.066052 
0.00142095 -9.74591 -0.0715539 
0.066052 -0.0715539 -9.7286 
-10.6271 0.432391 0.298411 
0.432391 -8.64662 0.372638 
0.298411 0.372638 -10.7846 
-10.4501 0.950749 0.504726 
0.950749 -8.75771 0.49472 
0.504726 0.49472 -10.8504 
-10.7642 0.271625 0.337682 
0.271625 -8.43257 0.52151 
0.337682 0.52151 -10.8615 
-10.127 0.293554 0.550117 
0.293554 -9.79128 0.43616 
0.550117 0.43616 -10.14 
-9.91862 0.175672 0.00776536 
0.175672 -9.51943 0.00602185 
0.00776536 0.00602185 -9.62918 
-9.51353 -0.0581418 -0.194364 
-0.0581418 -9.65549 0.0641227 
-0.194364 0.0641227 -9.89822 
-9.49925 -0.10646 -0.0873911 
-0.10646 -9.71613 0.0645382 
-0.0873911 0.0645382 -9.85185 
-9.45051 0.0839883 -0.186382 
0.0839883 -9.76898 0.00266039 
-0.186382 0.00266039 -9.84775 
-9.80765 0.00367486 0.345475 
0.00367486 -9.81321 0.532019 
0.345475 0.532019 -9.75895 
-9.72639 -0.0369294 0.278275 
-0.0369294 -9.7914 0.434354 
0.278275 0.434354 -9.86202 
-9.80092 -0.0175486 0.342218 
-0.0175486 -9.80866 0.530643 
0.342218 0.530643 -9.77024 
-9.85008 -0.0106757 0.3438 
-0.0106757 -9.8552 0.541071 
0.3438 0.541071 -9.67452 
-9.41384 0.368388 0.0770643 
0.368388 -9.39457 0.27076 
0.0770643 0.27076 -11.1221 
-10.2402 0.360476 0.0734002 
0.360476 -8.86005 0.444318 
0.0734002 0.444318 -10.8302 
-9.75274 -0.0106013 0.180959 
-0.0106013 -9.48626 0.23724 
0.180959 0.23724 -10.6915 
-9.47352 0.100761 0.424024 
0.100761 -9.50064 -0.168733 
0.424024 -0.168733 -10.9563 
-9.46009 0.0175082 -0.285571 
0.0175082 -9.35112 0.75531 
-0.285571 0.75531 -9.47173 
-9.31569 -0.082394 0.41835 
-0.082394 -9.7475 0.84981 
0.41835 0.84981 -9.21975 
-9.47389 -0.137468 0.175863 
-0.137468 -9.50947 0.455265 
0.175863 0.455265 -9.29958 
-9.32627 -0.0143824 0.0145438 
-0.0143824 -9.60492 0.562086 
0.0145438 0.562086 -9.35176 
-9.82705 0.0163607 -0.421851 
0.0163607 -9.83876 0.247205 
-0.421851 0.247205 -9.9352 
-9.83095 -0.00990049 -0.45448 
-0.00990049 -9.8636 0.255493 
-0.45448 0.255493 -9.90646 
-9.85704 0.0163544 -0.400164 
0.0163544 -9.85239 0.220185 
-0.400164 0.220185 -9.89158 
-9.83442 2.60308e-05 -0.450716 
2.60308e-05 -9.87397 0.236704 
-0.450716 0.236704 -9.89262 
-6.99979 -0.632216 0.571063 
-0.632216 -6.15197 0.286796 
0.571063 0.286796 -1.04386 
-5.97022 0.0554896 -0.203765 
0.0554896 -6.19562 -0.242282 
-0.203765 -0.242282 -2.02977 
-6.61478 -0.209953 -0.225821 
-0.209953 -6.46563 0.452931 
-0.225821 0.452931 -1.1152 
-7.08255 0.619518 0.992835 
0.619518 -5.76543 -0.384908 
0.992835 -0.384908 -1.34763 
-10.0105 -3.89668 3.556 
-3.89668 -9.65563 0.0346278 
3.556 0.0346278 2.32476 
-6.08029 -2.00967 3.54455 
-2.00967 -4.74283 2.716 
3.54455 2.716 -6.51827 
-5.47975 3.36888 0.0674469 
3.36888 -7.54968 0.583614 
0.0674469 0.583614 -4.31197 
-7.6025 0.783748 1.07294 
0.783748 -6.17447 2.65106 
1.07294 2.65106 -3.56442 
-9.8044 0.00915146 -0.540502 
0.00915146 -9.78433 -0.206189 
-0.540502 -0.206189 -9.86625 
-9.80535 -0.00716076 -0.485425 
-0.00716076 -9.81233 -0.192819 
-0.485425 -0.192819 -9.83729 
-9.82236 -0.0210009 -0.480364 
-0.0210009 -9.83782 -0.138551 
-0.480364 -0.138551 -9.79479 
-9.81379 -0.00705623 -0.517377 
-0.00705623 -9.78405 -0.170656 
-0.517377 -0.170656 -9.85713 
-9.74417 0.0139598 0.168018 
0.0139598 -9.75739 0.477918 
0.168018 0.477918 -9.75046 
-9.70895 -0.0355369 0.168271 
-0.0355369 -9.84488 0.538167 
0.168271 0.538167 -9.69819 
-9.71664 -0.0279173 0.179516 
-0.0279173 -9.7739 0.561314 
0.179516 0.561314 -9.76148 
-9.7607 -0.017225 0.228752 
-0.017225 -9.82591 0.512197 
0.228752 0.512197 -9.66541 
-10.6599 0.0940431 0.0306315 
0.0940431 -10.3652 0.114835 
0.0306315 0.114835 -10.6883 
-10.7618 0.0921261 -0.0156179 
0.0921261 -10.7022 0.175935 
-0.0156179 0.175935 -10.2494 
-10.2781 -0.0110749 0.135714 
-0.0110749 -10.1864 -0.205033 
0.135714 -0.205033 -11.2489 
-10.6059 -0.14018 -0.0187933 
-0.14018 -10.0869 0.287436 
-0.0187933 0.287436 -11.0206 
-9.52521 0.0819426 0.118633 
0.0819426 -9.38682 0.0126233 
0.118633 0.0126233 -9.80363 
-9.50231 0.0801322 0.143699 
0.0801322 -9.34938 -0.118812 
0.143699 -0.118812 -9.86397 
-9.67985 0.160713 0.228693 
0.160713 -9.23224 0.0521295 
0.228693 0.0521295 -9.80357 
-9.4307 0.0306605 0.167589 
0.0306605 -9.47097 0.00478443 
0.167589 0.00478443 -9.81399 
-10.4244 0.0427225 0.234719 
0.0427225 -10.0217 0.0105234 
0.234719 0.0105234 -10.793 
-10.5706 0.0494693 0.0656846 
0.0494693 -10.0437 0.0654034 
0.0656846 0.0654034 -10.6247 
-10.5389 0.143767 0.268785 
0.143767 -9.80361 0.0807024 
0.268785 0.0807024 -10.8965 
-10.3488 -0.242317 -0.108453 
-0.242317 -10.1833 -0.0126298 
-0.108453 -0.0126298 -10.707 
-8.01848 1.58167 -0.9427 
1.58167 -10.3394 -0.469897 
-0.9427 -0.469897 -13.5739 
-8.60815 1.2939 -1.06651 
1.2939 -11.2133 -0.833645 
-1.06651 -0.833645 -12.1103 
-8.10245 -0.234246 -0.424613 
-0.234246 -11.3555 -0.677396 
-0.424613 -0.677396 -12.4739 
-8.314 0.851707 -1.10695 
0.851707 -10.9586 -0.446359 
-1.10695 -0.446359 -12.6592 
-9.18922 -0.0299842 0.138862 
-0.0299842 -9.59508 0.403499 
0.138862 0.403499 -9.2143 
-9.32438 -0.154549 0.308362 
-0.154549 -9.4218 0.346574 
0.308362 0.346574 -9.25242 
-9.27875 -0.0705459 0.165504 
-0.0705459 -9.49008 0.419803 
0.165504 0.419803 -9.22977 
-9.32684 -0.140312 0.10864 
-0.140312 -9.56487 0.391518 
0.10864 0.391518 -9.1069 
-9.62936 0.0504554 -0.334783 
0.0504554 -9.47292 0.189071 
-0.334783 0.189071 -9.6438 
-9.63427 0.103021 -0.335199 
0.103021 -9.43276 0.114245 
-0.335199 0.114245 -9.67905 
-9.57324 -0.00305082 -0.381084 
-0.00305082 -9.43127 0.176827 
-0.381084 0.176827 -9.74157 
-9.63385 0.1116 -0.367072 
0.1116 -9.45783 0.154224 
-0.367072 0.154224 -9.6544 
-9.65363 0.084626 0.296234 
0.084626 -9.45915 -0.0732383 
0.296234 -0.0732383 -9.65836 
-9.40234 0.0365259 0.169735 
0.0365259 -9.5621 -0.0538394 
0.169735 -0.0538394 -9.80669 
-9.67126 0.0367152 0.258848 
0.0367152 -9.47387 -0.109557 
0.258848 -0.109557 -9.626 
-9.50907 -0.0253314 0.298705 
-0.0253314 -9.49444 -0.0126258 
0.298705 -0.0126258 -9.76762 
-10.4068 0.0366248 -0.454792 
0.0366248 -10.0531 -0.131285 
-0.454792 -0.131285 -11.7992 
-8.94379 0.414144 -0.246763 
0.414144 -10.7677 0.474735 
-0.246763 0.474735 -12.5477 
-9.7759 0.364624 -0.900773 
0.364624 -11.7078 0.390188 
-0.900773 0.390188 -10.7755 
-11.2122 0.565004 0.551963 
0.565004 -9.39242 0.498762 
0.551963 0.498762 -11.6545 
-9.25338 -0.0206695 0.0104184 
-0.0206695 -9.52684 -0.158639 
0.0104184 -0.158639 -9.4218 
-9.2857 -0.0215399 0.0406947 
-0.0215399 -9.44284 -0.0702321 
0.0406947 -0.0702321 -9.47347 
-9.30057 0.00236646 0.0238456 
0.00236646 -9.45672 -0.0153891 
0.0238456 -0.0153891 -9.44472 
-9.30727 -0.00941399 -0.0221943 
-0.00941399 -9.39038 -0.0778762 
-0.0221943 -0.0778762 -9.50436 
-9.86906 0.0123907 -0.392059 
0.0123907 -9.80482 0.0363186 
-0.392059 0.0363186 -9.94585 
-9.8486 0.00914027 -0.448204 
0.00914027 -9.84577 0.0652278 
-0.448204 0.0652278 -9.92536 
-9.88081 -0.00831017 -0.46423 
-0.00831017 -9.8501 0.0739357 
-0.46423 0.0739357 -9.88882 
-9.85498 -0.0115062 -0.418028 
-0.0115062 -9.8521 0.0308733 
-0.418028 0.0308733 -9.91265 
-9.57931 -0.0237066 -0.487249 
-0.0237066 -9.70455 0.131083 
-0.487249 0.131083 -9.72228 
-9.61139 0.0345392 -0.3969 
0.0345392 -9.67556 0.212809 
-0.3969 0.212809 -9.7192 
-9.54367 -0.00756981 -0.420413 
-0.00756981 -9.69853 0.236059 
-0.420413 0.236059 -9.76395 
-9.59782 0.00731271 -0.417497 
0.00731271 -9.66207 0.0850081 
-0.417497 0.0850081 -9.74626 
-9.59193 0.0240013 0.468413 
0.0240013 -9.72035 0.568285 
0.468413 0.568285 -9.45652 
-9.73402 -0.0550179 0.433093 
-0.0550179 -9.72402 0.430223 
0.433093 0.430223 -9.31077 
-9.6133 -0.0304115 0.396991 
-0.0304115 -9.69015 0.49243 
0.396991 0.49243 -9.46536 
-9.57868 0.0135359 0.302305 
0.0135359 -9.62307 0.513722 
0.302305 0.513722 -9.56706 
-8.73201 -0.205214 0.335193 
-0.205214 -9.3422 -0.144327 
0.335193 -0.144327 -9.46533 
-9.57559 -0.532211 0.728543 
-0.532211 -8.94565 -0.0259555 
0.728543 -0.0259555 -9.01831 
-8.96268 -0.202906 0.563705 
-0.202906 -9.45102 0.0826608 
0.563705 0.0826608 -9.12585 
-9.11404 0.0603571 0.597263 
0.0603571 -8.94877 -0.257181 
0.597263 -0.257181 -9.47673 
-8.18002 -0.0505378 -1.03897 
-0.0505378 -10.6274 1.80457 
-1.03897 1.80457 -10.2007 
-8.29834 -1.27609 -1.11639 
-1.27609 -9.69673 1.04775 
-1.11639 1.04775 -11.0131 
-8.06967 -0.989912 -0.424725 
-0.989912 -9.92545 -1.07317 
-0.424725 -1.07317 -11.0131 
-8.64588 -0.568505 -1.96282 
-0.568505 -9.05185 -0.0227608 
-1.96282 -0.0227608 -11.3105 
-9.0504 0.0259822 -0.5384 
0.0259822 -9.32004 -0.760678 
-0.5384 -0.760678 -9.01719 
-9.27256 -0.163196 -0.650076 
-0.163196 -9.4323 -0.869348 
-0.650076 -0.869348 -8.68278 
-9.03851 0.378334 -0.584892 
0.378334 -9.17686 -0.705522 
-0.584892 -0.705522 -9.17226 
-8.95287 0.0236615 -0.398124 
0.0236615 -9.53815 -0.802339 
-0.398124 -0.802339 -8.89661 
-7.83235 0.52905 -0.669369 
0.52905 -6.36775 0.264663 
-0.669369 0.264663 -1.74348 
-3.93323 -0.398094 -0.592445 
-0.398094 -8.2386 -0.178814 
-0.592445 -0.178814 -3.77175 
-7.61878 0.702899 -0.533988 
0.702899 -6.9068 0.531959 
-0.533988 0.531959 -1.418 
-9.22635 0.969059 -3.22043 
0.969059 -5.12439 0.147625 
-3.22043 0.147625 -1.59285 
-9.58459 -0.0197366 0.210402 
-0.0197366 -9.71915 0.579369 
0.210402 0.579369 -9.53635 
-9.59639 -0.00898109 0.271724 
-0.00898109 -9.67142 0.54812 
0.271724 0.54812 -9.57229 
-9.59723 0.0505611 0.196993 
0.0505611 -9.66256 0.571985 
0.196993 0.571985 -9.5803 
-9.58048 -0.0119349 0.296598 
-0.0119349 -9.70696 0.522649 
0.296598 0.522649 -9.55265 
-9.59032 0.0691523 0.337072 
0.0691523 -9.53157 -0.108009 
0.337072 -0.108009 -9.95524 
-9.7029 0.0598015 0.366376 
0.0598015 -9.56425 -0.0319842 
0.366376 -0.0319842 -9.80999 
-9.67934 0.104448 0.344412 
0.104448 -9.48625 0.0359339 
0.344412 0.0359339 -9.91154 
-9.66605 0.0447023 0.367665 
0.0447023 -9.52456 -0.038195 
0.367665 -0.038195 -9.88651 
-9.39665 -0.0199308 0.143962 
-0.0199308 -9.45318 0.605914 
0.143962 0.605914 -9.41704 
-9.52284 0.0693955 0.123473 
0.0693955 -9.56216 0.753114 
0.123473 0.753114 -9.18188 
-9.39011 -0.0290162 0.142633 
-0.0290162 -9.43329 0.617806 
0.142633 0.617806 -9.44348 
-9.24781 0.0300033 0.0638479 
0.0300033 -9.55177 0.436615 
0.0638479 0.436615 -9.4673 
-11.4596 -0.517538 -0.255419 
-0.517538 -10.909 -0.263682 
-0.255419 -0.263682 -12.1537 
-10.2173 -0.260148 0.174894 
-0.260148 -10.8284 -0.190836 
0.174894 -0.190836 -13.4766 
-11.392 -0.0902593 -0.236452 
-0.0902593 -10.9792 -0.342708 
-0.236452 -0.342708 -12.151 
-11.3168 -0.0336186 -0.820656 
-0.0336186 -11.3425 -0.820071 
-0.820656 -0.820071 -11.863 
-9.77376 -0.107649 0.0939884 
-0.107649 -9.95047 0.0115685 
0.0939884 0.0115685 -9.77801 
-9.66897 0.163909 0.0300844 
0.163909 -9.85841 0.023869 
0.0300844 0.023869 -9.97487 
-9.71578 0.224103 0.133944 
0.224103 -9.74166 0.124642 
0.133944 0.124642 -10.0448 
-9.67332 0.0613446 0.0370465 
0.0613446 -9.77396 -0.0333698 
0.0370465 -0.0333698 -10.055 
-9.66299 -0.0659029 0.285322 
-0.0659029 -9.07595 -0.189354 
0.285322 -0.189354 -10.0093 
-9.56863 0.0623006 0.149964 
0.0623006 -9.18555 0.0193988 
0.149964 0.0193988 -9.99404 
-9.54604 0.0304139 0.330582 
0.0304139 -9.3201 -0.220467 
0.330582 -0.220467 -9.88208 
-9.50715 -0.0329904 0.455945 
-0.0329904 -9.35548 -0.156178 
0.455945 -0.156178 -9.88559 
-9.87143 0.00975256 0.482093 
0.00975256 -9.92644 -0.150232 
0.482093 -0.150232 -9.92004 
-9.90528 0.00949254 0.408106 
0.00949254 -9.87911 -0.137673 
0.408106 -0.137673 -9.93352 
-9.90006 0.0191279 0.441609 
0.0191279 -9.84108 -0.155662 
0.441609 -0.155662 -9.97678 
-9.87392 0.0263194 0.453008 
0.0263194 -9.90696 -0.113836 
0.453008 -0.113836 -9.93703 
-7.89747 -0.883148 1.26685 
-0.883148 -8.67881 -0.182826 
1.26685 -0.182826 -9.18978 
-8.25233 0.182559 1.41984 
0.182559 -9.2313 0.137041 
1.41984 0.137041 -8.28243 
-8.20026 -1.14336 1.12456 
-1.14336 -8.45957 -0.158896 
1.12456 -0.158896 -9.10624 
-7.44821 -1.05071 1.34194 
-1.05071 -8.84662 -0.259059 
1.34194 -0.259059 -9.47124 
-9.52014 0.000743992 0.20316 
0.000743992 -9.64083 0.699782 
0.20316 0.699782 -9.16319 
-9.3631 0.0250664 0.208194 
0.0250664 -9.83667 0.472775 
0.208194 0.472775 -9.1244 
-9.45373 -0.0194549 0.196714 
-0.0194549 -9.60629 0.640803 
0.196714 0.640803 -9.26414 
-9.48275 -0.060534 0.155033 
-0.060534 -9.58744 0.642405 
0.155033 0.642405 -9.25397 
-5.20297 -0.8953 1.60453 
-0.8953 -7.41045 -5.4405 
1.60453 -5.4405 -10.7732 
-11.5541 1.40076 -0.591254 
1.40076 -3.68789 -0.147554 
-0.591254 -0.147554 -8.14463 
-11.3409 -1.89627 2.77914 
-1.89627 -3.66436 -5.73944 
2.77914 -5.73944 -8.38137 
-7.57221 -1.13883 0.263055 
-1.13883 -9.24132 -3.24145 
0.263055 -3.24145 -6.57306 
-9.56488 -0.00071633 -0.366379 
-0.00071633 -9.40775 0.0719788 
-0.366379 0.0719788 -9.59115 
-8.98284 -0.0937398 -0.199022 
-0.0937398 -9.81529 -0.0942642 
-0.199022 -0.0942642 -9.76565 
-9.79066 -0.0584025 -0.300866 
-0.0584025 -9.30101 -0.0320846 
-0.300866 -0.0320846 -9.47212 
-9.40475 -0.148686 -0.551851 
-0.148686 -9.37727 -0.0662213 
-0.551851 -0.0662213 -9.78176 
-9.82952 0.0395681 0.411396 
0.0395681 -9.85183 -0.191932 
0.411396 -0.191932 -9.9195 
-9.8432 0.00838844 0.455195 
0.00838844 -9.86585 -0.224854 
0.455195 -0.224854 -9.8918 
-9.85352 0.040075 0.418817 
0.040075 -9.88024 -0.211398 
0.418817 -0.211398 -9.86709 
-9.8449 -0.00554896 0.463069 
-0.00554896 -9.8905 -0.217125 
0.463069 -0.217125 -9.86545 
-9.03263 -0.109034 0.966091 
-0.109034 -8.15351 -0.420449 
0.966091 -0.420449 -9.78522 
-9.62685 0.0945976 0.845605 
0.0945976 -8.41061 -0.531859 
0.845605 -0.531859 -8.9339 
-9.44159 -0.0728391 0.578436 
-0.0728391 -8.41474 -0.737354 
0.578436 -0.737354 -9.11503 
-9.11893 -0.436225 -0.372913 
-0.436225 -8.93557 0.0203718 
-0.372913 0.0203718 -8.91686 
-8.57293 0.67933 -1.39276 
0.67933 -8.12002 1.14391 
-1.39276 1.14391 -1.95238 
-8.28405 -0.477339 0.302881 
-0.477339 -7.27228 1.12697 
0.302881 1.12697 -3.08901 
-6.55654 0.123183 1.40431 
0.123183 -5.78111 0.761069 
1.40431 0.761069 -6.30768 
-7.79993 -1.29629 0.550835 
-1.29629 -6.95655 0.680579 
0.550835 0.680579 -3.88886 
-8.77318 0.103489 0.0318232 
0.103489 -9.09222 1.09776 
0.0318232 1.09776 -8.40379 
-9.32127 0.308566 0.126416 
0.308566 -9.01218 0.743552 
0.126416 0.743552 -7.93574 
-9.2812 -0.189002 -0.209738 
-0.189002 -8.94041 1.22791 
-0.209738 1.22791 -8.04757 
-8.78752 0.160045 0.0420077 
0.160045 -8.82452 0.933319 
0.0420077 0.933319 -8.65715 
-9.4009 0.0038119 0.343177 
0.0038119 -9.48533 0.630642 
0.343177 0.630642 -9.19576 
-9.39695 -0.0553302 0.215149 
-0.0553302 -9.48758 0.781674 
0.215149 0.781674 -9.19747 
-9.24588 0.128001 0.321988 
0.128001 -9.1941 0.628888 
0.321988 0.628888 -9.64201 
-9.32694 -0.00994306 0.179987 
-0.00994306 -9.55005 0.574379 
0.179987 0.574379 -9.20501 
-9.83962 0.0231839 0.369019 
0.0231839 -9.71398 -0.120519 
0.369019 -0.120519 -9.96263 
-9.81742 0.0433764 0.376172 
0.0433764 -9.70212 -0.0987119 
0.376172 -0.0987119 -9.99669 
-9.83529 0.0109736 0.412696 
0.0109736 -9.77086 0.0140684 
0.412696 0.0140684 -9.91008 
-9.83402 0.0307002 0.350652 
0.0307002 -9.74361 -0.0223177 
0.350652 -0.0223177 -9.9386 
-9.73707 -0.0148992 0.129154 
-0.0148992 -9.86402 -0.111684 
0.129154 -0.111684 -9.85836 
-9.84819 0.0102841 0.128358 
0.0102841 -9.8104 -0.128162 
0.128358 -0.128162 -9.80086 
-9.84356 0.0239582 0.117021 
0.0239582 -9.80634 -0.107732 
0.117021 -0.107732 -9.80954 
-9.77968 -0.017872 0.13684 
-0.017872 -9.91448 -0.0503214 
0.13684 -0.0503214 -9.76529 
-9.3829 0.165448 0.510299 
0.165448 -9.70955 0.413091 
0.510299 0.413091 -9.71776 
-9.5477 0.021842 0.507271 
0.021842 -9.74136 0.401629 
0.507271 0.401629 -9.52115 
-9.7312 -0.140023 0.654276 
-0.140023 -9.66714 0.453331 
0.654276 0.453331 -9.41187 
-9.73245 0.021893 0.504377 
0.021893 -9.6955 0.284828 
0.504377 0.284828 -9.38225 
-9.13988 -0.114149 0.819742 
-0.114149 -8.98338 -0.294896 
0.819742 -0.294896 -8.13451 
-9.16112 -0.146145 0.63402 
-0.146145 -9.11171 -0.406515 
0.63402 -0.406515 -7.98494 
-9.16999 -0.0382166 0.808923 
-0.0382166 -8.7421 -0.217149 
0.808923 -0.217149 -8.34568 
-9.00161 -0.24895 0.688012 
-0.24895 -9.15939 -0.160078 
0.688012 -0.160078 -8.09677 
-9.14755 0.0657035 -0.403342 
0.0657035 -9.44959 -0.410001 
-0.403342 -0.410001 -8.3689 
-9.02259 0.175733 -0.219726 
0.175733 -9.57819 -0.552158 
-0.219726 -0.552158 -8.36526 
-9.0452 0.291058 -0.445162 
0.291058 -9.49477 -0.151439 
-0.445162 -0.151439 -8.42606 
-9.42653 -0.110783 -0.0353094 
-0.110783 -8.86144 -0.591742 
-0.0353094 -0.591742 -8.67807 
-9.91956 -0.00822712 0.148804 
-0.00822712 -9.92174 -0.0591589 
0.148804 -0.0591589 -9.93425 
-9.91227 -0.000800379 0.137425 
-0.000800379 -9.9284 -0.056907 
0.137425 -0.056907 -9.93488 
-9.87901 -0.018835 0.108905 
-0.018835 -9.84995 -0.06964 
0.108905 -0.06964 -10.0466 
-9.93825 0.0048227 0.164772 
0.0048227 -9.93123 -0.0420158 
0.164772 -0.0420158 -9.90607 
-9.48436 0.0620687 -0.333611 
0.0620687 -9.47822 0.292204 
-0.333611 0.292204 -9.78168 
-9.42825 0.00637974 -0.411043 
0.00637974 -9.56317 0.263496 
-0.411043 0.263496 -9.75284 
-9.46014 -0.05954 -0.444779 
-0.05954 -9.60148 0.225449 
-0.444779 0.225449 -9.68263 
-9.41668 0.0199962 -0.424737 
0.0199962 -9.63508 0.206755 
-0.424737 0.206755 -9.69249 
-9.67815 0.0297606 0.371818 
0.0297606 -9.60449 -0.0862681 
0.371818 -0.0862681 -9.6752 
-9.6102 0.0323343 0.393551 
0.0323343 -9.57817 -0.105007 
0.393551 -0.105007 -9.76946 
-9.60597 0.023567 0.378786 
0.023567 -9.636 -0.0990323 
0.378786 -0.0990323 -9.71587 
-9.59624 0.0305248 0.359442 
0.0305248 -9.64135 -0.0989858 
0.359442 -0.0989858 -9.72024 
-10.318 -0.962987 1.60554 
-0.962987 -8.12808 0.590923 
1.60554 0.590923 -12.0572 
-11.7047 -0.185618 0.463166 
-0.185618 -6.11072 -0.733097 
0.463166 -0.733097 -12.6879 
-9.41955 -0.671555 1.49462 
-0.671555 -11.7286 -0.0889407 
1.49462 -0.0889407 -9.35511 
-10.9479 0.441321 -0.0872729 
0.441321 -7.14733 -0.328565 
-0.0872729 -0.328565 -12.408 
-6.70539 1.05045 -2.18243 
1.05045 -10.1802 -0.570095 
-2.18243 -0.570095 -7.7538 
-6.57939 0.314014 -2.05391 
0.314014 -7.1859 -2.52999 
-2.05391 -2.52999 -10.8741 
-7.10925 0.0510838 -3.20454 
0.0510838 -9.82758 0.169168 
-3.20454 0.169168 -7.70256 
-6.87107 0.449964 -1.03976 
0.449964 -11.2484 0.517016 
-1.03976 0.517016 -6.51989 
-3.03812 0.0765347 0.367853 
0.0765347 -2.60014 1.37042 
0.367853 1.37042 -3.52255 
-5.48317 -0.227655 0.0797356 
-0.227655 -2.86003 0.632742 
0.0797356 0.632742 -0.817606 
-4.65774 0.687969 -0.59656 
0.687969 -3.92305 0.540131 
-0.59656 0.540131 -0.580016 
-4.20477 -0.0500201 0.263481 
-0.0500201 -4.18246 2.06892 
0.263481 2.06892 -0.773579 
-9.61795 -0.0206357 0.329071 
-0.0206357 -9.64532 -0.138913 
0.329071 -0.138913 -9.47883 
-9.66881 -0.00986538 0.373373 
-0.00986538 -9.56154 -0.146825 
0.373373 -0.146825 -9.51176 
-9.74913 -0.0688777 0.411992 
-0.0688777 -9.55922 -0.0567817 
0.411992 -0.0567817 -9.43376 
-9.50029 -0.0222752 0.42674 
-0.0222752 -9.64805 -0.131003 
0.42674 -0.131003 -9.59376 
-9.24415 0.0345705 -0.724137 
0.0345705 -8.66448 0.191578 
-0.724137 0.191578 -10.1298 
-9.42498 0.0095685 -0.656035 
0.0095685 -9.18104 0.18924 
-0.656035 0.18924 -9.43239 
-9.06773 -0.049413 -0.480458 
-0.049413 -9.33838 0.134593 
-0.480458 0.134593 -9.6323 
-9.02956 0.209638 -0.567828 
0.209638 -9.24626 -0.0494747 
-0.567828 -0.0494747 -9.76258 
-9.20772 -0.1963 0.542325 
-0.1963 -9.27255 -0.273768 
0.542325 -0.273768 -8.88738 
-9.10523 -0.323214 0.405179 
-0.323214 -9.68045 -0.108999 
0.405179 -0.108999 -8.58197 
-9.06674 -0.317986 0.803847 
-0.317986 -9.53666 0.199985 
0.803847 0.199985 -8.76424 
-9.05285 -0.316489 0.784044 
-0.316489 -9.47812 -0.0294509 
0.784044 -0.0294509 -8.83668 
-9.82649 0.92667 -0.428076 
0.92667 -10.2345 -0.102656 
-0.428076 -0.102656 -11.6811 
-10.6263 -0.007393 -0.275056 
-0.007393 -10.1316 -0.0147691 
-0.275056 -0.0147691 -10.9841 
-10.1877 0.704083 0.19191 
0.704083 -10.4422 0.000161268 
0.19191 0.000161268 -11.1122 
-10.4371 0.553622 0.284886 
0.553622 -9.98884 -0.225086 
0.284886 -0.225086 -11.3161 
-9.56646 -0.0748343 0.379174 
-0.0748343 -9.59461 0.564212 
0.379174 0.564212 -9.40177 
-9.59752 0.0143542 0.391322 
0.0143542 -9.54132 0.479216 
0.391322 0.479216 -9.424 
-9.50457 -0.0158021 0.26427 
-0.0158021 -9.5747 0.596492 
0.26427 0.596492 -9.48357 
-9.43453 -0.0541796 0.183887 
-0.0541796 -9.68411 0.594651 
0.183887 0.594651 -9.4442 
-9.03912 -0.0751418 0.0470368 
-0.0751418 -8.82937 -0.71343 
0.0470368 -0.71343 -9.26251 
-9.0177 0.00111355 0.149353 
0.00111355 -8.99974 -0.715901 
0.149353 -0.715901 -9.11356 
-8.85207 0.130266 0.00421559 
0.130266 -9.27026 -0.888261 
0.00421559 -0.888261 -9.00866 
-8.96642 0.0577637 -0.0597873 
0.0577637 -9.23897 -0.717988 
-0.0597873 -0.717988 -8.92561 
-9.953 -0.00494698 0.289252 
-0.00494698 -9.94471 -0.0700002 
0.289252 -0.0700002 -9.92558 
-9.94673 0.0163276 0.301327 
0.0163276 -9.90338 -0.0626289 
0.301327 -0.0626289 -9.97318 
-9.91697 0.00686911 0.320876 
0.00686911 -9.87645 -0.0164408 
0.320876 -0.0164408 -10.0299 
-9.95292 0.0334385 0.283737 
0.0334385 -9.8954 -0.0818847 
0.283737 -0.0818847 -9.97497 
-9.59302 0.0315135 0.131997 
0.0315135 -9.50945 -0.00317747 
0.131997 -0.00317747 -9.41156 
-9.54139 0.0250586 0.138645 
0.0250586 -9.47957 0.0932552 
0.138645 0.0932552 -9.49306 
-9.53418 -0.0146277 0.190385 
-0.0146277 -9.48453 0.085032 
0.190385 0.085032 -9.4953 
-9.44874 -0.0673713 0.170542 
-0.0673713 -9.75568 0.161875 
0.170542 0.161875 -9.3096 
-9.81208 -0.00247972 0.418991 
-0.00247972 -9.78441 -0.0602998 
0.418991 -0.0602998 -9.92635 
-9.83507 0.00481063 0.384366 
0.00481063 -9.76219 -0.0473668 
0.384366 -0.0473668 -9.92557 
-9.86665 0.10433 0.396386 
0.10433 -9.78543 -0.055771 
0.396386 -0.055771 -9.87076 
-9.84104 0.0345052 0.365877 
0.0345052 -9.79806 -0.101382 
0.365877 -0.101382 -9.88373 
-9.29959 -0.220328 -0.476425 
-0.220328 -9.24887 0.211163 
-0.476425 0.211163 -9.03709 
-8.82132 -0.12196 -0.709093 
-0.12196 -9.63386 0.22733 
-0.709093 0.22733 -9.13037 
-8.88426 -0.144442 -0.375986 
-0.144442 -9.31992 0.503548 
-0.375986 0.503548 -9.38136 
-8.78473 -0.0199946 -0.403067 
-0.0199946 -9.53507 0.423614 
-0.403067 0.423614 -9.26575 
-9.86037 0.309054 0.203801 
0.309054 -8.88068 0.234489 
0.203801 0.234489 -10.6428 
-9.79848 0.245542 0.114644 
0.245542 -8.81578 0.0695123 
0.114644 0.0695123 -10.7696 
-9.6552 0.259289 0.0204561 
0.259289 -8.79321 0.254587 
0.0204561 0.254587 -10.9355 
-9.73667 0.349503 0.0832432 
0.349503 -8.93639 0.195892 
0.0832432 0.195892 -10.7108 
-9.44234 -0.0160953 0.0843026 
-0.0160953 -9.46471 0.00646518 
0.0843026 0.00646518 -9.92893 
-9.59554 0.0274722 0.0291405 
0.0274722 -9.59882 -0.109814 
0.0291405 -0.109814 -9.64162 
-9.48899 0.0390952 0.0251075 
0.0390952 -9.60054 -0.116291 
0.0251075 -0.116291 -9.74645 
-9.60242 0.0852261 -0.0514401 
0.0852261 -9.44797 -0.276986 
-0.0514401 -0.276986 -9.78559 
-8.45193 -1.11802 -2.59689 
-1.11802 -6.33661 1.36137 
-2.59689 1.36137 -1.92233 
-6.02244 1.07312 -0.895715 
1.07312 -7.28022 2.94501 
-0.895715 2.94501 -3.40821 
-8.08875 -0.115657 -1.29862 
-0.115657 -6.85908 1.71312 
-1.29862 1.71312 -1.76304 
-8.51467 0.804211 -2.12633 
0.804211 -6.16408 3.08455 
-2.12633 3.08455 -2.03212 
-9.42175 -0.305123 0.310209 
-0.305123 -8.98177 -1.43433 
0.310209 -1.43433 -8.67696 
-9.11026 0.0838728 0.664928 
0.0838728 -8.71415 -1.36339 
0.664928 -1.36339 -9.25606 
-8.51808 -0.260835 1.12172 
-0.260835 -8.96721 -0.229435 
1.12172 -0.229435 -9.59518 
-9.69334 -0.557972 1.38465 
-0.557972 -7.49103 -2.81934 
1.38465 -2.81934 -9.8961 
-9.61944 -0.0843204 0.46202 
-0.0843204 -9.78852 -0.426311 
0.46202 -0.426311 -9.78012 
-9.70061 0.0540541 0.452736 
0.0540541 -9.80568 -0.386727 
0.452736 -0.386727 -9.68179 
-9.71665 0.103546 0.421972 
0.103546 -9.75295 -0.360365 
0.421972 -0.360365 -9.71848 
-9.6132 0.042303 0.484109 
0.042303 -9.87611 -0.369991 
0.484109 -0.369991 -9.69877 
-9.27646 0.198228 0.476086 
0.198228 -9.55881 -0.277607 
0.476086 -0.277607 -9.34713 
-9.21599 -0.0529709 0.507495 
-0.0529709 -9.57523 -0.449487 
0.507495 -0.449487 -9.39117 
-9.19878 -0.0694281 0.537538 
-0.0694281 -9.58706 -0.406377 
0.537538 -0.406377 -9.39655 
-9.23367 0.0146259 0.59428 
0.0146259 -9.68698 -0.386627 
0.59428 -0.386627 -9.26175 
-9.49013 0.0116266 -0.609572 
0.0116266 -9.68374 -0.187625 
-0.609572 -0.187625 -9.50942 
-9.38692 -0.0217332 -0.419784 
-0.0217332 -9.5941 -0.302489 
-0.419784 -0.302489 -9.70227 
-9.4636 -0.123721 -0.523424 
-0.123721 -9.66048 -0.276153 
-0.523424 -0.276153 -9.55921 
-9.55265 -0.0840745 -0.543511 
-0.0840745 -9.72431 -0.0211699 
-0.543511 -0.0211699 -9.40633 
-9.44104 0.498978 -1.04231 
0.498978 -9.3659 -0.171336 
-1.04231 -0.171336 -8.968 
-9.10481 0.0919066 -0.595196 
0.0919066 -9.25909 0.18849 
-0.595196 0.18849 -9.41104 
-9.0967 0.260083 -0.494832 
0.260083 -8.99279 0.0581501 
-0.494832 0.0581501 -9.68545 
-9.22109 0.0670991 -0.829349 
0.0670991 -9.10426 0.143228 
-0.829349 0.143228 -9.44959 
-9.85965 0.0113676 0.353257 
0.0113676 -9.88869 0.471205 
0.353257 0.471205 -9.83774 
-9.82604 -0.0246529 0.316464 
-0.0246529 -9.86793 0.425645 
0.316464 0.425645 -9.89211 
-9.85368 0.00682331 0.291909 
0.00682331 -9.85804 0.437837 
0.291909 0.437837 -9.87437 
-9.89923 -0.0557149 0.353935 
-0.0557149 -9.8997 0.475856 
0.353935 0.475856 -9.78715 
-9.61918 0.0606175 0.458463 
0.0606175 -9.65057 -0.107943 
0.458463 -0.107943 -9.75929 
-9.61006 0.0868441 0.451435 
0.0868441 -9.5517 0.00505347 
0.451435 0.00505347 -9.86728 
-9.67889 0.0933967 0.411672 
0.0933967 -9.61633 -0.0841767 
0.411672 -0.0841767 -9.73382 
-9.58903 -0.0320601 0.39926 
-0.0320601 -9.61839 -0.0567508 
0.39926 -0.0567508 -9.82162 
-8.99341 -0.140424 -0.0473825 
-0.140424 -9.38952 -0.269895 
-0.0473825 -0.269895 -9.30063 
-8.77432 0.147544 0.199704 
0.147544 -9.24113 -0.16886 
0.199704 -0.16886 -9.66811 
-9.09028 -0.0503018 0.0534884 
-0.0503018 -9.28886 -0.133499 
0.0534884 -0.133499 -9.30441 
-8.93387 0.020811 0.0345683 
0.020811 -9.20062 -0.0894651 
0.0345683 -0.0894651 -9.54907 
-9.96423 -0.0310089 0.00944682 
-0.0310089 -9.96125 0.208839 
0.00944682 0.208839 -9.91171 
-9.84767 -0.0109661 0.0432808 
-0.0109661 -9.86657 0.208344 
0.0432808 0.208344 -10.123 
-9.97821 -0.0118459 0.00382439 
-0.0118459 -9.94871 0.22243 
0.00382439 0.22243 -9.91028 
-9.97423 -0.00969512 0.0401258 
-0.00969512 -9.98297 0.228377 
0.0401258 0.228377 -9.88 
-9.63933 1.1998 -1.02858 
1.1998 -9.80263 -0.479793 
-1.02858 -0.479793 -11.3359 
-10.1471 1.04833 -0.893541 
1.04833 -9.91887 -0.404769 
-0.893541 -0.404769 -10.7119 
-10.3268 1.27832 -0.812731 
1.27832 -9.58314 -0.446411 
-0.812731 -0.446411 -10.8679 
-9.84416 0.467164 0.311999 
0.467164 -9.08388 0.0635651 
0.311999 0.0635651 -11.8498 
-9.83937 0.0170923 -0.0915776 
0.0170923 -9.78419 0.0914719 
-0.0915776 0.0914719 -9.61928 
-9.78305 -0.0406752 -0.075171 
-0.0406752 -9.80175 0.0760335 
-0.075171 0.0760335 -9.65804 
-9.75215 0.0535679 -0.0546971 
0.0535679 -9.7121 0.0898263 
-0.0546971 0.0898263 -9.77859 
-9.80087 0.0116288 -0.110199 
0.0116288 -9.70165 0.0760295 
-0.110199 0.0760295 -9.74032 
-9.54465 -0.147311 -0.319617 
-0.147311 -9.17583 0.355402 
-0.319617 0.355402 -9.72398 
-9.28557 -0.0854947 -0.0319102 
-0.0854947 -9.51098 0.297748 
-0.0319102 0.297748 -9.64791 
-9.37058 -0.0622227 -0.0421565 
-0.0622227 -9.3236 0.11503 
-0.0421565 0.11503 -9.75026 
-9.70281 -0.0886473 0.135135 
-0.0886473 -9.59259 0.401031 
0.135135 0.401031 -9.14905 
-9.91154 0.0609319 -0.130417 
0.0609319 -9.69108 0.0393236 
-0.130417 0.0393236 -9.75867 
-9.82307 0.0466259 -0.11462 
0.0466259 -9.69761 0.0529673 
-0.11462 0.0529673 -9.84061 
-9.79549 0.0344236 -0.153377 
0.0344236 -9.72467 0.0677669 
-0.153377 0.0677669 -9.84112 
-9.87735 0.0619015 -0.154034 
0.0619015 -9.71029 -0.0243375 
-0.154034 -0.0243375 -9.77364 
-8.6727 0.169446 -3.63117 
0.169446 -7.52215 -0.0319779 
-3.63117 -0.0319779 -3.47017 
-3.43247 0.48429 -2.39171 
0.48429 -10.4089 0.0691976 
-2.39171 0.0691976 -5.8237 
-5.97801 0.902171 -4.00491 
0.902171 -7.83057 -0.41641 
-4.00491 -0.41641 -5.85644 
-7.3857 0.078644 -3.71881 
0.078644 -6.40772 -2.24062 
-3.71881 -2.24062 -5.87161 
-4.99353 -1.21371 2.21366 
-1.21371 -10.5608 0.39592 
2.21366 0.39592 -3.80386 
-9.47019 1.71326 3.19208 
1.71326 -4.36748 -1.857 
3.19208 -1.857 -5.52051 
-11.1962 0.890744 1.42916 
0.890744 -6.83918 2.65354 
1.42916 2.65354 -1.32281 
-5.43008 -1.24146 2.29403 
-1.24146 -10.3714 -1.63612 
2.29403 -1.63612 -3.55671 
-9.26151 0.101172 -0.350932 
0.101172 -9.74532 0.440335 
-0.350932 0.440335 -9.17888 
-9.25013 -0.0352693 -0.376735 
-0.0352693 -9.57359 0.433733 
-0.376735 0.433733 -9.36199 
-9.28686 -0.250828 -0.487514 
-0.250828 -9.42345 0.546615 
-0.487514 0.546615 -9.4754 
-9.17488 -0.119595 -0.364697 
-0.119595 -9.50228 0.301133 
-0.364697 0.301133 -9.50855 
-9.62921 -0.0477343 0.00987869 
-0.0477343 -9.63168 -0.101551 
0.00987869 -0.101551 -9.70049 
-9.6478 -0.0311296 0.0478178 
-0.0311296 -9.72139 -0.0454269 
0.0478178 -0.0454269 -9.59219 
-9.66078 0.00407999 0.04258 
0.00407999 -9.6894 0.012751 
0.04258 0.012751 -9.61119 
-9.61921 -0.0374934 0.0605994 
-0.0374934 -9.67854 -0.0418136 
0.0605994 -0.0418136 -9.66363 
-9.46547 0.323408 0.36121 
0.323408 -8.8835 0.243163 
0.36121 0.243163 -9.46604 
-9.51399 0.317538 0.404716 
0.317538 -8.95046 0.184716 
0.404716 0.184716 -9.35056 
-9.54625 0.169068 0.340085 
0.169068 -8.94708 0.135528 
0.340085 0.135528 -9.32168 
-9.70396 0.314585 0.508365 
0.314585 -8.78663 0.367693 
0.508365 0.367693 -9.32442 
-9.85398 -0.0224035 -0.291764 
-0.0224035 -9.79981 0.135715 
-0.291764 0.135715 -9.95612 
-9.91483 -0.0364462 -0.278087 
-0.0364462 -9.85683 0.0435209 
-0.278087 0.0435209 -9.83826 
-9.88682 -0.00530015 -0.294797 
-0.00530015 -9.83169 0.0642059 
-0.294797 0.0642059 -9.89141 
-9.91668 -0.00576957 -0.29747 
-0.00576957 -9.8066 0.118552 
-0.29747 0.118552 -9.88664 
-9.01334 -0.174542 -0.555535 
-0.174542 -9.07156 0.268925 
-0.555535 0.268925 -9.98517 
-9.42713 0.206754 -0.467991 
0.206754 -9.07124 0.204961 
-0.467991 0.204961 -9.5717 
-9.29948 0.231249 -0.441187 
0.231249 -9.60852 0.0917632 
-0.441187 0.0917632 -9.16207 
-9.01309 0.0450841 -0.971494 
0.0450841 -9.29287 -0.138655 
-0.971494 -0.138655 -9.76412 
-9.18374 0.0290378 -0.0619458 
0.0290378 -9.72408 -0.0224623 
-0.0619458 -0.0224623 -9.79921 
-9.2795 -0.0191977 0.0229682 
-0.0191977 -9.65572 0.0762721 
0.0229682 0.0762721 -9.77182 
-9.29741 -0.00645718 -0.123282 
-0.00645718 -9.74965 0.156271 
-0.123282 0.156271 -9.65997 
-9.35406 0.0606963 -0.132785 
0.0606963 -9.66004 0.107887 
-0.132785 0.107887 -9.69293 
-9.94077 0.0283741 0.318733 
0.0283741 -9.71586 -0.296714 
0.318733 -0.296714 -9.9376 
-9.80505 -0.024664 0.307833 
-0.024664 -10.004 -0.31814 
0.307833 -0.31814 -9.78514 
-9.89672 0.0116785 0.328286 
0.0116785 -9.91607 -0.25335 
0.328286 -0.25335 -9.78144 
-9.84539 0.0223596 0.324461 
0.0223596 -9.93403 -0.262232 
0.324461 -0.262232 -9.81481 
-8.85828 -0.109114 0.315064 
-0.109114 -9.14441 0.113483 
0.315064 0.113483 -9.94888 
-9.33566 -0.130266 0.299912 
-0.130266 -8.9119 0.11905 
0.299912 0.11905 -9.70401 
-9.28293 -0.0515147 0.612115 
-0.0515147 -8.6475 0.00875347 
0.612115 0.00875347 -10.0211 
-9.10295 -0.329474 0.527549 
-0.329474 -8.98043 -0.313194 
0.527549 -0.313194 -9.8682 
-9.88394 -0.00747602 -0.361667 
-0.00747602 -9.86986 0.139917 
-0.361667 0.139917 -9.95716 
-9.90217 0.0138725 -0.366318 
0.0138725 -9.86715 0.115346 
-0.366318 0.115346 -9.94164 
-9.90933 0.0048888 -0.378885 
0.0048888 -9.85854 0.130039 
-0.378885 0.130039 -9.94309 
-9.90408 0.00323246 -0.376591 
0.00323246 -9.87853 0.116549 
-0.376591 0.116549 -9.92835 
-9.28039 0.0220621 -0.0226529 
0.0220621 -9.50081 -0.202699 
-0.0226529 -0.202699 -9.13653 
-9.25921 0.0487246 -0.120839 
0.0487246 -9.5983 -0.245192 
-0.120839 -0.245192 -9.06022 
-9.23875 0.00538629 -0.0659142 
0.00538629 -9.55323 -0.178205 
-0.0659142 -0.178205 -9.12574 
-9.17611 -0.219911 -0.0968346 
-0.219911 -9.68966 -0.0891567 
-0.0968346 -0.0891567 -9.05196 
-9.6771 0.178054 0.267404 
0.178054 -9.44798 0.253303 
0.267404 0.253303 -9.71779 
-9.69477 0.054854 0.166238 
0.054854 -9.56262 0.346358 
0.166238 0.346358 -9.58548 
-9.68586 0.0646454 0.296021 
0.0646454 -9.28258 0.16629 
0.296021 0.16629 -9.87442 
-9.95759 0.0845362 0.511131 
0.0845362 -9.23368 0.314023 
0.511131 0.314023 -9.6516 
-9.55921 -0.239242 -0.135682 
-0.239242 -10.162 -0.398013 
-0.135682 -0.398013 -10.0171 
-9.43122 -0.266998 -0.732883 
-0.266998 -8.99468 0.71885 
-0.732883 0.71885 -11.3124 
-9.39287 -0.495549 -0.0756861 
-0.495549 -9.28102 0.341778 
-0.0756861 0.341778 -11.0644 
-9.43346 -0.850994 -0.713409 
-0.850994 -9.43315 0.677165 
-0.713409 0.677165 -10.8717 
-9.69273 -0.00458914 -0.455488 
-0.00458914 -9.73103 -0.000844581 
-0.455488 -0.000844581 -9.78199 
-9.70823 0.0031107 -0.44591 
0.0031107 -9.68405 -0.0183356 
-0.44591 -0.0183356 -9.81348 
-9.71973 -0.0172711 -0.474787 
-0.0172711 -9.71143 0.0133884 
-0.474787 0.0133884 -9.77459 
-9.6958 -0.00370833 -0.478625 
-0.00370833 -9.70787 0.00939433 
-0.478625 0.00939433 -9.80208 
-10.2243 0.0431246 0.0741197 
0.0431246 -9.86754 -0.068913 
0.0741197 -0.068913 -10.0837 
-10.0853 -0.161641 0.101763 
-0.161641 -9.91051 -0.0658569 
0.101763 -0.0658569 -10.1797 
-9.60734 -0.105013 -0.0435813 
-0.105013 -9.67388 0.115444 
-0.0435813 0.115444 -10.8943 
-10.0468 -0.268508 0.450515 
-0.268508 -9.87774 -0.231597 
0.450515 -0.231597 -10.251 
-9.30924 -0.0188529 -0.197989 
-0.0188529 -9.48201 -0.00155191 
-0.197989 -0.00155191 -9.76623 
-9.3246 -0.0746233 -0.276847 
-0.0746233 -9.46159 -0.0144983 
-0.276847 -0.0144983 -9.77129 
-9.35373 -0.0335294 -0.2778 
-0.0335294 -9.52008 0.0620882 
-0.2778 0.0620882 -9.68367 
-9.25976 -0.0875168 -0.283565 
-0.0875168 -9.46139 0.00533147 
-0.283565 0.00533147 -9.83633 
-9.43956 0.152503 0.399255 
0.152503 -9.50661 -0.149674 
0.399255 -0.149674 -9.81867 
-9.48077 0.0807793 0.409594 
0.0807793 -9.51409 -0.15049 
0.409594 -0.15049 -9.76998 
-9.52807 0.0235795 0.358746 
0.0235795 -9.59925 -0.106422 
0.358746 -0.106422 -9.63751 
-9.57265 0.0462199 0.440974 
0.0462199 -9.49388 -0.0976885 
0.440974 -0.0976885 -9.69831 
-9.55162 0.27281 -0.00255761 
0.27281 -8.94333 0.114918 
-0.00255761 0.114918 -10.3106 
-9.51346 0.434261 0.193647 
0.434261 -9.02014 0.362629 
0.193647 0.362629 -10.272 
-9.54109 0.246412 0.201489 
0.246412 -8.94297 -0.00786553 
0.201489 -0.00786553 -10.3215 
-9.44109 0.374332 0.128357 
0.374332 -8.96801 -0.125376 
0.128357 -0.125376 -10.3965 
-9.24577 0.611315 0.609277 
0.611315 -9.49051 -0.687532 
0.609277 -0.687532 7.85301 
-4.93448 0.510555 1.0813 
0.510555 -6.35068 -1.43559 
1.0813 -1.43559 0.401896 
-2.02739 0.411277 -1.25352 
0.411277 -2.20404 -0.798737 
-1.25352 -0.798737 -6.65183 
-3.42304 0.163462 3.69467 
0.163462 -4.00098 -5.94442 
3.69467 -5.94442 -3.45925 
-9.55934 0.184443 0.056481 
0.184443 -9.00633 -0.075019 
0.056481 -0.075019 -10.0847 
-9.61235 0.203555 0.0643148 
0.203555 -8.78695 -0.137672 
0.0643148 -0.137672 -10.2511 
-9.26098 0.247559 -0.00725379 
0.247559 -8.97444 -0.287419 
-0.00725379 -0.287419 -10.4149 
-9.40603 0.16563 0.188437 
0.16563 -8.83006 -0.105682 
0.188437 -0.105682 -10.4143 
-9.7663 -0.00337209 -0.339628 
-0.00337209 -9.79711 0.433663 
-0.339628 0.433663 -9.75129 
-9.77721 -0.0239551 -0.288426 
-0.0239551 -9.7656 0.420218 
-0.288426 0.420218 -9.77189 
-9.80304 -0.0400594 -0.349454 
-0.0400594 -9.81415 0.437065 
-0.349454 0.437065 -9.69752 
-9.72607 0.0130457 -0.364721 
0.0130457 -9.82944 0.431821 
-0.364721 0.431821 -9.75919 
-1.86481 3.48685 -2.61193 
3.48685 -12.9295 0.982447 
-2.61193 0.982447 -16.3869 
-9.06249 -0.270255 -1.70985 
-0.270255 -10.5144 -0.827502 
-1.70985 -0.827502 -11.6042 
-9.06577 -0.41478 -0.246689 
-0.41478 -10.129 0.292669 
-0.246689 0.292669 -11.9864 
-8.7162 -1.44378 -1.74057 
-1.44378 -10.5482 -0.871011 
-1.74057 -0.871011 -11.9167 
-9.76761 0.00102761 -0.415508 
0.00102761 -9.80549 0.30152 
-0.415508 0.30152 -9.8702 
-9.78428 -0.014777 -0.388656 
-0.014777 -9.80872 0.279665 
-0.388656 0.279665 -9.8503 
-9.77006 0.0343648 -0.411675 
0.0343648 -9.79544 0.304701 
-0.411675 0.304701 -9.87781 
-9.74905 -0.0339307 -0.435216 
-0.0339307 -9.85007 0.266397 
-0.435216 0.266397 -9.84419 
-9.08904 -0.251532 0.243323 
-0.251532 -9.19983 0.0768557 
0.243323 0.0768557 -10.3448 
-8.98847 -0.314594 0.256009 
-0.314594 -9.12391 -0.027727 
0.256009 -0.027727 -10.5213 
-9.17188 -0.538251 0.289858 
-0.538251 -8.97847 0.118879 
0.289858 0.118879 -10.4834 
-9.21213 -0.319413 0.661365 
-0.319413 -8.89601 -0.204279 
0.661365 -0.204279 -10.5256 
-9.60607 -0.0182703 -0.354558 
-0.0182703 -9.53677 0.07817 
-0.354558 0.07817 -9.61056 
-9.35345 -0.0456659 -0.494746 
-0.0456659 -9.66364 0.0344993 
-0.494746 0.0344993 -9.73633 
-9.68805 0.0155935 -0.35616 
0.0155935 -9.54027 0.0444008 
-0.35616 0.0444008 -9.5251 
-9.44593 0.0106951 -0.301302 
0.0106951 -9.53179 -0.00701763 
-0.301302 -0.00701763 -9.7757 
-9.7111 0.0204915 0.121899 
0.0204915 -9.76943 0.472491 
0.121899 0.472491 -9.73091 
-9.66872 -0.0056242 0.109772 
-0.0056242 -9.8046 0.395251 
0.109772 0.395251 -9.73811 
-9.75679 -0.0840367 0.146023 
-0.0840367 -9.83997 0.448866 
0.146023 0.448866 -9.61467 
-9.74066 -0.0319171 0.223787 
-0.0319171 -9.89578 0.399988 
0.223787 0.399988 -9.57499 
-9.9664 0.547739 0.370596 
0.547739 -9.33315 0.750961 
0.370596 0.750961 -9.8347 
-9.55176 0.572113 0.727021 
0.572113 -9.18116 1.09234 
0.727021 1.09234 -10.4013 
-10.0281 0.464375 0.624986 
0.464375 -9.24639 0.696333 
0.624986 0.696333 -9.8598 
-10.2592 0.343473 0.759183 
0.343473 -9.30361 1.01655 
0.759183 1.01655 -9.57141 
-9.735 -0.328112 -0.375381 
-0.328112 -9.92544 0.169633 
-0.375381 0.169633 -11.2714 
-9.86294 -0.140255 -0.262109 
-0.140255 -10.2534 -0.0778921 
-0.262109 -0.0778921 -10.8154 
-9.9329 -0.827787 -0.226168 
-0.827787 -9.91309 0.0891444 
-0.226168 0.0891444 -11.0858 
-9.80219 -0.88233 -0.528945 
-0.88233 -10.0304 0.483674 
-0.528945 0.483674 -11.0992 
-9.71307 -0.0142158 -0.451873 
-0.0142158 -9.74693 0.183445 
-0.451873 0.183445 -9.78454 
-9.76979 0.0527116 -0.46394 
0.0527116 -9.7421 0.171668 
-0.46394 0.171668 -9.73266 
-9.68074 -0.00746596 -0.468787 
-0.00746596 -9.74011 0.190003 
-0.468787 0.190003 -9.82369 
-9.70862 -0.0128067 -0.401943 
-0.0128067 -9.75003 0.152811 
-0.401943 0.152811 -9.78589 
-9.52362 0.149686 -0.551471 
0.149686 -9.55765 -0.396206 
-0.551471 -0.396206 -9.97115 
-9.63124 -0.00897649 -0.490135 
-0.00897649 -9.74192 -0.312957 
-0.490135 -0.312957 -9.67926 
-9.72812 -0.223454 -0.478671 
-0.223454 -9.94102 -0.331076 
-0.478671 -0.331076 -9.38327 
-9.56499 0.0717575 -0.437797 
0.0717575 -9.73511 0.0189402 
-0.437797 0.0189402 -9.75231 
-9.26559 0.0304138 -0.461037 
0.0304138 -9.69236 -0.0805447 
-0.461037 -0.0805447 -9.57418 
-9.53659 -0.160607 -0.548187 
-0.160607 -9.53511 -0.239185 
-0.548187 -0.239185 -9.46041 
-9.44189 -0.0638541 -0.516319 
-0.0638541 -9.55638 -0.175453 
-0.516319 -0.175453 -9.53385 
-9.3735 0.0465994 -0.614517 
0.0465994 -9.44476 -0.129926 
-0.614517 -0.129926 -9.71387 
-9.91401 -0.0800157 -0.00806689 
-0.0800157 -9.60431 0.105427 
-0.00806689 0.105427 -9.93864 
-9.78074 -0.0548231 0.114199 
-0.0548231 -9.86897 -0.0769116 
0.114199 -0.0769116 -9.80725 
-9.91928 0.0692639 -0.0616965 
0.0692639 -9.76002 0.0189887 
-0.0616965 0.0189887 -9.77767 
-9.86713 7.46505e-05 0.0340633 
7.46505e-05 -9.70024 0.0396977 
0.0340633 0.0396977 -9.88959 
-9.42366 0.00136576 -0.479443 
0.00136576 -9.27644 0.352953 
-0.479443 0.352953 -9.48357 
-10.0347 0.308975 -0.229417 
0.308975 -9.38121 0.225883 
-0.229417 0.225883 -8.76777 
-9.73808 -0.105659 -0.783293 
-0.105659 -9.44587 0.649073 
-0.783293 0.649073 -8.99972 
-9.91413 0.151848 -0.448987 
0.151848 -9.56133 0.0301922 
-0.448987 0.0301922 -8.70821 
-5.89256 0.0773602 -0.498011 
0.0773602 -7.05254 1.49923 
-0.498011 1.49923 -3.0377 
-7.93513 -0.619722 -0.782846 
-0.619722 -3.29411 0.0749192 
-0.782846 0.0749192 -4.75356 
-7.63051 -0.278868 -0.444985 
-0.278868 -6.78549 0.892998 
-0.444985 0.892998 -1.5668 
-5.54036 0.111784 -0.683907 
0.111784 -7.49589 2.95284 
-0.683907 2.95284 -2.94655 
-9.84634 -0.00230588 0.233169 
-0.00230588 -9.81547 0.483298 
0.233169 0.483298 -9.83085 
-9.78187 -0.028267 0.211898 
-0.028267 -9.83996 0.474108 
0.211898 0.474108 -9.87084 
-9.86046 -0.0140547 0.221699 
-0.0140547 -9.81617 0.545723 
0.221699 0.545723 -9.81603 
-9.79579 -0.0103127 0.237119 
-0.0103127 -9.95893 0.560559 
0.237119 0.560559 -9.73795 
-9.91348 -0.000194522 -0.242931 
-0.000194522 -9.94525 0.438602 
-0.242931 0.438602 -10.0261 
-9.98956 -0.0136738 -0.234066 
-0.0136738 -9.97123 0.434084 
-0.234066 0.434084 -9.92402 
-9.94205 0.0201636 -0.225025 
0.0201636 -9.95501 0.428439 
-0.225025 0.428439 -9.98774 
-9.95265 -0.00559067 -0.242459 
-0.00559067 -9.98909 0.393075 
-0.242459 0.393075 -9.94307 
-8.95453 -0.377739 0.560548 
-0.377739 -9.21817 0.0527053 
0.560548 0.0527053 -9.488 
-8.73656 -0.357516 0.25215 
-0.357516 -9.37458 0.0508824 
0.25215 0.0508824 -9.54957 
-9.13946 -0.633808 0.585737 
-0.633808 -8.96447 0.229246 
0.585737 0.229246 -9.55677 
-8.67506 -0.265672 0.340309 
-0.265672 -9.32361 0.0953617 
0.340309 0.0953617 -9.66204 
-9.85442 0.000335826 -0.391553 
0.000335826 -9.79962 0.127705 
-0.391553 0.127705 -9.92691 
-9.83283 -0.000160638 -0.430263 
-0.000160638 -9.82828 0.111694 
-0.430263 0.111694 -9.91983 
-9.80511 -0.0103373 -0.422633 
-0.0103373 -9.85617 0.132067 
-0.422633 0.132067 -9.91967 
-9.88194 0.0185978 -0.48346 
0.0185978 -9.8195 0.121822 
-0.48346 0.121822 -9.87951 
-9.91918 -0.00193876 0.0252721 
-0.00193876 -9.94384 0.046999 
0.0252721 0.046999 -9.94511 
-9.93015 0.0165609 0.034223 
0.0165609 -9.9264 0.0430819 
0.034223 0.0430819 -9.95158 
-9.87797 0.0298928 0.0322114 
0.0298928 -9.89736 0.0818884 
0.0322114 0.0818884 -10.0328 
-9.94735 0.0206723 0.0254771 
0.0206723 -9.91784 0.0115277 
0.0254771 0.0115277 -9.94293 
-9.88188 0.00648653 -0.40876 
0.00648653 -9.84175 0.0300995 
-0.40876 0.0300995 -9.92439 
-9.85063 -0.0112186 -0.418134 
-0.0112186 -9.84026 0.00698091 
-0.418134 0.00698091 -9.95713 
-9.87688 0.0116733 -0.417463 
0.0116733 -9.83885 0.0575363 
-0.417463 0.0575363 -9.9323 
-9.85471 -0.034055 -0.400619 
-0.034055 -9.91729 0.067189 
-0.400619 0.067189 -9.87603 
-9.98041 -0.00214876 -0.211728 
-0.00214876 -9.94076 0.0301818 
-0.211728 0.0301818 -9.90312 
-9.92561 0.00441257 -0.222786 
0.00441257 -9.90683 0.00851753 
-0.222786 0.00851753 -9.99185 
-9.89657 0.0249066 -0.232832 
0.0249066 -9.87314 0.0453587 
-0.232832 0.0453587 -10.0546 
-9.99529 -0.00627432 -0.257593 
-0.00627432 -9.9099 9.63877e-05 
-0.257593 9.63877e-05 -9.9191 
-9.39116 0.006611 0.0576034 
0.006611 -9.61038 -0.348907 
0.0576034 -0.348907 -9.22663 
-9.37391 0.00335947 0.00847148 
0.00335947 -9.53977 -0.418004 
0.00847148 -0.418004 -9.31448 
-9.38223 0.0210993 0.0430807 
0.0210993 -9.61267 -0.278657 
0.0430807 -0.278657 -9.23326 
-9.41898 -0.0546541 0.0992083 
-0.0546541 -9.71125 -0.397469 
0.0992083 -0.397469 -9.09794 
-9.81814 -0.00457136 -0.29887 
-0.00457136 -9.86764 -0.495693 
-0.29887 -0.495693 -9.82252 
-9.83792 0.0158677 -0.350967 
0.0158677 -9.92434 -0.47552 
-0.350967 -0.47552 -9.74605 
-9.81376 0.0253078 -0.393056 
0.0253078 -9.91261 -0.522149 
-0.393056 -0.522149 -9.78194 
-9.81775 -0.0135641 -0.402939 
-0.0135641 -9.95877 -0.469456 
-0.402939 -0.469456 -9.73179 
-9.75816 0.00782791 0.346238 
0.00782791 -9.73219 -0.19291 
0.346238 -0.19291 -9.71609 
-9.7984 0.0611573 0.341501 
0.0611573 -9.94688 -0.11998 
0.341501 -0.11998 -9.46115 
-9.74152 0.00981514 0.266914 
0.00981514 -9.7702 -0.103759 
0.266914 -0.103759 -9.6947 
-9.74424 0.0152339 0.317792 
0.0152339 -9.82785 -0.123738 
0.317792 -0.123738 -9.63435 
-8.26626 -1.25175 0.791948 
-1.25175 -7.3133 -0.213038 
0.791948 -0.213038 -9.54882 
-8.78412 -0.514965 1.22465 
-0.514965 -8.41179 -1.42282 
1.22465 -1.42282 -7.93248 
-7.42896 -0.798036 1.88702 
-0.798036 -8.49879 -1.18834 
1.88702 -1.18834 -9.20063 
-8.61635 -0.0407672 1.4448 
-0.0407672 -8.52513 -0.84676 
1.4448 -0.84676 -7.9869 
-9.21593 0.0238421 -0.342885 
0.0238421 -9.56056 -0.0797723 
-0.342885 -0.0797723 -9.61251 
-9.39889 -0.298964 -0.441852 
-0.298964 -9.58791 -0.0979583 
-0.441852 -0.0979583 -9.4022 
-9.223 0.0926263 -0.362162 
0.0926263 -9.56441 -0.188667 
-0.362162 -0.188667 -9.60158 
-9.44762 -0.144825 -0.328403 
-0.144825 -9.38566 0.00469098 
-0.328403 0.00469098 -9.55573 
-9.27907 0.0234484 0.0454004 
0.0234484 -9.58037 -0.407412 
0.0454004 -0.407412 -9.0762 
-9.21229 -0.0202842 -0.0257622 
-0.0202842 -9.59759 -0.402463 
-0.0257622 -0.402463 -9.12576 
-9.33397 0.0100411 0.0993327 
0.0100411 -9.51166 -0.471626 
0.0993327 -0.471626 -9.09002 
-9.40907 -0.0118512 0.0146852 
-0.0118512 -9.54972 -0.447693 
0.0146852 -0.447693 -8.97686 
-9.6517 -1.89555 0.561683 
-1.89555 -5.87816 2.64916 
0.561683 2.64916 -5.8117 
-8.05475 0.208991 -0.0172789 
0.208991 -8.10502 3.87986 
-0.0172789 3.87986 -5.1818 
-8.45211 1.04697 1.6759 
1.04697 -9.67158 3.40419 
1.6759 3.40419 -3.21787 
-7.46522 2.05066 -2.25225 
2.05066 -7.47195 3.74814 
-2.25225 3.74814 -6.40438 
-10.6666 -0.23885 0.42416 
-0.23885 -9.88705 0.562209 
0.42416 0.562209 -12.801 
-10.6894 0.073752 0.690002 
0.073752 -9.86083 -0.129154 
0.690002 -0.129154 -12.8045 
-13.0542 0.53763 -0.519565 
0.53763 -11.7348 0.569587 
-0.519565 0.569587 -8.56567 
-10.4353 -0.113032 -0.998618 
-0.113032 -10.3414 -0.112562 
-0.998618 -0.112562 -12.578 
-6.00094 0.216664 0.936255 
0.216664 -7.0794 -0.0284993 
0.936255 -0.0284993 -0.667063 
-5.47892 0.0523943 0.0298533 
0.0523943 -6.13084 -0.463833 
0.0298533 -0.463833 -2.13765 
-6.28357 1.0971 -0.273519 
1.0971 -6.94204 -0.240314 
-0.273519 -0.240314 -0.521802 
-6.42021 0.589548 1.98849 
0.589548 -5.508 1.59507 
1.98849 1.59507 -1.8192 
-8.1838 0.568825 -1.36784 
0.568825 -9.25477 0.332268 
-1.36784 0.332268 -13.4675 
-11.1214 -0.609694 1.01322 
-0.609694 -9.9767 -0.917555 
1.01322 -0.917555 -9.80801 
-10.7631 -0.191059 1.15604 
-0.191059 -10.7788 -0.798079 
1.15604 -0.798079 -9.36423 
-7.78283 -1.82787 1.16117 
-1.82787 -10.3992 -0.270207 
1.16117 -0.270207 -12.7241 
-9.57449 -0.068418 0.322271 
-0.068418 -9.57842 0.589006 
0.322271 0.589006 -9.85891 
-9.8793 -0.0246886 0.499579 
-0.0246886 -9.77596 0.472126 
0.499579 0.472126 -9.35657 
-9.67736 -0.0159257 0.299458 
-0.0159257 -9.70483 0.410287 
0.299458 0.410287 -9.62963 
-9.66821 -0.0359769 0.352658 
-0.0359769 -9.71443 0.407526 
0.352658 0.407526 -9.62918 
-9.98492 -0.00817348 -0.0117971 
-0.00817348 -9.97425 0.445184 
-0.0117971 0.445184 -9.89434 
-9.86297 0.00596152 0.0215289 
0.00596152 -9.8618 0.518259 
0.0215289 0.518259 -10.1287 
-10.0071 0.012918 -0.0169655 
0.012918 -9.93909 0.474096 
-0.0169655 0.474096 -9.90733 
-9.99057 -0.0178849 0.0245638 
-0.0178849 -9.99724 0.458946 
0.0245638 0.458946 -9.86571 
-9.39564 -0.0166675 0.036785 
-0.0166675 -9.33119 0.217978 
0.036785 0.217978 -9.62774 
-9.42134 -0.0371935 0.085179 
-0.0371935 -9.46937 0.299191 
0.085179 0.299191 -9.46385 
-9.45722 -0.0646601 0.0925478 
-0.0646601 -9.34784 0.095734 
0.0925478 0.095734 -9.54951 
-9.42658 -0.0628443 0.0184638 
-0.0628443 -9.40091 0.224139 
0.0184638 0.224139 -9.52708 
-6.29564 0.0202547 -2.52223 
0.0202547 -11.4384 -0.265993 
-2.52223 -0.265993 -20.4608 
-12.2735 1.17908 -0.938337 
1.17908 -8.56989 -0.479777 
-0.938337 -0.479777 -17.3515 
-11.4535 -2.5169 1.48636 
-2.5169 -14.5448 0.834113 
1.48636 0.834113 -12.1966 
-9.44673 0.527318 -0.579156 
0.527318 -13.7941 2.31768 
-0.579156 2.31768 -14.954 
-9.8063 -0.660549 -0.0136507 
-0.660549 -9.36256 -0.535309 
-0.0136507 -0.535309 -11.75 
-10.2243 -0.379663 0.692747 
-0.379663 -9.81305 0.122251 
0.692747 0.122251 -10.8815 
-9.76485 -0.604371 0.268933 
-0.604371 -9.48017 -0.435292 
0.268933 -0.435292 -11.6739 
-9.4748 -0.785465 0.357306 
-0.785465 -9.83264 -0.0472269 
0.357306 -0.0472269 -11.6114 
-9.77199 -0.0101668 -0.152019 
-0.0101668 -9.74759 -0.349456 
-0.152019 -0.349456 -9.6653 
-9.80591 -0.0615757 -0.00849835 
-0.0615757 -9.90537 -0.416446 
-0.00849835 -0.416446 -9.47361 
-9.72994 -0.0104851 -0.123607 
-0.0104851 -9.90852 -0.388599 
-0.123607 -0.388599 -9.54642 
-9.68644 -0.0306394 -0.139143 
-0.0306394 -9.85393 -0.24219 
-0.139143 -0.24219 -9.64451 
-9.82131 0.0169672 0.437319 
0.0169672 -9.77515 -0.186159 
0.437319 -0.186159 -9.87044 
-9.78934 0.0522366 0.459626 
0.0522366 -9.80403 -0.241965 
0.459626 -0.241965 -9.87354 
-9.82681 0.0176323 0.41688 
0.0176323 -9.82392 -0.243285 
0.41688 -0.243285 -9.81618 
-9.8242 0.0188187 0.455403 
0.0188187 -9.80764 -0.260978 
0.455403 -0.260978 -9.83506 
-8.86789 -0.639151 -1.07461 
-0.639151 -8.40793 1.40722 
-1.07461 1.40722 -8.56542 
-7.53157 -0.705619 -1.52107 
-0.705619 -8.58994 1.80379 
-1.52107 1.80379 -9.71973 
-8.63858 -1.09804 -0.647963 
-1.09804 -7.7354 0.316286 
-0.647963 0.316286 -9.46726 
-9.08011 -0.0749653 -1.27306 
-0.0749653 -8.45093 0.881742 
-1.27306 0.881742 -8.31019 
-9.48547 -0.0241281 -0.419835 
-0.0241281 -9.57219 0.126459 
-0.419835 0.126459 -9.75553 
-9.50971 -0.00949861 -0.428223 
-0.00949861 -9.55905 0.0842244 
-0.428223 0.0842244 -9.74444 
-9.51517 0.0676653 -0.41182 
0.0676653 -9.58619 -0.0195231 
-0.41182 -0.0195231 -9.71183 
-9.50705 -0.0939115 -0.418403 
-0.0939115 -9.55086 0.0291362 
-0.418403 0.0291362 -9.75529 
-9.62715 0.011241 -0.403528 
0.011241 -9.7295 0.319947 
-0.403528 0.319947 -9.87525 
-9.71424 0.00990409 -0.410028 
0.00990409 -9.80488 0.289673 
-0.410028 0.289673 -9.71279 
-9.68882 -0.0113574 -0.374239 
-0.0113574 -9.74093 0.275773 
-0.374239 0.275773 -9.80214 
-9.68044 -0.0140637 -0.366737 
-0.0140637 -9.7622 0.290838 
-0.366737 0.290838 -9.78926 
-9.61493 0.00606221 0.249766 
0.00606221 -9.2678 -0.0775174 
0.249766 -0.0775174 -10.0432 
-9.66622 0.0882964 0.202876 
0.0882964 -9.35622 0.0765577 
0.202876 0.0765577 -9.90347 
-9.64451 0.0606265 0.228804 
0.0606265 -9.38976 0.012945 
0.228804 0.012945 -9.89163 
-9.60863 0.0769395 0.232317 
0.0769395 -9.48729 0.00262129 
0.232317 0.00262129 -9.82998 
-9.85546 0.0257048 -0.295914 
0.0257048 -9.89483 -0.121601 
-0.295914 -0.121601 -10.0813 
-9.94741 -0.057966 -0.358237 
-0.057966 -9.96056 -0.144508 
-0.358237 -0.144508 -9.92363 
-9.9643 -0.00770628 -0.353033 
-0.00770628 -9.94978 -0.127398 
-0.353033 -0.127398 -9.91752 
-9.97821 -0.0155009 -0.34811 
-0.0155009 -9.95737 -0.101774 
-0.34811 -0.101774 -9.89602 
-9.60478 -0.037655 -0.265374 
-0.037655 -9.45745 -0.00671152 
-0.265374 -0.00671152 -9.48128 
-9.68978 0.0181522 -0.186923 
0.0181522 -9.4159 -0.0344839 
-0.186923 -0.0344839 -9.43783 
-9.65624 0.00888034 -0.178277 
0.00888034 -9.53245 -0.0520813 
-0.178277 -0.0520813 -9.35483 
-9.57036 -0.051428 -0.110973 
-0.051428 -9.59502 0.0372041 
-0.110973 0.0372041 -9.37814 
-8.71782 -0.21972 -0.482768 
-0.21972 -9.34583 0.00982305 
-0.482768 0.00982305 -9.54276 
-8.99634 0.180778 -0.703792 
0.180778 -9.54971 -0.237006 
-0.703792 -0.237006 -9.06035 
-8.95021 -0.0215077 -0.060541 
-0.0215077 -9.26971 -0.61041 
-0.060541 -0.61041 -9.38649 
-8.93855 -0.130057 -0.419899 
-0.130057 -9.37698 -0.0992406 
-0.419899 -0.0992406 -9.29088 
-8.98435 -0.367904 -0.889775 
-0.367904 -9.35655 0.626161 
-0.889775 0.626161 -9.59699 
-8.77991 -0.148345 -0.893496 
-0.148345 -10.2515 0.294112 
-0.893496 0.294112 -8.90651 
-8.88932 -0.0969271 -0.721446 
-0.0969271 -9.5152 0.495598 
-0.721446 0.495598 -9.53338 
-8.89519 0.124184 -0.0601612 
0.124184 -9.52929 0.251425 
-0.0601612 0.251425 -9.51341 
-9.6011 -0.00999795 0.107141 
-0.00999795 -9.73741 0.440557 
0.107141 0.440557 -9.58788 
-9.62024 -0.0187165 0.185726 
-0.0187165 -9.82048 0.35115 
0.185726 0.35115 -9.48567 
-9.61619 -0.0641626 0.19514 
-0.0641626 -9.82233 0.43247 
0.19514 0.43247 -9.48787 
-9.65626 -0.0222014 0.194994 
-0.0222014 -9.67135 0.404799 
0.194994 0.404799 -9.59878 
-9.60164 0.130339 0.0799459 
0.130339 -9.66302 -0.00805268 
0.0799459 -0.00805268 -9.80026 
-9.58738 0.132858 0.0655205 
0.132858 -9.64671 -0.0200989 
0.0655205 -0.0200989 -9.83083 
-9.54914 0.0935555 0.0531266 
0.0935555 -9.68258 -0.0452836 
0.0531266 -0.0452836 -9.8332 
-9.6138 0.140788 0.0779985 
0.140788 -9.6491 -0.0329309 
0.0779985 -0.0329309 -9.80203 
-9.76417 0.0154977 -0.353418 
0.0154977 -9.75829 0.199129 
-0.353418 0.199129 -9.84555 
-9.78268 -0.000925312 -0.388543 
-0.000925312 -9.76472 0.184332 
-0.388543 0.184332 -9.82061 
-9.74893 -0.00978757 -0.373514 
-0.00978757 -9.77057 0.201789 
-0.373514 0.201789 -9.84852 
-9.80305 0.01092 -0.418738 
0.01092 -9.7705 0.215789 
-0.418738 0.215789 -9.79446 
-8.51096 -1.12914 -2.15529 
-1.12914 -8.22978 0.528272 
-2.15529 0.528272 -8.20975 
-8.30719 -1.3071 -1.99202 
-1.3071 -8.44152 1.04635 
-1.99202 1.04635 -8.20178 
-7.88505 -0.28685 -1.68205 
-0.28685 -9.11185 0.358286 
-1.68205 0.358286 -7.95359 
-8.69332 -1.02686 -2.13764 
-1.02686 -8.29425 1.16056 
-2.13764 1.16056 -7.96293 
-9.10023 0.321198 0.752626 
0.321198 -9.27148 0.236157 
0.752626 0.236157 -9.45959 
-9.3359 0.124625 0.45245 
0.124625 -9.09975 0.212022 
0.45245 0.212022 -9.39565 
-9.13221 0.163675 0.86859 
0.163675 -9.36818 0.26586 
0.86859 0.26586 -9.33091 
-9.62612 0.406925 1.12063 
0.406925 -9.34866 0.829923 
1.12063 0.829923 -8.85652 
-8.21101 0.730748 0.59573 
0.730748 -6.04033 -1.28764 
0.59573 -1.28764 -9.78816 
-8.56441 0.0672641 -0.70824 
0.0672641 -7.63873 -1.24181 
-0.70824 -1.24181 -7.83636 
-9.07977 -1.73908 0.550366 
-1.73908 -8.68187 -2.58907 
0.550366 -2.58907 -6.27785 
-6.66272 -0.607522 0.471892 
-0.607522 -9.30752 -2.32644 
0.471892 -2.32644 -8.06926 
-9.93223 -1.50282 1.12337 
-1.50282 -7.75859 -0.755049 
1.12337 -0.755049 -8.92763 
-6.97896 0.0286978 1.84315 
0.0286978 -11.2206 -0.173306 
1.84315 -0.173306 -8.41891 
-5.66017 0.0846153 1.93554 
0.0846153 -10.7653 -1.61605 
1.93554 -1.61605 -10.1929 
-8.88554 0.123957 2.62315 
0.123957 -8.33031 -0.46428 
2.62315 -0.46428 -9.4026 
-9.78743 -0.0351304 -0.27971 
-0.0351304 -9.8435 0.421935 
-0.27971 0.421935 -9.8718 
-9.8712 -0.124089 -0.260304 
-0.124089 -9.90596 0.34268 
-0.260304 0.34268 -9.72557 
-9.83742 0.0183486 -0.28203 
0.0183486 -9.85428 0.385608 
-0.28203 0.385608 -9.81104 
-9.81979 0.0460175 -0.322998 
0.0460175 -9.86675 0.326588 
-0.322998 0.326588 -9.81619 
-7.63521 -0.889667 0.400932 
-0.889667 -8.93708 0.679654 
0.400932 0.679654 -11.6265 
-7.81861 -1.15495 -0.287773 
-1.15495 -9.72614 1.06928 
-0.287773 1.06928 -10.654 
-8.83298 0.0101885 0.87982 
0.0101885 -11.0407 1.08984 
0.87982 1.08984 -8.3251 
-8.05758 -0.882236 -0.211273 
-0.882236 -9.3295 0.858371 
-0.211273 0.858371 -10.8117 
-9.91501 -0.00765391 -0.0679916 
-0.00765391 -9.96121 -0.390391 
-0.0679916 -0.390391 -10.0196 
-9.95626 -0.00355608 -0.053843 
-0.00355608 -9.98798 -0.401575 
-0.053843 -0.401575 -9.95161 
-9.95241 -0.0103335 -0.0427215 
-0.0103335 -9.96925 -0.393068 
-0.0427215 -0.393068 -9.9742 
-9.9589 -0.0225565 -0.0278275 
-0.0225565 -9.99354 -0.430673 
-0.0278275 -0.430673 -9.94342 
-9.72311 -0.0178382 0.104153 
-0.0178382 -9.75343 0.0449425 
0.104153 0.0449425 -9.64278 
-9.71569 -0.00936738 0.0593662 
-0.00936738 -9.77233 0.0498837 
0.0593662 0.0498837 -9.63129 
-9.69438 -0.0134009 0.0908759 
-0.0134009 -9.72089 0.0469519 
0.0908759 0.0469519 -9.70405 
-9.70431 -0.0272494 0.0814409 
-0.0272494 -9.73803 0.037932 
0.0814409 0.037932 -9.67697 
-9.8662 0.0632021 -0.205841 
0.0632021 -9.71235 0.0111229 
-0.205841 0.0111229 -9.94141 
-9.86674 0.0372575 -0.26081 
0.0372575 -9.80605 0.0727465 
-0.26081 0.0727465 -9.84718 
-10.009 0.0998595 -0.258724 
0.0998595 -9.761 0.143551 
-0.258724 0.143551 -9.75001 
-9.82639 0.0165234 -0.306689 
0.0165234 -9.85432 0.0708138 
-0.306689 0.0708138 -9.83926 
-9.57322 0.120673 0.035679 
0.120673 -9.12957 -0.0933344 
0.035679 -0.0933344 -10.2336 
-9.53377 0.156335 0.0341202 
0.156335 -9.1247 -0.105852 
0.0341202 -0.105852 -10.2779 
-9.55291 0.101383 0.027299 
0.101383 -9.17662 -0.0946826 
0.027299 -0.0946826 -10.2069 
-9.56337 0.110799 0.218705 
0.110799 -9.27634 0.0749526 
0.218705 0.0749526 -10.0967 
-5.32503 0.269087 -1.52008 
0.269087 -10.5898 0.805405 
-1.52008 0.805405 -18.3759 
-12.1445 3.95287 3.6398 
3.95287 -13.7932 -0.613766 
3.6398 -0.613766 -8.35301 
-9.9841 -2.7712 -2.35349 
-2.7712 -6.30711 1.8118 
-2.35349 1.8118 -17.9995 
-6.20284 -1.52632 0.0147818 
-1.52632 -12.6044 -3.42038 
0.0147818 -3.42038 -15.4834 
-5.5025 0.775442 -1.71559 
0.775442 -5.54093 -2.85734 
-1.71559 -2.85734 -4.51877 
-5.18172 -1.2665 -2.74032 
-1.2665 -5.76932 -1.48998 
-2.74032 -1.48998 -4.61116 
-5.4589 1.97635 -1.10179 
1.97635 -5.47949 -2.47836 
-1.10179 -2.47836 -4.62381 
-6.06052 0.236407 -1.93397 
0.236407 -5.95953 -2.90173 
-1.93397 -2.90173 -3.54214 
-9.88273 0.00779069 -0.491013 
0.00779069 -9.85317 0.0822053 
-0.491013 0.0822053 -9.97102 
-9.87065 -0.0164833 -0.495652 
-0.0164833 -9.89575 0.0900099 
-0.495652 0.0900099 -9.94051 
-9.87741 0.0134742 -0.465837 
0.0134742 -9.87831 0.0839351 
-0.465837 0.0839351 -9.95119 
-9.87971 -0.0115574 -0.494711 
-0.0115574 -9.89671 0.0891439 
-0.494711 0.0891439 -9.93049 
-9.77989 0.00937592 -0.433402 
0.00937592 -9.82673 0.264733 
-0.433402 0.264733 -9.85978 
-9.80078 0.0195188 -0.411309 
0.0195188 -9.80655 0.273656 
-0.411309 0.273656 -9.85907 
-9.76736 0.00547826 -0.424629 
0.00547826 -9.80082 0.255479 
-0.424629 0.255479 -9.89822 
-9.80378 0.00103051 -0.446582 
0.00103051 -9.83979 0.283528 
-0.446582 0.283528 -9.82283 
-9.07398 -0.295505 -0.351436 
-0.295505 -8.58852 0.886053 
-0.351436 0.886053 -8.89231 
-8.90188 -0.104099 -0.140751 
-0.104099 -9.24874 0.836499 
-0.140751 0.836499 -8.40418 
-9.131 0.0826248 0.391993 
0.0826248 -8.97579 1.10049 
0.391993 1.10049 -8.44801 
-9.08143 -0.113424 0.0428729 
-0.113424 -9.05746 0.886198 
0.0428729 0.886198 -8.41591 
-9.91115 -0.0275786 -0.187329 
-0.0275786 -9.87583 0.15091 
-0.187329 0.15091 -10.0361 
-9.92852 -0.0080107 -0.234799 
-0.0080107 -9.93077 0.146956 
-0.234799 0.146956 -9.96374 
-9.93629 0.00325293 -0.236188 
0.00325293 -9.96737 0.176216 
-0.236188 0.176216 -9.91937 
-9.96354 0.0198802 -0.237794 
0.0198802 -9.95893 0.161078 
-0.237794 0.161078 -9.90057 
-9.45507 -0.02067 -0.343764 
-0.02067 -9.54907 0.1085 
-0.343764 0.1085 -9.75432 
-9.28832 -0.0418924 -0.426756 
-0.0418924 -9.61208 0.13427 
-0.426756 0.13427 -9.85806 
-9.55259 -0.012438 -0.462508 
-0.012438 -9.44356 0.0941943 
-0.462508 0.0941943 -9.76233 
-9.40676 -0.027928 -0.412124 
-0.027928 -9.54041 0.186755 
-0.412124 0.186755 -9.8113 
-7.73585 -1.13065 0.461896 
-1.13065 -8.48736 -0.327908 
0.461896 -0.327908 -9.64151 
-7.98773 -0.835527 3.27229 
-0.835527 -7.4195 0.843427 
3.27229 0.843427 -10.4575 
-8.39348 0.720625 3.30001 
0.720625 -8.08427 2.09012 
3.30001 2.09012 -9.38698 
-8.6358 -0.0477125 -0.281184 
-0.0477125 -9.30956 -0.911251 
-0.281184 -0.911251 -7.91937 
-3.35082 -0.152194 -2.03046 
-0.152194 -2.98637 -1.24528 
-2.03046 -1.24528 -2.68167 
-4.64048 1.14739 -3.11842 
1.14739 -3.33151 -1.20178 
-3.11842 -1.20178 -1.04688 
-2.60438 -0.29791 -2.60683 
-0.29791 -2.8406 -1.69581 
-2.60683 -1.69581 -3.57389 
-5.15153 -0.266667 -3.67352 
-0.266667 -5.31431 -1.02193 
-3.67352 -1.02193 1.44697 
-9.4464 0.0132393 -0.0219139 
0.0132393 -9.59416 -0.14869 
-0.0219139 -0.14869 -9.29486 
-9.40389 -0.017066 0.0170274 
-0.017066 -9.56024 -0.209125 
0.0170274 -0.209125 -9.37128 
-9.38234 -0.0874928 0.0318567 
-0.0874928 -9.60613 -0.184613 
0.0318567 -0.184613 -9.34694 
-9.4129 0.122261 0.114991 
0.122261 -9.50018 -0.152847 
0.114991 -0.152847 -9.42233 
-9.92525 -0.0124702 0.34231 
-0.0124702 -9.86144 -0.080444 
0.34231 -0.080444 -10.018 
-9.93348 0.000802225 0.376181 
0.000802225 -9.92963 -0.0759228 
0.376181 -0.0759228 -9.9416 
-9.93006 0.0136177 0.366695 
0.0136177 -9.90803 -0.0644147 
0.366695 -0.0644147 -9.96661 
-9.92719 0.0101696 0.390566 
0.0101696 -9.92665 -0.0691177 
0.390566 -0.0691177 -9.95087 
-8.55272 0.300687 -0.423567 
0.300687 -9.20942 -0.18702 
-0.423567 -0.18702 -9.29754 
-8.00976 0.209544 -1.17896 
0.209544 -9.57709 -0.90416 
-1.17896 -0.90416 -9.47283 
-8.94469 -0.663927 0.1468 
-0.663927 -8.81442 0.655913 
0.1468 0.655913 -9.30056 
-8.55687 0.313816 -0.890207 
0.313816 -8.8466 -0.839187 
-0.890207 -0.839187 -9.6562 
-9.60814 -0.0349771 -0.419552 
-0.0349771 -9.55291 0.211331 
-0.419552 0.211331 -9.74625 
-9.69219 0.105018 -0.461293 
0.105018 -9.49509 0.154205 
-0.461293 0.154205 -9.72003 
-9.53823 -0.00185881 -0.360662 
-0.00185881 -9.58621 0.0957391 
-0.360662 0.0957391 -9.78286 
-9.62282 0.078955 -0.450677 
0.078955 -9.46612 0.158508 
-0.450677 0.158508 -9.81836 
-10.1408 0.0275064 0.00926928 
0.0275064 -10.389 0.0717504 
0.00926928 0.0717504 -9.71759 
-9.73941 0.0573058 0.0593053 
0.0573058 -9.6603 0.170656 
0.0593053 0.170656 -10.8477 
-10.1304 -0.165787 0.102298 
-0.165787 -9.97109 0.090183 
0.102298 0.090183 -10.1459 
-10.1723 0.0563363 0.452892 
0.0563363 -10.0889 0.0196904 
0.452892 0.0196904 -9.98621 
-9.79839 -0.0115553 -0.44304 
-0.0115553 -9.84393 0.0948675 
-0.44304 0.0948675 -9.8529 
-9.81572 -0.00646798 -0.447627 
-0.00646798 -9.80126 0.114775 
-0.447627 0.114775 -9.87824 
-9.79144 -0.00806097 -0.494732 
-0.00806097 -9.81787 0.109426 
-0.494732 0.109426 -9.88591 
-9.7996 -0.0208119 -0.497289 
-0.0208119 -9.82364 0.114856 
-0.497289 0.114856 -9.87197 
-7.17249 0.257393 4.7687 
0.257393 -9.83279 2.48712 
4.7687 2.48712 -3.72587 
-8.75812 -0.514017 3.88915 
-0.514017 -6.06902 2.08088 
3.88915 2.08088 -5.90401 
-5.3513 -0.233401 2.87121 
-0.233401 -8.97308 0.518615 
2.87121 0.518615 -6.40677 
-9.13766 0.170066 1.19837 
0.170066 -6.4926 1.22406 
1.19837 1.22406 -5.10088 
-9.71886 -2.50406e-05 0.261471 
-2.50406e-05 -9.67831 0.591515 
0.261471 0.591515 -9.66173 
-9.71032 0.071517 0.283357 
0.071517 -9.59008 0.635078 
0.283357 0.635078 -9.75849 
-9.62768 -0.120988 0.302244 
-0.120988 -9.93109 0.604622 
0.302244 0.604622 -9.50013 
-9.72821 0.0215673 0.190105 
0.0215673 -9.66613 0.408849 
0.190105 0.408849 -9.66456 
-5.2675 2.71525 3.43793 
2.71525 -12.4711 -1.51214 
3.43793 -1.51214 2.89268 
-5.25889 -0.136034 -1.63574 
-0.136034 -0.0778247 -0.637451 
-1.63574 -0.637451 -9.50919 
-9.73171 0.377804 2.40094 
0.377804 -10.5311 -1.93824 
2.40094 -1.93824 5.41688 
-4.76189 -5.26727 2.77253 
-5.26727 -6.54113 -7.40336 
2.77253 -7.40336 -3.54289 
-9.66683 0.0242755 -0.332184 
0.0242755 -9.58558 0.128239 
-0.332184 0.128239 -9.66012 
-9.63948 0.0349013 -0.368949 
0.0349013 -9.5257 0.175231 
-0.368949 0.175231 -9.74734 
-9.70332 0.0364767 -0.368446 
0.0364767 -9.56223 0.131414 
-0.368446 0.131414 -9.64698 
-9.65825 0.0325714 -0.37869 
0.0325714 -9.52829 0.117239 
-0.37869 0.117239 -9.72598 
-9.89048 0.0149357 0.439832 
0.0149357 -9.89353 -0.261076 
0.439832 -0.261076 -9.91148 
-9.87964 0.025915 0.453433 
0.025915 -9.9495 -0.226288 
0.453433 -0.226288 -9.86635 
-9.83839 0.00670021 0.451642 
0.00670021 -9.89455 -0.251463 
0.451642 -0.251463 -9.96255 
-9.87608 0.0279727 0.453154 
0.0279727 -9.90825 -0.256514 
0.453154 -0.256514 -9.91116 
-9.55472 -0.124641 0.484831 
-0.124641 -9.63668 0.0154749 
0.484831 0.0154749 -9.54212 
-9.61468 -0.181756 0.490926 
-0.181756 -9.72475 -0.0202008 
0.490926 -0.0202008 -9.39408 
-9.58127 -0.0981619 0.59824 
-0.0981619 -9.61205 0.0574885 
0.59824 0.0574885 -9.54019 
-9.51569 -0.0977183 0.467023 
-0.0977183 -9.49996 -0.0358907 
0.467023 -0.0358907 -9.71786 
-9.77431 0.109433 -0.0858584 
0.109433 -9.90598 -0.309485 
-0.0858584 -0.309485 -9.82109 
-9.87941 -0.0205363 -0.0239914 
-0.0205363 -9.84603 -0.332687 
-0.0239914 -0.332687 -9.77594 
-9.82873 0.0666042 -0.0695612 
0.0666042 -9.95962 -0.327762 
-0.0695612 -0.327762 -9.71302 
-9.85542 -0.0681742 -0.054532 
-0.0681742 -9.90158 -0.245404 
-0.054532 -0.245404 -9.74437 
-9.44181 -0.0082723 -0.17737 
-0.0082723 -9.70795 -0.0025669 
-0.17737 -0.0025669 -9.59319 
-9.28843 -0.0127981 -0.216834 
-0.0127981 -9.64464 0.14349 
-0.216834 0.14349 -9.80987 
-9.46536 0.18931 -0.0938474 
0.18931 -9.66279 0.0622621 
-0.0938474 0.0622621 -9.61479 
-9.45233 0.0247744 -0.120626 
0.0247744 -9.55875 0.125394 
-0.120626 0.125394 -9.73187 
-9.48445 0.0946874 -0.275885 
0.0946874 -9.69804 0.239548 
-0.275885 0.239548 -9.44644 
-9.51735 0.141219 -0.266742 
0.141219 -9.58091 0.20957 
-0.266742 0.20957 -9.53067 
-9.33397 -0.147031 -0.467096 
-0.147031 -9.54791 0.331679 
-0.467096 0.331679 -9.74706 
-9.23776 0.00146915 -0.342213 
0.00146915 -9.6198 0.112141 
-0.342213 0.112141 -9.77137 
-9.86957 0.0117331 0.375247 
0.0117331 -9.81048 -0.0971309 
0.375247 -0.0971309 -9.94197 
-9.84857 0.0131506 0.39164 
0.0131506 -9.84495 -0.0916726 
0.39164 -0.0916726 -9.9285 
-9.85871 0.0151295 0.387815 
0.0151295 -9.82866 -0.0826606 
0.387815 -0.0826606 -9.93465 
-9.89995 0.0169484 0.366123 
0.0169484 -9.81368 -0.0978678 
0.366123 -0.0978678 -9.90838 
-9.72862 0.0332391 -0.367439 
0.0332391 -9.63317 0.265383 
-0.367439 0.265383 -9.50851 
-9.71091 0.0104133 -0.275473 
0.0104133 -9.63679 0.257643 
-0.275473 0.257643 -9.52259 
-9.69685 0.0504187 -0.379002 
0.0504187 -9.6625 0.19658 
-0.379002 0.19658 -9.51094 
-9.69107 0.0542694 -0.357221 
0.0542694 -9.66153 0.291457 
-0.357221 0.291457 -9.51769 
-9.85668 -0.652358 0.914783 
-0.652358 -9.38139 -1.94167 
0.914783 -1.94167 -7.8705 
-9.45125 -0.803144 1.7348 
-0.803144 -9.22516 -2.06202 
1.7348 -2.06202 -8.43215 
-9.86821 -0.464354 0.160749 
-0.464354 -8.80323 -0.917108 
0.160749 -0.917108 -8.43713 
-11.3165 0.020217 1.96206 
0.020217 -9.95385 -0.87744 
1.96206 -0.87744 -5.83817 
-9.73747 -0.0163122 0.0121281 
-0.0163122 -9.80981 0.00809493 
0.0121281 0.00809493 -9.90383 
-9.79143 -0.0565213 -0.0639309 
-0.0565213 -9.785 0.0124445 
-0.0639309 0.0124445 -9.87468 
-9.74751 -0.0425781 0.00808552 
-0.0425781 -9.79406 0.0193178 
0.00808552 0.0193178 -9.90954 
-9.70948 -0.029728 -0.0183379 
-0.029728 -9.84147 0.00613141 
-0.0183379 0.00613141 -9.90017 
-9.77807 -0.00643948 0.0516849 
-0.00643948 -9.83785 0.0875996 
0.0516849 0.0875996 -9.81573 
-9.79491 -0.0316625 0.0341478 
-0.0316625 -9.89265 0.092834 
0.0341478 0.092834 -9.74409 
-9.78786 0.000915823 0.0360827 
0.000915823 -9.83924 0.0993556 
0.0360827 0.0993556 -9.80454 
-9.80627 0.00612561 0.0443564 
0.00612561 -9.83939 0.0882881 
0.0443564 0.0882881 -9.78598 
-9.57187 -0.444336 -0.0452433 
-0.444336 -9.89092 0.158219 
-0.0452433 0.158219 -10.9061 
-9.69443 -0.317463 -0.287358 
-0.317463 -10.041 -0.180712 
-0.287358 -0.180712 -10.6334 
-9.58459 -0.313114 -0.213171 
-0.313114 -9.97089 0.0499372 
-0.213171 0.0499372 -10.8134 
-9.46723 -0.252841 -0.384183 
-0.252841 -9.79906 0.269937 
-0.384183 0.269937 -11.1026 
-9.60333 0.00533099 0.0372833 
0.00533099 -9.80651 -0.233815 
0.0372833 -0.233815 -9.39064 
-9.61651 0.0553707 0.0430471 
0.0553707 -9.78435 -0.352548 
0.0430471 -0.352548 -9.39961 
-9.57281 0.00196747 0.079654 
0.00196747 -9.77493 -0.312136 
0.079654 -0.312136 -9.45273 
-9.58444 -0.0330384 0.200626 
-0.0330384 -9.61077 -0.299689 
0.200626 -0.299689 -9.60526 
-9.50136 -0.129937 0.249584 
-0.129937 -9.57862 1.07679 
0.249584 1.07679 -8.34008 
-9.35633 -0.232759 -0.46594 
-0.232759 -8.65885 0.217551 
-0.46594 0.217551 -9.40487 
-9.27493 0.126257 0.379207 
0.126257 -8.88883 1.05379 
0.379207 1.05379 -9.25629 
-9.42422 -0.037776 0.160338 
-0.037776 -9.08001 0.847412 
0.160338 0.847412 -8.91582 
-9.85653 -0.0363678 0.484314 
-0.0363678 -9.84733 0.0138339 
0.484314 0.0138339 -9.84501 
-9.85054 -0.0464124 0.512788 
-0.0464124 -9.83603 0.0151235 
0.512788 0.0151235 -9.86231 
-9.83361 -0.0245449 0.45628 
-0.0245449 -9.81372 0.0367484 
0.45628 0.0367484 -9.90154 
-9.89912 -0.0462346 0.488351 
-0.0462346 -9.85134 -0.0258041 
0.488351 -0.0258041 -9.79841 
-10.2462 3.34682 -0.563406 
3.34682 -6.57015 -5.54641 
-0.563406 -5.54641 -11.7432 
-13.0571 0.571959 -3.06978 
0.571959 -10.1162 -0.670917 
-3.06978 -0.670917 -5.3862 
-9.72549 -3.04124 -1.44358 
-3.04124 -9.61741 -1.42308 
-1.44358 -1.42308 -9.21662 
-6.91123 0.432787 0.223814 
0.432787 -8.21786 0.443629 
0.223814 0.443629 -13.4304 
-9.67724 0.0361149 0.140593 
0.0361149 -9.77524 -0.00877266 
0.140593 -0.00877266 -9.57001 
-9.67546 0.00442909 0.164551 
0.00442909 -9.78187 0.00929001 
0.164551 0.00929001 -9.56516 
-9.75437 0.0061868 0.181067 
0.0061868 -9.79167 -0.0587742 
0.181067 -0.0587742 -9.47645 
-9.59856 0.0390352 0.0802909 
0.0390352 -9.62661 -0.0983908 
0.0802909 -0.0983908 -9.79732 
-10.0478 0.112343 0.0691909 
0.112343 -9.54615 0.149291 
0.0691909 0.149291 -10.4895 
-10.175 0.131389 -0.0629123 
0.131389 -9.58008 -0.203639 
-0.0629123 -0.203639 -10.3284 
-9.96994 0.098222 0.0208318 
0.098222 -9.46477 0.102226 
0.0208318 0.102226 -10.6488 
-9.99164 0.0792579 0.103267 
0.0792579 -9.65586 -0.221441 
0.103267 -0.221441 -10.436 
-9.06712 0.727065 0.116411 
0.727065 -7.80938 0.155216 
0.116411 0.155216 -9.87496 
-8.55635 0.0603043 0.12504 
0.0603043 -9.40731 0.597185 
0.12504 0.597185 -8.78781 
-8.47522 -0.436692 0.298381 
-0.436692 -9.73548 0.478379 
0.298381 0.478379 -8.54076 
-8.34331 0.199904 0.800075 
0.199904 -8.71941 1.42182 
0.800075 1.42182 -9.68875 
-10.8078 -1.76076 0.594516 
-1.76076 -10.9091 -0.351847 
0.594516 -0.351847 -12.6208 
-10.0062 1.41521 -0.817651 
1.41521 -11.8211 0.129759 
-0.817651 0.129759 -12.5104 
-9.61028 0.97832 0.329646 
0.97832 -10.7202 0.517807 
0.329646 0.517807 -14.0072 
-10.3507 -0.25035 -1.51062 
-0.25035 -10.468 1.0871 
-1.51062 1.0871 -13.5189 
-9.64681 0.0604383 -0.451422 
0.0604383 -9.50895 0.076558 
-0.451422 0.076558 -9.61981 
-9.65351 -0.025516 -0.36285 
-0.025516 -9.45725 0.153316 
-0.36285 0.153316 -9.66482 
-9.66125 0.06533 -0.338242 
0.06533 -9.48435 0.114406 
-0.338242 0.114406 -9.62997 
-9.644 0.0862481 -0.329138 
0.0862481 -9.50516 0.136467 
-0.329138 0.136467 -9.62641 
-8.95724 -0.304298 -0.371438 
-0.304298 -9.42439 0.389646 
-0.371438 0.389646 -9.58963 
-9.24376 0.164214 -0.35087 
0.164214 -9.56429 0.376592 
-0.35087 0.376592 -9.16321 
-9.09831 -0.0110659 -0.406555 
-0.0110659 -9.52581 0.443024 
-0.406555 0.443024 -9.34714 
-9.14366 -0.0380736 -0.661861 
-0.0380736 -9.46447 0.503609 
-0.661861 0.503609 -9.36312 
-7.78446 -0.440221 0.100702 
-0.440221 -9.04827 1.13817 
0.100702 1.13817 -5.23301 
-8.31543 -0.0895804 -0.628581 
-0.0895804 -8.82176 1.21499 
-0.628581 1.21499 -4.92855 
-7.76841 0.251075 0.715161 
0.251075 -8.13813 1.19619 
0.715161 1.19619 -6.1592 
-7.5048 0.858676 0.771445 
0.858676 -8.79189 1.21052 
0.771445 1.21052 -5.76905 
-9.60691 -0.0389285 0.145544 
-0.0389285 -9.72383 0.170311 
0.145544 0.170311 -9.46967 
-9.54845 -0.0182792 0.126173 
-0.0182792 -9.75012 0.198479 
0.126173 0.198479 -9.50184 
-9.57731 -0.0692359 0.0863815 
-0.0692359 -9.76562 0.146563 
0.0863815 0.146563 -9.45748 
-9.48415 -0.0199688 0.15098 
-0.0199688 -9.72741 0.165731 
0.15098 0.165731 -9.58885 
-9.30822 0.186631 -0.481712 
0.186631 -9.26851 0.237735 
-0.481712 0.237735 -10.2338 
-9.22376 0.0227973 -0.443369 
0.0227973 -9.46801 0.00716264 
-0.443369 0.00716264 -10.1188 
-9.49222 0.017036 -0.448817 
0.017036 -9.2611 0.315707 
-0.448817 0.315707 -10.0573 
-9.07424 0.0277241 -0.362232 
0.0277241 -9.26736 0.177862 
-0.362232 0.177862 -10.469 
-9.3219 -0.0831744 0.10107 
-0.0831744 -9.65733 0.277366 
0.10107 0.277366 -9.26207 
-9.34457 -0.084902 0.188523 
-0.084902 -9.59853 0.2418 
0.188523 0.2418 -9.29819 
-9.41642 -0.0710726 0.106212 
-0.0710726 -9.52145 0.329517 
0.106212 0.329517 -9.30343 
-9.38659 -0.0159108 0.0712769 
-0.0159108 -9.5129 0.272622 
0.0712769 0.272622 -9.3418 
-7.75672 0.106347 -2.81988 
0.106347 -9.1449 -0.131448 
-2.81988 -0.131448 -9.301 
-9.1653 -1.82863 -2.04369 
-1.82863 -6.69381 0.743734 
-2.04369 0.743734 -10.3435 
-7.94174 0.414773 -0.826474 
0.414773 -9.84414 -0.134948 
-0.826474 -0.134948 -8.41673 
-8.45558 1.80503 -0.310004 
1.80503 -9.48961 -1.50028 
-0.310004 -1.50028 -8.25743 
-9.8359 0.00251294 -0.17418 
0.00251294 -9.90794 0.269662 
-0.17418 0.269662 -10.1247 
-9.95902 0.0189606 -0.217944 
0.0189606 -9.9866 0.250796 
-0.217944 0.250796 -9.92295 
-9.98768 0.0255667 -0.236036 
0.0255667 -9.97228 0.247371 
-0.236036 0.247371 -9.9086 
-10.0082 0.00654253 -0.205324 
0.00654253 -9.97668 0.2122 
-0.205324 0.2122 -9.8837 
-9.27134 -0.172052 -0.315032 
-0.172052 -9.36925 0.64652 
-0.315032 0.64652 -9.34188 
-9.25419 -0.116394 -0.398138 
-0.116394 -9.50836 0.571617 
-0.398138 0.571617 -9.21992 
-9.11555 0.015697 -0.422888 
0.015697 -9.55965 0.508258 
-0.422888 0.508258 -9.30726 
-9.21398 -0.175998 -0.420302 
-0.175998 -9.5417 0.591164 
-0.420302 0.591164 -9.22679 
-9.91894 0.408214 0.487481 
0.408214 -9.32894 0.626784 
0.487481 0.626784 -10.1852 
-10.0411 0.461167 0.38435 
0.461167 -9.19674 0.689253 
0.38435 0.689253 -10.1952 
-10.163 0.387947 0.445746 
0.387947 -9.15037 0.529864 
0.445746 0.529864 -10.1197 
-9.97377 0.516527 0.331932 
0.516527 -9.26331 0.960982 
0.331932 0.960982 -10.196 
-9.2564 -0.00109523 0.968195 
-0.00109523 -9.58754 -0.397665 
0.968195 -0.397665 -9.77674 
-9.79296 -0.0218166 1.03399 
-0.0218166 -9.23479 0.142128 
1.03399 0.142128 -9.59293 
-9.06648 -0.41312 0.81397 
-0.41312 -9.45044 0.0386336 
0.81397 0.0386336 -10.1038 
-8.75946 0.0677244 0.185282 
0.0677244 -8.84081 -0.400601 
0.185282 -0.400601 -11.0204 
-9.77967 0.00114037 -0.0901747 
0.00114037 -9.83812 0.0539239 
-0.0901747 0.0539239 -9.84414 
-9.80687 0.0096235 0.0387075 
0.0096235 -9.80235 -0.0344376 
0.0387075 -0.0344376 -9.85272 
-9.80702 0.121274 0.0520983 
0.121274 -9.73327 -0.0477239 
0.0520983 -0.0477239 -9.92164 
-9.80477 0.0487366 0.0277599 
0.0487366 -9.7122 -0.0183435 
0.0277599 -0.0183435 -9.94496 
-9.49605 -0.139027 0.467327 
-0.139027 -9.44272 -0.0800774 
0.467327 -0.0800774 -9.66531 
-9.54466 -0.200763 0.446535 
-0.200763 -9.57283 -0.131115 
0.446535 -0.131115 -9.48658 
-9.51419 -0.161553 0.461964 
-0.161553 -9.49408 -0.123414 
0.461964 -0.123414 -9.59581 
-9.48587 -0.116346 0.404189 
-0.116346 -9.48002 -0.153726 
0.404189 -0.153726 -9.6382 
-8.90162 0.447394 -1.81093 
0.447394 -7.73777 -1.6314 
-1.81093 -1.6314 -5.51554 
-8.86758 0.302089 -0.325233 
0.302089 -7.70436 -1.60764 
-0.325233 -1.60764 -5.58299 
-7.17838 -0.294267 -1.42642 
-0.294267 -7.62183 -1.84982 
-1.42642 -1.84982 -7.35472 
-8.42819 0.521384 -1.29279 
0.521384 -7.74681 -1.93318 
-1.29279 -1.93318 -5.97993 
-8.88681 0.00445181 -0.358569 
0.00445181 -9.13729 0.336543 
-0.358569 0.336543 -9.5229 
-8.96409 -0.153469 -0.435825 
-0.153469 -9.32721 0.397699 
-0.435825 0.397699 -9.2557 
-8.79483 -0.0772297 -0.530515 
-0.0772297 -9.40625 0.496078 
-0.530515 0.496078 -9.34591 
-8.68357 -0.103819 -0.662707 
-0.103819 -9.4275 0.540997 
-0.662707 0.540997 -9.43594 
-9.30884 -0.00113153 -0.495069 
-0.00113153 -9.5424 0.502168 
-0.495069 0.502168 -9.33039 
-9.40142 -0.0315244 -0.356056 
-0.0315244 -9.51767 0.535337 
-0.356056 0.535337 -9.26254 
-9.3401 -0.0954941 -0.34761 
-0.0954941 -9.48861 0.489528 
-0.34761 0.489528 -9.35291 
-9.4341 -0.0261797 -0.427981 
-0.0261797 -9.42001 0.485114 
-0.427981 0.485114 -9.32752 
-9.54743 -0.391303 1.21195 
-0.391303 -8.78402 0.342587 
1.21195 0.342587 -8.51576 
-7.98653 0.144815 0.814851 
0.144815 -9.2473 0.405187 
0.814851 0.405187 -9.61337 
-8.50098 -0.0782314 0.680776 
-0.0782314 -9.39227 0.362347 
0.680776 0.362347 -8.95394 
-9.02064 0.0262301 0.527146 
0.0262301 -9.31145 0.0563653 
0.527146 0.0563653 -8.51512 
-9.36261 -0.0117475 0.00912551 
-0.0117475 -9.44918 0.0448273 
0.00912551 0.0448273 -9.35855 
-9.36746 -0.0465857 0.147059 
-0.0465857 -9.41361 0.119409 
0.147059 0.119409 -9.38927 
-9.34512 -0.0460344 0.0241047 
-0.0460344 -9.45563 0.0557168 
0.0241047 0.0557168 -9.36959 
-9.37761 -0.0600752 -0.0290533 
-0.0600752 -9.53735 0.139301 
-0.0290533 0.139301 -9.25538 
-9.86254 0.0439436 -0.289223 
0.0439436 -9.85057 0.0793525 
-0.289223 0.0793525 -9.97987 
-9.90385 0.0205369 -0.260468 
0.0205369 -9.86963 0.146535 
-0.260468 0.146535 -9.9195 
-9.92945 0.0341723 -0.237035 
0.0341723 -9.85836 0.130037 
-0.237035 0.130037 -9.90518 
-9.87776 0.0751427 -0.294762 
0.0751427 -9.87629 0.0438652 
-0.294762 0.0438652 -9.93893 
-9.20674 -0.0651409 -0.0675082 
-0.0651409 -9.31503 -0.799362 
-0.0675082 -0.799362 -9.23915 
-9.33005 -0.0498143 -0.0857098 
-0.0498143 -9.25349 -0.805324 
-0.0857098 -0.805324 -9.17737 
-9.23164 -0.0337913 -0.0209169 
-0.0337913 -9.31704 -0.792848 
-0.0209169 -0.792848 -9.21224 
-9.23842 -0.0736089 -0.0469567 
-0.0736089 -9.30213 -0.817778 
-0.0469567 -0.817778 -9.22038 
-9.42033 -0.0116473 -0.125261 
-0.0116473 -9.49864 -0.460439 
-0.125261 -0.460439 -9.35884 
-9.98432 0.0496248 -0.0811442 
0.0496248 -8.80089 -0.101313 
-0.0811442 -0.101313 -9.49259 
-10.145 0.238748 -0.216942 
0.238748 -8.3319 -0.22337 
-0.216942 -0.22337 -9.80088 
-9.9255 -0.180701 -0.194827 
-0.180701 -8.69766 0.499841 
-0.194827 0.499841 -9.65465 
-9.87276 0.020187 -0.127467 
0.020187 -9.81711 0.047347 
-0.127467 0.047347 -9.86352 
-9.85674 0.0266241 -0.123178 
0.0266241 -9.8263 0.0709836 
-0.123178 0.0709836 -9.87035 
-9.87321 -0.0142594 -0.1184 
-0.0142594 -9.81168 0.045966 
-0.1184 0.045966 -9.86851 
-9.89771 0.0937551 -0.116793 
0.0937551 -9.82855 0.00395351 
-0.116793 0.00395351 -9.82713 
-8.97194 0.0644223 0.875071 
0.0644223 -8.93442 0.224089 
0.875071 0.224089 -7.47482 
-9.37278 0.394844 1.01213 
0.394844 -9.17504 0.566842 
1.01213 0.566842 -6.83336 
-8.56936 0.110483 1.26526 
0.110483 -8.98132 -0.317962 
1.26526 -0.317962 -7.8305 
-8.36266 -0.667258 -0.383616 
-0.667258 -9.03356 1.20744 
-0.383616 1.20744 -7.98497 
-9.16402 -0.148983 -0.159823 
-0.148983 -9.88766 1.17405 
-0.159823 1.17405 -8.12474 
-9.03206 0.992334 0.203138 
0.992334 -9.22754 1.20666 
0.203138 1.20666 -8.91683 
-10.788 -0.279478 0.764915 
-0.279478 -8.70658 1.28812 
0.764915 1.28812 -7.6818 
-9.3317 0.0820463 0.452904 
0.0820463 -8.61215 0.847951 
0.452904 0.847951 -9.23258 
-9.88837 -0.00280127 -0.390707 
-0.00280127 -9.91953 0.322893 
-0.390707 0.322893 -9.94187 
-9.8688 -0.0157704 -0.384017 
-0.0157704 -9.91874 0.32689 
-0.384017 0.32689 -9.96223 
-9.88824 0.00794908 -0.419124 
0.00794908 -9.90543 0.326855 
-0.419124 0.326855 -9.95609 
-9.90726 0.00783571 -0.418898 
0.00783571 -9.92438 0.335741 
-0.418898 0.335741 -9.91813 
-7.19588 1.49146 -2.14639 
1.49146 -11.7534 -1.53646 
-2.14639 -1.53646 -9.72226 
-9.31902 -0.257308 -2.63796 
-0.257308 -9.63839 0.289011 
-2.63796 0.289011 -9.71408 
-8.97781 0.309117 -1.6249 
0.309117 -9.32403 -0.991623 
-1.6249 -0.991623 -10.3697 
-9.11894 0.491374 0.293456 
0.491374 -8.86896 -1.00172 
0.293456 -1.00172 -10.6836 
-9.07769 -0.0101151 0.129053 
-0.0101151 -9.22864 0.530576 
0.129053 0.530576 -9.01856 
-9.18163 -0.0341896 0.0506029 
-0.0341896 -9.2801 0.166686 
0.0506029 0.166686 -8.86315 
-9.37858 0.0491237 0.177549 
0.0491237 -9.51033 0.157237 
0.177549 0.157237 -8.43597 
-9.30707 0.0759415 0.111129 
0.0759415 -9.27911 0.20304 
0.111129 0.20304 -8.73871 
-9.71581 0.0284127 -0.215014 
0.0284127 -9.24213 -0.692052 
-0.215014 -0.692052 -9.68508 
-9.4411 -0.0552603 -0.195269 
-0.0552603 -9.85855 -0.786445 
-0.195269 -0.786445 -9.34337 
-9.60759 -0.0125269 -0.220627 
-0.0125269 -9.55548 -0.636862 
-0.220627 -0.636862 -9.47996 
-9.57415 0.0240381 -0.119406 
0.0240381 -9.65518 -0.543054 
-0.119406 -0.543054 -9.4137 
-9.54233 0.232378 0.040642 
0.232378 -9.89625 0.359582 
0.040642 0.359582 -11.6672 
-9.73966 0.0777361 -0.231798 
0.0777361 -10.2772 -0.436738 
-0.231798 -0.436738 -11.0889 
-9.59097 -0.0634606 0.0879907 
-0.0634606 -9.78536 0.155618 
0.0879907 0.155618 -11.7295 
-9.67886 0.0988809 0.306502 
0.0988809 -10.2542 -0.539114 
0.306502 -0.539114 -11.1727 
-10.4176 1.94051 0.167154 
1.94051 -7.41771 -2.22645 
0.167154 -2.22645 -0.570595 
-7.58814 2.57821 5.1576 
2.57821 -4.03937 -1.1139 
5.1576 -1.1139 -6.77844 
-5.39797 -2.51139 1.8097 
-2.51139 -8.96026 -0.133232 
1.8097 -0.133232 -4.04772 
-5.84957 -1.34275 2.98622 
-1.34275 -8.80507 0.372061 
2.98622 0.372061 -3.75132 
-9.91055 0.0156241 0.0438008 
0.0156241 -9.90006 0.0279983 
0.0438008 0.0279983 -9.95935 
-9.88014 -0.0217342 0.0462383 
-0.0217342 -9.88697 0.0074734 
0.0462383 0.0074734 -10.0029 
-9.92791 0.00475536 0.0582505 
0.00475536 -9.8475 -0.00681766 
0.0582505 -0.00681766 -9.99455 
-9.91732 -0.000656907 0.0424714 
-0.000656907 -9.89368 0.030176 
0.0424714 0.030176 -9.95897 
-9.11084 0.101862 0.344623 
0.101862 -9.17185 -0.258548 
0.344623 -0.258548 -11.2084 
-9.34981 0.199492 -0.253125 
0.199492 -8.98392 -0.107288 
-0.253125 -0.107288 -11.1574 
-9.12143 0.75541 -0.0962141 
0.75541 -8.95303 0.663528 
-0.0962141 0.663528 -11.4167 
-9.16488 0.503582 -0.138331 
0.503582 -9.30205 -0.904805 
-0.138331 -0.904805 -11.0242 
-9.34194 -0.0936894 0.168789 
-0.0936894 -9.20694 -0.791158 
0.168789 -0.791158 -9.30791 
-9.29616 0.0586535 0.118359 
0.0586535 -9.49669 -0.755333 
0.118359 -0.755333 -9.06395 
-9.29063 0.0313708 0.138806 
0.0313708 -9.36842 -0.706191 
0.138806 -0.706191 -9.19775 
-9.25506 -0.0312193 0.131793 
-0.0312193 -9.332 -0.615391 
0.131793 -0.615391 -9.26973 
-9.86396 0.00479143 -0.07976 
0.00479143 -9.94434 0.0501966 
-0.07976 0.0501966 -10.0017 
-9.90309 0.0143803 -0.0726481 
0.0143803 -9.89973 0.014897 
-0.0726481 0.014897 -10.0072 
-9.95391 0.0261976 -0.0857865 
0.0261976 -9.91531 0.046186 
-0.0857865 0.046186 -9.9408 
-9.96623 -1.37511e-05 -0.0821412 
-1.37511e-05 -9.9276 0.0469183 
-0.0821412 0.0469183 -9.91618 
-11.9809 -0.449083 -0.0369554 
-0.449083 -10.9773 0.50016 
-0.0369554 0.50016 -13.9066 
-10.1058 -0.859085 0.759576 
-0.859085 -11.7035 0.423774 
0.759576 0.423774 -15.0555 
-12.2708 0.674443 -0.030466 
0.674443 -12.7175 0.66132 
-0.030466 0.66132 -11.8765 
-11.3513 -0.0266745 -0.336822 
-0.0266745 -12.2065 -0.511371 
-0.336822 -0.511371 -13.307 
-3.18792 0.342801 1.11364 
0.342801 -4.89053 0.30846 
1.11364 0.30846 -2.09207 
-3.57536 0.297497 0.23915 
0.297497 -7.08368 0.447422 
0.23915 0.447422 0.488516 
-3.92569 0.0869465 0.871647 
0.0869465 -5.23471 1.09679 
0.871647 1.09679 -1.01013 
-3.86312 -0.139839 2.71022 
-0.139839 -4.82914 0.724074 
2.71022 0.724074 -1.47826 
-8.71978 -0.909028 -0.832839 
-0.909028 -8.01037 0.576973 
-0.832839 0.576973 -9.3798 
-8.16909 -0.082286 -0.384342 
-0.082286 -9.5439 0.599933 
-0.384342 0.599933 -8.39696 
-8.66723 -0.350466 -0.861437 
-0.350466 -9.13135 0.869048 
-0.861437 0.869048 -8.31137 
-9.00489 0.13219 -0.979983 
0.13219 -8.54999 1.00831 
-0.979983 1.00831 -8.55507 
-8.91825 -0.00920755 0.163981 
-0.00920755 -9.21119 -0.413304 
0.163981 -0.413304 -8.65312 
-8.94639 -0.0195211 0.206911 
-0.0195211 -9.263 -0.453401 
0.206911 -0.453401 -8.57317 
-8.93221 -0.00694601 0.112845 
-0.00694601 -9.17861 -0.466083 
0.112845 -0.466083 -8.67175 
-8.88465 -0.0192835 0.180368 
-0.0192835 -9.30327 -0.386653 
0.180368 -0.386653 -8.59464 
-8.42327 -0.249654 -0.340714 
-0.249654 -9.46107 0.0306673 
-0.340714 0.0306673 -9.90097 
-8.37488 0.102636 -0.324867 
0.102636 -9.6894 0.0193257 
-0.324867 0.0193257 -9.72104 
-9.00685 -0.546524 -0.079758 
-0.546524 -9.41205 -0.320107 
-0.079758 -0.320107 -9.36642 
-8.64545 -0.253516 -0.609898 
-0.253516 -9.64409 -0.147192 
-0.609898 -0.147192 -9.49577 
-8.57714 -0.421835 -0.0248458 
-0.421835 -12.3052 0.362794 
-0.0248458 0.362794 -10.4347 
-10.2563 0.0987661 -0.00691445 
0.0987661 -8.92398 0.270313 
-0.00691445 0.270313 -12.1367 
-9.08585 -1.55074 -0.22764 
-1.55074 -8.60727 0.464503 
-0.22764 0.464503 -13.6239 
-9.97743 -1.02804 0.28229 
-1.02804 -10.2316 0.901015 
0.28229 0.901015 -11.108 
-9.40363 0.0339873 0.146479 
0.0339873 -9.25603 0.131572 
0.146479 0.131572 -9.3834 
-9.57523 -0.00769956 0.0581055 
-0.00769956 -9.546 -0.144458 
0.0581055 -0.144458 -8.92182 
-9.42358 -0.0480363 0.00795908 
-0.0480363 -9.56717 0.161079 
0.00795908 0.161079 -9.05231 
-9.42323 0.0321293 0.0992524 
0.0321293 -9.47525 0.0792528 
0.0992524 0.0792528 -9.14457 
-9.64139 0.166065 0.343362 
0.166065 -9.47805 0.291264 
0.343362 0.291264 -9.83682 
-9.67195 0.0805549 0.26652 
0.0805549 -9.36074 0.0931822 
0.26652 0.0931822 -9.92357 
-9.71714 0.0805658 0.20598 
0.0805658 -9.24478 0.0540106 
0.20598 0.0540106 -9.99434 
-9.51171 0.0738176 0.24003 
0.0738176 -9.52296 -0.0725097 
0.24003 -0.0725097 -9.92159 
-10.2558 -0.273659 -0.725106 
-0.273659 -8.23926 -0.0460382 
-0.725106 -0.0460382 -10.4597 
-9.77618 -0.056928 -1.00717 
-0.056928 -7.70662 1.02706 
-1.00717 1.02706 -11.4719 
-10.1267 -0.280341 -0.194898 
-0.280341 -8.25158 0.0170272 
-0.194898 0.0170272 -10.5764 
-10.2671 -0.496685 -0.714523 
-0.496685 -9.00321 0.777414 
-0.714523 0.777414 -9.68437 
-9.72346 0.0149087 -0.0566874 
0.0149087 -10.0139 -0.0765622 
-0.0566874 -0.0765622 -9.82847 
-9.95792 -0.168419 0.0906738 
-0.168419 -9.60321 -0.148257 
0.0906738 -0.148257 -10.0047 
-9.70064 -0.130757 0.0843318 
-0.130757 -9.81374 0.0633247 
0.0843318 0.0633247 -10.0515 
-9.89918 -0.132475 0.0188619 
-0.132475 -9.72546 -0.0293165 
0.0188619 -0.0293165 -9.94121 
-9.90377 0.0107173 0.0284822 
0.0107173 -9.86981 -0.00708748 
0.0284822 -0.00708748 -10.0137 
-9.90363 -0.0198102 0.0425821 
-0.0198102 -9.91231 0.00264735 
0.0425821 0.00264735 -9.97136 
-9.93827 0.0141532 0.0379194 
0.0141532 -9.86168 0.01896 
0.0379194 0.01896 -9.98735 
-9.93093 0.0159244 0.056268 
0.0159244 -9.89961 0.010324 
0.056268 0.010324 -9.95677 
-9.88723 -0.0358697 -0.330653 
-0.0358697 -9.76372 0.0761344 
-0.330653 0.0761344 -9.71827 
-9.83419 -0.0100672 -0.349848 
-0.0100672 -9.74256 0.0352081 
-0.349848 0.0352081 -9.79247 
-9.81482 0.00987003 -0.346428 
0.00987003 -9.72141 0.0478682 
-0.346428 0.0478682 -9.83298 
-9.82203 -0.0118358 -0.365181 
-0.0118358 -9.74134 0.0489379 
-0.365181 0.0489379 -9.80585 
-9.80023 -0.005993 -0.393434 
-0.005993 -9.85596 0.370195 
-0.393434 0.370195 -9.84563 
-9.78437 -0.00252692 -0.39405 
-0.00252692 -9.84692 0.35003 
-0.39405 0.35003 -9.87054 
-9.79985 -0.0161744 -0.406056 
-0.0161744 -9.86038 0.366888 
-0.406056 0.366888 -9.8416 
-9.81752 -0.00823845 -0.414527 
-0.00823845 -9.87587 0.379754 
-0.414527 0.379754 -9.80844 
-10.0235 -0.529126 0.205587 
-0.529126 -10.1385 0.0993407 
0.205587 0.0993407 -10.4158 
-9.88118 0.0543707 -0.166899 
0.0543707 -9.99441 -0.0549186 
-0.166899 -0.0549186 -10.7022 
-9.91084 0.390915 0.399725 
0.390915 -9.65 0.0923198 
0.399725 0.0923198 -11.017 
-9.97138 -0.137604 -0.176131 
-0.137604 -9.77338 0.0604028 
-0.176131 0.0604028 -10.8331 
-9.79729 -0.0479425 0.379425 
-0.0479425 -9.7559 0.493772 
0.379425 0.493772 -9.745 
-9.77946 -0.057333 0.361843 
-0.057333 -9.81804 0.45611 
0.361843 0.45611 -9.70069 
-9.78683 0.0633208 0.310317 
0.0633208 -9.7717 0.343639 
0.310317 0.343639 -9.73966 
-9.82242 -0.0552741 0.312952 
-0.0552741 -9.89793 0.50302 
0.312952 0.50302 -9.57784 
-9.17062 0.046786 0.0224191 
0.046786 -8.80695 -1.08638 
0.0224191 -1.08638 -8.76563 
-8.90083 -0.00051968 0.0654177 
-0.00051968 -8.95781 -0.956527 
0.0654177 -0.956527 -8.88456 
-9.00781 -0.0226968 0.0598895 
-0.0226968 -8.98683 -1.10748 
0.0598895 -1.10748 -8.74856 
-8.88591 -0.0332845 0.158598 
-0.0332845 -8.86433 -1.12814 
0.158598 -1.12814 -8.99296 
-9.33329 0.622671 0.000659875 
0.622671 -9.18563 0.75021 
0.000659875 0.75021 -6.03902 
-8.68675 -0.737272 0.379618 
-0.737272 -8.95159 -0.0271426 
0.379618 -0.0271426 -6.9196 
-9.95942 0.838023 0.988635 
0.838023 -8.99166 0.0817674 
0.988635 0.0817674 -5.60685 
-9.7571 0.25213 1.35767 
0.25213 -9.99831 0.146808 
1.35767 0.146808 -4.80253 
-9.47617 0.0751063 0.387521 
0.0751063 -9.63453 -0.142695 
0.387521 -0.142695 -9.74501 
-9.52488 0.136338 0.428846 
0.136338 -9.6779 -0.0155035 
0.428846 -0.0155035 -9.65293 
-9.52787 -0.0228941 0.458205 
-0.0228941 -9.59237 -0.0335797 
0.458205 -0.0335797 -9.73547 
-9.55161 0.0299289 0.426731 
0.0299289 -9.58914 -0.144761 
0.426731 -0.144761 -9.71496 
-10.0989 -0.179757 0.0603691 
-0.179757 -9.50828 0.0076142 
0.0603691 0.0076142 -9.69015 
-9.71841 -0.0151603 0.0725815 
-0.0151603 -9.73826 0.00760866 
0.0725815 0.00760866 -9.84063 
-9.33195 0.0347601 -0.00907523 
0.0347601 -9.98602 -0.0391217 
-0.00907523 -0.0391217 -9.97933 
-9.97703 0.180673 0.25629 
0.180673 -9.42182 0.0168355 
0.25629 0.0168355 -9.89845 
-9.8094 0.00850859 0.440576 
0.00850859 -9.86363 -0.15177 
0.440576 -0.15177 -9.83882 
-9.8368 0.0248639 0.414877 
0.0248639 -9.82101 -0.170324 
0.414877 -0.170324 -9.85403 
-9.79669 0.00347005 0.481129 
0.00347005 -9.8482 -0.171159 
0.481129 -0.171159 -9.86695 
-9.7883 0.0146917 0.467459 
0.0146917 -9.8407 -0.159904 
0.467459 -0.159904 -9.88284 
-9.82338 -0.0143438 -0.380417 
-0.0143438 -9.84949 0.246248 
-0.380417 0.246248 -9.90349 
-9.83709 -0.00112258 -0.379824 
-0.00112258 -9.86828 0.240994 
-0.379824 0.240994 -9.87099 
-9.83081 0.0105161 -0.407255 
0.0105161 -9.84203 0.242189 
-0.407255 0.242189 -9.90352 
-9.8247 -0.00539055 -0.423342 
-0.00539055 -9.87975 0.231935 
-0.423342 0.231935 -9.87191 
-8.60205 0.0460714 1.34154 
0.0460714 -9.01032 0.55968 
1.34154 0.55968 -8.59645 
-8.08715 -0.101669 1.64594 
-0.101669 -8.7704 0.332899 
1.64594 0.332899 -9.35127 
-7.54997 0.480279 0.03087 
0.480279 -9.65255 -0.292763 
0.03087 -0.292763 -9.00631 
-8.77913 -0.024477 1.54806 
-0.024477 -9.04049 0.159901 
1.54806 0.159901 -8.38919 
-9.7269 -0.162215 0.523505 
-0.162215 -8.85008 -0.728372 
0.523505 -0.728372 -9.48869 
-9.40651 -0.327111 0.798767 
-0.327111 -8.64337 -0.286012 
0.798767 -0.286012 -10.0158 
-9.5105 -0.118969 0.292621 
-0.118969 -9.25213 0.278222 
0.292621 0.278222 -9.30304 
-9.43026 -0.281113 0.532403 
-0.281113 -8.94713 -0.467242 
0.532403 -0.467242 -9.68828 
-11.6617 -1.97542 -0.27285 
-1.97542 -4.21005 0.797618 
-0.27285 0.797618 -17.1187 
-10.4681 -1.28059 -0.200355 
-1.28059 -9.40094 0.925389 
-0.200355 0.925389 -13.1214 
-11.317 -0.879777 -0.149849 
-0.879777 -8.52464 0.628456 
-0.149849 0.628456 -13.1488 
-11.6741 -0.961834 -0.525179 
-0.961834 -8.43136 0.479789 
-0.525179 0.479789 -12.885 
-9.66075 0.00374311 0.335425 
0.00374311 -9.65945 0.573174 
0.335425 0.573174 -9.593 
-9.62094 -0.0366056 0.310747 
-0.0366056 -9.68338 0.576253 
0.310747 0.576253 -9.60888 
-9.63696 -0.0216531 0.326008 
-0.0216531 -9.66833 0.579837 
0.326008 0.579837 -9.60791 
-9.63396 -0.0113388 0.334836 
-0.0113388 -9.66383 0.589146 
0.334836 0.589146 -9.61541 
-9.23728 0.0736367 -0.312096 
0.0736367 -9.48466 0.129264 
-0.312096 0.129264 -9.97429 
-9.3533 0.0770414 -0.362088 
0.0770414 -9.55467 0.311916 
-0.362088 0.311916 -9.78827 
-9.30135 0.106891 -0.278496 
0.106891 -9.71814 0.240727 
-0.278496 0.240727 -9.67674 
-9.28107 0.0496832 -0.291821 
0.0496832 -9.68738 0.272907 
-0.291821 0.272907 -9.72778 
-9.52063 -0.0609411 0.104259 
-0.0609411 -9.71674 0.0172002 
0.104259 0.0172002 -9.59046 
-9.58489 -0.0303621 0.0944516 
-0.0303621 -9.68924 0.0260359 
0.0944516 0.0260359 -9.5537 
-9.54845 -0.0198651 0.0758163 
-0.0198651 -9.67262 0.0786723 
0.0758163 0.0786723 -9.60676 
-9.54304 0.0457126 0.112127 
0.0457126 -9.67861 0.0521211 
0.112127 0.0521211 -9.60618 
-9.80196 0.0172978 -0.337937 
0.0172978 -9.73616 0.127484 
-0.337937 0.127484 -9.81986 
-9.8234 0.0146291 -0.332527 
0.0146291 -9.74321 0.122781 
-0.332527 0.122781 -9.79137 
-9.82634 -0.0146788 -0.350826 
-0.0146788 -9.71554 0.117133 
-0.350826 0.117133 -9.8161 
-9.85845 0.0534657 -0.322857 
0.0534657 -9.75112 0.0803527 
-0.322857 0.0803527 -9.74841 
-9.60298 -0.0828201 -0.413786 
-0.0828201 -9.65685 0.0483269 
-0.413786 0.0483269 -9.40141 
-9.45856 -0.000812091 -0.231653 
-0.000812091 -9.2872 0.0383441 
-0.231653 0.0383441 -9.91547 
-9.31375 -0.016298 -0.418034 
-0.016298 -9.57487 0.200024 
-0.418034 0.200024 -9.77261 
-9.31828 -0.0222142 -0.389878 
-0.0222142 -9.62644 0.10467 
-0.389878 0.10467 -9.71652 
-8.80803 0.347084 -0.822216 
0.347084 -8.38954 0.797866 
-0.822216 0.797866 -9.03511 
-9.45941 0.278928 -1.06392 
0.278928 -9.24582 0.157779 
-1.06392 0.157779 -7.52745 
-9.14481 -0.163932 -0.377395 
-0.163932 -9.22258 0.240333 
-0.377395 0.240333 -7.8653 
-9.19522 -0.20895 -0.635295 
-0.20895 -9.10684 0.452886 
-0.635295 0.452886 -7.93062 
-10.1624 0.0474914 0.0932433 
0.0474914 -10.0668 0.0485805 
0.0932433 0.0485805 -10.1743 
-10.3 -0.0395239 0.0860217 
-0.0395239 -10.1226 -0.0300774 
0.0860217 -0.0300774 -9.98094 
-10.1146 0.165752 0.0902753 
0.165752 -9.94779 0.213142 
0.0902753 0.213142 -10.3412 
-10.3378 0.0312277 -0.00815983 
0.0312277 -9.76459 0.0190025 
-0.00815983 0.0190025 -10.3011 
2.64874 5.19974 3.9465 
5.19974 -13.8682 -4.42445 
3.9465 -4.42445 -19.5682 
-6.41237 1.78024 6.08665 
1.78024 -18.0812 3.36402 
6.08665 3.36402 -6.29414 
-13.9502 -0.0808436 -0.89756 
-0.0808436 -4.04124 -0.56905 
-0.89756 -0.56905 -12.7963 
-9.51055 -0.880171 3.26559 
-0.880171 -9.42373 2.41124 
3.26559 2.41124 -11.8534 
-11.7619 -5.47244 -1.98355 
-5.47244 -8.42503 0.584241 
-1.98355 0.584241 -10.5704 
1.29183 -4.25828 4.42418 
-4.25828 -11.1505 -2.74093 
4.42418 -2.74093 -20.8987 
-0.52911 -3.90201 5.63765 
-3.90201 -3.7589 -3.20226 
5.63765 -3.20226 -26.4693 
-9.42339 0.393476 2.1007 
0.393476 -10.7504 -2.39892 
2.1007 -2.39892 -10.5835 
-9.47381 0.0001724 -0.478216 
0.0001724 -9.51529 0.14197 
-0.478216 0.14197 -9.79054 
-9.47109 0.00573744 -0.470883 
0.00573744 -9.49986 0.200261 
-0.470883 0.200261 -9.8087 
-9.42737 0.0253713 -0.501937 
0.0253713 -9.50107 0.157375 
-0.501937 0.157375 -9.85121 
-9.43906 -0.00711304 -0.402772 
-0.00711304 -9.51761 0.23292 
-0.402772 0.23292 -9.82297 
-9.43614 0.0261469 -0.410758 
0.0261469 -9.48972 0.12208 
-0.410758 0.12208 -9.70568 
-9.3435 0.0327561 -0.466633 
0.0327561 -9.36818 0.164207 
-0.466633 0.164207 -9.91987 
-9.47054 -0.00221265 -0.498691 
-0.00221265 -9.43572 0.242946 
-0.498691 0.242946 -9.72528 
-9.53075 0.102256 -0.577361 
0.102256 -9.35721 0.2099 
-0.577361 0.2099 -9.74359 
-8.80396 -0.248814 0.380373 
-0.248814 -9.43377 0.33371 
0.380373 0.33371 -9.75472 
-8.53772 0.0659529 0.0976525 
0.0659529 -9.30537 0.250218 
0.0976525 0.250218 -10.1494 
-8.4812 0.0157533 0.315409 
0.0157533 -9.52094 0.502232 
0.315409 0.502232 -9.99031 
-8.82086 -0.187528 0.455929 
-0.187528 -9.2752 0.216491 
0.455929 0.216491 -9.89639 
-8.56294 -0.588308 -0.444137 
-0.588308 -8.85971 0.441102 
-0.444137 0.441102 -11.1104 
-9.38967 -0.884593 -0.692935 
-0.884593 -8.80603 0.265461 
-0.692935 0.265461 -10.3374 
-9.5907 -0.639877 -0.20312 
-0.639877 -9.67566 -0.318687 
-0.20312 -0.318687 -9.26674 
-9.0301 -0.332205 -0.954992 
-0.332205 -8.73359 0.648204 
-0.954992 0.648204 -10.7694 
-9.59181 0.00794134 -0.267481 
0.00794134 -9.23005 -0.125575 
-0.267481 -0.125575 -9.17042 
-9.62259 0.061476 -0.307766 
0.061476 -9.18001 0.0183513 
-0.307766 0.0183513 -9.18968 
-9.62093 0.0222272 -0.276169 
0.0222272 -9.34633 -0.135401 
-0.276169 -0.135401 -9.02503 
-9.57418 0.00823772 -0.235872 
0.00823772 -9.2202 -0.120724 
-0.235872 -0.120724 -9.19791 
-9.79866 -0.113476 0.378223 
-0.113476 -9.44602 -0.135973 
0.378223 -0.135973 -11.0669 
-9.36818 -0.666792 0.441197 
-0.666792 -9.65456 -0.212391 
0.441197 -0.212391 -11.2889 
-9.48355 -0.178539 0.561134 
-0.178539 -9.84389 -0.320234 
0.561134 -0.320234 -10.9842 
-9.61878 -0.392502 0.648862 
-0.392502 -9.79929 -0.225963 
0.648862 -0.225963 -10.8936 
-7.90605 0.466824 0.547074 
0.466824 -9.15627 0.447385 
0.547074 0.447385 -9.10203 
-6.61347 0.295706 0.836791 
0.295706 -9.85507 -0.715394 
0.836791 -0.715394 -9.69581 
-8.35899 -0.389098 -0.149669 
-0.389098 -8.94917 -0.85262 
-0.149669 -0.85262 -8.85619 
-7.86576 0.731262 -0.499942 
0.731262 -9.82193 0.100476 
-0.499942 0.100476 -8.47666 
-9.55168 0.000757822 -0.438619 
0.000757822 -9.59227 0.152717 
-0.438619 0.152717 -9.84244 
-9.59004 0.00405044 -0.389968 
0.00405044 -9.5458 0.136864 
-0.389968 0.136864 -9.85054 
-9.57317 0.026859 -0.484609 
0.026859 -9.59893 0.153406 
-0.484609 0.153406 -9.81429 
-9.52325 -0.0386801 -0.478684 
-0.0386801 -9.60067 0.191108 
-0.478684 0.191108 -9.86247 
-9.82998 0.0135409 -0.00603898 
0.0135409 -9.88238 -0.328957 
-0.00603898 -0.328957 -9.79693 
-9.84628 -0.0640874 0.0222086 
-0.0640874 -9.83161 -0.331053 
0.0222086 -0.331053 -9.83139 
-9.91608 -0.0906295 0.0141166 
-0.0906295 -9.8734 -0.322418 
0.0141166 -0.322418 -9.7198 
-9.78436 0.0278903 0.0863131 
0.0278903 -9.9333 -0.258963 
0.0863131 -0.258963 -9.79163 
-9.61235 -0.0104291 -0.457845 
-0.0104291 -9.64056 0.116269 
-0.457845 0.116269 -9.63766 
-9.68177 0.0504897 -0.463863 
0.0504897 -9.5945 0.131413 
-0.463863 0.131413 -9.6143 
-9.4957 -0.03428 -0.395236 
-0.03428 -9.66664 0.0970255 
-0.395236 0.0970255 -9.72824 
-9.58657 -0.0372054 -0.488804 
-0.0372054 -9.57843 0.112702 
-0.488804 0.112702 -9.72558 
-8.4187 -0.676303 -2.88784 
-0.676303 -9.79695 -0.554828 
-2.88784 -0.554828 6.88716 
0.0787535 -0.45442 3.19239 
-0.45442 -0.598963 2.9528 
3.19239 2.9528 -10.8083 
-6.06705 -0.118258 -1.11045 
-0.118258 -6.7812 -2.43774 
-1.11045 -2.43774 1.51977 
-8.93494 -1.06686 5.13064 
-1.06686 -5.16633 -5.57786 
5.13064 -5.57786 2.77279 
-9.2727 -0.564915 -0.0861569 
-0.564915 -9.15712 0.0728733 
-0.0861569 0.0728733 -11.1162 
-6.31665 -1.90246 -1.62166 
-1.90246 -9.57406 -2.05619 
-1.62166 -2.05619 -13.6553 
-10.7123 0.767981 -0.993996 
0.767981 -8.62136 -0.177348 
-0.993996 -0.177348 -10.2123 
-9.01852 -0.665104 1.11355 
-0.665104 -10.2804 -0.443322 
1.11355 -0.443322 -10.247 
-9.54163 -0.094841 0.486317 
-0.094841 -9.59857 0.529984 
0.486317 0.529984 -9.40839 
-9.66604 -0.0934962 0.531762 
-0.0934962 -9.70813 0.343169 
0.531762 0.343169 -9.17443 
-9.54038 0.010317 0.544772 
0.010317 -9.64613 0.479413 
0.544772 0.479413 -9.36208 
-9.4664 -0.0606588 0.342313 
-0.0606588 -9.58773 0.520964 
0.342313 0.520964 -9.49446 
-9.92046 5.62356e-06 0.655965 
5.62356e-06 -6.7567 0.767903 
0.655965 0.767903 -3.93912 
-8.80011 0.183883 -0.61376 
0.183883 -6.87664 1.10511 
-0.61376 1.10511 -4.93953 
-9.4562 0.226245 0.8819 
0.226245 -7.76236 0.673091 
0.8819 0.673091 -3.39773 
-9.35416 0.121441 0.447137 
0.121441 -7.28317 0.994872 
0.447137 0.994872 -3.97896 
-9.80989 0.0384383 0.191988 
0.0384383 -9.84846 0.109637 
0.191988 0.109637 -9.88172 
-9.83992 -0.0124797 0.0803366 
-0.0124797 -9.91969 0.120205 
0.0803366 0.120205 -9.78045 
-9.85696 -0.0177471 0.0948575 
-0.0177471 -9.86406 0.159639 
0.0948575 0.159639 -9.81905 
-9.81888 0.00549771 0.174354 
0.00549771 -9.91658 0.135208 
0.174354 0.135208 -9.8046 
-9.09186 -0.0136713 0.182051 
-0.0136713 -8.94029 0.616751 
0.182051 0.616751 -8.2678 
-8.94107 0.113414 -0.0739638 
0.113414 -9.07916 0.562047 
-0.0739638 0.562047 -8.27972 
-9.21576 0.0165124 0.183305 
0.0165124 -9.21161 0.608816 
0.183305 0.608816 -7.87258 
-9.06173 -0.0726533 0.228156 
-0.0726533 -9.01977 0.619187 
0.228156 0.619187 -8.21845 
-9.51723 -0.00798728 -0.389134 
-0.00798728 -9.57662 0.102227 
-0.389134 0.102227 -9.69305 
-9.51999 -0.0160964 -0.448233 
-0.0160964 -9.54433 0.127935 
-0.448233 0.127935 -9.72258 
-9.54924 0.0306645 -0.4099 
0.0306645 -9.56363 0.177657 
-0.4099 0.177657 -9.67403 
-9.53269 0.0179217 -0.402199 
0.0179217 -9.55717 0.137316 
-0.402199 0.137316 -9.69704 
-9.59152 0.0520802 0.161214 
0.0520802 -9.35562 0.094342 
0.161214 0.094342 -10.1041 
-9.54997 0.0831566 0.224855 
0.0831566 -9.25251 -0.0477093 
0.224855 -0.0477093 -10.2487 
-9.42202 0.0391603 0.0951267 
0.0391603 -9.24721 0.177317 
0.0951267 0.177317 -10.382 
-9.66317 0.0590243 0.144708 
0.0590243 -9.1409 -0.24556 
0.144708 -0.24556 -10.2471 
-9.44993 -0.0487278 0.155954 
-0.0487278 -9.47155 -0.00268944 
0.155954 -0.00268944 -9.16034 
-9.41033 0.0643341 0.196181 
0.0643341 -9.44146 0.0893587 
0.196181 0.0893587 -9.23004 
-9.51703 -0.0206739 0.303056 
-0.0206739 -9.59984 0.127974 
0.303056 0.127974 -8.96495 
-9.51535 -0.0126358 0.218018 
-0.0126358 -9.49966 0.132107 
0.218018 0.132107 -9.06681 
-11.7671 0.404408 -0.739555 
0.404408 -11.3929 -1.03638 
-0.739555 -1.03638 -15.1094 
-13.1871 0.520496 -0.0955602 
0.520496 -12.583 -0.35495 
-0.0955602 -0.35495 -12.4991 
-12.3931 0.360121 -0.232786 
0.360121 -11.9857 -0.525432 
-0.232786 -0.525432 -13.8905 
-12.3335 1.06843 0.0208952 
1.06843 -11.6062 0.704405 
0.0208952 0.704405 -14.3296 
-9.63008 -0.0514181 0.142419 
-0.0514181 -9.4373 0.0903702 
0.142419 0.0903702 -10.0768 
-9.68064 0.0838272 0.285726 
0.0838272 -9.45749 0.0198254 
0.285726 0.0198254 -10.0061 
-9.56153 0.108131 0.244323 
0.108131 -9.32338 -0.0229784 
0.244323 -0.0229784 -10.2593 
-9.7632 -0.0614728 0.0748959 
-0.0614728 -9.26782 -0.0441964 
0.0748959 -0.0441964 -10.1132 
-9.88067 -0.000254706 -0.422632 
-0.000254706 -9.90204 0.215542 
-0.422632 0.215542 -9.99967 
-9.92725 -0.00497371 -0.431284 
-0.00497371 -9.93134 0.198672 
-0.431284 0.198672 -9.9238 
-9.88016 0.0242294 -0.393156 
0.0242294 -9.88897 0.207582 
-0.393156 0.207582 -10.0133 
-9.87928 0.0020965 -0.462269 
0.0020965 -9.94366 0.179493 
-0.462269 0.179493 -9.95944 
-9.55564 0.00150866 -0.486948 
0.00150866 -9.64661 0.218327 
-0.486948 0.218327 -9.4202 
-9.64321 -0.00232962 -0.298961 
-0.00232962 -9.61343 0.244809 
-0.298961 0.244809 -9.3658 
-9.59415 0.0425104 -0.340799 
0.0425104 -9.59975 0.222568 
-0.340799 0.222568 -9.42856 
-9.46153 0.0199577 -0.381294 
0.0199577 -9.56419 0.276272 
-0.381294 0.276272 -9.59673 
-8.8964 -0.00269597 -0.11522 
-0.00269597 -9.34282 0.321384 
-0.11522 0.321384 -9.07583 
-9.51667 -0.105863 -0.0623308 
-0.105863 -9.10437 0.260519 
-0.0623308 0.260519 -8.69401 
-9.00176 -0.00637501 -0.445003 
-0.00637501 -9.6159 0.297145 
-0.445003 0.297145 -8.6974 
-9.23554 -0.179014 -0.214066 
-0.179014 -9.31022 0.00594934 
-0.214066 0.00594934 -8.76929 
-9.99553 0.0626302 0.169942 
0.0626302 -10.2406 0.249686 
0.169942 0.249686 -11.0533 
-10.9916 -0.00397418 -0.158912 
-0.00397418 -9.57568 0.188326 
-0.158912 0.188326 -10.7222 
-10.6954 0.0362644 -0.252938 
0.0362644 -9.57341 -0.0191091 
-0.252938 -0.0191091 -11.0207 
-10.0876 0.471763 -0.265205 
0.471763 -10.3398 -0.54913 
-0.265205 -0.54913 -10.8621 
-9.76423 0.0156241 -0.398539 
0.0156241 -9.73954 0.0703776 
-0.398539 0.0703776 -9.90803 
-9.78418 0.00302614 -0.496289 
0.00302614 -9.8162 0.120125 
-0.496289 0.120125 -9.81141 
-9.74736 -0.0126424 -0.447196 
-0.0126424 -9.77817 0.0858326 
-0.447196 0.0858326 -9.88626 
-9.7505 -0.0037712 -0.436554 
-0.0037712 -9.80033 0.11092 
-0.436554 0.11092 -9.86097 
-9.91109 0.00229434 0.414217 
0.00229434 -9.92174 -0.13579 
0.414217 -0.13579 -9.96238 
-9.91804 -0.00148371 0.400817 
-0.00148371 -9.96102 -0.153352 
0.400817 -0.153352 -9.91615 
-9.88227 0.00166919 0.408067 
0.00166919 -9.84519 -0.147917 
0.408067 -0.147917 -10.0677 
-9.91741 0.0197267 0.398368 
0.0197267 -9.96272 -0.1114 
0.398368 -0.1114 -9.91507 
-7.16055 -0.231933 0.226219 
-0.231933 -6.65128 0.0662264 
0.226219 0.0662264 -1.14141 
-6.80944 0.646444 0.0773674 
0.646444 -6.65463 0.415106 
0.0773674 0.415106 -1.48917 
-6.65317 0.756775 0.110353 
0.756775 -6.58011 0.24875 
0.110353 0.24875 -1.71995 
-7.02407 -1.21564 -1.2634 
-1.21564 -5.85293 2.10606 
-1.2634 2.10606 -2.07623 
-9.69241 0.0851729 0.343833 
0.0851729 -9.51265 0.148071 
0.343833 0.148071 -9.79391 
-9.68911 0.0298389 0.251356 
0.0298389 -9.5234 0.0585361 
0.251356 0.0585361 -9.78646 
-9.68578 0.0548879 0.25303 
0.0548879 -9.50157 0.0906548 
0.25303 0.0906548 -9.81163 
-9.57627 0.0569925 0.313225 
0.0569925 -9.48789 -0.00936825 
0.313225 -0.00936825 -9.93482 
-8.60389 0.794629 -0.337221 
0.794629 -11.1481 -0.273068 
-0.337221 -0.273068 -14.2504 
-9.99441 0.547449 0.827925 
0.547449 -10.6438 0.04408 
0.827925 0.04408 -13.3641 
-11.5765 -0.170889 0.270784 
-0.170889 -9.75814 -0.420209 
0.270784 -0.420209 -12.6677 
-9.79921 0.0143729 0.942804 
0.0143729 -10.5266 0.115037 
0.942804 0.115037 -13.6765 
-9.58655 -0.0988778 0.478212 
-0.0988778 -9.62199 -0.346691 
0.478212 -0.346691 -10.0137 
-9.76653 0.193147 0.408632 
0.193147 -9.97417 -0.285998 
0.408632 -0.285998 -9.48157 
-9.66809 -0.00842914 0.435122 
-0.00842914 -9.79172 -0.269498 
0.435122 -0.269498 -9.76245 
-9.6437 -0.0506404 0.401983 
-0.0506404 -9.78034 -0.00571986 
0.401983 -0.00571986 -9.79822 
-11.2721 -0.152515 0.0461953 
-0.152515 -11.2266 -0.592456 
0.0461953 -0.592456 -9.40795 
-9.90552 -0.270188 -0.241915 
-0.270188 -10.0509 0.384836 
-0.241915 0.384836 -11.9502 
-10.3425 -0.035231 -0.0123323 
-0.035231 -10.4725 -0.277369 
-0.0123323 -0.277369 -11.0917 
-10.6521 -0.226305 -0.396969 
-0.226305 -9.73376 -0.833375 
-0.396969 -0.833375 -11.5207 
-9.85398 0.0627961 0.310869 
0.0627961 -9.86916 -0.153823 
0.310869 -0.153823 -9.82097 
-9.93583 -0.0591055 0.243169 
-0.0591055 -9.90289 -0.0712924 
0.243169 -0.0712924 -9.70539 
-9.7518 -0.128527 0.365754 
-0.128527 -9.78362 -0.069076 
0.365754 -0.069076 -10.0087 
-9.85438 0.00982756 0.301744 
0.00982756 -9.85522 -0.122358 
0.301744 -0.122358 -9.83451 
-9.87433 0.042013 -0.510466 
0.042013 -9.85409 -0.10085 
-0.510466 -0.10085 -9.9587 
-9.86978 -0.0274856 -0.468962 
-0.0274856 -9.88432 -0.107413 
-0.468962 -0.107413 -9.93302 
-9.87535 0.00391056 -0.489444 
0.00391056 -9.89671 -0.109975 
-0.489444 -0.109975 -9.91507 
-9.86112 -0.00586673 -0.442275 
-0.00586673 -9.9107 -0.103266 
-0.442275 -0.103266 -9.91531 
-9.96498 0.00826324 0.286066 
0.00826324 -9.95441 0.0457362 
0.286066 0.0457362 -9.94851 
-9.90199 -0.00650007 0.287119 
-0.00650007 -9.87299 0.0192305 
0.287119 0.0192305 -10.0929 
-9.9514 0.0103175 0.286455 
0.0103175 -9.98463 0.0647678 
0.286455 0.0647678 -9.93187 
-9.9687 -0.0062366 0.301572 
-0.0062366 -9.98823 0.0340878 
0.301572 0.0340878 -9.91097 
-9.47055 0.126222 -0.59153 
0.126222 -9.29276 0.877389 
-0.59153 0.877389 -6.56471 
-9.53614 0.820603 0.204418 
0.820603 -9.56436 1.12089 
0.204418 1.12089 -6.22752 
-9.1727 0.597294 -0.168289 
0.597294 -9.79567 0.262595 
-0.168289 0.262595 -6.35965 
-10.0371 -0.147232 0.035922 
-0.147232 -9.62765 1.47328 
0.035922 1.47328 -5.66326 
-9.6 0.00390015 -0.193522 
0.00390015 -9.51074 0.730386 
-0.193522 0.730386 -9.78627 
-9.50721 -0.0457905 -0.103367 
-0.0457905 -10.0943 0.643105 
-0.103367 0.643105 -9.29553 
-9.71859 -0.0574235 -0.197031 
-0.0574235 -9.54075 0.689159 
-0.197031 0.689159 -9.63765 
-9.71504 0.00474845 -0.275731 
0.00474845 -9.56151 0.460179 
-0.275731 0.460179 -9.62045 
-9.48834 0.047984 0.0552645 
0.047984 -9.62121 -0.128642 
0.0552645 -0.128642 -9.45067 
-9.52311 0.022836 0.0108016 
0.022836 -9.60285 -0.141769 
0.0108016 -0.141769 -9.43426 
-9.46896 -0.0223838 -0.0173735 
-0.0223838 -9.60813 -0.135177 
-0.0173735 -0.135177 -9.48313 
-9.53713 0.0206648 0.0318783 
0.0206648 -9.54592 -0.0996556 
0.0318783 -0.0996556 -9.47717 
-9.63079 0.17468 0.157497 
0.17468 -8.94007 0.264963 
0.157497 0.264963 -7.16962 
-9.5935 -0.213383 -0.347033 
-0.213383 -8.71522 0.473485 
-0.347033 0.473485 -7.43177 
-10.1685 0.103822 0.700593 
0.103822 -9.41381 1.02429 
0.700593 1.02429 -6.15821 
-8.10509 -0.0867017 0.74612 
-0.0867017 -8.59363 0.916567 
0.74612 0.916567 -9.04176 
-9.83499 0.151007 -0.176387 
0.151007 -9.31254 -0.0999956 
-0.176387 -0.0999956 -8.44467 
-9.59423 0.115108 -0.32279 
0.115108 -9.26615 0.0468517 
-0.32279 0.0468517 -8.73183 
-9.53406 0.182376 -0.208592 
0.182376 -9.29451 0.186067 
-0.208592 0.186067 -8.76364 
-9.2254 0.176581 0.347247 
0.176581 -8.78134 -0.104348 
0.347247 -0.104348 -9.58546 
-9.19082 -0.342365 -0.806591 
-0.342365 -9.77895 -0.392315 
-0.806591 -0.392315 -9.04786 
-8.93209 0.00163072 -0.45973 
0.00163072 -9.42274 -0.301542 
-0.45973 -0.301542 -9.66279 
-8.91349 0.145191 -0.48963 
0.145191 -9.66624 -0.21448 
-0.48963 -0.21448 -9.4379 
-9.2933 -0.13434 -0.60464 
-0.13434 -9.62576 -0.0234358 
-0.60464 -0.0234358 -9.09857 
-9.13369 -0.112425 0.0743259 
-0.112425 -9.2883 0.4526 
0.0743259 0.4526 -7.77124 
-9.03729 -0.0781859 -0.0536649 
-0.0781859 -9.04857 0.27009 
-0.0536649 0.27009 -8.10737 
-9.11688 -0.21533 -0.126198 
-0.21533 -9.13694 0.405747 
-0.126198 0.405747 -7.93941 
-8.95195 -0.302146 -0.20726 
-0.302146 -9.22789 0.164395 
-0.20726 0.164395 -8.01339 
-8.50071 0.247592 -0.106536 
0.247592 -9.09883 0.849965 
-0.106536 0.849965 -8.01123 
-9.21551 -0.191517 -0.240986 
-0.191517 -8.70579 0.665547 
-0.240986 0.665547 -7.68948 
-9.29496 0.073103 0.359769 
0.073103 -8.36048 0.264141 
0.359769 0.264141 -7.95534 
-8.96027 0.560211 0.0304288 
0.560211 -7.84878 0.7607 
0.0304288 0.7607 -8.80173 
-10.019 -0.00717344 -0.319193 
-0.00717344 -10.0304 -0.425504 
-0.319193 -0.425504 -9.89433 
-9.92262 -0.0167021 -0.260715 
-0.0167021 -9.95006 -0.413566 
-0.260715 -0.413566 -10.0711 
-9.95999 -0.00914582 -0.285342 
-0.00914582 -10.0237 -0.435897 
-0.285342 -0.435897 -9.96007 
-10.0354 0.0124786 -0.280388 
0.0124786 -10.0018 -0.474437 
-0.280388 -0.474437 -9.90655 
-6.82062 -2.38292 -0.140345 
-2.38292 -9.21323 0.166632 
-0.140345 0.166632 -18.2758 
-13.6838 -3.84514 1.873 
-3.84514 -11.3936 -0.969212 
1.873 -0.969212 -9.23224 
-3.92571 -2.20662 0.331044 
-2.20662 -11.117 1.73819 
0.331044 1.73819 -19.2669 
-9.92649 0.18337 -2.70041 
0.18337 -11.0448 1.14185 
-2.70041 1.14185 -13.3384 
-8.84435 0.0308953 0.0339942 
0.0308953 -9.11793 0.448381 
0.0339942 0.448381 -8.79325 
-8.9928 -0.190483 0.0821531 
-0.190483 -9.38544 0.389194 
0.0821531 0.389194 -8.3773 
-9.0592 -0.11337 0.185037 
-0.11337 -9.44871 0.347264 
0.185037 0.347264 -8.24762 
-8.86217 -0.163169 0.109178 
-0.163169 -9.46066 0.20952 
0.109178 0.20952 -8.43271 
-9.59022 0.0757661 0.439054 
0.0757661 -9.61634 -0.152493 
0.439054 -0.152493 -9.6267 
-9.69058 0.205594 0.483132 
0.205594 -9.58881 -0.227814 
0.483132 -0.227814 -9.55386 
-9.36184 -0.035234 0.333046 
-0.035234 -9.73183 -0.0522367 
0.333046 -0.0522367 -9.73959 
-9.46702 -0.0452999 0.536141 
-0.0452999 -9.48849 -0.0924169 
0.536141 -0.0924169 -9.87776 
-9.19429 0.21326 -0.41077 
0.21326 -8.6969 -0.722356 
-0.41077 -0.722356 -8.80868 
-8.87813 0.448211 -0.573675 
0.448211 -8.58086 -0.722811 
-0.573675 -0.722811 -9.24087 
-8.97808 -0.48003 -0.635389 
-0.48003 -9.49314 -1.38218 
-0.635389 -1.38218 -8.22864 
-8.81918 0.00910487 0.0582685 
0.00910487 -9.70578 -0.866362 
0.0582685 -0.866362 -8.17489 
-8.82768 0.104278 0.116692 
0.104278 -9.53331 -0.635709 
0.116692 -0.635709 -9.03746 
-7.78498 0.339101 0.590424 
0.339101 -10.2455 -0.724717 
0.590424 -0.724717 -9.368 
-8.68556 0.182318 0.467365 
0.182318 -9.76837 -0.157268 
0.467365 -0.157268 -8.94453 
-9.26793 -0.165095 0.59944 
-0.165095 -8.80132 -0.543128 
0.59944 -0.543128 -9.32921 
-9.13097 0.417815 -0.0296217 
0.417815 -10.2963 0.364998 
-0.0296217 0.364998 -7.27516 
-9.43291 -0.371 -0.126548 
-0.371 -9.38608 0.811167 
-0.126548 0.811167 -7.88347 
-9.28255 -0.263819 -0.0325481 
-0.263819 -9.42485 0.209357 
-0.0325481 0.209357 -7.99507 
-9.49969 -0.155218 0.226605 
-0.155218 -9.00615 0.0502797 
0.226605 0.0502797 -8.19662 
-9.87499 -0.00134853 -0.447573 
-0.00134853 -9.90821 0.280178 
-0.447573 0.280178 -9.92921 
-9.89429 0.0211035 -0.454496 
0.0211035 -9.94517 0.255125 
-0.454496 0.255125 -9.87295 
-9.83448 -0.00282247 -0.462412 
-0.00282247 -9.90105 0.278149 
-0.462412 0.278149 -9.97688 
-9.88436 0.0152526 -0.453897 
0.0152526 -9.9138 0.28289 
-0.453897 0.28289 -9.91425 
-9.54118 0.201283 0.362478 
0.201283 -10.0904 -0.501013 
0.362478 -0.501013 -9.34289 
-9.63214 -0.139505 0.440402 
-0.139505 -9.62512 -0.526066 
0.440402 -0.526066 -9.71724 
-9.61113 -0.0306169 0.444825 
-0.0306169 -9.57164 -0.539685 
0.444825 -0.539685 -9.79172 
-9.69771 -0.0436009 0.403398 
-0.0436009 -9.60117 -0.259715 
0.403398 -0.259715 -9.67561 
-9.90023 0.000314232 -0.427532 
0.000314232 -9.89538 0.118869 
-0.427532 0.118869 -9.95823 
-9.88176 0.00856713 -0.453917 
0.00856713 -9.85788 0.142114 
-0.453917 0.142114 -10.0142 
-9.89277 0.00435008 -0.442123 
0.00435008 -9.90718 0.115158 
-0.442123 0.115158 -9.95389 
-9.91923 -0.00428869 -0.422986 
-0.00428869 -9.90873 0.110687 
-0.422986 0.110687 -9.92588 
-9.24841 -0.0466084 0.244282 
-0.0466084 -9.60268 -0.0743615 
0.244282 -0.0743615 -9.62182 
-9.22411 -0.103864 0.287141 
-0.103864 -9.56887 -0.150658 
0.287141 -0.150658 -9.67993 
-9.49174 0.36688 0.378929 
0.36688 -9.53819 -0.144094 
0.378929 -0.144094 -9.44298 
-9.56762 0.122502 0.266001 
0.122502 -9.32106 0.0397326 
0.266001 0.0397326 -9.58423 
-2.09055 4.45618 -6.89324 
4.45618 -4.68526 -1.00997 
-6.89324 -1.00997 -8.09723 
-0.063368 -0.478441 1.69208 
-0.478441 -4.77789 1.58194 
1.69208 1.58194 -10.0318 
-15.1654 -4.25791 -5.56631 
-4.25791 -5.54912 -6.40006 
-5.56631 -6.40006 5.84144 
-9.22871 -1.07856 -4.88806 
-1.07856 -8.19387 -2.57097 
-4.88806 -2.57097 2.54954 
-7.8022 -0.0998988 -0.873483 
-0.0998988 -8.47239 0.0113539 
-0.873483 0.0113539 -7.83506 
-8.86686 -0.343444 -1.77372 
-0.343444 -9.08172 0.525341 
-1.77372 0.525341 -6.16106 
-9.30601 -0.0826258 -1.82642 
-0.0826258 -9.468 0.68633 
-1.82642 0.68633 -5.33563 
-9.12977 -0.148413 -1.91347 
-0.148413 -9.03776 0.201872 
-1.91347 0.201872 -5.94212 
-9.85535 0.0330565 0.465468 
0.0330565 -9.81523 -0.117011 
0.465468 -0.117011 -9.9295 
-9.8249 0.011322 0.43247 
0.011322 -9.83602 -0.116808 
0.43247 -0.116808 -9.93915 
-9.84614 0.00516299 0.401876 
0.00516299 -9.84446 -0.117211 
0.401876 -0.117211 -9.90948 
-9.84017 0.0111564 0.429823 
0.0111564 -9.83545 -0.121088 
0.429823 -0.121088 -9.92445 
-9.63853 -0.0275433 0.368568 
-0.0275433 -9.53388 -0.0454074 
0.368568 -0.0454074 -9.60101 
-9.7037 -0.0218238 0.338348 
-0.0218238 -9.48674 -0.0714316 
0.338348 -0.0714316 -9.58297 
-9.53006 -0.086844 0.437982 
-0.086844 -9.53556 -0.0702573 
0.437982 -0.0702573 -9.7078 
-9.55898 -0.0495365 0.36864 
-0.0495365 -9.5293 -0.00421193 
0.36864 -0.00421193 -9.68514 
-9.14 -0.0839987 -0.401241 
-0.0839987 -9.61575 0.217053 
-0.401241 0.217053 -10.2074 
-9.21452 0.0337879 -0.519889 
0.0337879 -9.64004 0.0345931 
-0.519889 0.0345931 -10.1086 
-9.20966 -0.183099 -0.618806 
-0.183099 -9.66206 0.214594 
-0.618806 0.214594 -10.0914 
-9.21496 -0.283139 -0.530673 
-0.283139 -9.65041 0.118138 
-0.530673 0.118138 -10.0978 
-3.21028 2.25461 -0.8293 
2.25461 -9.5102 0.140831 
-0.8293 0.140831 -4.7005 
-7.18579 -1.00834 -3.79147 
-1.00834 -4.69241 -1.83357 
-3.79147 -1.83357 -5.54278 
-10.7468 -1.00126 -1.37177 
-1.00126 -7.21088 -1.13273 
-1.37177 -1.13273 0.536729 
-5.63487 -0.370114 -2.75688 
-0.370114 -8.22158 0.514276 
-2.75688 0.514276 -3.56453 
-7.68136 0.778179 -1.30225 
0.778179 -7.74987 -0.90304 
-1.30225 -0.90304 -7.52173 
-7.61808 -0.381469 -1.82919 
-0.381469 -9.8772 -1.82186 
-1.82919 -1.82186 -5.45768 
-7.90158 0.982906 -0.334041 
0.982906 -6.78242 -1.70084 
-0.334041 -1.70084 -8.26895 
-8.26296 -0.490185 -1.3871 
-0.490185 -8.02504 0.0938336 
-1.3871 0.0938336 -6.66496 
-8.70908 0.766353 0.0266358 
0.766353 -8.16482 0.0630239 
0.0266358 0.0630239 -10.8379 
-8.47944 0.656073 -0.100289 
0.656073 -8.37241 -0.208075 
-0.100289 -0.208075 -10.86 
-8.50679 0.52973 -0.271588 
0.52973 -8.65682 -0.507518 
-0.271588 -0.507518 -10.5482 
-8.38701 0.638805 -0.0676508 
0.638805 -8.44258 -0.272652 
-0.0676508 -0.272652 -10.8822 
-9.04132 -0.137331 0.251435 
-0.137331 -9.3935 0.75517 
0.251435 0.75517 -7.62445 
-9.21456 0.0497333 0.00795193 
0.0497333 -8.84445 0.735412 
0.00795193 0.735412 -8.00027 
-9.38751 -0.159035 -0.0207151 
-0.159035 -8.98214 0.375767 
-0.0207151 0.375767 -7.68963 
-9.35953 -0.106642 0.0322432 
-0.106642 -8.98359 0.592012 
0.0322432 0.592012 -7.71616 
-9.58129 0.101026 0.121829 
0.101026 -9.31092 -0.00830393 
0.121829 -0.00830393 -10.0141 
-9.59892 0.0430311 0.16694 
0.0430311 -9.2585 -0.0293456 
0.16694 -0.0293456 -10.0489 
-9.60538 0.0549305 0.164877 
0.0549305 -9.29304 -0.0450756 
0.164877 -0.0450756 -10.0079 
-9.67611 0.122279 0.147755 
0.122279 -9.21871 -0.148496 
0.147755 -0.148496 -10.0115 
-9.11084 0.0819065 0.235464 
0.0819065 -9.72311 0.0418245 
0.235464 0.0418245 -8.27673 
-9.24208 0.0344331 -0.0590989 
0.0344331 -9.54758 0.105976 
-0.0590989 0.105976 -8.32102 
-9.58693 0.0715497 0.000998099 
0.0715497 -9.40068 0.271859 
0.000998099 0.271859 -8.12307 
-9.21208 -0.142693 -0.377267 
-0.142693 -9.35704 -0.0299718 
-0.377267 -0.0299718 -8.54156 
-3.90331 0.299121 0.191605 
0.299121 -3.49857 -0.626151 
0.191605 -0.626151 -0.212087 
-3.33278 0.021352 -0.377578 
0.021352 -5.24883 -0.24667 
-0.377578 -0.24667 0.967641 
-2.80378 0.207596 1.04357 
0.207596 -2.16645 0.0922302 
1.04357 0.0922302 -2.64374 
-3.88408 0.156284 1.27658 
0.156284 -3.01733 -0.154228 
1.27658 -0.154228 -0.712563 
-9.09756 0.142937 -0.264866 
0.142937 -8.8381 0.322402 
-0.264866 0.322402 -10.4037 
-9.08807 0.121527 -0.0880191 
0.121527 -8.86075 0.178693 
-0.0880191 0.178693 -10.3905 
-9.03223 0.025862 -0.515412 
0.025862 -9.13874 0.387218 
-0.515412 0.387218 -10.1684 
-9.17406 -0.20906 0.180714 
-0.20906 -8.64478 0.480741 
0.180714 0.480741 -10.5205 
-9.44586 -0.0488807 -0.22106 
-0.0488807 -9.73005 -0.0734965 
-0.22106 -0.0734965 -9.91578 
-9.76741 -0.150914 -0.0714163 
-0.150914 -9.59734 -0.0245202 
-0.0714163 -0.0245202 -9.72694 
-9.54874 -0.107192 -0.121079 
-0.107192 -9.74469 -0.0845022 
-0.121079 -0.0845022 -9.79825 
-9.46842 -0.226058 -0.158531 
-0.226058 -9.74099 0.0210183 
-0.158531 0.0210183 -9.88228 
-9.46961 0.21935 -0.0368015 
0.21935 -7.13551 -0.7543 
-0.0368015 -0.7543 -9.34098 
-8.07929 0.509582 0.236857 
0.509582 -7.38595 -1.91067 
0.236857 -1.91067 -10.4809 
-8.44255 0.341457 0.147896 
0.341457 -8.0921 -1.36614 
0.147896 -1.36614 -9.41146 
-9.72453 -0.283525 -0.24232 
-0.283525 -8.04847 -0.873601 
-0.24232 -0.873601 -8.17311 
-8.19329 0.397053 0.609567 
0.397053 -9.72967 -0.308628 
0.609567 -0.308628 -8.72092 
-8.71347 -0.389914 0.639179 
-0.389914 -8.9092 -0.806468 
0.639179 -0.806468 -9.02121 
-8.53383 -0.588752 0.610199 
-0.588752 -8.70433 -0.661805 
0.610199 -0.661805 -9.40571 
-8.48401 -0.462887 1.05117 
-0.462887 -9.5074 -0.86073 
1.05117 -0.86073 -8.65247 
-5.79549 0.427205 -0.879563 
0.427205 -4.39722 -0.735362 
-0.879563 -0.735362 -1.06147 
-4.99214 0.821778 -0.948837 
0.821778 -4.98511 -0.157674 
-0.948837 -0.157674 -1.27693 
-7.55866 -0.424436 -1.17185 
-0.424436 -4.61765 0.398307 
-1.17185 0.398307 0.92213 
-5.44819 -0.0685156 -0.493639 
-0.0685156 -4.12622 -1.00404 
-0.493639 -1.00404 -1.67977 
-8.60267 -0.573029 -0.384347 
-0.573029 -8.94098 0.612438 
-0.384347 0.612438 -9.33617 
-8.36276 0.549082 -0.313255 
0.549082 -9.85184 0.366699 
-0.313255 0.366699 -8.66521 
-8.84895 -0.5959 -0.543902 
-0.5959 -8.7862 0.763943 
-0.543902 0.763943 -9.24467 
-7.98591 -0.681403 -1.01049 
-0.681403 -9.82314 0.816199 
-1.01049 0.816199 -9.07076 
-9.72723 0.204951 0.0465521 
0.204951 -9.18154 0.173395 
0.0465521 0.173395 -10.732 
-9.88225 0.175931 0.121035 
0.175931 -9.10215 0.0726013 
0.121035 0.0726013 -10.6564 
-9.85692 0.208306 0.114454 
0.208306 -9.02894 0.082311 
0.114454 0.082311 -10.7549 
-9.69674 0.0937783 0.24568 
0.0937783 -9.22139 0.2381 
0.24568 0.2381 -10.7226 
-9.89733 -0.012544 0.0572434 
-0.012544 -9.77304 0.0273421 
0.0572434 0.0273421 -9.95404 
-9.87503 0.0366845 0.105406 
0.0366845 -9.8179 -0.008154 
0.105406 -0.008154 -9.93148 
-9.85731 0.0482695 0.0391394 
0.0482695 -9.86525 -0.0061038 
0.0391394 -0.0061038 -9.90185 
-9.93043 -0.0418352 0.123274 
-0.0418352 -9.81392 -0.000984146 
0.123274 -0.000984146 -9.88005 
-9.3207 0.122332 0.152925 
0.122332 -9.43764 -0.742782 
0.152925 -0.742782 -9.0024 
-9.26955 0.0430035 -0.021464 
0.0430035 -9.37697 -0.702779 
-0.021464 -0.702779 -9.11423 
-9.43074 -0.00848219 0.165587 
-0.00848219 -9.2497 -0.606659 
0.165587 -0.606659 -9.0803 
-9.22144 0.0528573 -0.117585 
0.0528573 -9.45172 -0.714226 
-0.117585 -0.714226 -9.08759 
-9.70488 0.0140914 0.0885581 
0.0140914 -9.7665 0.0804929 
0.0885581 0.0804929 -9.7963 
-9.6647 0.0815986 -0.112197 
0.0815986 -9.81331 0.0583353 
-0.112197 0.0583353 -9.78967 
-9.63797 0.11663 0.0648513 
0.11663 -9.73833 0.0482588 
0.0648513 0.0482588 -9.89138 
-9.61514 0.0906862 0.0561148 
0.0906862 -9.76623 0.0640444 
0.0561148 0.0640444 -9.88631 
-9.5509 -0.220674 -0.029389 
-0.220674 -9.65747 0.0609274 
-0.029389 0.0609274 -8.15748 
-9.43467 -0.00317572 0.285212 
-0.00317572 -9.46379 0.264183 
0.285212 0.264183 -8.46739 
-9.511 0.0480775 0.323887 
0.0480775 -9.3478 0.106279 
0.323887 0.106279 -8.50706 
-9.21074 -0.0579399 0.0173438 
-0.0579399 -9.27006 0.220411 
0.0173438 0.220411 -8.88505 
-8.89243 -0.209099 0.113202 
-0.209099 -9.0702 0.733376 
0.113202 0.733376 -9.04761 
-8.87605 -0.0860638 0.282835 
-0.0860638 -8.64058 0.661884 
0.282835 0.661884 -9.49361 
-9.23246 -0.132568 0.577225 
-0.132568 -9.10572 0.50905 
0.577225 0.50905 -8.67206 
-8.93065 -0.0772882 0.228398 
-0.0772882 -8.95116 0.851341 
0.228398 0.851341 -9.12843 
-9.93281 0.00440319 0.0796013 
0.00440319 -9.89716 0.000205248 
0.0796013 0.000205248 -9.98266 
-9.94359 0.00931168 0.084232 
0.00931168 -9.94711 -0.0159189 
0.084232 -0.0159189 -9.92194 
-9.92447 -0.0060121 0.102634 
-0.0060121 -9.86528 0.0486192 
0.102634 0.0486192 -10.0229 
-9.95937 0.0206189 0.0988008 
0.0206189 -9.88281 -0.0245313 
0.0988008 -0.0245313 -9.97046 
-9.62527 0.0359712 0.101995 
0.0359712 -9.33469 -0.0631183 
0.101995 -0.0631183 -9.92791 
-9.53712 0.0771252 0.0924844 
0.0771252 -9.34349 -0.0579668 
0.0924844 -0.0579668 -10.0073 
-9.51141 -0.00536165 0.115579 
-0.00536165 -9.40812 -0.108454 
0.115579 -0.108454 -9.96834 
-9.56959 0.0402161 0.102085 
0.0402161 -9.34953 -0.0576715 
0.102085 -0.0576715 -9.96875 
-9.92983 0.00115776 -0.504704 
0.00115776 -9.88884 -0.0964909 
-0.504704 -0.0964909 -10.0245 
-9.94159 -0.00572355 -0.481834 
-0.00572355 -9.94229 -0.11385 
-0.481834 -0.11385 -9.95929 
-9.93664 -0.0137704 -0.487672 
-0.0137704 -9.94424 -0.104499 
-0.487672 -0.104499 -9.96229 
-9.94212 -0.00457118 -0.465637 
-0.00457118 -9.95841 -0.114254 
-0.465637 -0.114254 -9.94264 
-9.68188 -0.0158276 0.385571 
-0.0158276 -9.54771 -0.00931591 
0.385571 -0.00931591 -9.89569 
-9.65636 0.0671616 0.395652 
0.0671616 -9.57506 -0.0345305 
0.395652 -0.0345305 -9.89386 
-9.66081 0.0597212 0.420999 
0.0597212 -9.56153 -0.0868344 
0.420999 -0.0868344 -9.90293 
-9.67678 0.0296485 0.379786 
0.0296485 -9.56257 -0.0473436 
0.379786 -0.0473436 -9.88593 
-9.82172 0.00754068 0.0509342 
0.00754068 -9.78162 -0.638663 
0.0509342 -0.638663 -9.74447 
-9.73358 0.010219 0.136589 
0.010219 -9.79875 -0.557811 
0.136589 -0.557811 -9.81547 
-9.74381 -0.00579687 0.0962556 
-0.00579687 -9.83381 -0.636861 
0.0962556 -0.636861 -9.77018 
-9.80914 0.0275253 0.0171533 
0.0275253 -9.88268 -0.640495 
0.0171533 -0.640495 -9.65598 
-11.49 -2.29512 3.11028 
-2.29512 -7.60984 -1.70874 
3.11028 -1.70874 1.24453 
-5.10412 2.03424 1.38462 
2.03424 -8.88999 -0.684778 
1.38462 -0.684778 -3.86121 
-7.47192 0.388317 2.5725 
0.388317 -7.09783 0.426739 
2.5725 0.426739 -3.28557 
-7.53471 -2.24383 3.52634 
-2.24383 -3.79555 1.35994 
3.52634 1.35994 -6.52507 
-9.44195 0.174351 -0.603949 
0.174351 -12.346 -0.813382 
-0.603949 -0.813382 -16.0631 
-9.90736 0.16606 0.293685 
0.16606 -12.086 -0.378561 
0.293685 -0.378561 -15.8577 
-11.0166 0.331694 -0.110541 
0.331694 -13.9183 0.873896 
-0.110541 0.873896 -12.9161 
-10.0766 0.591965 0.587341 
0.591965 -14.4957 -0.401798 
0.587341 -0.401798 -13.2787 
-9.71402 0.324143 -0.131727 
0.324143 -8.63333 0.917103 
-0.131727 0.917103 -7.76597 
-9.57917 0.292039 -0.268613 
0.292039 -8.85167 0.843723 
-0.268613 0.843723 -7.68248 
-9.49462 0.585612 -0.0278139 
0.585612 -8.88614 0.753959 
-0.0278139 0.753959 -7.73256 
-9.27614 0.138305 0.0773927 
0.138305 -9.08265 0.458239 
0.0773927 0.458239 -7.75452 
-11.6464 0.985743 0.397123 
0.985743 -9.77915 0.518812 
0.397123 0.518812 -14.8286 
-11.5077 0.841526 0.264996 
0.841526 -10.1915 0.624916 
0.264996 0.624916 -14.555 
-11.6735 1.04097 0.0902988 
1.04097 -9.9473 0.761236 
0.0902988 0.761236 -14.6333 
-12.476 1.1668 0.943904 
1.1668 -9.61824 0.394324 
0.943904 0.394324 -14.1599 
-9.67897 0.00335364 -0.484405 
0.00335364 -9.71065 0.0778729 
-0.484405 0.0778729 -9.89649 
-9.70906 0.00109246 -0.428943 
0.00109246 -9.74469 0.0807504 
-0.428943 0.0807504 -9.83235 
-9.76198 -0.0282838 -0.467508 
-0.0282838 -9.76738 0.0890697 
-0.467508 0.0890697 -9.75675 
-9.71974 -0.0242825 -0.461409 
-0.0242825 -9.75984 0.0870108 
-0.461409 0.0870108 -9.80652 
-9.63987 0.147293 0.52109 
0.147293 -9.65112 0.0896503 
0.52109 0.0896503 -9.53222 
-9.57059 0.0710539 0.329724 
0.0710539 -9.72338 -0.0381562 
0.329724 -0.0381562 -9.52923 
-9.63954 0.0540361 0.29299 
0.0540361 -9.6137 0.00222166 
0.29299 0.00222166 -9.56996 
-9.65821 -0.121051 0.430556 
-0.121051 -9.78867 0.037873 
0.430556 0.037873 -9.37632 
-9.4833 0.0515414 0.380338 
0.0515414 -9.29414 0.248971 
0.380338 0.248971 -9.41186 
-9.47067 0.0813783 0.321943 
0.0813783 -9.45567 0.221478 
0.321943 0.221478 -9.26296 
-9.39155 0.123046 0.216163 
0.123046 -9.47648 0.131335 
0.216163 0.131335 -9.32126 
-9.49773 -0.0140155 0.309581 
-0.0140155 -9.4406 0.244841 
0.309581 0.244841 -9.25096 
-5.88809 1.17951 2.27055 
1.17951 -7.75679 4.01329 
2.27055 4.01329 -11.5626 
-13.5912 1.60333 -0.650664 
1.60333 -4.01991 -0.73677 
-0.650664 -0.73677 -7.59642 
-5.55763 -1.43394 -0.629227 
-1.43394 -6.83447 0.477351 
-0.629227 0.477351 -12.8154 
-10.1146 2.22631 -0.0858706 
2.22631 -10.5381 1.83635 
-0.0858706 1.83635 -4.55481 
-8.25132 0.714795 1.52938 
0.714795 -8.25244 1.62282 
1.52938 1.62282 -10.4824 
-8.35194 -0.365535 0.767599 
-0.365535 -7.89528 0.881823 
0.767599 0.881823 -10.7389 
-7.01152 0.525534 0.918554 
0.525534 -10.9039 0.174039 
0.918554 0.174039 -9.07073 
-8.88256 0.871548 0.300535 
0.871548 -9.54435 0.534515 
0.300535 0.534515 -8.55925 
-9.65809 0.0547595 0.566509 
0.0547595 -9.77321 0.149258 
0.566509 0.149258 -9.86566 
-9.78611 -0.156827 0.498585 
-0.156827 -9.76485 0.179351 
0.498585 0.179351 -9.746 
-9.77732 -0.133668 0.5263 
-0.133668 -9.81891 0.212243 
0.5263 0.212243 -9.70073 
-9.64194 -0.0481786 0.507926 
-0.0481786 -9.94565 0.13192 
0.507926 0.13192 -9.70938 
-9.91908 0.0136829 0.389283 
0.0136829 -9.90594 0.021448 
0.389283 0.021448 -10.0466 
-9.95606 -0.00373757 0.367491 
-0.00373757 -9.91124 0.0400068 
0.367491 0.0400068 -10.0044 
-9.99548 -0.0223132 0.414441 
-0.0223132 -9.96806 0.055699 
0.414441 0.055699 -9.90812 
-9.9748 -0.0442557 0.39605 
-0.0442557 -9.98808 0.0203858 
0.39605 0.0203858 -9.90879 
-9.36083 -0.107776 0.581476 
-0.107776 -9.66375 0.120231 
0.581476 0.120231 -9.51266 
-9.74526 -0.185754 0.484241 
-0.185754 -9.31207 -0.0229266 
0.484241 -0.0229266 -9.4799 
-9.37473 -0.138729 0.578874 
-0.138729 -9.64846 0.0298479 
0.578874 0.0298479 -9.51404 
-9.50166 -0.247144 0.705396 
-0.247144 -9.63816 -0.0367067 
0.705396 -0.0367067 -9.39742 
-9.9188 -0.00605855 -0.458986 
-0.00605855 -9.93642 -0.123224 
-0.458986 -0.123224 -9.96784 
-9.94718 -0.0057801 -0.466861 
-0.0057801 -9.93876 -0.127044 
-0.466861 -0.127044 -9.93711 
-9.8947 0.00247162 -0.46226 
0.00247162 -9.89841 -0.154851 
-0.46226 -0.154851 -10.0299 
-9.94702 0.000268955 -0.482489 
0.000268955 -9.93543 -0.103756 
-0.482489 -0.103756 -9.94061 
-9.22704 0.0252624 -0.425331 
0.0252624 -9.54217 0.482463 
-0.425331 0.482463 -8.99389 
-9.32401 -0.15377 -0.397655 
-0.15377 -9.30178 0.46816 
-0.397655 0.46816 -9.13731 
-9.28832 0.000916014 -0.449767 
0.000916014 -9.41815 0.564816 
-0.449767 0.564816 -9.05664 
-9.43791 -0.145893 -0.506836 
-0.145893 -9.45576 0.431436 
-0.506836 0.431436 -8.86943 
-9.94528 -0.00960569 0.242864 
-0.00960569 -9.93491 -0.0200193 
0.242864 -0.0200193 -9.94648 
-9.94415 0.00933226 0.239127 
0.00933226 -9.93348 -0.0192164 
0.239127 -0.0192164 -9.94904 
-9.89551 0.0315511 0.234396 
0.0315511 -9.89185 -0.0653891 
0.234396 -0.0653891 -10.0393 
-9.96592 0.0171009 0.248231 
0.0171009 -9.89243 0.0057931 
0.248231 0.0057931 -9.96832 
-6.36739 -0.123804 1.29151 
-0.123804 -8.60874 0.404079 
1.29151 0.404079 -8.74194 
-6.3117 -0.169611 1.13087 
-0.169611 -8.47263 0.432393 
1.13087 0.432393 -8.93374 
-6.60374 -0.384987 2.76396 
-0.384987 -7.54945 0.07063 
2.76396 0.07063 -9.56488 
-6.93959 0.184034 0.96164 
0.184034 -9.19195 0.841225 
0.96164 0.841225 -7.58653 
-9.08914 -0.289021 0.245676 
-0.289021 -8.35654 0.468183 
0.245676 0.468183 -7.44914 
-8.73374 -0.160948 0.215423 
-0.160948 -8.47146 0.46507 
0.215423 0.46507 -7.68964 
-8.70624 -0.145522 0.119831 
-0.145522 -8.573 0.431538 
0.119831 0.431538 -7.61559 
-8.70763 -0.0798214 0.108465 
-0.0798214 -8.61675 0.306151 
0.108465 0.306151 -7.57045 
-8.74305 -0.801555 1.19855 
-0.801555 -8.44364 -3.03507 
1.19855 -3.03507 -10.7127 
-8.91048 1.25082 -0.357254 
1.25082 -8.55704 0.0294239 
-0.357254 0.0294239 -10.4319 
-9.1414 0.82727 0.495495 
0.82727 -7.50495 -1.77887 
0.495495 -1.77887 -11.253 
-10.1139 0.223659 -1.2658 
0.223659 -8.60183 -0.107064 
-1.2658 -0.107064 -9.18369 
-9.85559 -0.0574391 -0.416936 
-0.0574391 -9.82191 -0.0890499 
-0.416936 -0.0890499 -9.88932 
-9.88593 -0.0581222 -0.424871 
-0.0581222 -9.86243 -0.0799374 
-0.424871 -0.0799374 -9.81846 
-9.85992 0.00561942 -0.444603 
0.00561942 -9.83567 -0.076768 
-0.444603 -0.076768 -9.87123 
-9.85278 -0.000536747 -0.434005 
-0.000536747 -9.86286 -0.0635387 
-0.434005 -0.0635387 -9.85118 
-7.49801 0.252648 -1.3169 
0.252648 -8.50195 -0.142097 
-1.3169 -0.142097 -7.86304 
-7.70991 -0.176374 -0.754386 
-0.176374 -8.55461 -0.861245 
-0.754386 -0.861245 -7.59848 
-7.54029 0.0672435 -1.31648 
0.0672435 -8.32447 0.0652668 
-1.31648 0.0652668 -7.99824 
-7.67812 0.498234 -2.19145 
0.498234 -8.31755 -0.31853 
-2.19145 -0.31853 -7.86732 
-12.2271 0.253576 -1.07528 
0.253576 -11.3245 0.1362 
-1.07528 0.1362 -15.8429 
-14.0841 0.675613 0.451867 
0.675613 -11.8933 0.313003 
0.451867 0.313003 -13.4171 
-13.8071 -0.690219 -0.0447316 
-0.690219 -12.9664 0.0778677 
-0.0447316 0.0778677 -12.621 
-13.3372 0.54129 0.652568 
0.54129 -12.6202 0.820638 
0.652568 0.820638 -13.4371 
-8.49769 0.278216 0.250139 
0.278216 -8.86293 -0.940742 
0.250139 -0.940742 -8.8007 
-9.09074 -0.462322 0.496681 
-0.462322 -8.81859 -1.05915 
0.496681 -1.05915 -8.252 
-8.89557 -0.0741873 0.319322 
-0.0741873 -8.59019 -0.975103 
0.319322 -0.975103 -8.67557 
-9.39808 -0.0356563 0.234088 
-0.0356563 -8.45711 -1.10197 
0.234088 -1.10197 -8.30613 
-8.82769 0.422543 0.3869 
0.422543 -9.37098 0.54994 
0.3869 0.54994 -9.80559 
-7.98677 0.163569 0.924105 
0.163569 -10.6762 0.00874407 
0.924105 0.00874407 -9.34129 
-9.22006 -0.484354 0.244959 
-0.484354 -9.33484 0.556334 
0.244959 0.556334 -9.44936 
-9.05674 0.861735 1.13018 
0.861735 -9.37756 0.678111 
1.13018 0.678111 -9.56997 
-10.618 0.424159 -0.874172 
0.424159 -7.36705 0.744235 
-0.874172 0.744235 -12.9952 
-11.6405 -0.62331 1.77175 
-0.62331 -8.19282 -0.0824608 
1.77175 -0.0824608 -11.147 
-10.132 0.996263 1.37844 
0.996263 -8.62426 0.763294 
1.37844 0.763294 -12.224 
-9.51018 1.02622 0.687023 
1.02622 -8.96275 1.15984 
0.687023 1.15984 -12.5074 
-9.06186 -0.276972 -0.316187 
-0.276972 -9.21832 0.687537 
-0.316187 0.687537 -8.88242 
-8.58236 0.0655939 -0.629574 
0.0655939 -9.76158 0.710176 
-0.629574 0.710176 -8.81866 
-8.96366 -0.523216 -0.448318 
-0.523216 -8.8762 0.336004 
-0.448318 0.336004 -9.32274 
-9.01391 0.166402 -0.855405 
0.166402 -8.86781 0.636868 
-0.855405 0.636868 -9.28088 
-9.52237 -0.0922348 -0.511095 
-0.0922348 -9.65944 -0.302981 
-0.511095 -0.302981 -9.55912 
-9.47889 -0.00163588 -0.530821 
-0.00163588 -9.62855 -0.297632 
-0.530821 -0.297632 -9.63349 
-9.49842 0.04054 -0.524885 
0.04054 -9.6629 -0.246118 
-0.524885 -0.246118 -9.57961 
-9.55431 -0.0617876 -0.52712 
-0.0617876 -9.58134 -0.29688 
-0.52712 -0.29688 -9.60527 
-8.79134 -0.103566 1.05977 
-0.103566 -9.24957 0.444865 
1.05977 0.444865 -8.29565 
-8.84814 -0.0372045 1.32114 
-0.0372045 -9.27479 0.578038 
1.32114 0.578038 -8.21362 
-8.7981 -0.11868 1.05365 
-0.11868 -8.86614 0.411339 
1.05365 0.411339 -8.67231 
-8.77161 -0.226247 1.16503 
-0.226247 -9.32448 0.390943 
1.16503 0.390943 -8.24047 
-9.5685 -0.0625141 0.30375 
-0.0625141 -9.61463 0.294239 
0.30375 0.294239 -9.33963 
-9.42616 -0.100074 0.189079 
-0.100074 -9.9036 0.312514 
0.189079 0.312514 -9.193 
-9.61973 -0.0463608 0.174712 
-0.0463608 -9.58951 0.178171 
0.174712 0.178171 -9.31352 
-9.6811 0.0322959 0.267852 
0.0322959 -9.5093 0.390774 
0.267852 0.390774 -9.33237 
-8.96246 -0.00657594 -1.56888 
-0.00657594 -8.50479 1.16882 
-1.56888 1.16882 -5.48297 
-8.1962 -0.0133791 -1.03382 
-0.0133791 -7.3599 0.304687 
-1.03382 0.304687 -7.39413 
-8.98378 0.819702 -1.65054 
0.819702 -7.90351 1.18365 
-1.65054 1.18365 -6.06294 
-9.33061 -0.488527 -1.36109 
-0.488527 -8.16059 0.474614 
-1.36109 0.474614 -5.45902 
-9.82708 0.0484002 -0.0242783 
0.0484002 -9.80226 0.0713073 
-0.0242783 0.0713073 -9.91058 
-9.804 0.0195138 0.0592821 
0.0195138 -9.89711 0.0292307 
0.0592821 0.0292307 -9.8388 
-9.81996 0.0683928 -0.00502762 
0.0683928 -9.76693 0.0414489 
-0.00502762 0.0414489 -9.95303 
-9.78982 0.0495527 0.0229491 
0.0495527 -9.82328 0.108033 
0.0229491 0.108033 -9.92682 
-9.68606 1.80669 0.861782 
1.80669 -9.4525 0.490085 
0.861782 0.490085 -10.8568 
-9.71415 1.05149 0.171131 
1.05149 -9.39279 0.555587 
0.171131 0.555587 -10.8884 
-10.3433 -0.179504 -0.875385 
-0.179504 -7.91475 0.38839 
-0.875385 0.38839 -11.7373 
-10.147 -0.6453 2.96954 
-0.6453 -9.78405 0.216963 
2.96954 0.216963 -10.0643 
-9.81792 0.392733 0.0323669 
0.392733 -9.70765 0.0152692 
0.0323669 0.0152692 -9.64854 
-9.5374 -0.0442748 0.107985 
-0.0442748 -9.75312 -0.0188966 
0.107985 -0.0188966 -9.8836 
-9.52924 -0.0765495 0.174731 
-0.0765495 -9.75092 -0.133462 
0.174731 -0.133462 -9.89396 
-9.89618 0.0529348 0.0010013 
0.0529348 -9.30088 -0.0719109 
0.0010013 -0.0719109 -9.97705 
-7.59457 0.654279 1.27773 
0.654279 -7.85391 1.20215 
1.27773 1.20215 -6.60887 
-7.54065 0.653767 1.54741 
0.653767 -7.74678 1.61361 
1.54741 1.61361 -6.76992 
-7.42715 0.689385 1.44972 
0.689385 -7.47011 1.46194 
1.44972 1.46194 -7.16009 
-7.51171 0.413799 1.34834 
0.413799 -7.28128 1.47007 
1.34834 1.47007 -7.26437 
-9.89214 -0.0025058 0.433962 
-0.0025058 -9.90459 -0.171485 
0.433962 -0.171485 -10.0136 
-9.92346 0.00528649 0.43271 
0.00528649 -9.92761 -0.151749 
0.43271 -0.151749 -9.95928 
-9.92877 0.0300732 0.426014 
0.0300732 -9.92562 -0.165401 
0.426014 -0.165401 -9.95595 
-9.946 0.00336131 0.419954 
0.00336131 -9.94262 -0.158278 
0.419954 -0.158278 -9.92172 
-9.55499 -0.000631258 -0.409597 
-0.000631258 -9.61901 0.265037 
-0.409597 0.265037 -9.75311 
-9.53991 -0.0248144 -0.470929 
-0.0248144 -9.68388 0.158841 
-0.470929 0.158841 -9.70332 
-9.57541 0.0294588 -0.455659 
0.0294588 -9.71559 0.155794 
-0.455659 0.155794 -9.63612 
-9.53575 0.0472139 -0.366335 
0.0472139 -9.6315 0.207308 
-0.366335 0.207308 -9.75986 
-9.6271 -0.0382735 -0.426804 
-0.0382735 -9.68116 0.0782896 
-0.426804 0.0782896 -9.83639 
-9.68946 -0.0204258 -0.447669 
-0.0204258 -9.64598 0.128078 
-0.447669 0.128078 -9.80921 
-9.67034 -0.0492701 -0.559744 
-0.0492701 -9.65579 0.0714745 
-0.559744 0.0714745 -9.81852 
-9.63254 0.0122411 -0.40688 
0.0122411 -9.6273 0.0166075 
-0.40688 0.0166075 -9.88481 
-9.24615 -0.228241 0.737505 
-0.228241 -9.45077 0.060795 
0.737505 0.060795 -9.10559 
-9.16809 -0.0991772 0.645522 
-0.0991772 -9.48604 0.21176 
0.645522 0.21176 -9.14838 
-9.20559 -0.162654 0.654221 
-0.162654 -9.43816 0.150288 
0.654221 0.150288 -9.15877 
-9.27127 -0.185398 0.636994 
-0.185398 -9.35527 0.146006 
0.636994 0.146006 -9.17597 
-8.84694 -0.0989637 -0.538787 
-0.0989637 -9.50436 0.409567 
-0.538787 0.409567 -9.36685 
-8.34397 0.354553 -0.793292 
0.354553 -9.45565 0.646907 
-0.793292 0.646907 -9.91853 
-8.37301 -0.445768 -0.394303 
-0.445768 -9.54965 0.24698 
-0.394303 0.24698 -9.79549 
-9.38545 -0.117576 -0.477982 
-0.117576 -9.22471 0.413228 
-0.477982 0.413228 -9.108 
-9.68884 0.11584 0.434283 
0.11584 -9.53546 0.512285 
0.434283 0.512285 -9.74865 
-9.64847 -0.0844534 0.437419 
-0.0844534 -9.75493 0.553897 
0.437419 0.553897 -9.56954 
-9.65527 -0.00640911 0.447174 
-0.00640911 -9.70965 0.495311 
0.447174 0.495311 -9.60802 
-9.64118 -0.0281794 0.351959 
-0.0281794 -9.71974 0.441215 
0.351959 0.441215 -9.61202 
-9.71479 0.0208465 0.1041 
0.0208465 -9.78808 -0.050487 
0.1041 -0.050487 -9.55202 
-9.66502 0.0426671 0.126062 
0.0426671 -9.85457 -0.113496 
0.126062 -0.113496 -9.5353 
-9.69958 0.043815 0.146526 
0.043815 -9.70845 -0.123248 
0.146526 -0.123248 -9.64686 
-9.69667 -0.00793489 0.103147 
-0.00793489 -9.70328 -0.123327 
0.103147 -0.123327 -9.65495 
-9.08194 -0.233953 0.0441724 
-0.233953 -8.18911 0.987322 
0.0441724 0.987322 -9.25344 
-9.33037 -0.559269 -0.363784 
-0.559269 -8.52886 1.44368 
-0.363784 1.44368 -8.66525 
-8.59171 -0.28317 0.0405012 
-0.28317 -8.92975 1.49678 
0.0405012 1.49678 -9.00303 
-9.0502 -1.63182 -0.295722 
-1.63182 -9.43256 1.08205 
-0.295722 1.08205 -8.04173 
-9.95318 0.0269666 -0.285711 
0.0269666 -9.91361 0.0791833 
-0.285711 0.0791833 -9.93331 
-9.8532 0.00776818 -0.312644 
0.00776818 -9.91964 0.058611 
-0.312644 0.058611 -10.0273 
-9.92294 0.00871643 -0.300059 
0.00871643 -9.90084 0.0987947 
-0.300059 0.0987947 -9.97632 
-9.96526 0.00326006 -0.291493 
0.00326006 -9.91972 0.0897519 
-0.291493 0.0897519 -9.91511 
-9.65535 0.640316 0.0677508 
0.640316 -8.30181 -0.949049 
0.0677508 -0.949049 -15.8715 
-8.08881 -1.91023 -0.333531 
-1.91023 -8.24863 -0.583356 
-0.333531 -0.583356 -17.4912 
-10.6613 -1.05023 -1.35894 
-1.05023 -13.7535 0.369328 
-1.35894 0.369328 -9.4139 
-10.9364 -2.71341 1.47254 
-2.71341 -8.82238 3.24187 
1.47254 3.24187 -14.0699 
-9.94871 0.0104692 -0.31216 
0.0104692 -9.98548 0.331476 
-0.31216 0.331476 -9.91886 
-9.92323 0.00186927 -0.314688 
0.00186927 -9.99148 0.327908 
-0.314688 0.327908 -9.93833 
-9.88143 0.010121 -0.336706 
0.010121 -9.91717 0.364978 
-0.336706 0.364978 -10.0544 
-9.96713 0.00745958 -0.308287 
0.00745958 -9.99226 0.304563 
-0.308287 0.304563 -9.89366 
-7.54852 -0.229469 0.483522 
-0.229469 -8.72148 0.39623 
0.483522 0.39623 -9.9832 
-8.94872 -0.40601 0.208742 
-0.40601 -8.60179 0.720534 
0.208742 0.720534 -8.70269 
-9.15089 0.32223 0.188015 
0.32223 -8.22027 0.556414 
0.188015 0.556414 -8.88204 
-8.56547 -0.693563 0.0777376 
-0.693563 -8.31948 1.32556 
0.0777376 1.32556 -9.36824 
-9.38802 -0.18116 0.183545 
-0.18116 -9.13022 0.0910906 
0.183545 0.0910906 -10.3131 
-9.28846 -0.31368 0.113723 
-0.31368 -8.9996 0.14045 
0.113723 0.14045 -10.5433 
-9.49022 -0.0854844 0.223743 
-0.0854844 -9.02716 0.144273 
0.223743 0.144273 -10.3139 
-9.13928 -0.00606114 0.449881 
-0.00606114 -9.01739 -0.296171 
0.449881 -0.296171 -10.6746 
-9.93273 -0.0029584 -0.427646 
-0.0029584 -9.91016 -0.0399569 
-0.427646 -0.0399569 -9.99582 
-9.96022 -0.00244662 -0.398697 
-0.00244662 -9.90902 -0.0570157 
-0.398697 -0.0570157 -9.96946 
-9.96021 -0.0127347 -0.412098 
-0.0127347 -9.92701 -0.0509249 
-0.412098 -0.0509249 -9.95149 
-9.96651 -0.000369042 -0.414357 
-0.000369042 -9.94043 -0.0701201 
-0.414357 -0.0701201 -9.93177 
-8.86795 -0.0856417 -0.282259 
-0.0856417 -8.28245 0.965146 
-0.282259 0.965146 -9.18376 
-9.05662 0.0668573 -0.175667 
0.0668573 -8.59753 0.856787 
-0.175667 0.856787 -8.68001 
-8.62655 -0.101475 -0.133879 
-0.101475 -9.43451 1.29343 
-0.133879 1.29343 -8.27309 
-9.02654 -0.207257 -0.0186325 
-0.207257 -9.02569 0.744709 
-0.0186325 0.744709 -8.28193 
-9.80037 -0.00122907 -0.278124 
-0.00122907 -9.75335 0.00147631 
-0.278124 0.00147631 -9.81288 
-9.87168 9.93739e-05 -0.288067 
9.93739e-05 -9.769 0.0551124 
-0.288067 0.0551124 -9.72593 
-9.92533 -0.0188605 -0.270172 
-0.0188605 -9.75751 -0.00147104 
-0.270172 -0.00147104 -9.68376 
-9.83959 0.0202785 -0.366161 
0.0202785 -9.71295 -0.0229819 
-0.366161 -0.0229819 -9.81406 
-8.84051 0.112099 0.244252 
0.112099 -7.69254 -0.840167 
0.244252 -0.840167 -9.15688 
-8.09021 -0.0720388 0.540748 
-0.0720388 -10.1951 -0.58364 
0.540748 -0.58364 -7.40459 
-9.05776 0.51455 -0.0752249 
0.51455 -6.30408 -0.549662 
-0.0752249 -0.549662 -10.3281 
-9.40783 -0.19449 -0.72662 
-0.19449 -7.59537 -2.06648 
-0.72662 -2.06648 -8.68673 
-9.08322 -0.058301 -0.227448 
-0.058301 -9.48361 0.0794592 
-0.227448 0.0794592 -9.66254 
-9.32385 -0.069612 -0.347749 
-0.069612 -9.4328 0.127603 
-0.347749 0.127603 -9.47273 
-9.06577 0.130784 -0.329019 
0.130784 -9.38792 0.0243964 
-0.329019 0.0243964 -9.77567 
-9.12157 -0.0423182 -0.359139 
-0.0423182 -9.33174 0.119565 
-0.359139 0.119565 -9.77606 
-7.94553 0.139172 -1.12955 
0.139172 -7.94293 0.028534 
-1.12955 0.028534 -5.38679 
-8.50471 -0.0607752 -1.34437 
-0.0607752 -8.76186 0.102117 
-1.34437 0.102117 -4.00868 
-8.10178 -0.124727 -0.975495 
-0.124727 -8.38152 0.588819 
-0.975495 0.588819 -4.79195 
-8.3192 -0.133934 -1.47531 
-0.133934 -8.50571 0.31331 
-1.47531 0.31331 -4.45035 
-2.04821 0.187639 0.039347 
0.187639 -3.16266 1.6444 
0.039347 1.6444 -2.90219 
-3.94856 0.094924 0.459715 
0.094924 -4.97079 -0.95997 
0.459715 -0.95997 0.806289 
-3.48883 0.0690899 -0.21685 
0.0690899 -4.26693 0.783493 
-0.21685 0.783493 -0.357302 
-2.07191 0.541597 0.438294 
0.541597 -5.25824 2.0839 
0.438294 2.0839 -0.78291 
-9.31664 0.11129 0.25896 
0.11129 -9.41901 0.74672 
0.25896 0.74672 -9.19216 
-9.31238 -0.0501716 0.380701 
-0.0501716 -9.55488 0.678037 
0.380701 0.678037 -9.06055 
-9.30683 0.0484318 0.196887 
0.0484318 -9.45445 0.700954 
0.196887 0.700954 -9.16653 
-9.38056 -0.00680606 -0.0131964 
-0.00680606 -9.29858 0.652856 
-0.0131964 0.652856 -9.24867 
-9.14521 0.209462 0.54645 
0.209462 -9.58264 -0.32627 
0.54645 -0.32627 -9.06607 
-9.03823 0.0697287 0.487772 
0.0697287 -9.53426 -0.200957 
0.487772 -0.200957 -9.22142 
-8.76945 -0.161655 0.470273 
-0.161655 -9.45958 -0.353966 
0.470273 -0.353966 -9.56488 
-9.04318 0.0869961 0.330538 
0.0869961 -9.56432 -0.116857 
0.330538 -0.116857 -9.18642 
-9.81762 -0.0180292 4.38592e-05 
-0.0180292 -9.76097 -0.114034 
4.38592e-05 -0.114034 -10.1674 
-10.0153 -0.0889239 0.177558 
-0.0889239 -10.2387 0.0564869 
0.177558 0.0564869 -9.49198 
-9.69044 0.00687573 0.0745935 
0.00687573 -9.78745 -0.113547 
0.0745935 -0.113547 -10.2681 
-9.78276 0.0566149 -0.0143553 
0.0566149 -9.82051 0.110461 
-0.0143553 0.110461 -10.1427 
-9.9868 -0.0209006 0.25416 
-0.0209006 -9.89513 -0.282868 
0.25416 -0.282868 -9.98618 
-9.90132 -0.00122567 0.274709 
-0.00122567 -9.90937 -0.254073 
0.274709 -0.254073 -10.0574 
-9.99225 0.00509037 0.297957 
0.00509037 -9.99773 -0.323914 
0.297957 -0.323914 -9.87813 
-9.98294 0.0325639 0.26454 
0.0325639 -10.0099 -0.28923 
0.26454 -0.28923 -9.87532 
-9.23445 -0.0173083 -0.342771 
-0.0173083 -9.4014 0.159493 
-0.342771 0.159493 -9.77828 
-9.13288 0.17046 -0.257163 
0.17046 -9.46719 0.128376 
-0.257163 0.128376 -9.81405 
-9.14194 0.0852416 -0.339652 
0.0852416 -9.47953 0.134068 
-0.339652 0.134068 -9.79265 
-8.98607 -0.0683237 -0.348458 
-0.0683237 -9.53133 0.0855046 
-0.348458 0.0855046 -9.89673 
-9.68571 0.111486 0.131514 
0.111486 -9.37372 -0.193089 
0.131514 -0.193089 -10.1676 
-9.74234 0.152111 0.179099 
0.152111 -9.35594 -0.114365 
0.179099 -0.114365 -10.1287 
-9.62532 0.130774 0.0854102 
0.130774 -9.35044 -0.123505 
0.0854102 -0.123505 -10.2512 
-9.67716 0.00845274 0.161118 
0.00845274 -9.35126 -0.0578315 
0.161118 -0.0578315 -10.1986 
-9.91275 0.581872 -1.40899 
0.581872 -6.29571 -3.56771 
-1.40899 -3.56771 -8.4162 
-10.5933 2.07307 -2.34279 
2.07307 -6.57203 -5.75987 
-2.34279 -5.75987 -7.45935 
-9.86398 2.16059 0.145623 
2.16059 -4.43869 -3.00383 
0.145623 -3.00383 -10.322 
-8.38818 -2.12781 0.515067 
-2.12781 -9.81586 -0.467862 
0.515067 -0.467862 -6.42061 
-9.41381 0.0647766 0.173157 
0.0647766 -9.40764 0.0181895 
0.173157 0.0181895 -10.1256 
-9.54965 0.0724384 0.202477 
0.0724384 -9.44065 -0.0473303 
0.202477 -0.0473303 -9.95672 
-9.60853 0.142166 0.166092 
0.142166 -9.34669 -0.142191 
0.166092 -0.142191 -9.99181 
-9.61412 0.0593341 0.0931879 
0.0593341 -9.34044 -0.048423 
0.0931879 -0.048423 -9.99246 
-9.43465 0.196963 0.377532 
0.196963 -7.42242 -2.28714 
0.377532 -2.28714 -11.0168 
-10.7605 1.43037 0.43569 
1.43037 -7.26237 -1.40568 
0.43569 -1.40568 -9.85102 
-11.0437 0.662752 1.22166 
0.662752 -8.28517 -0.28433 
1.22166 -0.28433 -8.54502 
-9.21623 0.860478 -0.0822008 
0.860478 -7.46449 -1.08346 
-0.0822008 -1.08346 -11.1932 
-7.01164 1.35903 -0.835808 
1.35903 -10.1271 0.398471 
-0.835808 0.398471 -14.7707 
-9.69407 1.14422 -0.677556 
1.14422 -11.212 -0.521296 
-0.677556 -0.521296 -11.0034 
-7.69917 1.95827 -0.476046 
1.95827 -9.70357 -0.392125 
-0.476046 -0.392125 -14.5067 
-8.78674 0.726701 0.410011 
0.726701 -10.2976 -0.240941 
0.410011 -0.240941 -12.8251 
-9.86883 0.0160217 -0.389552 
0.0160217 -9.82445 0.225433 
-0.389552 0.225433 -9.88317 
-9.86351 0.0170667 -0.324285 
0.0170667 -9.86089 0.199074 
-0.324285 0.199074 -9.85205 
-9.84746 0.0722339 -0.304826 
0.0722339 -9.82632 0.197119 
-0.304826 0.197119 -9.90267 
-9.84163 0.0320245 -0.426449 
0.0320245 -9.88549 0.221184 
-0.426449 0.221184 -9.84933 
-8.97311 -0.179431 -0.748005 
-0.179431 -9.34836 0.503559 
-0.748005 0.503559 -8.73438 
-9.01742 -0.263163 -0.578027 
-0.263163 -9.18039 0.485225 
-0.578027 0.485225 -8.85804 
-8.95119 -0.21044 -0.314721 
-0.21044 -8.93473 0.711595 
-0.314721 0.711595 -9.16993 
-8.95241 0.0415974 -0.368623 
0.0415974 -9.07529 0.665079 
-0.368623 0.665079 -9.02815 
-6.20676 -0.150225 -0.256625 
-0.150225 -4.91876 1.91989 
-0.256625 1.91989 -0.197562 
-5.95677 0.533894 0.270799 
0.533894 -4.83276 1.12642 
0.270799 1.12642 -0.533559 
-5.21527 0.508385 -0.464126 
0.508385 -4.45048 1.46083 
-0.464126 1.46083 -1.65733 
-4.53263 0.730442 -0.518751 
0.730442 -4.22165 1.00591 
-0.518751 1.00591 -2.5688 
-9.84826 0.0281548 -0.222632 
0.0281548 -9.76168 0.104515 
-0.222632 0.104515 -9.85394 
-9.87328 0.0307158 -0.231274 
0.0307158 -9.75431 0.105841 
-0.231274 0.105841 -9.83629 
-9.87802 0.0704796 -0.217794 
0.0704796 -9.77672 0.0901147 
-0.217794 0.0901147 -9.80914 
-9.87234 0.0415385 -0.244987 
0.0415385 -9.77137 0.0606037 
-0.244987 0.0606037 -9.82017 
-7.47008 0.567729 -1.11915 
0.567729 -8.83754 -0.403069 
-1.11915 -0.403069 -8.26589 
-8.27494 -1.04982 -1.32735 
-1.04982 -9.16352 -0.768037 
-1.32735 -0.768037 -7.13504 
-7.51531 0.226603 -1.05202 
0.226603 -8.35817 -0.725613 
-1.05202 -0.725613 -8.70003 
-8.31242 0.341534 -0.670202 
0.341534 -8.46535 0.0816154 
-0.670202 0.0816154 -7.79573 
-8.89486 0.524081 0.039531 
0.524081 -9.59572 0.844837 
0.039531 0.844837 -11.1402 
-7.91765 -0.230566 0.831708 
-0.230566 -10.4424 0.0282583 
0.831708 0.0282583 -11.2707 
-9.74196 0.31527 0.895347 
0.31527 -9.52919 0.970652 
0.895347 0.970652 -10.3596 
-8.48488 -0.377831 0.662024 
-0.377831 -10.0174 -0.151582 
0.662024 -0.151582 -11.1284 
-9.68076 -0.0221687 0.0116033 
-0.0221687 -9.77975 -0.236063 
0.0116033 -0.236063 -9.62535 
-9.70267 0.000297894 0.0157151 
0.000297894 -9.82005 -0.201693 
0.0157151 -0.201693 -9.56314 
-9.69603 -0.0174617 -0.00456665 
-0.0174617 -9.79402 -0.2077 
-0.00456665 -0.2077 -9.59582 
-9.67417 -0.000320047 0.00413384 
-0.000320047 -9.75876 -0.141777 
0.00413384 -0.141777 -9.65293 
-9.76993 0.00176994 -0.466724 
0.00176994 -9.75453 0.0957113 
-0.466724 0.0957113 -9.79222 
-9.84661 -4.87497e-05 -0.476851 
-4.87497e-05 -9.74 0.0704486 
-0.476851 0.0704486 -9.73007 
-9.64581 -0.00801403 -0.523971 
-0.00801403 -9.7731 0.116644 
-0.523971 0.116644 -9.89776 
-9.70941 -0.0633939 -0.40141 
-0.0633939 -9.77332 0.140366 
-0.40141 0.140366 -9.83395 
-9.42052 0.1257 0.458253 
0.1257 -9.69491 0.126909 
0.458253 0.126909 -9.28068 
-9.55708 0.0641392 0.383994 
0.0641392 -9.49833 0.0162208 
0.383994 0.0162208 -9.34069 
-9.48985 0.045772 0.439746 
0.045772 -9.64542 0.0711029 
0.439746 0.0711029 -9.26083 
-9.56639 0.00424968 0.620567 
0.00424968 -9.79795 -0.059654 
0.620567 -0.059654 -9.03176 
-9.42491 0.00802981 0.156013 
0.00802981 -9.14591 0.777845 
0.156013 0.777845 -9.51332 
-9.28052 0.0243955 0.118398 
0.0243955 -9.54234 0.770348 
0.118398 0.770348 -9.26129 
-9.32782 0.0460933 0.129758 
0.0460933 -9.43423 0.711384 
0.129758 0.711384 -9.3221 
-9.30579 -0.00155428 0.10794 
-0.00155428 -9.44 0.628917 
0.10794 0.628917 -9.33836 
-9.06752 0.161934 -0.436848 
0.161934 -8.99194 -0.206685 
-0.436848 -0.206685 -9.67462 
-9.73104 -0.0692288 0.161623 
-0.0692288 -9.02846 0.218662 
0.161623 0.218662 -8.97458 
-9.76912 0.130986 -0.0202966 
0.130986 -8.72427 0.0625529 
-0.0202966 0.0625529 -9.24068 
-9.74906 -0.0729959 -0.29 
-0.0729959 -8.71418 0.431179 
-0.29 0.431179 -9.27084 
-8.93672 -0.162758 -0.272394 
-0.162758 -9.58677 0.235868 
-0.272394 0.235868 -9.63447 
-9.13171 0.0141742 -0.296641 
0.0141742 -9.52133 0.223459 
-0.296641 0.223459 -9.50492 
-9.18329 0.129358 -0.253893 
0.129358 -9.57147 0.196848 
-0.253893 0.196848 -9.4032 
-9.22356 0.0103804 -0.352579 
0.0103804 -9.48955 0.231498 
-0.352579 0.231498 -9.44485 
-10.1876 -1.32441 -1.57062 
-1.32441 -7.33206 4.21653 
-1.57062 4.21653 -9.7674 
-9.16439 -1.16904 -1.29258 
-1.16904 -8.08624 3.3201 
-1.29258 3.3201 -10.0364 
-8.85267 0.238135 -1.36238 
0.238135 -9.85279 2.97293 
-1.36238 2.97293 -8.58156 
-10.0285 -2.35304 -0.850335 
-2.35304 -6.4662 1.08611 
-0.850335 1.08611 -10.7923 
-9.61682 -0.00618434 -0.400555 
-0.00618434 -9.63812 0.0190375 
-0.400555 0.0190375 -9.71557 
-9.61513 0.00924073 -0.372333 
0.00924073 -9.65052 0.0746485 
-0.372333 0.0746485 -9.70486 
-9.65071 0.000332711 -0.454882 
0.000332711 -9.59788 0.0543689 
-0.454882 0.0543689 -9.72192 
-9.66846 0.000611828 -0.379869 
0.000611828 -9.53966 0.0939355 
-0.379869 0.0939355 -9.76239 
-10.6056 -0.991821 0.0101582 
-0.991821 -7.49613 -2.07539 
0.0101582 -2.07539 -11.6433 
-9.74472 -0.209058 1.5371 
-0.209058 -8.32508 -0.345436 
1.5371 -0.345436 -11.6753 
-7.47383 -1.45315 1.5776 
-1.45315 -8.97277 1.01723 
1.5776 1.01723 -13.2985 
-9.13977 -0.397185 -1.64032 
-0.397185 -11.0258 -2.96085 
-1.64032 -2.96085 -9.57952 
-9.48643 0.0898805 0.289192 
0.0898805 -9.07239 -0.0675108 
0.289192 -0.0675108 -10.3574 
-9.39518 0.222679 0.272466 
0.222679 -9.21045 0.124938 
0.272466 0.124938 -10.3106 
-9.52277 0.0837736 0.213768 
0.0837736 -9.12716 -0.0687352 
0.213768 -0.0687352 -10.2663 
-9.29176 0.159599 0.215839 
0.159599 -9.23831 -0.0801565 
0.215839 -0.0801565 -10.3861 
-9.22904 0.0207755 0.288368 
0.0207755 -9.23522 0.79098 
0.288368 0.79098 -8.94748 
-9.35069 -0.0268575 0.312944 
-0.0268575 -9.22225 0.816085 
0.312944 0.816085 -8.8388 
-9.06448 -0.137878 0.289614 
-0.137878 -9.27772 0.715125 
0.289614 0.715125 -9.06954 
-8.962 -0.0759866 0.15595 
-0.0759866 -9.13066 0.631512 
0.15595 0.631512 -9.31908 
-9.85858 -0.000418851 -0.356633 
-0.000418851 -9.86569 0.433013 
-0.356633 0.433013 -9.87264 
-9.86609 -0.0261712 -0.329781 
-0.0261712 -9.8708 0.434027 
-0.329781 0.434027 -9.86001 
-9.81844 0.0217279 -0.30269 
0.0217279 -9.83704 0.377204 
-0.30269 0.377204 -9.94142 
-9.85079 0.00373532 -0.391621 
0.00373532 -9.92994 0.445411 
-0.391621 0.445411 -9.81618 
-9.58689 -0.147088 -0.491107 
-0.147088 -9.70016 0.333423 
-0.491107 0.333423 -9.90593 
-9.74631 0.110262 -0.42046 
0.110262 -9.82142 0.292739 
-0.42046 0.292739 -9.62526 
-9.72952 0.0524081 -0.402701 
0.0524081 -9.74037 0.278632 
-0.402701 0.278632 -9.72309 
-9.56003 -0.0143505 -0.345577 
-0.0143505 -9.78655 0.106889 
-0.345577 0.106889 -9.8464 
-8.89904 1.01235 2.06249 
1.01235 -8.92062 1.65363 
2.06249 1.65363 -10.5547 
-10.425 1.16453 1.40953 
1.16453 -8.02161 1.2244 
1.40953 1.2244 -9.92778 
-8.98694 0.714206 0.890317 
0.714206 -8.18937 1.36315 
0.890317 1.36315 -11.1981 
-10.5727 1.08193 1.38837 
1.08193 -9.1656 -0.150114 
1.38837 -0.150114 -8.63609 
-9.82696 0.0245169 -0.382336 
0.0245169 -9.8338 0.189787 
-0.382336 0.189787 -9.89377 
-9.82915 0.0131679 -0.381288 
0.0131679 -9.84195 0.156892 
-0.381288 0.156892 -9.88343 
-9.83645 -0.003192 -0.394944 
-0.003192 -9.84148 0.160452 
-0.394944 0.160452 -9.8766 
-9.85359 0.0396823 -0.418364 
0.0396823 -9.849 0.21764 
-0.418364 0.21764 -9.85194 
-9.62798 -2.16821 -2.07729 
-2.16821 -4.8666 5.70395 
-2.07729 5.70395 -7.97848 
-7.65518 -3.12516 -0.429517 
-3.12516 -5.81527 1.40645 
-0.429517 1.40645 -9.00261 
-6.0083 -0.0245592 -2.63816 
-0.0245592 -6.15771 5.93265 
-2.63816 5.93265 -10.3071 
-8.60471 1.67641 -1.2477 
1.67641 -7.97528 2.01828 
-1.2477 2.01828 -5.89308 
-9.32929 0.618327 0.772116 
0.618327 -6.69459 3.0045 
0.772116 3.0045 -9.60497 
-8.32609 -0.823819 -0.603089 
-0.823819 -7.01965 0.438281 
-0.603089 0.438281 -10.2831 
-10.7639 -0.00538489 0.812417 
-0.00538489 -7.93829 1.2028 
0.812417 1.2028 -6.92669 
-9.94779 -0.749898 0.556649 
-0.749898 -6.77173 1.30234 
0.556649 1.30234 -8.90933 
-9.69392 -0.0376513 0.30202 
-0.0376513 -9.05041 -0.486117 
0.30202 -0.486117 -9.41298 
-9.52395 -0.319655 0.551853 
-0.319655 -9.01129 -0.46325 
0.551853 -0.46325 -9.62207 
-9.71038 -0.0720626 0.242686 
-0.0720626 -8.90242 -0.50051 
0.242686 -0.50051 -9.54451 
-9.41609 -0.220017 0.481071 
-0.220017 -9.0764 -0.271472 
0.481071 -0.271472 -9.66482 
-10.0307 -0.995147 -0.48199 
-0.995147 -9.96401 0.848523 
-0.48199 0.848523 -11.9937 
-5.73663 -1.32583 -1.02063 
-1.32583 -12.0269 2.45243 
-1.02063 2.45243 -14.2249 
-9.18643 -0.951274 -1.45521 
-0.951274 -11.4141 0.344367 
-1.45521 0.344367 -11.3879 
-9.26284 -1.09188 -1.07847 
-1.09188 -10.3012 0.858668 
-1.07847 0.858668 -12.4244 
-9.49336 -0.0255877 -1.12832 
-0.0255877 -9.33181 -0.126797 
-1.12832 -0.126797 -8.23974 
-9.3736 0.206375 -1.42425 
0.206375 -9.14987 0.0824409 
-1.42425 0.0824409 -8.54144 
-8.9522 -0.0445789 -1.03495 
-0.0445789 -9.55022 0.0655937 
-1.03495 0.0655937 -8.56249 
-9.09748 -0.0985391 -1.21222 
-0.0985391 -9.72389 0.0341621 
-1.21222 0.0341621 -8.24354 
-9.78007 0.0657479 -0.310772 
0.0657479 -9.90413 -0.0148774 
-0.310772 -0.0148774 -9.98888 
-9.9271 -0.022682 -0.34805 
-0.022682 -9.84005 0.0367741 
-0.34805 0.0367741 -9.90593 
-9.91337 -0.0095052 -0.356227 
-0.0095052 -9.85288 0.0352102 
-0.356227 0.0352102 -9.90684 
-9.9028 0.00744695 -0.413597 
0.00744695 -9.92401 0.075358 
-0.413597 0.075358 -9.84627 
-8.88818 2.38116 0.0652583 
2.38116 -10.499 0.578756 
0.0652583 0.578756 -13.1712 
-12.0851 5.28923 -1.51545 
5.28923 -0.455072 -1.57647 
-1.51545 -1.57647 -20.0181 
-6.40378 1.61408 -0.111476 
1.61408 -4.51022 -1.70391 
-0.111476 -1.70391 -21.6443 
-10.8163 -0.0813534 -2.55746 
-0.0813534 -9.78615 -0.863968 
-2.55746 -0.863968 -11.9559 
-9.92123 -0.0142064 -0.315688 
-0.0142064 -9.90299 -0.542805 
-0.315688 -0.542805 -10.0325 
-9.96402 -0.0137872 -0.361323 
-0.0137872 -9.97577 -0.493838 
-0.361323 -0.493838 -9.91697 
-9.95753 -0.00110603 -0.383799 
-0.00110603 -10.006 -0.513386 
-0.383799 -0.513386 -9.89324 
-9.94939 -0.0347723 -0.357979 
-0.0347723 -9.93974 -0.535612 
-0.357979 -0.535612 -9.96763 
-9.57802 -0.182137 -1.46057 
-0.182137 -10.241 0.455532 
-1.46057 0.455532 -8.18329 
-10.5324 -0.0427828 -1.4254 
-0.0427828 -10.3852 -0.374325 
-1.4254 -0.374325 -7.08469 
-9.25305 -0.0216157 -1.71571 
-0.0216157 -10.1906 0.43879 
-1.71571 0.43879 -8.55867 
-8.94442 -0.0954177 -0.53949 
-0.0954177 -9.85361 -0.123414 
-0.53949 -0.123414 -9.20424 
-7.44806 1.60713 4.18271 
1.60713 -9.532 1.50079 
4.18271 1.50079 -9.14935 
-7.38803 0.61954 4.51817 
0.61954 -8.96048 1.47853 
4.51817 1.47853 -9.7809 
-4.45143 0.867461 1.47192 
0.867461 -11.4666 0.520185 
1.47192 0.520185 -10.2114 
-10.5861 0.717004 1.70239 
0.717004 -7.96407 0.698376 
1.70239 0.698376 -7.57928 
-9.86908 -0.0149308 0.466542 
-0.0149308 -9.81516 -0.0824016 
0.466542 -0.0824016 -9.88855 
-9.84789 0.0154622 0.481292 
0.0154622 -9.83776 -0.0707068 
0.481292 -0.0707068 -9.88714 
-9.84138 -0.00687323 0.444286 
-0.00687323 -9.86803 -0.0363705 
0.444286 -0.0363705 -9.86338 
-9.86659 0.00787547 0.476743 
0.00787547 -9.84638 -0.045377 
0.476743 -0.045377 -9.85981 
-8.41996 -1.00481 -0.268993 
-1.00481 -9.04942 0.487016 
-0.268993 0.487016 -14.2121 
-8.86754 0.19517 0.264577 
0.19517 -9.72371 0.00705118 
0.264577 0.00705118 -13.0902 
-11.6265 -0.959216 -0.0746245 
-0.959216 -9.58742 0.583383 
-0.0746245 0.583383 -10.4676 
-9.63413 -1.33928 -1.2572 
-1.33928 -10.8613 -0.366837 
-1.2572 -0.366837 -11.186 
-9.91293 -0.00261489 0.151963 
-0.00261489 -9.87812 -0.00240991 
0.151963 -0.00240991 -9.97546 
-9.89358 0.0170024 0.118669 
0.0170024 -9.85712 -0.0209179 
0.118669 -0.0209179 -10.0158 
-9.88751 0.00616693 0.149176 
0.00616693 -9.90065 -0.00545254 
0.149176 -0.00545254 -9.97835 
-9.89864 0.0110325 0.159982 
0.0110325 -9.88972 -0.00779742 
0.159982 -0.00779742 -9.97816 
-9.69849 -0.72838 0.105862 
-0.72838 -10.3288 -0.142259 
0.105862 -0.142259 -12.2508 
-10.6487 -0.0770909 0.47639 
-0.0770909 -10.1816 -0.251806 
0.47639 -0.251806 -11.4478 
-9.72062 -0.941639 0.163103 
-0.941639 -10.4665 -0.164092 
0.163103 -0.164092 -12.0909 
-9.85571 -0.776395 0.268182 
-0.776395 -10.3459 -0.130345 
0.268182 -0.130345 -12.0764 
-9.83155 0.0188627 0.194383 
0.0188627 -9.90454 0.358848 
0.194383 0.358848 -9.81418 
-9.84867 -0.0597303 0.164986 
-0.0597303 -9.83897 0.369144 
0.164986 0.369144 -9.86264 
-9.93062 -0.0832072 0.146889 
-0.0832072 -9.88256 0.348603 
0.146889 0.348603 -9.73708 
-9.79042 0.00959069 0.152361 
0.00959069 -9.94505 0.311005 
0.152361 0.311005 -9.8148 
-9.91777 0.00721944 0.408542 
0.00721944 -9.8629 -0.150303 
0.408542 -0.150303 -10.0363 
-9.92277 0.0176332 0.440067 
0.0176332 -9.91958 -0.129767 
0.440067 -0.129767 -9.97461 
-9.93545 -0.00182914 0.443024 
-0.00182914 -9.96039 -0.131238 
0.443024 -0.131238 -9.92112 
-9.9306 0.040957 0.44659 
0.040957 -9.93061 -0.0886544 
0.44659 -0.0886544 -9.95575 
-9.84627 -0.0663911 0.520992 
-0.0663911 -9.7221 0.0348422 
0.520992 0.0348422 -9.68318 
-9.52918 -0.0710002 0.550812 
-0.0710002 -9.85218 0.0367593 
0.550812 0.0367593 -9.8702 
-9.78677 -0.0408801 0.488451 
-0.0408801 -9.73359 0.0297744 
0.488451 0.0297744 -9.73119 
-9.75461 -0.122569 0.359869 
-0.122569 -9.71201 0.0112533 
0.359869 0.0112533 -9.78493 
-9.98912 -0.0905101 0.104279 
-0.0905101 -10.0552 0.102648 
0.104279 0.102648 -10.3195 
-9.96186 -0.0332213 0.0748627 
-0.0332213 -9.97846 0.0103895 
0.0748627 0.0103895 -10.4236 
-10.1448 -0.0521846 0.0756258 
-0.0521846 -10.2739 0.0749964 
0.0756258 0.0749964 -9.94516 
-10.0946 -0.0528994 0.00427158 
-0.0528994 -10.0205 0.204494 
0.00427158 0.204494 -10.2489 
-9.91814 -0.0140865 -0.388425 
-0.0140865 -9.94285 0.0445391 
-0.388425 0.0445391 -9.96699 
-9.93175 0.00312493 -0.398069 
0.00312493 -9.93857 0.0511849 
-0.398069 0.0511849 -9.95766 
-9.90718 0.0130127 -0.371377 
0.0130127 -9.89971 0.0515938 
-0.371377 0.0515938 -10.0211 
-9.93976 0.0106136 -0.411514 
0.0106136 -9.94134 0.0584803 
-0.411514 0.0584803 -9.94689 
-9.74597 -0.0231265 0.500881 
-0.0231265 -9.56585 -0.120996 
0.500881 -0.120996 -9.87505 
-9.69684 -0.102307 0.377552 
-0.102307 -9.60798 -0.173346 
0.377552 -0.173346 -9.88206 
-9.68872 -0.0820145 0.374703 
-0.0820145 -9.58484 -0.187513 
0.374703 -0.187513 -9.91331 
-9.65427 -0.053886 0.351915 
-0.053886 -9.6173 -0.211724 
0.351915 -0.211724 -9.91532 
-8.84021 0.281337 0.463655 
0.281337 -9.36035 -0.349925 
0.463655 -0.349925 -9.46164 
-8.7934 -0.0209133 0.753179 
-0.0209133 -9.62098 -0.326537 
0.753179 -0.326537 -9.24783 
-9.00993 -0.255645 0.832985 
-0.255645 -9.50101 -0.218865 
0.832985 -0.218865 -9.15126 
-8.51801 -0.0582443 0.828931 
-0.0582443 -9.72675 -0.318674 
0.828931 -0.318674 -9.41744 
-6.9603 -0.502061 -2.53974 
-0.502061 -6.0553 1.19681 
-2.53974 1.19681 0.198483 
-12.141 -1.87169 -1.1541 
-1.87169 -7.34867 0.478646 
-1.1541 0.478646 6.67251 
-2.44077 -0.221179 -0.0738776 
-0.221179 -1.35314 0.554554 
-0.0738776 0.554554 -9.0232 
-4.68793 0.482432 -8.21306 
0.482432 -4.84037 -0.529631 
-8.21306 -0.529631 -3.28882 
-9.1267 0.191936 -0.571291 
0.191936 -8.89328 0.011855 
-0.571291 0.011855 -9.49829 
-9.15501 0.323192 -0.517419 
0.323192 -9.02898 0.105212 
-0.517419 0.105212 -9.33428 
-9.26082 0.255751 -0.501061 
0.255751 -8.79596 0.258384 
-0.501061 0.258384 -9.46149 
-9.36012 0.241278 -0.482406 
0.241278 -9.06193 0.0950604 
-0.482406 0.0950604 -9.09622 
-9.27708 -0.431715 0.537492 
-0.431715 -9.32682 -0.551502 
0.537492 -0.551502 -9.33106 
-9.54343 -0.145687 1.58714 
-0.145687 -8.74048 -0.761478 
1.58714 -0.761478 -9.65105 
-9.19552 -0.707401 0.675426 
-0.707401 -9.0081 -0.568104 
0.675426 -0.568104 -9.73134 
-9.01137 -0.369649 0.7539 
-0.369649 -8.73509 -0.441172 
0.7539 -0.441172 -10.1885 
-9.91718 -0.180315 -0.0891003 
-0.180315 -10.291 -0.228863 
-0.0891003 -0.228863 -12.1333 
-8.58535 -6.42159 -0.818479 
-6.42159 -7.47407 1.0318 
-0.818479 1.0318 -16.2821 
-9.59792 -0.482152 -1.37828 
-0.482152 -10.6592 0.922442 
-1.37828 0.922442 -12.0843 
-10.633 -0.245562 -1.40061 
-0.245562 -9.72126 1.19426 
-1.40061 1.19426 -11.9872 
-8.51811 0.257346 -0.553346 
0.257346 -9.90836 0.352362 
-0.553346 0.352362 -10.3358 
-9.57982 0.776955 1.47544 
0.776955 -9.32373 -0.892714 
1.47544 -0.892714 -9.85875 
-8.35211 -0.30757 0.0396829 
-0.30757 -10.2154 0.0791683 
0.0396829 0.0791683 -10.1948 
-8.21627 -0.395331 0.248678 
-0.395331 -9.91791 0.288425 
0.248678 0.288425 -10.6281 
-9.12079 0.0609941 0.359836 
0.0609941 -9.3189 -0.717393 
0.359836 -0.717393 -9.14097 
-9.2068 -0.218775 0.298003 
-0.218775 -9.11525 -0.936916 
0.298003 -0.936916 -9.25862 
-9.23792 0.160159 0.351685 
0.160159 -9.4589 -0.708703 
0.351685 -0.708703 -8.88384 
-9.08616 -0.0717775 0.357209 
-0.0717775 -9.41734 -0.742395 
0.357209 -0.742395 -9.07717 
-9.91101 0.00118302 0.233455 
0.00118302 -9.90075 -0.0728839 
0.233455 -0.0728839 -9.95764 
-9.9027 0.00624482 0.21349 
0.00624482 -9.89406 -0.0625004 
0.21349 -0.0625004 -9.97264 
-9.88268 0.0189178 0.221769 
0.0189178 -9.88125 -0.0960612 
0.221769 -0.0960612 -10.0055 
-9.93502 0.00573405 0.221906 
0.00573405 -9.91211 -0.0692701 
0.221906 -0.0692701 -9.92228 
-9.13114 -0.0849082 -0.444837 
-0.0849082 -9.47367 0.576745 
-0.444837 0.576745 -8.97516 
-9.2456 -0.249917 -0.236638 
-0.249917 -9.34501 0.522284 
-0.236638 0.522284 -8.98936 
-9.19394 -0.0966049 -0.28115 
-0.0966049 -9.31894 0.438299 
-0.28115 0.438299 -9.0671 
-9.183 -0.0607329 -0.549973 
-0.0607329 -9.40014 0.5605 
-0.549973 0.5605 -8.99684 
-6.60634 3.48883 -7.63073 
3.48883 -11.7534 -3.69212 
-7.63073 -3.69212 -8.54871 
-7.74988 -0.85843 -6.52991 
-0.85843 -7.56717 -3.35055 
-6.52991 -3.35055 -11.5914 
-8.90302 -2.46896 -1.38031 
-2.46896 -10.8605 -0.146722 
-1.38031 -0.146722 -7.14489 
-7.82785 3.57837 -1.37397 
3.57837 -8.66154 -0.00320467 
-1.37397 -0.00320467 -10.4191 
-9.55887 0.070621 -0.0441845 
0.070621 -9.69824 -0.0223281 
-0.0441845 -0.0223281 -9.83022 
-9.49438 -0.00884146 -0.00926427 
-0.00884146 -9.75801 0.0830027 
-0.00926427 0.0830027 -9.83494 
-9.58787 0.0679737 -0.0738944 
0.0679737 -9.76641 -0.0097542 
-0.0738944 -0.0097542 -9.73305 
-9.58647 0.0532543 -0.00882603 
0.0532543 -9.71466 -0.0105032 
-0.00882603 -0.0105032 -9.7862 
-6.02428 0.260497 -0.746098 
0.260497 -6.73166 -1.35572 
-0.746098 -1.35572 -1.14616 
-5.62514 0.162445 0.0189577 
0.162445 -6.90855 -0.676639 
0.0189577 -0.676639 -1.36843 
-5.33652 0.807473 -0.273666 
0.807473 -6.96706 -1.19064 
-0.273666 -1.19064 -1.59853 
-6.29769 -0.31547 0.332533 
-0.31547 -5.73398 -1.32747 
0.332533 -1.32747 -1.87045 
-9.54068 -0.161467 -0.382337 
-0.161467 -9.52339 -0.056479 
-0.382337 -0.056479 -9.44607 
-9.20403 0.0650663 -0.568611 
0.0650663 -9.56582 -0.135999 
-0.568611 -0.135999 -9.74028 
-9.56162 -0.116512 -0.37438 
-0.116512 -9.45543 -0.118993 
-0.37438 -0.118993 -9.49309 
-9.32256 -0.0219822 -0.291343 
-0.0219822 -9.38611 -0.0319803 
-0.291343 -0.0319803 -9.80146 
-9.60063 0.0079352 -0.423481 
0.0079352 -9.66934 0.273269 
-0.423481 0.273269 -9.72322 
-9.63865 0.0964088 -0.416691 
0.0964088 -9.68896 0.287834 
-0.416691 0.287834 -9.66558 
-9.52731 -0.0788008 -0.404452 
-0.0788008 -9.71602 0.22731 
-0.404452 0.22731 -9.74986 
-9.6504 -0.00831847 -0.473281 
-0.00831847 -9.59148 0.280295 
-0.473281 0.280295 -9.75131 
-9.57916 0.00941096 -0.398114 
0.00941096 -9.5957 0.498727 
-0.398114 0.498727 -9.82801 
-9.58464 -0.0304479 -0.327473 
-0.0304479 -9.76283 0.433205 
-0.327473 0.433205 -9.65539 
-9.71718 -0.025451 -0.311615 
-0.025451 -9.86058 0.518547 
-0.311615 0.518547 -9.42511 
-9.64338 -0.0773205 -0.328847 
-0.0773205 -9.74662 0.372937 
-0.328847 0.372937 -9.61286 
-9.97126 -0.0369549 0.512566 
-0.0369549 -10.0112 0.302333 
0.512566 0.302333 -9.95262 
-9.99482 -0.0310858 0.518181 
-0.0310858 -9.96375 0.25845 
0.518181 0.25845 -9.9765 
-9.93 -0.0151971 0.526788 
-0.0151971 -9.93862 0.227826 
0.526788 0.227826 -10.0664 
-10.0006 -0.0207161 0.476244 
-0.0207161 -10.0255 0.267273 
0.476244 0.267273 -9.90891 
-9.95368 -0.000807364 -0.0236835 
-0.000807364 -9.93379 0.0280024 
-0.0236835 0.0280024 -9.96702 
-9.91418 -0.0348275 -0.0351008 
-0.0348275 -9.9186 -0.00600125 
-0.0351008 -0.00600125 -10.0217 
-9.98804 -0.00707535 -0.0331672 
-0.00707535 -9.91648 0.0139086 
-0.0331672 0.0139086 -9.94996 
-9.97239 0.00288374 -0.0214965 
0.00288374 -9.94682 0.0278471 
-0.0214965 0.0278471 -9.93527 
-9.7084 0.398727 -0.0476022 
0.398727 -9.49611 -0.173849 
-0.0476022 -0.173849 -10.4446 
-9.58994 0.499449 -0.0167621 
0.499449 -9.49938 -0.0743266 
-0.0167621 -0.0743266 -10.5597 
-9.80051 0.373094 -0.0379557 
0.373094 -9.50684 0.017979 
-0.0379557 0.017979 -10.3417 
-9.72319 0.226268 0.325176 
0.226268 -9.92279 0.404917 
0.325176 0.404917 -10.0031 
-11.4758 -1.38663 1.18623 
-1.38663 -6.40255 3.60812 
1.18623 3.60812 -3.0687 
-5.11976 2.55617 1.06134 
2.55617 -8.89091 1.74361 
1.06134 1.74361 -6.93642 
-8.52045 0.524278 4.18089 
0.524278 -5.6139 2.7446 
4.18089 2.7446 -6.81274 
-7.82924 0.710937 2.45186 
0.710937 -8.26049 2.28054 
2.45186 2.28054 -4.85736 
-9.46054 -0.0529604 -0.499804 
-0.0529604 -9.49685 0.144648 
-0.499804 0.144648 -9.8403 
-9.44067 -0.0153957 -0.460438 
-0.0153957 -9.53424 0.182412 
-0.460438 0.182412 -9.82279 
-9.41803 -0.0180596 -0.465237 
-0.0180596 -9.50403 0.163362 
-0.465237 0.163362 -9.87562 
-9.49154 -0.00887124 -0.463265 
-0.00887124 -9.49027 0.113678 
-0.463265 0.113678 -9.81588 
-9.9184 -0.0032365 0.114181 
-0.0032365 -9.91217 -0.00746911 
0.114181 -0.00746911 -9.96809 
-9.92273 0.00379562 0.0951897 
0.00379562 -9.90676 -0.0273147 
0.0951897 -0.0273147 -9.96918 
-9.90549 -0.00396191 0.127515 
-0.00396191 -9.89798 -0.0394631 
0.127515 -0.0394631 -9.9952 
-9.94152 -0.00761697 0.103976 
-0.00761697 -9.93515 -0.0159497 
0.103976 -0.0159497 -9.922 
-8.85724 0.0345046 -1.48677 
0.0345046 -10.0994 -0.130352 
-1.48677 -0.130352 -8.43868 
-9.81103 0.528897 -1.14929 
0.528897 -10.1099 0.0247224 
-1.14929 0.0247224 -7.47436 
-9.00134 0.0622429 -1.32222 
0.0622429 -10.0902 -0.236889 
-1.32222 -0.236889 -8.30382 
-8.45643 -0.283802 -0.541221 
-0.283802 -9.98432 -0.341732 
-0.541221 -0.341732 -8.95459 
-9.55338 0.033417 -0.0264375 
0.033417 -9.69918 -0.0586717 
-0.0264375 -0.0586717 -9.49272 
-9.5491 0.0426177 0.105367 
0.0426177 -9.65029 0.0220835 
0.105367 0.0220835 -9.54589 
-9.54624 -0.0312978 -0.00312127 
-0.0312978 -9.63065 -0.0660613 
-0.00312127 -0.0660613 -9.56838 
-9.60055 0.0370241 0.147283 
0.0370241 -9.59559 -0.0633843 
0.147283 -0.0633843 -9.54913 
-8.94044 -0.55048 0.415389 
-0.55048 -8.71045 0.919517 
0.415389 0.919517 -8.6937 
-9.37984 0.00209017 -0.26821 
0.00209017 -8.39367 1.30146 
-0.26821 1.30146 -8.57109 
-8.88417 -0.0592572 0.336115 
-0.0592572 -8.62471 1.1496 
0.336115 1.1496 -8.83571 
-9.0468 -0.192033 0.0450399 
-0.192033 -8.78722 1.27453 
0.0450399 1.27453 -8.51057 
-9.50605 -0.0250037 0.249151 
-0.0250037 -9.55295 0.6565 
0.249151 0.6565 -9.51496 
-9.51598 -0.00159656 0.262108 
-0.00159656 -9.54717 0.658149 
0.262108 0.658149 -9.51081 
-9.47879 -0.0416848 0.251487 
-0.0416848 -9.58177 0.622325 
0.251487 0.622325 -9.51339 
-9.51507 0.000183967 0.273143 
0.000183967 -9.53761 0.659813 
0.273143 0.659813 -9.52127 
-9.66293 0.00330902 0.0133737 
0.00330902 -9.64136 0.115509 
0.0133737 0.115509 -9.37267 
-9.65515 0.0149035 0.0973771 
0.0149035 -9.67801 0.213458 
0.0973771 0.213458 -9.3438 
-9.52374 -0.0436787 -0.12077 
-0.0436787 -9.52754 0.155711 
-0.12077 0.155711 -9.62569 
-9.73818 -0.0815242 -0.144961 
-0.0815242 -9.73705 0.0620424 
-0.144961 0.0620424 -9.20174 
-6.34129 0.0192365 -0.412431 
0.0192365 -7.09339 0.783061 
-0.412431 0.783061 -10.1445 
-8.11288 -0.0315591 -0.499542 
-0.0315591 -6.32552 3.61636 
-0.499542 3.61636 -9.14074 
-8.71998 -1.0539 -0.117765 
-1.0539 -6.55328 1.86943 
-0.117765 1.86943 -8.30588 
-9.25699 -0.295476 -0.131445 
-0.295476 -7.09368 1.97146 
-0.131445 1.97146 -7.22848 
-8.32124 -2.11036 -1.51272 
-2.11036 -3.95706 0.0657753 
-1.51272 0.0657753 2.22891 
-0.666108 0.179129 2.77544 
0.179129 -4.31795 -1.86494 
2.77544 -1.86494 -5.06534 
-6.89271 0.668489 -1.41461 
0.668489 -7.40543 0.377693 
-1.41461 0.377693 4.24875 
-7.00819 1.87965 2.57303 
1.87965 -4.4298 2.56799 
2.57303 2.56799 1.38859 
-9.95394 0.000563746 0.427187 
0.000563746 -9.92801 -0.0725015 
0.427187 -0.0725015 -9.97883 
-9.96264 0.00979207 0.435173 
0.00979207 -9.9111 -0.0597096 
0.435173 -0.0597096 -9.98703 
-9.94817 0.0076305 0.422456 
0.0076305 -9.94567 -0.0526574 
0.422456 -0.0526574 -9.96694 
-9.95971 0.00154611 0.41005 
0.00154611 -9.94399 -0.0516597 
0.41005 -0.0516597 -9.95707 
-9.66087 0.0194915 0.09794 
0.0194915 -9.88507 0.521455 
0.09794 0.521455 -9.86392 
-9.88488 -0.0595439 -0.0675875 
-0.0595439 -9.78766 0.701769 
-0.0675875 0.701769 -9.73731 
-9.77809 -0.0119797 -0.0256719 
-0.0119797 -9.85533 0.658383 
-0.0256719 0.658383 -9.77644 
-9.87814 -0.0960773 -0.0766955 
-0.0960773 -10.0068 0.666489 
-0.0766955 0.666489 -9.52487 
-9.9471 -0.506426 -0.0784493 
-0.506426 -7.67099 -0.52031 
-0.0784493 -0.52031 -9.01352 
-8.26952 -0.156703 0.67375 
-0.156703 -9.591 -0.739424 
0.67375 -0.739424 -8.77108 
-8.55777 -0.561707 0.0517881 
-0.561707 -8.73361 -0.655784 
0.0517881 -0.655784 -9.34023 
-8.53201 -1.03468 0.101221 
-1.03468 -8.70246 -1.02509 
0.101221 -1.02509 -9.39713 
-9.37483 -0.0680219 -0.221551 
-0.0680219 -9.57209 0.151293 
-0.221551 0.151293 -9.62038 
-9.3221 0.00902231 -0.435091 
0.00902231 -9.44106 0.0390565 
-0.435091 0.0390565 -9.80414 
-9.37506 0.0119791 -0.367661 
0.0119791 -9.46304 0.109591 
-0.367661 0.109591 -9.7292 
-9.40101 -0.0011792 -0.54663 
-0.0011792 -9.51511 0.347263 
-0.54663 0.347263 -9.65118 
-13.4417 -0.410638 -0.0630044 
-0.410638 -12.8511 0.0504625 
-0.0630044 0.0504625 -9.95569 
-10.6891 -0.761717 0.600046 
-0.761717 -10.884 -1.52485 
0.600046 -1.52485 -14.6754 
-11.1456 -0.410298 -0.136492 
-0.410298 -10.8955 -0.824187 
-0.136492 -0.824187 -14.2073 
-11.8464 -0.543265 1.41893 
-0.543265 -10.3551 0.660663 
1.41893 0.660663 -14.0469 
-9.89233 -0.0265251 -0.0946341 
-0.0265251 -9.80847 -0.339628 
-0.0946341 -0.339628 -9.81826 
-9.90495 -0.064184 -0.0613124 
-0.064184 -9.87999 -0.366854 
-0.0613124 -0.366854 -9.73413 
-9.87838 0.0209869 -0.21529 
0.0209869 -9.81809 -0.324404 
-0.21529 -0.324404 -9.82259 
-9.84865 0.00514415 -0.196568 
0.00514415 -9.91143 -0.304188 
-0.196568 -0.304188 -9.75898 
-5.63078 0.406479 0.391166 
0.406479 -2.27381 1.30224 
0.391166 1.30224 0.758759 
-4.44981 -0.977114 1.53911 
-0.977114 -3.57628 1.35705 
1.53911 1.35705 0.880251 
-2.24116 1.29794 -1.05482 
1.29794 -2.27641 0.734321 
-1.05482 0.734321 -2.62826 
-4.87182 -0.130672 -0.674868 
-0.130672 -1.60681 -0.122362 
-0.674868 -0.122362 -0.667209 
-9.42516 -0.0288377 -0.962864 
-0.0288377 -9.6498 0.194181 
-0.962864 0.194181 -10.2445 
-9.20581 -0.192562 -0.567212 
-0.192562 -9.71506 0.193269 
-0.567212 0.193269 -10.3986 
-9.39734 -0.588868 -0.307437 
-0.588868 -9.70299 -0.339104 
-0.307437 -0.339104 -10.2192 
-8.82079 -0.249183 -0.602086 
-0.249183 -9.86569 0.75182 
-0.602086 0.75182 -10.633 
-10.1357 -0.119408 0.118839 
-0.119408 -10.2297 -0.112098 
0.118839 -0.112098 -9.75538 
-10.0628 -0.202917 0.0645322 
-0.202917 -9.98671 -0.169175 
0.0645322 -0.169175 -10.0713 
-9.84671 -0.0241876 -0.0285417 
-0.0241876 -9.94106 -0.304661 
-0.0285417 -0.304661 -10.3331 
-10.0392 -0.0192036 0.0195379 
-0.0192036 -9.79557 -0.103239 
0.0195379 -0.103239 -10.286 
-9.74594 0.0403502 0.409171 
0.0403502 -9.60144 -0.0348993 
0.409171 -0.0348993 -9.89512 
-9.73785 0.0317292 0.38105 
0.0317292 -9.61505 -0.0851796 
0.38105 -0.0851796 -9.8896 
-9.73104 0.0214662 0.356948 
0.0214662 -9.59853 -0.0661634 
0.356948 -0.0661634 -9.91293 
-9.71928 0.00373896 0.374785 
0.00373896 -9.6415 -0.115231 
0.374785 -0.115231 -9.88172 
-9.07665 -0.128235 -0.0483092 
-0.128235 -9.48901 -0.736127 
-0.0483092 -0.736127 -9.1676 
-9.34984 -0.0278457 -0.212617 
-0.0278457 -9.19234 -0.864778 
-0.212617 -0.864778 -9.19108 
-9.35821 -0.0319742 -0.141644 
-0.0319742 -9.18177 -0.871274 
-0.141644 -0.871274 -9.19329 
-9.36836 -0.0922887 -0.100959 
-0.0922887 -9.28901 -0.909583 
-0.100959 -0.909583 -9.0759 
-9.68415 0.0254376 -0.421867 
0.0254376 -9.74342 0.364924 
-0.421867 0.364924 -9.86396 
-9.6971 -0.0256975 -0.402381 
-0.0256975 -9.80898 0.383749 
-0.402381 0.383749 -9.78545 
-9.74252 0.00722209 -0.432918 
0.00722209 -9.83141 0.34137 
-0.432918 0.34137 -9.71761 
-9.69938 -0.00501509 -0.397265 
-0.00501509 -9.81396 0.368338 
-0.397265 0.368338 -9.77819 
-9.73664 0.062156 0.0580638 
0.062156 -9.88732 -0.360406 
0.0580638 -0.360406 -9.85016 
-9.85534 -0.0141018 0.0697782 
-0.0141018 -9.83964 -0.386262 
0.0697782 -0.386262 -9.77914 
-9.80524 0.0373737 0.0443501 
0.0373737 -9.92716 -0.330499 
0.0443501 -0.330499 -9.74171 
-9.83374 -0.0371372 0.077585 
-0.0371372 -9.85867 -0.33917 
0.077585 -0.33917 -9.7817 
-9.88203 0.0171631 -0.42932 
0.0171631 -9.89792 0.206492 
-0.42932 0.206492 -9.98957 
-9.88422 -0.00225107 -0.405681 
-0.00225107 -9.91302 0.189209 
-0.405681 0.189209 -9.97228 
-9.92285 -0.00928983 -0.408951 
-0.00928983 -9.87673 0.219109 
-0.408951 0.219109 -9.96994 
-9.91286 0.00567227 -0.399012 
0.00567227 -9.93208 0.200187 
-0.399012 0.200187 -9.92458 
-9.29886 -0.190319 -0.251742 
-0.190319 -9.59714 0.146571 
-0.251742 0.146571 -9.77504 
-9.76476 0.144932 -0.302293 
0.144932 -9.43423 0.085636 
-0.302293 0.085636 -9.47205 
-9.44029 -0.024599 -0.342682 
-0.024599 -9.54809 0.130969 
-0.342682 0.130969 -9.68265 
-9.38548 0.071475 -0.458504 
0.071475 -9.57094 0.222403 
-0.458504 0.222403 -9.71461 
-8.57126 -0.25059 -0.29862 
-0.25059 -9.16101 0.536484 
-0.29862 0.536484 -9.49753 
-8.81916 -0.000720435 -0.367666 
-0.000720435 -9.32824 0.286605 
-0.367666 0.286605 -9.0824 
-9.10878 -0.513544 -0.927218 
-0.513544 -9.80642 0.396438 
-0.927218 0.396438 -8.3146 
-9.28336 -0.0201527 -0.722595 
-0.0201527 -9.01703 0.109054 
-0.722595 0.109054 -8.92941 
-9.18122 -0.299125 -0.0883443 
-0.299125 -8.28785 0.889436 
-0.0883443 0.889436 -8.81012 
-8.60055 -0.122362 -0.047809 
-0.122362 -8.64458 0.689695 
-0.047809 0.689695 -9.03406 
-8.73161 -0.216422 0.058051 
-0.216422 -8.40475 0.750711 
0.058051 0.750711 -9.14283 
-8.49737 0.0841254 -0.217293 
0.0841254 -8.77717 0.770745 
-0.217293 0.770745 -9.00464 
-9.69458 -0.00549658 0.0439609 
-0.00549658 -9.65095 0.160351 
0.0439609 0.160351 -9.4899 
-9.67653 -0.05553 0.0345335 
-0.05553 -9.64334 0.24245 
0.0345335 0.24245 -9.51556 
-9.67153 -0.00638612 0.0521414 
-0.00638612 -9.71033 0.0967638 
0.0521414 0.0967638 -9.45357 
-9.64906 0.018396 -0.0515212 
0.018396 -9.65209 0.212426 
-0.0515212 0.212426 -9.53429 
-5.55699 0.980075 1.17714 
0.980075 -5.8809 0.973206 
1.17714 0.973206 -1.15833 
-5.65418 0.574342 1.2894 
0.574342 -5.95067 0.684206 
1.2894 0.684206 -0.991368 
-5.76416 -0.445659 0.2054 
-0.445659 -5.10523 1.24449 
0.2054 1.24449 -1.72683 
-5.44809 0.405858 0.725813 
0.405858 -6.15241 0.404826 
0.725813 0.404826 -0.99571 
-9.80347 0.0481893 0.2048 
0.0481893 -9.82754 -0.0800202 
0.2048 -0.0800202 -9.80665 
-9.83227 0.0296937 0.27696 
0.0296937 -9.83624 -0.108217 
0.27696 -0.108217 -9.76917 
-9.8 0.0642244 0.27453 
0.0642244 -9.84595 -0.128614 
0.27453 -0.128614 -9.79171 
-9.77529 0.0459353 0.172747 
0.0459353 -9.90672 -0.0304367 
0.172747 -0.0304367 -9.75566 
-9.9253 0.0335344 0.179228 
0.0335344 -9.89492 0.0752895 
0.179228 0.0752895 -10.0207 
-9.9244 0.000239141 0.131284 
0.000239141 -9.88333 0.0890611 
0.131284 0.0890611 -10.0331 
-9.96472 -0.00625678 0.156467 
-0.00625678 -9.97689 0.0922495 
0.156467 0.0922495 -9.89927 
-9.94233 -0.0141551 0.146708 
-0.0141551 -9.99908 0.0555929 
0.146708 0.0555929 -9.89947 
-9.3505 1.31686 1.27826 
1.31686 -10.4301 1.35315 
1.27826 1.35315 -11.8357 
-9.33778 -1.36652 -0.0323446 
-1.36652 -11.7847 2.71956 
-0.0323446 2.71956 -10.4938 
-8.26955 0.770226 1.13077 
0.770226 -10.3816 -0.380669 
1.13077 -0.380669 -12.9652 
-9.58481 0.924682 1.3511 
0.924682 -10.0623 0.378806 
1.3511 0.378806 -11.9692 
-9.61606 0.0487788 0.207201 
0.0487788 -9.7522 -0.726953 
0.207201 -0.726953 -9.44083 
-9.57 -0.113317 0.245792 
-0.113317 -9.50573 -0.631459 
0.245792 -0.631459 -9.73337 
-9.63477 -0.0425434 0.181583 
-0.0425434 -9.57016 -0.625384 
0.181583 -0.625384 -9.60416 
-9.57111 -0.00572885 0.107647 
-0.00572885 -9.71367 -0.63151 
0.107647 -0.63151 -9.52431 
-9.07228 -0.102016 0.218678 
-0.102016 -9.0431 0.03455 
0.218678 0.03455 -10.545 
-9.29241 -0.0974504 0.290073 
-0.0974504 -9.09105 0.221201 
0.290073 0.221201 -10.277 
-9.08471 -0.144031 0.140542 
-0.144031 -8.96067 0.0238014 
0.140542 0.0238014 -10.615 
-8.92697 -0.168251 0.435122 
-0.168251 -9.11666 -0.0692444 
0.435122 -0.0692444 -10.6168 
-8.9273 -0.0515338 -0.198463 
-0.0515338 -9.4367 0.793995 
-0.198463 0.793995 -9.18276 
-9.31494 -0.0140322 0.0760666 
-0.0140322 -9.06922 0.860146 
0.0760666 0.860146 -9.1626 
-9.23251 -0.0463191 -0.113992 
-0.0463191 -9.34599 0.842985 
-0.113992 0.842985 -8.96826 
-9.31786 -0.110118 -0.110401 
-0.110118 -9.18525 0.862826 
-0.110401 0.862826 -9.04365 
-9.39361 0.134041 -0.395982 
0.134041 -9.22212 0.050004 
-0.395982 0.050004 -9.41408 
-9.34768 0.244461 -0.50001 
0.244461 -9.42275 0.0916636 
-0.50001 0.0916636 -9.25937 
-9.394 0.0529775 -0.473148 
0.0529775 -9.28743 0.0520532 
-0.473148 0.0520532 -9.34837 
-9.44255 0.0923856 -0.521169 
0.0923856 -9.12127 0.00756909 
-0.521169 0.00756909 -9.46598 
-9.51287 -0.000510364 -0.375466 
-0.000510364 -9.4838 0.232172 
-0.375466 0.232172 -9.26887 
-9.48369 0.00213799 -0.346727 
0.00213799 -9.56079 0.165328 
-0.346727 0.165328 -9.22106 
-9.47346 -0.00938717 -0.388563 
-0.00938717 -9.52681 0.130746 
-0.388563 0.130746 -9.26527 
-9.53007 0.053692 -0.497125 
0.053692 -9.48418 0.194807 
-0.497125 0.194807 -9.2513 
-9.85609 0.00142586 -0.0041792 
0.00142586 -9.78732 -0.0923824 
-0.0041792 -0.0923824 -9.9903 
-9.81771 0.00478262 0.0663672 
0.00478262 -9.85721 -0.0390847 
0.0663672 -0.0390847 -9.95877 
-9.83535 0.0357505 0.00325827 
0.0357505 -9.84608 -0.0821827 
0.00325827 -0.0821827 -9.95227 
-9.85177 0.0140264 0.0300443 
0.0140264 -9.8296 -0.0749817 
0.0300443 -0.0749817 -9.95232 
-8.85451 0.0520879 0.0604345 
0.0520879 -8.8646 0.78898 
0.0604345 0.78898 -8.74187 
-8.98982 -0.0280207 -0.118622 
-0.0280207 -8.89601 0.687502 
-0.118622 0.687502 -8.57515 
-9.00763 0.0675941 -0.330022 
0.0675941 -8.95782 0.980259 
-0.330022 0.980259 -8.49553 
-8.90251 0.0303236 -0.00973656 
0.0303236 -8.88561 0.80098 
-0.00973656 0.80098 -8.67286 
-9.04412 0.10649 0.500182 
0.10649 -8.44768 0.709216 
0.500182 0.709216 -8.42068 
-9.04232 -0.727522 0.269784 
-0.727522 -8.55162 1.04092 
0.269784 1.04092 -8.31855 
-8.82488 0.131577 0.123621 
0.131577 -8.09521 0.60777 
0.123621 0.60777 -8.9924 
-8.35563 -0.0703277 0.132016 
-0.0703277 -8.72212 0.911548 
0.132016 0.911548 -8.83474 
-6.94877 1.24981 -3.3389 
1.24981 -9.40844 0.908577 
-3.3389 0.908577 -4.55135 
-5.03691 1.13821 -1.73464 
1.13821 -9.32935 0.795287 
-1.73464 0.795287 -6.5423 
-8.75749 -1.0408 -2.80941 
-1.0408 -6.04452 1.14061 
-2.80941 1.14061 -6.10655 
-7.3294 -0.183719 -1.77999 
-0.183719 -8.43709 2.48446 
-1.77999 2.48446 -5.14207 
-9.65063 0.0609029 -0.415995 
0.0609029 -9.543 0.179867 
-0.415995 0.179867 -9.68836 
-9.60753 -0.0421161 -0.400642 
-0.0421161 -9.56401 0.188311 
-0.400642 0.188311 -9.71045 
-9.64518 0.0279622 -0.46098 
0.0279622 -9.517 0.0673662 
-0.46098 0.0673662 -9.71981 
-9.66563 0.0842431 -0.396263 
0.0842431 -9.53268 0.189352 
-0.396263 0.189352 -9.68368 
-9.84787 -0.0285994 0.275156 
-0.0285994 -9.84248 -0.0828644 
0.275156 -0.0828644 -9.92439 
-9.91937 0.0389788 0.240319 
0.0389788 -9.78795 -0.0723835 
0.240319 -0.0723835 -9.90742 
-9.90752 0.0356912 0.278775 
0.0356912 -9.83408 -0.0488272 
0.278775 -0.0488272 -9.87314 
-9.85918 -0.0663959 0.233357 
-0.0663959 -9.9141 -0.159392 
0.233357 -0.159392 -9.84146 
-8.86852 -0.39644 -0.268466 
-0.39644 -9.71372 -0.341853 
-0.268466 -0.341853 -9.82887 
-8.48225 -0.273457 0.113546 
-0.273457 -9.9401 -0.347762 
0.113546 -0.347762 -9.98876 
-8.49048 -0.0985505 0.144512 
-0.0985505 -10.0419 -0.429372 
0.144512 -0.429372 -9.87874 
-8.59329 -0.324004 0.18388 
-0.324004 -10.0549 -0.403576 
0.18388 -0.403576 -9.76291 
-9.86431 0.0176809 0.0947291 
0.0176809 -9.88818 0.155812 
0.0947291 0.155812 -10.1158 
-9.93384 -0.031985 0.0709496 
-0.031985 -9.99921 0.157397 
0.0709496 0.157397 -9.93521 
-9.96103 0.00774168 0.0722232 
0.00774168 -9.99158 0.159463 
0.0722232 0.159463 -9.91565 
-9.98258 0.00820061 0.069442 
0.00820061 -9.9965 0.199414 
0.069442 0.199414 -9.88918 
-11.1025 -0.032748 0.147676 
-0.032748 -11.1104 0.376022 
0.147676 0.376022 -9.83994 
-10.0469 0.0858728 -0.319946 
0.0858728 -9.68444 -0.425369 
-0.319946 -0.425369 -12.3215 
-10.5886 0.122085 0.26153 
0.122085 -10.8308 0.274069 
0.26153 0.274069 -10.6334 
-10.6904 0.616346 0.479737 
0.616346 -10.1582 0.779972 
0.479737 0.779972 -11.2043 
-8.32001 -1.26652 1.31063 
-1.26652 -9.29992 -0.552471 
1.31063 -0.552471 -10.9717 
-7.88485 -0.939422 0.674029 
-0.939422 -9.46351 0.603685 
0.674029 0.603685 -11.2433 
-7.43688 0.0631013 1.57368 
0.0631013 -11.0926 -1.59845 
1.57368 -1.59845 -10.0622 
-8.02965 -0.782413 1.8978 
-0.782413 -8.93525 -0.51085 
1.8978 -0.51085 -11.6268 
-11.1706 1.51927 0.372463 
1.51927 -9.7453 0.914915 
0.372463 0.914915 -12.9481 
-10.9173 0.0274097 -0.403561 
0.0274097 -10.4481 -0.115457 
-0.403561 -0.115457 -12.4986 
-11.0837 -0.897238 0.426734 
-0.897238 -11.4833 0.312897 
0.426734 0.312897 -11.297 
-11.0351 1.37339 -1.05392 
1.37339 -10.9289 -0.25127 
-1.05392 -0.25127 -11.9001 
-8.85459 2.421 -0.197913 
2.421 -11.4629 -0.0622323 
-0.197913 -0.0622323 -14.3375 
-12.8288 1.94854 -1.54738 
1.94854 -15.1456 -3.48787 
-1.54738 -3.48787 -6.68065 
-5.05516 2.69937 -0.497548 
2.69937 -6.64096 0.0117493 
-0.497548 0.0117493 -22.959 
-10.6425 0.764946 3.08298 
0.764946 -12.3256 2.56622 
3.08298 2.56622 -11.6871 
-9.93594 -0.00742212 -0.373189 
-0.00742212 -9.91431 0.119191 
-0.373189 0.119191 -9.98979 
-9.9382 -0.00721993 -0.392596 
-0.00721993 -9.9234 0.108486 
-0.392596 0.108486 -9.97844 
-9.94143 -0.00393169 -0.378393 
-0.00393169 -9.92167 0.100105 
-0.378393 0.100105 -9.97694 
-9.95207 -0.00698181 -0.395735 
-0.00698181 -9.93536 0.116911 
-0.395735 0.116911 -9.95262 
-8.64612 -0.311105 -0.321374 
-0.311105 -9.0857 0.459094 
-0.321374 0.459094 -7.41587 
-8.69584 -0.171289 -0.229231 
-0.171289 -9.09037 0.406941 
-0.229231 0.406941 -7.36149 
-9.08124 -0.0273016 -0.394707 
-0.0273016 -8.88329 0.456107 
-0.394707 0.456107 -7.18317 
-8.75951 -0.14152 -0.38351 
-0.14152 -8.90969 0.370907 
-0.38351 0.370907 -7.47849 
-9.9451 0.00730044 -0.39466 
0.00730044 -9.91846 0.266699 
-0.39466 0.266699 -9.98674 
-9.94111 -0.0190696 -0.368727 
-0.0190696 -9.91056 0.274908 
-0.368727 0.274908 -9.99862 
-9.95153 0.00648862 -0.385676 
0.00648862 -9.94878 0.263318 
-0.385676 0.263318 -9.94998 
-9.95227 0.00262785 -0.389129 
0.00262785 -9.96723 0.2584 
-0.389129 0.2584 -9.9308 
-9.82921 0.007603 -0.272508 
0.007603 -9.84163 -0.632204 
-0.272508 -0.632204 -9.77288 
-9.74284 -0.0261243 -0.225235 
-0.0261243 -9.82411 -0.475413 
-0.225235 -0.475413 -9.87678 
-9.80335 -0.00931107 -0.287185 
-0.00931107 -9.85811 -0.619672 
-0.287185 -0.619672 -9.78226 
-9.88153 0.0422869 -0.276788 
0.0422869 -9.95902 -0.599235 
-0.276788 -0.599235 -9.60317 
-9.98822 0.00815247 0.0871637 
0.00815247 -9.93693 0.445359 
0.0871637 0.445359 -9.95898 
-9.91104 -0.0172152 0.0990322 
-0.0172152 -9.88148 0.480718 
0.0990322 0.480718 -10.0916 
-9.97823 0.00512767 0.0935517 
0.00512767 -9.99455 0.41657 
0.0935517 0.41657 -9.91134 
-9.96704 0.00847748 0.0708058 
0.00847748 -10.0264 0.44674 
0.0708058 0.44674 -9.89065 
-9.09279 -0.163209 0.113812 
-0.163209 -9.3445 0.49001 
0.113812 0.49001 -8.93112 
-9.27568 -0.135747 -0.0885557 
-0.135747 -9.34653 0.339078 
-0.0885557 0.339078 -8.7462 
-9.12528 -0.101874 -0.312769 
-0.101874 -9.53707 0.311985 
-0.312769 0.311985 -8.70606 
-9.29455 -0.131874 -0.0706775 
-0.131874 -9.37545 0.284394 
-0.0706775 0.284394 -8.69841 
-17.2671 2.18805 -0.590689 
2.18805 -13.2967 -3.19274 
-0.590689 -3.19274 -9.70192 
-11.5365 0.696788 -1.62067 
0.696788 -5.68694 2.03867 
-1.62067 2.03867 -23.0422 
-9.46286 -2.73488 -1.86933 
-2.73488 -12.0156 0.69178 
-1.86933 0.69178 -18.7873 
-15.2852 -0.990803 3.82009 
-0.990803 -6.77216 -0.455755 
3.82009 -0.455755 -18.2083 
-5.10297 -0.13484 0.671049 
-0.13484 -5.24041 0.857106 
0.671049 0.857106 -1.40991 
-3.92585 -0.556781 0.815291 
-0.556781 -4.5936 -0.373329 
0.815291 -0.373329 -3.23384 
-5.18566 -0.505667 0.0171418 
-0.505667 -6.91271 -0.238282 
0.0171418 -0.238282 0.345084 
-3.91475 -0.525597 2.69695 
-0.525597 -4.87027 0.0304802 
2.69695 0.0304802 -2.96826 
-9.97224 -0.0187275 -0.528487 
-0.0187275 -9.97472 -0.17566 
-0.528487 -0.17566 -9.95603 
-9.97169 -0.0195683 -0.541791 
-0.0195683 -9.96264 -0.166611 
-0.541791 -0.166611 -9.96866 
-9.96383 -0.0179005 -0.532019 
-0.0179005 -9.9665 -0.167308 
-0.532019 -0.167308 -9.97265 
-9.96065 0.00220157 -0.543881 
0.00220157 -9.96693 -0.188729 
-0.543881 -0.188729 -9.97541 
-10.9079 1.95239 0.812312 
1.95239 -3.34715 0.518251 
0.812312 0.518251 -20.5342 
-10.3964 3.62978 -0.466792 
3.62978 -5.71666 0.796599 
-0.466792 0.796599 -18.6762 
-11.4101 1.46677 -0.0295843 
1.46677 -8.04472 -0.12947 
-0.0295843 -0.12947 -15.3345 
-10.9792 0.556956 0.0437959 
0.556956 -9.98192 1.37526 
0.0437959 1.37526 -13.8282 
-7.50305 -0.421172 0.0896126 
-0.421172 -8.23148 -0.417869 
0.0896126 -0.417869 -10.3029 
-8.92009 -0.16731 0.425467 
-0.16731 -7.75575 -1.22473 
0.425467 -1.22473 -9.36161 
-8.06613 -1.03238 0.333973 
-1.03238 -7.24866 -2.39411 
0.333973 -2.39411 -10.7227 
-9.42388 -0.421955 0.538661 
-0.421955 -9.08682 -1.60688 
0.538661 -1.60688 -7.52676 
-10.1939 0.00222091 0.180045 
0.00222091 -10.2729 -0.125019 
0.180045 -0.125019 -9.62953 
-9.99993 0.133882 -0.0586799 
0.133882 -10.1203 0.0264352 
-0.0586799 0.0264352 -9.97605 
-9.82504 0.0984344 -0.119077 
0.0984344 -9.91559 -0.197505 
-0.119077 -0.197505 -10.3557 
-10.0369 0.124331 -0.0752515 
0.124331 -10.0166 -0.0914803 
-0.0752515 -0.0914803 -10.0428 
-9.2074 -0.0796673 0.401091 
-0.0796673 -9.16576 0.678158 
0.401091 0.678158 -9.16193 
-9.22916 -0.0498396 0.398288 
-0.0498396 -9.17554 0.684251 
0.398288 0.684251 -9.13038 
-9.23066 -0.0148961 0.40673 
-0.0148961 -9.0881 0.663022 
0.40673 0.663022 -9.21633 
-9.18935 -0.0560411 0.407128 
-0.0560411 -9.17953 0.638465 
0.407128 0.638465 -9.16621 
-9.70158 0.0662823 -0.282623 
0.0662823 -9.43391 0.0797175 
-0.282623 0.0797175 -9.55226 
-9.53245 0.0241724 -0.294815 
0.0241724 -9.4854 0.139214 
-0.294815 0.139214 -9.66991 
-9.28145 -0.0919869 -0.212268 
-0.0919869 -9.65092 0.0309601 
-0.212268 0.0309601 -9.75538 
-9.46598 -0.06249 -0.404554 
-0.06249 -9.47851 0.0483425 
-0.404554 0.0483425 -9.74327 
-9.87255 -0.0162218 0.513666 
-0.0162218 -9.87868 0.336423 
0.513666 0.336423 -9.87934 
-9.86438 -0.0103802 0.509102 
-0.0103802 -9.88424 0.335714 
0.509102 0.335714 -9.88194 
-9.82575 0.0136617 0.506809 
0.0136617 -9.9028 0.331578 
0.506809 0.331578 -9.90202 
-9.84985 0.0150301 0.498371 
0.0150301 -9.92316 0.357343 
0.498371 0.357343 -9.85755 
-9.30663 -0.013273 -0.413068 
-0.013273 -9.56984 0.0463416 
-0.413068 0.0463416 -9.69807 
-9.75191 0.00928286 -0.328697 
0.00928286 -9.36263 0.0377416 
-0.328697 0.0377416 -9.45999 
-9.35261 -0.0192045 -0.321897 
-0.0192045 -9.58605 0.031104 
-0.321897 0.031104 -9.63587 
-9.43833 -0.149408 -0.342918 
-0.149408 -9.49595 0.0710835 
-0.342918 0.0710835 -9.64026 
-9.91764 -0.00216363 0.259041 
-0.00216363 -9.89318 -0.0578574 
0.259041 -0.0578574 -9.99933 
-9.94458 -0.0123405 0.23143 
-0.0123405 -9.92482 -0.0376989 
0.23143 -0.0376989 -9.94075 
-9.92019 0.00484118 0.218185 
0.00484118 -9.905 -0.0454104 
0.218185 -0.0454104 -9.98497 
-9.94467 -0.0113611 0.222389 
-0.0113611 -9.94812 -0.0318214 
0.222389 -0.0318214 -9.91736 
-6.82765 0.209607 1.2706 
0.209607 -8.9912 0.377318 
1.2706 0.377318 -8.0399 
-8.97261 -1.11254 0.610897 
-1.11254 -6.97979 0.433149 
0.610897 0.433149 -7.90635 
-6.51311 -0.0722063 1.42606 
-0.0722063 -8.87485 -0.0898034 
1.42606 -0.0898034 -8.47078 
-7.26269 0.176643 1.66025 
0.176643 -8.73444 0.426492 
1.66025 0.426492 -7.86162 
-9.8204 -0.0188607 0.502744 
-0.0188607 -9.86189 0.0657908 
0.502744 0.0657908 -9.82994 
-9.80931 -0.0127094 0.523127 
-0.0127094 -9.84385 0.0641203 
0.523127 0.0641203 -9.85906 
-9.85382 -0.0250828 0.479558 
-0.0250828 -9.81395 0.0749068 
0.479558 0.0749068 -9.84445 
-9.81757 -0.0238432 0.534229 
-0.0238432 -9.85646 0.0758714 
0.534229 0.0758714 -9.83819 
-9.78674 0.0049055 -0.376267 
0.0049055 -9.59754 -0.0391847 
-0.376267 -0.0391847 -8.21502 
-9.5121 -0.114776 -0.630428 
-0.114776 -9.35991 -0.193597 
-0.630428 -0.193597 -8.7273 
-9.54093 0.0467428 -0.62727 
0.0467428 -9.47094 -0.0512464 
-0.62727 -0.0512464 -8.58745 
-9.27399 -0.0152951 -0.206976 
-0.0152951 -9.10639 0.290332 
-0.206976 0.290332 -9.21892 
-9.88695 -0.00509605 -0.217599 
-0.00509605 -9.83412 0.118894 
-0.217599 0.118894 -9.89909 
-9.87532 0.0172596 -0.264046 
0.0172596 -9.85673 0.091559 
-0.264046 0.091559 -9.88811 
-9.88035 0.0244479 -0.237251 
0.0244479 -9.86009 0.108891 
-0.237251 0.108891 -9.87972 
-9.92774 0.0221444 -0.247411 
0.0221444 -9.80006 0.0601201 
-0.247411 0.0601201 -9.89237 
-3.61176 0.207278 1.06381 
0.207278 -3.14824 0.137303 
1.06381 0.137303 -1.79552 
-6.45604 -0.731839 1.97963 
-0.731839 -2.94433 1.35755 
1.97963 1.35755 0.844853 
-3.86435 -0.00917899 1.54267 
-0.00917899 -4.42492 0.433874 
1.54267 0.433874 -0.266255 
-2.93847 -0.715052 0.279261 
-0.715052 -4.825 -0.635429 
0.279261 -0.635429 -0.79204 
-9.53347 -0.0383229 -0.495554 
-0.0383229 -9.65636 -0.189553 
-0.495554 -0.189553 -9.64436 
-9.65845 -0.136913 -0.561244 
-0.136913 -9.67764 -0.243681 
-0.561244 -0.243681 -9.4981 
-9.39393 0.082553 -0.508173 
0.082553 -9.63741 -0.271963 
-0.508173 -0.271963 -9.80285 
-9.59119 -0.0520782 -0.431963 
-0.0520782 -9.63232 -0.121355 
-0.431963 -0.121355 -9.61069 
-9.99396 0.142254 0.0545158 
0.142254 -10.573 -0.321705 
0.0545158 -0.321705 -9.97296 
-10.5107 0.00400954 -0.213581 
0.00400954 -10.7337 0.29685 
-0.213581 0.29685 -9.29556 
-10.1026 0.377605 0.0855423 
0.377605 -10.3028 0.131649 
0.0855423 0.131649 -10.1346 
-9.44143 0.068557 0.380659 
0.068557 -9.98651 0.240675 
0.380659 0.240675 -11.112 
-9.58556 0.0235449 0.45746 
0.0235449 -9.71281 -0.253279 
0.45746 -0.253279 -9.70188 
-9.60673 0.105635 0.439768 
0.105635 -9.75202 -0.268337 
0.439768 -0.268337 -9.64149 
-9.57682 -0.0652616 0.447857 
-0.0652616 -9.74096 -0.197977 
0.447857 -0.197977 -9.68246 
-9.63722 0.0632611 0.478377 
0.0632611 -9.66134 -0.264866 
0.478377 -0.264866 -9.70168 
-9.91083 0.00434279 0.242325 
0.00434279 -9.87435 0.589684 
0.242325 0.589684 -9.88789 
-9.86971 -0.0032751 0.276322 
-0.0032751 -9.92624 0.608455 
0.276322 0.608455 -9.87712 
-9.94248 0.0201641 0.234237 
0.0201641 -9.76833 0.58566 
0.234237 0.58566 -9.96226 
-9.86677 -0.0100799 0.270492 
-0.0100799 -9.91959 0.576475 
0.270492 0.576475 -9.88672 
-9.5525 -0.151347 -0.109613 
-0.151347 -9.34024 -1.08678 
-0.109613 -1.08678 -7.87692 
-8.81033 -0.131989 -0.417177 
-0.131989 -8.5933 -0.923078 
-0.417177 -0.923078 -9.36604 
-8.89235 -0.0951121 -0.179087 
-0.0951121 -9.2569 -0.616485 
-0.179087 -0.616485 -8.62042 
-9.1316 0.0490694 -0.00664419 
0.0490694 -9.11706 -0.704753 
-0.00664419 -0.704753 -8.52101 
-9.29052 -0.07444 -0.0960042 
-0.07444 -9.57009 -0.173405 
-0.0960042 -0.173405 -9.39282 
-9.12512 0.00887941 -0.192708 
0.00887941 -9.47047 -0.17585 
-0.192708 -0.17585 -9.65784 
-9.34887 0.0316879 0.0740945 
0.0316879 -9.54511 0.00226143 
0.0740945 0.00226143 -9.35945 
-9.44351 -0.125247 -0.143951 
-0.125247 -9.59291 -0.193438 
-0.143951 -0.193438 -9.21701 
-9.20455 -0.200103 -0.358513 
-0.200103 -9.45405 -0.66058 
-0.358513 -0.66058 -9.07887 
-9.19444 0.162388 -0.511248 
0.162388 -9.31713 -0.734849 
-0.511248 -0.734849 -9.22589 
-9.27673 -0.0297388 -0.443595 
-0.0297388 -9.39586 -0.776909 
-0.443595 -0.776909 -9.06489 
-9.37972 0.057052 -0.456955 
0.057052 -9.26247 -0.821131 
-0.456955 -0.821131 -9.09528 
-9.49186 -0.811519 0.501008 
-0.811519 -9.11634 0.829461 
0.501008 0.829461 -8.1452 
-9.14411 0.191155 0.391936 
0.191155 -8.61066 0.75056 
0.391936 0.75056 -8.99863 
-8.77723 0.330302 0.515466 
0.330302 -8.69766 0.885016 
0.515466 0.885016 -9.27852 
-8.92501 -0.00590825 -0.213766 
-0.00590825 -9.02181 0.526445 
-0.213766 0.526445 -8.80659 
-9.44042 -0.0537487 0.066009 
-0.0537487 -9.72991 0.315585 
0.066009 0.315585 -9.27528 
-9.43719 -0.108281 0.186561 
-0.108281 -9.62912 0.359764 
0.186561 0.359764 -9.37931 
-9.42079 -0.0299156 0.100581 
-0.0299156 -9.64885 0.332502 
0.100581 0.332502 -9.37596 
-9.42533 -0.0444144 0.188794 
-0.0444144 -9.57816 0.223282 
0.188794 0.223282 -9.44212 
-9.47615 -0.0338647 -0.222687 
-0.0338647 -9.70659 0.0236543 
-0.222687 0.0236543 -9.87007 
-9.83754 -0.0357649 -0.0559257 
-0.0357649 -9.52827 -0.0396201 
-0.0559257 -0.0396201 -9.68699 
-9.58713 -0.0558944 -0.107659 
-0.0558944 -9.69938 -0.00818848 
-0.107659 -0.00818848 -9.7663 
-9.57019 -0.144217 -0.100728 
-0.144217 -9.63148 0.0814215 
-0.100728 0.0814215 -9.85114 
-10 0.00641484 0.272937 
0.00641484 -9.96189 -0.172919 
0.272937 -0.172919 -9.94908 
-9.9974 -0.00599961 0.281031 
-0.00599961 -9.98666 -0.159288 
0.281031 -0.159288 -9.92694 
-9.92632 0.0353428 0.282533 
0.0353428 -9.89918 -0.212107 
0.282533 -0.212107 -10.0855 
-9.99027 -0.00374973 0.251492 
-0.00374973 -10.0137 -0.169048 
0.251492 -0.169048 -9.90699 
-7.95126 -0.0911108 -0.515541 
-0.0911108 -9.01949 -1.58514 
-0.515541 -1.58514 -7.72068 
-8.20079 -0.120869 -0.619479 
-0.120869 -9.66351 -0.446514 
-0.619479 -0.446514 -6.82714 
-8.62818 0.0538693 -1.57692 
0.0538693 -9.71057 -0.00796735 
-1.57692 -0.00796735 -6.35269 
-9.06394 0.5155 -0.154131 
0.5155 -8.36945 0.5327 
-0.154131 0.5327 -7.25805 
-9.79613 0.0132072 -0.0899842 
0.0132072 -9.79859 0.00595545 
-0.0899842 0.00595545 -9.82826 
-9.77244 0.0039829 -0.0370311 
0.0039829 -9.80916 0.0439852 
-0.0370311 0.0439852 -9.84138 
-9.77736 -0.072565 0.0681314 
-0.072565 -9.81458 -0.0390189 
0.0681314 -0.0390189 -9.83103 
-9.71873 -0.0270348 -0.00716338 
-0.0270348 -9.78455 0.0625208 
-0.00716338 0.0625208 -9.9197 
-9.38093 0.109705 -0.327331 
0.109705 -9.54347 0.161606 
-0.327331 0.161606 -9.55066 
-9.32694 0.0826898 -0.303376 
0.0826898 -9.59507 0.153471 
-0.303376 0.153471 -9.55305 
-9.27057 -0.0433235 -0.259324 
-0.0433235 -9.52052 0.123965 
-0.259324 0.123965 -9.68397 
-9.24584 0.0389203 -0.316583 
0.0389203 -9.58687 0.226267 
-0.316583 0.226267 -9.64235 
-9.55109 -0.0683045 -0.298112 
-0.0683045 -9.625 0.656545 
-0.298112 0.656545 -9.24963 
-9.49799 -0.098174 -0.304591 
-0.098174 -9.665 0.676946 
-0.304591 0.676946 -9.26272 
-9.43262 -0.0498267 -0.104987 
-0.0498267 -9.48967 0.654683 
-0.104987 0.654683 -9.50343 
-9.59261 -0.00344993 -0.327872 
-0.00344993 -9.70516 0.524492 
-0.327872 0.524492 -9.12794 
-9.56767 -0.0315647 0.205191 
-0.0315647 -9.70801 0.617251 
0.205191 0.617251 -9.5587 
-9.62673 -0.00469007 0.114597 
-0.00469007 -9.64397 0.660188 
0.114597 0.660188 -9.56369 
-9.61365 -0.0438753 0.0803648 
-0.0438753 -9.67901 0.619861 
0.0803648 0.619861 -9.54172 
-9.59993 0.00960086 0.203533 
0.00960086 -9.62689 0.568504 
0.203533 0.568504 -9.60756 
-9.95865 0.00587634 0.0189253 
0.00587634 -9.93198 0.00989954 
0.0189253 0.00989954 -9.97913 
-9.9456 0.00845856 -0.0090915 
0.00845856 -9.91169 0.00197693 
-0.0090915 0.00197693 -10.0125 
-9.97388 0.00400195 0.0117706 
0.00400195 -9.95565 -0.0172814 
0.0117706 -0.0172814 -9.94023 
-9.97516 0.00494195 0.0247601 
0.00494195 -9.94545 -0.0199709 
0.0247601 -0.0199709 -9.94917 
-9.49755 0.0650087 0.52504 
0.0650087 -9.66541 0.395736 
0.52504 0.395736 -9.7372 
-9.69596 -0.0637391 0.597278 
-0.0637391 -9.75088 0.511048 
0.597278 0.511048 -9.45333 
-9.62391 0.0528935 0.477432 
0.0528935 -9.66012 0.427718 
0.477432 0.427718 -9.61613 
-9.62809 -0.0651005 0.453385 
-0.0651005 -9.77811 0.494465 
0.453385 0.494465 -9.49396 
-8.29456 0.292363 -0.109797 
0.292363 -7.77909 1.41642 
-0.109797 1.41642 -8.58882 
-8.7245 0.0322779 -0.114148 
0.0322779 -7.34825 1.59087 
-0.114148 1.59087 -8.58972 
-8.21088 0.182919 0.00832466 
0.182919 -8.57556 1.03149 
0.00832466 1.03149 -7.87604 
-8.45109 0.473226 0.262182 
0.473226 -8.26157 1.58037 
0.262182 1.58037 -7.94982 
-10.0295 0.0268828 0.0561069 
0.0268828 -9.95403 0.0973334 
0.0561069 0.0973334 -10.0024 
-9.76387 -0.0116799 -0.0341603 
-0.0116799 -9.89336 0.0177536 
-0.0341603 0.0177536 -10.3288 
-10.0005 -0.00719991 0.0685102 
-0.00719991 -10.0415 0.0741413 
0.0685102 0.0741413 -9.94398 
-9.84019 0.125965 0.205363 
0.125965 -9.98886 0.152361 
0.205363 0.152361 -10.157 
-9.23214 0.00832668 -0.0558237 
0.00832668 -9.44253 0.00590836 
-0.0558237 0.00590836 -9.39435 
-9.46258 0.0241022 0.0105342 
0.0241022 -9.56047 0.244545 
0.0105342 0.244545 -9.04596 
-9.33759 0.0239992 -0.0171121 
0.0239992 -9.60536 0.0715429 
-0.0171121 0.0715429 -9.12606 
-9.31557 -0.173373 -0.0990857 
-0.173373 -9.7883 0.00737055 
-0.0990857 0.00737055 -8.96514 
-9.6953 -0.0562015 0.334651 
-0.0562015 -9.22796 -0.181459 
0.334651 -0.181459 -9.47891 
-9.59736 -0.0377199 0.331562 
-0.0377199 -9.42287 -0.0445647 
0.331562 -0.0445647 -9.38194 
-9.27995 -0.134594 0.117665 
-0.134594 -9.30374 0.000280896 
0.117665 0.000280896 -9.81848 
-9.37594 -0.04978 0.290966 
-0.04978 -9.35353 -0.196527 
0.290966 -0.196527 -9.6727 
-9.07243 -0.0227959 0.0379722 
-0.0227959 -9.00838 -0.611302 
0.0379722 -0.611302 -5.91588 
-9.02709 -0.149788 0.0900698 
-0.149788 -8.67166 -1.03857 
0.0900698 -1.03857 -6.29794 
-8.92986 0.491382 -1.00135 
0.491382 -10.7326 -0.853676 
-1.00135 -0.853676 -4.33421 
-8.21206 0.168182 -0.660666 
0.168182 -8.93407 -0.124815 
-0.660666 -0.124815 -6.85055 
-9.90471 0.0218135 -0.11762 
0.0218135 -9.86857 0.136556 
-0.11762 0.136556 -9.86407 
-9.87506 -0.0279102 -0.123692 
-0.0279102 -9.94914 0.115182 
-0.123692 0.115182 -9.81315 
-9.84844 -0.0168093 -0.103561 
-0.0168093 -9.88269 0.150771 
-0.103561 0.150771 -9.90622 
-9.90572 0.0176866 -0.118256 
0.0176866 -9.86578 0.117691 
-0.118256 0.117691 -9.86586 
-9.7106 -2.62995 -0.680844 
-2.62995 -3.76291 1.02512 
-0.680844 1.02512 1.28386 
-0.897628 -0.0893853 2.11163 
-0.0893853 -4.68445 -1.30296 
2.11163 -1.30296 -6.60758 
-8.24044 0.0740612 -0.603885 
0.0740612 -7.73366 0.880557 
-0.603885 0.880557 3.78444 
-7.49528 2.42854 3.51502 
2.42854 -4.29738 2.30912 
3.51502 2.30912 -0.396999 
-9.62 -0.181595 -0.394076 
-0.181595 -9.42531 -0.0960369 
-0.394076 -0.0960369 -9.53485 
-9.55748 -0.0715168 -0.323324 
-0.0715168 -9.49929 -0.151708 
-0.323324 -0.151708 -9.52339 
-9.20843 -0.0551653 -0.223562 
-0.0551653 -9.5768 -0.0686173 
-0.223562 -0.0686173 -9.79493 
-9.42187 0.0298684 -0.401566 
0.0298684 -9.4553 -0.0235361 
-0.401566 -0.0235361 -9.70299 
-7.62629 -0.926155 -1.01433 
-0.926155 -8.81927 -0.651559 
-1.01433 -0.651559 -7.25468 
-7.79821 -0.0293632 -1.14612 
-0.0293632 -8.68756 -1.10158 
-1.14612 -1.10158 -7.21447 
-8.07904 1.07039 -0.95139 
1.07039 -7.58566 -1.17951 
-0.95139 -1.17951 -8.03554 
-7.03578 0.762866 -1.35621 
0.762866 -9.47522 -1.10743 
-1.35621 -1.10743 -7.18923 
-9.90987 0.00116608 0.263324 
0.00116608 -9.89266 -0.0949138 
0.263324 -0.0949138 -9.95177 
-9.92089 0.00442867 0.276342 
0.00442867 -9.91537 -0.0896126 
0.276342 -0.0896126 -9.91804 
-9.85266 0.0132265 0.263751 
0.0132265 -9.84039 -0.0517161 
0.263751 -0.0517161 -10.0613 
-9.93463 0.00784447 0.280691 
0.00784447 -9.89623 -0.129342 
0.280691 -0.129342 -9.92345 
-9.29697 0.155965 -0.449891 
0.155965 -9.23104 0.0320068 
-0.449891 0.0320068 -9.14959 
-9.4121 0.0658766 -0.467732 
0.0658766 -9.21477 0.0411082 
-0.467732 0.0411082 -9.05073 
-9.40028 0.0685807 -0.538858 
0.0685807 -9.31782 0.0154085 
-0.538858 0.0154085 -8.95949 
-9.3559 0.0019531 -0.365091 
0.0019531 -9.23936 0.0774952 
-0.365091 0.0774952 -9.08232 
-9.45496 -2.37361 1.26249 
-2.37361 -9.8312 -3.50796 
1.26249 -3.50796 3.91641 
1.22558 0.812402 -0.915153 
0.812402 -1.07077 1.9052 
-0.915153 1.9052 -15.5246 
-10.8814 -0.293718 -1.71004 
-0.293718 -12.1364 -2.28527 
-1.71004 -2.28527 7.64807 
-9.94907 1.48074 -4.71989 
1.48074 0.0856625 -13.377 
-4.71989 -13.377 -5.50634 
-9.2315 -0.0821322 -0.508182 
-0.0821322 -9.56527 -0.162965 
-0.508182 -0.162965 -9.44006 
-9.31921 -0.112117 -0.504124 
-0.112117 -9.47512 -0.198047 
-0.504124 -0.198047 -9.4425 
-9.17982 -0.0638799 -0.497225 
-0.0638799 -9.55093 -0.173799 
-0.497225 -0.173799 -9.50608 
-9.2005 -0.143097 -0.519013 
-0.143097 -9.53541 -0.184246 
-0.519013 -0.184246 -9.50092 
-8.44438 -0.558332 -0.175259 
-0.558332 -8.46718 -1.16732 
-0.175259 -1.16732 -8.32072 
-9.35486 -0.137147 0.130569 
-0.137147 -9.26394 -1.11972 
0.130569 -1.11972 -6.61348 
-9.28525 0.244895 0.263681 
0.244895 -8.89293 -0.29598 
0.263681 -0.29598 -7.05409 
-8.82014 0.420217 -0.296506 
0.420217 -9.30291 -0.347163 
-0.296506 -0.347163 -7.10922 
-9.76267 -0.0383071 -0.515091 
-0.0383071 -9.81026 -0.0331765 
-0.515091 -0.0331765 -9.7535 
-9.74383 -0.021157 -0.496302 
-0.021157 -9.76663 -0.0390209 
-0.496302 -0.0390209 -9.81597 
-9.70629 -0.0106831 -0.509797 
-0.0106831 -9.72532 -0.0646376 
-0.509797 -0.0646376 -9.89481 
-9.74924 -0.0209829 -0.468308 
-0.0209829 -9.76337 -0.0172143 
-0.468308 -0.0172143 -9.81381 
-3.49984 0.197278 1.18921 
0.197278 0.406716 2.06266 
1.18921 2.06266 -9.64581 
-7.6714 -0.0777753 -0.405349 
-0.0777753 -8.39938 0.793122 
-0.405349 0.793122 3.33185 
-5.28905 2.66022 -2.01511 
2.66022 -11.2379 -0.657731 
-2.01511 -0.657731 3.78804 
-4.5839 -2.93841 -2.90973 
-2.93841 -8.79475 7.44322 
-2.90973 7.44322 0.63972 
-9.5316 -0.0516904 0.426701 
-0.0516904 -9.76325 -0.395026 
0.426701 -0.395026 -9.58858 
-9.48911 -0.123691 0.459261 
-0.123691 -9.66425 -0.457237 
0.459261 -0.457237 -9.73008 
-9.63044 0.171871 0.499232 
0.171871 -9.84226 -0.450931 
0.499232 -0.450931 -9.41073 
-9.61552 -0.0314411 0.385805 
-0.0314411 -9.72069 -0.267513 
0.385805 -0.267513 -9.54722 
-9.13564 0.215439 -0.879993 
0.215439 -9.31613 -0.866023 
-0.879993 -0.866023 -8.08943 
-9.74803 0.0759404 -0.400504 
0.0759404 -9.38132 -1.43394 
-0.400504 -1.43394 -7.41186 
-9.07359 -0.00636081 0.177433 
-0.00636081 -8.22379 -0.867006 
0.177433 -0.867006 -9.24382 
-9.17061 0.309623 -0.687722 
0.309623 -9.45884 -0.663644 
-0.687722 -0.663644 -7.91176 
-8.85865 -0.249543 0.0223965 
-0.249543 -8.81641 -1.24638 
0.0223965 -1.24638 -8.47655 
-9.23958 -0.310867 0.436025 
-0.310867 -9.26621 -1.02393 
0.436025 -1.02393 -7.64582 
-8.92564 -0.246386 0.165833 
-0.246386 -8.74765 -1.24953 
0.165833 -1.24953 -8.47832 
-8.02807 -0.0196375 0.154745 
-0.0196375 -8.67886 -0.579235 
0.154745 -0.579235 -9.44468 
-9.67898 0.0503489 -0.411506 
0.0503489 -9.64654 0.200841 
-0.411506 0.200841 -9.74852 
-9.67966 0.0408601 -0.40475 
0.0408601 -9.65162 0.195219 
-0.40475 0.195219 -9.74276 
-9.71219 0.0488843 -0.409666 
0.0488843 -9.65194 0.149022 
-0.409666 0.149022 -9.70991 
-9.63665 0.017812 -0.29351 
0.017812 -9.63426 0.227474 
-0.29351 0.227474 -9.80312 
-9.84657 -0.00147352 0.291626 
-0.00147352 -9.9121 0.319183 
0.291626 0.319183 -9.80008 
-9.87554 0.0219165 0.27749 
0.0219165 -9.91792 0.299 
0.27749 0.299 -9.76528 
-9.82876 0.00447206 0.290004 
0.00447206 -9.90934 0.374156 
0.290004 0.374156 -9.82065 
-9.86792 0.00874487 0.279931 
0.00874487 -9.91286 0.3596 
0.279931 0.3596 -9.77796 
-9.90137 0.0274245 -0.147609 
0.0274245 -9.91036 0.125443 
-0.147609 0.125443 -10.043 
-9.96286 -0.00138847 -0.113856 
-0.00138847 -9.96249 0.119425 
-0.113856 0.119425 -9.92935 
-9.91981 0.00920036 -0.126745 
0.00920036 -9.95699 0.098635 
-0.126745 0.098635 -9.9779 
-9.9903 -0.00112198 -0.122425 
-0.00112198 -9.95406 0.100049 
-0.122425 0.100049 -9.91035 
-9.7807 -0.0124726 -0.361519 
-0.0124726 -9.8546 0.470547 
-0.361519 0.470547 -9.83477 
-9.81723 -0.0316207 -0.353141 
-0.0316207 -9.86654 0.435728 
-0.353141 0.435728 -9.7863 
-9.77192 0.0540043 -0.326076 
0.0540043 -9.78909 0.385493 
-0.326076 0.385493 -9.90906 
-9.81028 -0.0228887 -0.389794 
-0.0228887 -9.91826 0.454969 
-0.389794 0.454969 -9.74153 
-8.75282 0.0792568 0.172939 
0.0792568 -8.67593 -0.88632 
0.172939 -0.88632 -8.71295 
-8.75065 0.0753417 0.154156 
0.0753417 -8.72202 -0.889643 
0.154156 -0.889643 -8.66902 
-8.76866 0.109634 0.0523299 
0.109634 -8.70903 -0.925382 
0.0523299 -0.925382 -8.66401 
-8.71542 0.0861813 0.170463 
0.0861813 -8.72779 -0.88039 
0.170463 -0.88039 -8.69849 
-9.93322 -0.0111651 -0.225181 
-0.0111651 -9.84957 -0.616275 
-0.225181 -0.616275 -9.82667 
-9.91814 0.0142952 -0.234509 
0.0142952 -9.85134 -0.516216 
-0.234509 -0.516216 -9.83998 
-9.8436 -0.0188754 -0.209255 
-0.0188754 -9.87728 -0.495941 
-0.209255 -0.495941 -9.88858 
-9.80893 0.0241985 -0.240507 
0.0241985 -10.1015 -0.579636 
-0.240507 -0.579636 -9.69907 
-11.3708 0.197393 -0.238517 
0.197393 -11.1657 -0.232028 
-0.238517 -0.232028 -11.5542 
-12.062 0.269015 0.0391515 
0.269015 -11.2686 -0.146031 
0.0391515 -0.146031 -10.7601 
-10.8117 0.476942 0.175837 
0.476942 -10.4638 -0.643236 
0.175837 -0.643236 -12.8152 
-11.3523 0.183314 -0.452423 
0.183314 -11.1874 -0.0680734 
-0.452423 -0.0680734 -11.551 
-9.37201 -0.553949 0.492347 
-0.553949 -8.98933 0.143174 
0.492347 0.143174 -9.28302 
-9.79281 -0.383371 0.356918 
-0.383371 -9.00624 0.280701 
0.356918 0.280701 -8.84531 
-7.92046 -0.473846 0.0197833 
-0.473846 -9.56487 -0.0214221 
0.0197833 -0.0214221 -10.159 
-8.62361 0.00417658 1.01067 
0.00417658 -9.31619 -0.361774 
1.01067 -0.361774 -9.70455 
-9.87492 0.00719324 0.376553 
0.00719324 -9.84577 -0.00898224 
0.376553 -0.00898224 -9.88846 
-9.87767 -0.0218357 0.387942 
-0.0218357 -9.86113 -0.0371989 
0.387942 -0.0371989 -9.87035 
-9.86685 -0.0415036 0.393494 
-0.0415036 -9.88107 -0.034967 
0.393494 -0.034967 -9.86123 
-9.93962 0.0133375 0.417121 
0.0133375 -9.81786 -0.082596 
0.417121 -0.082596 -9.85167 
-9.70703 0.0763319 0.334538 
0.0763319 -9.53184 -0.0725516 
0.334538 -0.0725516 -9.62909 
-9.34069 -0.066538 0.466911 
-0.066538 -9.68119 -0.10781 
0.466911 -0.10781 -9.84609 
-9.70957 0.119895 0.34138 
0.119895 -9.63609 -0.0247212 
0.34138 -0.0247212 -9.5223 
-9.51015 0.0205279 0.196936 
0.0205279 -9.50997 -0.00911781 
0.196936 -0.00911781 -9.84785 
-9.94322 -0.00401427 0.12963 
-0.00401427 -9.93704 0.0226407 
0.12963 0.0226407 -9.94874 
-9.92469 0.00438781 0.115001 
0.00438781 -9.91002 0.0195946 
0.115001 0.0195946 -9.9943 
-9.92255 -0.00367365 0.146517 
-0.00367365 -9.90921 0.0105317 
0.146517 0.0105317 -9.99724 
-9.94678 -0.00858964 0.126442 
-0.00858964 -9.95128 0.0274861 
0.126442 0.0274861 -9.93095 
-9.95492 -0.00629356 0.216912 
-0.00629356 -9.98645 0.397337 
0.216912 0.397337 -9.98137 
-9.96744 -0.00606961 0.232226 
-0.00606961 -9.99173 0.399817 
0.232226 0.399817 -9.96357 
-9.94825 -0.0103749 0.226819 
-0.0103749 -9.97771 0.424117 
0.226819 0.424117 -9.99679 
-9.98138 -0.0031874 0.222922 
-0.0031874 -10.0049 0.402894 
0.222922 0.402894 -9.93647 
-9.91291 -0.0192995 0.126764 
-0.0192995 -9.86798 -0.62753 
0.126764 -0.62753 -9.84184 
-9.87534 0.0144972 0.103468 
0.0144972 -9.8501 -0.53683 
0.103468 -0.53683 -9.89729 
-9.86324 -0.0186541 0.134228 
-0.0186541 -9.87458 -0.544862 
0.134228 -0.544862 -9.8849 
-9.83291 0.00952787 0.150313 
0.00952787 -10.0209 -0.589906 
0.150313 -0.589906 -9.76887 
-9.90028 -0.0225715 -0.00600554 
-0.0225715 -9.84998 0.645477 
-0.00600554 0.645477 -9.8464 
-9.93734 -0.0288639 -0.0203445 
-0.0288639 -9.84296 0.609245 
-0.0203445 0.609245 -9.81635 
-9.74965 0.05849 0.00656415 
0.05849 -9.90534 0.552748 
0.00656415 0.552748 -9.94167 
-9.87736 0.0538322 0.00757475 
0.0538322 -9.96214 0.690891 
0.00757475 0.690891 -9.75716 
-9.85151 -0.0191844 -0.518504 
-0.0191844 -9.88176 0.0118756 
-0.518504 0.0118756 -9.8936 
-9.84956 -0.0499481 -0.541343 
-0.0499481 -9.83189 -0.0441952 
-0.541343 -0.0441952 -9.94543 
-9.90783 -0.0549983 -0.519065 
-0.0549983 -9.88513 0.0487811 
-0.519065 0.0487811 -9.83391 
-9.85519 -0.00187776 -0.520734 
-0.00187776 -9.87769 -0.0126117 
-0.520734 -0.0126117 -9.89399 
-8.57232 -0.521986 -0.346881 
-0.521986 -8.77835 0.872382 
-0.346881 0.872382 -8.30017 
-8.33868 -0.24626 1.72917 
-0.24626 -9.0548 -0.228134 
1.72917 -0.228134 -8.25737 
-7.53227 0.0589553 1.30251 
0.0589553 -9.4118 -1.13295 
1.30251 -1.13295 -8.70677 
-7.98471 0.00606039 2.12525 
0.00606039 -9.80154 0.509497 
2.12525 0.509497 -7.8646 
-8.5704 0.121741 0.296026 
0.121741 -8.72779 0.815504 
0.296026 0.815504 -8.86072 
-8.87183 0.22897 0.390413 
0.22897 -8.83732 0.857566 
0.390413 0.857566 -8.44977 
-8.72454 0.16264 0.240048 
0.16264 -8.85543 0.872656 
0.240048 0.872656 -8.57894 
-8.7341 0.195218 0.248207 
0.195218 -8.83709 0.866642 
0.248207 0.866642 -8.58773 
-8.68011 -0.225523 -1.2483 
-0.225523 -8.72987 0.728108 
-1.2483 0.728108 -9.67422 
-8.34418 -0.873888 -0.771 
-0.873888 -8.63807 0.684186 
-0.771 0.684186 -10.1019 
-8.47743 -0.884431 -0.279104 
-0.884431 -8.41343 0.536662 
-0.279104 0.536662 -10.1933 
-8.34951 -0.774887 -0.610467 
-0.774887 -8.59754 0.566194 
-0.610467 0.566194 -10.1371 
-9.86171 -0.0106668 0.456265 
-0.0106668 -9.89056 0.048794 
0.456265 0.048794 -9.95875 
-9.89612 -0.036381 0.497794 
-0.036381 -9.90439 0.0437528 
0.497794 0.0437528 -9.91051 
-9.89265 -0.0223018 0.501275 
-0.0223018 -9.89846 0.0266712 
0.501275 0.0266712 -9.91991 
-9.94208 -0.0201252 0.498362 
-0.0201252 -9.88893 0.0102855 
0.498362 0.0102855 -9.88 
-9.70074 0.0391931 -0.305504 
0.0391931 -9.4257 0.0185093 
-0.305504 0.0185093 -9.49201 
-9.15767 -0.0803248 -0.182721 
-0.0803248 -9.70642 0.0549515 
-0.182721 0.0549515 -9.75435 
-9.5749 -0.0368456 -0.352564 
-0.0368456 -9.45023 -0.0407576 
-0.352564 -0.0407576 -9.59331 
-9.38939 0.0495772 -0.461376 
0.0495772 -9.47051 0.105246 
-0.461376 0.105246 -9.75855 
-9.91273 -0.18277 0.418316 
-0.18277 -9.48529 -0.0352146 
0.418316 -0.0352146 -7.98254 
-9.43227 0.199065 0.105276 
0.199065 -9.53902 0.122631 
0.105276 0.122631 -8.40927 
-9.34593 -0.207382 0.375856 
-0.207382 -8.78533 0.0373128 
0.375856 0.0373128 -9.2493 
-9.26047 0.0350493 -0.210506 
0.0350493 -9.88962 -0.0989842 
-0.210506 -0.0989842 -8.23046 
-9.78375 0.00155932 0.0417372 
0.00155932 -9.79323 -0.0208975 
0.0417372 -0.0208975 -9.87119 
-9.82114 0.00873674 -0.0619291 
0.00873674 -9.76633 -0.00296633 
-0.0619291 -0.00296633 -9.8607 
-9.76872 -0.0181437 0.0239293 
-0.0181437 -9.81264 -0.0200196 
0.0239293 -0.0200196 -9.86681 
-9.71716 -0.0224296 0.00514685 
-0.0224296 -9.82457 -0.0221031 
0.00514685 -0.0221031 -9.90644 
-8.15041 -1.12594 -2.09979 
-1.12594 -9.53867 -1.79927 
-2.09979 -1.79927 -8.11564 
-9.31944 0.636269 -1.05196 
0.636269 -10.3632 -0.918347 
-1.05196 -0.918347 -6.12206 
-9.63096 -0.599814 -0.902946 
-0.599814 -8.86371 -1.40514 
-0.902946 -1.40514 -7.31005 
-8.31839 0.759924 -0.512274 
0.759924 -9.38885 -0.615099 
-0.512274 -0.615099 -8.09749 
-10.0192 -0.00757453 0.419215 
-0.00757453 -10.0383 0.235641 
0.419215 0.235641 -9.92006 
-9.97415 -0.0152168 0.3688 
-0.0152168 -9.95617 0.254767 
0.3688 0.254767 -10.0472 
-9.98748 -0.0346508 0.407989 
-0.0346508 -9.99416 0.267903 
0.407989 0.267903 -9.99588 
-10.0245 0.0131239 0.414197 
0.0131239 -10.034 0.271109 
0.414197 0.271109 -9.91905 
-9.24764 0.161392 -0.972158 
0.161392 -9.36344 0.177642 
-0.972158 0.177642 -9.52601 
-9.13528 0.302819 -0.945851 
0.302819 -9.53334 0.00586081 
-0.945851 0.00586081 -9.46848 
-8.72006 0.0210413 -0.956268 
0.0210413 -9.9081 0.207144 
-0.956268 0.207144 -9.50893 
-9.33064 -0.0261641 -0.556028 
-0.0261641 -9.24173 0.166772 
-0.556028 0.166772 -9.56472 
-8.96267 -0.0961285 0.543536 
-0.0961285 -9.40498 -0.37863 
0.543536 -0.37863 -9.15784 
-8.88715 -0.206604 0.551487 
-0.206604 -9.12077 -0.588126 
0.551487 -0.588126 -9.51758 
-9.07106 0.262303 0.456803 
0.262303 -9.80716 -0.539653 
0.456803 -0.539653 -8.64727 
-8.9663 -0.0700711 0.475865 
-0.0700711 -9.38644 -0.144211 
0.475865 -0.144211 -9.17275 
-9.88774 0.0290763 -0.306165 
0.0290763 -9.83875 -0.0238339 
-0.306165 -0.0238339 -9.90628 
-9.92577 0.0326558 -0.328718 
0.0326558 -9.87479 -0.0157538 
-0.328718 -0.0157538 -9.8322 
-9.89176 -0.0160409 -0.314329 
-0.0160409 -9.86355 -0.0399454 
-0.314329 -0.0399454 -9.87746 
-9.90155 -0.0297312 -0.326594 
-0.0297312 -9.85826 -0.0260575 
-0.326594 -0.0260575 -9.87295 
-9.4508 -0.52097 1.25121 
-0.52097 -9.27807 -0.0631518 
1.25121 -0.0631518 -8.3681 
-8.7293 0.99895 2.77726 
0.99895 -10.2234 0.586699 
2.77726 0.586699 -8.1443 
-8.99864 -0.128883 1.59207 
-0.128883 -9.14577 -0.0373683 
1.59207 -0.0373683 -8.95255 
-8.75393 0.651393 0.83257 
0.651393 -8.81593 0.475965 
0.83257 0.475965 -9.5271 
-9.63405 -0.123989 0.522964 
-0.123989 -9.72366 0.0916579 
0.522964 0.0916579 -8.27599 
-9.07685 -0.33876 0.118341 
-0.33876 -9.22231 -0.0440167 
0.118341 -0.0440167 -9.33455 
-9.44744 0.210512 0.307405 
0.210512 -9.59721 0.333773 
0.307405 0.333773 -8.58905 
-9.73286 0.309521 0.683597 
0.309521 -9.34245 0.468805 
0.683597 0.468805 -8.55838 
-8.83149 0.227894 0.9957 
0.227894 -9.57905 0.72822 
0.9957 0.72822 -9.00439 
-8.37313 0.0468998 0.777636 
0.0468998 -9.23817 -0.217752 
0.777636 -0.217752 -9.80364 
-9.16651 0.222536 1.26862 
0.222536 -9.77573 0.376131 
1.26862 0.376131 -8.4727 
-8.97934 0.12547 1.02308 
0.12547 -9.58232 0.513002 
1.02308 0.513002 -8.85327 
-8.74154 -0.0902182 -0.182773 
-0.0902182 -9.48689 0.319215 
-0.182773 0.319215 -9.47116 
-8.60841 -0.0166633 -0.545639 
-0.0166633 -9.79594 0.430897 
-0.545639 0.430897 -9.29524 
-8.92986 -0.640025 -0.232718 
-0.640025 -9.14247 0.0430531 
-0.232718 0.0430531 -9.62726 
-8.94651 -0.0682148 -0.569313 
-0.0682148 -9.42224 0.201013 
-0.569313 0.201013 -9.33085 
-9.20962 0.126821 -0.493866 
0.126821 -9.33071 0.0772791 
-0.493866 0.0772791 -9.71429 
-8.80757 -0.00743302 -0.52678 
-0.00743302 -9.18063 0.12323 
-0.52678 0.12323 -10.2664 
-9.15521 0.10719 -0.725861 
0.10719 -9.13537 0.0932338 
-0.725861 0.0932338 -9.96404 
-9.12062 0.305346 -0.712431 
0.305346 -9.32739 -0.0549531 
-0.712431 -0.0549531 -9.8066 
-9.84805 0.0211633 0.405796 
0.0211633 -9.89215 -0.0852148 
0.405796 -0.0852148 -9.95832 
-9.88231 0.0118478 0.432757 
0.0118478 -9.85708 -0.113011 
0.432757 -0.113011 -9.95913 
-9.8833 0.00943594 0.419686 
0.00943594 -9.87771 -0.102563 
0.419686 -0.102563 -9.93751 
-9.8675 -0.00296275 0.443856 
-0.00296275 -9.88369 -0.141786 
0.443856 -0.141786 -9.94732 
-7.14247 1.58921 -2.07851 
1.58921 -7.43081 -2.22084 
-2.07851 -2.22084 -4.55439 
-7.97202 0.103305 -2.95488 
0.103305 -6.31134 -3.04522 
-2.95488 -3.04522 -4.8443 
-8.42761 -0.00684451 -1.80336 
-0.00684451 -7.2766 -2.60904 
-1.80336 -2.60904 -3.42346 
-7.84209 -0.285423 -1.68215 
-0.285423 -6.61693 -3.38904 
-1.68215 -3.38904 -4.66865 
-9.01309 0.0389742 0.275007 
0.0389742 -9.02761 0.540807 
0.275007 0.540807 -8.89986 
-9.21957 -0.0290346 0.0522084 
-0.0290346 -9.03941 1.07466 
0.0522084 1.07466 -8.68158 
-9.05447 0.0161185 -0.128238 
0.0161185 -8.94872 0.812327 
-0.128238 0.812327 -8.93737 
-9.04272 0.00462104 -0.0753756 
0.00462104 -9.01501 0.845667 
-0.0753756 0.845667 -8.88283 
-9.94999 -0.0130133 0.00764964 
-0.0130133 -9.9967 -0.632747 
0.00764964 -0.632747 -9.91047 
-9.85612 0.00983902 0.000828394 
0.00983902 -9.85219 -0.647805 
0.000828394 -0.647805 -10.1488 
-9.98753 -0.00790656 0.00261855 
-0.00790656 -9.9871 -0.6846 
0.00261855 -0.6846 -9.88253 
-9.95562 0.00603982 -0.0043207 
0.00603982 -9.98548 -0.638887 
-0.0043207 -0.638887 -9.91606 
-8.66748 -0.148177 -0.261259 
-0.148177 -7.42293 1.60179 
-0.261259 1.60179 -9.53581 
-8.24098 -0.499907 1.00398 
-0.499907 -7.17699 1.1155 
1.00398 1.1155 -10.2082 
-8.77285 -0.398664 -0.0670517 
-0.398664 -7.17252 0.666713 
-0.0670517 0.666713 -9.68086 
-8.91872 0.0658955 -0.556079 
0.0658955 -7.08155 1.55903 
-0.556079 1.55903 -9.62595 
-9.89575 0.00419884 0.494392 
0.00419884 -9.88631 0.235166 
0.494392 0.235166 -10.0927 
-9.97458 -0.00936512 0.538606 
-0.00936512 -10.0153 0.192602 
0.538606 0.192602 -9.88481 
-9.99168 -0.0312905 0.510523 
-0.0312905 -9.9169 0.202662 
0.510523 0.202662 -9.96615 
-9.98146 -0.012937 0.503782 
-0.012937 -9.98636 0.16189 
0.503782 0.16189 -9.90691 
-13.9357 2.35718 0.63944 
2.35718 -11.7327 -0.00255621 
0.63944 -0.00255621 -13.2758 
-12.6495 0.689316 0.33707 
0.689316 -10.2217 0.356269 
0.33707 0.356269 -16.073 
-10.6787 0.759838 -0.615913 
0.759838 -9.18348 2.32754 
-0.615913 2.32754 -19.082 
-12.8251 -0.498275 1.3419 
-0.498275 -9.64786 -1.21215 
1.3419 -1.21215 -16.4713 
-10.9508 -0.279826 0.104193 
-0.279826 -10.8861 -0.406105 
0.104193 -0.406105 -11.6139 
-11.201 -0.290709 0.192228 
-0.290709 -11.3079 -0.236937 
0.192228 -0.236937 -10.9419 
-10.2884 -0.190674 -0.217728 
-0.190674 -10.1699 -0.07359 
-0.217728 -0.07359 -12.9925 
-11.3382 -0.570308 0.18624 
-0.570308 -10.9785 -1.27082 
0.18624 -1.27082 -11.1341 
-9.96416 0.00699837 0.244676 
0.00699837 -9.95687 0.367209 
0.244676 0.367209 -10.0103 
-9.94291 -0.0187045 0.257179 
-0.0187045 -10.0152 0.400129 
0.257179 0.400129 -9.9732 
-9.97929 -0.0292358 0.24525 
-0.0292358 -9.99218 0.396736 
0.24525 0.396736 -9.95984 
-9.99484 -0.0189949 0.250481 
-0.0189949 -10.0021 0.409994 
0.250481 0.409994 -9.93438 
-9.51802 0.38844 0.363969 
0.38844 -9.49511 0.0559941 
0.363969 0.0559941 -9.1567 
-8.57702 -0.297644 0.544566 
-0.297644 -9.79251 -0.283788 
0.544566 -0.283788 -9.8003 
-8.48323 -0.363781 0.213143 
-0.363781 -9.94705 -0.338363 
0.213143 -0.338363 -9.73955 
-8.58244 0.611017 0.575371 
0.611017 -9.90969 -0.0785298 
0.575371 -0.0785298 -9.6777 
-9.60343 0.0134904 -0.127342 
0.0134904 -9.48393 0.338703 
-0.127342 0.338703 -8.9896 
-9.31378 -0.00298254 -0.107362 
-0.00298254 -9.55901 0.465843 
-0.107362 0.465843 -9.20417 
-9.58777 -0.0537855 -0.218685 
-0.0537855 -9.49708 0.296054 
-0.218685 0.296054 -8.9921 
-9.56904 0.0173283 -0.301661 
0.0173283 -9.63319 0.318628 
-0.301661 0.318628 -8.87472 
-9.64297 0.0511697 0.140012 
0.0511697 -9.68255 -0.0519986 
0.140012 -0.0519986 -9.87022 
-9.54485 -0.0242714 0.0944448 
-0.0242714 -9.76316 -0.0620777 
0.0944448 -0.0620777 -9.88772 
-9.91618 0.0855173 0.035699 
0.0855173 -9.5663 0.0084316 
0.035699 0.0084316 -9.71325 
-9.63141 0.166683 0.156585 
0.166683 -9.71141 -0.00825821 
0.156585 -0.00825821 -9.85292 
-9.71068 -0.087407 -0.376579 
-0.087407 -9.79694 -0.616803 
-0.376579 -0.616803 -9.52163 
-9.60953 -0.00457047 -0.383623 
-0.00457047 -9.65021 -0.590595 
-0.383623 -0.590595 -9.7695 
-9.6647 0.0480248 -0.400098 
0.0480248 -9.71917 -0.535511 
-0.400098 -0.535511 -9.64537 
-9.6701 0.0226174 -0.331346 
0.0226174 -9.71985 -0.483898 
-0.331346 -0.483898 -9.63929 
-9.07821 -0.121341 -0.462093 
-0.121341 -9.44732 -0.998815 
-0.462093 -0.998815 -8.74009 
-9.16595 -0.00144501 -0.38589 
-0.00144501 -9.01878 -0.858679 
-0.38589 -0.858679 -9.08088 
-9.21858 0.150902 -0.238454 
0.150902 -8.92928 -0.895694 
-0.238454 -0.895694 -9.11775 
-9.29212 -0.103838 -0.457777 
-0.103838 -9.12182 -0.725307 
-0.457777 -0.725307 -8.85167 
-12.1997 0.881071 -0.235369 
0.881071 -10.67 -1.17597 
-0.235369 -1.17597 -18.6046 
-14.5711 2.02159 -0.152097 
2.02159 -12.6179 -0.421194 
-0.152097 -0.421194 -14.2853 
-11.5785 0.699971 0.375157 
0.699971 -9.00435 0.94122 
0.375157 0.94122 -20.8915 
-13.6628 0.788892 -0.93879 
0.788892 -11.8261 -0.133807 
-0.93879 -0.133807 -15.9854 
-9.90056 -0.00784179 -0.00747909 
-0.00784179 -9.8637 0.0623891 
-0.00747909 0.0623891 -10.0461 
-9.92734 -0.00028751 -0.0281888 
-0.00028751 -9.91759 0.0249615 
-0.0281888 0.0249615 -9.96542 
-9.92946 0.00756013 -0.012775 
0.00756013 -9.94785 0.0318715 
-0.012775 0.0318715 -9.93304 
-9.95796 0.016903 -0.0122989 
0.016903 -9.92945 0.00181599 
-0.0122989 0.00181599 -9.92294 
-9.93141 -0.00469794 -0.512415 
-0.00469794 -9.93826 0.0274846 
-0.512415 0.0274846 -9.96815 
-9.90248 -0.00226177 -0.511166 
-0.00226177 -9.94754 0.0111077 
-0.511166 0.0111077 -9.98781 
-9.92543 -0.0234501 -0.492012 
-0.0234501 -9.93273 0.0158608 
-0.492012 0.0158608 -9.97967 
-9.93936 -0.00684218 -0.515247 
-0.00684218 -9.95399 0.0174523 
-0.515247 0.0174523 -9.94448 
-9.25598 -0.174921 0.533893 
-0.174921 -9.55906 0.096904 
0.533893 0.096904 -9.33526 
-9.75184 -0.425328 0.701517 
-0.425328 -9.44335 0.156418 
0.701517 0.156418 -8.9551 
-8.95822 0.026531 0.660124 
0.026531 -9.55776 0.152382 
0.660124 0.152382 -9.63431 
-9.38587 -0.113744 0.358467 
-0.113744 -9.49816 -0.114371 
0.358467 -0.114371 -9.26626 
-9.94883 0.07099 -0.35641 
0.07099 -9.78859 -0.516619 
-0.35641 -0.516619 -9.9841 
-9.88974 -0.0469787 -0.370276 
-0.0469787 -9.93448 -0.494979 
-0.370276 -0.494979 -9.89729 
-9.93835 0.0192048 -0.348085 
0.0192048 -9.90186 -0.522601 
-0.348085 -0.522601 -9.88131 
-9.87307 -0.0230332 -0.384681 
-0.0230332 -9.96838 -0.537358 
-0.384681 -0.537358 -9.88007 
-9.23492 -0.773598 -3.29098 
-0.773598 -7.00685 1.22395 
-3.29098 1.22395 -3.00672 
-5.61427 0.759726 -2.7487 
0.759726 -8.72377 0.893208 
-2.7487 0.893208 -4.91045 
-7.64495 -0.874562 -2.93022 
-0.874562 -6.78761 1.12406 
-2.93022 1.12406 -4.81593 
-7.27983 -0.605641 -3.1748 
-0.605641 -6.72902 -1.01582 
-3.1748 -1.01582 -5.23963 
-7.07849 1.08381 0.143649 
1.08381 -9.51586 1.11228 
0.143649 1.11228 -6.70145 
-8.28447 -0.320103 -0.166711 
-0.320103 -6.71796 1.54617 
-0.166711 1.54617 -8.29339 
-8.18914 -0.911628 -0.340432 
-0.911628 -6.6444 1.50001 
-0.340432 1.50001 -8.46226 
-8.70821 -0.144416 -0.532079 
-0.144416 -7.018 2.58834 
-0.532079 2.58834 -7.5696 
-9.9269 -0.0308938 0.0896644 
-0.0308938 -9.87066 -0.119958 
0.0896644 -0.119958 -10.3199 
-10.0578 -0.0540106 0.00763709 
-0.0540106 -9.86707 -0.176905 
0.00763709 -0.176905 -10.1926 
-10.272 0.0536022 0.0990097 
0.0536022 -10.1558 0.0217801 
0.0990097 0.0217801 -9.68965 
-10.1929 0.0158278 -0.104572 
0.0158278 -9.87666 -0.0333409 
-0.104572 -0.0333409 -10.0479 
-8.89505 0.187864 -0.52422 
0.187864 -9.3313 0.791008 
-0.52422 0.791008 -8.65054 
-8.83441 -0.390374 -0.384094 
-0.390374 -9.06855 0.673231 
-0.384094 0.673231 -8.97394 
-8.80028 -0.0938139 -0.381679 
-0.0938139 -9.01274 0.752225 
-0.381679 0.752225 -9.06388 
-9.08891 -0.20627 -0.403921 
-0.20627 -8.99628 0.588703 
-0.403921 0.588703 -8.7917 
-9.49823 -0.164178 -0.40415 
-0.164178 -9.63121 -0.720833 
-0.40415 -0.720833 -9.28664 
-9.62386 -0.0554681 -0.238514 
-0.0554681 -9.54278 -0.770987 
-0.238514 -0.770987 -9.24944 
-9.22596 0.0518694 -0.352702 
0.0518694 -9.53406 -0.421297 
-0.352702 -0.421297 -9.65606 
-9.59365 0.0328473 -0.116422 
0.0328473 -9.91093 -0.617306 
-0.116422 -0.617306 -8.91151 
-13.4041 -3.23431 0.257594 
-3.23431 -14.4723 6.68945 
0.257594 6.68945 8.90305 
1.04695 -0.359854 -2.3984 
-0.359854 -0.00198858 -4.85526 
-2.3984 -4.85526 -20.0184 
-9.7526 -0.706653 3.89677 
-0.706653 -15.579 4.62149 
3.89677 4.62149 6.35814 
-8.91063 6.88466 6.44285 
6.88466 4.63443 14.3464 
6.44285 14.3464 -14.6972 
-11.4568 1.50521 6.36071 
1.50521 -4.71908 2.95848 
6.36071 2.95848 -7.9073 
-5.8861 -0.985275 7.01656 
-0.985275 -12.3933 2.52527 
7.01656 2.52527 -5.80373 
-9.07541 1.99665 2.21008 
1.99665 -7.14865 -0.160492 
2.21008 -0.160492 -7.85911 
-6.71143 0.0121409 2.62771 
0.0121409 -8.40057 -0.273824 
2.62771 -0.273824 -8.97117 
-9.09277 -0.192881 0.556322 
-0.192881 -9.59715 -0.0559479 
0.556322 -0.0559479 -8.89495 
-8.79272 0.191095 0.791995 
0.191095 -9.5184 0.0157144 
0.791995 0.0157144 -9.27375 
-9.07794 -0.17809 1.57324 
-0.17809 -9.45875 -0.492407 
1.57324 -0.492407 -9.04818 
-8.8207 -0.110331 0.693025 
-0.110331 -7.9287 -0.479574 
0.693025 -0.479574 -10.8355 
-6.90342 -0.891892 1.93729 
-0.891892 -6.85808 -1.59724 
1.93729 -1.59724 2.00429 
-0.973762 0.220319 -3.18516 
0.220319 -1.70905 -0.353446 
-3.18516 -0.353446 -9.07441 
-8.72749 -0.240607 0.401273 
-0.240607 -8.10999 0.146776 
0.401273 0.146776 5.08026 
-7.56026 -1.12884 -1.05576 
-1.12884 -4.79438 -6.33236 
-1.05576 -6.33236 0.597422 
-10.8608 -0.416938 0.091915 
-0.416938 -10.8272 -0.395515 
0.091915 -0.395515 -11.428 
-10.5723 0.0186253 -0.105454 
0.0186253 -10.5813 -0.192192 
-0.105454 -0.192192 -11.9623 
-11.029 -0.0666889 0.0869197 
-0.0666889 -10.7389 -0.26293 
0.0869197 -0.26293 -11.3481 
-11.0015 -0.0770349 0.135243 
-0.0770349 -10.921 -0.570062 
0.135243 -0.570062 -11.1935 
-9.44458 0.0343683 -0.358268 
0.0343683 -9.62047 0.206411 
-0.358268 0.206411 -9.73505 
-9.47282 0.0359269 -0.344847 
0.0359269 -9.5682 0.192913 
-0.344847 0.192913 -9.75907 
-9.42368 0.0288987 -0.352872 
0.0288987 -9.57277 0.17498 
-0.352872 0.17498 -9.80364 
-9.52991 -0.0485895 -0.333864 
-0.0485895 -9.53716 0.253809 
-0.333864 0.253809 -9.73303 
-8.12732 0.330963 -0.762317 
0.330963 -9.75515 -0.371314 
-0.762317 -0.371314 -9.73672 
-9.59954 -1.03599 -0.134406 
-1.03599 -9.25945 0.125114 
-0.134406 0.125114 -8.76021 
-8.11939 0.295702 -0.295613 
0.295702 -9.91139 -0.473447 
-0.295613 -0.473447 -9.58842 
-7.5772 -0.946821 -0.907544 
-0.946821 -10.3682 0.170788 
-0.907544 0.170788 -9.6738 
-9.47423 0.0503415 0.477956 
0.0503415 -9.39429 0.620209 
0.477956 0.620209 -9.43379 
-9.47689 -0.051622 0.430342 
-0.051622 -9.51964 0.610725 
0.430342 0.610725 -9.30579 
-9.36434 -0.119986 0.347612 
-0.119986 -9.54634 0.608519 
0.347612 0.608519 -9.39163 
-9.54583 -0.0606864 0.426227 
-0.0606864 -9.43891 0.67465 
0.426227 0.67465 -9.31757 
-9.58519 -0.008702 -0.465032 
-0.008702 -9.73987 0.0088555 
-0.465032 0.0088555 -9.7216 
-9.69805 -0.0390923 -0.506444 
-0.0390923 -9.64993 -0.0433402 
-0.506444 -0.0433402 -9.69868 
-9.67341 -0.02138 -0.501623 
-0.02138 -9.65649 -0.0161402 
-0.501623 -0.0161402 -9.71676 
-9.65971 -0.00498335 -0.519624 
-0.00498335 -9.64464 -0.00748409 
-0.519624 -0.00748409 -9.74232 
-9.75652 0.0350189 0.416909 
0.0350189 -9.74495 -0.12938 
0.416909 -0.12938 -9.88411 
-9.78461 0.0404825 0.428206 
0.0404825 -9.72415 -0.125071 
0.428206 -0.125071 -9.87682 
-9.75118 0.0498564 0.403417 
0.0498564 -9.76884 -0.13049 
0.403417 -0.13049 -9.86556 
-9.77032 -0.00515496 0.420215 
-0.00515496 -9.78129 -0.131608 
0.420215 -0.131608 -9.83397 
-7.07098 -0.881429 -6.91563 
-0.881429 -10.173 2.26185 
-6.91563 2.26185 -5.49827 
-3.25937 -1.47831 -2.82152 
-1.47831 -9.79373 0.0337511 
-2.82152 0.0337511 -9.68915 
-6.646 0.414293 -4.15072 
0.414293 -8.79298 1.24101 
-4.15072 1.24101 -7.30327 
-10.3449 1.59852 -1.20496 
1.59852 -6.75362 -0.111174 
-1.20496 -0.111174 -5.64372 
-8.69248 -0.112475 1.09883 
-0.112475 -8.87388 0.100731 
1.09883 0.100731 -8.35701 
-8.6505 0.123271 1.03298 
0.123271 -9.13414 0.215007 
1.03298 0.215007 -8.13873 
-8.78302 0.0912636 1.13208 
0.0912636 -9.26612 0.148706 
1.13208 0.148706 -7.87423 
-8.64648 0.299884 0.837968 
0.299884 -9.18311 0.380503 
0.837968 0.380503 -8.09379 
-9.55477 -0.0580368 0.418154 
-0.0580368 -9.65205 -0.515775 
0.418154 -0.515775 -9.59193 
-9.53218 -0.068637 0.391572 
-0.068637 -9.69586 -0.513348 
0.391572 -0.513348 -9.57071 
-9.51458 0.135051 0.384546 
0.135051 -9.7787 -0.474175 
0.384546 -0.474175 -9.50548 
-9.50472 -0.0460253 0.42052 
-0.0460253 -9.74788 -0.556558 
0.42052 -0.556558 -9.54616 
-9.66326 0.0137967 0.0392207 
0.0137967 -9.62452 0.683065 
0.0392207 0.683065 -9.60106 
-9.63125 0.0291634 0.0451399 
0.0291634 -9.79802 0.827576 
0.0451399 0.827576 -9.45957 
-9.68308 -0.0625003 -0.0256272 
-0.0625003 -9.33466 0.634049 
-0.0256272 0.634049 -9.8711 
-9.63103 0.0124161 0.112364 
0.0124161 -9.74639 0.66704 
0.112364 0.66704 -9.51142 
-9.24485 -0.0284938 0.262221 
-0.0284938 -9.38547 0.69438 
0.262221 0.69438 -9.24337 
-9.1816 -0.00605557 0.322354 
-0.00605557 -9.45405 0.692553 
0.322354 0.692553 -9.23804 
-9.34022 0.202431 0.168109 
0.202431 -9.11119 0.686014 
0.168109 0.686014 -9.42228 
-9.19861 -0.0762765 0.217629 
-0.0762765 -9.42083 0.571274 
0.217629 0.571274 -9.25425 
-9.92374 0.00716386 0.333685 
0.00716386 -9.90043 -0.0584172 
0.333685 -0.0584172 -9.96619 
-9.88322 -0.00171205 0.351676 
-0.00171205 -9.89898 -0.0762001 
0.351676 -0.0762001 -10.0081 
-9.9098 0.0151103 0.34706 
0.0151103 -9.91595 -0.0502868 
0.34706 -0.0502868 -9.9646 
-9.93734 -0.00539494 0.340479 
-0.00539494 -9.90923 -0.0369113 
0.340479 -0.0369113 -9.94377 
-7.92261 0.478809 1.18128 
0.478809 -7.7797 1.19367 
1.18128 1.19367 -7.90349 
-8.9475 -0.179824 0.992415 
-0.179824 -7.81114 0.828173 
0.992415 0.828173 -6.84718 
-8.27182 0.358082 1.01788 
0.358082 -7.70673 0.99835 
1.01788 0.99835 -7.62726 
-8.22511 0.300615 0.847803 
0.300615 -7.78705 1.04523 
0.847803 1.04523 -7.59365 
-7.6267 2.09032 3.7278 
2.09032 -6.60404 -0.120167 
3.7278 -0.120167 1.31078 
-3.53763 -0.800008 -0.0813269 
-0.800008 -1.15983 -1.70452 
-0.0813269 -1.70452 -8.2225 
-10.6165 0.37018 3.41975 
0.37018 -7.93866 -1.34353 
3.41975 -1.34353 5.63519 
-1.69586 -0.45482 6.66401 
-0.45482 -7.15294 -2.59466 
6.66401 -2.59466 -4.07116 
-9.63019 -0.0453508 0.00400781 
-0.0453508 -10.074 -0.0107204 
0.00400781 -0.0107204 -9.78168 
-9.89036 0.180865 -0.0736976 
0.180865 -9.71925 0.0738499 
-0.0736976 0.0738499 -9.87631 
-9.90771 0.102073 -0.0543052 
0.102073 -9.84424 0.0760171 
-0.0543052 0.0760171 -9.73397 
-9.6459 -0.02033 -0.155084 
-0.02033 -9.97379 0.000460385 
-0.155084 0.000460385 -9.86623 
-9.87515 -0.0227876 0.0944993 
-0.0227876 -9.86226 0.406544 
0.0944993 0.406544 -9.80435 
-9.79046 0.0742001 0.210922 
0.0742001 -9.80715 0.347667 
0.210922 0.347667 -9.94415 
-9.88501 0.0456857 0.0160475 
0.0456857 -9.94732 0.369666 
0.0160475 0.369666 -9.70942 
-9.82129 -0.0031773 0.154657 
-0.0031773 -9.89965 0.394356 
0.154657 0.394356 -9.82081 
-10.9884 0.563199 0.721763 
0.563199 -8.59805 1.76552 
0.721763 1.76552 -16.1868 
-11.6211 -1.94721 -2.51246 
-1.94721 -15.0826 -0.59733 
-2.51246 -0.59733 -9.06961 
-7.98898 0.327194 -0.127191 
0.327194 -11.1662 1.1434 
-0.127191 1.1434 -16.6181 
-8.83219 1.55244 -0.407084 
1.55244 -11.8817 -1.92535 
-0.407084 -1.92535 -15.0594 
-9.86405 0.0307619 0.292489 
0.0307619 -9.86041 -0.0881779 
0.292489 -0.0881779 -10.0633 
-9.9156 -0.00536746 0.30012 
-0.00536746 -9.90919 -0.0421878 
0.30012 -0.0421878 -9.96296 
-9.94812 0.0132698 0.287589 
0.0132698 -9.93586 -0.0469332 
0.287589 -0.0469332 -9.90377 
-9.94528 0.0194108 0.281254 
0.0194108 -9.89294 0.000630835 
0.281254 0.000630835 -9.94953 
-9.73056 -0.0101992 1.66917 
-0.0101992 -7.95642 1.20831 
1.66917 1.20831 -8.69633 
-9.05367 -0.57655 1.31553 
-0.57655 -9.36041 0.53061 
1.31553 0.53061 -7.96922 
-9.19247 0.960863 1.18456 
0.960863 -10.1672 0.736825 
1.18456 0.736825 -7.02363 
-8.37424 0.749629 0.715634 
0.749629 -8.97784 0.720806 
0.715634 0.720806 -9.03123 
-9.70704 0.0148581 -0.466443 
0.0148581 -9.70562 0.112235 
-0.466443 0.112235 -9.66129 
-9.71191 0.011925 -0.458102 
0.011925 -9.66154 0.12673 
-0.458102 0.12673 -9.70049 
-9.55047 -0.0550227 -0.498178 
-0.0550227 -9.7161 0.149587 
-0.498178 0.149587 -9.80737 
-9.65642 0.0152763 -0.391891 
0.0152763 -9.65494 0.0831351 
-0.391891 0.0831351 -9.76258 
-9.99077 -0.0191072 0.271983 
-0.0191072 -9.97156 -0.00685223 
0.271983 -0.00685223 -9.95797 
-9.91934 -0.010311 0.271208 
-0.010311 -9.92706 -0.0238442 
0.271208 -0.0238442 -10.0739 
-10.0005 -0.00266288 0.268796 
-0.00266288 -9.96761 -0.00364803 
0.268796 -0.00364803 -9.95219 
-9.99517 0.00235021 0.295312 
0.00235021 -9.99357 0.00626571 
0.295312 0.00626571 -9.93155 
-9.92313 0.0100072 -0.0189099 
0.0100072 -9.9578 0.653051 
-0.0189099 0.653051 -9.97054 
-9.96143 -0.0206758 -0.0028182 
-0.0206758 -9.97411 0.659349 
-0.0028182 0.659349 -9.91593 
-9.88625 0.00358419 -0.0114963 
0.00358419 -9.89067 0.642082 
-0.0114963 0.642082 -10.0746 
-9.94758 -0.00869191 -0.0181111 
-0.00869191 -9.98508 0.627483 
-0.0181111 0.627483 -9.91881 
-9.46122 0.191342 -0.342221 
0.191342 -9.57035 0.148955 
-0.342221 0.148955 -9.50461 
-9.20878 -0.119752 -0.282877 
-0.119752 -9.56075 0.182194 
-0.282877 0.182194 -9.76664 
-9.41052 -0.00560559 -0.310238 
-0.00560559 -9.57671 0.228674 
-0.310238 0.228674 -9.54894 
-9.48257 0.0121521 -0.385312 
0.0121521 -9.42738 0.214461 
-0.385312 0.214461 -9.62623 
-8.55063 0.120632 -0.0636711 
0.120632 -7.25363 -1.44927 
-0.0636711 -1.44927 -8.72286 
-8.46331 -0.87273 -0.295626 
-0.87273 -8.63214 -1.134 
-0.295626 -1.134 -7.43167 
-8.18503 -0.615407 -0.0165691 
-0.615407 -8.59437 -0.919925 
-0.0165691 -0.919925 -7.74773 
-8.77668 -0.560744 0.385568 
-0.560744 -7.64281 -0.863085 
0.385568 -0.863085 -8.10763 
-9.83586 0.000746655 -0.491031 
0.000746655 -9.78946 -0.0288743 
-0.491031 -0.0288743 -9.85729 
-9.81009 0.0128657 -0.494561 
0.0128657 -9.84345 -0.0101587 
-0.494561 -0.0101587 -9.82907 
-9.80002 -0.000499394 -0.512152 
-0.000499394 -9.80691 -0.0179387 
-0.512152 -0.0179387 -9.87569 
-9.82122 0.0044655 -0.518633 
0.0044655 -9.82646 -0.03225 
-0.518633 -0.03225 -9.83493 
-9.97797 -0.00469093 0.4894 
-0.00469093 -9.91589 -0.0229223 
0.4894 -0.0229223 -9.99139 
-9.94233 -0.00910431 0.476893 
-0.00910431 -9.93022 -0.0175439 
0.476893 -0.0175439 -10.0127 
-9.9732 -0.0163407 0.487729 
-0.0163407 -9.96304 -0.0063565 
0.487729 -0.0063565 -9.949 
-9.96896 -0.00234138 0.472945 
-0.00234138 -9.96671 -0.0199136 
0.472945 -0.0199136 -9.94957 
-9.38182 -0.046186 0.543463 
-0.046186 -9.53847 -0.016895 
0.543463 -0.016895 -9.68489 
-9.55715 -0.164283 0.410064 
-0.164283 -9.49772 0.0559334 
0.410064 0.0559334 -9.55029 
-9.72276 -0.242337 0.400234 
-0.242337 -9.48845 -0.0160512 
0.400234 -0.0160512 -9.39396 
-9.44814 -0.102852 0.392748 
-0.102852 -9.51159 -0.120033 
0.392748 -0.120033 -9.64544 
-9.94423 0.00657876 -0.351026 
0.00657876 -9.9462 0.142001 
-0.351026 0.142001 -9.96697 
-9.90449 -0.00444862 -0.348812 
-0.00444862 -9.95031 0.152621 
-0.348812 0.152621 -10.0026 
-9.94989 -0.00396103 -0.358193 
-0.00396103 -9.93252 0.131793 
-0.358193 0.131793 -9.975 
-9.95369 0.0036695 -0.361834 
0.0036695 -9.95063 0.130898 
-0.361834 0.130898 -9.95308 
-9.91991 -0.0453174 0.560875 
-0.0453174 -9.94889 0.187138 
0.560875 0.187138 -9.91088 
-9.88156 0.0357363 0.510244 
0.0357363 -9.93167 0.200085 
0.510244 0.200085 -9.96645 
-9.88211 0.0346516 0.491087 
0.0346516 -9.96845 0.183879 
0.491087 0.183879 -9.92912 
-9.92725 -0.0256386 0.544536 
-0.0256386 -9.92481 0.16813 
0.544536 0.16813 -9.92762 
-9.97142 -0.0228313 0.155484 
-0.0228313 -9.99445 0.342147 
0.155484 0.342147 -9.87016 
-9.89887 0.0223497 0.16122 
0.0223497 -9.83417 0.29966 
0.16122 0.29966 -10.103 
-9.95669 -0.0243463 0.119655 
-0.0243463 -9.90507 0.310803 
0.119655 0.310803 -9.97426 
-9.94065 -0.0216565 0.125314 
-0.0216565 -10.0146 0.280439 
0.125314 0.280439 -9.88079 
-8.7813 -0.182018 -1.70797 
-0.182018 -8.62886 0.77786 
-1.70797 0.77786 -8.44347 
-8.53191 0.333816 -0.968172 
0.333816 -8.85591 -0.597078 
-0.968172 -0.597078 -8.46581 
-8.07235 -0.550881 -3.17073 
-0.550881 -10.096 -0.0642155 
-3.17073 -0.0642155 -7.68528 
-8.08608 -0.229061 -1.28401 
-0.229061 -9.20622 0.529741 
-1.28401 0.529741 -8.56132 
-9.51548 0.0725353 0.182871 
0.0725353 -9.26435 0.0841637 
0.182871 0.0841637 -10.0526 
-9.54474 0.101413 0.156631 
0.101413 -9.06709 0.138334 
0.156631 0.138334 -10.2206 
-9.57831 0.0688986 0.117831 
0.0688986 -9.12375 0.0144423 
0.117831 0.0144423 -10.1304 
-9.69169 0.060021 0.0211087 
0.060021 -9.00969 -0.282258 
0.0211087 -0.282258 -10.1311 
-7.87959 -0.30532 -0.217142 
-0.30532 -9.47148 0.525539 
-0.217142 0.525539 -9.12748 
-7.80836 -0.941552 -0.368346 
-0.941552 -9.3958 1.05843 
-0.368346 1.05843 -9.27439 
-8.76493 -0.548597 -0.140238 
-0.548597 -8.74016 1.09534 
-0.140238 1.09534 -8.97347 
-8.65771 -0.729569 0.0529056 
-0.729569 -8.50458 1.02667 
0.0529056 1.02667 -9.31627 
-9.97268 0.0139621 -0.294681 
0.0139621 -9.93863 -0.0853595 
-0.294681 -0.0853595 -9.97532 
-9.95589 0.00386802 -0.258317 
0.00386802 -9.90255 -0.0942235 
-0.258317 -0.0942235 -10.0282 
-9.97987 0.00550864 -0.282476 
0.00550864 -9.96309 -0.0843865 
-0.282476 -0.0843865 -9.94367 
-9.98293 -0.00526345 -0.292616 
-0.00526345 -9.97624 -0.0744513 
-0.292616 -0.0744513 -9.92746 
-10.6254 -0.0785622 0.0627133 
-0.0785622 -10.391 -0.211111 
0.0627133 -0.211111 -11.2297 
-10.2853 0.0901124 0.273518 
0.0901124 -9.86799 0.653784 
0.273518 0.653784 -12.0928 
-11.3946 0.0261689 -0.00903644 
0.0261689 -11.1475 -0.455722 
-0.00903644 -0.455722 -9.70395 
-11.0604 -0.0591052 0.971327 
-0.0591052 -9.7992 -0.642837 
0.971327 -0.642837 -11.3865 
-9.87828 -0.00526098 -0.439631 
-0.00526098 -9.86541 -0.0282892 
-0.439631 -0.0282892 -9.9251 
-9.88702 -0.0106759 -0.445456 
-0.0106759 -9.88 -0.0122892 
-0.445456 -0.0122892 -9.90177 
-9.87592 -0.0113346 -0.458033 
-0.0113346 -9.86454 -0.00926681 
-0.458033 -0.00926681 -9.92834 
-9.87575 -0.0135939 -0.461564 
-0.0135939 -9.88593 -0.0105208 
-0.461564 -0.0105208 -9.90711 
-9.82764 0.0413445 0.139345 
0.0413445 -9.91861 0.076738 
0.139345 0.076738 -10.0138 
-9.96219 -0.0313092 -0.0444166 
-0.0313092 -10.0007 0.0686899 
-0.0444166 0.0686899 -9.79723 
-9.94116 0.0346858 -0.0119822 
0.0346858 -10.0066 0.0326401 
-0.0119822 0.0326401 -9.81231 
-9.78164 0.0530697 0.017653 
0.0530697 -9.98757 0.0807888 
0.017653 0.0807888 -9.99087 
-9.96293 0.00216955 -0.260625 
0.00216955 -10.0055 0.569925 
-0.260625 0.569925 -9.91952 
-9.9547 0.00455107 -0.261788 
0.00455107 -10.0139 0.527035 
-0.261788 0.527035 -9.9194 
-9.91083 0.00719997 -0.317296 
0.00719997 -9.92835 0.513256 
-0.317296 0.513256 -10.0488 
-9.94996 0.0205457 -0.275029 
0.0205457 -9.9922 0.538996 
-0.275029 0.538996 -9.94581 
-9.2491 0.00944283 0.14282 
0.00944283 -9.18196 0.424541 
0.14282 0.424541 -8.8504 
-9.28007 0.0672483 -8.77308e-05 
0.0672483 -9.38231 0.364264 
-8.77308e-05 0.364264 -8.61907 
-9.47114 0.0542333 0.030221 
0.0542333 -9.41693 0.334911 
0.030221 0.334911 -8.39338 
-9.2762 -0.0267655 -0.0654498 
-0.0267655 -9.24112 0.334819 
-0.0654498 0.334819 -8.76413 
-11.9359 -0.0941723 0.314476 
-0.0941723 -10.9382 0.562741 
0.314476 0.562741 -13.3042 
-12.3519 0.278741 0.210212 
0.278741 -11.1476 0.756339 
0.210212 0.756339 -12.6789 
-12.1466 0.544554 0.424364 
0.544554 -10.9862 0.924142 
0.424364 0.924142 -13.0456 
-11.9857 0.119039 0.348901 
0.119039 -11.1941 0.139293 
0.348901 0.139293 -12.9985 
-9.31033 -0.134275 -0.491329 
-0.134275 -9.62883 -0.35137 
-0.491329 -0.35137 -9.21264 
-9.16687 0.0469649 -0.582374 
0.0469649 -9.46023 -0.391082 
-0.582374 -0.391082 -9.52471 
-9.31887 -0.123927 -0.516901 
-0.123927 -9.47944 -0.277383 
-0.516901 -0.277383 -9.35349 
-9.1408 -0.0298564 -0.516379 
-0.0298564 -9.52459 -0.245794 
-0.516379 -0.245794 -9.48641 
-9.91122 -0.0473859 -0.42587 
-0.0473859 -9.91849 0.284234 
-0.42587 0.284234 -9.90299 
-9.91103 0.0203158 -0.468681 
0.0203158 -9.89215 0.28832 
-0.468681 0.28832 -9.92951 
-9.89615 -0.0200946 -0.454928 
-0.0200946 -9.89496 0.285533 
-0.454928 0.285533 -9.94159 
-9.89573 0.0255897 -0.458096 
0.0255897 -9.92829 0.296534 
-0.458096 0.296534 -9.90868 
-8.642 -0.474759 0.601114 
-0.474759 -9.66007 -0.520412 
0.601114 -0.520412 -9.08307 
-8.28672 -0.438385 0.426474 
-0.438385 -9.44982 -0.0312324 
0.426474 -0.0312324 -9.6486 
-8.64806 -0.117204 0.802625 
-0.117204 -9.40392 -0.431481 
0.802625 -0.431481 -9.33316 
-8.33804 -0.475951 0.384134 
-0.475951 -9.31331 -0.381629 
0.384134 -0.381629 -9.73379 
-8.85159 0.0503785 -0.253 
0.0503785 -9.34125 -0.74457 
-0.253 -0.74457 -8.33586 
-8.82974 0.0143054 -0.108265 
0.0143054 -9.12131 -0.586653 
-0.108265 -0.586653 -8.57767 
-8.60874 0.019312 -0.133237 
0.019312 -9.10914 -0.590134 
-0.133237 -0.590134 -8.81083 
-8.87087 0.04556 0.0240372 
0.04556 -9.18029 -0.441296 
0.0240372 -0.441296 -8.47754 
-9.00093 -0.24602 0.064837 
-0.24602 -8.73099 0.503387 
0.064837 0.503387 -9.18508 
-8.71444 -0.547918 0.209922 
-0.547918 -9.15827 0.211703 
0.209922 0.211703 -9.0443 
-9.08916 0.0908387 0.0874191 
0.0908387 -8.60319 0.730141 
0.0874191 0.730141 -9.22466 
-9.05009 -0.321786 -0.113365 
-0.321786 -8.51365 0.58236 
-0.113365 0.58236 -9.35326 
-9.71879 0.155998 0.02575 
0.155998 -9.7078 -0.0249996 
0.02575 -0.0249996 -9.86493 
-9.60924 -0.122685 0.121755 
-0.122685 -9.84428 -0.0443633 
0.121755 -0.0443633 -9.838 
-9.80346 0.108794 0.0455429 
0.108794 -9.80907 0.0216616 
0.0455429 0.0216616 -9.67898 
-9.60748 -0.110201 -0.0290613 
-0.110201 -9.91194 0.00879491 
-0.0290613 0.00879491 -9.7721 
-9.77496 -0.00958595 -0.463546 
-0.00958595 -9.78603 -0.0501979 
-0.463546 -0.0501979 -9.8541 
-9.76863 -0.000149446 -0.43717 
-0.000149446 -9.82776 -0.0755006 
-0.43717 -0.0755006 -9.81871 
-9.79261 -0.0576478 -0.459307 
-0.0576478 -9.81077 -0.0427304 
-0.459307 -0.0427304 -9.81171 
-9.79832 -0.00645273 -0.453994 
-0.00645273 -9.76727 -0.0351259 
-0.453994 -0.0351259 -9.8495 
-9.58956 -0.0169286 -0.397306 
-0.0169286 -9.75063 0.358744 
-0.397306 0.358744 -9.67966 
-9.54785 -0.0552464 -0.380963 
-0.0552464 -9.69537 0.407989 
-0.380963 0.407989 -9.77663 
-9.62553 0.00974719 -0.409721 
0.00974719 -9.77163 0.407489 
-0.409721 0.407489 -9.62268 
-9.6117 -0.0106798 -0.387322 
-0.0106798 -9.74525 0.352114 
-0.387322 0.352114 -9.6629 
-9.78176 -0.0541807 -0.0594018 
-0.0541807 -9.7286 -0.0384297 
-0.0594018 -0.0384297 -9.87415 
-9.75245 -0.0589802 -0.117638 
-0.0589802 -9.83508 0.0433485 
-0.117638 0.0433485 -9.79697 
-9.73657 0.0062909 0.102747 
0.0062909 -9.84774 -0.00105701 
0.102747 -0.00105701 -9.8002 
-9.66796 -0.0263509 -0.0407795 
-0.0263509 -9.72701 -0.0531585 
-0.0407795 -0.0531585 -9.98953 
-9.80291 -0.116724 -0.0320628 
-0.116724 -9.71733 -0.0984007 
-0.0320628 -0.0984007 -9.95076 
-9.76137 -0.084016 -0.0824465 
-0.084016 -9.81468 -0.00888803 
-0.0824465 -0.00888803 -9.89495 
-9.78311 0.0138868 0.171707 
0.0138868 -9.85212 -0.00357425 
0.171707 -0.00357425 -9.83577 
-9.68102 -0.0430664 -0.012537 
-0.0430664 -9.70266 -0.108389 
-0.012537 -0.108389 -10.0873 
-8.31655 -0.115539 1.50885 
-0.115539 -8.11403 -0.689705 
1.50885 -0.689705 -4.83788 
-8.47754 0.136999 1.36527 
0.136999 -7.82444 -0.478249 
1.36527 -0.478249 -4.96647 
-8.1972 0.0352657 1.49324 
0.0352657 -8.51807 -0.903244 
1.49324 -0.903244 -4.55319 
-7.00027 -0.149785 2.224 
-0.149785 -7.44497 -0.415663 
2.224 -0.415663 -6.82322 
-10.5857 -0.154574 -0.230211 
-0.154574 -11.0189 0.382817 
-0.230211 0.382817 -13.0976 
-11.0817 0.434509 0.339209 
0.434509 -11.1063 0.531189 
0.339209 0.531189 -12.5142 
-12.3187 0.283578 0.254616 
0.283578 -11.4202 0.291003 
0.254616 0.291003 -10.9633 
-11.1463 0.349951 1.13753 
0.349951 -11.4013 0.00743669 
1.13753 0.00743669 -12.1547 
-9.82329 0.0767572 -0.322928 
0.0767572 -9.69313 0.0764844 
-0.322928 0.0764844 -9.76063 
-9.8396 0.101206 -0.21976 
0.101206 -9.66046 0.0990184 
-0.21976 0.0990184 -9.77699 
-9.82428 -0.00572976 -0.256324 
-0.00572976 -9.60619 0.238178 
-0.256324 0.238178 -9.84658 
-9.82376 0.0233165 -0.264278 
0.0233165 -9.70512 0.0119232 
-0.264278 0.0119232 -9.74816 
-9.82739 -0.0204586 0.000457703 
-0.0204586 -9.80293 -0.00163473 
0.000457703 -0.00163473 -9.81065 
-9.81045 0.00707367 -0.00214047 
0.00707367 -9.78866 -0.00936469 
-0.00214047 -0.00936469 -9.84185 
-9.81697 -0.00990727 0.00751364 
-0.00990727 -9.78721 -0.0162678 
0.00751364 -0.0162678 -9.83678 
-9.83157 -0.00889896 -0.0144956 
-0.00889896 -9.82374 -0.0173254 
-0.0144956 -0.0173254 -9.78565 
-9.46875 0.645383 1.601 
0.645383 -9.32447 0.567268 
1.601 0.567268 -6.69572 
-8.41146 0.57475 1.2712 
0.57475 -9.08052 -0.12255 
1.2712 -0.12255 -7.99695 
-9.45596 0.608233 1.54584 
0.608233 -8.66654 0.357264 
1.54584 0.357264 -7.36644 
-8.49311 -0.0339929 0.705813 
-0.0339929 -8.87028 0.602696 
0.705813 0.602696 -8.12555 
-8.97017 0.493086 -0.729456 
0.493086 -8.23758 -1.31518 
-0.729456 -1.31518 -4.73144 
-8.24939 -0.209074 -0.735995 
-0.209074 -8.12296 -0.906863 
-0.735995 -0.906863 -5.56685 
-8.53763 0.560466 -0.543947 
0.560466 -8.13215 -1.22491 
-0.543947 -1.22491 -5.26942 
-8.68375 0.51622 -1.12238 
0.51622 -7.43809 -1.73369 
-1.12238 -1.73369 -5.81735 
-4.18294 0.00534681 -0.972689 
0.00534681 -3.68113 -0.830535 
-0.972689 -0.830535 0.298406 
-3.94263 0.493495 0.18529 
0.493495 -3.34289 -0.359938 
0.18529 -0.359938 -0.280143 
-2.88912 0.474027 0.629129 
0.474027 -2.40669 -0.893495 
0.629129 -0.893495 -2.26986 
-3.82579 0.513959 0.8713 
0.513959 -2.47618 -1.26418 
0.8713 -1.26418 -1.2637 
-9.83674 -0.0016708 -0.000585456 
-0.0016708 -9.88578 -0.0835258 
-0.000585456 -0.0835258 -9.79873 
-9.79816 0.0201029 0.0314695 
0.0201029 -9.90206 -0.0271552 
0.0314695 -0.0271552 -9.82103 
-9.8408 0.0273698 -0.0126737 
0.0273698 -9.90709 -0.0738588 
-0.0126737 -0.0738588 -9.77337 
-9.79743 0.0292638 -0.0566091 
0.0292638 -9.75897 0.0218581 
-0.0566091 0.0218581 -9.96486 
-9.69973 -0.00609116 0.132047 
-0.00609116 -9.79062 -0.332469 
0.132047 -0.332469 -9.65206 
-9.72413 -0.000775587 0.12628 
-0.000775587 -9.79803 -0.299362 
0.12628 -0.299362 -9.62024 
-9.7514 4.64704e-05 0.110232 
4.64704e-05 -9.82186 -0.26461 
0.110232 -0.26461 -9.56914 
-9.72608 -0.00392126 0.105488 
-0.00392126 -9.79382 -0.296844 
0.105488 -0.296844 -9.62251 
-9.67025 0.0144524 -0.311377 
0.0144524 -9.79459 0.58241 
-0.311377 0.58241 -9.57878 
-9.58125 0.0735919 -0.315234 
0.0735919 -9.73501 0.56258 
-0.315234 0.56258 -9.72736 
-9.65817 -0.0839698 -0.279517 
-0.0839698 -9.68235 0.622965 
-0.279517 0.622965 -9.7031 
-9.61269 -0.0561539 -0.320601 
-0.0561539 -9.77884 0.599967 
-0.320601 0.599967 -9.65209 
-4.36607 -0.112745 0.104402 
-0.112745 -4.66106 1.64915 
0.104402 1.64915 -0.659317 
-4.17798 -0.56467 -0.557284 
-0.56467 -4.96583 0.576881 
-0.557284 0.576881 -0.542639 
-3.81905 -0.339248 -0.737312 
-0.339248 -4.24706 1.22436 
-0.737312 1.22436 -1.62034 
-3.03973 -0.240214 -1.28326 
-0.240214 -4.36656 2.06311 
-1.28326 2.06311 -2.28016 
-8.80635 -0.300561 -0.76025 
-0.300561 -8.4727 0.544342 
-0.76025 0.544342 -8.84602 
-8.8295 -0.497666 -0.993142 
-0.497666 -8.53969 0.710267 
-0.993142 0.710267 -8.75588 
-8.98791 -0.240134 -1.05781 
-0.240134 -8.08587 0.77754 
-1.05781 0.77754 -9.05129 
-9.03145 -0.084223 -0.964872 
-0.084223 -8.18621 0.791317 
-0.964872 0.791317 -8.90741 
-8.92206 0.205577 0.510011 
0.205577 -9.42432 -0.401809 
0.510011 -0.401809 -8.88508 
-8.7548 0.0872125 0.618147 
0.0872125 -9.3308 -0.360609 
0.618147 -0.360609 -9.14586 
-8.65192 -0.186359 0.511413 
-0.186359 -9.27229 -0.266346 
0.511413 -0.266346 -9.30725 
-8.79644 0.0572289 0.782613 
0.0572289 -9.18055 -0.437725 
0.782613 -0.437725 -9.25447 
-9.82017 -0.0218379 0.166286 
-0.0218379 -9.85637 -0.61322 
0.166286 -0.61322 -9.77662 
-9.83038 -0.024106 0.161394 
-0.024106 -9.85392 -0.612931 
0.161394 -0.612931 -9.76887 
-9.78894 0.00525648 0.103418 
0.00525648 -9.81395 -0.549563 
0.103418 -0.549563 -9.85027 
-9.86143 -0.0237598 0.216906 
-0.0237598 -9.92392 -0.60757 
0.216906 -0.60757 -9.66781 
-9.45248 -0.0870321 0.644962 
-0.0870321 -9.3109 0.603836 
0.644962 0.603836 -8.98553 
-9.46766 0.0632245 0.515071 
0.0632245 -9.29132 0.425271 
0.515071 0.425271 -8.98993 
-9.31389 -0.0784761 0.467837 
-0.0784761 -9.37371 0.476705 
0.467837 0.476705 -9.06131 
-9.40382 -0.0162516 0.594439 
-0.0162516 -9.38506 0.705556 
0.594439 0.705556 -8.96003 
-9.80572 -0.0107007 -0.487228 
-0.0107007 -9.84285 -0.0261835 
-0.487228 -0.0261835 -9.87867 
-9.8012 -0.00766648 -0.51686 
-0.00766648 -9.86967 -0.00912046 
-0.51686 -0.00912046 -9.85638 
-9.80447 -0.00894866 -0.512558 
-0.00894866 -9.82428 -0.0434012 
-0.512558 -0.0434012 -9.8985 
-9.8156 -0.0236365 -0.511434 
-0.0236365 -9.81428 -0.0367729 
-0.511434 -0.0367729 -9.89736 
-9.9174 0.00981968 0.286291 
0.00981968 -9.93701 -0.503912 
0.286291 -0.503912 -10.052 
-9.96305 0.06322 0.31864 
0.06322 -9.97807 -0.493269 
0.31864 -0.493269 -9.96527 
-9.98793 0.00362591 0.364178 
0.00362591 -10.0201 -0.482033 
0.364178 -0.482033 -9.89834 
-9.98836 0.014045 0.347902 
0.014045 -9.99728 -0.462304 
0.347902 -0.462304 -9.92075 
-5.20938 -0.458387 0.82938 
-0.458387 -4.87755 1.0717 
0.82938 1.0717 -0.306203 
-1.84156 -0.0725582 0.278197 
-0.0725582 -2.18096 -0.510924 
0.278197 -0.510924 -6.37062 
-8.11502 -0.241254 -0.365452 
-0.241254 -8.85844 0.0209214 
-0.365452 0.0209214 6.58033 
-3.89876 -1.02534 4.47622 
-1.02534 -4.08255 3.69412 
4.47622 3.69412 -2.41183 
-11.0555 -0.0276037 0.177579 
-0.0276037 -11.1615 0.436277 
0.177579 0.436277 -10.4728 
-10.3371 0.198735 -0.312067 
0.198735 -10.5054 -0.326077 
-0.312067 -0.326077 -11.8473 
-10.8565 0.150762 0.21258 
0.150762 -10.9507 0.248627 
0.21258 0.248627 -10.8826 
-10.7994 0.581981 0.114358 
0.581981 -10.3241 0.505357 
0.114358 0.505357 -11.5663 
-5.76978 -1.08353 -0.636671 
-1.08353 -10.7582 -0.530172 
-0.636671 -0.530172 -18.4737 
-6.52018 -2.66636 -0.0552616 
-2.66636 -10.1092 0.867691 
-0.0552616 0.867691 -18.3723 
-9.46795 0.218024 -1.99758 
0.218024 -15.15 0.260252 
-1.99758 0.260252 -10.3837 
-9.77094 -0.501872 1.56093 
-0.501872 -10.9289 -0.940462 
1.56093 -0.940462 -14.3018 
-9.94319 0.0435967 -0.121321 
0.0435967 -9.88293 -0.227272 
-0.121321 -0.227272 -10.0527 
-9.99216 0.0115919 -0.0565205 
0.0115919 -9.88355 -0.257126 
-0.0565205 -0.257126 -10.0031 
-10.0159 0.00283145 -0.0999651 
0.00283145 -9.99817 -0.308758 
-0.0999651 -0.308758 -9.86479 
-9.98382 -0.0168721 -0.0729732 
-0.0168721 -10.0403 -0.265151 
-0.0729732 -0.265151 -9.85469 
-9.88774 -0.0097742 -0.531392 
-0.0097742 -9.92579 -0.0668612 
-0.531392 -0.0668612 -9.94079 
-9.88766 -0.00809611 -0.509309 
-0.00809611 -9.90058 -0.0812854 
-0.509309 -0.0812854 -9.96608 
-9.89396 -0.0149946 -0.51062 
-0.0149946 -9.92273 -0.0742327 
-0.51062 -0.0742327 -9.93762 
-9.91674 -0.0103423 -0.528557 
-0.0103423 -9.91646 -0.0651353 
-0.528557 -0.0651353 -9.92112 
-9.88613 0.00651223 0.365036 
0.00651223 -9.90578 0.528663 
0.365036 0.528663 -9.88263 
-9.84714 0.0829156 0.35881 
0.0829156 -9.87465 0.521797 
0.35881 0.521797 -9.95274 
-9.89799 -0.0124824 0.354906 
-0.0124824 -9.89794 0.548043 
0.354906 0.548043 -9.8786 
-9.88613 -0.0250843 0.341881 
-0.0250843 -9.89999 0.528101 
0.341881 0.528101 -9.88841 
-9.96604 -0.00463115 0.0815779 
-0.00463115 -10.0014 -0.469926 
0.0815779 -0.469926 -9.97144 
-9.9777 0.0170521 0.0797922 
0.0170521 -10.0204 -0.452007 
0.0797922 -0.452007 -9.94072 
-9.93304 -0.0195384 0.0987064 
-0.0195384 -9.97907 -0.440757 
0.0987064 -0.440757 -10.0267 
-10.001 -0.00283855 0.0852547 
-0.00283855 -10.011 -0.471184 
0.0852547 -0.471184 -9.92682 
-8.89285 -0.0124922 -0.310442 
-0.0124922 -9.58792 0.34744 
-0.310442 0.34744 -9.25478 
-9.01704 -0.211667 -0.482106 
-0.211667 -9.19845 0.5056 
-0.482106 0.5056 -9.52005 
-8.84295 0.0631818 -0.324708 
0.0631818 -9.83025 0.331895 
-0.324708 0.331895 -9.06234 
-8.92779 -0.080117 -0.405579 
-0.080117 -9.37744 0.122594 
-0.405579 0.122594 -9.43031 
-8.60093 1.87449 1.84088 
1.87449 -5.33733 5.26787 
1.84088 5.26787 -9.11249 
-9.15262 1.29623 0.0182745 
1.29623 -4.36062 1.776 
0.0182745 1.776 -9.53751 
-9.20709 0.591512 1.12392 
0.591512 -5.05249 3.95618 
1.12392 3.95618 -8.79118 
-6.61552 -2.21911 0.236386 
-2.21911 -10.788 1.75209 
0.236386 1.75209 -5.64721 
-9.92179 -0.00414042 -0.552798 
-0.00414042 -9.86904 -0.0383339 
-0.552798 -0.0383339 -9.88746 
-9.84542 -0.0139016 -0.527553 
-0.0139016 -9.89547 -0.0214555 
-0.527553 -0.0214555 -9.9374 
-9.87822 -0.01335 -0.534178 
-0.01335 -9.92603 -0.019812 
-0.534178 -0.019812 -9.87403 
-9.88396 0.00578843 -0.536516 
0.00578843 -9.88533 -0.0256465 
-0.536516 -0.0256465 -9.909 
-9.9276 0.00151751 -0.464253 
0.00151751 -9.93429 0.0503123 
-0.464253 0.0503123 -9.96443 
-9.91045 0.00509953 -0.449159 
0.00509953 -9.92243 0.0477805 
-0.449159 0.0477805 -9.99345 
-9.9197 0.0119294 -0.466836 
0.0119294 -9.9176 0.0636293 
-0.466836 0.0636293 -9.98903 
-9.94063 -0.00236113 -0.455244 
-0.00236113 -9.94615 0.0551381 
-0.455244 0.0551381 -9.93955 
-9.97194 -0.0104879 0.262567 
-0.0104879 -9.97769 0.599688 
0.262567 0.599688 -9.8808 
-9.94889 -0.0295329 0.224681 
-0.0295329 -9.97818 0.562894 
0.224681 0.562894 -9.90336 
-9.85882 -0.0148979 0.178446 
-0.0148979 -9.85278 0.600042 
0.178446 0.600042 -10.1188 
-9.91793 -0.0108167 0.231102 
-0.0108167 -9.9909 0.567789 
0.231102 0.567789 -9.92159 
-9.51109 0.00147827 -0.416801 
0.00147827 -9.60674 0.0960415 
-0.416801 0.0960415 -9.53723 
-9.5002 0.0178388 -0.394528 
0.0178388 -9.50482 0.086339 
-0.394528 0.086339 -9.65003 
-9.51551 0.0185762 -0.393095 
0.0185762 -9.50954 0.172234 
-0.393095 0.172234 -9.63 
-9.50432 -0.0143851 -0.385638 
-0.0143851 -9.5458 0.105491 
-0.385638 0.105491 -9.60493 
-9.64898 -0.224947 -0.00381423 
-0.224947 -9.99614 -0.0848808 
-0.00381423 -0.0848808 -9.7328 
-9.48563 -0.267162 0.153595 
-0.267162 -9.9266 -0.206067 
0.153595 -0.206067 -9.96568 
-9.5871 0.244478 -0.117948 
0.244478 -9.79283 -0.17712 
-0.117948 -0.17712 -9.99799 
-9.68704 0.123573 0.107551 
0.123573 -9.95492 -0.00879595 
0.107551 -0.00879595 -9.73596 
-4.67728 0.63369 -0.417258 
0.63369 -5.19217 -2.74066 
-0.417258 -2.74066 0.702814 
-3.55684 0.665902 0.112012 
0.665902 -4.32298 -1.28573 
0.112012 -1.28573 -1.28681 
-3.40862 0.160295 0.539888 
0.160295 -4.1331 -1.36816 
0.539888 -1.36816 -1.62491 
-3.17454 -0.338817 0.919981 
-0.338817 -5.29967 -0.138427 
0.919981 -0.138427 -0.692422 
-10.992 0.206463 0.147037 
0.206463 -9.89911 0.573774 
0.147037 0.573774 -14.6296 
-10.2093 -2.46011 0.673291 
-2.46011 -7.99523 0.445104 
0.673291 0.445104 -17.3162 
-11.8896 -0.639718 1.27962 
-0.639718 -14.5983 -1.79753 
1.27962 -1.79753 -9.0328 
-11.5267 -0.693366 -0.450292 
-0.693366 -11.4834 -1.21781 
-0.450292 -1.21781 -12.5106 
-9.54918 0.150062 0.0739886 
0.150062 -9.33095 -0.353942 
0.0739886 -0.353942 -8.67234 
-9.68774 0.118599 -0.147749 
0.118599 -9.21673 -0.559556 
-0.147749 -0.559556 -8.64799 
-9.74143 -0.0925923 -0.102921 
-0.0925923 -9.68123 -0.111248 
-0.102921 -0.111248 -8.1298 
-9.05494 -0.0816601 -0.062946 
-0.0816601 -9.06315 0.31398 
-0.062946 0.31398 -9.43437 
-8.08272 1.62779 -1.41003 
1.62779 -8.04824 -2.75134 
-1.41003 -2.75134 -0.97775 
-6.68614 2.51803 1.63514 
2.51803 -5.94551 -3.43364 
1.63514 -3.43364 -4.47706 
-7.59309 -1.50164 -0.00481635 
-1.50164 -6.34215 -2.4086 
-0.00481635 -2.4086 -3.17347 
-7.74546 -0.724446 0.39437 
-0.724446 -6.65879 -2.05785 
0.39437 -2.05785 -2.70447 
-9.97944 0.0187048 -0.248005 
0.0187048 -9.9393 -0.391809 
-0.248005 -0.391809 -10.03 
-10.0342 -0.00519575 -0.202404 
-0.00519575 -10.0444 -0.370897 
-0.202404 -0.370897 -9.87015 
-9.94398 0.0266328 -0.203193 
0.0266328 -9.96313 -0.429336 
-0.203193 -0.429336 -10.0416 
-9.99997 -0.0325917 -0.249034 
-0.0325917 -10.0621 -0.430908 
-0.249034 -0.430908 -9.88661 
-9.95676 0.00189428 -0.456156 
0.00189428 -9.97492 0.27639 
-0.456156 0.27639 -9.936 
-9.94716 0.0110425 -0.436681 
0.0110425 -9.95799 0.280794 
-0.436681 0.280794 -9.96251 
-9.93834 -0.00128968 -0.429032 
-0.00128968 -9.91937 0.306172 
-0.429032 0.306172 -10.01 
-9.95379 0.0245791 -0.440118 
0.0245791 -9.92722 0.300873 
-0.440118 0.300873 -9.98666 
-9.97767 -0.00995799 -0.0817896 
-0.00995799 -9.95114 -0.121298 
-0.0817896 -0.121298 -9.96684 
-9.92036 -0.0535274 -0.103255 
-0.0535274 -9.92947 -0.176513 
-0.103255 -0.176513 -10.0458 
-10.0254 -0.01295 -0.115801 
-0.01295 -9.96557 -0.124253 
-0.115801 -0.124253 -9.90465 
-10.0165 0.00757815 -0.0914402 
0.00757815 -9.98628 -0.128262 
-0.0914402 -0.128262 -9.89292 
-9.75967 -0.0185276 -0.0183686 
-0.0185276 -9.88822 0.0117816 
-0.0183686 0.0117816 -9.78524 
-9.71223 -0.0372762 0.00220569 
-0.0372762 -9.86014 0.0164114 
0.00220569 0.0164114 -9.86076 
-9.82183 0.0119495 0.00254428 
0.0119495 -9.81227 0.054207 
0.00254428 0.054207 -9.79903 
-9.8649 0.121209 0.0488314 
0.121209 -9.77094 -0.0266089 
0.0488314 -0.0266089 -9.79729 
-9.86713 0.22808 -1.71091 
0.22808 -7.96245 0.974483 
-1.71091 0.974483 5.34675 
-8.20895 1.38761 -2.87242 
1.38761 -6.96179 -1.34762 
-2.87242 -1.34762 2.6879 
-1.72794 -0.0443209 0.299806 
-0.0443209 -0.128108 1.31973 
0.299806 1.31973 -10.6268 
-2.65406 -0.250427 -9.61447 
-0.250427 -7.47833 2.95262 
-9.61447 2.95262 -2.35044 
-9.75616 0.0281747 0.460833 
0.0281747 -9.809 -0.132392 
0.460833 -0.132392 -9.76263 
-9.72474 0.0347525 0.456259 
0.0347525 -9.74973 -0.182725 
0.456259 -0.182725 -9.85332 
-9.74714 0.0348617 0.444605 
0.0348617 -9.79443 -0.173811 
0.444605 -0.173811 -9.78621 
-9.73533 0.02023 0.435753 
0.02023 -9.79516 -0.173882 
0.435753 -0.173882 -9.7973 
-0.527945 3.04539 2.26323 
3.04539 -11.2064 2.75321 
2.26323 2.75321 -25.7195 
-8.65195 2.35317 -0.628364 
2.35317 -13.0073 -0.188582 
-0.628364 -0.188582 -15.7945 
-4.43971 5.90814 2.42307 
5.90814 -10.9231 0.389406 
2.42307 0.389406 -22.0909 
-12.3428 0.0834771 2.93738 
0.0834771 -11.3579 -0.18932 
2.93738 -0.18932 -13.7531 
-9.69575 -0.0137521 0.112348 
-0.0137521 -9.54772 -0.703579 
0.112348 -0.703579 -9.7819 
-9.67463 -0.0148204 0.0782277 
-0.0148204 -9.71067 -0.65722 
0.0782277 -0.65722 -9.64008 
-9.62594 0.00603648 0.0877401 
0.00603648 -9.8475 -0.704802 
0.0877401 -0.704802 -9.55194 
-9.66689 0.0182371 0.0536012 
0.0182371 -9.7085 -0.554432 
0.0536012 -0.554432 -9.64999 
-2.42901 -1.72803 -1.77454 
-1.72803 -2.67643 1.67686 
-1.77454 1.67686 -4.87764 
-3.34774 2.82731 1.14933 
2.82731 -8.3608 0.410868 
1.14933 0.410868 1.72546 
-7.07798 0.33082 0.578413 
0.33082 -6.02195 0.639066 
0.578413 0.639066 3.11685 
-6.58672 1.37266 -0.615465 
1.37266 -3.4253 4.28617 
-0.615465 4.28617 0.0289448 
-9.86131 -0.0166014 0.15483 
-0.0166014 -9.93145 -0.215591 
0.15483 -0.215591 -9.84718 
-9.87545 0.0394258 0.184053 
0.0394258 -9.86515 -0.268072 
0.184053 -0.268072 -9.89933 
-9.86808 -0.0188307 0.160471 
-0.0188307 -9.92244 -0.227239 
0.160471 -0.227239 -9.84941 
-9.95751 0.0234711 0.132164 
0.0234711 -9.88421 -0.162144 
0.132164 -0.162144 -9.79822 
-9.22635 0.0017547 0.0960745 
0.0017547 -9.32906 -0.772974 
0.0960745 -0.772974 -9.34963 
-9.31154 -0.0132716 0.0537297 
-0.0132716 -9.27495 -0.782162 
0.0537297 -0.782162 -9.31855 
-9.27583 0.0455339 0.101798 
0.0455339 -9.51153 -0.778484 
0.101798 -0.778484 -9.11769 
-9.28194 -0.0498222 0.0423784 
-0.0498222 -9.32768 -0.740022 
0.0423784 -0.740022 -9.29543 
-9.7071 -0.0197552 -0.491886 
-0.0197552 -9.66068 0.0327882 
-0.491886 0.0327882 -9.73934 
-9.6974 -0.0137517 -0.495252 
-0.0137517 -9.68143 0.0530182 
-0.495252 0.0530182 -9.7283 
-9.63544 -0.020903 -0.468455 
-0.020903 -9.73106 0.0266646 
-0.468455 0.0266646 -9.74063 
-9.67332 -0.0284393 -0.50747 
-0.0284393 -9.67948 0.0327099 
-0.50747 0.0327099 -9.75433 
-9.96093 0.0080449 -0.278945 
0.0080449 -9.92989 0.111447 
-0.278945 0.111447 -9.95731 
-9.94339 -0.00609683 -0.290325 
-0.00609683 -9.90799 0.107432 
-0.290325 0.107432 -9.99676 
-9.90839 -0.0230759 -0.276798 
-0.0230759 -9.92324 0.12842 
-0.276798 0.12842 -10.0165 
-9.96191 0.0216145 -0.28497 
0.0216145 -9.94643 0.111736 
-0.28497 0.111736 -9.93979 
-10.0494 0.0878298 -0.0237723 
0.0878298 -9.93667 -0.0708203 
-0.0237723 -0.0708203 -10.2593 
-10.1823 0.149715 -0.000373813 
0.149715 -9.84974 -0.170228 
-0.000373813 -0.170228 -10.2133 
-10.1549 0.0716382 0.124366 
0.0716382 -9.68046 0.0602134 
0.124366 0.0602134 -10.41 
-9.98825 0.114785 0.0289618 
0.114785 -9.9612 -0.0532275 
0.0289618 -0.0532275 -10.2959 
-9.64776 -0.06659 0.515306 
-0.06659 -9.7484 0.0804953 
0.515306 0.0804953 -9.69667 
-9.78705 -0.158117 0.597431 
-0.158117 -9.76505 0.106569 
0.597431 0.106569 -9.54073 
-9.46758 0.0319591 0.521171 
0.0319591 -9.75898 0.203733 
0.521171 0.203733 -9.86627 
-9.70397 -0.0724279 0.461152 
-0.0724279 -9.71271 0.0202844 
0.461152 0.0202844 -9.67615 
-9.81183 0.0284002 0.034342 
0.0284002 -9.803 -0.00768533 
0.034342 -0.00768533 -9.84537 
-9.80995 0.0213492 -0.046173 
0.0213492 -9.77803 0.0176916 
-0.046173 0.0176916 -9.87223 
-9.86973 0.042612 0.0471863 
0.042612 -9.70223 -0.0229584 
0.0471863 -0.0229584 -9.88824 
-9.7931 0.0472119 0.000132557 
0.0472119 -9.7578 -0.0221663 
0.000132557 -0.0221663 -9.9093 
-9.87931 -0.0507143 0.0639106 
-0.0507143 -9.95179 0.0623771 
0.0639106 0.0623771 -9.80617 
-9.9464 0.00453476 0.00681512 
0.00453476 -9.94532 0.0371877 
0.00681512 0.0371877 -9.74556 
-9.85316 -0.11264 0.0648312 
-0.11264 -9.80738 -0.0311047 
0.0648312 -0.0311047 -9.97673 
-9.78581 -0.0533679 -0.0937021 
-0.0533679 -9.75508 0.106547 
-0.0937021 0.106547 -10.0964 
-9.52613 0.00498276 0.124462 
0.00498276 -9.82347 0.398113 
0.124462 0.398113 -9.46118 
-9.57455 0.0164144 0.102191 
0.0164144 -9.78515 0.364471 
0.102191 0.364471 -9.45108 
-9.60486 -0.06074 0.223822 
-0.06074 -9.75706 0.381328 
0.223822 0.381328 -9.44886 
-9.56477 -0.0249624 0.166479 
-0.0249624 -9.73727 0.358179 
0.166479 0.358179 -9.50873 
-7.06497 -1.79666 -1.03538 
-1.79666 -10.8749 -0.898721 
-1.03538 -0.898721 -16.3653 
-7.07814 -2.35494 -0.791486 
-2.35494 -8.54885 -0.0611177 
-0.791486 -0.0611177 -18.6783 
-14.1073 -3.67773 -1.14715 
-3.67773 -12.1631 1.69493 
-1.14715 1.69493 -8.03488 
-9.4581 -0.360649 2.38773 
-0.360649 -11.1285 -2.01982 
2.38773 -2.01982 -13.7186 
-9.92833 0.0177276 0.442918 
0.0177276 -9.92233 -0.0432318 
0.442918 -0.0432318 -9.98957 
-9.95881 -0.023073 0.422031 
-0.023073 -9.97544 -0.0491642 
0.422031 -0.0491642 -9.90597 
-9.88602 -0.00941072 0.418289 
-0.00941072 -9.90606 -0.00994799 
0.418289 -0.00994799 -10.0481 
-9.96741 -0.0384395 0.46607 
-0.0384395 -9.95221 -0.0328592 
0.46607 -0.0328592 -9.92061 
-9.75175 -0.0211166 -0.314899 
-0.0211166 -9.53264 0.112665 
-0.314899 0.112665 -8.15554 
-9.10367 -0.0115968 -0.179563 
-0.0115968 -9.26619 0.251279 
-0.179563 0.251279 -9.07007 
-9.50787 -0.0160853 -0.57061 
-0.0160853 -9.49187 0.335281 
-0.57061 0.335281 -8.44019 
-9.4078 0.101612 -0.41262 
0.101612 -9.49934 0.363973 
-0.41262 0.363973 -8.5328 
-9.07405 0.171395 -0.175296 
0.171395 -9.06517 -0.459267 
-0.175296 -0.459267 -9.66519 
-9.14101 -0.0871285 -0.617386 
-0.0871285 -9.38889 -0.768499 
-0.617386 -0.768499 -9.27451 
-9.39857 0.257089 -0.279158 
0.257089 -9.11106 -0.433152 
-0.279158 -0.433152 -9.29479 
-9.49277 0.128322 -0.18904 
0.128322 -9.31017 -0.268173 
-0.18904 -0.268173 -9.00147 
-9.83683 -0.028625 -0.396822 
-0.028625 -9.90811 0.405431 
-0.396822 0.405431 -9.93363 
-9.87144 -0.00923162 -0.397055 
-0.00923162 -9.91285 0.403581 
-0.397055 0.403581 -9.89428 
-9.8643 0.0108472 -0.407268 
0.0108472 -9.90363 0.396562 
-0.407268 0.396562 -9.91064 
-9.87102 -0.00312937 -0.41488 
-0.00312937 -9.91656 0.386766 
-0.41488 0.386766 -9.89099 
-9.96051 -0.0498168 -0.112852 
-0.0498168 -9.98284 -0.601479 
-0.112852 -0.601479 -9.93709 
-9.88303 -0.0261184 -0.0737625 
-0.0261184 -9.86936 -0.62132 
-0.0737625 -0.62132 -10.128 
-9.99107 0.0167947 -0.174165 
0.0167947 -10.0366 -0.646118 
-0.174165 -0.646118 -9.85275 
-9.96945 -0.0199884 -0.138168 
-0.0199884 -10.0066 -0.568724 
-0.138168 -0.568724 -9.90434 
-9.89092 -0.0130046 -0.0293934 
-0.0130046 -9.80022 -0.0099449 
-0.0293934 -0.0099449 -9.87954 
-9.88309 0.0393647 0.076984 
0.0393647 -9.77991 0.0316029 
0.076984 0.0316029 -9.90769 
-9.9913 -0.00657885 -0.00893277 
-0.00657885 -9.67323 0.0534175 
-0.00893277 0.0534175 -9.90616 
-9.93057 0.00565772 0.0134347 
0.00565772 -9.76554 0.0116277 
0.0134347 0.0116277 -9.87457 
-9.42561 0.000545209 0.0906208 
0.000545209 -9.49653 0.480074 
0.0906208 0.480074 -8.23683 
-9.10779 -0.021552 -0.0477973 
-0.021552 -9.09398 0.199769 
-0.0477973 0.199769 -8.9572 
-9.80903 -0.143615 -0.0425317 
-0.143615 -9.65785 -0.0574331 
-0.0425317 -0.0574331 -7.69209 
-9.33905 0.0303249 -0.0859073 
0.0303249 -9.59704 0.617939 
-0.0859073 0.617939 -8.22288 
-6.51866 -0.688194 -0.300995 
-0.688194 -7.36696 -1.65554 
-0.300995 -1.65554 -1.19982 
-4.57162 1.22469 -0.770142 
1.22469 -7.89064 -2.29809 
-0.770142 -2.29809 -2.62318 
-6.68834 -0.864718 -2.1572 
-0.864718 -6.0494 -1.86888 
-2.1572 -1.86888 -2.3477 
-5.82817 -0.870461 -1.69225 
-0.870461 -7.32973 -2.36569 
-1.69225 -2.36569 -1.92754 
-9.88856 -0.152211 -0.0750948 
-0.152211 -9.69857 -0.0047279 
-0.0750948 -0.0047279 -9.78006 
-9.51255 -0.0375044 -0.123742 
-0.0375044 -9.88238 -0.0667817 
-0.123742 -0.0667817 -9.97225 
-9.65283 -0.0601032 -0.0476921 
-0.0601032 -9.78677 -0.0275878 
-0.0476921 -0.0275878 -9.92758 
-9.74332 0.0295657 -0.00772241 
0.0295657 -9.69106 -0.0282278 
-0.00772241 -0.0282278 -9.9328 
-11.2441 0.142321 0.356038 
0.142321 -9.03414 -0.497593 
0.356038 -0.497593 -10.5045 
-9.79291 -0.0495677 -0.498479 
-0.0495677 -11.2194 0.368182 
-0.498479 0.368182 -9.77046 
-10.6904 0.509918 0.0901275 
0.509918 -9.4685 0.79908 
0.0901275 0.79908 -10.6239 
-10.0849 0.417471 0.613598 
0.417471 -9.61936 -0.456441 
0.613598 -0.456441 -11.0785 
-9.97621 0.024394 0.371352 
0.024394 -9.93268 0.353095 
0.371352 0.353095 -10.0217 
-10.0096 -0.00771394 0.421997 
-0.00771394 -10.0278 0.39395 
0.421997 0.39395 -9.89316 
-9.91695 0.0297716 0.402092 
0.0297716 -9.94657 0.321713 
0.402092 0.321713 -10.067 
-9.99912 -0.0411127 0.378706 
-0.0411127 -10.0255 0.352904 
0.378706 0.352904 -9.90592 
-9.85634 -0.0103698 -0.534429 
-0.0103698 -9.9073 -0.222765 
-0.534429 -0.222765 -9.87286 
-9.80245 -0.00228019 -0.534738 
-0.00228019 -9.91219 -0.22906 
-0.534738 -0.22906 -9.92186 
-9.86767 -0.0258238 -0.540473 
-0.0258238 -9.87797 -0.21198 
-0.540473 -0.21198 -9.89086 
-9.86571 -0.0198796 -0.551159 
-0.0198796 -9.90217 -0.199185 
-0.551159 -0.199185 -9.86861 
-4.79914 0.720008 -0.208139 
0.720008 -3.83529 -0.402442 
-0.208139 -0.402442 -2.6448 
-4.96562 0.243281 -0.679806 
0.243281 -4.84034 0.405223 
-0.679806 0.405223 -1.47327 
-6.8815 1.55737 0.537589 
1.55737 -5.69364 0.491383 
0.537589 0.491383 1.29591 
-5.53391 0.199869 -2.52393 
0.199869 -3.00447 -1.40271 
-2.52393 -1.40271 -2.74085 
-9.32335 -0.0610592 0.0965312 
-0.0610592 -9.75688 0.63972 
0.0965312 0.63972 -6.77968 
-9.64396 -0.0778655 -0.847254 
-0.0778655 -9.86865 0.0378718 
-0.847254 0.0378718 -6.3473 
-8.89305 -0.292558 -0.264187 
-0.292558 -9.95305 1.02635 
-0.264187 1.02635 -7.01381 
-9.26106 -0.142379 -0.59222 
-0.142379 -8.74956 -0.149258 
-0.59222 -0.149258 -7.84928 
-9.10053 0.00702702 -0.316936 
0.00702702 -9.52998 0.0795623 
-0.316936 0.0795623 -9.62673 
-8.95101 -0.0862387 -0.0139929 
-0.0862387 -9.63405 0.0990525 
-0.0139929 0.0990525 -9.67218 
-9.01659 -0.0401432 -0.238632 
-0.0401432 -9.5204 0.0437065 
-0.238632 0.0437065 -9.72025 
-8.90488 0.0953052 -0.25664 
0.0953052 -9.53206 0.424848 
-0.25664 0.424848 -9.8203 
-10.5221 0.285429 1.01789 
0.285429 -12.1084 0.347473 
1.01789 0.347473 -12.7087 
-10.519 0.289996 0.867495 
0.289996 -12.6035 -0.165636 
0.867495 -0.165636 -12.2167 
-9.27871 0.118382 1.81634 
0.118382 -11.6772 0.681728 
1.81634 0.681728 -14.3833 
-10.0459 0.0823283 -0.0409487 
0.0823283 -12.6779 0.557489 
-0.0409487 0.557489 -12.6154 
-9.45791 0.00799748 0.196784 
0.00799748 -9.56343 0.683851 
0.196784 0.683851 -9.448 
-9.45052 -0.0279335 0.217709 
-0.0279335 -9.54913 0.6602 
0.217709 0.6602 -9.46969 
-9.52038 0.0293386 0.208943 
0.0293386 -9.49878 0.690533 
0.208943 0.690533 -9.45017 
-9.49548 -0.00178253 0.211915 
-0.00178253 -9.51032 0.712218 
0.211915 0.712218 -9.46354 
-9.78599 -0.0315477 -0.501162 
-0.0315477 -9.71948 -0.0412288 
-0.501162 -0.0412288 -9.74645 
-9.80658 -0.0586432 -0.516653 
-0.0586432 -9.76515 -0.0431827 
-0.516653 -0.0431827 -9.6802 
-9.58448 0.0386439 -0.5326 
0.0386439 -9.74654 -0.0706998 
-0.5326 -0.0706998 -9.9209 
-9.69407 -0.0525236 -0.436997 
-0.0525236 -9.7709 0.0501813 
-0.436997 0.0501813 -9.78695 
-9.08451 0.0593218 0.248329 
0.0593218 -7.88649 -0.874603 
0.248329 -0.874603 -8.82738 
-9.01252 0.0561039 0.212395 
0.0561039 -8.08519 -1.06673 
0.212395 -1.06673 -8.70067 
-8.76074 0.128657 0.0489118 
0.128657 -8.53855 -0.882077 
0.0489118 -0.882077 -8.49909 
-8.75409 0.295484 0.189243 
0.295484 -8.40608 -1.10493 
0.189243 -1.10493 -8.63821 
-11.242 0.575915 -0.230412 
0.575915 -13.4176 -0.0197539 
-0.230412 -0.0197539 -12.5878 
-12.5139 1.02307 -0.319791 
1.02307 -11.9462 -0.205148 
-0.319791 -0.205148 -12.7873 
-12.0551 -0.236578 -0.349323 
-0.236578 -11.0775 0.462205 
-0.349323 0.462205 -14.1148 
-12.3767 0.570549 -0.0658607 
0.570549 -12.2314 -0.744913 
-0.0658607 -0.744913 -12.6393 
-9.61993 -1.46428 -1.3867 
-1.46428 -9.48942 2.00343 
-1.3867 2.00343 -10.1195 
-8.56358 -1.51589 -0.370547 
-1.51589 -9.3172 0.224222 
-0.370547 0.224222 -11.3481 
-9.40292 -1.44336 -1.04428 
-1.44336 -10.2553 1.16141 
-1.04428 1.16141 -9.57072 
-9.42789 -1.5036 -1.23537 
-1.5036 -9.97388 1.15205 
-1.23537 1.15205 -9.82713 
-9.6932 -0.456992 0.57127 
-0.456992 -9.27558 -0.0587418 
0.57127 -0.0587418 -11.0683 
-8.96296 -0.658486 0.27436 
-0.658486 -9.40579 -0.160443 
0.27436 -0.160443 -11.6684 
-9.57527 -0.254587 0.312155 
-0.254587 -9.40665 -0.0104769 
0.312155 -0.0104769 -11.0552 
-9.55286 -0.438736 0.737579 
-0.438736 -9.57851 -0.254955 
0.737579 -0.254955 -10.9057 
-9.25759 -0.0343331 -0.368903 
-0.0343331 -9.32195 0.273401 
-0.368903 0.273401 -8.87196 
-9.31777 -0.0136433 -0.390145 
-0.0136433 -9.30284 0.286319 
-0.390145 0.286319 -8.8309 
-9.26816 -0.0393499 -0.331804 
-0.0393499 -9.32052 0.363142 
-0.331804 0.363142 -8.86282 
-9.34509 -0.00106861 -0.458036 
-0.00106861 -9.4449 0.298015 
-0.458036 0.298015 -8.66152 
-9.67938 -0.0399579 -0.519145 
-0.0399579 -9.66193 -0.00334878 
-0.519145 -0.00334878 -9.78728 
-9.63722 -0.00588473 -0.464346 
-0.00588473 -9.6748 -0.0362475 
-0.464346 -0.0362475 -9.81655 
-9.68897 -0.0132249 -0.51324 
-0.0132249 -9.66256 -0.0394756 
-0.51324 -0.0394756 -9.77705 
-9.72272 -0.0189143 -0.471164 
-0.0189143 -9.63624 -0.041562 
-0.471164 -0.041562 -9.76961 
-9.90388 -0.00060046 0.132525 
-0.00060046 -9.87999 0.192933 
0.132525 0.192933 -10.0889 
-9.96991 0.00624356 0.116752 
0.00624356 -9.99368 0.187237 
0.116752 0.187237 -9.90923 
-9.9692 0.0341559 0.104558 
0.0341559 -9.93565 0.201094 
0.104558 0.201094 -9.96798 
-9.95667 -0.000860849 0.099139 
-0.000860849 -10.0083 0.234011 
0.099139 0.234011 -9.90782 
-9.96004 -0.00647479 0.352542 
-0.00647479 -10.006 0.482296 
0.352542 0.482296 -9.90911 
-9.96519 -0.00317481 0.36152 
-0.00317481 -10.0044 0.537998 
0.36152 0.537998 -9.90555 
-9.8708 0.00197042 0.419774 
0.00197042 -9.91127 0.459317 
0.419774 0.459317 -10.0931 
-9.95678 -0.0377069 0.366981 
-0.0377069 -9.97464 0.48579 
0.366981 0.48579 -9.94371 
-9.51699 -0.0718344 0.447082 
-0.0718344 -9.73442 -0.218728 
0.447082 -0.218728 -9.8565 
-9.70094 0.0930847 0.454313 
0.0930847 -9.75286 -0.201976 
0.454313 -0.201976 -9.6541 
-9.68645 0.0666718 0.426735 
0.0666718 -9.71101 -0.186887 
0.426735 -0.186887 -9.71045 
-9.65516 0.0811794 0.374362 
0.0811794 -9.72703 -0.132418 
0.374362 -0.132418 -9.72572 
-9.95537 0.0136122 0.444175 
0.0136122 -9.92315 -0.298862 
0.444175 -0.298862 -10.0469 
-9.98214 0.0218922 0.424815 
0.0218922 -10.0154 -0.377126 
0.424815 -0.377126 -9.92794 
-9.98282 0.0387098 0.400805 
0.0387098 -10.0225 -0.319369 
0.400805 -0.319369 -9.92016 
-9.97869 0.0248093 0.424751 
0.0248093 -9.99607 -0.347466 
0.424751 -0.347466 -9.9507 
-9.47277 -2.21841 0.728138 
-2.21841 -11.8279 -0.248891 
0.728138 -0.248891 -14.426 
0.686979 -5.00782 -2.07907 
-5.00782 -11.8762 2.75161 
-2.07907 2.75161 -24.5375 
-6.75213 -3.96917 -1.26309 
-3.96917 -10.3077 0.403669 
-1.26309 0.403669 -18.6669 
-13.302 1.73423 -2.36973 
1.73423 -10.902 1.74048 
-2.36973 1.74048 -11.5227 
-7.28786 -0.23391 -1.2897 
-0.23391 -8.90495 2.09563 
-1.2897 2.09563 -2.25398 
-7.40356 -0.442972 -0.782606 
-0.442972 -6.62484 2.32273 
-0.782606 2.32273 -4.41839 
-10.0123 0.14025 -0.924783 
0.14025 -3.83193 1.78643 
-0.924783 1.78643 -4.60259 
-6.21238 -0.579242 1.36165 
-0.579242 -7.36714 2.5229 
1.36165 2.5229 -4.86727 
-9.42205 -0.184897 0.339544 
-0.184897 -9.60982 -0.000953988 
0.339544 -0.000953988 -9.6573 
-9.64931 -0.260948 0.470641 
-0.260948 -9.52914 -0.0221169 
0.470641 -0.0221169 -9.51073 
-9.46852 -0.163135 0.375849 
-0.163135 -9.54805 -0.0288244 
0.375849 -0.0288244 -9.6726 
-9.60015 -0.213772 0.365528 
-0.213772 -9.54322 -0.0962314 
0.365528 -0.0962314 -9.5458 
-8.65852 0.13916 0.439641 
0.13916 -8.61321 -0.784711 
0.439641 -0.784711 -8.17698 
-8.80471 0.204009 0.830462 
0.204009 -8.47662 -0.760531 
0.830462 -0.760531 -8.16738 
-8.43644 -0.539002 0.609158 
-0.539002 -8.05969 -1.39822 
0.609158 -1.39822 -8.95258 
-9.11166 -0.170138 0.208076 
-0.170138 -7.85479 -1.03339 
0.208076 -1.03339 -8.48225 
-10.0778 -0.0400622 0.134795 
-0.0400622 -9.801 -0.0672364 
0.134795 -0.0672364 -9.96484 
-10.2226 0.0737916 0.246497 
0.0737916 -10.1654 -0.0681682 
0.246497 -0.0681682 -9.4557 
-9.71395 -0.00956999 -0.128467 
-0.00956999 -9.74083 0.0300952 
-0.128467 0.0300952 -10.3889 
-9.65473 -0.188369 0.240226 
-0.188369 -9.91845 -0.263858 
0.240226 -0.263858 -10.2704 
-6.01438 -0.338906 -0.50898 
-0.338906 -9.20473 -0.197786 
-0.50898 -0.197786 -18.8926 
-10.261 0.166145 -0.376103 
0.166145 -12.2648 -0.728324 
-0.376103 -0.728324 -11.5859 
-11.3756 -0.404606 -1.01696 
-0.404606 -11.6557 -0.348001 
-1.01696 -0.348001 -11.0804 
-10.1936 -0.0309758 1.46652 
-0.0309758 -12.5024 0.506662 
1.46652 0.506662 -11.4157 
-9.82621 0.00538405 -0.502816 
0.00538405 -9.89469 -0.0976651 
-0.502816 -0.0976651 -9.83312 
-9.8158 -0.00286062 -0.535492 
-0.00286062 -9.85852 -0.0993171 
-0.535492 -0.0993171 -9.87971 
-9.84952 -0.00373975 -0.505423 
-0.00373975 -9.83854 -0.100753 
-0.505423 -0.100753 -9.86597 
-9.82575 -0.000464515 -0.536684 
-0.000464515 -9.86683 -0.103423 
-0.536684 -0.103423 -9.86145 
-9.20929 -0.157911 0.142906 
-0.157911 -10.0814 -0.0394768 
0.142906 -0.0394768 -10.9635 
-10.3201 -0.277066 -0.242065 
-0.277066 -9.50902 0.419888 
-0.242065 0.419888 -10.4251 
-9.03294 -0.385539 0.0406463 
-0.385539 -10.5409 -0.0121962 
0.0406463 -0.0121962 -10.6804 
-8.8915 -0.30438 -0.302591 
-0.30438 -10.3418 0.148798 
-0.302591 0.148798 -11.021 
-9.87225 -0.00763919 0.406305 
-0.00763919 -9.92789 -0.400661 
0.406305 -0.400661 -9.88717 
-9.80794 -0.057509 0.393922 
-0.057509 -9.92897 -0.431421 
0.393922 -0.431421 -9.95041 
-9.87432 0.00480612 0.44646 
0.00480612 -9.95265 -0.402544 
0.44646 -0.402544 -9.86034 
-9.87305 0.0143563 0.411894 
0.0143563 -9.91668 -0.388626 
0.411894 -0.388626 -9.89758 
-9.03256 2.39901 0.372739 
2.39901 -4.86881 0.76634 
0.372739 0.76634 -10.0162 
-8.82536 0.820312 1.68291 
0.820312 -5.08082 3.64008 
1.68291 3.64008 -10.0113 
-7.90732 2.03562 2.25111 
2.03562 -5.25805 4.9609 
2.25111 4.9609 -10.7521 
-7.30671 -1.96408 1.01673 
-1.96408 -9.71332 2.97973 
1.01673 2.97973 -6.89749 
-8.90583 -0.180213 0.0362307 
-0.180213 -9.26116 -0.940856 
0.0362307 -0.940856 -8.82542 
-9.03593 -0.128094 -0.0732842 
-0.128094 -9.03154 -0.829018 
-0.0732842 -0.829018 -8.92495 
-9.08688 -0.123546 -0.0399993 
-0.123546 -8.664 -0.865514 
-0.0399993 -0.865514 -9.24154 
-9.04519 -0.166432 0.0699315 
-0.166432 -9.08208 -0.687907 
0.0699315 -0.687907 -8.86514 
-8.58031 -0.13665 0.576435 
-0.13665 -8.61616 -0.696294 
0.576435 -0.696294 -8.98889 
-8.86647 -0.248763 0.339128 
-0.248763 -8.57784 -0.812533 
0.339128 -0.812533 -8.74105 
-9.00908 0.216743 0.493128 
0.216743 -9.04011 -1.17918 
0.493128 -1.17918 -8.13618 
-8.59869 0.0262768 0.0857655 
0.0262768 -9.14395 -0.95215 
0.0857655 -0.95215 -8.44272 
-9.96164 -0.0310381 0.335404 
-0.0310381 -9.91065 -0.479156 
0.335404 -0.479156 -9.89669 
-9.96733 -0.0521328 0.335959 
-0.0521328 -9.83298 -0.482964 
0.335959 -0.482964 -9.96866 
-9.89853 0.00698118 0.369732 
0.00698118 -9.97083 -0.498572 
0.369732 -0.498572 -9.89961 
-9.9151 0.018487 0.366341 
0.018487 -9.93675 -0.477989 
0.366341 -0.477989 -9.91711 
-9.85352 -0.0783334 -0.223844 
-0.0783334 -9.8541 0.598335 
-0.223844 0.598335 -9.93858 
-9.88099 -0.0288323 -0.274232 
-0.0288323 -9.92223 0.587765 
-0.274232 0.587765 -9.84298 
-9.87529 -0.014153 -0.245787 
-0.014153 -9.90026 0.577591 
-0.245787 0.577591 -9.87065 
-9.85648 0.000834518 -0.252266 
0.000834518 -9.90753 0.570272 
-0.252266 0.570272 -9.88219 
-9.73652 -0.0645887 -0.543603 
-0.0645887 -9.72009 -0.121924 
-0.543603 -0.121924 -9.71564 
-9.61533 0.0184155 -0.505473 
0.0184155 -9.7375 -0.146503 
-0.505473 -0.146503 -9.81943 
-9.66558 -0.0158745 -0.497967 
-0.0158745 -9.75043 -0.133014 
-0.497967 -0.133014 -9.75624 
-9.72858 -0.0314914 -0.48972 
-0.0314914 -9.70411 -0.0846456 
-0.48972 -0.0846456 -9.73956 
-9.96685 -0.00133026 -0.272405 
-0.00133026 -9.93462 -0.0321906 
-0.272405 -0.0321906 -9.99254 
-9.96065 -0.00387431 -0.265256 
-0.00387431 -9.94338 -0.0573063 
-0.265256 -0.0573063 -9.98998 
-9.97171 0.0086693 -0.254769 
0.0086693 -9.94535 -0.0375878 
-0.254769 -0.0375878 -9.97694 
-9.97975 -0.00173299 -0.256917 
-0.00173299 -9.96279 -0.0365386 
-0.256917 -0.0365386 -9.95147 
-9.16319 0.353463 1.08968 
0.353463 -9.08165 0.818983 
1.08968 0.818983 -10.1689 
-9.28695 0.809949 1.27267 
0.809949 -9.70927 0.386887 
1.27267 0.386887 -9.4175 
-9.7507 0.55735 1.12986 
0.55735 -8.75391 0.918305 
1.12986 0.918305 -9.90911 
-9.21949 0.461846 0.417569 
0.461846 -9.01453 0.06715 
0.417569 0.06715 -10.1797 
-9.04141 -0.0198652 0.102781 
-0.0198652 -9.32886 -0.813529 
0.102781 -0.813529 -9.16911 
-9.11956 0.005526 -0.0371889 
0.005526 -9.2148 -0.794679 
-0.0371889 -0.794679 -9.20503 
-9.18598 0.00272944 0.110817 
0.00272944 -9.13987 -0.785966 
0.110817 -0.785966 -9.21353 
-9.10902 -0.0130877 0.113526 
-0.0130877 -9.23737 -0.712693 
0.113526 -0.712693 -9.19299 
-8.25878 -0.0356972 -0.182342 
-0.0356972 -6.60725 2.83536 
-0.182342 2.83536 -9.03361 
-6.60801 0.843 0.805556 
0.843 -7.35663 1.58919 
0.805556 1.58919 -9.935 
-9.68314 0.516314 -0.14088 
0.516314 -5.88016 1.53658 
-0.14088 1.53658 -8.33634 
-9.43893 -0.847018 -0.047545 
-0.847018 -7.07715 1.69663 
-0.047545 1.69663 -7.38356 
-9.84984 0.0203066 -0.00487469 
0.0203066 -9.89507 -0.0166607 
-0.00487469 -0.0166607 -9.84046 
-9.84951 0.0843759 -0.0510949 
0.0843759 -9.90789 -0.0217133 
-0.0510949 -0.0217133 -9.82797 
-9.75283 -0.113754 0.0392031 
-0.113754 -9.88463 0.0169678 
0.0392031 0.0169678 -9.94792 
-9.87927 0.0920664 0.0318179 
0.0920664 -9.87682 -0.0424771 
0.0318179 -0.0424771 -9.82927 
-11.2966 0.246959 0.251382 
0.246959 -11.5531 -0.369743 
0.251382 -0.369743 -9.89805 
-10.9575 0.223751 -0.106236 
0.223751 -11.3847 -0.154311 
-0.106236 -0.154311 -10.4055 
-9.6932 0.282692 0.840256 
0.282692 -9.90904 0.214479 
0.840256 0.214479 -13.1455 
-11.0037 0.293875 -0.167104 
0.293875 -11.3208 0.274044 
-0.167104 0.274044 -10.4233 
-9.92148 -0.00154911 0.43435 
-0.00154911 -9.92788 0.0396434 
0.43435 0.0396434 -10.0225 
-9.96166 -0.0093336 0.450442 
-0.0093336 -9.98025 0.0238716 
0.450442 0.0238716 -9.92992 
-9.92699 -0.00426272 0.454292 
-0.00426272 -9.95226 0.0130023 
0.454292 0.0130023 -9.99257 
-9.95913 -0.022989 0.426711 
-0.022989 -9.96949 -0.00516521 
0.426711 -0.00516521 -9.9432 
-9.15731 -0.0754921 -0.562827 
-0.0754921 -9.54758 -0.316307 
-0.562827 -0.316307 -9.36485 
-9.40901 -0.264172 -0.470754 
-0.264172 -9.47278 -0.284075 
-0.470754 -0.284075 -9.18795 
-9.00152 0.0758242 -0.481523 
0.0758242 -9.56784 -0.292357 
-0.481523 -0.292357 -9.50038 
-9.1314 -0.0447666 -0.685544 
-0.0447666 -9.54502 -0.352249 
-0.685544 -0.352249 -9.39331 
-9.92984 -0.00871913 -0.364041 
-0.00871913 -9.93847 0.291116 
-0.364041 0.291116 -10.0005 
-9.95297 0.00385064 -0.367698 
0.00385064 -9.94912 0.310733 
-0.367698 0.310733 -9.96672 
-9.93549 0.0149549 -0.384274 
0.0149549 -9.95389 0.309266 
-0.384274 0.309266 -9.97943 
-9.96344 -0.00187482 -0.377185 
-0.00187482 -9.96244 0.310018 
-0.377185 0.310018 -9.94293 
-9.51695 -0.0680376 -0.250141 
-0.0680376 -9.49028 0.700354 
-0.250141 0.700354 -9.50425 
-9.53952 -0.0402399 -0.233861 
-0.0402399 -9.53136 0.666305 
-0.233861 0.666305 -9.4406 
-9.50686 -0.0218324 -0.226567 
-0.0218324 -9.6507 0.700347 
-0.226567 0.700347 -9.35391 
-9.50103 -0.0574409 -0.186987 
-0.0574409 -9.59311 0.639187 
-0.186987 0.639187 -9.41733 
-9.88478 -0.000801194 -0.277224 
-0.000801194 -9.92393 -0.608939 
-0.277224 -0.608939 -9.88028 
-9.94603 0.0197789 -0.239952 
0.0197789 -9.78794 -0.591781 
-0.239952 -0.591781 -9.95502 
-9.91234 0.0040301 -0.251287 
0.0040301 -9.88594 -0.595074 
-0.251287 -0.595074 -9.89071 
-9.87913 -0.00384388 -0.270082 
-0.00384388 -9.92211 -0.582722 
-0.270082 -0.582722 -9.88775 
-9.87601 -0.0054637 0.496058 
-0.0054637 -9.88978 0.374382 
0.496058 0.374382 -9.86188 
-9.90723 0.00216705 0.402715 
0.00216705 -9.84598 0.407563 
0.402715 0.407563 -9.87446 
-9.88184 -0.0271149 0.466501 
-0.0271149 -9.89668 0.429081 
0.466501 0.429081 -9.84914 
-9.92234 -0.0272857 0.532729 
-0.0272857 -9.88941 0.364181 
0.532729 0.364181 -9.81591 
-9.97095 -0.00854604 -0.00164608 
-0.00854604 -10.0139 -0.147552 
-0.00164608 -0.147552 -9.92523 
-9.92852 -0.000962625 -0.0145517 
-0.000962625 -9.97157 -0.183267 
-0.0145517 -0.183267 -10.01 
-9.9204 0.0274392 -0.0276164 
0.0274392 -9.98951 -0.141433 
-0.0276164 -0.141433 -10.0001 
-9.9959 -0.00948831 -0.016502 
-0.00948831 -10.0006 -0.147177 
-0.016502 -0.147177 -9.91359 
-6.9062 -0.335026 -1.62053 
-0.335026 -9.47088 -0.501284 
-1.62053 -0.501284 -9.99955 
-7.64424 -0.368009 -1.05176 
-0.368009 -9.25874 -0.583101 
-1.05176 -0.583101 -9.47365 
-7.57013 0.507948 -1.00914 
0.507948 -9.26339 -0.118992 
-1.00914 -0.118992 -9.54311 
-8.74331 -0.439444 -1.15537 
-0.439444 -9.24504 0.0557044 
-1.15537 0.0557044 -8.38829 
-9.27586 -0.0298687 0.248676 
-0.0298687 -9.67142 -0.0707939 
0.248676 -0.0707939 -9.77023 
-9.73818 0.119611 0.328594 
0.119611 -9.45233 -0.0552538 
0.328594 -0.0552538 -9.52699 
-9.46073 0.0532388 0.337029 
0.0532388 -9.60778 -0.0802654 
0.337029 -0.0802654 -9.64899 
-9.44021 0.168489 0.465944 
0.168489 -9.54676 -0.105442 
0.465944 -0.105442 -9.73053 
-9.05239 -0.111513 -0.117345 
-0.111513 -9.52452 -0.488228 
-0.117345 -0.488228 -8.8404 
-9.30737 -0.163642 0.0144486 
-0.163642 -9.38523 -0.447644 
0.0144486 -0.447644 -8.7247 
-8.99204 0.100992 -0.0652417 
0.100992 -9.34718 -0.27482 
-0.0652417 -0.27482 -9.07808 
-9.292 0.102821 -0.0261485 
0.102821 -9.64276 -0.3517 
-0.0261485 -0.3517 -8.48255 
-9.38803 1.81701 1.64518 
1.81701 -8.58382 -0.75548 
1.64518 -0.75548 6.39019 
0.329522 0.976774 -1.6318 
0.976774 0.116368 0.944547 
-1.6318 0.944547 -12.0276 
-10.4199 0.643831 0.386111 
0.643831 -6.73824 -3.80779 
0.386111 -3.80779 5.57645 
-2.94853 -3.24248 9.46284 
-3.24248 -5.67044 -5.08503 
9.46284 -5.08503 -2.9627 
-9.94149 0.00787065 -0.427172 
0.00787065 -9.94779 0.320086 
-0.427172 0.320086 -10.0279 
-9.96955 0.0137072 -0.410729 
0.0137072 -10.0006 0.372178 
-0.410729 0.372178 -9.94706 
-9.97206 0.0172455 -0.393415 
0.0172455 -10.0008 0.334052 
-0.393415 0.334052 -9.94433 
-9.97263 0.0233167 -0.416323 
0.0233167 -9.97005 0.340339 
-0.416323 0.340339 -9.97448 
-9.92384 -0.0438898 -0.0466994 
-0.0438898 -9.90685 0.0112182 
-0.0466994 0.0112182 -9.80723 
-9.86314 0.0268613 0.00767799 
0.0268613 -9.87056 0.0279612 
0.00767799 0.0279612 -9.90422 
-9.90399 0.0524727 0.0154539 
0.0524727 -9.81719 0.0467885 
0.0154539 0.0467885 -9.91674 
-9.85635 0.0351573 -0.00545445 
0.0351573 -9.87135 0.0258715 
-0.00545445 0.0258715 -9.91022 
-8.33842 -3.13041 0.341773 
-3.13041 -5.65691 -1.44147 
0.341773 -1.44147 -9.61624 
-7.30527 -0.575799 1.85814 
-0.575799 -5.82956 -4.96456 
1.85814 -4.96456 -10.4767 
-9.68165 -1.69277 1.49612 
-1.69277 -4.96297 -4.69354 
1.49612 -4.69354 -8.96695 
-9.17289 2.54432 1.17761 
2.54432 -8.54478 -2.07629 
1.17761 -2.07629 -5.89391 
-9.67698 -0.50232 -1.35645 
-0.50232 -7.49566 1.3753 
-1.35645 1.3753 -7.67806 
-8.80575 -0.635272 -0.88579 
-0.635272 -7.87993 0.832323 
-0.88579 0.832323 -8.16502 
-9.21294 -0.418543 -1.14078 
-0.418543 -8.03055 1.11033 
-1.14078 1.11033 -7.60721 
-8.75112 -0.0154412 -0.794962 
-0.0154412 -8.33954 0.81529 
-0.794962 0.81529 -7.76003 
-9.85494 -0.141216 0.265111 
-0.141216 -9.399 -0.00524911 
0.265111 -0.00524911 -9.692 
-9.79229 -0.110326 0.152944 
-0.110326 -9.34577 -0.053405 
0.152944 -0.053405 -9.80789 
-9.90201 -0.270121 0.0136289 
-0.270121 -9.09197 0.141725 
0.0136289 0.141725 -9.95196 
-9.58892 0.186332 0.279518 
0.186332 -9.46679 0.0283093 
0.279518 0.0283093 -9.89024 
-9.31327 0.186251 -0.157632 
0.186251 -9.90996 0.0773009 
-0.157632 0.0773009 -9.68373 
-9.36188 -0.147329 -0.0799357 
-0.147329 -9.72308 0.0243427 
-0.0799357 0.0243427 -9.82201 
-9.4177 -0.0809026 -0.0262022 
-0.0809026 -9.75009 0.154864 
-0.0262022 0.154864 -9.73918 
-9.41928 0.0848022 -0.143503 
0.0848022 -9.68316 0.0582085 
-0.143503 0.0582085 -9.80452 
-9.86592 -0.026533 0.464009 
-0.026533 -9.78352 -0.0412951 
0.464009 -0.0412951 -9.8178 
-9.75326 -0.00127228 0.476433 
-0.00127228 -9.82707 -0.0649864 
0.476433 -0.0649864 -9.8869 
-9.78929 -0.00385402 0.46089 
-0.00385402 -9.84914 -0.065385 
0.46089 -0.065385 -9.8288 
-9.83338 0.0248821 0.438984 
0.0248821 -9.78194 -0.0565673 
0.438984 -0.0565673 -9.85192 
-9.91847 0.00580255 -0.291622 
0.00580255 -9.88362 0.503521 
-0.291622 0.503521 -10.0545 
-9.94901 0.0370998 -0.3274 
0.0370998 -9.9446 0.481022 
-0.3274 0.481022 -9.96294 
-9.96998 -0.00583359 -0.367987 
-0.00583359 -9.98484 0.47272 
-0.367987 0.47272 -9.90173 
-9.94343 0.0134545 -0.33305 
0.0134545 -9.97758 0.455974 
-0.33305 0.455974 -9.93554 
-9.725 -0.00263776 0.0351255 
-0.00263776 -9.92016 0.0130193 
0.0351255 0.0130193 -9.9919 
-10.0055 -0.0776031 -0.042862 
-0.0776031 -9.78403 0.0229247 
-0.042862 0.0229247 -9.84755 
-9.89043 -0.0196242 0.0159026 
-0.0196242 -9.87631 -0.0557598 
0.0159026 -0.0557598 -9.87033 
-9.96764 -0.0416956 0.0643338 
-0.0416956 -9.81739 0.0671485 
0.0643338 0.0671485 -9.85204 
-10.1785 -0.168694 -0.0869454 
-0.168694 -10.8821 -0.0113176 
-0.0869454 -0.0113176 -11.398 
-10.2969 0.420632 -0.0600152 
0.420632 -10.3061 -0.20141 
-0.0600152 -0.20141 -11.8556 
-10.3093 0.0144605 -0.203291 
0.0144605 -10.8302 0.144373 
-0.203291 0.144373 -11.3191 
-9.97534 -0.116375 -0.239471 
-0.116375 -11.0183 0.321055 
-0.239471 0.321055 -11.4649 
-9.86294 0.0308676 0.0328473 
0.0308676 -9.88514 -0.221756 
0.0328473 -0.221756 -9.87883 
-9.86974 -0.00639632 0.0335799 
-0.00639632 -9.91152 -0.175744 
0.0335799 -0.175744 -9.84565 
-9.91725 0.0247815 0.0302126 
0.0247815 -9.89596 -0.142852 
0.0302126 -0.142852 -9.8137 
-9.8778 -0.0130444 0.0373882 
-0.0130444 -9.91533 -0.189526 
0.0373882 -0.189526 -9.83378 
-9.86377 -0.00294158 -0.484091 
-0.00294158 -9.87262 -0.00233747 
-0.484091 -0.00233747 -9.92966 
-9.8475 0.0010926 -0.467909 
0.0010926 -9.88183 -0.00741604 
-0.467909 -0.00741604 -9.93672 
-9.86892 -0.00919245 -0.484895 
-0.00919245 -9.88903 -0.00129281 
-0.484895 -0.00129281 -9.90811 
-9.86691 -0.00590426 -0.465103 
-0.00590426 -9.89253 -0.0153092 
-0.465103 -0.0153092 -9.90661 
-8.00904 -0.148373 0.836953 
-0.148373 -9.51784 -0.133542 
0.836953 -0.133542 -9.27568 
-9.27148 -0.539684 0.473308 
-0.539684 -8.68587 0.0773502 
0.473308 0.0773502 -8.84521 
-8.63316 -0.539138 0.585757 
-0.539138 -9.12668 -0.0881418 
0.585757 -0.0881418 -9.04272 
-8.43486 -0.859344 0.522246 
-0.859344 -9.10943 -0.278195 
0.522246 -0.278195 -9.25827 
-8.37509 -0.627822 1.06608 
-0.627822 -9.07049 -0.116618 
1.06608 -0.116618 -8.65019 
-8.59462 -0.554355 0.732391 
-0.554355 -9.05992 0.0764983 
0.732391 0.0764983 -8.44123 
-7.63314 -0.0404815 0.768706 
-0.0404815 -9.13315 0.0452283 
0.768706 0.0452283 -9.32948 
-8.3333 -0.336614 1.21522 
-0.336614 -8.96899 0.0999348 
1.21522 0.0999348 -8.79348 
-10.3792 0.224626 1.53109 
0.224626 -8.1649 0.667014 
1.53109 0.667014 -10.3648 
-9.98376 0.17654 -0.354128 
0.17654 -8.53889 0.312115 
-0.354128 0.312115 -10.3862 
-8.00591 0.612285 -0.387952 
0.612285 -10.03 0.346515 
-0.387952 0.346515 -10.8729 
-9.20569 0.0803119 -0.251455 
0.0803119 -9.61917 0.416501 
-0.251455 0.416501 -10.084 
-9.9578 -0.00794199 0.111955 
-0.00794199 -10.0117 -0.19173 
0.111955 -0.19173 -9.93432 
-9.93129 0.003674 0.116592 
0.003674 -9.94976 -0.233437 
0.116592 -0.233437 -10.0227 
-9.93386 0.0330828 0.108335 
0.0330828 -9.99663 -0.187964 
0.108335 -0.187964 -9.9733 
-9.98546 -0.00331204 0.106035 
-0.00331204 -10.0019 -0.189672 
0.106035 -0.189672 -9.91647 
-9.79171 0.0341264 0.0721341 
0.0341264 -9.86196 0.593977 
0.0721341 0.593977 -9.79478 
-9.78886 0.0223266 0.141859 
0.0223266 -9.86856 0.636727 
0.141859 0.636727 -9.79104 
-9.85797 0.0450756 0.205483 
0.0450756 -9.82573 0.616951 
0.205483 0.616951 -9.76476 
-9.82345 0.00681397 0.244919 
0.00681397 -9.96233 0.571092 
0.244919 0.571092 -9.66268 
-9.75413 -0.156661 -0.411251 
-0.156661 -7.57766 0.271354 
-0.411251 0.271354 -9.11511 
-9.49261 -0.0758902 -0.16651 
-0.0758902 -7.87775 0.526931 
-0.16651 0.526931 -9.07653 
-10.0007 0.615417 -0.0413678 
0.615417 -6.99876 0.885016 
-0.0413678 0.885016 -9.44745 
-9.42206 -0.460681 -0.18498 
-0.460681 -8.05346 0.821345 
-0.18498 0.821345 -8.97139 
-9.85066 -0.0218651 0.114086 
-0.0218651 -9.91035 0.570634 
0.114086 0.570634 -9.91105 
-9.92636 0.0151324 0.112025 
0.0151324 -9.87566 0.583251 
0.112025 0.583251 -9.87005 
-9.9166 0.0362402 0.125447 
0.0362402 -9.88925 0.623595 
0.125447 0.623595 -9.86622 
-9.86225 -0.0636184 0.146968 
-0.0636184 -10.0009 0.606599 
0.146968 0.606599 -9.80891 
-9.8618 -0.00608657 -0.175974 
-0.00608657 -9.87073 -0.600472 
-0.175974 -0.600472 -10.1089 
-9.97664 -0.0145314 -0.25638 
-0.0145314 -9.97851 -0.60433 
-0.25638 -0.60433 -9.88629 
-9.93323 -0.0349309 -0.212522 
-0.0349309 -9.99582 -0.560693 
-0.212522 -0.560693 -9.91239 
-9.94064 -0.00801398 -0.230506 
-0.00801398 -9.97552 -0.578039 
-0.230506 -0.578039 -9.92528 
-9.96264 0.0306719 -0.331071 
0.0306719 -9.94515 0.152054 
-0.331071 0.152054 -9.97284 
-9.94517 -0.00402494 -0.315786 
-0.00402494 -9.97725 0.170025 
-0.315786 0.170025 -9.9582 
-9.97252 0.0133528 -0.336811 
0.0133528 -9.91337 0.163358 
-0.336811 0.163358 -9.99472 
-9.97463 0.0168743 -0.318879 
0.0168743 -9.95434 0.16872 
-0.318879 0.16872 -9.95165 
-9.29947 -0.113614 0.303814 
-0.113614 -9.25451 0.18957 
0.303814 0.18957 -8.97122 
-9.33259 -0.0158898 0.110193 
-0.0158898 -9.52556 0.0791216 
0.110193 0.0791216 -8.66705 
-9.13641 0.0092809 0.171911 
0.0092809 -9.54162 0.347676 
0.171911 0.347676 -8.84718 
-9.17979 -0.0482613 0.203231 
-0.0482613 -9.55871 0.159695 
0.203231 0.159695 -8.7867 
-9.25758 -0.430494 -1.80875 
-0.430494 -10.8319 0.0790426 
-1.80875 0.0790426 -16.5922 
-16.7133 -0.5715 1.99598 
-0.5715 -12.03 -1.72045 
1.99598 -1.72045 -7.93832 
-8.91508 -3.09244 -0.86407 
-3.09244 -9.44776 -1.11249 
-0.86407 -1.11249 -18.3188 
-10.3537 -1.64045 2.40557 
-1.64045 -11.3762 1.51598 
2.40557 1.51598 -14.9518 
-11.7018 -0.36174 0.949452 
-0.36174 -10.6839 -0.177904 
0.949452 -0.177904 -9.80988 
-10.6306 -0.0923197 0.341744 
-0.0923197 -10.3218 0.759737 
0.341744 0.759737 -11.2431 
-10.1111 -0.329016 -0.339764 
-0.329016 -10.0789 -0.559803 
-0.339764 -0.559803 -12.0055 
-10.6955 -0.560204 0.147216 
-0.560204 -10.3546 0.118089 
0.147216 0.118089 -11.1454 
-9.77048 -0.0861453 0.164415 
-0.0861453 -9.66122 -0.166495 
0.164415 -0.166495 -10.1414 
-9.97034 -0.0333125 -0.0285844 
-0.0333125 -9.87051 -0.0369828 
-0.0285844 -0.0369828 -9.73222 
-9.89601 0.0208182 -0.0980412 
0.0208182 -10.0299 -0.0794133 
-0.0980412 -0.0794133 -9.64717 
-9.67887 -0.222262 -0.0809446 
-0.222262 -9.82249 -0.0149052 
-0.0809446 -0.0149052 -10.0717 
-9.8911 0.0050679 0.454504 
0.0050679 -9.89532 -0.0725572 
0.454504 -0.0725572 -9.96228 
-9.91241 -0.00896128 0.453635 
-0.00896128 -9.90443 -0.0826476 
0.453635 -0.0826476 -9.93185 
-9.90817 -0.000236039 0.471248 
-0.000236039 -9.89232 -0.0953783 
0.471248 -0.0953783 -9.94821 
-9.92093 -0.00444499 0.474385 
-0.00444499 -9.90113 -0.104968 
0.474385 -0.104968 -9.92663 
-10.1169 -2.66562 -1.45777 
-2.66562 -5.73519 6.15504 
-1.45777 6.15504 -8.04726 
-6.80207 0.335313 -1.42921 
0.335313 -6.84782 5.22144 
-1.42921 5.22144 -10.2495 
-9.19159 2.21325 -0.758299 
2.21325 -8.32089 1.73075 
-0.758299 1.73075 -6.3869 
-7.38608 -3.0397 -0.913125 
-3.0397 -6.9711 1.46637 
-0.913125 1.46637 -9.54221 
-9.95856 -0.00134371 0.456572 
-0.00134371 -9.9779 -0.25936 
0.456572 -0.25936 -9.93222 
-9.9418 0.0169439 0.431848 
0.0169439 -9.96975 -0.257071 
0.431848 -0.257071 -9.95714 
-9.93314 -0.00450767 0.42397 
-0.00450767 -9.91143 -0.297532 
0.42397 -0.297532 -10.0241 
-9.95435 0.0274537 0.4391 
0.0274537 -9.92774 -0.285049 
0.4391 -0.285049 -9.9866 
-8.77191 -0.055333 -0.350763 
-0.055333 -9.33517 1.28721 
-0.350763 1.28721 -8.32175 
-8.94762 -0.309164 -0.205744 
-0.309164 -8.71097 0.844272 
-0.205744 0.844272 -8.77024 
-8.92795 -0.138908 -0.140784 
-0.138908 -8.40696 0.95688 
-0.140784 0.95688 -9.09392 
-8.97214 0.0645204 -0.448406 
0.0645204 -9.01595 0.868804 
-0.448406 0.868804 -8.44074 
-7.73821 0.190618 1.35689 
0.190618 -8.2978 0.931628 
1.35689 0.931628 -7.80347 
-7.73599 0.182643 1.32624 
0.182643 -8.42242 0.719601 
1.32624 0.719601 -7.68107 
-7.97827 -0.162677 1.07919 
-0.162677 -8.63427 0.851044 
1.07919 0.851044 -7.22693 
-7.82157 -0.0199031 1.24193 
-0.0199031 -8.49276 0.889603 
1.24193 0.889603 -7.52514 
-11.4665 0.0324628 -0.393403 
0.0324628 -11.2361 0.180588 
-0.393403 0.180588 -11.0179 
-12.2698 -0.187193 -0.395407 
-0.187193 -10.6733 0.00252771 
-0.395407 0.00252771 -10.7773 
-10.3633 -0.429288 0.387828 
-0.429288 -10.5834 0.308511 
0.387828 0.308511 -12.7737 
-10.7646 0.230244 -0.926643 
0.230244 -11.141 0.0314726 
-0.926643 0.0314726 -11.8148 
-9.5312 0.0103599 -0.375561 
0.0103599 -9.71919 0.468842 
-0.375561 0.468842 -9.61772 
-9.55397 -0.0843247 -0.366232 
-0.0843247 -9.67691 0.418576 
-0.366232 0.418576 -9.63724 
-9.54492 -0.0177949 -0.370364 
-0.0177949 -9.6904 0.465455 
-0.370364 0.465455 -9.63279 
-9.54878 -0.00140713 -0.398041 
-0.00140713 -9.66751 0.469589 
-0.398041 0.469589 -9.65182 
-5.41012 0.429388 0.974314 
0.429388 -5.52608 1.4224 
0.974314 1.4224 -9.6766 
-7.39352 -0.157648 2.09307 
-0.157648 -7.75309 1.48199 
2.09307 1.48199 -5.4662 
-7.51124 1.17545 3.81439 
1.17545 -7.75519 3.09784 
3.81439 3.09784 -5.34638 
-7.9733 0.230432 1.69167 
0.230432 -7.43713 1.96439 
1.69167 1.96439 -5.20238 
-9.98702 0.016696 -0.180637 
0.016696 -9.94427 0.0789318 
-0.180637 0.0789318 -9.96782 
-9.97712 0.0125545 -0.177796 
0.0125545 -9.93024 0.106018 
-0.177796 0.106018 -9.99175 
-9.97568 0.00582059 -0.196385 
0.00582059 -9.94639 0.0831978 
-0.196385 0.0831978 -9.97704 
-9.99598 0.0200686 -0.183551 
0.0200686 -9.94693 0.0743383 
-0.183551 0.0743383 -9.95619 
-9.68147 0.0176419 -0.381272 
0.0176419 -9.67671 0.243626 
-0.381272 0.243626 -9.3725 
-9.71305 0.0362033 -0.38142 
0.0362033 -9.57897 0.177538 
-0.38142 0.177538 -9.43866 
-9.5575 0.0404501 -0.184458 
0.0404501 -9.53636 0.246391 
-0.184458 0.246391 -9.63682 
-9.78656 0.0432164 -0.174609 
0.0432164 -9.73069 0.0845965 
-0.174609 0.0845965 -9.21343 
-9.96712 -0.00069654 -0.365595 
-0.00069654 -9.92732 0.0778389 
-0.365595 0.0778389 -9.97381 
-9.97154 0.0120001 -0.375615 
0.0120001 -9.92585 0.0603198 
-0.375615 0.0603198 -9.97085 
-9.96067 0.00287183 -0.348232 
0.00287183 -9.91229 0.0541349 
-0.348232 0.0541349 -9.99528 
-9.98172 0.000879472 -0.381925 
0.000879472 -9.94632 0.0574258 
-0.381925 0.0574258 -9.94021 
-8.94964 -0.00644981 0.661095 
-0.00644981 -8.97385 0.0385797 
0.661095 0.0385797 -10.7622 
-9.4104 0.0415404 0.802605 
0.0415404 -9.19198 -0.0832385 
0.802605 -0.0832385 -10.0833 
-9.30334 0.236303 0.237176 
0.236303 -9.31802 -0.0697039 
0.237176 -0.0697039 -10.0643 
-9.47055 -0.00579302 0.854518 
-0.00579302 -9.28369 0.170302 
0.854518 0.170302 -9.93141 
-9.88953 -0.000262504 -0.0331014 
-0.000262504 -9.91834 0.649273 
-0.0331014 0.649273 -9.88238 
-9.93042 0.0279745 -0.0213068 
0.0279745 -9.77195 0.630781 
-0.0213068 0.630781 -9.98787 
-9.89757 -0.00896448 -0.0412926 
-0.00896448 -9.93855 0.670187 
-0.0412926 0.670187 -9.85413 
-9.87758 -0.00853123 -0.059183 
-0.00853123 -9.93286 0.637145 
-0.059183 0.637145 -9.87981 
-18.4403 -0.947259 -0.15103 
-0.947259 -14.4236 -2.4855 
-0.15103 -2.4855 -9.29096 
-13.3537 0.257405 0.531229 
0.257405 -11.6328 0.0493592 
0.531229 0.0493592 -17.1684 
-11.8064 1.43764 2.68642 
1.43764 -5.63112 -0.042455 
2.68642 -0.042455 -24.7174 
-15.1382 -0.524143 -2.82247 
-0.524143 -12.361 1.83449 
-2.82247 1.83449 -14.6557 
-9.39659 0.123605 0.428578 
0.123605 -9.1575 0.267079 
0.428578 0.267079 -9.25103 
-9.39355 -0.00768851 0.480815 
-0.00768851 -9.4322 0.158899 
0.480815 0.158899 -8.97936 
-9.40077 0.0306071 0.615896 
0.0306071 -9.37851 0.156554 
0.615896 0.156554 -9.02584 
-9.70719 0.19449 0.768033 
0.19449 -9.45395 0.677886 
0.768033 0.677886 -8.64397 
-9.97793 -0.00331858 0.111294 
-0.00331858 -10.0044 -0.477572 
0.111294 -0.477572 -9.96223 
-9.97367 0.000905242 0.122459 
0.000905242 -9.95934 -0.453987 
0.122459 -0.453987 -10.0115 
-9.97357 -0.00396713 0.0974358 
-0.00396713 -9.98662 -0.46677 
0.0974358 -0.46677 -9.98438 
-9.98465 0.00699797 0.104407 
0.00699797 -10.0119 -0.485802 
0.104407 -0.485802 -9.94798 
-9.88685 0.0105915 0.511207 
0.0105915 -9.89015 -0.00533972 
0.511207 -0.00533972 -9.91467 
-9.85679 -0.0328402 0.493118 
-0.0328402 -9.97022 -0.0026426 
0.493118 -0.0026426 -9.86466 
-9.85951 -0.0197741 0.502086 
-0.0197741 -9.89739 0.000919845 
0.502086 0.000919845 -9.93477 
-9.95549 -0.0130015 0.529806 
-0.0130015 -9.85322 0.0446513 
0.529806 0.0446513 -9.88296 
-10.7712 -1.69541 -0.635874 
-1.69541 -9.95696 -0.23941 
-0.635874 -0.23941 -15.4692 
-11.165 -1.4676 -1.00006 
-1.4676 -14.3231 0.96381 
-1.00006 0.96381 -10.7093 
-10.8119 0.816358 -0.287471 
0.816358 -9.25229 -1.52204 
-0.287471 -1.52204 -16.1332 
-12.2183 -1.80759 0.733005 
-1.80759 -9.85766 1.66493 
0.733005 1.66493 -14.1214 
-9.64789 0.407579 0.00108192 
0.407579 -9.51035 -0.266075 
0.00108192 -0.266075 -15.0797 
-10.2328 -1.04033 -0.639045 
-1.04033 -12.3795 0.04461 
-0.639045 0.04461 -11.6256 
-6.47181 0.172064 -0.678783 
0.172064 -11.8725 -0.281808 
-0.678783 -0.281808 -15.8936 
-8.27612 0.0345776 -1.82848 
0.0345776 -12.9999 -1.95451 
-1.82848 -1.95451 -12.9619 
-9.97347 0.00903566 0.475092 
0.00903566 -9.96436 -0.156414 
0.475092 -0.156414 -9.97563 
-9.97069 -0.00108181 0.465183 
-0.00108181 -9.95218 -0.149938 
0.465183 -0.149938 -9.99059 
-9.97503 0.0202801 0.474538 
0.0202801 -9.95792 -0.1578 
0.474538 -0.1578 -9.98051 
-9.97515 0.010094 0.466389 
0.010094 -9.97199 -0.16326 
0.466389 -0.16326 -9.96633 
-9.89031 0.0195303 -0.367257 
0.0195303 -9.92295 0.470524 
-0.367257 0.470524 -9.92653 
-9.86637 0.0107723 -0.365604 
0.0107723 -9.96469 0.494928 
-0.365604 0.494928 -9.90874 
-9.9234 -0.0379812 -0.322318 
-0.0379812 -9.85688 0.481191 
-0.322318 0.481191 -9.95952 
-9.93268 -0.0513195 -0.321146 
-0.0513195 -9.89213 0.454862 
-0.321146 0.454862 -9.91498 
-9.92912 0.008663 0.34872 
0.008663 -10.0473 0.253911 
0.34872 0.253911 -10.0197 
-10.0207 -0.0250783 0.318775 
-0.0250783 -10.053 0.267689 
0.318775 0.267689 -9.92246 
-9.97541 -0.0065422 0.343602 
-0.0065422 -10.0135 0.296029 
0.343602 0.296029 -10.0072 
-10.0394 -0.0045252 0.343383 
-0.0045252 -10.0379 0.270059 
0.343383 0.270059 -9.91877 
-8.49312 0.0603553 1.57272 
0.0603553 -7.02721 1.88726 
1.57272 1.88726 -7.85074 
-7.90357 0.657197 1.44895 
0.657197 -7.04709 2.25948 
1.44895 2.25948 -8.42041 
-7.53284 2.27314 0.473827 
2.27314 -7.14207 1.16707 
0.473827 1.16707 -8.69616 
-7.10699 0.696749 1.07835 
0.696749 -8.51987 2.23587 
1.07835 2.23587 -7.74421 
-9.88728 0.0116843 0.0895058 
0.0116843 -9.86755 -0.0275485 
0.0895058 -0.0275485 -10.0249 
-9.93539 -0.00114037 0.102504 
-0.00114037 -9.91158 0.0134454 
0.102504 0.0134454 -9.93281 
-9.90155 0.00348799 0.0852937 
0.00348799 -9.91018 0.0238787 
0.0852937 0.0238787 -9.96804 
-9.95549 0.0041801 0.113457 
0.0041801 -9.90145 0.031916 
0.113457 0.031916 -9.92282 
-9.62293 -0.810427 1.36459 
-0.810427 -11.782 -0.055481 
1.36459 -0.055481 -16.1383 
-8.5438 -2.03436 1.47995 
-2.03436 -11.0135 -1.66769 
1.47995 -1.66769 -17.9859 
-12.9055 -0.854077 0.517804 
-0.854077 -14.8857 -2.22287 
0.517804 -2.22287 -9.75197 
-10.0358 -0.341598 -1.26073 
-0.341598 -12.506 0.405137 
-1.26073 0.405137 -15.0015 
-8.48078 0.0596899 0.553072 
0.0596899 -9.29245 -0.288532 
0.553072 -0.288532 -8.88809 
-8.39089 -0.435142 0.79544 
-0.435142 -8.9202 -0.657552 
0.79544 -0.657552 -9.35024 
-8.51458 0.0435463 0.421009 
0.0435463 -9.50786 -0.441881 
0.421009 -0.441881 -8.63889 
-8.08087 -0.149725 0.65514 
-0.149725 -9.41838 -0.181665 
0.65514 -0.181665 -9.16208 
-9.03507 0.0673554 -0.0032949 
0.0673554 -9.29574 0.960852 
-0.0032949 0.960852 -8.59482 
-9.13101 -0.0747044 -0.124267 
-0.0747044 -8.87071 0.875974 
-0.124267 0.875974 -8.92391 
-8.84382 0.0715005 0.0413074 
0.0715005 -9.14515 0.881035 
0.0413074 0.881035 -8.93667 
-9.16541 0.103059 -0.049888 
0.103059 -8.95097 0.831131 
-0.049888 0.831131 -8.80925 
-9.88607 0.000873404 -0.496641 
0.000873404 -9.90068 0.219834 
-0.496641 0.219834 -9.89407 
-9.8901 0.0165828 -0.49326 
0.0165828 -9.87918 0.207094 
-0.49326 0.207094 -9.91153 
-9.81628 -0.00844328 -0.491529 
-0.00844328 -9.91819 0.20555 
-0.491529 0.20555 -9.94634 
-9.87875 0.00505047 -0.499065 
0.00505047 -9.90487 0.192583 
-0.499065 0.192583 -9.8972 
-9.1564 -0.28673 0.497053 
-0.28673 -6.05525 -0.456728 
0.497053 -0.456728 -9.92647 
-7.99008 -0.730096 -0.165158 
-0.730096 -9.51766 -0.749631 
-0.165158 -0.749631 -7.63039 
-7.84881 -1.12874 0.236883 
-1.12874 -8.95691 -1.3207 
0.236883 -1.3207 -8.33241 
-7.8031 0.684328 0.903796 
0.684328 -8.13584 -2.37711 
0.903796 -2.37711 -9.19919 
-5.80127 0.986706 2.79409 
0.986706 -8.73853 -0.55677 
2.79409 -0.55677 -4.19752 
-7.52083 -0.321192 3.04589 
-0.321192 -6.70289 -1.08346 
3.04589 -1.08346 -4.5136 
-8.24861 0.0309905 2.84398 
0.0309905 -7.63448 -0.561354 
2.84398 -0.561354 -2.85424 
-7.22355 -0.0608716 3.17705 
-0.0608716 -6.97582 0.464108 
3.17705 0.464108 -4.53796 
-9.62898 0.00751246 -0.113969 
0.00751246 -9.70427 0.320185 
-0.113969 0.320185 -9.30703 
-9.65053 0.00795184 -0.174561 
0.00795184 -9.69472 0.31138 
-0.174561 0.31138 -9.29503 
-9.56367 -0.0331923 -0.162018 
-0.0331923 -9.57891 0.231573 
-0.162018 0.231573 -9.4977 
-9.72262 0.00827661 -0.150172 
0.00827661 -9.72956 0.130887 
-0.150172 0.130887 -9.1881 
-9.61387 -0.0460137 0.0402832 
-0.0460137 -9.78346 -0.0567858 
0.0402832 -0.0567858 -9.68764 
-9.68832 -0.0630882 0.0203832 
-0.0630882 -9.74733 -0.0432297 
0.0203832 -0.0432297 -9.64931 
-9.78792 -0.15677 0.0881398 
-0.15677 -9.62606 0.0733531 
0.0881398 0.0733531 -9.67099 
-9.62121 -0.0369486 0.0316076 
-0.0369486 -9.83943 -0.0400765 
0.0316076 -0.0400765 -9.62433 
-9.17462 -0.162285 -0.37503 
-0.162285 -9.4752 -0.662858 
-0.37503 -0.662858 -9.09409 
-9.28828 -0.00311966 -0.418922 
-0.00311966 -9.40153 -0.787195 
-0.418922 -0.787195 -9.0541 
-9.30843 0.0912955 -0.329051 
0.0912955 -9.20456 -0.835384 
-0.329051 -0.835384 -9.23092 
-9.23439 0.100692 -0.451948 
0.100692 -9.41192 -0.826531 
-0.451948 -0.826531 -9.09759 
-9.92056 -0.00223547 0.0932697 
-0.00223547 -10.203 -0.0678737 
0.0932697 -0.0678737 -9.67358 
-9.81608 -0.00415699 -0.011013 
-0.00415699 -9.7061 0.0839915 
-0.011013 0.0839915 -10.2749 
-9.84568 -0.0475958 0.0675961 
-0.0475958 -9.83119 -0.0372037 
0.0675961 -0.0372037 -10.1202 
-9.8996 -0.116095 -0.0280957 
-0.116095 -9.78958 -0.235062 
-0.0280957 -0.235062 -10.1079 
-9.96603 -0.0030216 0.405046 
-0.0030216 -9.93379 -0.104355 
0.405046 -0.104355 -9.95691 
-9.94723 0.0193373 0.420839 
0.0193373 -9.915 -0.107667 
0.420839 -0.107667 -9.9945 
-9.94134 0.0119908 0.424739 
0.0119908 -9.92155 -0.083611 
0.424739 -0.083611 -9.99385 
-9.95494 0.0173688 0.392869 
0.0173688 -9.93183 -0.0972924 
0.392869 -0.0972924 -9.96996 
-9.31667 0.112204 0.367286 
0.112204 -9.24842 0.240406 
0.367286 0.240406 -9.46664 
-9.63284 -0.0380371 0.246416 
-0.0380371 -9.27545 0.250337 
0.246416 0.250337 -9.12344 
-9.58008 0.138726 0.339187 
0.138726 -9.4348 0.199786 
0.339187 0.199786 -9.01685 
-9.53784 0.212526 0.709351 
0.212526 -9.66365 0.722453 
0.709351 0.722453 -8.83024 
-9.53611 0.0952617 -0.417254 
0.0952617 -9.55435 0.13566 
-0.417254 0.13566 -9.50558 
-9.46132 0.017738 -0.368872 
0.017738 -9.58286 0.173103 
-0.368872 0.173103 -9.55187 
-9.42155 -0.0358592 -0.302488 
-0.0358592 -9.56194 0.15971 
-0.302488 0.15971 -9.61256 
-9.3946 0.0364498 -0.352921 
0.0364498 -9.58291 0.211431 
-0.352921 0.211431 -9.61853 
-10.2564 0.403307 -0.653506 
0.403307 -9.48844 -0.864069 
-0.653506 -0.864069 -12.1818 
-10.3099 0.106718 -0.092092 
0.106718 -9.47888 0.428804 
-0.092092 0.428804 -12.1379 
-11.112 0.384259 -0.225777 
0.384259 -10.5237 -0.383102 
-0.225777 -0.383102 -10.2909 
-11.4172 0.345456 -0.205721 
0.345456 -9.50618 -0.444694 
-0.205721 -0.444694 -11.0032 
-9.92931 -0.0455936 0.419998 
-0.0455936 -9.94673 -0.266501 
0.419998 -0.266501 -9.92051 
-9.92079 0.0301076 0.458359 
0.0301076 -9.92952 -0.268931 
0.458359 -0.268931 -9.94624 
-9.91457 -0.0335898 0.430463 
-0.0335898 -9.9155 -0.279997 
0.430463 -0.279997 -9.96649 
-9.90391 0.036981 0.457511 
0.036981 -9.96303 -0.283661 
0.457511 -0.283661 -9.92961 
-7.90973 0.0962127 2.09513 
0.0962127 -6.33875 -1.76241 
2.09513 -1.76241 -3.4259 
-5.29555 0.51803 0.456452 
0.51803 -8.01221 -3.19149 
0.456452 -3.19149 -4.36662 
-7.33928 1.0615 2.34024 
1.0615 -7.78275 -1.08792 
2.34024 -1.08792 -2.55236 
-6.03634 0.187709 2.5108 
0.187709 -7.30233 -0.764001 
2.5108 -0.764001 -4.33572 
-7.47432 -2.15873 -0.680777 
-2.15873 -5.57453 1.59935 
-0.680777 1.59935 -2.9119 
-6.39183 0.463936 -0.619 
0.463936 -6.35588 2.83034 
-0.619 2.83034 -3.21305 
-7.73111 0.202987 -0.621865 
0.202987 -6.94683 1.47005 
-0.621865 1.47005 -1.28282 
-6.9006 0.0973595 -1.42409 
0.0973595 -6.16097 1.88191 
-1.42409 1.88191 -2.89919 
-9.89616 -0.00366757 0.0666711 
-0.00366757 -9.9312 -0.663982 
0.0666711 -0.663982 -9.86818 
-9.94176 0.000911061 0.0397824 
0.000911061 -9.92839 -0.700936 
0.0397824 -0.700936 -9.82539 
-9.91682 0.0187313 0.0153267 
0.0187313 -9.80722 -0.650551 
0.0153267 -0.650551 -9.9715 
-9.90045 -0.0118912 0.0614723 
-0.0118912 -9.90869 -0.660209 
0.0614723 -0.660209 -9.8864 
-11.9877 -0.246742 0.258437 
-0.246742 -9.42996 -1.19274 
0.258437 -1.19274 -13.1721 
-12.7422 0.370322 0.0449937 
0.370322 -10.1924 -0.839913 
0.0449937 -0.839913 -11.6552 
-11.7944 -0.748849 0.76767 
-0.748849 -9.51853 -1.1152 
0.76767 -1.1152 -13.2769 
-12.0189 -0.0762569 0.655016 
-0.0762569 -9.78396 0.166557 
0.655016 0.166557 -12.7869 
-9.07907 0.140949 0.734763 
0.140949 -8.95959 0.618424 
0.734763 0.618424 -8.9592 
-8.95707 -0.211589 0.671952 
-0.211589 -9.14971 0.588765 
0.671952 0.588765 -8.89107 
-8.98987 -0.233437 0.668287 
-0.233437 -9.18638 0.75207 
0.668287 0.75207 -8.8216 
-8.95206 0.0710767 0.625108 
0.0710767 -9.20396 0.655098 
0.625108 0.655098 -8.84184 
-9.75032 -0.000704072 0.101974 
-0.000704072 -9.81682 -0.316895 
0.101974 -0.316895 -9.44522 
-9.69982 -0.0173186 0.161318 
-0.0173186 -9.72434 -0.261343 
0.161318 -0.261343 -9.58819 
-9.65332 -0.0343308 0.109487 
-0.0343308 -9.90278 -0.174448 
0.109487 -0.174448 -9.45625 
-9.7245 0.0439364 0.0956373 
0.0439364 -9.686 -0.254451 
0.0956373 -0.254451 -9.60185 
-9.97776 -0.0037495 0.476348 
-0.0037495 -9.973 -0.0868565 
0.476348 -0.0868565 -9.95412 
-9.9689 0.021243 0.480402 
0.021243 -9.94395 -0.0801187 
0.480402 -0.0801187 -9.99203 
-9.95463 0.00208818 0.470895 
0.00208818 -9.95175 -0.0747834 
0.470895 -0.0747834 -9.9985 
-9.9753 0.00389761 0.46817 
0.00389761 -9.95999 -0.0833856 
0.46817 -0.0833856 -9.96959 
-9.12064 -0.39866 -0.267045 
-0.39866 -9.4932 -0.972567 
-0.267045 -0.972567 -8.53287 
-9.29149 0.0506038 -0.215582 
0.0506038 -8.66087 -0.90717 
-0.215582 -0.90717 -9.19436 
-8.9851 0.0326373 -0.262212 
0.0326373 -8.92738 -0.935997 
-0.262212 -0.935997 -9.23423 
-9.02834 0.00122256 -0.0237181 
0.00122256 -9.18733 -0.787348 
-0.0237181 -0.787348 -8.93105 
-9.60663 0.0425985 -0.275656 
0.0425985 -9.60479 -0.626804 
-0.275656 -0.626804 -9.54534 
-9.62732 -0.0535288 -0.252451 
-0.0535288 -9.80811 -0.785366 
-0.252451 -0.785366 -9.32133 
-9.60395 0.0324452 -0.22489 
0.0324452 -9.37158 -0.67649 
-0.22489 -0.67649 -9.78123 
-9.64167 -0.0532958 -0.312872 
-0.0532958 -9.67221 -0.571161 
-0.312872 -0.571161 -9.44288 
-9.43597 -0.13301 0.574094 
-0.13301 -9.41849 0.619611 
0.574094 0.619611 -9.07489 
-9.29624 -0.0355856 0.522901 
-0.0355856 -9.28736 0.616762 
0.522901 0.616762 -9.34575 
-9.29359 0.0563849 0.550371 
0.0563849 -9.38436 0.53833 
0.550371 0.53833 -9.2514 
-9.37908 0.0144081 0.500667 
0.0144081 -9.34466 0.503514 
0.500667 0.503514 -9.20561 
-9.92917 -0.00834673 -0.431051 
-0.00834673 -9.92718 -0.025781 
-0.431051 -0.025781 -9.99734 
-9.95546 -0.00347794 -0.421936 
-0.00347794 -9.92698 -0.0250132 
-0.421936 -0.0250132 -9.97126 
-9.94763 -0.018645 -0.419187 
-0.018645 -9.92697 -0.0109372 
-0.419187 -0.0109372 -9.97909 
-9.95403 -0.00769963 -0.431179 
-0.00769963 -9.9514 -0.0132743 
-0.431179 -0.0132743 -9.94826 
-9.65877 -0.0912154 -0.390824 
-0.0912154 -9.55218 0.520767 
-0.390824 0.520767 -9.94671 
-9.6677 0.0691498 -0.322357 
0.0691498 -9.99717 0.531265 
-0.322357 0.531265 -9.49278 
-9.67195 -0.0363276 -0.355117 
-0.0363276 -9.77268 0.464269 
-0.355117 0.464269 -9.71303 
-9.66813 -0.076666 -0.373963 
-0.076666 -9.79471 0.275953 
-0.373963 0.275953 -9.69482 
-9.95889 0.00683938 -0.110258 
0.00683938 -9.73664 -0.617106 
-0.110258 -0.617106 -9.98675 
-9.88225 0.00396168 -0.160191 
0.00396168 -9.8982 -0.613655 
-0.160191 -0.613655 -9.90183 
-9.90071 0.0143257 -0.214396 
0.0143257 -9.97164 -0.670485 
-0.214396 -0.670485 -9.80993 
-9.85159 -0.0477655 -0.198272 
-0.0477655 -9.95841 -0.58456 
-0.198272 -0.58456 -9.87228 
-4.43603 0.772482 2.49266 
0.772482 -4.79646 1.8171 
2.49266 1.8171 0.9074 
-0.987265 0.125326 1.42746 
0.125326 -0.868566 -1.36162 
1.42746 -1.36162 -6.46926 
-6.4847 0.377012 0.277375 
0.377012 -7.51066 1.10684 
0.277375 1.10684 5.67027 
-3.36964 0.728433 6.0488 
0.728433 -4.72076 0.257348 
6.0488 0.257348 -0.234693 
-9.92324 0.00563766 -0.0819933 
0.00563766 -9.92237 0.221307 
-0.0819933 0.221307 -10.0622 
-9.98759 0.000552874 -0.100315 
0.000552874 -9.99726 0.195936 
-0.100315 0.195936 -9.92296 
-9.98363 -0.0317768 -0.110784 
-0.0317768 -9.94919 0.194903 
-0.110784 0.194903 -9.97498 
-9.98678 0.0143903 -0.138011 
0.0143903 -9.99786 0.201232 
-0.138011 0.201232 -9.92316 
-9.18196 0.0464536 -0.344208 
0.0464536 -9.62787 -0.067576 
-0.344208 -0.067576 -9.68891 
-9.36619 -0.0467282 -0.409206 
-0.0467282 -9.59608 -0.091559 
-0.409206 -0.091559 -9.53647 
-9.60402 -0.147205 -0.371593 
-0.147205 -9.43182 -0.0747964 
-0.371593 -0.0747964 -9.46291 
-9.37186 -0.172746 -0.511018 
-0.172746 -9.5396 -0.10799 
-0.511018 -0.10799 -9.58729 
-11.902 3.93166 -7.11813 
3.93166 -8.92629 1.76098 
-7.11813 1.76098 4.69246 
-4.4696 1.14751 1.04816 
1.14751 -3.91314 -0.254369 
1.04816 -0.254369 -7.75307 
-16.5142 1.77516 -6.7812 
1.77516 -6.61496 4.92188 
-6.7812 4.92188 6.99339 
-3.08883 -1.98864 -5.66118 
-1.98864 -6.97925 1.82909 
-5.66118 1.82909 -6.06773 
-8.04636 -0.957639 -1.66845 
-0.957639 -10.1924 0.441458 
-1.66845 0.441458 -8.03801 
-8.20323 0.520035 -0.249982 
0.520035 -9.85217 -0.866119 
-0.249982 -0.866119 -8.22138 
-7.0864 0.739715 -1.08086 
0.739715 -8.76707 -0.0228274 
-1.08086 -0.0228274 -10.4233 
-8.42761 -0.332693 -1.34867 
-0.332693 -8.78177 -0.183085 
-1.34867 -0.183085 -9.0674 
-10.001 0.0246552 0.10571 
0.0246552 -9.99804 0.0361126 
0.10571 0.0361126 -10.0749 
-9.95255 -0.0770678 -0.0181308 
-0.0770678 -9.79511 -0.0228972 
-0.0181308 -0.0228972 -10.3263 
-10.0837 0.0322971 0.142808 
0.0322971 -10.0821 -0.0408355 
0.142808 -0.0408355 -9.9081 
-10.0706 0.0714308 0.113583 
0.0714308 -10.0393 0.0701807 
0.113583 0.0701807 -9.96409 
-8.13742 0.0811137 0.973035 
0.0811137 -8.93552 0.292682 
0.973035 0.292682 -9.13014 
-8.8503 -0.114477 1.15377 
-0.114477 -9.12462 0.527525 
1.15377 0.527525 -8.22816 
-8.64583 0.00173195 0.82745 
0.00173195 -8.9228 0.562904 
0.82745 0.562904 -8.63446 
-8.6982 -0.154979 0.831176 
-0.154979 -9.03087 0.549674 
0.831176 0.549674 -8.47401 
-9.74596 -0.32601 0.714352 
-0.32601 -10.6596 0.203015 
0.714352 0.203015 -12.5329 
-10.4594 -0.271279 -0.100922 
-0.271279 -11.5877 -0.433402 
-0.100922 -0.433402 -10.8913 
-10.4299 -0.036946 0.416345 
-0.036946 -11.341 -0.0488003 
0.416345 -0.0488003 -11.1675 
-11.1481 -0.136539 0.0580576 
-0.136539 -12.0232 0.596403 
0.0580576 0.596403 -9.76707 
-10.1468 0.000133144 -0.00258805 
0.000133144 -10.2908 -0.0789958 
-0.00258805 -0.0789958 -9.99587 
-10.1327 -0.0481899 0.0888331 
-0.0481899 -10.2339 -0.0736261 
0.0888331 -0.0736261 -10.0668 
-10.0614 0.0584221 0.0184808 
0.0584221 -10.1711 -0.0483126 
0.0184808 -0.0483126 -10.2009 
-9.99341 0.0574159 -0.0135429 
0.0574159 -10.2285 0.00256815 
-0.0135429 0.00256815 -10.2115 
-9.83799 0.00520316 0.468593 
0.00520316 -9.92786 -0.196075 
0.468593 -0.196075 -9.94677 
-9.89567 0.0211213 0.472512 
0.0211213 -9.8933 -0.199932 
0.472512 -0.199932 -9.92364 
-9.88221 0.010173 0.475292 
0.010173 -9.92385 -0.180461 
0.475292 -0.180461 -9.90656 
-9.89077 0.00367934 0.475564 
0.00367934 -9.92087 -0.213076 
0.475564 -0.213076 -9.90098 
-9.09434 0.100385 0.196378 
0.100385 -8.99364 0.816632 
0.196378 0.816632 -9.01941 
-8.99695 0.0451196 0.0947502 
0.0451196 -9.49935 0.928002 
0.0947502 0.928002 -8.61109 
-8.9907 0.0407697 0.0785249 
0.0407697 -8.97733 0.899281 
0.0785249 0.899281 -9.13936 
-9.09236 -0.00418966 0.174238 
-0.00418966 -9.04556 0.708584 
0.174238 0.708584 -8.96947 
-1.87439 -0.532383 -0.49934 
-0.532383 -1.51039 1.10045 
-0.49934 1.10045 -6.48869 
-4.91738 -0.066991 0.795738 
-0.066991 -7.02595 0.0929831 
0.795738 0.0929831 2.06986 
-4.52739 0.444197 -0.533975 
0.444197 -5.22217 -0.896289 
-0.533975 -0.896289 -0.123906 
-4.15761 -0.0227963 -2.82631 
-0.0227963 -4.88906 0.273181 
-2.82631 0.273181 -0.826806 
-9.94603 -0.0013671 0.304416 
-0.0013671 -9.93709 -0.0365473 
0.304416 -0.0365473 -10.0355 
-9.99307 0.000774158 0.301799 
0.000774158 -9.9741 -0.0265449 
0.301799 -0.0265449 -9.95146 
-9.9445 -0.00534882 0.301793 
-0.00534882 -9.98327 -0.0172598 
0.301793 -0.0172598 -9.99087 
-9.99552 -0.00973341 0.319795 
-0.00973341 -9.96849 -0.0118939 
0.319795 -0.0118939 -9.95462 
-9.08605 -0.0327714 -0.185053 
-0.0327714 -9.29903 0.81484 
-0.185053 0.81484 -9.12653 
-9.18178 -0.0341782 -0.176625 
-0.0341782 -9.35839 0.847139 
-0.176625 0.847139 -8.97144 
-9.22903 -0.0958771 -0.300385 
-0.0958771 -9.12392 0.85964 
-0.300385 0.85964 -9.15866 
-9.19961 -0.0340973 -0.209053 
-0.0340973 -9.22305 0.865011 
-0.209053 0.865011 -9.08895 
-9.97752 -0.00838853 -0.540021 
-0.00838853 -9.97419 -0.0931825 
-0.540021 -0.0931825 -9.94035 
-9.97735 -0.00189396 -0.526464 
-0.00189396 -9.94556 -0.0773743 
-0.526464 -0.0773743 -9.96916 
-9.93477 0.000187367 -0.527023 
0.000187367 -9.9321 -0.0622484 
-0.527023 -0.0622484 -10.0252 
-9.98007 -0.0182856 -0.520037 
-0.0182856 -9.95077 -0.0750845 
-0.520037 -0.0750845 -9.96122 
-9.97839 0.000256549 0.205464 
0.000256549 -10.0034 -0.249141 
0.205464 -0.249141 -9.95033 
-9.96074 0.00276255 0.204075 
0.00276255 -9.98534 -0.237824 
0.204075 -0.237824 -9.98606 
-9.93712 0.0200087 0.21328 
0.0200087 -9.97436 -0.265564 
0.21328 -0.265564 -10.0207 
-9.99307 -0.00347786 0.209737 
-0.00347786 -9.99714 -0.237563 
0.209737 -0.237563 -9.94192 
-7.8885 -3.37985 -2.51558 
-3.37985 -5.54424 0.508391 
-2.51558 0.508391 -5.60256 
-6.59546 0.994396 -2.06396 
0.994396 -6.80395 2.65876 
-2.06396 2.65876 -5.63589 
-7.99462 1.48777 -2.97553 
1.48777 -8.59322 1.61717 
-2.97553 1.61717 -2.44746 
-7.1478 0.141048 -4.16999 
0.141048 -6.11617 1.68082 
-4.16999 1.68082 -5.77133 
-9.54594 0.0857221 -0.318703 
0.0857221 -9.91873 0.696513 
-0.318703 0.696513 -9.30583 
-9.57928 -0.158594 -0.286582 
-0.158594 -9.62119 0.582178 
-0.286582 0.582178 -9.57002 
-9.56786 -0.0919324 -0.29861 
-0.0919324 -9.52759 0.644844 
-0.29861 0.644844 -9.67505 
-9.67979 -0.0242736 -0.297738 
-0.0242736 -9.62994 0.435036 
-0.297738 0.435036 -9.46077 
-5.56328 1.03669 -1.83839 
1.03669 -8.12603 0.626527 
-1.83839 0.626527 2.48245 
-5.4995 -0.174502 -0.930914 
-0.174502 -4.53272 0.572808 
-0.930914 0.572808 -1.17464 
-3.98821 0.472173 -0.199058 
0.472173 -5.02692 0.490317 
-0.199058 0.490317 -2.19172 
-3.03021 0.8527 1.17593 
0.8527 -5.1277 1.8237 
1.17593 1.8237 -3.04895 
-6.98267 -1.27678 0.938907 
-1.27678 -5.78096 0.144133 
0.938907 0.144133 -1.12231 
-7.15814 -0.921867 0.794256 
-0.921867 -5.94628 0.225597 
0.794256 0.225597 -0.781519 
-6.59118 0.772004 -0.511774 
0.772004 -7.79709 -0.300326 
-0.511774 -0.300326 0.502322 
-4.82214 1.88377 2.99649 
1.88377 -5.64733 0.159699 
2.99649 0.159699 -3.41648 
-9.89305 -0.0171061 0.446923 
-0.0171061 -9.90221 0.434478 
0.446923 0.434478 -9.85232 
-9.82284 0.0286855 0.450849 
0.0286855 -9.92621 0.368277 
0.450849 0.368277 -9.89853 
-9.89018 0.00766565 0.400824 
0.00766565 -9.8981 0.45541 
0.400824 0.45541 -9.8593 
-9.888 -0.0193991 0.362182 
-0.0193991 -9.95313 0.484677 
0.362182 0.484677 -9.80645 
-9.38231 0.0417949 0.186166 
0.0417949 -9.3848 0.688239 
0.186166 0.688239 -9.33527 
-9.3567 0.00535217 0.146617 
0.00535217 -9.57598 0.775526 
0.146617 0.775526 -9.16971 
-9.34788 0.0292912 0.168922 
0.0292912 -9.26926 0.723035 
0.168922 0.723035 -9.48524 
-9.39281 0.0214096 0.218267 
0.0214096 -9.4152 0.612121 
0.218267 0.612121 -9.29437 
-9.57852 0.763889 0.101142 
0.763889 -9.58522 0.1585 
0.101142 0.1585 -10.5103 
-10.154 0.316377 0.00478466 
0.316377 -9.98019 0.147088 
0.00478466 0.147088 -9.53989 
-10.2919 -0.641362 -0.135922 
-0.641362 -9.56038 0.0633248 
-0.135922 0.0633248 -9.82181 
-9.95737 -0.398988 0.178055 
-0.398988 -9.80134 0.0608644 
0.178055 0.0608644 -9.91533 
-8.4076 -0.981072 0.397712 
-0.981072 -8.02002 0.673168 
0.397712 0.673168 -8.42192 
-9.29284 0.6713 0.542082 
0.6713 -7.5167 0.938012 
0.542082 0.938012 -8.04001 
-8.91166 0.163606 -0.0274412 
0.163606 -7.38818 1.25537 
-0.0274412 1.25537 -8.5497 
-8.91383 0.0319498 0.488876 
0.0319498 -7.57492 1.24684 
0.488876 1.24684 -8.3608 
-7.42176 0.768481 0.115106 
0.768481 -9.82531 -0.186768 
0.115106 -0.186768 5.98233 
-1.73112 0.0246353 -0.0527777 
0.0246353 -2.16532 -0.406564 
-0.0527777 -0.406564 -7.3683 
-5.35892 0.472254 -0.615371 
0.472254 -5.95404 -1.99012 
-0.615371 -1.99012 0.0482145 
-4.13174 -0.563052 0.821599 
-0.563052 -5.07487 -6.60677 
0.821599 -6.60677 -2.05814 
-9.94976 0.017317 -0.361398 
0.017317 -9.93957 0.352744 
-0.361398 0.352744 -9.99133 
-9.96616 0.00433624 -0.351061 
0.00433624 -9.97974 0.340792 
-0.351061 0.340792 -9.93476 
-9.92203 0.00792519 -0.330149 
0.00792519 -9.93846 0.324994 
-0.330149 0.324994 -10.0202 
-9.96477 -0.00716787 -0.369649 
-0.00716787 -9.99037 0.332314 
-0.369649 0.332314 -9.92553 
-2.98761 1.67513 -0.377737 
1.67513 -3.17466 -2.44432 
-0.377737 -2.44432 -5.22871 
-9.11203 -2.76415 0.70031 
-2.76415 -4.08897 1.27469 
0.70031 1.27469 1.81003 
-7.72026 0.0319258 0.781975 
0.0319258 -8.77925 1.61907 
0.781975 1.61907 5.10853 
-3.55662 -1.28402 -3.92022 
-1.28402 -7.7748 0.0276274 
-3.92022 0.0276274 -0.0595582 
-9.53775 -0.0944173 0.308346 
-0.0944173 -9.05869 0.11745 
0.308346 0.11745 -10.2635 
-9.45172 0.0300477 0.216428 
0.0300477 -9.09554 0.0346118 
0.216428 0.0346118 -10.3126 
-9.41174 -0.00457203 0.305607 
-0.00457203 -9.30172 0.119267 
0.305607 0.119267 -10.1464 
-9.29196 -0.00981125 0.220253 
-0.00981125 -9.15682 0.00473398 
0.220253 0.00473398 -10.4111 
-9.93549 -0.0085911 0.494884 
-0.0085911 -9.91871 -0.0520896 
0.494884 -0.0520896 -9.9221 
-9.86786 0.00909059 0.48166 
0.00909059 -9.93163 -0.0262406 
0.48166 -0.0262406 -9.97681 
-9.93961 -0.00687748 0.514805 
-0.00687748 -9.94072 -0.0383505 
0.514805 -0.0383505 -9.89597 
-9.92248 -0.0070891 0.491972 
-0.0070891 -9.9279 -0.0380135 
0.491972 -0.0380135 -9.92592 
-11.2138 0.377338 0.190152 
0.377338 -12.211 -0.0212827 
0.190152 -0.0212827 -12.4783 
-10.4342 -0.336587 0.2431 
-0.336587 -11.0822 -0.806969 
0.2431 -0.806969 -14.3866 
-10.8349 -0.940817 0.151927 
-0.940817 -12.7732 0.462453 
0.151927 0.462453 -12.2949 
-11.5073 -0.436751 -0.137469 
-0.436751 -12.1186 0.859654 
-0.137469 0.859654 -12.2772 
-14.1425 -2.45687 -1.37689 
-2.45687 -9.79783 3.17002 
-1.37689 3.17002 -11.75 
-7.44915 -5.85383 0.540467 
-5.85383 -2.22083 -3.64691 
0.540467 -3.64691 -26.0203 
-10.2429 -2.73951 2.60735 
-2.73951 -1.42105 -2.05771 
2.60735 -2.05771 -24.0263 
-10.501 0.374662 2.01844 
0.374662 -11.7339 -3.44492 
2.01844 -3.44492 -13.4554 
-9.91824 0.0245341 -0.35748 
0.0245341 -9.92985 0.00941554 
-0.35748 0.00941554 -9.99463 
-9.97098 0.0131733 -0.334811 
0.0131733 -9.95429 -0.0166708 
-0.334811 -0.0166708 -9.91745 
-9.89362 0.00564004 -0.3456 
0.00564004 -9.9235 -0.0377358 
-0.3456 -0.0377358 -10.0256 
-9.98716 -0.00196353 -0.360775 
-0.00196353 -9.94779 -0.0129709 
-0.360775 -0.0129709 -9.90777 
-8.40251 -0.371774 -0.300854 
-0.371774 -8.42264 0.696225 
-0.300854 0.696225 -6.97284 
-8.83372 0.127204 -0.304734 
0.127204 -8.80585 1.48433 
-0.304734 1.48433 -6.15843 
-8.34276 0.392649 -0.0798823 
0.392649 -9.01693 0.680118 
-0.0798823 0.680118 -6.43831 
-8.35395 0.203817 -0.423396 
0.203817 -9.04034 1.17901 
-0.423396 1.17901 -6.40371 
-9.90282 0.0112335 -0.0561607 
0.0112335 -9.91727 -0.658446 
-0.0561607 -0.658446 -9.89686 
-9.93516 -0.00128698 -0.0401338 
-0.00128698 -9.93255 -0.693111 
-0.0401338 -0.693111 -9.84924 
-9.92583 -0.0283503 -0.0168673 
-0.0283503 -9.812 -0.6462 
-0.0168673 -0.6462 -9.97912 
-9.89705 0.00950437 -0.059341 
0.00950437 -9.93677 -0.662035 
-0.059341 -0.662035 -9.88313 
-4.01573 1.0122 0.828112 
1.0122 -3.56368 -0.871769 
0.828112 -0.871769 -1.56079 
-5.03406 -0.465045 -0.205897 
-0.465045 -3.34647 -1.44553 
-0.205897 -1.44553 -0.759669 
-3.58867 0.804398 0.0242945 
0.804398 -3.72273 -0.648052 
0.0242945 -0.648052 -1.82881 
-3.40868 0.430858 0.059367 
0.430858 -2.87222 -1.18538 
0.059367 -1.18538 -2.85931 
-9.07344 -0.0632133 -0.187364 
-0.0632133 -8.50204 -0.973822 
-0.187364 -0.973822 -8.79947 
-8.78418 -0.323759 0.00823421 
-0.323759 -8.9247 -1.05316 
0.00823421 -1.05316 -8.66607 
-8.78252 -0.156435 -0.0545282 
-0.156435 -8.72702 -0.888094 
-0.0545282 -0.888094 -8.86542 
-8.7296 -0.147109 -0.0449254 
-0.147109 -8.84167 -0.971014 
-0.0449254 -0.971014 -8.80369 
-9.38618 -0.447146 0.063036 
-0.447146 -9.51042 0.221613 
0.063036 0.221613 -9.43666 
-9.63494 0.186055 0.331532 
0.186055 -8.75561 -0.305977 
0.331532 -0.305977 -9.9427 
-9.56509 -0.279763 -0.317454 
-0.279763 -10.0428 0.443551 
-0.317454 0.443551 -8.72539 
-9.38839 -0.337764 0.119403 
-0.337764 -9.05859 0.428486 
0.119403 0.428486 -9.88628 
-9.24826 -0.786 0.255425 
-0.786 -7.25638 -1.64053 
0.255425 -1.64053 -8.62902 
-7.53822 0.121388 0.188206 
0.121388 -7.58983 -1.20229 
0.188206 -1.20229 -10.0056 
-8.93911 0.0710306 -0.084047 
0.0710306 -6.6369 -2.3826 
-0.084047 -2.3826 -9.55766 
-9.49068 -0.223782 0.000825344 
-0.223782 -7.79593 -1.4689 
0.000825344 -1.4689 -7.84705 
-9.97162 0.0119749 -0.494036 
0.0119749 -9.94721 0.156943 
-0.494036 0.156943 -9.97258 
-9.94927 0.00667799 -0.488099 
0.00667799 -9.94253 0.147729 
-0.488099 0.147729 -9.99959 
-9.96587 0.017389 -0.491401 
0.017389 -9.95751 0.166667 
-0.491401 0.166667 -9.96803 
-9.96914 0.0145246 -0.489646 
0.0145246 -9.96996 0.178382 
-0.489646 0.178382 -9.9523 
-9.69248 -0.0271714 0.539736 
-0.0271714 -9.83824 0.0848108 
0.539736 0.0848108 -9.84365 
-9.88366 -0.0789029 0.492962 
-0.0789029 -9.70559 0.075558 
0.492962 0.075558 -9.78512 
-9.75563 -0.0654397 0.524161 
-0.0654397 -9.81176 0.0868724 
0.524161 0.0868724 -9.80698 
-9.74327 -0.129158 0.562296 
-0.129158 -9.84316 0.0553529 
0.562296 0.0553529 -9.78794 
-9.1268 1.10317 -2.12055 
1.10317 -10.2187 -0.214426 
-2.12055 -0.214426 -17.2497 
-12.3836 1.04092 -0.298892 
1.04092 -12.711 -1.62768 
-0.298892 -1.62768 -11.5006 
-10.9201 1.83322 -0.469144 
1.83322 -11.5423 -1.3392 
-0.469144 -1.3392 -14.1327 
-10.0026 0.232115 1.5116 
0.232115 -11.515 0.0102525 
1.5116 0.0102525 -15.0776 
-8.38277 -1.11333 -1.91651 
-1.11333 -8.53109 4.70164 
-1.91651 4.70164 -7.6887 
-7.97796 0.0810413 -0.927368 
0.0810413 -9.25911 2.33098 
-0.927368 2.33098 -7.3655 
-8.65952 -0.579766 -1.25477 
-0.579766 -9.62923 1.87396 
-1.25477 1.87396 -6.3138 
-6.02224 -0.549873 -1.26613 
-0.549873 -7.83601 1.07113 
-1.26613 1.07113 -10.7443 
-9.01254 -0.0972388 -0.290086 
-0.0972388 -7.69076 0.853587 
-0.290086 0.853587 -7.55707 
-9.26613 -0.0779718 -0.465909 
-0.0779718 -7.56981 1.244 
-0.465909 1.244 -7.42444 
-9.4964 -0.0145611 -0.490872 
-0.0145611 -7.59308 0.991096 
-0.490872 0.991096 -7.17089 
-8.82535 -0.18849 -0.605478 
-0.18849 -8.0111 0.86308 
-0.605478 0.86308 -7.42392 
-9.97996 0.00712252 0.0221295 
0.00712252 -9.95265 0.0100572 
0.0221295 0.0100572 -9.93644 
-9.93598 0.00854746 0.0106575 
0.00854746 -9.94962 0.0193682 
0.0106575 0.0193682 -9.98344 
-9.94494 -0.000398213 0.0165308 
-0.000398213 -9.90541 -0.0210547 
0.0165308 -0.0210547 -10.0187 
-9.98323 0.0106319 0.0404977 
0.0106319 -9.93432 0.0258539 
0.0404977 0.0258539 -9.95149 
-9.50886 -0.0358402 -0.469151 
-0.0358402 -9.60494 0.224832 
-0.469151 0.224832 -9.7243 
-9.64046 0.0730254 -0.386075 
0.0730254 -9.67248 0.192164 
-0.386075 0.192164 -9.52516 
-9.64798 0.0612437 -0.363441 
0.0612437 -9.58685 0.214519 
-0.363441 0.214519 -9.60328 
-9.53568 0.0210819 -0.402478 
0.0210819 -9.60488 0.165004 
-0.402478 0.165004 -9.69754 
-9.3998 0.0895234 0.259565 
0.0895234 -9.20132 -0.0739333 
0.259565 -0.0739333 -10.3675 
-9.44764 -0.0282254 0.20488 
-0.0282254 -9.14394 0.0621962 
0.20488 0.0621962 -10.377 
-9.28767 0.275031 0.296758 
0.275031 -9.14294 0.0846808 
0.296758 0.0846808 -10.538 
-9.31206 -0.0921141 0.390417 
-0.0921141 -9.34236 0.203369 
0.390417 0.203369 -10.3142 
-9.87357 -0.0246673 0.10436 
-0.0246673 -10.0065 -0.0568735 
0.10436 -0.0568735 -10.1023 
-9.71714 -0.0189233 0.0164922 
-0.0189233 -9.91026 -0.0505978 
0.0164922 -0.0505978 -10.355 
-9.89135 -0.0539869 0.0953921 
-0.0539869 -10.056 -0.0395686 
0.0953921 -0.0395686 -10.0351 
-9.8703 -0.0566319 0.153525 
-0.0566319 -10.0674 -0.0456919 
0.153525 -0.0456919 -10.0447 
-9.79202 -0.0253253 0.458972 
-0.0253253 -9.81687 0.446448 
0.458972 0.446448 -9.78013 
-9.80008 0.00162563 0.470409 
0.00162563 -9.82059 0.468341 
0.470409 0.468341 -9.76835 
-9.79235 -0.0265405 0.486133 
-0.0265405 -9.84307 0.448615 
0.486133 0.448615 -9.75359 
-9.79594 0.000165348 0.479012 
0.000165348 -9.79883 0.466315 
0.479012 0.466315 -9.79425 
-9.98091 -0.00251926 0.0366164 
-0.00251926 -9.98887 -0.342767 
0.0366164 -0.342767 -9.8474 
-9.89026 0.0366151 0.0349465 
0.0366151 -9.88732 -0.259731 
0.0349465 -0.259731 -10.0396 
-9.93837 -0.00170966 0.0908251 
-0.00170966 -9.87877 -0.291542 
0.0908251 -0.291542 -10 
-9.95175 -0.034403 0.0656397 
-0.034403 -10.0255 -0.284454 
0.0656397 -0.284454 -9.83991 
-4.45365 -0.441305 0.933835 
-0.441305 -3.77952 2.01883 
0.933835 2.01883 -0.316288 
-3.43555 0.728744 1.02703 
0.728744 -4.90238 1.06608 
1.02703 1.06608 -0.211527 
-3.17284 0.460425 -0.00335773 
0.460425 -3.03126 0.813602 
-0.00335773 0.813602 -2.34536 
-3.25563 0.147135 -0.618625 
0.147135 -3.97345 0.409157 
-0.618625 0.409157 -1.32038 
-9.9521 -0.0125054 0.130719 
-0.0125054 -9.99033 0.591604 
0.130719 0.591604 -9.91154 
-9.89905 -0.0226412 0.0849804 
-0.0226412 -9.88295 0.63045 
0.0849804 0.63045 -10.072 
-9.93993 -0.0283017 0.121213 
-0.0283017 -9.95639 0.629183 
0.121213 0.629183 -9.95765 
-9.96462 0.0178753 0.14342 
0.0178753 -10.0036 0.641246 
0.14342 0.641246 -9.88579 
-9.33119 -0.251414 0.0281794 
-0.251414 -9.78796 0.0646743 
0.0281794 0.0646743 -9.98088 
-9.83877 0.349571 -0.102859 
0.349571 -9.73366 -0.00187915 
-0.102859 -0.00187915 -9.5276 
-9.47229 0.00399281 -0.118554 
0.00399281 -9.81185 0.097963 
-0.118554 0.097963 -9.8159 
-9.1896 0.190404 -0.240676 
0.190404 -10.0032 0.159369 
-0.240676 0.159369 -9.90728 
-9.66868 0.178727 0.0601856 
0.178727 -11.5128 0.264633 
0.0601856 0.264633 -11.0818 
-10.3691 0.174563 0.00320359 
0.174563 -10.7285 0.137427 
0.00320359 0.137427 -11.1656 
-10.4971 0.0678147 0.0617869 
0.0678147 -10.7247 0.300887 
0.0617869 0.300887 -11.0414 
-11.2118 0.335667 -0.292682 
0.335667 -10.694 0.222456 
-0.292682 0.222456 -10.3575 
-7.8235 0.611016 0.174815 
0.611016 -9.28689 1.06747 
0.174815 1.06747 -7.66418 
-9.32401 0.200713 0.611657 
0.200713 -6.66066 1.52791 
0.611657 1.52791 -8.7899 
-8.85029 -0.046192 0.18191 
-0.046192 -7.81498 1.58525 
0.18191 1.58525 -8.10929 
-8.89175 -0.516042 0.0661882 
-0.516042 -7.91102 1.82053 
0.0661882 1.82053 -7.9718 
-11.6518 -0.508758 0.339107 
-0.508758 -10.6596 -1.72817 
0.339107 -1.72817 -16.6365 
-14.7852 0.266323 -0.158261 
0.266323 -12.0705 -0.833206 
-0.158261 -0.833206 -12.0923 
-13.4691 -1.47939 0.363181 
-1.47939 -11.3846 -0.925313 
0.363181 -0.925313 -14.0943 
-13.5432 -0.278483 0.728947 
-0.278483 -11.2772 0.47043 
0.728947 0.47043 -14.1276 
-9.67558 -0.0469846 0.443247 
-0.0469846 -9.77321 -0.118855 
0.443247 -0.118855 -9.87763 
-9.78314 0.0533069 0.451269 
0.0533069 -9.73837 -0.111262 
0.451269 -0.111262 -9.80491 
-9.78481 0.00427387 0.441325 
0.00427387 -9.76512 -0.147867 
0.441325 -0.147867 -9.77649 
-9.77378 0.0379009 0.404884 
0.0379009 -9.74189 -0.0806624 
0.404884 -0.0806624 -9.81077 
-5.72414 1.37408 1.73485 
1.37408 -6.91457 2.38786 
1.73485 2.38786 -1.4755 
-6.40572 0.247984 1.63995 
0.247984 -6.80761 1.56346 
1.63995 1.56346 -0.900877 
-5.4799 -0.520981 2.36782 
-0.520981 -6.93515 3.17267 
2.36782 3.17267 -1.69916 
-5.96733 -0.173944 2.55854 
-0.173944 -6.00711 1.77135 
2.55854 1.77135 -2.13977 
-9.41072 -0.169855 0.519993 
-0.169855 -9.44707 0.676047 
0.519993 0.676047 -9.08694 
-9.37481 0.0325067 0.433944 
0.0325067 -9.26856 0.63094 
0.433944 0.63094 -9.30136 
-9.27773 0.00705136 0.490293 
0.00705136 -9.2709 0.63334 
0.490293 0.63334 -9.39609 
-9.32989 0.0152338 0.372415 
0.0152338 -9.36468 0.575412 
0.372415 0.575412 -9.25016 
-3.10957 0.129113 0.772389 
0.129113 -3.44542 0.716804 
0.772389 0.716804 -0.9776 
-4.17958 -0.530467 0.0392387 
-0.530467 -3.71372 -0.397935 
0.0392387 -0.397935 0.360705 
-2.75646 0.00398607 0.306891 
0.00398607 -3.48625 0.9481 
0.306891 0.9481 -1.28988 
-2.37902 -0.322544 0.800226 
-0.322544 -4.01116 1.42885 
0.800226 1.42885 -1.14242 
-9.87736 -0.100442 0.0626422 
-0.100442 -10.4613 -0.171819 
0.0626422 -0.171819 -9.84461 
-9.73613 0.0344987 0.00838006 
0.0344987 -10.3973 0.336587 
0.00838006 0.336587 -10.0499 
-10.4799 -0.0418352 0.00645975 
-0.0418352 -9.06919 0.1391 
0.00645975 0.1391 -10.6342 
-9.80169 0.103515 -0.00154448 
0.103515 -10.388 -0.000441329 
-0.00154448 -0.000441329 -9.99358 
-9.98961 0.014492 -0.253989 
0.014492 -10.0009 -0.438589 
-0.253989 -0.438589 -9.98353 
-9.9776 0.00210134 -0.240352 
0.00210134 -9.99859 -0.450241 
-0.240352 -0.450241 -9.99781 
-9.98843 0.0106573 -0.240954 
0.0106573 -9.99801 -0.437129 
-0.240954 -0.437129 -9.98755 
-10.0036 0.0115703 -0.24972 
0.0115703 -10.0072 -0.44029 
-0.24972 -0.44029 -9.96322 
-9.79399 -0.00396928 0.0691086 
-0.00396928 -9.82586 0.668935 
0.0691086 0.668935 -9.78425 
-9.82792 -0.0035334 0.0566203 
-0.0035334 -9.80158 0.674404 
0.0566203 0.674404 -9.7746 
-9.76827 0.00953367 0.074754 
0.00953367 -9.815 0.586368 
0.074754 0.586368 -9.82084 
-9.87828 0.0303472 0.0228346 
0.0303472 -9.87138 0.698993 
0.0228346 0.698993 -9.65444 
-9.81483 -0.0102877 0.00191104 
-0.0102877 -9.80199 -0.0116281 
0.00191104 -0.0116281 -9.80234 
-9.82442 -0.0197256 0.0103768 
-0.0197256 -9.77722 -0.0146131 
0.0103768 -0.0146131 -9.81752 
-9.75806 0.00200908 -0.0228656 
0.00200908 -9.84443 0.0304605 
-0.0228656 0.0304605 -9.81668 
-9.81116 0.000587381 0.00374391 
0.000587381 -9.80304 -0.0157732 
0.00374391 -0.0157732 -9.80497 
-9.05037 0.246135 0.836458 
0.246135 -9.49074 0.618312 
0.836458 0.618312 -9.29535 
-9.43651 -0.235076 0.639062 
-0.235076 -9.35325 0.333589 
0.639062 0.333589 -9.0467 
-9.36881 -0.15025 0.758833 
-0.15025 -9.43099 0.483892 
0.758833 0.483892 -9.03667 
-9.15098 -0.147796 0.8539 
-0.147796 -9.72298 0.396771 
0.8539 0.396771 -8.9625 
-1.06168 3.27466 -1.01494 
3.27466 -11.6814 -2.23273 
-1.01494 -2.23273 -24.0251 
-10.1371 2.45749 1.07561 
2.45749 -11.9943 0.095119 
1.07561 0.095119 -14.6367 
-6.6352 3.81209 -1.09863 
3.81209 -10.2094 0.237079 
-1.09863 0.237079 -19.9235 
-11.3953 0.169816 -2.00992 
0.169816 -11.4197 -0.936884 
-2.00992 -0.936884 -13.9531 
-9.19476 -0.00107571 0.00403217 
-0.00107571 -9.17291 -0.101706 
0.00403217 -0.101706 -9.2564 
-9.30598 0.0327047 0.132477 
0.0327047 -9.57583 0.00641704 
0.132477 0.00641704 -8.74226 
-9.29999 -0.102652 0.223527 
-0.102652 -9.49743 0.157726 
0.223527 0.157726 -8.82664 
-9.46833 -0.0248898 0.0355283 
-0.0248898 -9.72345 -0.109624 
0.0355283 -0.109624 -8.43229 
-2.59055 -1.59882 -0.138987 
-1.59882 -3.80351 -1.39077 
-0.138987 -1.39077 -5.51377 
-5.42051 5.66221 1.06557 
5.66221 -15.6605 4.6755 
1.06557 4.6755 9.17319 
-6.68909 0.560143 -2.25576 
0.560143 -10.4914 2.37155 
-2.25576 2.37155 5.27264 
-7.26029 -0.479465 -1.95109 
-0.479465 -1.00051 5.34007 
-1.95109 5.34007 -3.64703 
-9.85733 -0.00551306 0.446165 
-0.00551306 -9.86038 -0.111035 
0.446165 -0.111035 -9.88838 
-9.85147 -0.0120908 0.473688 
-0.0120908 -9.8531 -0.0994339 
0.473688 -0.0994339 -9.90152 
-9.86754 0.00338335 0.438969 
0.00338335 -9.85709 -0.0852544 
0.438969 -0.0852544 -9.88146 
-9.8659 -0.0236341 0.463281 
-0.0236341 -9.85111 -0.107076 
0.463281 -0.107076 -9.88907 
-9.97999 -0.0244197 -0.0556569 
-0.0244197 -9.73439 -0.243457 
-0.0556569 -0.243457 -10.7659 
-10.0844 -0.223014 0.0789564 
-0.223014 -10.3241 -0.167003 
0.0789564 -0.167003 -10.0717 
-10.2128 0.119606 0.0666265 
0.119606 -10.4518 -0.170433 
0.0666265 -0.170433 -9.8156 
-10.175 0.058945 0.373582 
0.058945 -10.2716 -0.0595274 
0.373582 -0.0595274 -10.0336 
-9.95541 0.0127257 0.34516 
0.0127257 -9.94887 0.0140543 
0.34516 0.0140543 -9.98926 
-10.0013 -0.0188543 0.373904 
-0.0188543 -9.98809 0.00381306 
0.373904 0.00381306 -9.90413 
-9.91824 -0.0123907 0.347479 
-0.0123907 -9.9172 -0.0125669 
0.347479 -0.0125669 -10.0581 
-10.0212 -0.0157558 0.30922 
-0.0157558 -9.94672 0.00372252 
0.30922 0.00372252 -9.9256 
-9.97097 -0.00288853 -0.145873 
-0.00288853 -9.97929 0.244615 
-0.145873 0.244615 -9.95965 
-9.96458 -0.00110827 -0.141741 
-0.00110827 -10.0193 0.261615 
-0.141741 0.261615 -9.92604 
-9.93558 -0.0298191 -0.117888 
-0.0298191 -9.90205 0.268265 
-0.117888 0.268265 -10.0723 
-9.99258 0.0138972 -0.139364 
0.0138972 -9.99508 0.220747 
-0.139364 0.220747 -9.92225 
-9.66031 -0.0334774 -0.526379 
-0.0334774 -9.75992 0.046633 
-0.526379 0.046633 -9.84721 
-9.74264 -0.00336131 -0.503752 
-0.00336131 -9.7611 0.0385233 
-0.503752 0.0385233 -9.7637 
-9.81978 0.00368254 -0.502997 
0.00368254 -9.70234 0.047995 
-0.502997 0.047995 -9.74532 
-9.71134 0.0334351 -0.476399 
0.0334351 -9.75729 0.0055471 
-0.476399 0.0055471 -9.7988 
-9.77486 -0.0212904 -0.527612 
-0.0212904 -9.81138 -0.0867401 
-0.527612 -0.0867401 -9.80255 
-9.75603 -0.0115887 -0.522985 
-0.0115887 -9.81106 -0.106837 
-0.522985 -0.106837 -9.82171 
-9.77403 -0.0222435 -0.523966 
-0.0222435 -9.7601 -0.104512 
-0.523966 -0.104512 -9.85466 
-9.76822 -0.0226187 -0.521991 
-0.0226187 -9.80439 -0.102334 
-0.521991 -0.102334 -9.81618 
-9.95332 0.00626671 0.139415 
0.00626671 -9.97949 -0.590773 
0.139415 -0.590773 -9.91587 
-9.92375 0.0393187 0.118619 
0.0393187 -9.97864 -0.606346 
0.118619 -0.606346 -9.94629 
-9.88089 0.0134632 0.0888476 
0.0134632 -9.87859 -0.618116 
0.0888476 -0.618116 -10.0892 
-9.9796 -0.00802986 0.155857 
-0.00802986 -9.99573 -0.638974 
0.155857 -0.638974 -9.87335 
-9.97774 0.00167995 -0.493603 
0.00167995 -9.95672 0.0849672 
-0.493603 0.0849672 -9.96259 
-9.9816 -0.000778629 -0.519844 
-0.000778629 -9.98778 0.10351 
-0.519844 0.10351 -9.92768 
-9.92869 -0.00109571 -0.503266 
-0.00109571 -9.93507 0.0639384 
-0.503266 0.0639384 -10.0333 
-9.97526 0.0214151 -0.497649 
0.0214151 -9.95158 0.0756482 
-0.497649 0.0756482 -9.97022 
-9.91493 -0.017837 0.052444 
-0.017837 -9.98559 0.561305 
0.052444 0.561305 -10.0267 
-9.96117 0.00405789 0.0451893 
0.00405789 -9.9601 0.527707 
0.0451893 0.527707 -10.0059 
-9.99215 0.0196479 0.0346073 
0.0196479 -10.007 0.549602 
0.0346073 0.549602 -9.92802 
-10.0073 0.00809722 0.0589344 
0.00809722 -9.98819 0.542157 
0.0589344 0.542157 -9.93168 
-10.9674 2.19249 -0.701764 
2.19249 -8.15158 0.384151 
-0.701764 0.384151 -18.3726 
-12.1438 2.79002 -0.991885 
2.79002 -13.006 -2.5304 
-0.991885 -2.5304 -12.3418 
-11.3181 3.83495 1.87751 
3.83495 0.0580257 0.83693 
1.87751 0.83693 -26.2315 
-11.7779 -0.0686394 0.156294 
-0.0686394 -11.9983 3.17711 
0.156294 3.17711 -13.7154 
-9.8814 0.00736909 0.178756 
0.00736909 -9.93156 0.66623 
0.178756 0.66623 -9.81999 
-9.84031 -0.0308844 0.159261 
-0.0308844 -9.93123 0.610355 
0.159261 0.610355 -9.8614 
-9.94845 0.00181408 0.123136 
0.00181408 -9.7243 0.628499 
0.123136 0.628499 -9.9602 
-9.88334 -0.00526935 0.133684 
-0.00526935 -9.89052 0.636932 
0.133684 0.636932 -9.85909 
-9.82087 -0.0425493 -0.0709385 
-0.0425493 -9.65474 -0.0305641 
-0.0709385 -0.0305641 -9.77068 
-9.66339 -0.0340046 -0.0952674 
-0.0340046 -9.73801 -0.000238069 
-0.0952674 -0.000238069 -9.84489 
-9.52419 -0.0584745 -0.0264447 
-0.0584745 -9.84064 0.0126251 
-0.0264447 0.0126251 -9.88146 
-9.73473 0.0741699 -0.133019 
0.0741699 -9.6735 0.0140479 
-0.133019 0.0140479 -9.83806 
-4.47809 -1.38365 0.725695 
-1.38365 -4.97809 -0.641767 
0.725695 -0.641767 1.1872 
-3.41069 0.830178 0.971183 
0.830178 -5.64216 0.197531 
0.971183 0.197531 0.783875 
-4.11364 -0.0958065 1.17795 
-0.0958065 -1.94337 -2.00705 
1.17795 -2.00705 -2.21197 
-3.72451 -0.300602 1.78941 
-0.300602 -4.66773 -2.10553 
1.78941 -2.10553 0.123275 
-9.51348 -0.0452292 0.434967 
-0.0452292 -9.80365 0.124766 
0.434967 0.124766 -8.10417 
-9.53507 -0.0702678 0.719017 
-0.0702678 -9.35072 0.217496 
0.719017 0.217496 -8.53552 
-9.06221 -0.0493134 0.383084 
-0.0493134 -9.32001 -0.0958105 
0.383084 -0.0958105 -9.03908 
-9.58588 0.123686 0.610503 
0.123686 -9.35918 0.414133 
0.610503 0.414133 -8.47624 
-10.5214 -0.108126 -0.0521979 
-0.108126 -10.5325 -0.226347 
-0.0521979 -0.226347 -9.86259 
-10.3361 -0.0831416 0.0882278 
-0.0831416 -10.1935 -0.21739 
0.0882278 -0.21739 -10.3869 
-9.98948 -0.101459 -0.0990693 
-0.101459 -9.9925 -0.263657 
-0.0990693 -0.263657 -10.9345 
-10.2772 -0.200209 0.247425 
-0.200209 -10.2841 0.0541075 
0.247425 0.0541075 -10.3552 
-6.07524 1.37261 0.464005 
1.37261 -9.11066 -0.345609 
0.464005 -0.345609 5.26467 
-1.94634 0.272805 0.853116 
0.272805 -1.50891 0.182121 
0.853116 0.182121 -6.46598 
-4.8305 0.535302 1.26488 
0.535302 -5.38697 1.5979 
1.26488 1.5979 0.296249 
-3.88128 -0.389805 -0.286372 
-0.389805 -4.73562 5.42488 
-0.286372 5.42488 -1.30432 
-9.68318 -0.0269482 -0.0781818 
-0.0269482 -9.70759 0.000626418 
-0.0781818 0.000626418 -9.86374 
-9.74657 0.0206829 -0.0395039 
0.0206829 -9.69787 0.0558156 
-0.0395039 0.0558156 -9.81008 
-9.59575 -0.0661909 -0.0255867 
-0.0661909 -9.82128 0.0127813 
-0.0255867 0.0127813 -9.83749 
-9.74811 -0.0329485 -0.0638914 
-0.0329485 -9.68248 0.0201472 
-0.0638914 0.0201472 -9.82393 
-9.89876 0.0099052 0.437546 
0.0099052 -9.6455 0.0164021 
0.437546 0.0164021 -7.61115 
-9.19663 -0.00806377 0.395334 
-0.00806377 -9.03639 -0.222874 
0.395334 -0.222874 -8.92238 
-9.42884 -0.166899 0.0764375 
-0.166899 -9.56519 -0.36841 
0.0764375 -0.36841 -8.16138 
-9.3955 -0.10654 -0.152286 
-0.10654 -9.60743 -0.25286 
-0.152286 -0.25286 -8.15247 
-9.89422 -0.0133677 -0.544752 
-0.0133677 -9.88338 -0.119459 
-0.544752 -0.119459 -9.90522 
-9.85109 -0.0145788 -0.537473 
-0.0145788 -9.90878 -0.109999 
-0.537473 -0.109999 -9.92296 
-9.87659 -0.00756604 -0.533206 
-0.00756604 -9.9071 -0.10592 
-0.533206 -0.10592 -9.89914 
-9.88587 -0.00794487 -0.548153 
-0.00794487 -9.9157 -0.130764 
-0.548153 -0.130764 -9.88126 
-8.93657 -0.684114 0.361541 
-0.684114 -8.69339 -0.454768 
0.361541 -0.454768 -6.68963 
-8.56105 0.126619 2.36757 
0.126619 -8.68663 -0.893369 
2.36757 -0.893369 -7.0719 
-8.67107 0.373747 2.05942 
0.373747 -8.94915 -0.428726 
2.05942 -0.428726 -6.69937 
-9.61698 -0.0330246 2.38783 
-0.0330246 -9.80056 -0.445726 
2.38783 -0.445726 -4.90204 
-9.67179 0.0231063 0.132919 
0.0231063 -9.89289 -0.697592 
0.132919 -0.697592 -9.55797 
-9.73009 -0.0392326 0.166559 
-0.0392326 -9.69838 -0.641546 
0.166559 -0.641546 -9.69417 
-9.64904 -0.00749584 0.153052 
-0.00749584 -9.66864 -0.668109 
0.153052 -0.668109 -9.80497 
-9.73519 -0.0162729 0.160842 
-0.0162729 -9.72256 -0.562377 
0.160842 -0.562377 -9.6649 
-10.7746 0.0529813 0.369062 
0.0529813 -11.0713 -0.277464 
0.369062 -0.277464 -9.34251 
-10.3159 0.243436 -0.138576 
0.243436 -10.7382 0.217241 
-0.138576 0.217241 -10.1343 
-9.47986 0.186918 -0.532138 
0.186918 -10.2886 -0.42143 
-0.532138 -0.42143 -11.42 
-10.5001 0.537793 -0.0581129 
0.537793 -10.3858 -0.234267 
-0.0581129 -0.234267 -10.3026 
-10.0665 -0.938844 -0.340917 
-0.938844 -9.90941 0.139899 
-0.340917 0.139899 -10.0349 
-9.66281 -0.835402 0.151288 
-0.835402 -9.66035 -0.435904 
0.151288 -0.435904 -10.6877 
-9.20304 0.254886 -0.578202 
0.254886 -9.96969 0.0335544 
-0.578202 0.0335544 -10.8381 
-9.48314 0.36152 0.242265 
0.36152 -10.6683 0.215972 
0.242265 0.215972 -9.85943 
-9.69394 -0.0182484 0.0731508 
-0.0182484 -9.7688 -0.00923852 
0.0731508 -0.00923852 -9.90603 
-9.9314 0.0780492 0.0452076 
0.0780492 -9.6646 -0.0262534 
0.0452076 -0.0262534 -9.77277 
-9.73765 -0.0105441 0.031057 
-0.0105441 -9.76928 -0.00634431 
0.031057 -0.00634431 -9.86184 
-9.7976 -0.0629645 0.0241613 
-0.0629645 -9.69516 -0.00556169 
0.0241613 -0.00556169 -9.87601 
-9.70573 0.0296458 0.467062 
0.0296458 -9.75224 0.466121 
0.467062 0.466121 -9.69866 
-9.76796 -0.0756306 0.481974 
-0.0756306 -9.83036 0.55012 
0.481974 0.55012 -9.55831 
-9.66104 0.029098 0.480633 
0.029098 -9.65445 0.46555 
0.480633 0.46555 -9.84114 
-9.72225 0.00209736 0.455079 
0.00209736 -9.79709 0.387848 
0.455079 0.387848 -9.63729 
-9.90752 -0.00474932 -0.498562 
-0.00474932 -9.9265 0.0322459 
-0.498562 0.0322459 -10.0023 
-9.93097 0.00332894 -0.474556 
0.00332894 -9.93545 0.0141439 
-0.474556 0.0141439 -9.9699 
-9.91944 -0.00383932 -0.47253 
-0.00383932 -9.94194 0.0317357 
-0.47253 0.0317357 -9.97494 
-9.92949 -0.00781311 -0.463312 
-0.00781311 -9.96058 0.0173195 
-0.463312 0.0173195 -9.94625 
-7.46126 0.192061 -0.575477 
0.192061 -5.60662 -0.754307 
-0.575477 -0.754307 -1.08838 
-6.87532 -0.103232 -0.738308 
-0.103232 -5.66378 -0.370108 
-0.738308 -0.370108 -1.61715 
-7.39961 0.236723 -1.23475 
0.236723 -5.536 -1.08546 
-1.23475 -1.08546 -1.22064 
-4.81716 0.485698 -2.04266 
0.485698 -6.59525 -0.986364 
-2.04266 -0.986364 -2.74384 
-10.5064 0.00202193 0.101523 
0.00202193 -10.5001 -0.0877696 
0.101523 -0.0877696 -10.6025 
-10.3487 0.0618488 0.0397249 
0.0618488 -10.4309 -0.117236 
0.0397249 -0.117236 -10.8295 
-10.5282 0.0254509 0.0698348 
0.0254509 -10.3129 0.0235713 
0.0698348 0.0235713 -10.7679 
-10.4943 -0.0407475 0.161355 
-0.0407475 -10.4539 -0.0948593 
0.161355 -0.0948593 -10.6608 
-8.65776 -0.254811 0.0236128 
-0.254811 -6.9867 -1.23584 
0.0236128 -1.23584 -9.41691 
-8.54449 -0.280511 0.129055 
-0.280511 -7.83619 -1.39401 
0.129055 -1.39401 -8.68069 
-8.32408 0.49864 0.225093 
0.49864 -8.78266 -0.824947 
0.225093 -0.824947 -7.95463 
-8.63987 -0.107301 0.272586 
-0.107301 -8.22111 -1.93479 
0.272586 -1.93479 -8.20039 
-10.6519 0.192392 0.802037 
0.192392 -10.8703 -0.055957 
0.802037 -0.055957 -11.5852 
-10.4589 0.0337267 -1.10216 
0.0337267 -9.70692 0.817347 
-1.10216 0.817347 -12.9417 
-10.1062 -4.02111 1.5183 
-4.02111 -9.05966 0.211228 
1.5183 0.211228 -13.9416 
-10.0203 -1.03657 -0.902701 
-1.03657 -10.9603 0.461188 
-0.902701 0.461188 -12.1269 
-10.2243 0.0815141 -0.130945 
0.0815141 -10.5874 -0.717734 
-0.130945 -0.717734 -13.3667 
-11.5802 -1.31674 1.67388 
-1.31674 -13.6191 0.239602 
1.67388 0.239602 -8.97911 
-9.08308 0.571432 0.632484 
0.571432 -10.9436 -0.64596 
0.632484 -0.64596 -14.1517 
-10.417 0.0419162 -0.219214 
0.0419162 -11.4989 1.20195 
-0.219214 1.20195 -12.2625 
-4.68406 -0.120701 1.46287 
-0.120701 -6.36041 -0.533498 
1.46287 -0.533498 3.4645 
-0.922266 1.57557 0.0706205 
1.57557 -1.13859 -2.41028 
0.0706205 -2.41028 -5.51911 
-6.92445 -2.35603 1.5471 
-2.35603 -2.86272 0.737749 
1.5471 0.737749 2.2072 
-3.28399 -0.62012 -3.21576 
-0.62012 -5.35218 -0.416564 
-3.21576 -0.416564 1.0562 
-9.48977 0.024286 -0.280408 
0.024286 -9.75308 -0.0419047 
-0.280408 -0.0419047 -10.6872 
-12.3315 0.0949432 1.10417 
0.0949432 -8.10395 -0.743341 
1.10417 -0.743341 -9.49461 
-9.52563 -0.501875 -0.936508 
-0.501875 -9.49884 -0.211218 
-0.936508 -0.211218 -10.9056 
-8.27019 -0.868662 0.672567 
-0.868662 -10.449 -0.394409 
0.672567 -0.394409 -11.2109 
-4.18373 0.0994216 0.487048 
0.0994216 -3.97573 -1.02349 
0.487048 -1.02349 -0.763252 
-2.04928 0.425112 -0.45735 
0.425112 -4.07024 -1.00567 
-0.45735 -1.00567 -2.80319 
-4.12018 0.108349 -1.02064 
0.108349 -3.69482 -0.292683 
-1.02064 -0.292683 -1.10771 
-3.83818 0.179206 -1.68246 
0.179206 -2.53685 -1.50941 
-1.68246 -1.50941 -2.54769 
-9.48308 0.260259 0.168158 
0.260259 -9.52153 -0.0575257 
0.168158 -0.0575257 -10.2005 
-9.85846 0.455439 -0.0895262 
0.455439 -9.8476 -0.0373588 
-0.0895262 -0.0373588 -9.49906 
-9.28162 -0.336543 0.153192 
-0.336543 -10.1683 0.170024 
0.153192 0.170024 -9.75524 
-9.07809 -0.403019 -0.208472 
-0.403019 -9.98851 0.27823 
-0.208472 0.27823 -10.1385 
-9.92087 0.0359499 -0.0883948 
0.0359499 -9.61242 -0.168048 
-0.0883948 -0.168048 -9.70834 
-9.65761 -0.156019 -0.0359059 
-0.156019 -10.022 0.122443 
-0.0359059 0.122443 -9.56205 
-9.72697 -0.0533821 0.00565365 
-0.0533821 -9.74361 0.130102 
0.00565365 0.130102 -9.77104 
-9.68336 -0.0926888 -0.075036 
-0.0926888 -9.82341 0.0964099 
-0.075036 0.0964099 -9.73485 
-9.87595 0.00864245 0.474584 
0.00864245 -9.93112 -0.0953215 
0.474584 -0.0953215 -9.94801 
-9.92766 0.000260718 0.489517 
0.000260718 -9.92136 -0.119327 
0.489517 -0.119327 -9.90606 
-9.92887 0.0111124 0.476922 
0.0111124 -9.90258 -0.116403 
0.476922 -0.116403 -9.92363 
-9.89823 0.00144067 0.469566 
0.00144067 -9.93299 -0.0988203 
0.469566 -0.0988203 -9.92386 
-9.9536 0.00478398 -0.367587 
0.00478398 -9.9375 0.105485 
-0.367587 0.105485 -9.96844 
-9.9418 0.00573254 -0.366303 
0.00573254 -9.92754 0.07282 
-0.366303 0.07282 -9.9902 
-9.94966 -0.00058771 -0.340304 
-0.00058771 -9.93724 0.0963616 
-0.340304 0.0963616 -9.97264 
-9.97101 0.00748169 -0.356635 
0.00748169 -9.95199 0.102387 
-0.356635 0.102387 -9.93655 
-9.95723 0.00394012 0.127896 
0.00394012 -9.7754 -0.615023 
0.127896 -0.615023 -9.97321 
-9.86251 0.0325751 0.187262 
0.0325751 -9.95612 -0.599162 
0.187262 -0.599162 -9.8872 
-9.86398 -0.0131951 0.17344 
-0.0131951 -9.97953 -0.664672 
0.17344 -0.664672 -9.86232 
-9.94634 -0.00865642 0.137311 
-0.00865642 -9.87057 -0.606614 
0.137311 -0.606614 -9.88892 
-6.79602 -1.70376 1.84362 
-1.70376 -7.69747 -2.58966 
1.84362 -2.58966 2.78484 
0.461534 0.263912 -1.34637 
0.263912 -1.61102 -0.241018 
-1.34637 -0.241018 -10.5592 
-7.94791 -0.388339 -0.703526 
-0.388339 -8.72791 -1.24456 
-0.703526 -1.24456 4.96718 
-7.23597 -0.255706 -2.14822 
-0.255706 -3.70016 -9.05194 
-2.14822 -9.05194 -0.772508 
-9.85815 0.00155528 -0.503498 
0.00155528 -9.92641 0.104853 
-0.503498 0.104853 -9.95163 
-9.92887 -0.00547583 -0.520794 
-0.00547583 -9.91138 0.132941 
-0.520794 0.132941 -9.89592 
-9.92813 0.0108286 -0.499558 
0.0108286 -9.89015 0.129625 
-0.499558 0.129625 -9.91789 
-9.89448 -0.00477355 -0.497752 
-0.00477355 -9.91863 0.11073 
-0.497752 0.11073 -9.92307 
-10.3545 0.089624 0.524169 
0.089624 -8.95819 -0.408436 
0.524169 -0.408436 -12.1902 
-10.9718 -0.211479 -0.13378 
-0.211479 -9.68525 -0.619999 
-0.13378 -0.619999 -10.8458 
-10.5648 -0.224609 0.0689785 
-0.224609 -9.59711 -0.836695 
0.0689785 -0.836695 -11.341 
-11.6107 0.459331 0.7857 
0.459331 -9.17776 0.581187 
0.7857 0.581187 -10.7144 
-9.70409 -0.0744577 -0.318328 
-0.0744577 -9.82015 -0.663846 
-0.318328 -0.663846 -9.53664 
-9.71706 0.0320122 -0.274212 
0.0320122 -9.67018 -0.638972 
-0.274212 -0.638972 -9.67364 
-9.60182 -0.0362782 -0.329432 
-0.0362782 -9.68391 -0.627406 
-0.329432 -0.627406 -9.77516 
-9.69321 0.0214571 -0.251428 
0.0214571 -9.71377 -0.600475 
-0.251428 -0.600475 -9.6539 
-7.35291 0.13014 1.08933 
0.13014 -7.75716 0.57241 
1.08933 0.57241 4.79549 
-5.74405 -0.881477 -0.964312 
-0.881477 -6.44005 2.00208 
-0.964312 2.00208 1.86951 
0.151619 0.635669 2.02471 
0.635669 -1.39488 0.154856 
2.02471 0.154856 -9.07133 
-6.20018 0.0812589 1.9432 
0.0812589 -3.72773 7.39226 
1.9432 7.39226 -0.386669 
-10.3965 0.551712 0.218465 
0.551712 -10.7993 0.316799 
0.218465 0.316799 -11.6432 
-11.5213 0.275029 0.353515 
0.275029 -10.8821 0.285634 
0.353515 0.285634 -10.4355 
-10.0502 -0.367134 -0.346343 
-0.367134 -10.8761 0.266841 
-0.346343 0.266841 -11.9126 
-10.5716 0.416998 0.614373 
0.416998 -11.0638 -0.00533503 
0.614373 -0.00533503 -11.2036 
-6.57163 -0.323782 1.06246 
-0.323782 -7.57339 0.83661 
1.06246 0.83661 3.18202 
-6.14923 -1.26426 -1.38503 
-1.26426 -6.9654 2.02312 
-1.38503 2.02312 2.15163 
-1.03468 0.311396 0.196049 
0.311396 -2.44542 0.73043 
0.196049 0.73043 -7.48289 
-5.65286 0.304147 1.39554 
0.304147 -4.14959 5.24475 
1.39554 5.24475 -1.16055 
-8.37887 -0.310547 -0.889842 
-0.310547 -8.80303 2.07428 
-0.889842 2.07428 -7.71661 
-8.3935 -0.0409562 -1.2365 
-0.0409562 -8.83989 1.95435 
-1.2365 1.95435 -7.66513 
-8.72806 -1.20948 0.113835 
-1.20948 -8.56911 0.105624 
0.113835 0.105624 -7.60134 
-7.65131 -0.334804 -1.22518 
-0.334804 -8.1555 2.19141 
-1.22518 2.19141 -9.0917 
-9.68101 -0.0251475 0.145649 
-0.0251475 -9.81116 0.704541 
0.145649 0.704541 -9.6081 
-9.70486 0.0577323 0.14783 
0.0577323 -9.57453 0.677773 
0.14783 0.677773 -9.82088 
-9.70592 0.0203608 0.15675 
0.0203608 -9.72312 0.641062 
0.15675 0.641062 -9.67123 
-9.6961 0.0241477 0.139327 
0.0241477 -9.75272 0.590711 
0.139327 0.590711 -9.65145 
-9.7154 -0.0233675 -0.0107887 
-0.0233675 -9.96982 0.0743491 
-0.0107887 0.0743491 -9.75335 
-9.82027 0.00859556 -0.0157875 
0.00859556 -9.79973 -0.0659931 
-0.0157875 -0.0659931 -9.81857 
-9.70236 -0.028112 -0.0137535 
-0.028112 -9.85436 -0.0715413 
-0.0137535 -0.0715413 -9.88184 
-9.89864 -0.062661 0.0305262 
-0.062661 -9.69886 0.00926787 
0.0305262 0.00926787 -9.84107 
-9.89363 -0.000156516 0.0458587 
-0.000156516 -9.89918 0.674178 
0.0458587 0.674178 -9.87416 
-9.89252 -0.0201078 0.0124564 
-0.0201078 -9.84073 0.653055 
0.0124564 0.653055 -9.93373 
-9.95826 -0.0262945 0.027133 
-0.0262945 -9.88507 0.694975 
0.027133 0.694975 -9.82365 
-9.8807 0.00864845 0.0676968 
0.00864845 -9.90623 0.672752 
0.0676968 0.672752 -9.88005 
-9.60305 -0.134445 0.335632 
-0.134445 -9.56394 -0.0241936 
0.335632 -0.0241936 -9.60717 
-9.37116 -0.163282 0.423929 
-0.163282 -9.69809 -0.0709479 
0.423929 -0.0709479 -9.70491 
-9.71613 -0.0430274 0.330358 
-0.0430274 -9.48645 -0.0439425 
0.330358 -0.0439425 -9.57159 
-9.66584 -0.168839 0.302507 
-0.168839 -9.4563 -0.0510612 
0.302507 -0.0510612 -9.65203 
-9.04532 0.0100262 0.16248 
0.0100262 -8.89174 -0.843968 
0.16248 -0.843968 -8.92673 
-8.92564 0.116008 0.226315 
0.116008 -9.23507 -0.951684 
0.226315 -0.951684 -8.70308 
-8.96211 -0.0122024 0.229828 
-0.0122024 -8.89154 -0.881819 
0.229828 -0.881819 -9.01015 
-9.00071 -0.0135829 0.160872 
-0.0135829 -8.97601 -0.825709 
0.160872 -0.825709 -8.88706 
-10.1005 0.0104893 0.090946 
0.0104893 -9.94606 -0.0210632 
0.090946 -0.0210632 -9.7605 
-9.83805 0.017853 0.0929474 
0.017853 -9.73434 0.0737023 
0.0929474 0.0737023 -10.2347 
-9.90838 0.00375191 0.0420209 
0.00375191 -9.99243 -0.0339816 
0.0420209 -0.0339816 -9.90625 
-10.0452 0.00871096 0.00980558 
0.00871096 -9.85324 -0.106693 
0.00980558 -0.106693 -9.90864 
-9.96687 0.00417878 -0.138256 
0.00417878 -10.0055 0.586986 
-0.138256 0.586986 -9.9146 
-9.86812 0.00778457 -0.0719213 
0.00778457 -9.88192 0.612805 
-0.0719213 0.612805 -10.1369 
-10.0001 0.00341703 -0.151268 
0.00341703 -10.0164 0.638187 
-0.151268 0.638187 -9.87044 
-9.93465 0.0366122 -0.106338 
0.0366122 -10.0297 0.577805 
-0.106338 0.577805 -9.92255 
-10.6809 0.846722 -0.749819 
0.846722 -10.5549 -0.575332 
-0.749819 -0.575332 -11.3103 
-9.75278 1.57273 1.78711 
1.57273 -12.161 0.0509422 
1.78711 0.0509422 -10.6323 
-10.5175 0.399567 -0.0279618 
0.399567 -10.1083 -0.782289 
-0.0279618 -0.782289 -11.9203 
-10.8245 0.30928 -0.397548 
0.30928 -10.9782 0.011365 
-0.397548 0.011365 -10.7433 
-9.89321 0.012306 0.00203083 
0.012306 -9.86045 0.000564116 
0.00203083 0.000564116 -9.91135 
-9.86876 0.00627896 0.0469614 
0.00627896 -9.83759 -0.0280325 
0.0469614 -0.0280325 -9.95866 
-9.9618 -0.0386588 0.0307458 
-0.0386588 -9.9094 0.0290992 
0.0307458 0.0290992 -9.79381 
-9.87167 0.0266656 -0.0116484 
0.0266656 -9.88316 -0.00747802 
-0.0116484 -0.00747802 -9.91019 
-8.988 0.0444637 -0.0291023 
0.0444637 -9.39918 -0.200268 
-0.0291023 -0.200268 -8.85541 
-9.24137 -0.0909389 0.173857 
-0.0909389 -9.4014 -0.305743 
0.173857 -0.305743 -8.59982 
-9.30067 -0.0738431 0.231999 
-0.0738431 -9.32557 -0.224163 
0.231999 -0.224163 -8.61635 
-9.32541 -0.00571911 0.0430444 
-0.00571911 -9.63197 -0.259718 
0.0430444 -0.259718 -8.28521 
-9.96411 0.0105508 0.247737 
0.0105508 -9.97933 -0.217371 
0.247737 -0.217371 -9.9998 
-9.98402 0.0098782 0.241177 
0.0098782 -9.99123 -0.231707 
0.241177 -0.231707 -9.96799 
-9.95652 0.00657772 0.252921 
0.00657772 -9.99344 -0.23907 
0.252921 -0.23907 -9.99329 
-9.99601 0.00534945 0.241259 
0.00534945 -9.99402 -0.233135 
0.241259 -0.233135 -9.95321 
-9.16669 -0.600059 0.439761 
-0.600059 -10.5172 -0.117031 
0.439761 -0.117031 -8.95418 
-8.82919 -0.0736026 0.18737 
-0.0736026 -8.81625 1.09299 
0.18737 1.09299 -10.9926 
-9.62214 1.26239 -0.433028 
1.26239 -8.37493 -0.531181 
-0.433028 -0.531181 -10.641 
-10.6605 0.442039 -1.18684 
0.442039 -7.48011 1.4005 
-1.18684 1.4005 -10.4974 
-9.87781 -0.859876 0.628717 
-0.859876 -8.66122 -0.124683 
0.628717 -0.124683 -11.1719 
-8.83842 1.81791 -1.22099 
1.81791 -11.3915 -0.345781 
-1.22099 -0.345781 -9.48102 
-11.4518 -1.37352 0.783685 
-1.37352 -8.13655 1.58673 
0.783685 1.58673 -10.1225 
-9.0037 -0.205035 0.343748 
-0.205035 -9.30172 1.33234 
0.343748 1.33234 -11.4055 
-8.04867 -0.31173 -0.878855 
-0.31173 -10.575 -0.749614 
-0.878855 -0.749614 -11.8259 
-9.31227 -0.563429 -0.48433 
-0.563429 -10.1886 -0.73899 
-0.48433 -0.73899 -10.9487 
-8.59942 -0.116398 0.275863 
-0.116398 -10.8728 0.0719876 
0.275863 0.0719876 -10.9774 
-9.38668 -0.773186 -0.3347 
-0.773186 -10.2601 0.655609 
-0.3347 0.655609 -10.8028 
-10.0132 -0.00877591 0.189076 
-0.00877591 -10.0666 0.105101 
0.189076 0.105101 -11.2839 
-10.3653 0.000137629 0.0243901 
0.000137629 -10.4791 -0.21113 
0.0243901 -0.21113 -10.5194 
-10.6101 0.0187368 0.104333 
0.0187368 -10.6687 -0.151036 
0.104333 -0.151036 -10.085 
-10.463 0.0380845 -0.116822 
0.0380845 -10.4213 -0.319112 
-0.116822 -0.319112 -10.4794 
-9.86544 -0.0011589 -0.0359354 
-0.0011589 -9.92538 0.0701285 
-0.0359354 0.0701285 -9.79481 
-9.92295 0.0148566 -0.021565 
0.0148566 -9.79808 0.0158596 
-0.021565 0.0158596 -9.86459 
-9.7172 0.0282975 0.0295748 
0.0282975 -9.93145 -0.0507981 
0.0295748 -0.0507981 -9.93697 
-9.91732 -0.0125694 0.0509338 
-0.0125694 -9.82598 -0.0150956 
0.0509338 -0.0150956 -9.84233 
-8.47782 -1.08616 -0.552406 
-1.08616 -9.4 -0.22866 
-0.552406 -0.22866 -10.9571 
-8.66574 0.128466 0.533739 
0.128466 -9.98933 -1.09459 
0.533739 -1.09459 -10.1799 
-8.58426 -0.396914 -0.482652 
-0.396914 -10.1378 -0.0328831 
-0.482652 -0.0328831 -10.1129 
-9.14938 1.61132 -1.41592 
1.61132 -10.497 1.11028 
-1.41592 1.11028 -9.18853 
-9.10053 -0.201968 -0.310255 
-0.201968 -8.75952 0.903164 
-0.310255 0.903164 -9.00804 
-8.96632 -0.0897835 -0.305272 
-0.0897835 -9.17915 0.96932 
-0.305272 0.96932 -8.72262 
-8.81085 -0.031527 -0.330292 
-0.031527 -9.10998 0.853304 
-0.330292 0.853304 -8.94726 
-8.91719 -0.221425 -0.263988 
-0.221425 -9.13358 0.92971 
-0.263988 0.92971 -8.81732 
-10.0313 -0.0184361 -0.0482449 
-0.0184361 -10.0529 -0.116562 
-0.0482449 -0.116562 -9.83017 
-9.88448 0.00560808 0.105453 
0.00560808 -10.0023 -0.0751862 
0.105453 -0.0751862 -10.0275 
-9.85736 -0.0511316 0.0487113 
-0.0511316 -10.0246 -0.10289 
0.0487113 -0.10289 -10.0323 
-9.88679 -0.0728137 -0.00895278 
-0.0728137 -10.0226 -0.098922 
-0.00895278 -0.098922 -10.0049 
-9.83097 0.0420644 -0.00160735 
0.0420644 -10.0952 0.0382247 
-0.00160735 0.0382247 -9.78837 
-9.91257 -0.0494119 0.0786169 
-0.0494119 -9.93402 -0.0755931 
0.0786169 -0.0755931 -9.86795 
-9.68751 0.0958711 0.10078 
0.0958711 -10.0201 -0.145174 
0.10078 -0.145174 -10.007 
-9.96212 -0.298047 0.086046 
-0.298047 -9.82701 0.0911315 
0.086046 0.0911315 -9.92541 
-9.9355 0.00201904 -0.478105 
0.00201904 -9.95369 -0.0358699 
-0.478105 -0.0358699 -9.96307 
-9.92775 -0.00668854 -0.459917 
-0.00668854 -9.93222 -0.0450149 
-0.459917 -0.0450149 -9.99229 
-9.93997 0.0119371 -0.486954 
0.0119371 -9.91446 -0.0240151 
-0.486954 -0.0240151 -9.99784 
-9.94765 -0.00564856 -0.473731 
-0.00564856 -9.95897 -0.0364611 
-0.473731 -0.0364611 -9.94564 
-8.91102 0.154645 0.266526 
0.154645 -9.22955 -0.792031 
0.266526 -0.792031 -8.87085 
-9.05143 0.0286211 0.348309 
0.0286211 -9.07786 -0.902305 
0.348309 -0.902305 -8.88213 
-9.0388 -0.145976 0.343674 
-0.145976 -8.96418 -0.889149 
0.343674 -0.889149 -9.00845 
-9.1534 0.017294 0.337962 
0.017294 -8.96145 -0.950123 
0.337962 -0.950123 -8.89659 
-7.7506 1.83899 1.3997 
1.83899 -7.50547 0.419005 
1.3997 0.419005 -8.73039 
-6.04442 0.149669 2.1587 
0.149669 -8.69835 2.14435 
2.1587 2.14435 -9.24369 
-6.35934 -0.546212 1.84813 
-0.546212 -9.63076 2.0946 
1.84813 2.0946 -7.99636 
-7.59012 0.129082 2.81415 
0.129082 -7.86231 0.666285 
2.81415 0.666285 -8.53403 
-5.22089 0.434399 0.967696 
0.434399 -5.61793 1.59766 
0.967696 1.59766 1.87202 
-5.08096 -0.769265 0.772411 
-0.769265 -2.40926 0.210887 
0.772411 0.210887 -1.47657 
-4.07252 0.132218 0.0118768 
0.132218 -3.37151 -0.280367 
0.0118768 -0.280367 -1.52276 
-2.30235 0.232591 -0.0970664 
0.232591 -3.78552 -1.38626 
-0.0970664 -1.38626 -2.87893 
-9.73503 -0.0469119 0.00296658 
-0.0469119 -9.81255 -0.0193089 
0.00296658 -0.0193089 -9.81258 
-9.80588 -0.00669573 -0.00475981 
-0.00669573 -9.75241 -0.0109045 
-0.00475981 -0.0109045 -9.80187 
-9.83723 0.029214 -0.0300391 
0.029214 -9.7596 -0.0148919 
-0.0300391 -0.0148919 -9.76334 
-9.80635 -0.0386082 0.0231174 
-0.0386082 -9.78778 -0.0428114 
0.0231174 -0.0428114 -9.76603 
-9.99966 8.24328e-06 0.511382 
8.24328e-06 -9.91623 0.0388392 
0.511382 0.0388392 -9.98491 
-9.99674 -0.0164887 0.473047 
-0.0164887 -9.98813 0.0415671 
0.473047 0.0415671 -9.91594 
-9.9264 0.00163183 0.50873 
0.00163183 -9.90691 0.0239973 
0.50873 0.0239973 -10.0675 
-9.98974 -0.0344365 0.530998 
-0.0344365 -9.978 0.0735989 
0.530998 0.0735989 -9.93306 
-10.5033 -0.373754 -0.581554 
-0.373754 -11.0187 -0.410878 
-0.581554 -0.410878 -11.0899 
-11.0126 -0.701605 -0.357854 
-0.701605 -10.4589 -0.0148346 
-0.357854 -0.0148346 -11.1404 
-10.6223 -0.141337 -0.374577 
-0.141337 -11.3598 -0.266454 
-0.374577 -0.266454 -10.6299 
-10.6505 -0.197306 -0.351078 
-0.197306 -11.2364 -0.229145 
-0.351078 -0.229145 -10.725 
-8.88974 0.300498 0.116024 
0.300498 -9.65363 -0.49036 
0.116024 -0.49036 -8.6174 
-8.51528 -0.0123993 0.633815 
-0.0123993 -9.40743 -0.303689 
0.633815 -0.303689 -9.23806 
-7.80757 -0.549352 0.398872 
-0.549352 -9.22635 -0.153908 
0.398872 -0.153908 -10.1268 
-8.53695 -0.093946 1.0355 
-0.093946 -9.49998 -0.531394 
1.0355 -0.531394 -9.12383 
-8.52095 -1.40087 0.104253 
-1.40087 -9.2278 1.85578 
0.104253 1.85578 4.97371 
0.0552762 -0.3625 -0.979305 
-0.3625 -0.577717 0.209643 
-0.979305 0.209643 -12.2526 
-7.10131 -0.4526 3.37324 
-0.4526 -9.41379 0.689243 
3.37324 0.689243 3.74006 
-6.37184 2.23562 5.0566 
2.23562 -5.22552 9.3036 
5.0566 9.3036 -1.17768 
-9.95527 -0.00612412 0.0713227 
-0.00612412 -9.96542 -0.242255 
0.0713227 -0.242255 -9.99005 
-9.96449 0.0119123 0.0879131 
0.0119123 -9.97385 -0.215825 
0.0879131 -0.215825 -9.9724 
-9.95132 0.000177672 0.0642399 
0.000177672 -9.98721 -0.210739 
0.0642399 -0.210739 -9.97221 
-9.97754 0.000605528 0.0737085 
0.000605528 -9.99432 -0.220622 
0.0737085 -0.220622 -9.93888 
-7.78752 -1.7007 -0.49714 
-1.7007 -9.16733 1.36231 
-0.49714 1.36231 3.80066 
-2.07973 -0.292572 -0.206499 
-0.292572 -1.6348 -0.858007 
-0.206499 -0.858007 -9.43966 
-6.54828 -0.181053 2.6852 
-0.181053 -9.78676 0.172405 
2.6852 0.172405 3.18085 
-6.1404 1.81106 2.63954 
1.81106 -4.33382 5.36446 
2.63954 5.36446 -2.67997 
-8.99337 -0.0715185 0.238892 
-0.0715185 -8.62012 0.382362 
0.238892 0.382362 -9.5625 
-8.81549 -0.36809 0.021397 
-0.36809 -9.23232 0.280846 
0.021397 0.280846 -9.12818 
-8.82996 -0.182688 0.134169 
-0.182688 -8.85237 0.190639 
0.134169 0.190639 -9.49366 
-8.72979 -0.186396 0.159748 
-0.186396 -9.01958 0.101694 
0.159748 0.101694 -9.42662 
-9.66417 -0.553905 0.98793 
-0.553905 -11.7025 -0.693376 
0.98793 -0.693376 -18.6998 
-9.51492 0.129981 -0.841064 
0.129981 -12.8613 -1.13461 
-0.841064 -1.13461 -17.6901 
-13.0724 0.385084 -0.00115033 
0.385084 -15.8428 -1.00905 
-0.00115033 -1.00905 -11.1511 
-10.4358 -0.0745024 -1.80155 
-0.0745024 -14.7366 1.56982 
-1.80155 1.56982 -14.894 
-9.88495 0.0696411 -0.0220545 
0.0696411 -9.88431 -0.00650163 
-0.0220545 -0.00650163 -9.84262 
-9.88717 -0.013692 0.003892 
-0.013692 -9.81288 -0.0399305 
0.003892 -0.0399305 -9.91182 
-9.89371 -0.0447455 -0.00243458 
-0.0447455 -9.91719 0.00253899 
-0.00243458 0.00253899 -9.80098 
-9.84585 -0.0260787 -0.0386251 
-0.0260787 -9.83446 -0.0491627 
-0.0386251 -0.0491627 -9.93157 
-9.96615 -0.00724687 -0.394241 
-0.00724687 -9.97884 -0.49925 
-0.394241 -0.49925 -9.98229 
-9.96109 0.0295221 -0.42431 
0.0295221 -9.93191 -0.476606 
-0.42431 -0.476606 -10.0343 
-9.97189 0.00436117 -0.40118 
0.00436117 -10.0141 -0.481189 
-0.40118 -0.481189 -9.94127 
-9.98035 -0.0111148 -0.409365 
-0.0111148 -10.0023 -0.503499 
-0.409365 -0.503499 -9.94457 
-9.96312 0.00838869 -0.196381 
0.00838869 -9.93544 0.130048 
-0.196381 0.130048 -9.99617 
-9.95695 0.014186 -0.187751 
0.014186 -9.95564 0.0995902 
-0.187751 0.0995902 -9.98214 
-9.97503 0.0169575 -0.175234 
0.0169575 -9.95662 0.121678 
-0.175234 0.121678 -9.96307 
-9.98152 0.00582368 -0.177445 
0.00582368 -9.97335 0.116637 
-0.177445 0.116637 -9.93985 
-9.93826 -0.00523385 -0.487887 
-0.00523385 -9.96983 -0.0637747 
-0.487887 -0.0637747 -9.95627 
-9.93419 -0.00671005 -0.504941 
-0.00671005 -9.9476 -0.0579293 
-0.504941 -0.0579293 -9.98257 
-9.93475 0.00212743 -0.478525 
0.00212743 -9.92519 -0.0835892 
-0.478525 -0.0835892 -10.0044 
-9.95337 -0.014864 -0.485232 
-0.014864 -9.9666 -0.0527117 
-0.485232 -0.0527117 -9.94439 
-9.96797 -0.228598 -0.468089 
-0.228598 -10.5695 -0.18684 
-0.468089 -0.18684 -11.935 
-10.1053 -0.370711 0.260526 
-0.370711 -11.2572 0.604516 
0.260526 0.604516 -11.11 
-10.1566 -0.19298 -0.592106 
-0.19298 -10.7667 0.162974 
-0.592106 0.162974 -11.5491 
-10.8708 -0.178324 -0.0339907 
-0.178324 -11.8108 -0.40329 
-0.0339907 -0.40329 -9.79079 
-8.01405 0.246308 1.94106 
0.246308 -8.30297 0.582603 
1.94106 0.582603 -7.04646 
-6.73053 1.08764 1.36612 
1.08764 -8.35439 0.2878 
1.36612 0.2878 -8.27855 
-7.67344 -0.278588 1.55787 
-0.278588 -9.04186 0.943069 
1.55787 0.943069 -6.64816 
-6.91467 0.790142 1.82776 
0.790142 -7.95285 1.12708 
1.82776 1.12708 -8.49595 
-9.88853 -0.00263751 0.515379 
-0.00263751 -9.88181 0.076031 
0.515379 0.076031 -9.90053 
-9.81473 -0.0233377 0.524356 
-0.0233377 -9.92212 0.0952477 
0.524356 0.0952477 -9.93402 
-9.91913 -0.0271579 0.548488 
-0.0271579 -9.85789 0.102606 
0.548488 0.102606 -9.89385 
-9.84574 -0.0231043 0.524256 
-0.0231043 -9.95421 0.118787 
0.524256 0.118787 -9.87092 
-9.2066 0.0897339 -0.303388 
0.0897339 -9.60137 0.142409 
-0.303388 0.142409 -9.41442 
-9.09593 -0.0611721 -0.264376 
-0.0611721 -9.67641 0.176101 
-0.264376 0.176101 -9.45006 
-9.03746 -0.234023 -0.156803 
-0.234023 -9.5982 0.165535 
-0.156803 0.165535 -9.58673 
-8.94272 0.0155303 -0.287163 
0.0155303 -9.68578 0.272104 
-0.287163 0.272104 -9.5939 
-10.0226 -0.0954691 0.0249907 
-0.0954691 -9.95466 0.14012 
0.0249907 0.14012 -9.85761 
-10.0861 -0.0321536 -0.0445426 
-0.0321536 -9.99032 0.140189 
-0.0445426 0.140189 -9.75841 
-10.0601 -0.111336 -0.110696 
-0.111336 -9.66643 0.0136636 
-0.110696 0.0136636 -10.1083 
-9.85076 0.0322345 0.118874 
0.0322345 -10.1265 0.129111 
0.118874 0.129111 -9.85759 
-9.4988 1.17599 -0.177603 
1.17599 -10.7514 -0.260246 
-0.177603 -0.260246 -9.14771 
-9.5312 -0.819942 0.389371 
-0.819942 -9.80327 -0.269728 
0.389371 -0.269728 -10.0634 
-9.44738 -0.0345914 0.7382 
-0.0345914 -9.28031 -0.273998 
0.7382 -0.273998 -10.6702 
-9.2717 -1.5118 -0.213883 
-1.5118 -9.21906 0.656812 
-0.213883 0.656812 -10.9071 
-9.80279 -0.401728 -0.224799 
-0.401728 -9.1883 0.091782 
-0.224799 0.091782 -10.8917 
-9.7027 1.03653 0.880924 
1.03653 -10.4363 0.240586 
0.880924 0.240586 -9.7438 
-11.2211 -1.16038 -0.664632 
-1.16038 -8.6705 -1.22065 
-0.664632 -1.22065 -9.99119 
-8.9962 0.526418 -0.20973 
0.526418 -9.55203 -0.883606 
-0.20973 -0.883606 -11.3345 
-9.99129 -0.0248437 0.537128 
-0.0248437 -9.99534 0.250023 
0.537128 0.250023 -9.93876 
-9.95056 0.0326557 0.518499 
0.0326557 -9.98158 0.251711 
0.518499 0.251711 -9.99325 
-9.9328 -0.0102365 0.50205 
-0.0102365 -9.95205 0.283353 
0.50205 0.283353 -10.0405 
-9.97719 -0.015184 0.503221 
-0.015184 -10.0125 0.249758 
0.503221 0.249758 -9.9357 
-9.95956 -0.0123743 -0.176713 
-0.0123743 -9.99056 -0.64122 
-0.176713 -0.64122 -9.93171 
-9.95459 0.00454775 -0.208014 
0.00454775 -9.9049 -0.617528 
-0.208014 -0.617528 -10.0223 
-9.95214 0.00851116 -0.168593 
0.00851116 -9.94426 -0.628554 
-0.168593 -0.628554 -9.98543 
-9.97479 0.00125932 -0.175234 
0.00125932 -9.9777 -0.612498 
-0.175234 -0.612498 -9.92933 
-9.97297 0.00138418 0.188687 
0.00138418 -9.97774 0.620946 
0.188687 0.620946 -9.92643 
-9.93915 0.0127048 0.174106 
0.0127048 -9.93299 0.635127 
0.174106 0.635127 -10.005 
-9.95947 0.00608457 0.217609 
0.00608457 -9.90021 0.622396 
0.217609 0.622396 -10.0175 
-9.95958 -0.00991234 0.198568 
-0.00991234 -9.99361 0.645244 
0.198568 0.645244 -9.92396 
-7.26395 -0.943619 0.108228 
-0.943619 -4.07488 -1.70407 
0.108228 -1.70407 1.04122 
-3.55885 0.671592 -0.420203 
0.671592 -5.59022 -1.71128 
-0.420203 -1.71128 -1.14854 
-5.32102 -0.0917836 -0.935367 
-0.0917836 -3.05868 -0.661247 
-0.935367 -0.661247 -1.9179 
-5.51969 -0.245451 -2.20033 
-0.245451 -2.02465 0.225059 
-2.20033 0.225059 -2.75327 
-11.088 -0.171088 0.319367 
-0.171088 -9.63249 0.486036 
0.319367 0.486036 -10.6009 
-10.251 -0.29706 -0.249757 
-0.29706 -9.06168 0.503578 
-0.249757 0.503578 -12.0087 
-11.2017 0.642367 -0.765955 
0.642367 -9.08941 -0.700658 
-0.765955 -0.700658 -11.0303 
-10.5928 -0.0456331 0.113507 
-0.0456331 -9.14212 1.0038 
0.113507 1.0038 -11.5865 
-9.94368 -0.00190637 -0.402289 
-0.00190637 -9.95983 -0.0299263 
-0.402289 -0.0299263 -9.96343 
-9.91637 0.00414427 -0.398385 
0.00414427 -9.92306 -0.0616292 
-0.398385 -0.0616292 -10.0275 
-9.94871 -0.0148325 -0.390184 
-0.0148325 -9.96248 -0.0388086 
-0.390184 -0.0388086 -9.95575 
-9.97177 -0.000914079 -0.3903 
-0.000914079 -9.96186 -0.0238741 
-0.3903 -0.0238741 -9.9333 
-10.7816 2.49826 4.26688 
2.49826 -9.06157 -1.00671 
4.26688 -1.00671 4.26021 
-1.953 1.4946 -1.56025 
1.4946 -2.86214 0.0781328 
-1.56025 0.0781328 -10.7678 
-13.4977 0.978423 3.03099 
0.978423 -6.55898 -4.17077 
3.03099 -4.17077 4.47369 
-3.20767 -2.61558 7.25694 
-2.61558 -6.89325 -3.22378 
7.25694 -3.22378 -5.48202 
-5.62926 2.35011 -2.46333 
2.35011 -0.373242 -6.09196 
-2.46333 -6.09196 -6.20004 
-5.88935 -0.368836 -3.66625 
-0.368836 -9.97019 -4.98278 
-3.66625 -4.98278 3.657 
-1.34958 0.209189 0.0787169 
0.209189 -1.83707 0.9332 
0.0787169 0.9332 -9.01588 
-6.78338 -2.36094 -1.4465 
-2.36094 -7.52989 -5.54082 
-1.4465 -5.54082 2.11074 
-4.53492 -0.629207 0.51027 
-0.629207 -3.54859 0.324747 
0.51027 0.324747 -1.77264 
-6.98959 -1.42085 -0.813208 
-1.42085 -4.57286 1.41392 
-0.813208 1.41392 1.7063 
-3.47353 0.565345 0.047413 
0.565345 -5.41991 1.3107 
0.047413 1.3107 -0.962712 
-5.21922 -0.694034 1.65535 
-0.694034 -2.33055 -0.263945 
1.65535 -0.263945 -2.30637 
-9.78557 -0.00405361 -0.000253362 
-0.00405361 -9.82318 0.00760217 
-0.000253362 0.00760217 -9.81985 
-9.81228 -0.00742312 0.00189216 
-0.00742312 -9.81274 -0.00411011 
0.00189216 -0.00411011 -9.80357 
-9.83069 -0.00847881 -0.00648381 
-0.00847881 -9.79936 -0.00339209 
-0.00648381 -0.00339209 -9.79854 
-9.81959 -0.0106506 0.0157605 
-0.0106506 -9.8191 -0.018751 
0.0157605 -0.018751 -9.7899 
-9.9182 -0.0139256 -0.192535 
-0.0139256 -9.94006 0.668959 
-0.192535 0.668959 -9.84404 
-9.93173 -0.00346121 -0.150436 
-0.00346121 -9.89166 0.621335 
-0.150436 0.621335 -9.87892 
-9.96967 0.0139994 -0.119573 
0.0139994 -9.77665 0.617191 
-0.119573 0.617191 -9.95599 
-9.88581 0.0125876 -0.180474 
0.0125876 -9.93528 0.627158 
-0.180474 0.627158 -9.88122 
-7.83447 0.43047 0.913072 
0.43047 -7.05726 1.53379 
0.913072 1.53379 -8.03183 
-7.63895 0.800511 0.780252 
0.800511 -6.19071 1.18995 
0.780252 1.18995 -9.0939 
-8.55363 -0.71233 0.797988 
-0.71233 -7.7286 0.701166 
0.797988 0.701166 -6.64133 
-8.32133 0.330445 1.41987 
0.330445 -7.02117 2.27063 
1.41987 2.27063 -7.58106 
-2.27258 0.780432 0.263872 
0.780432 -3.57165 1.01689 
0.263872 1.01689 -2.84046 
-4.19372 0.0488628 1.54699 
0.0488628 -3.96251 0.169032 
1.54699 0.169032 -0.528463 
-5.06886 -0.156127 -0.583169 
-0.156127 -3.91679 1.28186 
-0.583169 1.28186 0.300961 
-3.89814 0.289483 2.17074 
0.289483 -1.52486 1.38477 
2.17074 1.38477 -3.26169 
-8.92096 -0.0602076 0.765794 
-0.0602076 -9.06195 0.623106 
0.765794 0.623106 -8.98751 
-8.80617 0.115469 0.779798 
0.115469 -9.21515 0.606386 
0.779798 0.606386 -8.94911 
-9.11106 -0.221899 0.888677 
-0.221899 -9.23441 0.656923 
0.888677 0.656923 -8.62496 
-9.02474 0.0335088 0.780398 
0.0335088 -9.1113 0.516644 
0.780398 0.516644 -8.83439 
-9.82212 0.000518206 -0.0038181 
0.000518206 -9.82964 -0.00695573 
-0.0038181 -0.00695573 -9.81878 
-9.83161 -0.00943453 -0.00368484 
-0.00943453 -9.82141 -0.00488958 
-0.00368484 -0.00488958 -9.81751 
-9.82144 -0.0047992 -0.00770627 
-0.0047992 -9.81885 0.00515181 
-0.00770627 0.00515181 -9.83024 
-9.82179 0.00498526 0.00683219 
0.00498526 -9.80891 -0.0031035 
0.00683219 -0.0031035 -9.83983 
-9.59345 -0.0768744 -0.0427658 
-0.0768744 -9.77133 -0.0447056 
-0.0427658 -0.0447056 -10.2669 
-10.099 0.0659661 -0.0156297 
0.0659661 -9.82149 0.0685919 
-0.0156297 0.0685919 -9.71115 
-9.83202 0.0892418 0.235483 
0.0892418 -10.0238 0.081108 
0.235483 0.081108 -9.77584 
-9.94476 -0.014266 0.021685 
-0.014266 -9.95138 0.0207746 
0.021685 0.0207746 -9.73555 
-9.96949 -0.0192904 0.203268 
-0.0192904 -9.99189 -0.603987 
0.203268 -0.603987 -9.96033 
-9.9851 -0.0135279 0.214226 
-0.0135279 -9.92521 -0.602164 
0.214226 -0.602164 -10.0114 
-9.94996 0.0101695 0.187213 
0.0101695 -9.98004 -0.609301 
0.187213 -0.609301 -9.9917 
-9.97167 -0.00749747 0.208479 
-0.00749747 -9.99461 -0.610837 
0.208479 -0.610837 -9.95542 
-9.90065 -0.752297 -0.566504 
-0.752297 -8.99914 0.411423 
-0.566504 0.411423 -10.8496 
-8.71823 -0.573102 -1.06523 
-0.573102 -8.24585 1.15912 
-1.06523 1.15912 -12.7853 
-10.6953 -1.07654 -0.991104 
-1.07654 -8.82195 0.178915 
-0.991104 0.178915 -10.2322 
-9.57867 -0.544424 0.857892 
-0.544424 -9.13728 -0.911928 
0.857892 -0.911928 -11.0335 
-10.1028 -0.161355 -0.0162656 
-0.161355 -9.97096 0.133521 
-0.0162656 0.133521 -10.0004 
-10.1476 -0.143764 0.0707509 
-0.143764 -9.98417 0.101681 
0.0707509 0.101681 -9.94245 
-10.1213 -0.101169 0.0572606 
-0.101169 -9.9339 0.110639 
0.0572606 0.110639 -10.019 
-10.2102 -0.10864 0.167516 
-0.10864 -10.1462 0.0965095 
0.167516 0.0965095 -9.71773 
-9.59101 -0.443516 -0.00276259 
-0.443516 -10.5446 0.054461 
-0.00276259 0.054461 -12.5548 
-11.945 -0.0212884 0.436205 
-0.0212884 -9.51703 -0.0330773 
0.436205 -0.0330773 -11.2283 
-10.4471 -1.39698 0.594087 
-1.39698 -10.4381 -0.529632 
0.594087 -0.529632 -11.8052 
-11.3177 -0.559691 0.557441 
-0.559691 -10.1703 0.698547 
0.557441 0.698547 -11.2025 
-2.49189 3.66154 3.33708 
3.66154 -6.52941 1.01145 
3.33708 1.01145 -20.5975 
0.338935 3.08275 2.94616 
3.08275 -9.63855 2.62864 
2.94616 2.62864 -20.3192 
-9.52099 4.17863 -2.19559 
4.17863 -9.98072 -0.252219 
-2.19559 -0.252219 -10.1171 
-9.10137 -0.307197 3.38775 
-0.307197 -9.28059 2.46968 
3.38775 2.46968 -11.2369 
-11.4617 -1.09372 0.767957 
-1.09372 -13.3025 -1.22857 
0.767957 -1.22857 -9.52804 
-10.3568 -0.0357277 0.428555 
-0.0357277 -10.3303 0.703365 
0.428555 0.703365 -13.6051 
-10.7409 -0.897588 0.689441 
-0.897588 -9.70034 -0.155984 
0.689441 -0.155984 -13.851 
-11.2467 -0.614104 -0.803594 
-0.614104 -10.6382 -0.804933 
-0.803594 -0.804933 -12.4073 
-9.81872 -0.00267784 0.463488 
-0.00267784 -9.81697 -0.1028 
0.463488 -0.1028 -9.90008 
-9.86122 0.0173355 0.451379 
0.0173355 -9.82579 -0.104141 
0.451379 -0.104141 -9.84875 
-9.82063 -0.0062144 0.457216 
-0.0062144 -9.84813 -0.0840913 
0.457216 -0.0840913 -9.867 
-9.83861 -0.0155174 0.454887 
-0.0155174 -9.82274 -0.104223 
0.454887 -0.104223 -9.87441 
-9.71703 0.00324534 0.0763958 
0.00324534 -9.77873 0.712415 
0.0763958 0.712415 -9.66393 
-9.75123 0.00400355 0.0712386 
0.00400355 -9.67048 0.678417 
0.0712386 0.678417 -9.73798 
-9.62349 -0.00614235 0.116209 
-0.00614235 -9.75762 0.675224 
0.116209 0.675224 -9.77857 
-9.72714 0.0337805 0.0600906 
0.0337805 -9.73251 0.679943 
0.0600906 0.679943 -9.70005 
-9.93015 0.00354861 0.428654 
0.00354861 -9.92101 -0.0689374 
0.428654 -0.0689374 -10.0038 
-9.93128 -0.0062804 0.423303 
-0.0062804 -9.94493 -0.100894 
0.423303 -0.100894 -9.97872 
-9.94878 -0.00725017 0.441187 
-0.00725017 -9.94588 -0.0956462 
0.441187 -0.0956462 -9.96027 
-9.9592 -0.00673245 0.434664 
-0.00673245 -9.95351 -0.0994131 
0.434664 -0.0994131 -9.94223 
-9.93251 0.000232559 -0.513154 
0.000232559 -9.97418 -0.290581 
-0.513154 -0.290581 -9.9935 
-9.93523 0.0124539 -0.528347 
0.0124539 -9.95509 -0.262887 
-0.528347 -0.262887 -10.0099 
-9.95974 -0.00611023 -0.522679 
-0.00611023 -9.98495 -0.276903 
-0.522679 -0.276903 -9.9555 
-9.97305 -0.0120985 -0.528637 
-0.0120985 -9.98372 -0.283914 
-0.528637 -0.283914 -9.94341 
-8.89412 0.0196378 -0.276495 
0.0196378 -9.71522 0.387663 
-0.276495 0.387663 -9.3654 
-8.90288 -0.471699 -0.182248 
-0.471699 -9.30837 0.131213 
-0.182248 0.131213 -9.76349 
-9.09835 0.251303 -0.20968 
0.251303 -9.80897 0.268334 
-0.20968 0.268334 -9.06743 
-8.90892 -0.0840587 -0.529255 
-0.0840587 -9.50074 0.482513 
-0.529255 0.482513 -9.56508 
-10.23 0.189007 0.127797 
0.189007 -9.80691 -0.00542387 
0.127797 -0.00542387 -10.3996 
-10.0562 -0.00326304 -0.0286446 
-0.00326304 -10.2857 0.092829 
-0.0286446 0.092829 -10.0946 
-10.1168 0.00475508 0.00442915 
0.00475508 -10.2559 0.0743042 
0.00442915 0.0743042 -10.0639 
-10.0748 0.0444856 -0.027104 
0.0444856 -10.3386 0.153028 
-0.027104 0.153028 -10.0231 
-7.48985 -1.65381 -1.59765 
-1.65381 -13.0102 -0.332527 
-1.59765 -0.332527 -18.0187 
-8.88077 -2.8076 -0.98544 
-2.8076 -12.5922 0.933278 
-0.98544 0.933278 -17.0457 
-10.1343 -1.3855 -0.714276 
-1.3855 -12.9456 0.167426 
-0.714276 0.167426 -15.4388 
-11.9034 -0.321998 1.4311 
-0.321998 -12.397 -0.437365 
1.4311 -0.437365 -14.2183 
-9.81577 -0.048025 0.00783459 
-0.048025 -9.8673 -0.0461435 
0.00783459 -0.0461435 -9.81171 
-9.79493 -0.0130056 0.0142305 
-0.0130056 -9.8495 -0.0451067 
0.0142305 -0.0451067 -9.85034 
-9.75775 -0.0385118 -0.0018342 
-0.0385118 -9.79162 0.0128131 
-0.0018342 0.0128131 -9.9454 
-9.83976 -0.0514003 0.0315284 
-0.0514003 -9.84832 -0.0361156 
0.0315284 -0.0361156 -9.8067 
-9.94611 0.000517405 0.502317 
0.000517405 -9.97609 0.384191 
0.502317 0.384191 -9.95408 
-9.91956 -0.00380304 0.479572 
-0.00380304 -9.9364 0.403668 
0.479572 0.403668 -10.0203 
-9.94867 0.0273054 0.501581 
0.0273054 -9.95206 0.376159 
0.501581 0.376159 -9.97555 
-9.95431 -0.00684379 0.514584 
-0.00684379 -9.98592 0.375053 
0.514584 0.375053 -9.93605 
-7.09374 -2.22861 -1.12433 
-2.22861 -11.6842 0.452625 
-1.12433 0.452625 -8.20203 
-8.81045 0.124404 1.12309 
0.124404 -8.05209 0.433711 
1.12309 0.433711 -10.1175 
-9.06179 1.28705 1.17247 
1.28705 -8.31753 0.959672 
1.17247 0.959672 -9.6007 
-9.61007 1.49214 -1.21553 
1.49214 -6.31192 -0.637028 
-1.21553 -0.637028 -11.058 
-9.24041 0.755538 0.733726 
0.755538 -11.6598 -1.04023 
0.733726 -1.04023 -9.50591 
-7.1818 0.0767916 -0.256391 
0.0767916 -9.00199 0.543923 
-0.256391 0.543923 -14.2223 
-8.37782 -0.853194 1.358 
-0.853194 -12.6641 1.41805 
1.358 1.41805 -9.36421 
-8.8487 0.151475 0.988853 
0.151475 -9.7279 -0.311616 
0.988853 -0.311616 -11.8295 
-7.90681 -0.328203 -1.63353 
-0.328203 -6.21832 -1.95114 
-1.63353 -1.95114 2.2741 
-2.78353 1.05807 -0.238389 
1.05807 -1.95906 -1.29192 
-0.238389 -1.29192 -7.10843 
-11.4063 -3.2538 -2.01096 
-3.2538 -5.33172 1.02898 
-2.01096 1.02898 4.887 
-3.05959 -0.266936 -6.5598 
-0.266936 -7.03205 -2.61521 
-6.5598 -2.61521 -1.75939 
-9.96214 -0.00592302 0.0861966 
-0.00592302 -9.9761 0.510794 
0.0861966 0.510794 -10.004 
-9.95932 -0.00273203 0.088694 
-0.00273203 -9.98863 0.530594 
0.088694 0.530594 -9.99428 
-9.98514 -0.00618438 0.0814231 
-0.00618438 -9.99077 0.524249 
0.0814231 0.524249 -9.96632 
-9.99298 -0.00197339 0.0797963 
-0.00197339 -9.9924 0.525852 
0.0797963 0.525852 -9.95684 
-5.90705 0.568205 2.7149 
0.568205 -9.54322 0.47421 
2.7149 0.47421 -8.69891 
-6.37808 1.07631 0.974288 
1.07631 -8.55752 1.21097 
0.974288 1.21097 -9.21358 
-8.47551 0.209802 3.14217 
0.209802 -7.17196 -0.941605 
3.14217 -0.941605 -8.50171 
-6.65728 0.266676 1.63234 
0.266676 -8.98137 1.12987 
1.63234 1.12987 -8.51053 
-7.77954 -0.470903 0.589035 
-0.470903 -6.39161 1.66035 
0.589035 1.66035 3.01259 
-2.83608 0.949107 -0.0720373 
0.949107 -2.21504 1.07325 
-0.0720373 1.07325 -6.10745 
-10.5522 -3.15821 0.856418 
-3.15821 -5.23151 -1.28907 
0.856418 -1.28907 4.62518 
-3.44537 -0.168516 6.16017 
-0.168516 -7.17662 1.29636 
6.16017 1.29636 -0.536575 
-1.93189 1.65432 1.08375 
1.65432 -1.98997 1.58975 
1.08375 1.58975 -4.14205 
-7.43221 -2.40503 0.668754 
-2.40503 -3.12844 -0.587362 
0.668754 -0.587362 2.49674 
-5.15798 -0.00620563 0.501087 
-0.00620563 -5.96129 1.22627 
0.501087 1.22627 3.05536 
-2.12301 -0.0461396 5.14487 
-0.0461396 -5.2734 0.641627 
5.14487 0.641627 -0.667506 
-1.63238 -1.74878 1.67195 
-1.74878 -1.81803 0.701809 
1.67195 0.701809 -6.12288 
-4.33063 2.7699 -1.26628 
2.7699 -9.52655 0.374756 
-1.26628 0.374756 4.2839 
-7.25361 -0.0278347 1.53439 
-0.0278347 -7.19777 0.984699 
1.53439 0.984699 4.87809 
-6.75674 0.0126244 0.999064 
0.0126244 -2.53992 -5.48766 
0.999064 -5.48766 -0.276629 
-9.94907 -0.00502537 -0.320146 
-0.00502537 -9.92965 0.162296 
-0.320146 0.162296 -9.99813 
-9.95385 0.00402677 -0.339815 
0.00402677 -9.9415 0.137292 
-0.339815 0.137292 -9.9815 
-9.94885 0.0015539 -0.321809 
0.0015539 -9.96215 0.137781 
-0.321809 0.137781 -9.96585 
-9.9707 0.006201 -0.323791 
0.006201 -9.95683 0.131503 
-0.323791 0.131503 -9.94933 
-6.11593 0.150947 1.43577 
0.150947 -7.62476 0.69526 
1.43577 0.69526 -8.62356 
-6.80077 0.372079 1.65655 
0.372079 -7.75996 0.663691 
1.65655 0.663691 -7.80353 
-7.35435 -0.170141 1.13777 
-0.170141 -8.20363 0.918207 
1.13777 0.918207 -6.80627 
-6.83461 -0.0746992 2.24415 
-0.0746992 -8.32748 0.79979 
2.24415 0.79979 -7.20217 
-9.94133 0.00447591 -0.529256 
0.00447591 -10 0.0588498 
-0.529256 0.0588498 -9.97487 
-9.93646 -0.00623677 -0.53199 
-0.00623677 -9.95108 0.040111 
-0.53199 0.040111 -10.0287 
-10.0045 0.001771 -0.541434 
0.001771 -9.97652 0.0844139 
-0.541434 0.0844139 -9.93515 
-9.98166 -0.00092333 -0.514776 
-0.00092333 -9.98892 0.0540616 
-0.514776 0.0540616 -9.94564 
-9.95008 0.000331332 -0.495552 
0.000331332 -9.97416 0.264226 
-0.495552 0.264226 -9.97444 
-9.93857 -0.00558648 -0.494797 
-0.00558648 -9.95587 0.245775 
-0.494797 0.245775 -10.0042 
-9.95208 -0.000643097 -0.482114 
-0.000643097 -9.96719 0.268395 
-0.482114 0.268395 -9.97941 
-9.9651 -0.000764366 -0.486141 
-0.000764366 -9.97953 0.264174 
-0.486141 0.264174 -9.95405 
-9.81868 -0.0128619 0.00476771 
-0.0128619 -9.8093 -0.0088799 
0.00476771 -0.0088799 -9.82948 
-9.82053 0.000196763 9.21224e-05 
0.000196763 -9.81097 5.04765e-05 
9.21224e-05 5.04765e-05 -9.82595 
-9.82164 -0.0125978 -0.00674518 
-0.0125978 -9.81937 -0.0109925 
-0.00674518 -0.0109925 -9.81645 
-9.8151 -0.00892127 -0.00187659 
-0.00892127 -9.81927 -0.00670688 
-0.00187659 -0.00670688 -9.82308 
-9.82793 0.0166373 -0.00724964 
0.0166373 -9.87295 -0.0224189 
-0.00724964 -0.0224189 -9.87674 
-9.87009 0.0145549 -0.00128714 
0.0145549 -9.85097 -0.00507125 
-0.00128714 -0.00507125 -9.85655 
-9.83596 0.0188485 -0.00255907 
0.0188485 -9.88742 -0.0272676 
-0.00255907 -0.0272676 -9.85424 
-9.82389 0.0282415 -0.0178405 
0.0282415 -9.87776 -0.0135815 
-0.0178405 -0.0135815 -9.87597 
-9.95892 -0.0782105 -0.0760234 
-0.0782105 -9.53484 0.106793 
-0.0760234 0.106793 -9.60549 
-9.24387 -0.299412 -0.0227115 
-0.299412 -10.2097 -0.163514 
-0.0227115 -0.163514 -9.64571 
-9.3908 -0.157858 -0.220507 
-0.157858 -9.90498 0.0484608 
-0.220507 0.0484608 -9.80347 
-9.8812 -0.0637542 -0.070818 
-0.0637542 -9.28078 -0.117564 
-0.070818 -0.117564 -9.93726 
-9.95495 -0.0133419 0.51361 
-0.0133419 -9.97875 0.043002 
0.51361 0.043002 -9.96184 
-9.87924 0.0207458 0.517974 
0.0207458 -9.96624 0.0202893 
0.517974 0.0202893 -10.0501 
-9.97864 -0.033961 0.486379 
-0.033961 -9.99138 0.0232388 
0.486379 0.0232388 -9.92553 
-10.0119 -0.0180711 0.535484 
-0.0180711 -9.9661 0.0588874 
0.535484 0.0588874 -9.91751 
-9.99892 -0.00240125 0.379157 
-0.00240125 -10.0077 0.274546 
0.379157 0.274546 -9.99918 
-10.0155 -0.0126934 0.372199 
-0.0126934 -10.0408 0.27637 
0.372199 0.27637 -9.94947 
-9.97102 0.00689052 0.35476 
0.00689052 -10.0048 0.282597 
0.35476 0.282597 -10.03 
-9.99108 -0.0181511 0.395353 
-0.0181511 -10.0395 0.299723 
0.395353 0.299723 -9.9752 
-9.33375 -1.43934 0.710839 
-1.43934 -10.0479 -0.217953 
0.710839 -0.217953 -10.7036 
-10.5304 -0.303971 0.227874 
-0.303971 -9.50855 0.0598081 
0.227874 0.0598081 -10.0463 
-9.85299 -0.440448 0.310825 
-0.440448 -10.04 0.200363 
0.310825 0.200363 -10.1923 
-8.91257 0.0820892 -0.142103 
0.0820892 -10.0192 -0.0608543 
-0.142103 -0.0608543 -11.1536 
-3.26946 0.413086 -0.769298 
0.413086 -3.19372 0.574068 
-0.769298 0.574068 -1.9933 
-3.32828 0.874114 -0.0348066 
0.874114 -4.33182 1.00366 
-0.0348066 1.00366 -0.79639 
-4.53599 0.594347 0.460117 
0.594347 -3.30655 -0.180285 
0.460117 -0.180285 -0.613956 
-2.81239 0.608206 -0.770276 
0.608206 -2.88946 0.813905 
-0.770276 0.813905 -2.75464 
-9.96145 -0.00575435 -0.199402 
-0.00575435 -9.99317 0.628176 
-0.199402 0.628176 -9.94694 
-9.94097 -0.00784105 -0.174382 
-0.00784105 -9.95839 0.62305 
-0.174382 0.62305 -10.0022 
-9.965 -0.00896452 -0.205942 
-0.00896452 -9.93207 0.613806 
-0.205942 0.613806 -10.0045 
-9.96506 -0.0117549 -0.189763 
-0.0117549 -9.98261 0.617071 
-0.189763 0.617071 -9.95389 
-11.2867 0.503811 0.338936 
0.503811 -12.2712 0.159799 
0.338936 0.159799 -11.4632 
-11.6825 1.11251 0.720587 
1.11251 -10.1655 1.01163 
0.720587 1.01163 -13.1731 
-11.5443 -0.0533735 0.251885 
-0.0533735 -11.2403 0.346728 
0.251885 0.346728 -12.2365 
-11.0309 0.610885 -0.23328 
0.610885 -11.721 -0.142538 
-0.23328 -0.142538 -12.2692 
-9.67508 -0.140839 0.388162 
-0.140839 -9.41666 -0.0323551 
0.388162 -0.0323551 -9.58585 
-9.35592 -0.132278 0.356849 
-0.132278 -9.70592 -0.0368598 
0.356849 -0.0368598 -9.61576 
-9.61632 -0.182534 0.404641 
-0.182534 -9.51575 0.0559541 
0.404641 0.0559541 -9.54553 
-9.55701 -0.136085 0.454332 
-0.136085 -9.53909 -0.00261092 
0.454332 -0.00261092 -9.5815 
-9.63583 0.187305 -0.612246 
0.187305 -10.4355 0.0349756 
-0.612246 0.0349756 -9.7574 
-9.78462 0.0536855 -0.115213 
0.0536855 -10.3106 -0.100804 
-0.115213 -0.100804 -9.73352 
-8.99493 -0.245908 0.136654 
-0.245908 -9.65118 0.142605 
0.136654 0.142605 -11.1826 
-10.2765 0.317255 -0.0325847 
0.317255 -9.76878 -0.0842577 
-0.0325847 -0.0842577 -9.78348 
-9.78782 0.0297711 -0.331849 
0.0297711 -11.1895 -0.0177617 
-0.331849 -0.0177617 -14.1743 
-13.8291 -0.237143 -0.0910796 
-0.237143 -11.2836 -0.438383 
-0.0910796 -0.438383 -10.0389 
-10.765 -1.19732 0.508015 
-1.19732 -10.6548 -0.818907 
0.508015 -0.818907 -13.7319 
-11.7758 -1.00435 1.63907 
-1.00435 -10.997 0.646085 
1.63907 0.646085 -12.3788 
-9.97059 0.000168358 0.380423 
0.000168358 -10.0068 -0.45948 
0.380423 -0.45948 -9.95732 
-9.96334 0.000223317 0.365142 
0.000223317 -9.9888 -0.460732 
0.365142 -0.460732 -9.98257 
-9.96175 -0.024225 0.386536 
-0.024225 -9.9559 -0.444566 
0.386536 -0.444566 -10.0171 
-9.9641 -0.00751422 0.374822 
-0.00751422 -10.0056 -0.454273 
0.374822 -0.454273 -9.96497 
-10.7215 0.224321 -0.272547 
0.224321 -10.5777 0.173958 
-0.272547 0.173958 -10.8312 
-10.3847 0.206437 -0.0514398 
0.206437 -10.4278 -0.00873479 
-0.0514398 -0.00873479 -11.3179 
-11.2233 -0.0753674 -0.0897389 
-0.0753674 -9.82953 -0.00925102 
-0.0897389 -0.00925102 -11.0776 
-10.5239 0.54452 -0.295204 
0.54452 -11.0726 0.120732 
-0.295204 0.120732 -10.5339 
-9.7169 -0.520812 0.986501 
-0.520812 -13.2527 -0.634567 
0.986501 -0.634567 -15.6113 
-9.07463 -2.06285 0.865599 
-2.06285 -11.8581 -1.51253 
0.865599 -1.51253 -17.6482 
-9.37816 -0.0168929 0.0591438 
-0.0168929 -12.1583 -0.683237 
0.0591438 -0.683237 -17.0444 
-10.7407 -0.0816978 0.109728 
-0.0816978 -12.8331 -1.26992 
0.109728 -1.26992 -15.0071 
-10.2914 0.286117 0.0484648 
0.286117 -9.90907 0.0781669 
0.0484648 0.0781669 -9.76693 
-10.0479 -0.0201677 0.0979243 
-0.0201677 -10.2079 0.0587771 
0.0979243 0.0587771 -9.71161 
-9.78816 0.0629032 0.423913 
0.0629032 -10.3625 -0.014189 
0.423913 -0.014189 -9.81676 
-9.40752 -0.281651 -0.172128 
-0.281651 -9.66624 -0.114024 
-0.172128 -0.114024 -10.8937 
-9.99462 -0.00424752 -0.561057 
-0.00424752 -9.97475 -0.0699676 
-0.561057 -0.0699676 -9.93406 
-9.92356 0.0054058 -0.550859 
0.0054058 -9.95458 -0.0333662 
-0.550859 -0.0333662 -10.0253 
-9.94702 -0.0107238 -0.547457 
-0.0107238 -9.99196 -0.0547208 
-0.547457 -0.0547208 -9.96445 
-9.97469 -0.0104181 -0.537569 
-0.0104181 -9.98548 -0.0494224 
-0.537569 -0.0494224 -9.94327 
-9.86891 0.00579138 -0.00278835 
0.00579138 -9.86474 0.00907807 
-0.00278835 0.00907807 -9.85451 
-9.84161 0.00174335 -0.000754926 
0.00174335 -9.85913 -0.00275467 
-0.000754926 -0.00275467 -9.88742 
-9.86598 0.00206598 0.0013047 
0.00206598 -9.865 0.00278238 
0.0013047 0.00278238 -9.85719 
-9.86247 0.00269244 -0.00308254 
0.00269244 -9.86148 0.000600299 
-0.00308254 0.000600299 -9.86421 
-9.93599 -0.0115356 -0.387686 
-0.0115356 -9.98799 0.459895 
-0.387686 0.459895 -9.98049 
-9.94431 -0.0247695 -0.390365 
-0.0247695 -9.95039 0.444179 
-0.390365 0.444179 -10.0098 
-9.96117 0.00841563 -0.37179 
0.00841563 -9.97576 0.457714 
-0.37179 0.457714 -9.96754 
-9.95434 -0.0103822 -0.379433 
-0.0103822 -9.98909 0.451865 
-0.379433 0.451865 -9.96104 
-10.0213 0.0137634 0.0881509 
0.0137634 -10.0835 -0.0314575 
0.0881509 -0.0314575 -9.92132 
-10.2457 0.0734468 0.0337129 
0.0734468 -10.035 -0.0142652 
0.0337129 -0.0142652 -9.74535 
-10.1643 -0.165667 0.267356 
-0.165667 -9.891 -0.191872 
0.267356 -0.191872 -9.97083 
-9.84895 -0.120266 -0.0651131 
-0.120266 -9.79836 0.0284081 
-0.0651131 0.0284081 -10.3788 
-9.97743 -0.00424564 -0.0745189 
-0.00424564 -9.97478 -0.162561 
-0.0745189 -0.162561 -9.98759 
-9.97031 0.00675148 -0.0674869 
0.00675148 -9.98756 -0.19119 
-0.0674869 -0.19119 -9.98193 
-9.98112 -0.00827855 -0.0506412 
-0.00827855 -9.98896 -0.174661 
-0.0506412 -0.174661 -9.96973 
-9.99736 -0.00686686 -0.0559605 
-0.00686686 -9.99743 -0.177868 
-0.0559605 -0.177868 -9.94502 
-9.9297 0.0127318 -0.00537678 
0.0127318 -9.96469 -0.0152141 
-0.00537678 -0.0152141 -9.79265 
-9.78631 0.0150847 0.00556212 
0.0150847 -9.86612 0.0176372 
0.00556212 0.0176372 -10.0346 
-9.89109 0.0605925 -0.0853424 
0.0605925 -9.93393 -0.106236 
-0.0853424 -0.106236 -9.86202 
-9.96679 -0.0143052 0.00597193 
-0.0143052 -9.88187 -0.0436509 
0.00597193 -0.0436509 -9.83839 
-9.96041 -0.0182136 0.545187 
-0.0182136 -9.991 0.159941 
0.545187 0.159941 -9.95515 
-9.91725 0.0130088 0.547094 
0.0130088 -9.97333 0.146469 
0.547094 0.146469 -10.016 
-9.98194 -0.0144565 0.536906 
-0.0144565 -9.9578 0.174023 
0.536906 0.174023 -9.96681 
-9.9463 -0.0235211 0.547908 
-0.0235211 -9.9918 0.162058 
0.547908 0.162058 -9.96846 
-9.94091 -0.00401805 -0.0414951 
-0.00401805 -9.94416 0.655215 
-0.0414951 0.655215 -10.034 
-9.99893 0.00969152 -0.0693365 
0.00969152 -9.93619 0.651857 
-0.0693365 0.651857 -9.984 
-9.97354 0.00135835 -0.0843746 
0.00135835 -10.0147 0.666467 
-0.0843746 0.666467 -9.93091 
-9.98936 -0.00481159 -0.0574694 
-0.00481159 -9.99777 0.632321 
-0.0574694 0.632321 -9.93199 
-9.9927 -0.0172822 0.416857 
-0.0172822 -10.0057 0.513095 
0.416857 0.513095 -9.91972 
-9.96153 0.02404 0.435847 
0.02404 -9.93585 0.472626 
0.435847 0.472626 -10.0208 
-9.95102 0.0328856 0.397773 
0.0328856 -9.97514 0.503101 
0.397773 0.503101 -9.992 
-9.99346 0.00678279 0.403784 
0.00678279 -10.0031 0.47956 
0.403784 0.47956 -9.92158 
-9.91969 -0.0169328 -0.00532218 
-0.0169328 -9.89855 0.0316312 
-0.00532218 0.0316312 -9.88212 
-9.95373 0.0277705 7.24075e-05 
0.0277705 -9.82732 -0.00462138 
7.24075e-05 -0.00462138 -9.91932 
-9.87548 -0.0079782 0.000179189 
-0.0079782 -9.92668 0.00512069 
0.000179189 0.00512069 -9.89821 
-9.90208 -0.0163488 -0.00275205 
-0.0163488 -9.89757 0.0172437 
-0.00275205 0.0172437 -9.90072 
-9.99649 0.0021781 0.0706218 
0.0021781 -9.94502 -0.668652 
0.0706218 -0.668652 -9.96593 
-9.93549 -0.00158061 0.0425043 
-0.00158061 -9.93825 -0.672451 
0.0425043 -0.672451 -10.0337 
-9.9894 0.0093164 0.0605646 
0.0093164 -9.97589 -0.660991 
0.0605646 -0.660991 -9.94216 
-9.98547 -0.00847649 0.100253 
-0.00847649 -9.99861 -0.677173 
0.100253 -0.677173 -9.92336 
-9.94426 0.0049447 0.477629 
0.0049447 -9.98657 -0.254247 
0.477629 -0.254247 -9.98021 
-9.93109 -0.00062885 0.478791 
-0.00062885 -9.96295 -0.234438 
0.478791 -0.234438 -10.017 
-9.96356 0.00400452 0.4666 
0.00400452 -9.97974 -0.255077 
0.4666 -0.255077 -9.96773 
-9.9601 -0.000298438 0.465771 
-0.000298438 -9.99123 -0.253164 
0.465771 -0.253164 -9.95971 
-2.48464 -0.360099 0.755493 
-0.360099 -0.846257 0.209787 
0.755493 0.209787 -8.44486 
-8.89364 0.448663 -0.422985 
0.448663 -6.36268 2.31231 
-0.422985 2.31231 3.48056 
-9.17593 2.37839 -1.38348 
2.37839 -7.58543 -1.12277 
-1.38348 -1.12277 4.98561 
-4.13318 -0.961054 -5.53098 
-0.961054 -6.59227 3.1781 
-5.53098 3.1781 -1.05031 
-10.1665 0.0544904 0.0106447 
0.0544904 -10.3065 0.00535781 
0.0106447 0.00535781 -9.21873 
-9.15724 -0.168998 0.0642933 
-0.168998 -9.52651 -0.287061 
0.0642933 -0.287061 -11.0081 
-10.1395 0.150866 -0.0162544 
0.150866 -9.84038 0.144104 
-0.0162544 0.144104 -9.71198 
-9.99556 -0.310632 -0.323364 
-0.310632 -9.93542 0.444061 
-0.323364 0.444061 -9.76084 
-9.47477 -0.0338992 -0.381554 
-0.0338992 -9.6221 0.160436 
-0.381554 0.160436 -9.58385 
-9.45195 -0.0170283 -0.417145 
-0.0170283 -9.60132 0.202478 
-0.417145 0.202478 -9.62745 
-9.56231 0.0538952 -0.389598 
0.0538952 -9.57784 0.188929 
-0.389598 0.188929 -9.54057 
-9.54511 0.00641962 -0.400704 
0.00641962 -9.5646 0.192524 
-0.400704 0.192524 -9.571 
-13.4247 -1.48208 -0.631729 
-1.48208 -7.6395 -2.00273 
-0.631729 -2.00273 -19.636 
-16.39 -1.16555 1.00607 
-1.16555 -12.2246 -2.31776 
1.00607 -2.31776 -12.0856 
-12.5588 -3.003 1.42071 
-3.003 -8.81282 -1.14414 
1.42071 -1.14414 -19.3285 
-13.3286 -0.678018 -0.846731 
-0.678018 -11.2628 1.356 
-0.846731 1.356 -16.1088 
-10.6269 0.364133 0.186976 
0.364133 -10.4958 0.0223794 
0.186976 0.0223794 -10.4928 
-11.0892 -0.642654 -0.080561 
-0.642654 -9.86851 -0.00877015 
-0.080561 -0.00877015 -10.6578 
-10.2332 0.0989539 -0.0950013 
0.0989539 -10.4328 -0.0216335 
-0.0950013 -0.0216335 -10.9495 
-10.5748 0.1347 0.16355 
0.1347 -10.5111 0.0436235 
0.16355 0.0436235 -10.5297 
-9.80412 -0.384695 -0.261614 
-0.384695 -10.1325 -0.203596 
-0.261614 -0.203596 -10.2507 
-10.5011 -0.408732 -0.117176 
-0.408732 -9.72154 -0.056693 
-0.117176 -0.056693 -9.96467 
-9.08892 0.769085 0.234424 
0.769085 -10.4505 0.123281 
0.234424 0.123281 -10.6479 
-8.99933 -1.30715 -0.449018 
-1.30715 -9.98223 0.361297 
-0.449018 0.361297 -11.2058 
-0.974267 0.225241 3.96656 
0.225241 0.876502 -2.54385 
3.96656 -2.54385 -16.248 
-13.9348 0.854339 -2.61293 
0.854339 -6.84427 2.69615 
-2.61293 2.69615 4.43323 
-12.2404 3.99737 -4.71299 
3.99737 -10.8149 -1.82492 
-4.71299 -1.82492 6.7094 
-0.226644 -3.61633 -9.58762 
-3.61633 -7.92944 3.86086 
-9.58762 3.86086 -8.18973 
-11.519 -0.20625 -0.115867 
-0.20625 -12.1632 -0.513677 
-0.115867 -0.513677 -10.6491 
-11.2442 -1.19097 0.130009 
-1.19097 -11.7672 -0.817859 
0.130009 -0.817859 -11.3198 
-9.97123 -0.0642543 0.689688 
-0.0642543 -11.9347 -0.520386 
0.689688 -0.520386 -12.4253 
-11.1026 -0.478592 0.102336 
-0.478592 -11.9454 -0.717621 
0.102336 -0.717621 -11.2833 
-9.97756 0.0017508 0.318803 
0.0017508 -9.98861 0.58147 
0.318803 0.58147 -9.95531 
-9.97627 0.0115849 0.325191 
0.0115849 -9.95004 0.572315 
0.325191 0.572315 -9.99518 
-9.96352 -0.0056327 0.297562 
-0.0056327 -9.9668 0.586571 
0.297562 0.586571 -9.99116 
-9.97831 0.00715276 0.313068 
0.00715276 -9.98343 0.577552 
0.313068 0.577552 -9.95974 
-9.95989 -0.0134945 -0.42308 
-0.0134945 -9.98481 0.356695 
-0.42308 0.356695 -9.9847 
-9.96569 -0.0299616 -0.445315 
-0.0299616 -9.97028 0.33039 
-0.445315 0.33039 -9.99343 
-9.99387 0.014663 -0.445621 
0.014663 -10.0027 0.352964 
-0.445621 0.352964 -9.93286 
-9.98578 -0.00830721 -0.419863 
-0.00830721 -10.0118 0.328696 
-0.419863 0.328696 -9.93184 
-9.96843 -0.000502223 0.425151 
-0.000502223 -9.99184 -0.346151 
0.425151 -0.346151 -9.98679 
-9.96764 -0.0384542 0.448176 
-0.0384542 -9.97295 -0.319973 
0.448176 -0.319973 -10.0065 
-9.99298 0.018838 0.450513 
0.018838 -10.0144 -0.339653 
0.450513 -0.339653 -9.93964 
-9.98376 -0.00236063 0.424288 
-0.00236063 -10.0257 -0.317416 
0.424288 -0.317416 -9.93756 
-9.98393 -0.0175546 -0.296412 
-0.0175546 -10.0181 0.522632 
-0.296412 0.522632 -9.92721 
-9.99027 -0.0293544 -0.320411 
-0.0293544 -9.93004 0.530294 
-0.320411 0.530294 -10.009 
-9.96246 -0.0160803 -0.280934 
-0.0160803 -9.97557 0.550242 
-0.280934 0.550242 -9.99124 
-9.98092 0.00930663 -0.312211 
0.00930663 -10.0207 0.554707 
-0.312211 0.554707 -9.92762 
-9.8168 -0.040651 0.0263475 
-0.040651 -9.84543 0.0305088 
0.0263475 0.0305088 -9.8558 
-9.81458 0.00606229 0.0184784 
0.00606229 -9.89639 0.0325737 
0.0184784 0.0325737 -9.80706 
-9.78078 0.0183645 -0.00747968 
0.0183645 -9.82216 -0.011475 
-0.00747968 -0.011475 -9.91509 
-9.8391 0.0358423 0.0369386 
0.0358423 -9.88582 -0.00108646 
0.0369386 -0.00108646 -9.7931 
-9.9744 -0.00590714 -0.506001 
-0.00590714 -9.98291 0.157324 
-0.506001 0.157324 -9.95611 
-9.96026 -0.00862712 -0.510256 
-0.00862712 -9.97343 0.148071 
-0.510256 0.148071 -9.97973 
-9.9401 -0.00576556 -0.502656 
-0.00576556 -9.97131 0.175263 
-0.502656 0.175263 -10.002 
-9.98566 0.00199619 -0.517127 
0.00199619 -9.97844 0.155126 
-0.517127 0.155126 -9.94932 
-9.99779 -0.0137952 0.280661 
-0.0137952 -10.0373 -0.517872 
0.280661 -0.517872 -9.9483 
-9.99745 -0.0159818 0.307131 
-0.0159818 -9.94973 -0.526575 
0.307131 -0.526575 -10.0362 
-9.99527 0.00542049 0.276697 
0.00542049 -10.0099 -0.540412 
0.276697 -0.540412 -9.97817 
-10.0008 0.010983 0.273404 
0.010983 -10.0239 -0.555672 
0.273404 -0.555672 -9.95863 
-9.97668 0.00408229 0.503869 
0.00408229 -9.98927 -0.0506625 
0.503869 -0.0506625 -9.96586 
-9.96167 0.00629469 0.505918 
0.00629469 -9.95289 -0.0333159 
0.505918 -0.0333159 -10.0172 
-9.96005 0.00395622 0.503521 
0.00395622 -10.0013 -0.0510019 
0.503521 -0.0510019 -9.97046 
-9.98815 -0.00808343 0.506853 
-0.00808343 -9.99302 -0.0733626 
0.506853 -0.0733626 -9.95063 
-10.1183 -0.0269626 0.017933 
-0.0269626 -9.9518 -0.00569271 
0.017933 -0.00569271 -9.99656 
-10.122 -0.0972091 0.0437469 
-0.0972091 -10.05 0.0486708 
0.0437469 0.0486708 -9.89461 
-10.0095 -0.0731965 0.0138708 
-0.0731965 -10.1581 -0.08293 
0.0138708 -0.08293 -9.89907 
-10.0015 0.0323762 0.0726438 
0.0323762 -9.9221 -0.0257663 
0.0726438 -0.0257663 -10.1431 
-9.93113 0.0153915 -0.044506 
0.0153915 -9.92599 -0.0571997 
-0.044506 -0.0571997 -9.81886 
-9.54203 -0.071898 0.0431189 
-0.071898 -9.85721 0.0686148 
0.0431189 0.0686148 -10.2767 
-9.92593 0.162158 -0.264744 
0.162158 -10.0304 -0.133084 
-0.264744 -0.133084 -9.71962 
-10.2971 -0.00742434 0.0890886 
-0.00742434 -9.71228 -0.0433884 
0.0890886 -0.0433884 -9.66657 
-5.35714 1.43292 -1.7895 
1.43292 -7.66682 -2.47733 
-1.7895 -2.47733 -7.24108 
-5.72131 -2.48928 -0.268233 
-2.48928 -9.34372 -0.570494 
-0.268233 -0.570494 -5.20002 
-7.34745 -0.121256 -1.99412 
-0.121256 -5.18947 -2.66871 
-1.99412 -2.66871 -7.72814 
-6.21431 3.05797 -0.386714 
3.05797 -4.87135 0.0633579 
-0.386714 0.0633579 -9.17939 
-10.6363 -0.147897 -0.05257 
-0.147897 -10.0105 -0.140524 
-0.05257 -0.140524 -9.85387 
-10.2475 -0.0317671 0.0721456 
-0.0317671 -10.2685 -0.0951321 
0.0721456 -0.0951321 -9.98468 
-9.53838 0.214492 -0.110857 
0.214492 -9.94212 0.171613 
-0.110857 0.171613 -11.0201 
-10.2334 -0.267446 0.351289 
-0.267446 -10.3973 -0.0813838 
0.351289 -0.0813838 -9.86987 
-9.97378 0.00100977 0.483148 
0.00100977 -9.98923 -0.148854 
0.483148 -0.148854 -9.97006 
-9.96323 -0.00708491 0.482926 
-0.00708491 -9.98057 -0.139718 
0.482926 -0.139718 -9.98927 
-9.96022 -0.00163841 0.476145 
-0.00163841 -9.97728 -0.162415 
0.476145 -0.162415 -9.99558 
-9.98403 0.00190225 0.485527 
0.00190225 -9.98768 -0.147392 
0.485527 -0.147392 -9.96136 
-9.97302 -0.00407684 -0.552263 
-0.00407684 -9.98614 -0.164438 
-0.552263 -0.164438 -9.94883 
-9.94962 0.00909803 -0.548784 
0.00909803 -9.97517 -0.159939 
-0.548784 -0.159939 -9.98321 
-9.94299 0.000399971 -0.539651 
0.000399971 -9.96747 -0.190906 
-0.539651 -0.190906 -9.99755 
-9.96115 0.00089518 -0.553371 
0.00089518 -9.97993 -0.173131 
-0.553371 -0.173131 -9.96692 
-10.0839 0.0638033 0.0532469 
0.0638033 -10.0805 -0.00491539 
0.0532469 -0.00491539 -10.0944 
-10.3303 0.14105 -0.0308517 
0.14105 -10.0049 0.00232659 
-0.0308517 0.00232659 -9.92364 
-10.1205 -0.212214 -0.0256561 
-0.212214 -9.78841 0.168063 
-0.0256561 0.168063 -10.35 
-10.2372 0.0424831 -0.0511054 
0.0424831 -10.033 -0.0187489 
-0.0511054 -0.0187489 -9.9887 
-9.7073 -0.0517943 0.0492346 
-0.0517943 -9.92241 -0.0507506 
0.0492346 -0.0507506 -9.81767 
-9.75837 0.0748329 0.0266777 
0.0748329 -9.85584 -0.0460346 
0.0266777 -0.0460346 -9.83317 
-9.80982 -0.0772663 -0.00673353 
-0.0772663 -9.76986 0.012682 
-0.00673353 0.012682 -9.8677 
-9.80058 -0.0558356 0.0300768 
-0.0558356 -9.8869 0.00558966 
0.0300768 0.00558966 -9.7599 
-10.3836 -0.67651 0.51162 
-0.67651 -11.9295 -0.247398 
0.51162 -0.247398 -15.5426 
-9.9479 -1.05964 1.76117 
-1.05964 -13.0774 -0.385663 
1.76117 -0.385663 -14.8304 
-10.55 -2.00742 1.53111 
-2.00742 -12.5082 -1.0521 
1.53111 -1.0521 -14.7976 
-12.4413 0.420715 -2.26663 
0.420715 -11.0495 1.18655 
-2.26663 1.18655 -14.3649 
-9.97246 0.00427879 -0.0876586 
0.00427879 -10.0036 -0.682436 
-0.0876586 -0.682436 -9.93296 
-9.98808 -0.00874544 -0.0724613 
-0.00874544 -9.93903 -0.669003 
-0.0724613 -0.669003 -9.98189 
-9.93627 0.00535461 -0.0431118 
0.00535461 -9.94219 -0.672556 
-0.0431118 -0.672556 -10.0305 
-9.98053 0.00424706 -0.0605306 
0.00424706 -9.98863 -0.659095 
-0.0605306 -0.659095 -9.93984 
-8.244 -0.157082 0.672735 
-0.157082 -7.57456 1.15846 
0.672735 1.15846 -7.80591 
-6.7582 0.818166 0.254802 
0.818166 -9.79336 -0.21953 
0.254802 -0.21953 -7.0729 
-6.38424 -1.46709 0.58666 
-1.46709 -7.92423 -0.472893 
0.58666 -0.472893 -9.31599 
-7.6464 0.940925 0.0634892 
0.940925 -7.13427 0.148966 
0.0634892 0.148966 -8.84379 
-9.82722 -0.0095143 0.00104383 
-0.0095143 -9.82284 -0.0128443 
0.00104383 -0.0128443 -9.81712 
-9.8332 0.0051366 -7.79215e-05 
0.0051366 -9.80471 -0.000144277 
-7.79215e-05 -0.000144277 -9.82926 
-9.81062 -0.00105906 0.00013459 
-0.00105906 -9.83445 -0.000224175 
0.00013459 -0.000224175 -9.82211 
-9.8262 -0.0168508 -0.000499605 
-0.0168508 -9.82145 -0.00819002 
-0.000499605 -0.00819002 -9.81953 
-10.4921 0.551678 0.55401 
0.551678 -10.3512 0.266217 
0.55401 0.266217 -10.8519 
-10.7291 0.398483 -0.0377919 
0.398483 -10.822 0.0509074 
-0.0377919 0.0509074 -10.1441 
-10.2956 0.473812 -0.156448 
0.473812 -9.66055 0.145249 
-0.156448 0.145249 -11.7391 
-10.0826 0.368285 -0.337236 
0.368285 -9.30296 -0.47696 
-0.337236 -0.47696 -12.3097 
-8.34458 -1.95532 0.0746856 
-1.95532 -7.54786 -0.058763 
0.0746856 -0.058763 -9.99294 
-9.73487 1.03222 0.00546731 
1.03222 -5.19528 0.876826 
0.00546731 0.876826 -10.9552 
-9.47069 -1.4865 1.81389 
-1.4865 -7.34861 -0.409019 
1.81389 -0.409019 -9.06607 
-8.15857 0.270045 -0.322604 
0.270045 -7.50763 0.490764 
-0.322604 0.490764 -10.2192 
-9.97358 -0.00166411 -0.471442 
-0.00166411 -10.0234 -0.378838 
-0.471442 -0.378838 -9.95716 
-9.98347 -0.0120131 -0.468384 
-0.0120131 -9.99334 -0.39433 
-0.468384 -0.39433 -9.97734 
-9.96452 0.0378253 -0.487744 
0.0378253 -9.9678 -0.37391 
-0.487744 -0.37391 -10.0218 
-9.9836 -0.0122917 -0.484355 
-0.0122917 -10.0132 -0.392219 
-0.484355 -0.392219 -9.95737 
-5.60542 0.655485 -0.0792408 
0.655485 -8.10741 0.793995 
-0.0792408 0.793995 -6.62425 
-4.29773 -2.09547 -0.689675 
-2.09547 -9.07143 0.328259 
-0.689675 0.328259 -6.96792 
-8.67453 -0.295555 0.0599405 
-0.295555 -4.48606 -0.0100885 
0.0599405 -0.0100885 -7.17649 
-6.33445 3.58262 0.688441 
3.58262 -5.97481 -0.157348 
0.688441 -0.157348 -8.02783 
-9.93822 0.00651348 0.0438716 
0.00651348 -9.92642 0.679463 
0.0438716 0.679463 -10.0381 
-9.98852 -0.00438067 0.0732924 
-0.00438067 -9.95266 0.675129 
0.0732924 0.675129 -9.96152 
-9.98241 -0.00899225 0.0655627 
-0.00899225 -9.97006 0.675133 
0.0655627 0.675133 -9.95024 
-9.98381 0.00854586 0.0972125 
0.00854586 -9.99102 0.685563 
0.0972125 0.685563 -9.92788 
-11.5278 -0.207021 0.670051 
-0.207021 -8.75586 -0.579458 
0.670051 -0.579458 -10.2628 
-10.4556 0.0973742 0.633011 
0.0973742 -9.66019 -0.22136 
0.633011 -0.22136 -10.4307 
-10.0809 0.124371 -0.0656945 
0.124371 -8.88902 0.00119667 
-0.0656945 0.00119667 -11.5766 
-10.3168 0.32032 0.232429 
0.32032 -10.1166 -0.195954 
0.232429 -0.195954 -10.1131 
-9.82788 -0.0612585 0.00191558 
-0.0612585 -9.85075 -0.0229994 
0.00191558 -0.0229994 -9.85177 
-9.81253 0.0160755 0.00105267 
0.0160755 -9.86991 -0.00541437 
0.00105267 -0.00541437 -9.84796 
-9.84718 -0.0122793 -5.3626e-05 
-0.0122793 -9.83407 0.000502615 
-5.3626e-05 0.000502615 -9.84915 
-9.85056 -0.00240666 0.00150426 
-0.00240666 -9.85894 0.0295842 
0.00150426 0.0295842 -9.8209 
-9.99004 -0.00143557 -0.307806 
-0.00143557 -10.0059 -0.594515 
-0.307806 -0.594515 -9.94899 
-9.98349 0.0188833 -0.333878 
0.0188833 -9.94584 -0.570289 
-0.333878 -0.570289 -10.0156 
-9.98051 0.00433229 -0.302025 
0.00433229 -9.98858 -0.585633 
-0.302025 -0.585633 -9.97586 
-9.97835 0.0200508 -0.315107 
0.0200508 -10.0163 -0.572019 
-0.315107 -0.572019 -9.95034 
-9.94435 -0.0593708 -0.0770935 
-0.0593708 -9.79557 0.0920257 
-0.0770935 0.0920257 -9.75475 
-9.78135 -0.0261135 6.97742e-05 
-0.0261135 -9.87232 -0.00810695 
6.97742e-05 -0.00810695 -9.841 
-9.78525 0.0118587 -0.00613427 
0.0118587 -9.8312 0.0492101 
-0.00613427 0.0492101 -9.87822 
-9.88835 0.115178 0.0181555 
0.115178 -9.88856 -0.00349622 
0.0181555 -0.00349622 -9.71777 
-6.78565 -2.62339 -1.76182 
-2.62339 -9.97585 -0.197652 
-1.76182 -0.197652 -6.17768 
-8.65458 1.78875 0.575282 
1.78875 -3.90326 -0.343616 
0.575282 -0.343616 -10.3813 
-9.50015 0.701139 0.577815 
0.701139 -5.65626 -2.07148 
0.577815 -2.07148 -7.78276 
-6.08688 0.46659 -0.737542 
0.46659 -7.06294 -3.77184 
-0.737542 -3.77184 -9.78936 
-8.85793 -0.513529 -0.00766552 
-0.513529 -9.85916 -0.0263339 
-0.00766552 -0.0263339 -8.14368 
-9.00735 0.814211 -0.162478 
0.814211 -7.85101 0.351016 
-0.162478 0.351016 -10.0024 
-8.50121 0.305054 0.156526 
0.305054 -8.67517 -0.0296354 
0.156526 -0.0296354 -9.68439 
-9.00985 -0.181006 -0.942767 
-0.181006 -8.87157 0.0891902 
-0.942767 0.0891902 -8.97935 
-10.2098 -0.197025 0.104957 
-0.197025 -10.4049 -0.0656063 
0.104957 -0.0656063 -9.90728 
-10.47 -0.119239 -0.0260289 
-0.119239 -10.4122 -0.0134743 
-0.0260289 -0.0134743 -9.63985 
-10.0768 0.0954359 -0.199404 
0.0954359 -9.82074 -0.00824917 
-0.199404 -0.00824917 -10.6244 
-10.0008 0.189168 0.461349 
0.189168 -10.3834 0.154254 
0.461349 0.154254 -10.1377 
-11.1855 -0.682361 0.0920759 
-0.682361 -9.66446 -0.0104524 
0.0920759 -0.0104524 -10.8871 
-10.2525 -0.0526773 0.279715 
-0.0526773 -10.5907 0.0229402 
0.279715 0.0229402 -10.8939 
-10.4595 0.266955 -0.0667399 
0.266955 -10.5217 -0.0814361 
-0.0667399 -0.0814361 -10.7559 
-10.5463 0.0732915 -0.0625064 
0.0732915 -10.5887 0.00229471 
-0.0625064 0.00229471 -10.602 
-10.3149 -0.21949 -0.390413 
-0.21949 -11.1055 0.363714 
-0.390413 0.363714 -10.7687 
-10.4904 0.548732 -0.174194 
0.548732 -11.0301 0.306734 
-0.174194 0.306734 -10.6686 
-9.48422 -0.134166 0.127338 
-0.134166 -10.5586 -0.324331 
0.127338 -0.324331 -12.1463 
-10.751 -0.294513 -0.299198 
-0.294513 -11.0793 0.114883 
-0.299198 0.114883 -10.3588 
-9.48049 -0.131851 0.0829434 
-0.131851 -9.54971 -0.322771 
0.0829434 -0.322771 -9.76165 
-9.56636 -0.110222 0.445198 
-0.110222 -9.74955 -0.646578 
0.445198 -0.646578 -9.47596 
-9.78391 0.197607 0.37377 
0.197607 -9.80927 -0.353658 
0.37377 -0.353658 -9.19868 
-9.58106 -0.0991461 0.209712 
-0.0991461 -9.73854 -0.433343 
0.209712 -0.433343 -9.47226 
-9.50865 -0.0979939 0.0195026 
-0.0979939 -9.29338 -0.321275 
0.0195026 -0.321275 -9.78808 
-9.59842 0.133566 0.294072 
0.133566 -10.0015 -0.29984 
0.294072 -0.29984 -8.99017 
-9.52831 0.0169262 0.522416 
0.0169262 -9.59326 -0.60483 
0.522416 -0.60483 -9.46854 
-9.52191 -0.0118881 0.33305 
-0.0118881 -9.68025 -0.342479 
0.33305 -0.342479 -9.38795 
-9.45542 -0.00563164 0.233525 
-0.00563164 -9.76231 -0.508524 
0.233525 -0.508524 -9.21639 
-9.57259 0.00855667 0.215836 
0.00855667 -9.64756 -0.420095 
0.215836 -0.420095 -9.21397 
-9.56968 -0.0364556 0.211752 
-0.0364556 -9.60907 -0.440395 
0.211752 -0.440395 -9.25537 
-9.4265 -0.0251293 0.249049 
-0.0251293 -9.72248 -0.452652 
0.249049 -0.452652 -9.28514 
-9.76545 -0.00712528 0.342079 
-0.00712528 -9.63744 -0.606486 
0.342079 -0.606486 -9.11109 
-9.58322 0.0666439 0.204258 
0.0666439 -9.6016 -0.411531 
0.204258 -0.411531 -9.32916 
-9.60171 0.0551113 0.273482 
0.0551113 -9.69641 -0.473253 
0.273482 -0.473253 -9.21587 
-9.65248 0.0180104 0.256425 
0.0180104 -9.73291 -0.437245 
0.256425 -0.437245 -9.12859 
-9.46576 -0.110156 -0.59528 
-0.110156 -9.30258 0.352951 
-0.59528 0.352951 -9.94404 
-9.64912 -0.00864038 -0.437247 
-0.00864038 -8.80063 0.132974 
-0.437247 0.132974 -10.2626 
-9.47676 -0.077656 -0.593317 
-0.077656 -9.29451 0.544059 
-0.593317 0.544059 -9.94112 
-9.3231 -0.21344 -0.582489 
-0.21344 -9.62281 0.329741 
-0.582489 0.329741 -9.76647 
-9.74519 -0.0648537 -0.162979 
-0.0648537 -9.27422 -0.00689472 
-0.162979 -0.00689472 -10.3407 
-9.28492 -0.205565 -0.741045 
-0.205565 -9.36617 0.355623 
-0.741045 0.355623 -10.709 
-9.80999 -0.0984063 -0.706985 
-0.0984063 -9.04598 0.483524 
-0.706985 0.483524 -10.5041 
-9.55473 -0.0898468 -0.580799 
-0.0898468 -9.1883 0.329964 
-0.580799 0.329964 -10.6171 
-9.46404 0.637896 -1.26533 
0.637896 -9.26671 0.833135 
-1.26533 0.833135 -9.57573 
-9.33709 -0.494595 -0.70045 
-0.494595 -8.95489 0.429084 
-0.70045 0.429084 -10.0145 
-9.44658 0.149681 -0.595621 
0.149681 -9.25662 0.485089 
-0.595621 0.485089 -9.60328 
-9.59032 -0.0958808 -0.604551 
-0.0958808 -9.20616 0.420474 
-0.604551 0.420474 -9.51 
-9.84102 -0.0354155 -1.68048 
-0.0354155 -9.20221 0.953871 
-1.68048 0.953871 -9.44971 
-9.3464 0.622437 -0.647207 
0.622437 -9.34247 0.235113 
-0.647207 0.235113 -9.80408 
-9.52009 -1.45014 -0.773289 
-1.45014 -8.59663 0.386535 
-0.773289 0.386535 -10.3762 
-8.94211 0.0704947 0.52463 
0.0704947 -8.67121 0.91743 
0.52463 0.91743 -10.8796 
-9.67938 -0.0839515 -0.157714 
-0.0839515 -9.56919 0.546005 
-0.157714 0.546005 -9.41481 
-9.54624 -0.0412336 -0.141072 
-0.0412336 -9.61295 0.525967 
-0.141072 0.525967 -9.50419 
-9.66688 -0.191752 -0.0575727 
-0.191752 -9.64953 0.699919 
-0.0575727 0.699919 -9.34697 
-9.70286 -0.0617449 -0.0326229 
-0.0617449 -9.71194 0.696599 
-0.0326229 0.696599 -9.24858 
-9.81782 -0.090253 -0.132268 
-0.090253 -9.91836 0.671044 
-0.132268 0.671044 -9.09612 
-9.70553 0.0156038 0.0652935 
0.0156038 -9.64589 0.47167 
0.0652935 0.47167 -9.48088 
-9.6162 0.0337215 -0.127208 
0.0337215 -9.6282 0.425533 
-0.127208 0.425533 -9.58789 
-9.40992 -0.0706409 -0.0807598 
-0.0706409 -9.52575 0.705404 
-0.0807598 0.705404 -9.89663 
-9.46285 0.0305473 0.0271737 
0.0305473 -9.48365 -0.754972 
0.0271737 -0.754972 -9.3567 
-9.34648 -0.0163412 0.0127753 
-0.0163412 -9.5522 -0.710379 
0.0127753 -0.710379 -9.40452 
-9.46439 0.000153251 0.0964257 
0.000153251 -9.4294 -0.768141 
0.0964257 -0.768141 -9.4094 
-9.44569 -0.00747361 0.0380274 
-0.00747361 -9.52498 -0.735281 
0.0380274 -0.735281 -9.33252 
-9.62222 0.000497908 0.108678 
0.000497908 -9.71175 -0.629438 
0.108678 -0.629438 -9.42388 
-9.57867 -0.0289477 0.0709564 
-0.0289477 -9.70194 -0.675463 
0.0709564 -0.675463 -9.47723 
-9.58763 -0.00424038 0.0863168 
-0.00424038 -9.66158 -0.627234 
0.0863168 -0.627234 -9.50863 
-9.57727 -0.0218413 -0.00730326 
-0.0218413 -9.60323 -0.634033 
-0.00730326 -0.634033 -9.57735 
-9.92578 -0.0273993 -0.398722 
-0.0273993 -10.0026 -0.139748 
-0.398722 -0.139748 -9.84357 
-9.90402 -0.00065347 -0.435732 
-0.00065347 -9.92543 -0.178353 
-0.435732 -0.178353 -9.94248 
-9.93542 -0.0183771 -0.422557 
-0.0183771 -9.98585 -0.228913 
-0.422557 -0.228913 -9.85067 
-9.88644 0.0322859 -0.434296 
0.0322859 -9.82348 -0.167502 
-0.434296 -0.167502 -10.062 
-9.83334 -0.0480553 -0.414262 
-0.0480553 -9.80534 -0.175827 
-0.414262 -0.175827 -9.80162 
-9.85659 -0.0513662 -0.417515 
-0.0513662 -9.81081 -0.20235 
-0.417515 -0.20235 -9.77291 
-9.73837 0.0511438 -0.384266 
0.0511438 -9.80264 -0.268028 
-0.384266 -0.268028 -9.89929 
-9.83856 0.0748079 -0.358796 
0.0748079 -9.90702 -0.173572 
-0.358796 -0.173572 -9.69473 
-9.34649 0.276906 0.300197 
0.276906 -9.45498 0.225698 
0.300197 0.225698 -9.75956 
-9.55077 0.0713573 0.219187 
0.0713573 -9.39965 -0.0284384 
0.219187 -0.0284384 -9.61062 
-9.60105 0.0665835 0.10461 
0.0665835 -9.14933 -0.0150128 
0.10461 -0.0150128 -9.81065 
-9.35256 -0.102517 0.158868 
-0.102517 -9.57772 -0.254912 
0.158868 -0.254912 -9.63076 
-9.48334 -0.00102482 0.241936 
-0.00102482 -9.40883 -0.00613644 
0.241936 -0.00613644 -10.1749 
-9.51799 0.268566 0.317397 
0.268566 -9.5185 0.00561464 
0.317397 0.00561464 -10.0306 
-9.49877 0.14791 0.180576 
0.14791 -9.53894 0.0974102 
0.180576 0.0974102 -10.0294 
-9.49726 0.219132 0.10694 
0.219132 -9.38816 -0.139998 
0.10694 -0.139998 -10.1817 
-9.27314 -0.0471929 0.229987 
-0.0471929 -9.29252 0.527753 
0.229987 0.527753 -9.11544 
-9.22101 -0.0614997 0.224576 
-0.0614997 -9.29316 0.657774 
0.224576 0.657774 -9.16693 
-9.31029 -0.0668867 0.363672 
-0.0668867 -9.3406 0.727999 
0.363672 0.727999 -9.0302 
-9.33152 0.0628177 0.372344 
0.0628177 -8.89512 0.636647 
0.372344 0.636647 -9.45446 
-9.18716 -0.0659634 0.240059 
-0.0659634 -9.08731 0.779672 
0.240059 0.779672 -9.00876 
-9.28784 -0.036757 0.282584 
-0.036757 -9.04271 0.663704 
0.282584 0.663704 -8.95267 
-9.10744 -0.110931 0.165158 
-0.110931 -9.13802 0.720397 
0.165158 0.720397 -9.03776 
-9.20203 -0.108385 0.202774 
-0.108385 -9.0579 0.789308 
0.202774 0.789308 -9.0233 
-9.16612 0.190035 0.389921 
0.190035 -9.63908 -0.145851 
0.389921 -0.145851 -9.75274 
-8.88411 0.0268562 -0.166668 
0.0268562 -9.89538 -0.144302 
-0.166668 -0.144302 -9.77846 
-8.80685 0.256844 0.0263694 
0.256844 -9.76732 -0.212985 
0.0263694 -0.212985 -9.98378 
-8.87138 -0.0817234 0.0509152 
-0.0817234 -10.0122 -0.265457 
0.0509152 -0.265457 -9.67438 
-8.9045 0.0666705 -0.00694362 
0.0666705 -10.0481 -0.146299 
-0.00694362 -0.146299 -10.0883 
-9.03267 0.0458845 -0.40916 
0.0458845 -10.2942 -0.085441 
-0.40916 -0.085441 -9.71408 
-9.61219 -0.0243979 0.62074 
-0.0243979 -9.40501 -0.43906 
0.62074 -0.43906 -10.0237 
-9.32413 0.39156 -0.261661 
0.39156 -9.59057 0.0492079 
-0.261661 0.0492079 -10.1262 
-9.50349 -0.060776 -0.32015 
-0.060776 -9.34514 -0.180081 
-0.32015 -0.180081 -9.40775 
-9.10173 -0.278044 -0.396989 
-0.278044 -9.408 0.26779 
-0.396989 0.26779 -9.74665 
-9.37365 -0.0499363 -0.349864 
-0.0499363 -9.07847 0.0106846 
-0.349864 0.0106846 -9.80426 
-9.07237 0.122115 -0.139836 
0.122115 -9.61789 -0.199021 
-0.139836 -0.199021 -9.56612 
-9.29536 -0.196188 -0.435916 
-0.196188 -9.4314 -0.147274 
-0.435916 -0.147274 -9.90015 
-9.09291 0.121346 -0.351405 
0.121346 -9.2442 -0.0863763 
-0.351405 -0.0863763 -10.2898 
-9.22084 -0.033886 -0.266698 
-0.033886 -9.43849 0.126539 
-0.266698 0.126539 -9.96759 
-9.26541 -0.0780639 -0.315656 
-0.0780639 -9.33698 -0.0905501 
-0.315656 -0.0905501 -10.0245 
-8.56609 -0.632966 -0.422742 
-0.632966 -9.73137 0.183466 
-0.422742 0.183466 -9.13315 
-8.55635 -0.391699 -0.146476 
-0.391699 -9.55221 0.264175 
-0.146476 0.264175 -9.32205 
-8.11968 -0.284401 -0.0543915 
-0.284401 -9.8068 0.718339 
-0.0543915 0.718339 -9.50413 
-9.26389 -0.00200692 -0.279637 
-0.00200692 -9.15728 1.11159 
-0.279637 1.11159 -9.00943 
-8.72314 -0.359579 0.4061 
-0.359579 -9.77517 0.127624 
0.4061 0.127624 -9.33247 
-8.36643 -0.388294 0.322989 
-0.388294 -9.72244 0.0757561 
0.322989 0.0757561 -9.74192 
-8.35601 -0.130693 0.151263 
-0.130693 -9.7209 0.340222 
0.151263 0.340222 -9.75387 
-8.32487 -0.260019 0.257961 
-0.260019 -9.66732 0.0477741 
0.257961 0.0477741 -9.8386 
-9.49107 -0.521471 0.584917 
-0.521471 -9.31529 -0.401373 
0.584917 -0.401373 -10.0547 
-9.5848 0.244779 0.186848 
0.244779 -9.14818 0.146143 
0.186848 0.146143 -10.1281 
-9.82234 0.262071 0.293878 
0.262071 -9.53179 -0.513364 
0.293878 -0.513364 -9.50696 
-9.71047 -0.172167 0.645497 
-0.172167 -9.08216 0.144342 
0.645497 0.144342 -10.0685 
-9.65084 -0.0699161 0.380032 
-0.0699161 -9.22673 -0.189122 
0.380032 -0.189122 -9.66997 
-9.69655 0.0287574 0.416063 
0.0287574 -9.24247 0.0398889 
0.416063 0.0398889 -9.60852 
-9.659 -0.0279436 0.362664 
-0.0279436 -9.18285 0.0561243 
0.362664 0.0561243 -9.70569 
-9.70476 -0.0731882 0.345022 
-0.0731882 -9.22958 -0.284527 
0.345022 -0.284527 -9.6132 
-9.75294 0.46249 0.482419 
0.46249 -9.05037 0.308905 
0.482419 0.308905 -9.95832 
-9.59663 -0.136929 0.281579 
-0.136929 -9.79264 0.197994 
0.281579 0.197994 -9.37235 
-9.45691 -0.079621 0.268771 
-0.079621 -9.37258 -0.142438 
0.268771 -0.142438 -9.93213 
-9.72148 0.0341793 0.668252 
0.0341793 -9.14595 -0.0790759 
0.668252 -0.0790759 -9.8942 
-9.59806 0.127463 0.337872 
0.127463 -9.13829 0.16721 
0.337872 0.16721 -9.2098 
-9.57806 0.0886024 0.44899 
0.0886024 -9.13708 -0.0870982 
0.44899 -0.0870982 -9.23101 
-9.47703 0.023521 0.45529 
0.023521 -9.36418 0.0139336 
0.45529 0.0139336 -9.10494 
-9.59462 0.0980723 0.364233 
0.0980723 -9.18212 0.10178 
0.364233 0.10178 -9.16941 
-9.4966 0.0802048 -0.421431 
0.0802048 -9.55349 0.0633738 
-0.421431 0.0633738 -9.70166 
-9.67854 -0.00507806 -0.462339 
-0.00507806 -9.53923 0.131618 
-0.462339 0.131618 -9.53399 
-9.72225 -0.048009 -0.347817 
-0.048009 -9.44728 0.189502 
-0.347817 0.189502 -9.58222 
-9.71046 -0.0192904 -0.437546 
-0.0192904 -9.4345 0.165988 
-0.437546 0.165988 -9.60679 
-9.63221 0.0939212 -0.373777 
0.0939212 -9.54718 0.0541792 
-0.373777 0.0541792 -9.75949 
-9.80032 0.0363879 -0.302218 
0.0363879 -9.55075 0.0931445 
-0.302218 0.0931445 -9.5878 
-9.76418 0.00160755 -0.39003 
0.00160755 -9.57985 0.0910336 
-0.39003 0.0910336 -9.59485 
-9.74487 0.0356268 -0.345539 
0.0356268 -9.55727 0.0912884 
-0.345539 0.0912884 -9.63674 
-10.0122 -0.532391 0.772069 
-0.532391 -9.17302 -0.204353 
0.772069 -0.204353 -9.89708 
-9.39879 0.455141 0.149808 
0.455141 -9.55997 -0.147561 
0.149808 -0.147561 -10.1235 
-9.58554 -0.298553 0.130863 
-0.298553 -9.68697 -0.381929 
0.130863 -0.381929 -9.80978 
-9.92174 -0.267256 0.132985 
-0.267256 -8.32641 0.27154 
0.132985 0.27154 -10.8341 
-9.45031 -0.0561508 0.184584 
-0.0561508 -9.2858 0.0500862 
0.184584 0.0500862 -9.8331 
-9.53458 -0.0802094 0.205301 
-0.0802094 -9.07675 0.0377733 
0.205301 0.0377733 -9.9579 
-9.4762 0.0539212 0.130075 
0.0539212 -9.27698 0.0777825 
0.130075 0.0777825 -9.81605 
-9.36498 -0.149272 0.421622 
-0.149272 -9.55133 0.0342778 
0.421622 0.0342778 -9.65291 
-9.66323 -0.261743 0.0777372 
-0.261743 -9.42305 -0.139645 
0.0777372 -0.139645 -9.87315 
-9.55872 -0.234872 0.119971 
-0.234872 -9.27285 -0.0941874 
0.119971 -0.0941874 -10.1279 
-9.69636 0.329692 0.159239 
0.329692 -9.57186 -0.422023 
0.159239 -0.422023 -9.6912 
-9.96514 -0.231103 -0.00768314 
-0.231103 -8.86203 0.0499047 
-0.00768314 0.0499047 -10.1323 
-9.73638 -0.115337 0.0731424 
-0.115337 -9.46138 0.00150961 
0.0731424 0.00150961 -9.54623 
-9.48352 -0.092443 0.0679472 
-0.092443 -9.46098 -0.182034 
0.0679472 -0.182034 -9.79949 
-9.38249 -0.0201684 0.248628 
-0.0201684 -9.40164 -0.0111933 
0.248628 -0.0111933 -9.95986 
-9.65781 -0.0691539 0.10558 
-0.0691539 -9.40065 -0.121089 
0.10558 -0.121089 -9.68554 
-9.9415 0.000302314 0.20639 
0.000302314 -10.0292 -0.349983 
0.20639 -0.349983 -9.84706 
-9.95576 0.00338496 0.186172 
0.00338496 -9.9924 -0.396653 
0.186172 -0.396653 -9.86955 
-9.95729 -0.0209342 0.188364 
-0.0209342 -9.9206 -0.345283 
0.188364 -0.345283 -9.93982 
-9.86298 0.0146717 0.19034 
0.0146717 -9.85098 -0.296225 
0.19034 -0.296225 -10.1037 
-9.85156 0.0400645 0.186115 
0.0400645 -9.90552 -0.358572 
0.186115 -0.358572 -9.79778 
-9.84693 -0.000320432 0.179616 
-0.000320432 -9.89672 -0.405092 
0.179616 -0.405092 -9.81122 
-9.86115 0.00851162 0.131996 
0.00851162 -9.85486 -0.409507 
0.131996 -0.409507 -9.83885 
-9.88811 -0.131007 0.232923 
-0.131007 -9.9769 -0.40351 
0.232923 -0.40351 -9.68985 
-9.41275 0.00110062 -0.053014 
0.00110062 -9.47877 -0.713584 
-0.053014 -0.713584 -9.39251 
-9.40818 -0.0495356 -0.0376833 
-0.0495356 -9.53389 -0.696864 
-0.0376833 -0.696864 -9.34196 
-9.42208 -0.0124424 -0.0405477 
-0.0124424 -9.48979 -0.721572 
-0.0405477 -0.721572 -9.37216 
-9.4748 0.00122025 -0.0270258 
0.00122025 -9.45465 -0.729541 
-0.0270258 -0.729541 -9.35458 
-9.47309 -0.0119742 -0.0718121 
-0.0119742 -9.63646 -0.564056 
-0.0718121 -0.564056 -9.46459 
-9.5808 -0.0479031 -0.12934 
-0.0479031 -9.56055 -0.649269 
-0.12934 -0.649269 -9.43279 
-9.40521 -0.032364 0.150424 
-0.032364 -9.77542 -0.657899 
0.150424 -0.657899 -9.39351 
-9.51136 0.0697321 0.0458357 
0.0697321 -9.57366 -0.614867 
0.0458357 -0.614867 -9.48912 
-9.87392 0.0132261 0.389586 
0.0132261 -9.92683 -0.299257 
0.389586 -0.299257 -9.90456 
-9.88114 -0.00263476 0.450059 
-0.00263476 -9.93882 -0.318864 
0.450059 -0.318864 -9.88535 
-9.86576 0.0219124 0.438607 
0.0219124 -9.94538 -0.254947 
0.438607 -0.254947 -9.89416 
-9.85349 -0.00775411 0.347248 
-0.00775411 -9.89039 -0.287827 
0.347248 -0.287827 -9.96142 
-9.79547 0.00634581 0.43055 
0.00634581 -9.88942 -0.38121 
0.43055 -0.38121 -9.73504 
-9.753 0.0227805 0.378759 
0.0227805 -9.84413 -0.318482 
0.378759 -0.318482 -9.82281 
-9.7962 0.0171434 0.396948 
0.0171434 -9.84793 -0.364786 
0.396948 -0.364786 -9.77581 
-9.7929 -0.0402161 0.441096 
-0.0402161 -9.85469 -0.398389 
0.441096 -0.398389 -9.77236 
-9.2375 -0.0478824 -0.246482 
-0.0478824 -9.46569 0.113394 
-0.246482 0.113394 -9.85937 
-9.29859 -0.0493848 -0.212911 
-0.0493848 -9.47601 0.107238 
-0.212911 0.107238 -9.78796 
-9.3038 -0.0389788 -0.247005 
-0.0389788 -9.58271 0.106533 
-0.247005 0.106533 -9.67605 
-9.32204 -0.0381184 -0.212546 
-0.0381184 -9.4181 0.117187 
-0.212546 0.117187 -9.82242 
-9.22985 -0.113277 -0.298847 
-0.113277 -9.51832 0.111137 
-0.298847 0.111137 -9.83765 
-9.30093 0.160087 -0.427436 
0.160087 -9.49692 0.0863397 
-0.427436 0.0863397 -9.78796 
-9.34038 -0.196697 -0.22186 
-0.196697 -9.38882 0.103195 
-0.22186 0.103195 -9.85662 
-8.98108 -0.221071 -0.321638 
-0.221071 -9.53762 0.299096 
-0.321638 0.299096 -10.0671 
-10.4423 -0.255284 -0.35913 
-0.255284 -9.77635 -3.206 
-0.35913 -3.206 -9.09603 
-8.83928 -2.4717 1.81184 
-2.4717 -10.7284 -1.14049 
1.81184 -1.14049 -9.747 
-12.539 -0.0779132 1.45198 
-0.0779132 -8.07522 -3.3614 
1.45198 -3.3614 -8.70049 
-11.8785 1.28302 2.05509 
1.28302 -5.268 -4.4885 
2.05509 -4.4885 -12.1681 
-11.2912 -0.638871 0.893543 
-0.638871 -7.39131 -4.31782 
0.893543 -4.31782 -9.59861 
-11.824 -0.966874 1.31999 
-0.966874 -8.10873 -1.10208 
1.31999 -1.10208 -8.34832 
-11.0837 -2.68712 0.909449 
-2.68712 -6.11152 -1.93211 
0.909449 -1.93211 -11.0858 
-10.6089 -1.36461 0.47253 
-1.36461 -9.95071 -0.0969622 
0.47253 -0.0969622 -7.72144 
-9.67262 0.0267147 -0.0417706 
0.0267147 -9.65016 0.661266 
-0.0417706 0.661266 -9.4852 
-9.6608 -0.0345108 0.0585667 
-0.0345108 -9.57237 0.707844 
0.0585667 0.707844 -9.57481 
-9.54157 0.0558482 -0.0536113 
0.0558482 -9.74467 0.768801 
-0.0536113 0.768801 -9.52174 
-9.66238 -0.0596355 0.00476808 
-0.0596355 -9.4493 0.705826 
0.00476808 0.705826 -9.6963 
-9.48119 -0.0475901 -0.0880357 
-0.0475901 -9.5785 0.516495 
-0.0880357 0.516495 -9.4198 
-9.59143 0.0401533 -0.0218923 
0.0401533 -9.51135 0.614698 
-0.0218923 0.614698 -9.37671 
-9.60385 0.0273953 -0.0388498 
0.0273953 -9.48619 0.636206 
-0.0388498 0.636206 -9.38945 
-9.60777 0.101809 0.0672743 
0.101809 -9.57993 0.707586 
0.0672743 0.707586 -9.29179 
-9.30697 -0.0518288 -0.453044 
-0.0518288 -9.3878 0.220709 
-0.453044 0.220709 -9.81851 
-9.31783 -0.0172437 -0.462348 
-0.0172437 -9.37245 0.21953 
-0.462348 0.21953 -9.82299 
-9.32813 -0.0218982 -0.469373 
-0.0218982 -9.35694 0.204578 
-0.469373 0.204578 -9.82821 
-9.28538 0.00803568 -0.512706 
0.00803568 -9.40565 0.188143 
-0.512706 0.188143 -9.82224 
-9.27611 -0.0372059 -0.457907 
-0.0372059 -9.3986 0.188813 
-0.457907 0.188813 -9.78929 
-9.27746 -0.0309878 -0.484272 
-0.0309878 -9.41279 0.202628 
-0.484272 0.202628 -9.77375 
-9.29367 -0.0402506 -0.457722 
-0.0402506 -9.43429 0.186577 
-0.457722 0.186577 -9.73604 
-9.35093 -0.0297883 -0.498372 
-0.0297883 -9.39782 0.169107 
-0.498372 0.169107 -9.71525 
-9.49111 0.0198768 -0.526643 
0.0198768 -9.7566 -0.550002 
-0.526643 -0.550002 -9.25401 
-9.37915 -0.00947124 -0.19082 
-0.00947124 -9.28549 -0.452832 
-0.19082 -0.452832 -9.83709 
-9.8935 0.0287143 -0.353734 
0.0287143 -9.79609 -0.325165 
-0.353734 -0.325165 -8.81214 
-9.35311 -0.242373 -0.493892 
-0.242373 -9.78546 -0.768322 
-0.493892 -0.768322 -9.36315 
-9.85315 -0.181627 -0.303366 
-0.181627 -9.74806 -0.479569 
-0.303366 -0.479569 -8.91919 
-9.43591 -0.0259287 -0.315036 
-0.0259287 -9.59988 -0.403749 
-0.315036 -0.403749 -9.48462 
-9.4958 -0.00319685 -0.532651 
-0.00319685 -9.77572 -0.429103 
-0.532651 -0.429103 -9.24889 
-9.51332 0.109275 -0.466835 
0.109275 -9.721 -0.29252 
-0.466835 -0.29252 -9.28609 
-9.90493 -0.00490518 0.330681 
-0.00490518 -9.89557 -0.0574577 
0.330681 -0.0574577 -9.9902 
-9.92849 0.00955764 0.319224 
0.00955764 -9.9031 -0.0814619 
0.319224 -0.0814619 -9.95912 
-9.91342 0.00773181 0.319749 
0.00773181 -9.89937 -0.0591689 
0.319749 -0.0591689 -9.97791 
-9.92449 0.0130963 0.321649 
0.0130963 -9.90969 -0.0771888 
0.321649 -0.0771888 -9.95653 
-9.9415 0.0378636 0.33856 
0.0378636 -9.83339 -0.0368298 
0.33856 -0.0368298 -9.93501 
-9.9231 0.00699297 0.339923 
0.00699297 -9.83473 -0.0320386 
0.339923 -0.0320386 -9.95207 
-9.8449 -0.0306792 0.290924 
-0.0306792 -9.81644 -0.0832183 
0.290924 -0.0832183 -10.0486 
-9.92312 -0.0172431 0.316022 
-0.0172431 -9.89985 -0.00870195 
0.316022 -0.00870195 -9.88693 
-9.78732 -0.0143836 0.388462 
-0.0143836 -9.85138 -0.486119 
0.388462 -0.486119 -9.75071 
-9.74622 0.0956033 0.294005 
0.0956033 -9.77793 -0.316841 
0.294005 -0.316841 -9.86526 
-9.81949 -0.00985005 0.409455 
-0.00985005 -9.91741 -0.450015 
0.409455 -0.450015 -9.65251 
-9.80402 -0.021904 0.388517 
-0.021904 -9.85579 -0.455745 
0.388517 -0.455745 -9.7296 
-9.86696 0.0048106 0.338361 
0.0048106 -9.88126 -0.449214 
0.338361 -0.449214 -9.80797 
-9.84444 0.0172942 0.298956 
0.0172942 -9.82702 -0.379434 
0.298956 -0.379434 -9.88474 
-9.84914 -0.0158768 0.309158 
-0.0158768 -9.88225 -0.407297 
0.309158 -0.407297 -9.82482 
-9.83558 0.0044897 0.335691 
0.0044897 -9.86126 -0.410067 
0.335691 -0.410067 -9.85936 
-9.87555 -0.0296275 0.0617097 
-0.0296275 -9.64714 0.0906619 
0.0617097 0.0906619 -10.0084 
-9.86795 -0.160601 0.0497353 
-0.160601 -9.61535 -0.00613537 
0.0497353 -0.00613537 -10.0478 
-10.1517 -0.0185485 -0.0736382 
-0.0185485 -9.46719 0.235713 
-0.0736382 0.235713 -9.91214 
-9.7332 0.063729 -0.00786379 
0.063729 -10.0175 0.0217031 
-0.00786379 0.0217031 -9.78037 
-9.74895 -0.085363 -0.214139 
-0.085363 -9.29778 0.0138517 
-0.214139 0.0138517 -9.89299 
-9.7451 -0.22191 0.255177 
-0.22191 -9.4726 -0.209006 
0.255177 -0.209006 -9.72202 
-9.5049 -0.0355678 0.12757 
-0.0355678 -9.47908 -0.0344844 
0.12757 -0.0344844 -9.95575 
-9.58958 -0.16132 0.0574687 
-0.16132 -9.37209 0.0242531 
0.0574687 0.0242531 -9.97805 
-9.94406 0.00196772 0.0621724 
0.00196772 -9.97509 0.148185 
0.0621724 0.148185 -10.0971 
-10.1807 -0.0788533 -0.00610268 
-0.0788533 -9.93418 0.0457878 
-0.00610268 0.0457878 -9.9014 
-10.0061 0.128609 -0.0319808 
0.128609 -9.93507 0.13798 
-0.0319808 0.13798 -10.0751 
-10.0887 0.0213029 0.0221424 
0.0213029 -10.011 0.0694071 
0.0221424 0.0694071 -9.9165 
-9.46451 0.267003 0.0357092 
0.267003 -9.5957 -0.321637 
0.0357092 -0.321637 -10.2401 
-10.4038 -0.38855 -0.0502483 
-0.38855 -9.24898 0.0214723 
-0.0502483 0.0214723 -9.64755 
-9.30076 -0.0332272 0.237224 
-0.0332272 -9.79388 0.102696 
0.237224 0.102696 -10.2057 
-9.72232 -0.15813 -0.194422 
-0.15813 -9.28978 0.191453 
-0.194422 0.191453 -10.2883 
-9.85913 -0.0210986 0.389259 
-0.0210986 -9.74036 -0.23744 
0.389259 -0.23744 -9.69773 
-9.77769 -0.0400714 0.361063 
-0.0400714 -9.67678 -0.12936 
0.361063 -0.12936 -9.84275 
-9.83356 0.0274755 0.332761 
0.0274755 -9.68811 -0.00213434 
0.332761 -0.00213434 -9.77555 
-9.76665 -0.0471889 0.338531 
-0.0471889 -9.76341 -0.185847 
0.338531 -0.185847 -9.76716 
-9.90937 -0.0283024 0.39294 
-0.0283024 -9.71741 -0.302349 
0.39294 -0.302349 -9.66706 
-9.73376 -0.0284808 0.279198 
-0.0284808 -9.72755 0.0114752 
0.279198 0.0114752 -9.83253 
-9.83191 -0.00666202 0.331599 
-0.00666202 -9.57655 -0.123762 
0.331599 -0.123762 -9.88538 
-9.8118 0.0391834 0.323932 
0.0391834 -9.61369 -0.13907 
0.323932 -0.13907 -9.86835 
-9.88795 -0.0200385 -0.485723 
-0.0200385 -9.87504 -0.30979 
-0.485723 -0.30979 -9.88581 
-9.86467 -0.0190256 -0.493438 
-0.0190256 -9.88847 -0.314812 
-0.493438 -0.314812 -9.89565 
-9.79953 0.0231544 -0.493769 
0.0231544 -9.91929 -0.327526 
-0.493769 -0.327526 -9.92996 
-9.87133 -0.0314247 -0.530739 
-0.0314247 -9.91256 -0.310484 
-0.530739 -0.310484 -9.8649 
-9.92596 -0.00986491 -0.521162 
-0.00986491 -9.92885 -0.269138 
-0.521162 -0.269138 -10.0184 
-9.95455 -0.0162044 -0.513504 
-0.0162044 -9.97397 -0.300133 
-0.513504 -0.300133 -9.9447 
-9.9656 -0.0268053 -0.521515 
-0.0268053 -9.94106 -0.280627 
-0.521515 -0.280627 -9.96656 
-9.95792 -0.00230454 -0.511739 
-0.00230454 -9.9698 -0.294565 
-0.511739 -0.294565 -9.9455 
-9.81761 -0.0458693 -0.390523 
-0.0458693 -8.96333 0.344168 
-0.390523 0.344168 -9.28062 
-9.53289 -0.0121163 -0.336821 
-0.0121163 -9.34769 0.150008 
-0.336821 0.150008 -9.18098 
-9.51988 -0.0499479 -0.455672 
-0.0499479 -9.21901 -0.180318 
-0.455672 -0.180318 -9.32267 
-9.59919 -0.0674371 -0.0323839 
-0.0674371 -9.27823 0.238382 
-0.0323839 0.238382 -9.18414 
-9.8594 -0.0332012 -0.42265 
-0.0332012 -9.01861 0.367326 
-0.42265 0.367326 -9.46988 
-9.5531 -0.032681 -0.347868 
-0.032681 -9.30088 -0.252246 
-0.347868 -0.252246 -9.4939 
-9.58349 -0.0507592 -0.478182 
-0.0507592 -9.4549 0.147555 
-0.478182 0.147555 -9.30949 
-9.60721 -0.0380687 -0.610044 
-0.0380687 -9.3337 0.168753 
-0.610044 0.168753 -9.40697 
-9.96777 -0.0151754 -0.440691 
-0.0151754 -9.97914 -0.401236 
-0.440691 -0.401236 -9.89764 
-9.96484 -0.00147355 -0.459368 
-0.00147355 -10.0045 -0.429975 
-0.459368 -0.429975 -9.87518 
-9.89259 -0.00829195 -0.396984 
-0.00829195 -9.88387 -0.462458 
-0.396984 -0.462458 -10.0681 
-9.9545 -0.0483451 -0.435964 
-0.0483451 -9.93245 -0.442543 
-0.435964 -0.442543 -9.9576 
-9.91908 0.0869162 -0.429611 
0.0869162 -9.82946 -0.424507 
-0.429611 -0.424507 -9.97079 
-9.88196 -0.0332909 -0.463852 
-0.0332909 -9.94019 -0.434199 
-0.463852 -0.434199 -9.89719 
-9.89926 -0.020322 -0.450847 
-0.020322 -9.92397 -0.40888 
-0.450847 -0.40888 -9.89611 
-9.92633 0.039416 -0.414337 
0.039416 -9.90195 -0.433096 
-0.414337 -0.433096 -9.89106 
-9.95047 -0.0220317 0.24158 
-0.0220317 -9.9895 -0.560056 
0.24158 -0.560056 -9.89556 
-9.94325 -0.000222588 0.246259 
-0.000222588 -9.98285 -0.529161 
0.246259 -0.529161 -9.90942 
-9.89691 0.00607997 0.207903 
0.00607997 -9.90032 -0.564114 
0.207903 -0.564114 -10.0383 
-9.9022 0.0286154 0.240329 
0.0286154 -9.94653 -0.577745 
0.240329 -0.577745 -9.9868 
-9.86277 0.0114993 0.255371 
0.0114993 -9.97475 -0.567059 
0.255371 -0.567059 -9.90679 
-9.97938 -0.0278013 0.223472 
-0.0278013 -9.77038 -0.542296 
0.223472 -0.542296 -9.99454 
-9.88099 0.0103653 0.251083 
0.0103653 -9.96359 -0.52502 
0.251083 -0.52502 -9.89973 
-9.9485 0.00257689 0.209775 
0.00257689 -9.90779 -0.563805 
0.209775 -0.563805 -9.88802 
-12.6298 -2.02325 -0.874933 
-2.02325 -11.5132 0.1092 
-0.874933 0.1092 -13.1443 
-14.585 -0.801054 0.216268 
-0.801054 -10.434 0.631491 
0.216268 0.631491 -12.2683 
-9.69211 1.42759 -1.22782 
1.42759 -11.4461 -0.660379 
-1.22782 -0.660379 -16.1491 
-10.5073 -2.61348 -0.697937 
-2.61348 -10.5894 -0.0658364 
-0.697937 -0.0658364 -16.1906 
-10.2704 -0.350612 0.111734 
-0.350612 -10.1793 -0.496688 
0.111734 -0.496688 -12.4477 
-11.0077 -0.480896 -0.0589217 
-0.480896 -9.64899 -0.806284 
-0.0589217 -0.806284 -12.2408 
-9.66545 -0.388842 -0.17706 
-0.388842 -10.1975 -0.675242 
-0.17706 -0.675242 -13.0345 
-10.1212 -0.361254 0.482162 
-0.361254 -10.6578 -0.621402 
0.482162 -0.621402 -12.1185 
-9.12854 -0.339587 0.177976 
-0.339587 -9.87345 0.27301 
0.177976 0.27301 -10.2438 
-8.61328 -0.563909 -0.732753 
-0.563909 -10.2415 -0.131338 
-0.732753 -0.131338 -10.391 
-10.6934 -0.410291 -0.194665 
-0.410291 -9.20971 -0.582258 
-0.194665 -0.582258 -9.34268 
-8.96518 0.0647591 0.284421 
0.0647591 -10.0927 0.429912 
0.284421 0.429912 -10.188 
-11.3725 -0.327219 -1.12746 
-0.327219 -10.9584 -1.07836 
-1.12746 -1.07836 -9.96774 
-9.07109 -0.451927 -0.588941 
-0.451927 -9.38032 1.04667 
-0.588941 1.04667 -13.8473 
-10.9952 -0.372986 -0.0753024 
-0.372986 -10.8425 0.0176719 
-0.0753024 0.0176719 -10.4609 
-11.6798 -0.146307 0.529188 
-0.146307 -11.8069 0.274512 
0.529188 0.274512 -8.81201 
-11.7029 -0.371914 0.0890446 
-0.371914 -11.8753 1.42841 
0.0890446 1.42841 -17.3219 
-13.5658 -0.290487 0.0926178 
-0.290487 -11.1009 -1.35503 
0.0926178 -1.35503 -16.2336 
-14.0602 0.0480276 0.315716 
0.0480276 -12.9455 -1.01083 
0.315716 -1.01083 -13.8945 
-13.5379 0.237197 0.638938 
0.237197 -14.1843 -1.30148 
0.638938 -1.30148 -13.178 
-10.7781 2.32138 -1.15098 
2.32138 -6.53964 -2.37682 
-1.15098 -2.37682 -13.5212 
-11.1553 1.73884 -0.0592855 
1.73884 -6.58974 -0.850811 
-0.0592855 -0.850811 -13.0938 
-10.9721 1.40769 -1.07782 
1.40769 -6.513 -1.96129 
-1.07782 -1.96129 -13.3538 
-10.0652 -1.62119 -1.69021 
-1.62119 -10.3785 -2.67144 
-1.69021 -2.67144 -10.3952 
-9.87093 -0.0197926 -0.388726 
-0.0197926 -9.84377 -0.0700222 
-0.388726 -0.0700222 -9.85908 
-9.87191 -0.0130716 -0.398465 
-0.0130716 -9.81719 -0.0716568 
-0.398465 -0.0716568 -9.88468 
-9.90126 0.0116789 -0.38311 
0.0116789 -9.85291 -0.0548898 
-0.38311 -0.0548898 -9.81961 
-9.85774 0.0370716 -0.323184 
0.0370716 -9.79582 -0.106672 
-0.323184 -0.106672 -9.92022 
-9.7691 -0.00573332 -0.402783 
-0.00573332 -9.77085 -0.0588598 
-0.402783 -0.0588598 -9.76317 
-9.81189 0.0180742 -0.401023 
0.0180742 -9.7723 -0.122254 
-0.401023 -0.122254 -9.71892 
-9.7359 -0.00931611 -0.410564 
-0.00931611 -9.80221 -0.0368173 
-0.410564 -0.0368173 -9.76501 
-9.8157 -0.00461296 -0.38399 
-0.00461296 -9.78122 -0.0745202 
-0.38399 -0.0745202 -9.7062 
-9.74932 -0.0148839 -0.257766 
-0.0148839 -9.82131 0.492545 
-0.257766 0.492545 -9.79373 
-9.79177 -0.00202598 -0.241897 
-0.00202598 -9.83266 0.54687 
-0.241897 0.54687 -9.73993 
-9.81606 -0.0159929 -0.259748 
-0.0159929 -9.85595 0.577476 
-0.259748 0.577476 -9.69234 
-9.82121 -0.0277611 -0.274294 
-0.0277611 -9.79615 0.594411 
-0.274294 0.594411 -9.747 
-9.87613 -0.0249285 -0.287213 
-0.0249285 -9.90676 0.508897 
-0.287213 0.508897 -9.86844 
-9.87959 0.0166418 -0.322272 
0.0166418 -9.94399 0.460905 
-0.322272 0.460905 -9.82775 
-9.87655 -0.0176565 -0.284524 
-0.0176565 -9.90691 0.507493 
-0.284524 0.507493 -9.86786 
-9.84964 -0.00116267 -0.224669 
-0.00116267 -9.85484 0.450021 
-0.224669 0.450021 -9.94685 
-9.7303 -0.0272507 -0.485845 
-0.0272507 -9.78479 -0.170622 
-0.485845 -0.170622 -9.73838 
-9.7141 0.00505877 -0.510515 
0.00505877 -9.76385 -0.183929 
-0.510515 -0.183929 -9.77551 
-9.73727 -0.0476596 -0.522525 
-0.0476596 -9.77375 -0.19087 
-0.522525 -0.19087 -9.74244 
-9.67929 -0.0219568 -0.514629 
-0.0219568 -9.74481 -0.197317 
-0.514629 -0.197317 -9.82936 
-9.69129 0.00486205 -0.452986 
0.00486205 -9.78176 -0.18555 
-0.452986 -0.18555 -9.74489 
-9.68121 -0.0524549 -0.505692 
-0.0524549 -9.79178 -0.168976 
-0.505692 -0.168976 -9.74494 
-9.63985 -0.0247507 -0.551426 
-0.0247507 -9.79034 -0.106271 
-0.551426 -0.106271 -9.78775 
-9.6979 -0.0881012 -0.530367 
-0.0881012 -9.77054 -0.0781058 
-0.530367 -0.0781058 -9.74949 
-9.8391 0.010794 -0.0133111 
0.010794 -9.8316 0.0229553 
-0.0133111 0.0229553 -9.85081 
-9.83339 0.00418948 -0.000700124 
0.00418948 -9.84295 0.00690371 
-0.000700124 0.00690371 -9.84517 
-9.86884 0.009011 -0.0103985 
0.009011 -9.85001 -0.00299741 
-0.0103985 -0.00299741 -9.80266 
-9.82677 0.0160996 0.0114546 
0.0160996 -9.81531 0.00249236 
0.0114546 0.00249236 -9.87943 
-9.83772 0.00956311 0.00237806 
0.00956311 -9.83434 0.00540771 
0.00237806 0.00540771 -9.84203 
-9.82621 0.00377958 0.0049837 
0.00377958 -9.84393 0.00932406 
0.0049837 0.00932406 -9.84395 
-9.85007 0.00632546 -0.00298819 
0.00632546 -9.83248 0.00640357 
-0.00298819 0.00640357 -9.83155 
-9.83482 0.00735643 0.0137732 
0.00735643 -9.85355 0.0127052 
0.0137732 0.0127052 -9.82573 
-9.93231 -0.000760808 -0.450271 
-0.000760808 -9.93124 0.092281 
-0.450271 0.092281 -9.95268 
-9.9077 -0.0163314 -0.451901 
-0.0163314 -9.93418 0.0760867 
-0.451901 0.0760867 -9.97435 
-9.92866 -0.0234645 -0.46198 
-0.0234645 -9.90357 0.078517 
-0.46198 0.078517 -9.984 
-9.91449 -0.00105841 -0.450963 
-0.00105841 -9.92708 0.0857388 
-0.450963 0.0857388 -9.97467 
-9.8309 -0.0186182 -0.435066 
-0.0186182 -9.855 0.108736 
-0.435066 0.108736 -9.89551 
-9.82383 -0.0307239 -0.470663 
-0.0307239 -9.83442 0.0874214 
-0.470663 0.0874214 -9.92316 
-9.83304 -0.00269102 -0.452473 
-0.00269102 -9.83754 0.0793971 
-0.452473 0.0793971 -9.91084 
-9.84142 0.00269676 -0.453148 
0.00269676 -9.83988 0.0807056 
-0.453148 0.0807056 -9.90011 
-9.95565 0.022174 0.353168 
0.022174 -9.87832 -0.122139 
0.353168 -0.122139 -9.97149 
-9.93966 -0.00846689 0.361715 
-0.00846689 -9.91466 -0.097387 
0.361715 -0.097387 -9.95115 
-9.85854 0.0332536 0.362298 
0.0332536 -9.91359 -0.0606637 
0.362298 -0.0606637 -10.0333 
-9.9463 0.0065008 0.371454 
0.0065008 -9.92862 -0.105719 
0.371454 -0.105719 -9.93055 
-9.88166 0.0152696 0.347652 
0.0152696 -9.81547 -0.0893052 
0.347652 -0.0893052 -9.91609 
-9.86607 0.0191894 0.37053 
0.0191894 -9.83168 -0.0793849 
0.37053 -0.0793849 -9.91548 
-9.8404 0.0240946 0.386428 
0.0240946 -9.81049 -0.11833 
0.386428 -0.11833 -9.96233 
-9.88163 0.048522 0.370238 
0.048522 -9.86088 -0.07323 
0.370238 -0.07323 -9.87071 
-9.98041 0.0148343 -0.336696 
0.0148343 -9.92926 0.0362349 
-0.336696 0.0362349 -9.92752 
-9.96534 -0.0226672 -0.326589 
-0.0226672 -9.89845 0.00545687 
-0.326589 0.00545687 -9.9734 
-9.98384 0.00841362 -0.300729 
0.00841362 -9.93904 0.0261791 
-0.300729 0.0261791 -9.91431 
-9.90492 -0.00549956 -0.317303 
-0.00549956 -9.88846 0.000433485 
-0.317303 0.000433485 -10.0438 
-9.8655 0.0329432 -0.360676 
0.0329432 -9.84757 0.0235833 
-0.360676 0.0235833 -9.8541 
-9.86665 0.00683269 -0.297288 
0.00683269 -9.83115 0.0445346 
-0.297288 0.0445346 -9.86937 
-9.88262 -0.00384022 -0.285373 
-0.00384022 -9.78633 0.0231647 
-0.285373 0.0231647 -9.89822 
-9.97419 -0.0509362 -0.289455 
-0.0509362 -9.79547 0.0610139 
-0.289455 0.0610139 -9.7975 
-9.28739 0.203267 -0.393359 
0.203267 -8.48241 -0.297254 
-0.393359 -0.297254 -9.42233 
-9.15105 -0.251367 0.0824525 
-0.251367 -8.15215 0.703914 
0.0824525 0.703914 -9.88892 
-9.09122 -0.0407575 0.0190162 
-0.0407575 -8.21473 0.630347 
0.0190162 0.630347 -9.88617 
-9.62689 0.0258238 0.700869 
0.0258238 -9.22065 1.01035 
0.700869 1.01035 -8.34458 
-11.0254 0.841426 -1.01595 
0.841426 -10.3513 -0.537116 
-1.01595 -0.537116 -10.5341 
-10.1647 -0.0546946 -0.150988 
-0.0546946 -9.37805 1.13473 
-0.150988 1.13473 -12.3681 
-11.2361 -0.255177 0.487403 
-0.255177 -8.8497 0.966109 
0.487403 0.966109 -11.825 
-10.9154 -1.86304 0.0387583 
-1.86304 -8.29963 -0.516292 
0.0387583 -0.516292 -12.6957 
-9.99158 -0.00346546 0.0306753 
-0.00346546 -9.98681 0.40051 
0.0306753 0.40051 -9.86197 
-9.95613 0.00669911 0.0376752 
0.00669911 -9.97792 0.365139 
0.0376752 0.365139 -9.90632 
-9.96007 -0.0250302 0.0104223 
-0.0250302 -9.9724 0.367484 
0.0104223 0.367484 -9.90788 
-9.85338 0.0135894 0.0516196 
0.0135894 -9.83915 0.446478 
0.0516196 0.446478 -10.1478 
-9.86244 -0.0132568 0.0288871 
-0.0132568 -9.81618 0.372018 
0.0288871 0.372018 -9.78529 
-9.87374 0.0031404 0.0249508 
0.0031404 -9.81815 0.315324 
0.0249508 0.315324 -9.77202 
-9.6532 0.00515312 0.0549417 
0.00515312 -9.85684 0.232977 
0.0549417 0.232977 -9.95386 
-9.78618 0.000414353 0.0754957 
0.000414353 -10.0453 0.332639 
0.0754957 0.332639 -9.63239 
-8.19289 -0.0950804 1.57851 
-0.0950804 -10.8365 -0.252534 
1.57851 -0.252534 -11.2531 
-7.27508 1.79084 1.8763 
1.79084 -12.1747 1.5313 
1.8763 1.5313 -10.8327 
-8.08186 0.15566 1.53416 
0.15566 -11.0335 0.37844 
1.53416 0.37844 -11.1671 
-10.2766 -0.326397 -0.0348286 
-0.326397 -10.6392 0.374999 
-0.0348286 0.374999 -9.36663 
-9.95183 -1.83306 2.80858 
-1.83306 -9.71313 0.869999 
2.80858 0.869999 -12.2267 
-9.99467 -0.234692 -0.143067 
-0.234692 -9.70971 -0.687694 
-0.143067 -0.687694 -12.1873 
-8.82338 0.290818 2.35783 
0.290818 -11.8683 1.26781 
2.35783 1.26781 -11.2 
2.72036 3.53191 4.78764 
3.53191 -15.8726 -2.07935 
4.78764 -2.07935 -18.7394 
-8.80893 0.715494 0.458302 
0.715494 -10.7468 0.499901 
0.458302 0.499901 -11.8958 
-9.25869 0.360017 0.737836 
0.360017 -10.3586 0.313462 
0.737836 0.313462 -11.8343 
-8.74632 0.335641 0.866042 
0.335641 -10.6463 0.90058 
0.866042 0.90058 -12.0589 
-10.591 -0.721716 0.330985 
-0.721716 -10.1064 0.423767 
0.330985 0.423767 -10.7541 
-10.7656 3.17531 -3.70706 
3.17531 -15.9502 0.819187 
-3.70706 0.819187 -9.70851 
-6.97308 -2.82955 1.18063 
-2.82955 -12.5509 2.85871 
1.18063 2.85871 -16.9003 
-12.3714 -1.04953 1.12854 
-1.04953 -5.08667 -2.17319 
1.12854 -2.17319 -18.9662 
-4.75045 -0.441696 3.22739 
-0.441696 -9.89566 -1.76693 
3.22739 -1.76693 -21.7781 
-9.12199 -0.166434 -0.0247342 
-0.166434 -9.21978 -0.864169 
-0.0247342 -0.864169 -9.1113 
-9.07411 -0.0472039 -0.0705845 
-0.0472039 -9.34859 -0.766404 
-0.0705845 -0.766404 -9.03037 
-9.10483 -0.0855484 -0.0566046 
-0.0855484 -9.24056 -0.856223 
-0.0566046 -0.856223 -9.10768 
-9.2764 -0.0759791 -0.014214 
-0.0759791 -8.89265 -0.881208 
-0.014214 -0.881208 -9.28402 
-9.11171 -0.0649549 -0.0275309 
-0.0649549 -9.34221 -0.683556 
-0.0275309 -0.683556 -9.107 
-9.19605 0.0216803 -0.0228156 
0.0216803 -9.42657 -0.775738 
-0.0228156 -0.775738 -8.93831 
-8.96527 -0.0140197 0.0656384 
-0.0140197 -9.22351 -0.785279 
0.0656384 -0.785279 -9.37214 
-9.04511 -0.0518816 0.021505 
-0.0518816 -9.38545 -0.682591 
0.021505 -0.682591 -9.13036 
-9.22979 -0.619137 -0.289563 
-0.619137 -8.25361 0.798628 
-0.289563 0.798628 -8.4201 
-8.96646 -0.398854 -1.19389 
-0.398854 -8.85384 0.518558 
-1.19389 0.518558 -8.08321 
-8.74153 -0.150724 -1.16349 
-0.150724 -8.66244 0.4382 
-1.16349 0.4382 -8.49954 
-8.80656 -0.393919 -1.13596 
-0.393919 -8.88742 0.572812 
-1.13596 0.572812 -8.20953 
-9.13328 -0.158726 -0.856496 
-0.158726 -8.87408 0.522973 
-0.856496 0.522973 -9.23885 
-8.97053 -0.229825 -0.82953 
-0.229825 -8.90477 0.23738 
-0.82953 0.23738 -9.37092 
-9.16022 -0.307734 -0.889918 
-0.307734 -8.8642 0.448484 
-0.889918 0.448484 -9.22179 
-9.01434 -0.316052 -0.697883 
-0.316052 -8.79913 0.677592 
-0.697883 0.677592 -9.43275 
-9.90576 -0.0125236 -0.503473 
-0.0125236 -9.90499 0.0650039 
-0.503473 0.0650039 -9.89928 
-9.87713 -0.0155156 -0.516104 
-0.0155156 -9.90614 0.0597317 
-0.516104 0.0597317 -9.92677 
-9.89684 0.00308902 -0.50949 
0.00308902 -9.88504 0.0156771 
-0.50949 0.0156771 -9.92815 
-9.85666 0.00778022 -0.510108 
0.00778022 -9.88392 0.0115448 
-0.510108 0.0115448 -9.96946 
-9.81374 -0.00641791 -0.504595 
-0.00641791 -9.83289 0.039369 
-0.504595 0.039369 -9.86081 
-9.85631 -0.00206063 -0.506237 
-0.00206063 -9.8267 0.00814115 
-0.506237 0.00814115 -9.82443 
-9.7891 -0.00938224 -0.533843 
-0.00938224 -9.85579 0.0463389 
-0.533843 0.0463389 -9.86255 
-9.89047 -0.00912998 -0.506101 
-0.00912998 -9.83027 0.0229539 
-0.506101 0.0229539 -9.7867 
-11.6699 1.23715 -0.730701 
1.23715 -6.60254 0.484087 
-0.730701 0.484087 -9.86479 
-10.3405 -0.341922 0.0621406 
-0.341922 -6.43522 -0.40404 
0.0621406 -0.40404 -11.3616 
-9.62384 -0.0738132 -0.0765772 
-0.0738132 -7.28844 0.46568 
-0.0765772 0.46568 -11.225 
-11.7935 0.274881 -1.21798 
0.274881 -8.62522 -0.167855 
-1.21798 -0.167855 -7.71849 
-13.1955 0.557184 -0.389309 
0.557184 -8.81008 2.92365 
-0.389309 2.92365 -12.6392 
-11.3315 0.658367 1.10445 
0.658367 -11.0938 3.30667 
1.10445 3.30667 -12.2195 
-11.0052 -0.996395 0.25971 
-0.996395 -10.8613 -0.159601 
0.25971 -0.159601 -12.7783 
-14.2757 4.17475 0.190528 
4.17475 -2.46182 3.19705 
0.190528 3.19705 -17.9073 
-9.60736 -0.0290817 0.26841 
-0.0290817 -9.69172 -0.0904369 
0.26841 -0.0904369 -9.5178 
-9.64585 0.00277114 0.272405 
0.00277114 -9.69455 -0.0849438 
0.272405 -0.0849438 -9.47649 
-9.58089 -0.0337649 0.267112 
-0.0337649 -9.72981 -0.0760994 
0.267112 -0.0760994 -9.50619 
-9.58339 -0.0128359 0.209187 
-0.0128359 -9.64664 -0.109637 
0.209187 -0.109637 -9.58685 
-9.67367 -0.035488 0.257393 
-0.035488 -9.62791 -0.0375297 
0.257393 -0.0375297 -9.53668 
-9.65609 0.0409431 0.299463 
0.0409431 -9.71312 -0.116378 
0.299463 -0.116378 -9.46905 
-9.62977 0.0225393 0.192563 
0.0225393 -9.84758 -0.179352 
0.192563 -0.179352 -9.36091 
-9.83363 -0.120708 0.415676 
-0.120708 -9.67877 -0.064121 
0.415676 -0.064121 -9.32587 
-9.66428 -0.0210683 0.235356 
-0.0210683 -9.57441 -0.187993 
0.235356 -0.187993 -10.0938 
-9.66068 -0.361628 0.0560141 
-0.361628 -9.56814 0.0891351 
0.0560141 0.0891351 -10.1037 
-9.58658 -0.091845 -0.0526248 
-0.091845 -9.70212 -0.0284212 
-0.0526248 -0.0284212 -10.0438 
-9.4594 0.181328 -0.306694 
0.181328 -10.0776 0.248925 
-0.306694 0.248925 -9.79545 
-10.1079 -0.56496 0.14474 
-0.56496 -10.2662 -0.375656 
0.14474 -0.375656 -9.45988 
-10.1696 -0.224022 -0.0234029 
-0.224022 -9.41993 -0.321146 
-0.0234029 -0.321146 -10.2444 
-9.44345 0.0751243 0.276749 
0.0751243 -9.56531 0.37526 
0.276749 0.37526 -10.8252 
-10.0804 -0.311544 0.125189 
-0.311544 -9.40497 -0.113584 
0.125189 -0.113584 -10.3486 
9.69664 -0.0486863 0.102761 
-0.0486863 9.64701 -0.241211 
0.102761 -0.241211 9.64688 
9.69167 -0.0390809 0.0923838 
-0.0390809 9.71207 -0.252804 
0.0923838 -0.252804 9.58678 
9.68098 0.0190701 0.117043 
0.0190701 9.68547 -0.325423 
0.117043 -0.325423 9.62408 
9.73755 -0.0301322 0.112794 
-0.0301322 9.75361 -0.174646 
0.112794 -0.174646 9.49936 
9.80586 0.0606375 0.155111 
0.0606375 9.83189 -0.232953 
0.155111 -0.232953 9.72116 
9.79629 -0.00315231 0.206371 
-0.00315231 9.85276 -0.195917 
0.206371 -0.195917 9.70986 
9.73662 -0.143586 0.136195 
-0.143586 9.75835 -0.170127 
0.136195 -0.170127 9.86395 
9.80353 -0.0298506 0.154307 
-0.0298506 9.83178 -0.18273 
0.154307 -0.18273 9.72361 
8.67488 -0.075377 0.783946 
-0.075377 8.38078 -1.34478 
0.783946 -1.34478 7.55285 
8.30926 0.385712 0.158786 
0.385712 8.3868 -1.1217 
0.158786 -1.1217 7.91246 
8.5083 -0.243493 0.541035 
-0.243493 8.87956 -1.11758 
0.541035 -1.11758 7.22065 
9.15937 0.233539 0.317534 
0.233539 9.18154 -1.08377 
0.317534 -1.08377 6.26761 
9.69528 0.0146412 -0.110235 
0.0146412 9.63937 -0.103602 
-0.110235 -0.103602 9.6473 
9.74233 0.0333517 -0.0965888 
0.0333517 9.65451 -0.0707357 
-0.0965888 -0.0707357 9.58511 
9.75594 0.00712898 -0.101479 
0.00712898 9.62151 -0.0334266 
-0.101479 -0.0334266 9.6045 
9.79965 0.0437282 -0.10514 
0.0437282 9.76002 -0.112759 
-0.10514 -0.112759 9.42228 
7.22954 0.113515 1.20186 
0.113515 8.70965 -0.22467 
1.20186 -0.22467 9.65137 
7.86951 0.845135 0.656815 
0.845135 8.67794 -1.43914 
0.656815 -1.43914 9.04312 
8.81182 0.173882 2.16687 
0.173882 7.22234 -2.5785 
2.16687 -2.5785 9.5564 
8.37 0.794642 0.115845 
0.794642 9.07914 -1.47674 
0.115845 -1.47674 8.14143 
9.02168 0.36387 0.667028 
0.36387 9.26356 -0.987347 
0.667028 -0.987347 8.41473 
8.27214 -0.0861707 0.25255 
-0.0861707 9.05309 -0.137377 
0.25255 -0.137377 9.37474 
9.09986 0.0542878 0.949667 
0.0542878 9.83309 -0.565699 
0.949667 -0.565699 7.76701 
9.24121 0.234744 0.589686 
0.234744 9.30009 -0.770422 
0.589686 -0.770422 8.15867 
9.61628 -0.0209697 0.124425 
-0.0209697 9.76297 -0.400177 
0.124425 -0.400177 9.75822 
9.7292 0.00708991 0.100601 
0.00708991 9.74004 -0.246597 
0.100601 -0.246597 9.66823 
9.6786 -0.0177046 0.0797678 
-0.0177046 9.70405 -0.21402 
0.0797678 -0.21402 9.75482 
9.82689 0.0361902 0.117039 
0.0361902 9.84608 -0.0863474 
0.117039 -0.0863474 9.46449 
8.21124 -0.0697628 0.861355 
-0.0697628 9.56212 0.489892 
0.861355 0.489892 8.26915 
9.52057 -0.195659 0.600106 
-0.195659 8.67335 0.284406 
0.600106 0.284406 7.8486 
9.79914 0.0921266 -0.138952 
0.0921266 8.52142 0.3943 
-0.138952 0.3943 7.72195 
8.95521 -0.0753424 0.639042 
-0.0753424 9.59537 0.626566 
0.639042 0.626566 7.49193 
9.83234 -0.0555924 0.289114 
-0.0555924 9.81554 -0.111119 
0.289114 -0.111119 9.81043 
9.68004 -0.0863004 0.255115 
-0.0863004 9.89485 -0.0380914 
0.255115 -0.0380914 9.88341 
9.79375 -0.0559253 0.269436 
-0.0559253 9.87265 -0.0497633 
0.269436 -0.0497633 9.7919 
9.83809 -0.0459464 0.327336 
-0.0459464 9.88821 -0.139553 
0.327336 -0.139553 9.73201 
9.32387 -0.0121546 0.103536 
-0.0121546 9.64793 0.0354593 
0.103536 0.0354593 9.59059 
9.48906 0.12612 0.185946 
0.12612 9.5577 0.031599 
0.185946 0.031599 9.51563 
9.4495 0.057298 0.0687387 
0.057298 9.54125 0.0477764 
0.0687387 0.0477764 9.57164 
9.3884 0.0117314 0.0730859 
0.0117314 9.65434 0.00778304 
0.0730859 0.00778304 9.51965 
9.65344 -0.0654112 0.154643 
-0.0654112 9.80117 -0.0849611 
0.154643 -0.0849611 9.47306 
9.66936 0.0366646 0.143926 
0.0366646 9.77862 -0.212468 
0.143926 -0.212468 9.47968 
9.67934 0.117516 0.161416 
0.117516 9.86301 -0.241114 
0.161416 -0.241114 9.38531 
9.66352 -0.0981466 0.0454742 
-0.0981466 9.70725 -0.189387 
0.0454742 -0.189387 9.55689 
9.8899 -0.0214708 0.062268 
-0.0214708 9.59055 0.0689458 
0.062268 0.0689458 9.95406 
9.81704 0.00630186 0.0311835 
0.00630186 9.7261 -0.104995 
0.0311835 -0.104995 9.89137 
9.75302 -0.0284178 0.0243168 
-0.0284178 9.76493 0.0466866 
0.0243168 0.0466866 9.91655 
9.8109 -0.0218123 0.0996851 
-0.0218123 9.68677 0.0366487 
0.0996851 0.0366487 9.93685 
9.7014 -0.0681319 0.248835 
-0.0681319 9.73588 -0.134052 
0.248835 -0.134052 9.73003 
9.76553 0.029814 0.194091 
0.029814 9.81959 -0.0399248 
0.194091 -0.0399248 9.58219 
9.74936 -0.0114055 0.247712 
-0.0114055 9.77002 -0.0733143 
0.247712 -0.0733143 9.64793 
9.75109 0.0157714 0.242818 
0.0157714 9.71606 -0.0387116 
0.242818 -0.0387116 9.70016 
8.9387 0.0537922 -0.0216604 
0.0537922 9.69823 -0.160384 
-0.0216604 -0.160384 9.58644 
9.30056 0.15196 0.177085 
0.15196 9.43024 -0.10143 
0.177085 -0.10143 9.49257 
9.11069 -0.0108351 -0.0474021 
-0.0108351 9.24719 -0.225279 
-0.0474021 -0.225279 9.86549 
9.28553 -0.00112707 0.0169036 
-0.00112707 9.41149 -0.0104782 
0.0169036 -0.0104782 9.52635 
9.48723 -0.106645 -0.457446 
-0.106645 9.23287 0.291614 
-0.457446 0.291614 9.57723 
9.44048 -0.0110481 -0.596704 
-0.0110481 9.20209 0.23656 
-0.596704 0.23656 9.65477 
9.36333 -0.00565733 -0.252709 
-0.00565733 9.2816 0.0875475 
-0.252709 0.0875475 9.65241 
9.62153 -0.139516 -0.469854 
-0.139516 9.23422 0.410173 
-0.469854 0.410173 9.44158 
9.72588 0.0375753 -0.191383 
0.0375753 9.6121 -0.134941 
-0.191383 -0.134941 9.53671 
9.77071 0.0289023 -0.118731 
0.0289023 9.70176 -0.116784 
-0.118731 -0.116784 9.40223 
9.69306 0.0139216 -0.180098 
0.0139216 9.66839 -0.0836308 
-0.180098 -0.0836308 9.51324 
9.7116 -0.00357976 -0.178335 
-0.00357976 9.69938 -0.10473 
-0.178335 -0.10473 9.46372 
9.59532 -0.0302369 0.0958354 
-0.0302369 9.57112 0.108266 
0.0958354 0.108266 9.74853 
9.55269 0.0213447 0.0473381 
0.0213447 9.70287 0.00481073 
0.0473381 0.00481073 9.65941 
9.58534 0.0346813 0.0323529 
0.0346813 9.6846 -0.0352172 
0.0323529 -0.0352172 9.64502 
9.6074 0.0938287 0.0563037 
0.0938287 9.70195 0.015079 
0.0563037 0.015079 9.60562 
9.41 -0.247836 -0.507999 
-0.247836 9.42923 0.0348229 
-0.507999 0.0348229 9.58816 
9.58496 -0.117469 -0.47286 
-0.117469 9.17886 0.148524 
-0.47286 0.148524 9.66357 
9.45321 -0.249517 -0.608194 
-0.249517 9.32805 0.112112 
-0.608194 0.112112 9.64614 
9.66526 -0.28304 -0.466229 
-0.28304 9.17959 0.360637 
-0.466229 0.360637 9.58255 
9.90829 -0.0144627 0.254962 
-0.0144627 9.90055 -0.247171 
0.254962 -0.247171 10.0488 
9.99355 -0.0268795 0.209381 
-0.0268795 9.97598 -0.259853 
0.209381 -0.259853 9.88811 
9.96568 -0.0176703 0.230629 
-0.0176703 9.97532 -0.259283 
0.230629 -0.259283 9.91664 
10.0117 -0.015632 0.261978 
-0.015632 9.97893 -0.281391 
0.261978 -0.281391 9.86704 
9.51771 0.109132 0.261565 
0.109132 9.32553 0.100465 
0.261565 0.100465 9.72966 
9.43285 0.00462668 0.0120836 
0.00462668 9.36546 0.0594415 
0.0120836 0.0594415 9.77458 
9.60661 0.033347 0.209693 
0.033347 9.29995 0.0228519 
0.209693 0.0228519 9.66633 
9.77798 0.0635784 0.212771 
0.0635784 9.26538 -0.0627756 
0.212771 -0.0627756 9.52953 
9.28654 -0.424852 -0.112627 
-0.424852 8.76833 -0.67947 
-0.112627 -0.67947 9.35679 
9.28321 -0.216797 0.501336 
-0.216797 9.03728 -0.543607 
0.501336 -0.543607 9.09117 
10.0768 -0.0749147 0.224995 
-0.0749147 8.48993 -0.523897 
0.224995 -0.523897 8.84491 
9.35755 -0.156235 -0.020634 
-0.156235 8.5708 -0.712093 
-0.020634 -0.712093 9.4833 
7.36903 -0.424118 1.13624 
-0.424118 8.33161 -0.229351 
1.13624 -0.229351 9.45423 
7.40392 0.406673 -1.22777 
0.406673 10.5927 0.774019 
-1.22777 0.774019 7.15824 
9.92045 1.68042 0.266102 
1.68042 8.96783 -2.29361 
0.266102 -2.29361 6.26657 
10.6471 -0.716915 1.70231 
-0.716915 6.32638 -0.650956 
1.70231 -0.650956 8.18141 
9.45317 0.0786191 -0.00223399 
0.0786191 9.45277 -0.137667 
-0.00223399 -0.137667 9.59983 
9.37375 -0.057567 0.0441179 
-0.057567 9.62222 -0.184252 
0.0441179 -0.184252 9.50982 
9.34892 -0.00712683 0.0617854 
-0.00712683 9.54671 -0.0982105 
0.0617854 -0.0982105 9.61015 
9.41939 0.0198173 0.0236356 
0.0198173 9.50702 -0.0611506 
0.0236356 -0.0611506 9.57937 
9.02339 0.255817 0.0718279 
0.255817 8.98464 0.789344 
0.0718279 0.789344 8.86575 
8.88632 0.325057 -0.285604 
0.325057 9.17041 0.928965 
-0.285604 0.928965 8.81706 
9.03591 0.253976 0.181225 
0.253976 9.17712 0.781634 
0.181225 0.781634 8.66075 
8.77685 0.163561 0.0844375 
0.163561 8.93235 0.689705 
0.0844375 0.689705 9.16458 
8.84739 -0.41595 0.859043 
-0.41595 9.10131 0.590539 
0.859043 0.590539 8.51627 
8.91414 -0.359963 1.98338 
-0.359963 8.3665 0.60071 
1.98338 0.60071 9.18432 
9.27124 -0.0751925 1.215 
-0.0751925 8.98193 0.694409 
1.215 0.694409 8.2118 
9.24417 -0.388594 1.12468 
-0.388594 9.34118 0.70664 
1.12468 0.70664 7.87962 
9.73159 -0.02621 0.229309 
-0.02621 9.72138 -0.0806329 
0.229309 -0.0806329 9.84584 
9.78594 -0.0985575 0.088421 
-0.0985575 9.62266 -0.0879078 
0.088421 -0.0879078 9.89021 
9.71057 -0.0975319 0.150365 
-0.0975319 9.6656 -0.0982977 
0.150365 -0.0982977 9.92263 
9.73364 -0.110361 0.0137082 
-0.110361 9.78055 -0.174764 
0.0137082 -0.174764 9.78461 
9.68387 0.32519 0.150364 
0.32519 8.46319 -0.283155 
0.150364 -0.283155 8.97423 
9.53872 -0.676729 0.0876545 
-0.676729 9.09108 -0.920917 
0.0876545 -0.920917 8.49149 
9.50044 0.369982 0.508459 
0.369982 8.69285 -0.98974 
0.508459 -0.98974 8.928 
8.86154 -0.449455 0.0815028 
-0.449455 8.42136 0.273488 
0.0815028 0.273488 9.83838 
9.61933 -0.0712761 0.0610532 
-0.0712761 9.19323 -0.178975 
0.0610532 -0.178975 10.0424 
9.58386 -0.0749504 0.195391 
-0.0749504 9.30562 -0.0512956 
0.195391 -0.0512956 9.96547 
9.51288 -0.127166 0.0855833 
-0.127166 9.23111 -0.0912143 
0.0855833 -0.0912143 10.111 
9.37457 -0.318715 -0.0089745 
-0.318715 9.15426 0.0744496 
-0.0089745 0.0744496 10.3261 
9.69418 -0.108506 0.174484 
-0.108506 9.14043 -0.0844374 
0.174484 -0.0844374 9.74718 
9.57211 0.110965 0.24546 
0.110965 9.24627 -0.374636 
0.24546 -0.374636 9.76342 
9.44733 0.0810931 0.427002 
0.0810931 9.47951 -0.259799 
0.427002 -0.259799 9.65495 
9.61528 -0.0234075 0.229901 
-0.0234075 9.26104 -0.350676 
0.229901 -0.350676 9.70547 
10.7219 -0.994398 0.73445 
-0.994398 10.2073 0.971971 
0.73445 0.971971 9.72024 
8.89346 1.15995 -1.144 
1.15995 9.77004 -0.649322 
-1.144 -0.649322 11.9859 
9.41143 0.836047 -0.386753 
0.836047 10.0687 -0.810599 
-0.386753 -0.810599 11.1693 
8.09784 -0.341111 1.43031 
-0.341111 9.97737 -1.17939 
1.43031 -1.17939 12.5742 
9.46261 -0.379188 -0.31532 
-0.379188 9.03549 -0.452573 
-0.31532 -0.452573 9.78754 
9.63133 -0.0444365 0.576473 
-0.0444365 8.31921 -0.477383 
0.576473 -0.477383 10.3351 
9.78765 -0.306728 0.390662 
-0.306728 8.88984 -0.403412 
0.390662 -0.403412 9.60814 
10.1454 -0.365015 0.414779 
-0.365015 8.3492 -0.490967 
0.414779 -0.490967 9.79108 
9.54929 -0.127038 -0.109479 
-0.127038 9.37364 0.163155 
-0.109479 0.163155 9.6961 
9.80964 -0.157035 -0.127513 
-0.157035 9.53205 -0.16167 
-0.127513 -0.16167 9.27733 
9.79557 0.00917681 -0.0217556 
0.00917681 9.34935 0.00753188 
-0.0217556 0.00753188 9.47411 
9.77796 0.0472079 -0.0406266 
0.0472079 9.30298 -0.0537708 
-0.0406266 -0.0537708 9.5381 
9.70546 -0.0701279 -0.114992 
-0.0701279 9.38844 0.0135925 
-0.114992 0.0135925 9.62886 
9.7099 0.0130332 -0.0781105 
0.0130332 9.50659 0.0388722 
-0.0781105 0.0388722 9.50627 
9.62844 -0.0251343 -0.176974 
-0.0251343 9.40672 0.0615735 
-0.176974 0.0615735 9.6876 
9.72923 -0.00598076 -0.119577 
-0.00598076 9.45136 0.0449989 
-0.119577 0.0449989 9.54217 
9.56717 -0.0200569 0.154833 
-0.0200569 9.31228 0.000776359 
0.154833 0.000776359 9.84392 
9.54197 0.0172952 0.0553572 
0.0172952 9.43593 0.0558065 
0.0553572 0.0558065 9.74546 
9.57735 0.112371 0.107064 
0.112371 9.34587 0.100518 
0.107064 0.100518 9.80014 
9.55074 -0.0149662 0.0879627 
-0.0149662 9.38281 0.0733045 
0.0879627 0.0733045 9.78981 
9.85798 -0.0543252 0.169163 
-0.0543252 9.81055 -0.31118 
0.169163 -0.31118 9.73882 
9.80844 0.0189336 0.217696 
0.0189336 9.9233 -0.353785 
0.217696 -0.353785 9.6756 
9.67658 0.0649114 0.212998 
0.0649114 9.88126 -0.267417 
0.212998 -0.267417 9.84949 
9.8101 -0.053714 0.197702 
-0.053714 9.85378 -0.359354 
0.197702 -0.359354 9.74346 
9.47572 -0.189911 -0.273358 
-0.189911 8.75702 -0.545766 
-0.273358 -0.545766 8.31867 
9.53055 -0.11057 -0.330276 
-0.11057 8.79973 -0.529336 
-0.330276 -0.529336 8.22113 
9.78844 -0.0148762 -0.0566028 
-0.0148762 8.6581 -0.43471 
-0.0566028 -0.43471 8.10486 
8.68267 -0.0202321 -0.132376 
-0.0202321 9.10601 -0.580782 
-0.132376 -0.580782 8.76272 
9.79342 -0.0358062 0.142726 
-0.0358062 9.64882 -0.117862 
0.142726 -0.117862 9.96295 
9.76338 -0.0209449 0.146364 
-0.0209449 9.70465 -0.0579839 
0.146364 -0.0579839 9.93716 
9.73797 0.0014576 0.149445 
0.0014576 9.77937 -0.0992404 
0.149445 -0.0992404 9.88784 
9.81979 -0.0590282 0.164978 
-0.0590282 9.6749 0.0951709 
0.164978 0.0951709 9.9105 
9.56854 -0.016903 0.146922 
-0.016903 9.48701 -0.225825 
0.146922 -0.225825 9.16975 
9.37344 0.135598 0.477191 
0.135598 9.12244 -0.0963776 
0.477191 -0.0963776 9.72942 
9.54086 -0.0683686 0.0572961 
-0.0683686 9.3963 -0.293625 
0.0572961 -0.293625 9.28813 
9.89879 0.142824 0.332038 
0.142824 9.54702 -0.483475 
0.332038 -0.483475 8.77949 
9.40171 -0.106737 -0.018593 
-0.106737 9.42456 -0.0713496 
-0.018593 -0.0713496 9.43926 
9.82254 -0.254755 -0.0841611 
-0.254755 9.21698 -0.0184422 
-0.0841611 -0.0184422 9.22601 
9.59342 -0.232932 -0.114455 
-0.232932 9.20041 0.188412 
-0.114455 0.188412 9.47169 
9.50924 -0.101479 -0.17842 
-0.101479 9.3619 0.0822522 
-0.17842 0.0822522 9.39438 
7.43147 -0.727808 4.65084 
-0.727808 7.30129 -2.78519 
4.65084 -2.78519 7.62515 
4.60495 1.30801 1.98821 
1.30801 9.42439 -1.14407 
1.98821 -1.14407 8.32857 
6.55555 1.85321 4.41201 
1.85321 10.2757 -3.03126 
4.41201 -3.03126 5.5267 
10.2471 -0.655542 -0.0475362 
-0.655542 6.59096 -0.525711 
-0.0475362 -0.525711 5.51989 
9.72069 -0.0248824 -0.214154 
-0.0248824 9.18624 0.0717245 
-0.214154 0.0717245 9.31259 
9.53105 -0.0109963 -0.225821 
-0.0109963 9.29585 0.0292529 
-0.225821 0.0292529 9.39262 
9.64884 -0.00199904 -0.246317 
-0.00199904 9.1465 -0.0761781 
-0.246317 -0.0761781 9.42418 
9.56828 -0.010695 -0.231931 
-0.010695 9.29547 0.0175783 
-0.231931 0.0175783 9.35577 
7.70482 -0.421323 2.15147 
-0.421323 8.80688 -0.408615 
2.15147 -0.408615 8.60128 
7.5105 -1.15687 0.546019 
-1.15687 9.70397 -0.439035 
0.546019 -0.439035 7.8985 
6.11956 -0.455771 0.98923 
-0.455771 9.88231 -0.481954 
0.98923 -0.481954 9.1111 
7.80761 -0.133584 1.29724 
-0.133584 8.62445 -0.594526 
1.29724 -0.594526 8.68091 
9.81508 0.0138117 -0.058439 
0.0138117 9.66564 0.0682878 
-0.058439 0.0682878 9.74438 
9.81487 -0.0363016 -0.0352286 
-0.0363016 9.62374 0.0536085 
-0.0352286 0.0536085 9.7865 
9.86144 0.00429414 -0.0484147 
0.00429414 9.64745 -0.026947 
-0.0484147 -0.026947 9.71621 
9.77805 -0.0184964 -0.0733792 
-0.0184964 9.69747 -0.0584891 
-0.0733792 -0.0584891 9.74958 
9.81653 -0.0783739 -0.123426 
-0.0783739 9.60128 0.036897 
-0.123426 0.036897 9.72239 
9.75984 0.0287006 -0.105992 
0.0287006 9.63249 -0.0130273 
-0.105992 -0.0130273 9.74788 
9.82338 -0.0327172 -0.10167 
-0.0327172 9.58587 0.0293659 
-0.10167 0.0293659 9.73096 
9.8836 -0.006012 -0.0288482 
-0.006012 9.63205 0.139383 
-0.0288482 0.139383 9.62456 
9.5651 0.26871 -0.236184 
0.26871 9.86035 -0.0147492 
-0.236184 -0.0147492 9.80294 
9.75469 0.35913 0.554419 
0.35913 9.69174 -0.478107 
0.554419 -0.478107 9.78195 
9.34731 -0.0195526 -0.0479608 
-0.0195526 9.77667 -0.036525 
-0.0479608 -0.036525 10.1044 
9.34683 0.201894 -0.0477301 
0.201894 9.51429 -0.0780533 
-0.0477301 -0.0780533 10.3673 
9.64846 -0.0871384 0.105505 
-0.0871384 9.52254 -0.122863 
0.105505 -0.122863 9.95186 
9.65257 -0.0397631 0.169601 
-0.0397631 9.39892 -0.0317299 
0.169601 -0.0317299 10.0714 
9.70102 -0.119425 0.105666 
-0.119425 9.32627 -0.143915 
0.105666 -0.143915 10.0956 
9.71573 0.00936741 0.099896 
0.00936741 9.59436 -0.188842 
0.099896 -0.188842 9.81277 
9.74227 0.00137937 -0.0164124 
0.00137937 9.71441 -0.023423 
-0.0164124 -0.023423 9.69243 
9.6944 0.0136804 -0.137059 
0.0136804 9.79191 -0.0932258 
-0.137059 -0.0932258 9.66279 
9.74583 0.00208372 -0.0338984 
0.00208372 9.71777 -0.103784 
-0.0338984 -0.103784 9.6855 
9.68749 0.00293456 -0.0905979 
0.00293456 9.89657 -0.0883248 
-0.0905979 -0.0883248 9.56505 
8.88717 -0.0393433 0.208052 
-0.0393433 9.01363 0.886476 
0.208052 0.886476 9.07295 
8.60661 0.174961 0.227719 
0.174961 9.09149 0.533758 
0.227719 0.533758 9.27565 
8.89114 0.217179 -0.015271 
0.217179 8.85989 0.643464 
-0.015271 0.643464 9.22271 
8.75778 0.10862 0.172372 
0.10862 9.03102 0.739424 
0.172372 0.739424 9.18495 
8.63759 -1.0796 0.264131 
-1.0796 9.40951 -0.695812 
0.264131 -0.695812 8.33229 
8.997 0.521839 0.632769 
0.521839 8.88216 -0.645934 
0.632769 -0.645934 8.50024 
8.33968 0.914669 0.585664 
0.914669 8.75297 -0.920344 
0.585664 -0.920344 9.28676 
8.74984 0.591909 1.08778 
0.591909 8.60995 -2.04206 
1.08778 -2.04206 9.01961 
9.34708 -0.0112819 -0.559041 
-0.0112819 9.0571 0.584647 
-0.559041 0.584647 9.50158 
9.0599 0.0404254 -0.771339 
0.0404254 9.03151 -0.354098 
-0.771339 -0.354098 9.81434 
9.60981 -0.131017 -0.386501 
-0.131017 8.84288 0.553823 
-0.386501 0.553823 9.45306 
9.77647 -0.0738324 -0.47793 
-0.0738324 8.34703 0.73004 
-0.47793 0.73004 9.78226 
9.58867 0.45893 -0.0518979 
0.45893 9.26333 -0.134996 
-0.0518979 -0.134996 10.2397 
9.94935 0.260752 -0.107433 
0.260752 9.18297 -0.0183126 
-0.107433 -0.0183126 9.95933 
9.59546 0.134069 -0.00747441 
0.134069 9.1668 -0.425516 
-0.00747441 -0.425516 10.3294 
9.5559 0.179112 -0.145574 
0.179112 9.06735 -0.29395 
-0.145574 -0.29395 10.4684 
8.58563 0.145854 -0.390498 
0.145854 9.04192 -0.290613 
-0.390498 -0.290613 9.17763 
8.44396 -0.0811922 -0.034191 
-0.0811922 9.46798 -0.102606 
-0.034191 -0.102606 8.89324 
8.2259 -0.100799 0.0420042 
-0.100799 9.5023 -0.0992585 
0.0420042 -0.0992585 9.07699 
8.65915 0.081148 -0.152746 
0.081148 8.93635 -0.210346 
-0.152746 -0.210346 9.20968 
9.71668 0.183321 -0.939308 
0.183321 9.5102 0.896849 
-0.939308 0.896849 9.93029 
9.66935 0.347905 -0.411092 
0.347905 9.25555 0.323091 
-0.411092 0.323091 10.2323 
9.65408 0.0988336 -0.378449 
0.0988336 9.2281 -0.378337 
-0.378449 -0.378337 10.275 
9.89894 0.0041559 -0.54488 
0.0041559 8.47218 1.24304 
-0.54488 1.24304 10.7861 
9.59036 -0.00938188 0.0676169 
-0.00938188 9.29089 0.299326 
0.0676169 0.299326 9.78453 
9.9114 -0.0348093 0.0387651 
-0.0348093 9.24846 -0.0318726 
0.0387651 -0.0318726 9.50592 
9.69315 0.0207965 -0.181562 
0.0207965 9.49688 -0.0093453 
-0.181562 -0.0093453 9.47574 
9.31986 0.050531 -0.0110681 
0.050531 9.67153 0.034887 
-0.0110681 0.034887 9.67438 
8.94212 -0.32819 -0.594301 
-0.32819 9.23923 0.272809 
-0.594301 0.272809 9.21682 
9.8755 0.157274 -0.129728 
0.157274 8.7063 0.58758 
-0.129728 0.58758 8.81637 
9.03164 -0.265936 -1.30224 
-0.265936 9.82229 1.36738 
-1.30224 1.36738 8.54424 
9.77016 0.196336 -0.674266 
0.196336 8.19205 0.550725 
-0.674266 0.550725 9.43597 
9.63598 0.0279604 0.190444 
0.0279604 9.8979 -0.320466 
0.190444 -0.320466 9.27929 
9.56632 0.0107587 0.145943 
0.0107587 9.84536 -0.215292 
0.145943 -0.215292 9.40149 
9.57603 0.00721142 0.175564 
0.00721142 9.82613 -0.119678 
0.175564 -0.119678 9.41102 
9.56442 0.0385633 0.0492182 
0.0385633 9.66304 -0.0957849 
0.0492182 -0.0957849 9.58571 
9.69159 -0.103215 0.160377 
-0.103215 9.13792 -0.165349 
0.160377 -0.165349 10.0378 
9.66111 -0.10989 0.195949 
-0.10989 9.14235 -0.153199 
0.195949 -0.153199 10.0639 
9.656 -0.169449 0.193101 
-0.169449 9.12723 -0.17509 
0.193101 -0.17509 10.0841 
9.67371 -0.106986 0.257265 
-0.106986 9.11231 -0.122917 
0.257265 -0.122917 10.0813 
9.85259 0.0411031 0.093918 
0.0411031 9.81337 -0.0391649 
0.093918 -0.0391649 9.93643 
9.81833 -0.0446584 0.025678 
-0.0446584 9.819 0.051699 
0.025678 0.051699 9.96506 
9.87899 -0.0116992 0.00643831 
-0.0116992 9.72596 -0.0392389 
0.00643831 -0.0392389 9.99744 
9.85671 -0.0216929 0.0449194 
-0.0216929 9.80042 0.00120564 
0.0449194 0.00120564 9.94526 
9.76517 -0.0552942 0.16592 
-0.0552942 9.68514 -0.000782143 
0.16592 -0.000782143 9.80015 
9.73512 -0.0326047 0.1238 
-0.0326047 9.64589 -0.0850566 
0.1238 -0.0850566 9.86946 
9.7323 0.000673722 0.0707506 
0.000673722 9.76133 -0.198146 
0.0707506 -0.198146 9.75684 
9.72695 -0.0277556 0.0844568 
-0.0277556 9.68868 -0.106729 
0.0844568 -0.106729 9.83484 
9.20145 0.0579773 -0.0353058 
0.0579773 9.60195 -0.159242 
-0.0353058 -0.159242 9.18775 
9.24466 0.146505 -0.0729328 
0.146505 9.46212 -0.256084 
-0.0729328 -0.256084 9.28437 
9.18941 -0.0372578 0.010316 
-0.0372578 9.57259 -0.129994 
0.010316 -0.129994 9.22916 
9.11582 0.000962793 0.00080939 
0.000962793 9.71304 -0.170879 
0.00080939 -0.170879 9.1623 
9.43471 0.0363256 0.044258 
0.0363256 9.39998 -0.289804 
0.044258 -0.289804 9.2431 
9.36811 0.256827 0.254596 
0.256827 9.57263 -0.399625 
0.254596 -0.399625 9.13705 
9.4742 0.171024 0.127719 
0.171024 9.51874 -0.459294 
0.127719 -0.459294 9.08485 
9.70562 0.0551751 0.378881 
0.0551751 9.73741 -0.291422 
0.378881 -0.291422 8.63477 
8.96771 1.04245 -0.371511 
1.04245 8.87199 0.437717 
-0.371511 0.437717 10.2417 
9.43334 -0.0763055 -0.195749 
-0.0763055 9.98832 1.4163 
-0.195749 1.4163 8.65978 
8.82662 1.03101 -0.814429 
1.03101 8.77653 0.721595 
-0.814429 0.721595 10.4783 
9.07903 0.810932 -0.233525 
0.810932 8.84745 0.713777 
-0.233525 0.713777 10.155 
9.5368 -0.156378 0.230615 
-0.156378 9.13466 -0.299819 
0.230615 -0.299819 9.76716 
9.54247 0.0183138 0.24152 
0.0183138 9.1151 -0.280954 
0.24152 -0.280954 9.78105 
9.60424 0.0187846 0.25028 
0.0187846 9.07573 -0.307511 
0.25028 -0.307511 9.75865 
9.52998 0.0461887 0.290618 
0.0461887 9.15294 -0.236046 
0.290618 -0.236046 9.7557 
9.4576 0.0666178 0.201767 
0.0666178 9.25152 0.166307 
0.201767 0.166307 10.2822 
9.40316 0.289109 -0.116148 
0.289109 9.44599 0.375591 
-0.116148 0.375591 10.1422 
9.11403 0.472509 -0.252352 
0.472509 9.49947 0.395519 
-0.252352 0.395519 10.3778 
9.66884 0.255841 -0.108337 
0.255841 9.24412 0.557183 
-0.108337 0.557183 10.0784 
9.80511 -0.0130972 -0.126896 
-0.0130972 9.71655 0.0693566 
-0.126896 0.0693566 9.74662 
9.82482 -0.0271494 -0.136732 
-0.0271494 9.69706 0.0352836 
-0.136732 0.0352836 9.7464 
9.80308 -0.033427 -0.14388 
-0.033427 9.68096 0.058119 
-0.14388 0.058119 9.78424 
9.85552 -0.0367141 -0.156254 
-0.0367141 9.67851 0.0698 
-0.156254 0.0698 9.73426 
9.15842 -0.111858 0.621284 
-0.111858 9.38476 0.0422353 
0.621284 0.0422353 8.84426 
9.66721 -0.235462 0.640706 
-0.235462 9.22074 0.0748318 
0.640706 0.0748318 8.4995 
9.18543 -0.0349838 0.634582 
-0.0349838 9.22635 0.219 
0.634582 0.219 8.97566 
9.36898 -0.0211985 0.241391 
-0.0211985 9.60242 0.13577 
0.241391 0.13577 8.41604 
9.57884 -0.0571976 0.204972 
-0.0571976 9.29694 -0.471887 
0.204972 -0.471887 9.63108 
10.0646 0.349799 0.356515 
0.349799 9.17838 -0.37789 
0.356515 -0.37789 9.26386 
9.44257 -0.0162995 0.43676 
-0.0162995 9.38008 -0.331687 
0.43676 -0.331687 9.68422 
9.51828 0.0565842 0.31486 
0.0565842 9.40439 -0.342349 
0.31486 -0.342349 9.58419 
8.16103 0.26086 -0.959936 
0.26086 9.77436 0.0712239 
-0.959936 0.0712239 8.25945 
8.09931 -0.0281729 -0.298516 
-0.0281729 9.33972 -0.396088 
-0.298516 -0.396088 8.75581 
8.54452 -0.119912 -0.151558 
-0.119912 8.96636 -0.0379006 
-0.151558 -0.0379006 8.68395 
8.00769 0.210676 -0.449475 
0.210676 10.1127 0.0445888 
-0.449475 0.0445888 8.07446 
10.3336 -0.830813 -0.0380666 
-0.830813 9.81955 0.242565 
-0.0380666 0.242565 11.222 
10.2049 -0.328585 0.387629 
-0.328585 9.67529 0.20418 
0.387629 0.20418 11.4949 
10.004 0.610642 -0.541976 
0.610642 9.45109 0.33948 
-0.541976 0.33948 11.9201 
10.2617 -0.0302761 -0.422503 
-0.0302761 9.77917 0.112106 
-0.422503 0.112106 11.3342 
9.71301 0.015083 0.159284 
0.015083 9.67963 -0.0440188 
0.159284 -0.0440188 9.90262 
9.81825 0.00463042 0.188113 
0.00463042 9.80719 0.146956 
0.188113 0.146956 9.66983 
9.77741 -0.0418518 0.216303 
-0.0418518 9.66679 0.0813826 
0.216303 0.0813826 9.85106 
9.76646 -0.00548518 0.193034 
-0.00548518 9.7055 0.0666642 
0.193034 0.0666642 9.82331 
9.79417 -0.0239666 0.156245 
-0.0239666 9.64589 0.0856717 
0.156245 0.0856717 9.90295 
9.82662 0.031544 0.195131 
0.031544 9.75728 0.114098 
0.195131 0.114098 9.75911 
9.73719 -0.0201564 0.121541 
-0.0201564 9.68118 0.0101938 
0.121541 0.0101938 9.92464 
9.76112 -0.0139265 0.167401 
-0.0139265 9.71127 0.0565897 
0.167401 0.0565897 9.87063 
9.71706 -0.00985971 -0.0614603 
-0.00985971 9.42145 0.0754346 
-0.0614603 0.0754346 9.62532 
9.74107 -0.0415445 -0.0120441 
-0.0415445 9.42794 0.0353764 
-0.0120441 0.0353764 9.59482 
9.64854 0.00849962 -0.0652045 
0.00849962 9.44667 -0.0581107 
-0.0652045 -0.0581107 9.66862 
9.59002 0.0560892 -0.00367137 
0.0560892 9.43155 -0.0171022 
-0.00367137 -0.0171022 9.74227 
9.49959 -0.0147089 -0.441769 
-0.0147089 9.47034 0.179675 
-0.441769 0.179675 9.71938 
9.48665 -0.0347212 -0.428034 
-0.0347212 9.46715 0.163353 
-0.428034 0.163353 9.73551 
9.49512 -0.0377517 -0.430625 
-0.0377517 9.45267 0.170362 
-0.430625 0.170362 9.74153 
9.50635 -0.0235485 -0.432681 
-0.0235485 9.44601 0.162423 
-0.432681 0.162423 9.73695 
9.54469 -0.162109 -0.191457 
-0.162109 9.3047 0.106999 
-0.191457 0.106999 9.57843 
9.62115 -0.0517498 -0.215137 
-0.0517498 9.31275 0.00555175 
-0.215137 0.00555175 9.49392 
9.78343 -0.0556601 -0.158265 
-0.0556601 9.14591 0.114366 
-0.158265 0.114366 9.49849 
9.63871 -0.0864538 -0.170341 
-0.0864538 9.23126 0.06981 
-0.170341 0.06981 9.55785 
9.73497 -0.404757 -0.0903538 
-0.404757 10.4004 0.100207 
-0.0903538 0.100207 11.6125 
9.82916 -0.373946 0.132861 
-0.373946 10.3207 0.0962955 
0.132861 0.0962955 11.598 
9.87911 -0.392081 0.038892 
-0.392081 10.3744 0.247494 
0.038892 0.247494 11.4943 
10.2782 -0.0205992 -0.597365 
-0.0205992 10.1345 0.0576851 
-0.597365 0.0576851 11.3351 
8.97578 0.309427 0.341815 
0.309427 8.77353 -1.06205 
0.341815 -1.06205 8.38876 
8.64283 -0.28554 0.0396582 
-0.28554 8.77618 -0.78746 
0.0396582 -0.78746 8.71907 
8.78807 0.0620904 0.174003 
0.0620904 8.59841 -0.977978 
0.174003 -0.977978 8.7516 
9.50709 0.114803 0.153406 
0.114803 8.50153 -1.0465 
0.153406 -1.0465 8.12946 
8.9599 0.743987 -0.146658 
0.743987 9.84792 0.29673 
-0.146658 0.29673 10.4492 
8.8021 0.302871 -0.614969 
0.302871 9.79698 0.325272 
-0.614969 0.325272 10.6579 
9.39534 -0.238145 -0.505388 
-0.238145 9.81847 0.236581 
-0.505388 0.236581 10.0432 
9.78335 0.142966 -1.02567 
0.142966 10.0924 -0.285387 
-1.02567 -0.285387 9.38126 
9.1577 -0.224432 0.814654 
-0.224432 9.47147 0.0713504 
0.814654 0.0713504 9.14453 
8.95061 -0.017715 1.04078 
-0.017715 9.76627 0.229418 
1.04078 0.229418 9.05682 
9.0916 -0.517804 1.04924 
-0.517804 9.25405 0.356644 
1.04924 0.356644 9.42804 
9.25267 0.240506 0.360537 
0.240506 9.32828 -0.0574983 
0.360537 -0.0574983 9.19275 
9.79583 -0.0438043 0.0913163 
-0.0438043 9.69328 0.0134757 
0.0913163 0.0134757 9.97769 
9.84422 -0.0492003 0.047642 
-0.0492003 9.72743 0.074374 
0.047642 0.074374 9.89515 
9.83967 -0.00267454 0.107606 
-0.00267454 9.68226 0.0190009 
0.107606 0.0190009 9.94487 
9.81676 -0.0169327 0.0882902 
-0.0169327 9.70589 0.0212337 
0.0882902 0.0212337 9.94415 
8.92195 -0.564289 -0.0160961 
-0.564289 10.0091 0.244854 
-0.0160961 0.244854 10.5532 
8.70529 -0.502371 -0.260942 
-0.502371 10.0249 -0.0499137 
-0.260942 -0.0499137 10.7541 
8.87016 -0.239965 0.164134 
-0.239965 9.84757 0.378678 
0.164134 0.378678 10.7665 
10.2052 0.461177 -0.737207 
0.461177 9.42078 -0.319003 
-0.737207 -0.319003 9.85826 
9.29259 0.085712 -0.348345 
0.085712 9.49541 -0.0363945 
-0.348345 -0.0363945 9.83898 
9.18929 0.0117738 -0.471906 
0.0117738 9.54184 -0.00996933 
-0.471906 -0.00996933 9.89585 
9.32434 0.0540246 -0.474385 
0.0540246 9.50713 0.0131802 
-0.474385 0.0131802 9.7955 
9.53853 0.0098608 -0.605183 
0.0098608 9.36391 -0.00992464 
-0.605183 -0.00992464 9.72454 
10.8283 -1.00272 -1.76096 
-1.00272 6.92388 -0.439919 
-1.76096 -0.439919 3.40825 
8.8437 -0.157398 -0.277447 
-0.157398 8.33176 -0.661397 
-0.277447 -0.661397 3.98499 
7.17188 0.267129 -0.181864 
0.267129 8.15291 -0.3416 
-0.181864 -0.3416 5.83565 
7.79477 -0.227806 0.215992 
-0.227806 8.3495 0.390419 
0.215992 0.390419 5.01618 
9.85637 0.0434169 0.359546 
0.0434169 9.82271 -0.110876 
0.359546 -0.110876 9.87069 
9.85978 0.0561472 0.19353 
0.0561472 9.79718 -0.160969 
0.19353 -0.160969 9.89281 
9.8472 0.051992 0.398018 
0.051992 9.89147 -0.1213 
0.398018 -0.1213 9.81109 
9.84085 -0.00854992 0.229738 
-0.00854992 9.87574 -0.123815 
0.229738 -0.123815 9.83317 
8.89692 -0.0253427 -0.685766 
-0.0253427 9.46397 0.215065 
-0.685766 0.215065 9.31191 
9.7796 0.314079 -0.675057 
0.314079 9.88732 1.81551 
-0.675057 1.81551 8.00589 
8.99331 0.0847547 -1.59426 
0.0847547 8.56 0.660008 
-1.59426 0.660008 10.1195 
9.96143 0.271832 -0.894839 
0.271832 8.00665 0.754338 
-0.894839 0.754338 9.70472 
9.0404 0.0061661 -0.329552 
0.0061661 9.44895 -0.0880943 
-0.329552 -0.0880943 10.1294 
9.16912 0.0157054 -0.259128 
0.0157054 9.35841 -0.00546747 
-0.259128 -0.00546747 10.0912 
9.22738 -0.0168524 -0.457657 
-0.0168524 9.54777 -0.00200824 
-0.457657 -0.00200824 9.84357 
9.49914 -0.127721 0.17778 
-0.127721 9.17459 0.084177 
0.17778 0.084177 9.945 
9.31345 0.0123974 0.195835 
0.0123974 9.58121 0.169368 
0.195835 0.169368 9.28517 
9.28734 -0.00987678 0.182662 
-0.00987678 9.59213 0.170751 
0.182662 0.170751 9.30036 
9.3261 0.0193626 0.249107 
0.0193626 9.61893 0.139288 
0.249107 0.139288 9.2348 
9.30855 0.0300305 0.168374 
0.0300305 9.56736 0.117352 
0.168374 0.117352 9.30392 
9.67305 -0.187531 0.295584 
-0.187531 9.26398 -0.147063 
0.295584 -0.147063 9.84036 
9.57355 -0.0722318 0.363964 
-0.0722318 9.53028 -0.221165 
0.363964 -0.221165 9.67357 
9.71111 0.0263332 0.207675 
0.0263332 9.39022 -0.263323 
0.207675 -0.263323 9.67606 
9.51878 -0.00526685 0.177315 
-0.00526685 9.27538 -0.0710777 
0.177315 -0.0710777 9.98323 
8.00843 -0.337242 0.944069 
-0.337242 9.77934 0.182065 
0.944069 0.182065 8.8321 
8.67891 0.0936499 -0.181619 
0.0936499 9.06991 -0.172882 
-0.181619 -0.172882 8.87104 
8.27612 -0.136729 0.0673527 
-0.136729 9.28374 -0.461704 
0.0673527 -0.461704 9.06 
7.68865 -0.413558 -0.0587259 
-0.413558 10.181 -0.0560241 
-0.0587259 -0.0560241 8.75017 
9.85098 -0.0256833 0.182526 
-0.0256833 9.793 -0.0161256 
0.182526 -0.0161256 9.96331 
9.84177 -0.016179 0.14252 
-0.016179 9.80192 -0.0347003 
0.14252 -0.0347003 9.96359 
9.82966 -0.0432765 0.165318 
-0.0432765 9.81074 -0.0273958 
0.165318 -0.0273958 9.96689 
9.91745 -0.00252406 0.197525 
-0.00252406 9.74149 0.00688275 
0.197525 0.00688275 9.94835 
9.11868 0.296755 -0.100937 
0.296755 9.79299 0.0253747 
-0.100937 0.0253747 9.46338 
9.31317 0.133998 0.0607752 
0.133998 9.83993 0.202211 
0.0607752 0.202211 9.22195 
9.56491 -0.153796 0.211016 
-0.153796 9.35814 0.108127 
0.211016 0.108127 9.452 
9.56566 -0.23484 -0.38318 
-0.23484 9.71814 -0.010006 
-0.38318 -0.010006 9.09125 
9.27599 0.0482692 0.148463 
0.0482692 9.18287 0.508373 
0.148463 0.508373 9.91033 
9.59058 -0.0312068 0.306825 
-0.0312068 8.99373 -0.0142953 
0.306825 -0.0142953 9.78488 
9.56157 -0.0739678 0.302418 
-0.0739678 9.29475 -0.184908 
0.302418 -0.184908 9.51286 
9.4235 0.368636 0.671111 
0.368636 8.92379 -0.446332 
0.671111 -0.446332 10.0219 
9.29724 -0.165509 -0.730923 
-0.165509 9.32373 0.218425 
-0.730923 0.218425 9.81197 
9.48105 0.0349629 -0.273964 
0.0349629 9.12871 0.256286 
-0.273964 0.256286 9.82318 
9.49198 -0.01825 -0.622931 
-0.01825 9.42666 0.0940837 
-0.622931 0.0940837 9.5143 
9.36658 0.129383 -0.490522 
0.129383 9.374 0.0470528 
-0.490522 0.0470528 9.69236 
9.65433 0.104795 0.108029 
0.104795 9.49767 -0.326339 
0.108029 -0.326339 9.40011 
9.38682 0.0333117 0.0561519 
0.0333117 9.59223 -0.118757 
0.0561519 -0.118757 9.57307 
9.75967 0.0690134 0.160333 
0.0690134 9.42824 -0.162731 
0.160333 -0.162731 9.3642 
9.39625 -0.0989969 -0.119956 
-0.0989969 10.0582 -0.208912 
-0.119956 -0.208912 9.09766 
9.39491 -0.11363 -0.000689174 
-0.11363 9.43022 -0.202333 
-0.000689174 -0.202333 9.76424 
9.36132 -0.0361921 -0.0287233 
-0.0361921 9.38005 -0.287354 
-0.0287233 -0.287354 9.848 
9.48918 -0.253429 0.163947 
-0.253429 9.27162 -0.0366632 
0.163947 -0.0366632 9.82857 
9.40796 0.0482368 0.0554563 
0.0482368 9.53125 -0.194008 
0.0554563 -0.194008 9.65016 
9.81288 -0.00159293 0.1534 
-0.00159293 9.75814 0.0101146 
0.1534 0.0101146 9.91992 
9.79716 -0.0133082 0.153971 
-0.0133082 9.77243 0.00108739 
0.153971 0.00108739 9.92134 
9.82793 0.00753568 0.156196 
0.00753568 9.7265 0.0358806 
0.156196 0.0358806 9.9365 
9.84752 0.00366265 0.176862 
0.00366265 9.75271 0.0244722 
0.176862 0.0244722 9.8907 
9.44799 -0.0389096 0.0963705 
-0.0389096 9.30339 -0.109481 
0.0963705 -0.109481 10.2199 
9.38737 -0.0380563 0.181973 
-0.0380563 9.44661 -0.065372 
0.181973 -0.065372 10.1373 
9.42896 -0.21399 0.141579 
-0.21399 9.34898 -0.167606 
0.141579 -0.167606 10.1933 
9.52258 -0.0904825 0.141751 
-0.0904825 9.24047 -0.225481 
0.141751 -0.225481 10.2082 
9.46894 -0.00652961 0.0808674 
-0.00652961 9.51914 -0.248006 
0.0808674 -0.248006 9.49405 
9.52792 -0.0676265 0.0999154 
-0.0676265 9.45276 -0.0761743 
0.0999154 -0.0761743 9.50145 
9.54097 -0.0953864 0.100684 
-0.0953864 9.35666 -0.0588226 
0.100684 -0.0588226 9.5845 
9.45323 -0.00192872 0.140029 
-0.00192872 9.50956 -0.00574377 
0.140029 -0.00574377 9.51934 
8.56417 0.152051 0.0652086 
0.152051 9.50855 -0.289301 
0.0652086 -0.289301 9.06342 
8.83033 0.0742866 0.0297426 
0.0742866 9.34133 -0.0459301 
0.0297426 -0.0459301 8.96449 
8.54731 -0.498038 0.784026 
-0.498038 9.45832 0.00213913 
0.784026 0.00213913 9.13051 
8.68036 0.0311508 0.345552 
0.0311508 9.33177 -0.150615 
0.345552 -0.150615 9.12401 
9.57593 -0.0351347 0.25752 
-0.0351347 9.33793 -0.109675 
0.25752 -0.109675 9.44875 
9.56875 -0.00295441 0.279959 
-0.00295441 9.37174 -0.130113 
0.279959 -0.130113 9.42211 
9.51703 0.0317002 0.17981 
0.0317002 9.45824 -0.286125 
0.17981 -0.286125 9.38733 
9.34761 0.0624435 0.197753 
0.0624435 9.51302 -0.0619886 
0.197753 -0.0619886 9.50197 
9.82756 -0.0247259 0.0468785 
-0.0247259 9.87212 0.320381 
0.0468785 0.320381 9.85361 
9.87694 -0.0815564 -0.0144003 
-0.0815564 9.92684 0.347845 
-0.0144003 0.347845 9.74951 
9.85304 0.0565767 0.0305827 
0.0565767 9.88146 0.321543 
0.0305827 0.321543 9.8188 
9.83756 0.0601816 0.0927208 
0.0601816 9.92179 0.237105 
0.0927208 0.237105 9.79395 
9.82451 -0.479398 -0.286668 
-0.479398 9.29852 -0.25746 
-0.286668 -0.25746 9.87838 
9.83419 -0.84261 -0.03972 
-0.84261 8.96883 -0.327725 
-0.03972 -0.327725 10.1984 
9.64837 -0.334541 -0.0703917 
-0.334541 9.47702 -0.100501 
-0.0703917 -0.100501 9.87602 
9.93996 -0.630638 -0.335827 
-0.630638 9.3016 -0.304839 
-0.335827 -0.304839 9.75985 
9.77456 0.00182195 -0.183985 
0.00182195 9.82559 -0.114036 
-0.183985 -0.114036 9.73364 
9.90204 0.0390888 -0.209995 
0.0390888 9.57134 -0.0847158 
-0.209995 -0.0847158 9.86041 
9.78774 0.0241452 -0.173264 
0.0241452 9.81795 -0.0595044 
-0.173264 -0.0595044 9.72811 
9.91294 0.0180612 -0.0995576 
0.0180612 9.7533 -0.0499288 
-0.0995576 -0.0499288 9.66755 
9.89655 -0.0104844 0.172784 
-0.0104844 9.63161 -0.12548 
0.172784 -0.12548 10.0361 
9.9638 -0.0313068 0.145186 
-0.0313068 9.90704 -0.105087 
0.145186 -0.105087 9.69342 
9.80141 0.064439 0.0659634 
0.064439 9.94763 -0.192768 
0.0659634 -0.192768 9.81523 
9.85505 0.00583148 0.0895823 
0.00583148 9.90989 -0.148169 
0.0895823 -0.148169 9.79932 
11.9476 0.34667 0.269861 
0.34667 13.4632 0.380105 
0.269861 0.380105 7.91169 
9.56457 1.10548 -1.07314 
1.10548 9.23336 -0.0131936 
-1.07314 -0.0131936 14.5246 
10.2678 -0.502238 -0.426299 
-0.502238 9.45728 -0.63716 
-0.426299 -0.63716 13.5975 
9.3894 -0.0454286 1.61905 
-0.0454286 9.63167 2.94999 
1.61905 2.94999 14.3014 
9.62857 -0.0722414 -0.198418 
-0.0722414 9.43533 0.107917 
-0.198418 0.107917 9.6858 
9.68607 -0.0491618 -0.255214 
-0.0491618 9.44129 0.0848767 
-0.255214 0.0848767 9.62234 
9.6642 -0.0628586 -0.218786 
-0.0628586 9.42273 0.0732495 
-0.218786 0.0732495 9.66278 
9.69631 -0.0612981 -0.257913 
-0.0612981 9.43517 0.110576 
-0.257913 0.110576 9.61822 
9.94777 0.0178921 -0.113074 
0.0178921 9.91432 -0.0908149 
-0.113074 -0.0908149 9.88411 
9.92765 0.00720579 -0.0902798 
0.00720579 9.86415 -0.08019 
-0.0902798 -0.08019 9.9544 
9.86957 -0.0012152 -0.116027 
-0.0012152 9.83946 -0.0611407 
-0.116027 -0.0611407 10.0372 
9.93696 0.0231637 -0.0838698 
0.0231637 9.94421 -0.0638857 
-0.0838698 -0.0638857 9.86504 
9.42864 0.489802 -0.760644 
0.489802 9.38112 0.507848 
-0.760644 0.507848 9.88689 
9.57257 -0.106022 -0.719206 
-0.106022 9.59303 0.423518 
-0.719206 0.423518 9.53104 
9.40822 -0.0855937 -0.548478 
-0.0855937 9.46993 0.123024 
-0.548478 0.123024 9.8185 
9.61459 0.131063 -0.723513 
0.131063 9.40814 0.176085 
-0.723513 0.176085 9.67392 
9.79666 -0.0105249 -0.192273 
-0.0105249 9.46254 -0.0546406 
-0.192273 -0.0546406 9.7239 
9.68506 0.0259268 -0.3195 
0.0259268 9.641 0.115579 
-0.3195 0.115579 9.65704 
9.84609 0.0534391 -0.0999565 
0.0534391 9.49097 0.0842014 
-0.0999565 0.0842014 9.64604 
9.69818 0.021709 -0.0129258 
0.021709 9.50611 -0.202655 
-0.0129258 -0.202655 9.77881 
9.41708 -0.719642 0.860542 
-0.719642 9.92382 -1.93292 
0.860542 -1.93292 7.39456 
9.599 -0.984106 0.00819644 
-0.984106 9.63405 -1.7773 
0.00819644 -1.7773 7.50241 
9.48618 0.47476 0.90925 
0.47476 8.88125 -1.53523 
0.90925 -1.53523 8.36803 
10.2751 0.344891 0.235722 
0.344891 9.4378 -2.00346 
0.235722 -2.00346 7.02254 
8.2103 0.282186 1.01387 
0.282186 9.02838 -0.960576 
1.01387 -0.960576 9.23673 
9.04301 0.0711328 1.01633 
0.0711328 9.41223 -0.946114 
1.01633 -0.946114 8.02018 
8.58024 0.211565 0.700893 
0.211565 9.08732 -0.985011 
0.700893 -0.985011 8.80785 
9.02348 -0.367702 -0.369611 
-0.367702 8.83026 -0.489423 
-0.369611 -0.489423 8.62168 
9.29898 0.12455 -0.452719 
0.12455 9.26122 -0.205557 
-0.452719 -0.205557 10.2807 
9.41593 0.129603 -0.254174 
0.129603 9.23705 0.00230586 
-0.254174 0.00230586 10.1879 
9.63453 -0.378183 -0.161277 
-0.378183 8.64478 0.293189 
-0.161277 0.293189 10.5616 
9.63825 0.441424 -0.269113 
0.441424 9.2169 0.128965 
-0.269113 0.128965 9.98572 
9.90284 -0.00930765 0.17897 
-0.00930765 9.8462 -0.0130583 
0.17897 -0.0130583 9.94255 
9.93209 0.0184871 0.174337 
0.0184871 9.90058 -0.0188856 
0.174337 -0.0188856 9.85892 
9.82847 -0.00790437 0.211586 
-0.00790437 9.76448 0.064297 
0.211586 0.064297 10.0986 
9.92816 -0.0461775 0.126548 
-0.0461775 9.78519 -0.0858345 
0.126548 -0.0858345 9.97825 
9.7366 -0.014735 0.0549438 
-0.014735 9.68527 0.0133258 
0.0549438 0.0133258 9.85009 
9.70262 -0.0472727 0.0740556 
-0.0472727 9.68078 -0.0355992 
0.0740556 -0.0355992 9.88856 
9.75553 -0.0352595 0.057641 
-0.0352595 9.73116 -0.0886018 
0.057641 -0.0886018 9.78527 
9.69773 -0.0128587 0.0145371 
-0.0128587 9.76281 -0.0952599 
0.0145371 -0.0952599 9.81142 
9.59799 -0.0390535 -0.521565 
-0.0390535 9.53853 0.13389 
-0.521565 0.13389 9.79754 
9.75165 0.12832 -0.692802 
0.12832 9.52988 0.0630154 
-0.692802 0.0630154 9.65254 
9.6823 -0.0206092 -0.553737 
-0.0206092 9.63721 0.292104 
-0.553737 0.292104 9.61455 
9.82988 -0.141185 -0.714865 
-0.141185 9.65703 0.0441405 
-0.714865 0.0441405 9.44715 
9.38782 -0.117567 0.374072 
-0.117567 9.56268 0.0720123 
0.374072 0.0720123 9.75707 
9.25384 -0.169925 0.308207 
-0.169925 9.52963 -0.198683 
0.308207 -0.198683 9.9241 
9.30849 -0.276889 0.321826 
-0.276889 9.55824 -0.224526 
0.321826 -0.224526 9.84083 
9.40963 -0.155332 0.482462 
-0.155332 9.41837 -0.0270826 
0.482462 -0.0270826 9.87957 
9.22009 0.066272 -0.183644 
0.066272 9.45476 0.0111533 
-0.183644 0.0111533 9.9047 
9.25808 0.0977709 -0.205941 
0.0977709 9.4767 -0.029488 
-0.205941 -0.029488 9.84477 
9.58128 0.191812 -0.347438 
0.191812 9.31678 0.27973 
-0.347438 0.27973 9.68148 
9.09512 0.152691 -0.339502 
0.152691 9.36017 -0.190667 
-0.339502 -0.190667 10.1243 
9.81718 -0.0240336 -0.0215907 
-0.0240336 9.87169 0.405538 
-0.0215907 0.405538 9.77151 
9.84153 -0.0561038 -0.00414316 
-0.0561038 9.91663 0.381372 
-0.00414316 0.381372 9.70222 
9.83872 0.0186127 0.00520538 
0.0186127 9.85758 0.390745 
0.00520538 0.390745 9.76407 
9.83501 0.0584438 -0.0594025 
0.0584438 9.87733 0.477766 
-0.0594025 0.477766 9.74804 
9.59021 -0.272089 -0.0212294 
-0.272089 9.66293 -0.211959 
-0.0212294 -0.211959 10.5069 
9.59822 0.178664 0.306311 
0.178664 9.43384 0.0921961 
0.306311 0.0921961 10.728 
10.0815 0.466625 0.544622 
0.466625 9.92567 -0.121186 
0.544622 -0.121186 9.75281 
9.91953 -0.193286 0.175334 
-0.193286 9.36912 0.176091 
0.175334 0.176091 10.4714 
9.3563 0.170948 0.0542313 
0.170948 9.64172 0.223735 
0.0542313 0.223735 9.40924 
9.47048 0.0945169 0.115378 
0.0945169 9.63175 0.388514 
0.115378 0.388514 9.30502 
9.34789 0.0847896 0.181815 
0.0847896 9.60187 0.116952 
0.181815 0.116952 9.4575 
9.32422 -0.0385831 0.0614616 
-0.0385831 9.59926 0.239848 
0.0614616 0.239848 9.48378 
9.46215 0.0857939 -0.0166007 
0.0857939 9.71116 0.132925 
-0.0166007 0.132925 9.4133 
9.41897 0.0459508 0.0378865 
0.0459508 9.64963 0.200538 
0.0378865 0.200538 9.51801 
9.53946 0.04689 0.140486 
0.04689 9.7061 0.201567 
0.140486 0.201567 9.34105 
9.36256 0.0336944 0.0532497 
0.0336944 9.63391 0.147495 
0.0532497 0.147495 9.59014 
9.75472 -0.0406915 -0.492098 
-0.0406915 9.72803 0.240366 
-0.492098 0.240366 9.89222 
9.76526 0.0107071 -0.37988 
0.0107071 9.81313 0.135036 
-0.37988 0.135036 9.79657 
9.71652 0.0303954 -0.443035 
0.0303954 9.80569 0.169896 
-0.443035 0.169896 9.85277 
9.72488 0.0165796 -0.436812 
0.0165796 9.75104 0.173316 
-0.436812 0.173316 9.89905 
8.85431 0.297294 -0.167628 
0.297294 9.25187 0.55526 
-0.167628 0.55526 9.86242 
8.39018 -0.347917 -0.567989 
-0.347917 9.51515 0.545235 
-0.567989 0.545235 10.0633 
8.6349 0.0757423 -0.642917 
0.0757423 9.06456 0.738894 
-0.642917 0.738894 10.2691 
8.88707 0.203274 -0.794795 
0.203274 9.69992 0.380747 
-0.794795 0.380747 9.3816 
9.66667 0.0172876 -0.0953689 
0.0172876 9.71634 -0.225952 
-0.0953689 -0.225952 9.21784 
9.60781 0.0194993 -0.202336 
0.0194993 9.64483 -0.266402 
-0.202336 -0.266402 9.34822 
9.57749 0.0162783 -0.159691 
0.0162783 9.66196 -0.292637 
-0.159691 -0.292637 9.3614 
9.56319 0.0248712 -0.158875 
0.0248712 9.72607 -0.249763 
-0.158875 -0.249763 9.31159 
9.46922 0.0219437 0.0913854 
0.0219437 9.08469 0.0490154 
0.0913854 0.0490154 9.58775 
9.46062 0.0281702 0.429887 
0.0281702 9.18321 -0.266236 
0.429887 -0.266236 9.49782 
10.1119 -0.151683 0.534381 
-0.151683 9.23068 0.0695874 
0.534381 0.0695874 8.79912 
9.23278 0.152306 0.639513 
0.152306 9.15077 -0.352781 
0.639513 -0.352781 9.7581 
8.56335 -0.169029 0.280465 
-0.169029 8.66525 -0.403818 
0.280465 -0.403818 6.65153 
8.36575 -0.0112234 -0.125389 
-0.0112234 8.57367 -0.939955 
-0.125389 -0.939955 6.94071 
8.43455 -0.0714169 0.00048145 
-0.0714169 8.80525 -0.293199 
0.00048145 -0.293199 6.64033 
9.48774 0.429517 0.207763 
0.429517 8.84041 -0.948462 
0.207763 -0.948462 5.55198 
8.4882 0.297034 -0.269399 
0.297034 10.0761 0.10931 
-0.269399 0.10931 10.4967 
9.24908 0.107976 -0.457458 
0.107976 9.7664 -0.493494 
-0.457458 -0.493494 10.0456 
8.91868 -0.0628886 -0.872574 
-0.0628886 9.69624 0.476148 
-0.872574 0.476148 10.4461 
9.78994 -0.30949 -0.160174 
-0.30949 9.23522 0.110376 
-0.160174 0.110376 10.0359 
9.62507 -0.0170944 0.246781 
-0.0170944 9.81097 0.14262 
0.246781 0.14262 9.12334 
9.58703 0.0570765 0.127465 
0.0570765 9.27532 0.0325988 
0.127465 0.0325988 9.69703 
9.55527 0.132288 0.14256 
0.132288 9.76926 0.211438 
0.14256 0.211438 9.23484 
9.55871 -0.0420286 -0.0484025 
-0.0420286 9.78264 -0.0488056 
-0.0484025 -0.0488056 9.21802 
9.20239 0.0682454 0.145887 
0.0682454 9.24682 0.740692 
0.145887 0.740692 9.0383 
9.21071 0.0493657 0.176071 
0.0493657 9.11416 0.711952 
0.176071 0.711952 9.16264 
8.79576 -0.0811681 0.479751 
-0.0811681 9.24284 0.757746 
0.479751 0.757746 9.44891 
9.08829 0.17272 0.184704 
0.17272 9.1457 0.495933 
0.184704 0.495933 9.25352 
9.5055 -0.00738248 -0.256177 
-0.00738248 9.64876 0.00566552 
-0.256177 0.00566552 9.63508 
9.24646 0.0348577 -0.287568 
0.0348577 9.33711 -0.0292291 
-0.287568 -0.0292291 10.2058 
9.34731 0.032713 -0.369439 
0.032713 9.68917 0.015869 
-0.369439 0.015869 9.75285 
9.45431 0.0590657 -0.423391 
0.0590657 9.44881 0.0367174 
-0.423391 0.0367174 9.88621 
9.95539 -0.0968386 -0.0269909 
-0.0968386 9.94737 -0.348917 
-0.0269909 -0.348917 10.3587 
10.2199 0.0534269 -0.0795399 
0.0534269 10.0908 -0.0322214 
-0.0795399 -0.0322214 9.95082 
10.0385 0.0281672 -0.0438745 
0.0281672 10.3421 0.00739712 
-0.0438745 0.00739712 9.88089 
10.2058 -0.127978 0.0352797 
-0.127978 9.73964 -0.141553 
0.0352797 -0.141553 10.316 
9.51915 -0.0963138 0.721647 
-0.0963138 9.6142 -0.0929503 
0.721647 -0.0929503 9.1799 
9.47904 -0.0242871 0.650909 
-0.0242871 9.54498 -0.0625188 
0.650909 -0.0625188 9.28922 
9.41398 -0.0927364 0.713231 
-0.0927364 9.6662 -0.155427 
0.713231 -0.155427 9.23307 
9.4243 0.0393933 0.603296 
0.0393933 9.5943 -0.0369558 
0.603296 -0.0369558 9.29464 
9.67812 -0.151498 0.222405 
-0.151498 9.30736 0.0648546 
0.222405 0.0648546 9.79808 
9.62158 -0.137064 0.148005 
-0.137064 9.36615 -0.029188 
0.148005 -0.029188 9.79582 
9.5636 -0.0265761 0.108912 
-0.0265761 9.38149 -0.0424908 
0.108912 -0.0424908 9.83847 
9.53903 -0.0977004 0.131328 
-0.0977004 9.37452 -0.0497052 
0.131328 -0.0497052 9.87 
9.15463 0.0357444 -1.21943 
0.0357444 9.60919 0.0605589 
-1.21943 0.0605589 7.6999 
8.66482 0.0902805 -0.206283 
0.0902805 8.71102 0.137008 
-0.206283 0.137008 9.08788 
8.84633 -0.176754 -0.721763 
-0.176754 9.32593 -0.421292 
-0.721763 -0.421292 8.29147 
9.2815 -0.0968359 -0.688241 
-0.0968359 9.18734 -0.493404 
-0.688241 -0.493404 7.99489 
9.45581 -0.121994 -0.121393 
-0.121994 9.40052 -0.398233 
-0.121393 -0.398233 9.52155 
9.24992 -0.100611 -0.181808 
-0.100611 9.36056 -0.438254 
-0.181808 -0.438254 9.7674 
9.41077 0.00465017 0.0217936 
0.00465017 9.44369 -0.202547 
0.0217936 -0.202547 9.52341 
9.55684 -0.150352 -0.264071 
-0.150352 9.90087 -0.352405 
-0.264071 -0.352405 8.92017 
9.80735 -0.0154878 0.379588 
-0.0154878 9.76319 -0.0389821 
0.379588 -0.0389821 9.9109 
9.8683 0.00758325 0.368073 
0.00758325 9.82072 -0.0902252 
0.368073 -0.0902252 9.79242 
9.82394 0.0172998 0.373519 
0.0172998 9.77773 -0.0907905 
0.373519 -0.0907905 9.87976 
9.8584 0.0147308 0.383054 
0.0147308 9.76083 -0.0822796 
0.383054 -0.0822796 9.8622 
9.81139 0.00598888 0.346844 
0.00598888 9.69306 -0.0681307 
0.346844 -0.0681307 9.9045 
9.78611 -0.0451314 0.282023 
-0.0451314 9.75387 -0.0994503 
0.282023 -0.0994503 9.86897 
9.86465 -0.00545422 0.28564 
-0.00545422 9.73912 -0.0977434 
0.28564 -0.0977434 9.80517 
9.81666 -0.0053763 0.304904 
-0.0053763 9.72449 -0.0793265 
0.304904 -0.0793265 9.8678 
9.48254 0.0440986 0.089011 
0.0440986 9.21502 0.0932446 
0.089011 0.0932446 9.38648 
9.69027 -0.0758964 0.142003 
-0.0758964 9.17889 -0.00988439 
0.142003 -0.00988439 9.21488 
9.50782 0.00506496 0.0206917 
0.00506496 9.19836 -0.00267222 
0.0206917 -0.00267222 9.37786 
9.73486 0.0664486 0.163218 
0.0664486 9.26556 -0.109855 
0.163218 -0.109855 9.08363 
9.69419 -0.0732353 -0.108438 
-0.0732353 9.56956 -0.0560411 
-0.108438 -0.0560411 9.59748 
9.6695 -0.0294106 -0.154474 
-0.0294106 9.52461 0.0726655 
-0.154474 0.0726655 9.66713 
9.69398 -0.0628748 -0.124083 
-0.0628748 9.47059 0.0858017 
-0.124083 0.0858017 9.69666 
9.65619 -0.0347421 -0.0428672 
-0.0347421 9.46355 0.10457 
-0.0428672 0.10457 9.74149 
8.09971 -0.343079 4.9535 
-0.343079 9.86758 1.86515 
4.9535 1.86515 6.19545 
8.76644 -0.399694 0.747101 
-0.399694 9.36687 0.358023 
0.747101 0.358023 6.02943 
6.1371 0.0970104 1.31739 
0.0970104 7.11829 -0.948065 
1.31739 -0.948065 10.9073 
9.71569 -1.09126 0.755762 
-1.09126 7.29588 0.557936 
0.755762 0.557936 7.15117 
9.84271 0.0508752 -0.0503057 
0.0508752 9.83279 -0.117906 
-0.0503057 -0.117906 9.78507 
9.83664 0.0458002 -0.0239432 
0.0458002 9.83211 -0.0855871 
-0.0239432 -0.0855871 9.79182 
9.77737 -0.0906132 -0.0418617 
-0.0906132 9.79454 -0.085358 
-0.0418617 -0.085358 9.88865 
9.84155 -0.0202575 -0.078016 
-0.0202575 9.83426 -0.0437599 
-0.078016 -0.0437599 9.78475 
9.83458 -0.0308917 0.230434 
-0.0308917 9.75334 0.0174032 
0.230434 0.0174032 9.90907 
9.82626 0.0225455 0.21638 
0.0225455 9.74935 -0.0161995 
0.21638 -0.0161995 9.92138 
9.83936 -0.0178668 0.232106 
-0.0178668 9.77077 -0.0128124 
0.232106 -0.0128124 9.88687 
9.84816 -0.0602757 0.172444 
-0.0602757 9.77577 0.0548007 
0.172444 0.0548007 9.87306 
9.96408 -0.0132607 0.0352132 
-0.0132607 9.92421 -0.00398367 
0.0352132 -0.00398367 9.94943 
9.94979 0.0124956 0.0352748 
0.0124956 9.94859 -0.0115358 
0.0352748 -0.0115358 9.93934 
9.8774 -0.0658311 0.0358663 
-0.0658311 9.90812 0.0502305 
0.0358663 0.0502305 10.0522 
9.97326 -0.0191307 0.020769 
-0.0191307 9.87271 -0.0160578 
0.020769 -0.0160578 9.99174 
9.14027 0.0661804 -1.19458 
0.0661804 8.95592 -0.402053 
-1.19458 -0.402053 7.22827 
9.6153 -0.239643 -0.19576 
-0.239643 10.0209 -0.403876 
-0.19576 -0.403876 5.68821 
9.08825 0.276921 -0.855114 
0.276921 9.03003 -0.0352635 
-0.855114 -0.0352635 7.20618 
7.95817 -0.585091 -0.0679086 
-0.585091 8.9252 -0.495869 
-0.0679086 -0.495869 8.4411 
9.00559 0.153479 0.0166769 
0.153479 9.48431 -0.0209823 
0.0166769 -0.0209823 9.78455 
9.45309 -0.285495 0.383221 
-0.285495 9.4506 -0.207546 
0.383221 -0.207546 9.37075 
9.54815 -0.245694 0.472122 
-0.245694 9.42678 -0.102361 
0.472122 -0.102361 9.29952 
8.88615 0.0458989 0.415396 
0.0458989 9.24245 -0.236725 
0.415396 -0.236725 10.1459 
9.9248 -0.00113486 0.255577 
-0.00113486 9.85987 -0.222034 
0.255577 -0.222034 10.081 
9.94166 -0.0171801 0.283982 
-0.0171801 9.96218 -0.195742 
0.283982 -0.195742 9.96187 
9.96137 -0.0238376 0.275518 
-0.0238376 10.0223 -0.151103 
0.275518 -0.151103 9.88205 
9.94525 0.00775482 0.290936 
0.00775482 10.0471 -0.212958 
0.290936 -0.212958 9.8734 
9.11965 -0.143107 0.159419 
-0.143107 8.82941 -0.0898328 
0.159419 -0.0898328 9.44044 
8.98855 0.117138 0.145659 
0.117138 9.09656 -0.226384 
0.145659 -0.226384 9.30439 
9.03096 0.107335 0.028512 
0.107335 8.95089 -0.370524 
0.028512 -0.370524 9.40765 
9.23414 0.21682 0.189162 
0.21682 8.69188 -0.431102 
0.189162 -0.431102 9.46348 
9.27445 0.125923 0.0385529 
0.125923 9.20952 -0.032352 
0.0385529 -0.032352 8.81991 
9.10447 -0.161264 0.2272 
-0.161264 9.75188 -0.191409 
0.2272 -0.191409 8.44753 
9.24618 0.00594188 0.318529 
0.00594188 9.20767 -0.182578 
0.318529 -0.182578 8.85004 
9.40472 -0.092081 0.315643 
-0.092081 9.61936 -0.157441 
0.315643 -0.157441 8.2798 
9.68475 -0.0619793 0.357008 
-0.0619793 9.44324 -0.0347801 
0.357008 -0.0347801 9.95255 
9.56013 -0.11854 0.327995 
-0.11854 9.61193 -0.104311 
0.327995 -0.104311 9.90849 
9.66021 -0.00996185 0.358803 
-0.00996185 9.54564 -0.0866914 
0.358803 -0.0866914 9.87469 
9.68056 -0.00626756 0.470523 
-0.00626756 9.47162 -0.0882547 
0.470523 -0.0882547 9.92836 
9.18538 -0.0990352 0.187628 
-0.0990352 8.97805 -0.176384 
0.187628 -0.176384 10.192 
9.18509 -0.3292 0.120315 
-0.3292 9.03619 -0.163424 
0.120315 -0.163424 10.1341 
9.10031 0.0526084 0.100487 
0.0526084 9.17153 -0.166207 
0.100487 -0.166207 10.0836 
9.33685 -0.226903 0.154147 
-0.226903 8.78433 -0.0730272 
0.154147 -0.0730272 10.2342 
9.43683 -0.204838 0.0369445 
-0.204838 9.19091 0.0534897 
0.0369445 0.0534897 10.0376 
9.4296 -0.170568 -0.0110551 
-0.170568 9.32229 -0.316357 
-0.0110551 -0.316357 9.91349 
9.38704 -0.162559 -0.0614058 
-0.162559 9.31121 -0.239585 
-0.0614058 -0.239585 9.96713 
9.3243 -0.142555 0.063115 
-0.142555 9.18123 -0.307809 
0.063115 -0.307809 10.1599 
9.71546 -0.498025 -0.46175 
-0.498025 7.84435 -0.256109 
-0.46175 -0.256109 8.68752 
9.4417 0.170602 -0.205133 
0.170602 8.6808 -0.410503 
-0.205133 -0.410503 8.12482 
9.44563 0.140219 -0.216156 
0.140219 8.47451 -0.437017 
-0.216156 -0.437017 8.32718 
9.66437 0.00702624 -0.586428 
0.00702624 8.44543 -0.748963 
-0.586428 -0.748963 8.13753 
9.19649 0.0978355 0.142303 
0.0978355 9.46929 0.228015 
0.142303 0.228015 9.21001 
9.19155 0.127776 0.146547 
0.127776 9.47116 0.415067 
0.146547 0.415067 9.21308 
9.1686 0.174345 0.111006 
0.174345 9.48864 0.301194 
0.111006 0.301194 9.21856 
9.24933 0.281872 0.389486 
0.281872 9.50463 0.298111 
0.389486 0.298111 9.12183 
8.5365 -0.0878764 -0.250366 
-0.0878764 9.35358 -0.510167 
-0.250366 -0.510167 8.55249 
8.81331 -0.2093 0.0229515 
-0.2093 8.96628 -0.64994 
0.0229515 -0.64994 8.66297 
8.50209 -0.200118 -0.164574 
-0.200118 9.27616 -0.526783 
-0.164574 -0.526783 8.66431 
8.3717 -0.0210354 0.0194887 
-0.0210354 9.26196 -0.615493 
0.0194887 -0.615493 8.8089 
9.39692 -0.12348 -0.542089 
-0.12348 9.68721 0.392646 
-0.542089 0.392646 11.6878 
9.44881 -0.265986 0.247732 
-0.265986 10.2296 -0.106908 
0.247732 -0.106908 11.0935 
8.66959 0.779211 0.125841 
0.779211 10.275 -0.0341067 
0.125841 -0.0341067 11.8274 
9.81708 -0.140959 -0.498195 
-0.140959 9.79494 -0.176365 
-0.498195 -0.176365 11.16 
8.99388 -0.168875 0.190912 
-0.168875 9.51879 -0.122459 
0.190912 -0.122459 8.93282 
9.05088 -0.0792498 -0.127279 
-0.0792498 9.6337 -0.312564 
-0.127279 -0.312564 8.76091 
9.24756 0.0269484 -0.0658887 
0.0269484 9.31569 -0.623372 
-0.0658887 -0.623372 8.88225 
8.94789 0.0272091 -0.0867626 
0.0272091 9.49361 -0.528382 
-0.0867626 -0.528382 9.00399 
9.69498 -0.231977 -0.0799129 
-0.231977 9.32412 -0.111052 
-0.0799129 -0.111052 9.55207 
9.88544 -0.273597 -0.287135 
-0.273597 9.28406 -0.0198179 
-0.287135 -0.0198179 9.40167 
9.70354 -0.117984 -0.162466 
-0.117984 9.29172 0.00273254 
-0.162466 0.00273254 9.57592 
9.91533 -0.244705 -0.435048 
-0.244705 9.55708 0.0242189 
-0.435048 0.0242189 9.09875 
9.23794 0.0375113 0.0574082 
0.0375113 9.71077 -0.839198 
0.0574082 -0.839198 9.2257 
9.39993 -0.0055206 0.044721 
-0.0055206 9.39 -0.733232 
0.044721 -0.733232 9.38448 
9.28388 0.0318146 0.0056907 
0.0318146 9.67986 -0.638481 
0.0056907 -0.638481 9.21068 
9.25326 -0.0247853 0.0527737 
-0.0247853 9.77474 -0.542771 
0.0527737 -0.542771 9.14642 
9.92664 0.0341008 -0.0890722 
0.0341008 9.7815 0.0822053 
-0.0890722 0.0822053 9.91145 
9.73903 -0.0907384 -0.0636796 
-0.0907384 9.88683 0.0777703 
-0.0636796 0.0777703 9.99373 
9.98325 0.0263769 0.0472141 
0.0263769 9.7043 0.0203399 
0.0472141 0.0203399 9.93204 
9.82089 -0.0689484 0.0850688 
-0.0689484 9.93886 -0.0814439 
0.0850688 -0.0814439 9.85984 
9.41074 -0.00131259 0.0510367 
-0.00131259 9.32609 0.193828 
0.0510367 0.193828 10.2057 
9.67265 -0.0356184 0.354906 
-0.0356184 9.40985 0.0268649 
0.354906 0.0268649 9.86008 
9.36342 -0.004984 0.131124 
-0.004984 9.42995 0.00769582 
0.131124 0.00769582 10.1492 
9.6304 0.113304 0.586588 
0.113304 9.05328 -0.142573 
0.586588 -0.142573 10.2589 
9.66279 -0.0832792 0.0321145 
-0.0832792 9.30531 -0.103489 
0.0321145 -0.103489 9.70434 
9.61833 -0.120858 -0.0293477 
-0.120858 9.4412 -0.113008 
-0.0293477 -0.113008 9.61292 
9.6008 -0.244803 -0.116399 
-0.244803 9.614 -0.158431 
-0.116399 -0.158431 9.45764 
9.63002 -0.117033 -0.0630953 
-0.117033 9.41456 0.042408 
-0.0630953 0.042408 9.62786 
9.91181 -0.801581 -0.700882 
-0.801581 9.77693 -2.40696 
-0.700882 -2.40696 6.06144 
11.0007 -1.74602 -0.407231 
-1.74602 10.2325 0.557952 
-0.407231 0.557952 4.51696 
10.5923 -0.837654 0.703569 
-0.837654 8.92249 -2.76574 
0.703569 -2.76574 6.23537 
8.80751 -0.800412 1.71385 
-0.800412 11.4173 0.78255 
1.71385 0.78255 5.52541 
9.09816 0.105493 -0.0658235 
0.105493 9.46889 -0.0468138 
-0.0658235 -0.0468138 9.86401 
9.23143 0.13978 -0.466649 
0.13978 9.38771 -0.0669604 
-0.466649 -0.0669604 9.81193 
9.1912 0.291549 -0.366279 
0.291549 9.39263 -0.157227 
-0.366279 -0.157227 9.84724 
9.17695 0.0690015 -0.180732 
0.0690015 9.34665 -0.120064 
-0.180732 -0.120064 9.90747 
9.8831 -0.0165377 -0.111069 
-0.0165377 9.76935 0.0520335 
-0.111069 0.0520335 9.85806 
9.95084 -0.00998803 -0.115514 
-0.00998803 9.7708 0.0505521 
-0.115514 0.0505521 9.78886 
9.84278 -0.02535 -0.169508 
-0.02535 9.75435 0.0229174 
-0.169508 0.0229174 9.91337 
9.86101 -0.0446236 -0.0792777 
-0.0446236 9.78404 0.0192123 
-0.0792777 0.0192123 9.86545 
9.38346 0.0436754 -0.434379 
0.0436754 9.45431 0.0174738 
-0.434379 0.0174738 9.7778 
9.34685 0.0227122 -0.510724 
0.0227122 9.48645 -0.00113744 
-0.510724 -0.00113744 9.78228 
9.43066 0.0130375 -0.471969 
0.0130375 9.45013 -0.0117507 
-0.471969 -0.0117507 9.73479 
9.38911 0.0190926 -0.474934 
0.0190926 9.46405 0.00786942 
-0.474934 0.00786942 9.76242 
9.85676 0.0162599 0.0416209 
0.0162599 9.80205 0.0331915 
0.0416209 0.0331915 9.97574 
9.86169 -0.0300118 0.0211262 
-0.0300118 9.81682 0.0277948 
0.0211262 0.0277948 9.95605 
9.87313 -0.0621508 -0.00671863 
-0.0621508 9.80355 0.0200398 
-0.00671863 0.0200398 9.95787 
9.87895 0.0345682 -0.0885814 
0.0345682 9.83391 -0.00560955 
-0.0885814 -0.00560955 9.9217 
9.88757 -0.00792208 -0.0275589 
-0.00792208 9.8494 0.0454534 
-0.0275589 0.0454534 9.97041 
9.95139 -0.00612822 -0.0264014 
-0.00612822 9.8787 0.0386743 
-0.0264014 0.0386743 9.87729 
9.85271 -0.0210837 -0.0274177 
-0.0210837 9.79314 -0.00571715 
-0.0274177 -0.00571715 10.0615 
9.957 -0.0125999 0.0336014 
-0.0125999 9.8253 0.0912777 
0.0336014 0.0912777 9.92508 
9.45989 -0.0464826 -0.00988928 
-0.0464826 9.57597 -0.169733 
-0.00988928 -0.169733 9.91394 
9.64715 -0.0735902 0.127804 
-0.0735902 9.38509 -0.044406 
0.127804 -0.044406 9.91755 
9.59709 -0.0967415 0.10614 
-0.0967415 9.43882 -0.0954195 
0.10614 -0.0954195 9.91389 
9.55853 -0.17653 0.175772 
-0.17653 9.43813 -0.0324909 
0.175772 -0.0324909 9.95314 
9.84843 -0.175128 0.34365 
-0.175128 9.52367 0.130702 
0.34365 0.130702 9.67388 
9.1545 -0.190561 -0.0140007 
-0.190561 9.64972 -0.0569984 
-0.0140007 -0.0569984 10.2418 
9.1962 -0.345299 0.406543 
-0.345299 9.63335 -0.197524 
0.406543 -0.197524 10.2164 
9.47346 -0.065681 0.273998 
-0.065681 9.63368 0.105056 
0.273998 0.105056 9.93884 
9.66462 0.031489 -0.362191 
0.031489 9.47956 -0.0488963 
-0.362191 -0.0488963 9.46945 
9.6675 0.0343765 -0.402575 
0.0343765 9.4609 -0.0661988 
-0.402575 -0.0661988 9.48523 
9.63124 0.0269985 -0.380468 
0.0269985 9.47095 0.00306932 
-0.380468 0.00306932 9.51145 
9.48381 0.00568549 -0.371426 
0.00568549 9.5098 -0.0265812 
-0.371426 -0.0265812 9.62002 
9.23745 0.0482016 0.254596 
0.0482016 9.55759 0.687505 
0.254596 0.687505 9.36475 
9.32933 0.101443 0.191793 
0.101443 9.61967 0.600766 
0.191793 0.600766 9.21079 
9.36978 -0.0253738 0.243519 
-0.0253738 9.35093 0.503978 
0.243519 0.503978 9.43908 
9.36046 0.223084 0.264581 
0.223084 9.64887 0.558861 
0.264581 0.558861 9.15046 
9.68088 -0.0240513 0.272138 
-0.0240513 9.08293 0.0528795 
0.272138 0.0528795 9.86473 
9.25427 -0.0507329 -0.0176252 
-0.0507329 9.179 -0.220963 
-0.0176252 -0.220963 10.1953 
9.42769 -0.0492696 0.258203 
-0.0492696 9.19451 -0.0878627 
0.258203 -0.0878627 10.0063 
9.16249 -0.334028 0.267051 
-0.334028 9.19356 -0.247285 
0.267051 -0.247285 10.2725 
9.36424 0.212005 -0.218526 
0.212005 9.6756 -0.0550159 
-0.218526 -0.0550159 9.62847 
9.39386 0.27943 -0.131974 
0.27943 9.5611 -0.192728 
-0.131974 -0.192728 9.71336 
9.04946 0.064454 0.34195 
0.064454 9.95516 -0.276442 
0.34195 -0.276442 9.66369 
9.1186 0.247642 -0.0981789 
0.247642 9.52934 -0.143775 
-0.0981789 -0.143775 10.0204 
9.85718 -0.00176729 0.326422 
-0.00176729 9.67271 -0.274215 
0.326422 -0.274215 9.77294 
9.74459 0.0161767 0.36454 
0.0161767 9.93651 -0.147554 
0.36454 -0.147554 9.62173 
9.75743 -0.0122706 0.382649 
-0.0122706 9.7893 -0.112265 
0.382649 -0.112265 9.75609 
9.78054 -0.00932243 0.338422 
-0.00932243 9.83348 -0.148984 
0.338422 -0.148984 9.68881 
9.92058 0.00341529 0.23143 
0.00341529 9.86382 -0.0142236 
0.23143 -0.0142236 9.89203 
9.81996 -0.00498914 0.225616 
-0.00498914 9.82764 -0.0418965 
0.225616 -0.0418965 10.0288 
9.87803 -0.0296376 0.197592 
-0.0296376 9.80736 -0.0312692 
0.197592 -0.0312692 9.99103 
9.87874 -0.00840089 0.232893 
-0.00840089 9.84449 0.0346603 
0.232893 0.0346603 9.9532 
12.6861 0.718346 -0.0483202 
0.718346 13.2424 0.285583 
-0.0483202 0.285583 8.86447 
10.0973 0.459321 -0.578516 
0.459321 11.4721 0.359441 
-0.578516 0.359441 13.2236 
8.62052 0.320143 -2.02319 
0.320143 9.91465 -0.29857 
-2.02319 -0.29857 16.2578 
8.56073 -0.507292 1.79905 
-0.507292 11.8088 0.700824 
1.79905 0.700824 14.4235 
9.33781 -0.0464413 0.352615 
-0.0464413 9.61665 -0.117103 
0.352615 -0.117103 9.93973 
9.30696 -0.136685 0.322959 
-0.136685 9.63227 -0.149564 
0.322959 -0.149564 9.95495 
9.32805 -0.15531 0.374303 
-0.15531 9.57288 -0.144196 
0.374303 -0.144196 9.99325 
9.19606 -0.321031 0.227319 
-0.321031 9.98199 -0.280645 
0.227319 -0.280645 9.71613 
8.73194 0.284062 -0.409794 
0.284062 8.0028 -2.0147 
-0.409794 -2.0147 8.41371 
8.81691 0.737508 1.38271 
0.737508 8.97346 -0.709677 
1.38271 -0.709677 7.35808 
10.7876 0.140093 0.538551 
0.140093 7.04568 0.681936 
0.538551 0.681936 7.31512 
7.21624 0.567801 0.332458 
0.567801 11.048 -1.28606 
0.332458 -1.28606 6.88419 
9.64402 0.0763323 -0.544237 
0.0763323 9.75769 -0.152269 
-0.544237 -0.152269 9.56203 
9.60286 -0.0206275 -0.444154 
-0.0206275 9.65079 -0.210716 
-0.444154 -0.210716 9.7101 
9.54591 0.00138688 -0.515808 
0.00138688 9.6766 -0.334817 
-0.515808 -0.334817 9.74124 
9.59864 -0.000340529 -0.47838 
-0.000340529 9.70118 -0.249434 
-0.47838 -0.249434 9.66394 
9.78958 -0.0196471 -0.127131 
-0.0196471 9.83772 -0.264982 
-0.127131 -0.264982 9.3746 
9.77121 0.0393953 -0.192043 
0.0393953 9.75747 -0.309734 
-0.192043 -0.309734 9.47322 
9.71877 0.0101752 -0.220308 
0.0101752 9.74539 -0.288421 
-0.220308 -0.288421 9.53773 
9.73962 0.0754502 -0.256515 
0.0754502 9.75575 -0.421096 
-0.256515 -0.421096 9.50652 
8.30115 0.260102 0.11919 
0.260102 10.1934 -0.305049 
0.11919 -0.305049 10.3515 
9.88946 -0.480455 0.0593738 
-0.480455 9.45823 0.102191 
0.0593738 0.102191 9.4984 
9.47607 -0.0613304 0.159138 
-0.0613304 9.87973 0.0201495 
0.159138 0.0201495 9.49028 
9.52718 0.0603137 0.742807 
0.0603137 9.56202 -0.0866616 
0.742807 -0.0866616 9.75688 
9.73353 -0.00709314 0.0165608 
-0.00709314 9.69285 0.0222934 
0.0165608 0.0222934 9.86484 
9.79876 -0.0673344 0.105051 
-0.0673344 9.73978 -0.0788037 
0.105051 -0.0788037 9.75268 
9.72484 -0.0312903 0.0603533 
-0.0312903 9.67564 -0.0401014 
0.0603533 -0.0401014 9.89073 
9.80601 -0.0646594 0.123681 
-0.0646594 9.68099 -0.0305915 
0.123681 -0.0305915 9.80422 
9.68774 -0.067613 0.40572 
-0.067613 9.50234 0.011823 
0.40572 0.011823 9.79644 
9.79904 -0.111753 0.416398 
-0.111753 9.52619 0.00413502 
0.416398 0.00413502 9.66129 
9.61649 -0.0933352 0.442761 
-0.0933352 9.58055 0.029162 
0.442761 0.029162 9.78948 
9.66175 -0.0589828 0.372841 
-0.0589828 9.47057 0.00411962 
0.372841 0.00411962 9.8542 
9.76626 -0.12411 -0.0533186 
-0.12411 9.38402 0.0922208 
-0.0533186 0.0922208 9.72686 
9.54091 -0.0959215 -0.0221161 
-0.0959215 9.42636 0.125967 
-0.0221161 0.125967 9.90986 
9.7073 -0.0919845 -0.0399235 
-0.0919845 9.51203 -0.0365746 
-0.0399235 -0.0365746 9.65781 
9.71963 -0.0137517 -0.104112 
-0.0137517 9.52432 0.00516834 
-0.104112 0.00516834 9.63318 
8.92033 -0.291295 0.34128 
-0.291295 9.19243 -0.0337143 
0.34128 -0.0337143 9.8105 
9.33886 -0.116195 0.650214 
-0.116195 9.46565 0.289685 
0.650214 0.289685 9.11875 
8.78494 -0.137186 0.188579 
-0.137186 9.42414 0.0960715 
0.188579 0.0960715 9.71418 
8.74509 -0.394442 0.703178 
-0.394442 9.02393 -0.521937 
0.703178 -0.521937 10.1542 
9.55426 0.00212202 0.188266 
0.00212202 8.80903 -0.426851 
0.188266 -0.426851 9.74898 
9.86245 0.259711 0.580295 
0.259711 8.74639 -0.743614 
0.580295 -0.743614 9.50343 
9.62622 -0.121941 0.13497 
-0.121941 8.90651 -0.440986 
0.13497 -0.440986 9.57954 
9.20752 -0.012961 0.292582 
-0.012961 9.46296 -0.130518 
0.292582 -0.130518 9.44179 
8.66447 0.568725 0.120462 
0.568725 9.9399 -0.07507 
0.120462 -0.07507 10.116 
9.58737 -0.615405 -0.862704 
-0.615405 9.49588 0.957287 
-0.862704 0.957287 9.63708 
8.49896 -0.0358354 0.295098 
-0.0358354 9.7238 -0.270498 
0.295098 -0.270498 10.4976 
8.58258 0.505315 -0.198901 
0.505315 9.77678 0.0809258 
-0.198901 0.0809258 10.361 
9.63349 0.0637981 -0.373674 
0.0637981 9.40814 0.148296 
-0.373674 0.148296 9.55482 
9.6663 -0.035145 -0.37105 
-0.035145 9.44626 0.0646934 
-0.37105 0.0646934 9.48389 
9.87479 0.167067 -0.44009 
0.167067 9.41416 -0.0174173 
-0.44009 -0.0174173 9.3075 
9.56266 -0.128855 -0.462307 
-0.128855 9.48992 -0.0183723 
-0.462307 -0.0183723 9.54387 
9.3623 0.0507399 -0.565428 
0.0507399 9.24521 0.235031 
-0.565428 0.235031 9.86212 
9.28197 -0.024104 -0.573504 
-0.024104 9.25755 0.291813 
-0.573504 0.291813 9.93011 
9.33372 0.0276365 -0.515854 
0.0276365 9.27105 0.285812 
-0.515854 0.285812 9.86485 
9.30169 -0.00430653 -0.572261 
-0.00430653 9.29253 0.300983 
-0.572261 0.300983 9.87542 
8.56645 0.118639 0.391943 
0.118639 8.63243 -0.54912 
0.391943 -0.54912 9.43773 
9.02001 0.0836476 0.389415 
0.0836476 9.24496 -0.366425 
0.389415 -0.366425 8.37164 
9.20331 0.14412 0.503993 
0.14412 9.35583 -0.898273 
0.503993 -0.898273 8.07747 
8.96443 -0.230174 0.250695 
-0.230174 9.0921 -0.547535 
0.250695 -0.547535 8.58008 
9.51936 0.00810123 -0.568674 
0.00810123 9.33427 0.18854 
-0.568674 0.18854 9.54413 
9.60479 0.0675309 -0.586702 
0.0675309 9.35717 0.165928 
-0.586702 0.165928 9.43579 
9.5876 0.0493925 -0.547577 
0.0493925 9.34641 0.05245 
-0.547577 0.05245 9.46375 
9.47217 0.00550381 -0.568824 
0.00550381 9.40526 0.171458 
-0.568824 0.171458 9.52032 
9.82222 0.0144009 0.207816 
0.0144009 9.86308 -0.0320385 
0.207816 -0.0320385 9.94809 
9.90506 -0.0233222 0.181976 
-0.0233222 9.7652 -0.0878916 
0.181976 -0.0878916 9.96313 
9.90631 -0.0116116 0.180633 
-0.0116116 9.80768 -0.0746402 
0.180633 -0.0746402 9.91939 
9.83598 0.0124928 0.18176 
0.0124928 9.91077 -0.172809 
0.18176 -0.172809 9.88664 
9.88461 -0.00851205 0.205163 
-0.00851205 9.84176 -0.0526736 
0.205163 -0.0526736 10.0067 
9.9192 -0.0101238 0.186062 
-0.0101238 9.84634 -0.0785967 
0.186062 -0.0785967 9.96759 
9.91194 0.00629353 0.172973 
0.00629353 9.88925 -0.0624099 
0.172973 -0.0624099 9.93194 
9.91045 -0.0108434 0.150736 
-0.0108434 9.87543 -0.0795962 
0.150736 -0.0795962 9.94724 
9.83104 -0.0307102 -0.0202587 
-0.0307102 9.81018 0.00184085 
-0.0202587 0.00184085 9.9338 
9.8863 0.0313817 -0.0204061 
0.0313817 9.81349 0.0116732 
-0.0204061 0.0116732 9.87524 
9.88651 0.0128755 -0.0317447 
0.0128755 9.81527 -0.00250606 
-0.0317447 -0.00250606 9.87325 
9.86328 -0.0104476 -0.00271088 
-0.0104476 9.82012 -0.0402121 
-0.00271088 -0.0402121 9.89162 
9.82321 -0.0190786 -0.442187 
-0.0190786 9.81826 0.168982 
-0.442187 0.168982 9.90981 
9.7966 0.0134268 -0.422882 
0.0134268 9.81933 0.17065 
-0.422882 0.17065 9.93534 
9.7998 0.0165906 -0.465231 
0.0165906 9.85235 0.171665 
-0.465231 0.171665 9.89912 
9.81905 -0.00300628 -0.446576 
-0.00300628 9.82018 0.180724 
-0.446576 0.180724 9.91204 
9.73412 0.0164539 0.196397 
0.0164539 9.72921 0.0762026 
0.196397 0.0762026 9.74962 
9.95772 0.0596093 0.211097 
0.0596093 9.81041 0.0195484 
0.211097 0.0195484 9.44481 
9.63425 0.0769662 0.298717 
0.0769662 9.75536 0.304071 
0.298717 0.304071 9.82332 
9.78711 0.0238331 0.231715 
0.0238331 9.7553 0.119259 
0.231715 0.119259 9.67053 
9.54562 -0.112509 -0.680182 
-0.112509 8.92398 -0.0705059 
-0.680182 -0.0705059 9.76616 
10.0283 -0.0165706 -0.495838 
-0.0165706 9.52322 -0.107522 
-0.495838 -0.107522 8.68423 
9.79729 0.131246 -0.802258 
0.131246 9.19175 -0.510664 
-0.802258 -0.510664 9.24673 
9.45366 -0.281991 -0.552744 
-0.281991 9.18611 -0.226866 
-0.552744 -0.226866 9.59599 
8.8449 -0.60998 -0.503995 
-0.60998 9.19528 -0.117078 
-0.503995 -0.117078 10.2729 
9.19132 -0.851627 -0.463932 
-0.851627 8.98262 -0.0328877 
-0.463932 -0.0328877 10.1391 
8.49961 -0.71261 -0.493274 
-0.71261 9.4752 0.00569494 
-0.493274 0.00569494 10.3383 
9.04366 -0.101054 -0.936144 
-0.101054 9.75729 0.16106 
-0.936144 0.16106 9.51213 
9.18493 0.238315 0.269038 
0.238315 9.21157 0.707176 
0.269038 0.707176 9.09805 
9.16259 -0.292858 0.367461 
-0.292858 9.01916 0.523262 
0.367461 0.523262 9.3128 
9.11957 0.0786609 0.268668 
0.0786609 9.23262 0.662139 
0.268668 0.662139 9.14236 
9.07073 0.175424 0.0646935 
0.175424 9.29377 0.488055 
0.0646935 0.488055 9.13005 
9.72206 -0.523416 0.815463 
-0.523416 9.66383 -0.0130277 
0.815463 -0.0130277 7.16718 
8.86188 -0.404701 0.554162 
-0.404701 8.49778 -0.848865 
0.554162 -0.848865 9.19341 
9.24678 0.183031 0.051622 
0.183031 9.38927 -0.188535 
0.051622 -0.188535 7.91701 
9.33097 0.152939 0.258467 
0.152939 9.29495 -0.377901 
0.258467 -0.377901 7.92715 
9.89056 -0.0195513 0.21032 
-0.0195513 9.77167 -0.0770337 
0.21032 -0.0770337 10.0332 
9.86501 -0.00857794 0.223428 
-0.00857794 9.77805 -0.00383049 
0.223428 -0.00383049 10.0524 
9.91032 -0.0154809 0.198451 
-0.0154809 9.75547 -0.0370561 
0.198451 -0.0370561 10.0297 
9.89667 0.0302945 0.225905 
0.0302945 9.79952 -0.100882 
0.225905 -0.100882 9.99928 
9.5462 -0.0522072 -0.377846 
-0.0522072 9.4203 -0.0258429 
-0.377846 -0.0258429 9.32828 
9.43347 0.0187801 -0.486937 
0.0187801 9.43244 -0.111915 
-0.486937 -0.111915 9.42886 
9.52284 -0.0660817 -0.370486 
-0.0660817 9.34594 0.0633878 
-0.370486 0.0633878 9.426 
9.63564 0.120289 -0.544437 
0.120289 9.48041 0.232477 
-0.544437 0.232477 9.17872 
9.76964 0.00267533 0.0916856 
0.00267533 9.81807 0.00703554 
0.0916856 0.00703554 9.94345 
9.83543 -0.0577196 0.0891989 
-0.0577196 9.74111 -0.0288183 
0.0891989 -0.0288183 9.95462 
9.8285 -0.018985 0.0905148 
-0.018985 9.78515 -0.00948274 
0.0905148 -0.00948274 9.91751 
9.77606 0.0403899 0.0541024 
0.0403899 9.86921 -0.119393 
0.0541024 -0.119393 9.88588 
9.19084 -0.0605108 0.262545 
-0.0605108 9.65805 -0.0937561 
0.262545 -0.0937561 9.60834 
9.37431 -0.300217 0.314705 
-0.300217 9.60191 -0.0586487 
0.314705 -0.0586487 9.48099 
9.15293 -0.0313127 0.307814 
-0.0313127 9.59945 -0.0889487 
0.307814 -0.0889487 9.70484 
9.39406 -0.0391365 0.150512 
-0.0391365 9.40309 0.101511 
0.150512 0.101511 9.66007 
9.89582 0.0395564 0.451558 
0.0395564 9.81551 0.0787913 
0.451558 0.0787913 9.78579 
9.83102 0.0132501 0.405758 
0.0132501 9.91545 0.0597818 
0.405758 0.0597818 9.75065 
9.77129 0.0129559 0.443873 
0.0129559 9.83715 0.0317885 
0.443873 0.0317885 9.88869 
9.82713 0.0269001 0.447414 
0.0269001 9.86302 0.0572902 
0.447414 0.0572902 9.80698 
9.92427 -0.0215862 -0.0348336 
-0.0215862 9.92301 -0.0105008 
-0.0348336 -0.0105008 9.9751 
9.88535 0.00310559 -0.0395398 
0.00310559 9.90018 -0.00748893 
-0.0395398 -0.00748893 10.0368 
9.96943 -0.0165008 -0.00863208 
-0.0165008 9.91717 -0.0274507 
-0.00863208 -0.0274507 9.93578 
9.97508 -0.000626036 -0.0399846 
-0.000626036 9.92168 -0.0237736 
-0.0399846 -0.0237736 9.92561 
9.59555 -0.0146813 0.21142 
-0.0146813 9.5911 -0.0183866 
0.21142 -0.0183866 9.51325 
9.59759 -0.0207536 0.225207 
-0.0207536 9.60209 -0.070182 
0.225207 -0.070182 9.50022 
9.65324 -0.0393808 0.304568 
-0.0393808 9.71638 0.173447 
0.304568 0.173447 9.33028 
9.47957 -0.0358525 0.302859 
-0.0358525 9.47788 -0.0503101 
0.302859 -0.0503101 9.74245 
9.14153 0.129967 -0.985918 
0.129967 9.411 0.268424 
-0.985918 0.268424 9.69123 
9.1645 0.04192 -1.08498 
0.04192 9.45144 0.287136 
-1.08498 0.287136 9.62782 
8.77356 0.211307 -0.897463 
0.211307 9.3721 0.313294 
-0.897463 0.313294 10.0981 
9.49871 0.157464 -0.870178 
0.157464 9.28755 0.0281613 
-0.870178 0.0281613 9.4575 
9.77596 -0.0159631 0.0137429 
-0.0159631 9.69012 0.040088 
0.0137429 0.040088 9.83674 
9.77914 -0.0101868 0.0218608 
-0.0101868 9.68987 0.0330859 
0.0218608 0.0330859 9.83381 
9.7957 0.0279205 0.0300284 
0.0279205 9.6933 0.0477076 
0.0300284 0.0477076 9.81381 
9.76283 0.00778628 0.0605223 
0.00778628 9.73861 -0.027112 
0.0605223 -0.027112 9.80138 
10.0111 -0.00698031 0.440875 
-0.00698031 9.06073 0.031849 
0.440875 0.031849 9.03284 
9.43499 -0.0864139 0.471889 
-0.0864139 9.27991 0.285389 
0.471889 0.285389 9.38981 
9.59866 0.0201558 0.243248 
0.0201558 9.14694 -0.119347 
0.243248 -0.119347 9.35911 
9.2338 -0.124889 0.588197 
-0.124889 9.32181 0.27265 
0.588197 0.27265 9.5491 
9.74931 -0.0247206 -0.244433 
-0.0247206 9.11593 -0.15194 
-0.244433 -0.15194 9.35483 
9.89269 -0.0404737 -0.216851 
-0.0404737 9.42454 -0.227093 
-0.216851 -0.227093 8.90284 
9.50148 0.0173126 -0.282631 
0.0173126 9.23606 0.10912 
-0.282631 0.10912 9.48253 
9.59349 0.00823748 -0.186131 
0.00823748 9.16157 -0.165342 
-0.186131 -0.165342 9.46501 
8.83289 -0.285307 -0.413811 
-0.285307 9.38872 -1.04726 
-0.413811 -1.04726 9.01665 
8.94974 -0.088802 -0.266861 
-0.088802 9.1574 -1.08639 
-0.266861 -1.08639 9.13112 
8.99992 0.0518985 -0.221457 
0.0518985 9.14216 -0.849126 
-0.221457 -0.849126 9.09619 
9.4808 -0.197358 -0.203712 
-0.197358 8.76071 -1.09373 
-0.203712 -1.09373 8.99675 
9.09618 1.19372 0.684545 
1.19372 9.38865 -2.08849 
0.684545 -2.08849 9.58231 
8.29512 -0.579733 -0.903064 
-0.579733 9.9481 0.300838 
-0.903064 0.300838 9.82391 
10.0065 -0.681499 -1.94774 
-0.681499 8.86834 1.02883 
-1.94774 1.02883 9.19233 
8.32777 0.620751 -2.30868 
0.620751 10.9866 -1.29111 
-2.30868 -1.29111 8.75277 
9.45238 0.71346 -0.466407 
0.71346 10.1184 0.122468 
-0.466407 0.122468 11.9676 
10.8161 0.235587 -0.797017 
0.235587 9.49247 0.285573 
-0.797017 0.285573 11.2298 
9.55295 0.617655 -0.536045 
0.617655 9.9334 0.0687713 
-0.536045 0.0687713 12.052 
9.75887 0.478963 -0.339347 
0.478963 9.96935 0.229143 
-0.339347 0.229143 11.8102 
9.71345 -0.154855 -0.0684645 
-0.154855 9.43802 0.0711455 
-0.0684645 0.0711455 9.54012 
9.75267 -0.149531 -0.0750342 
-0.149531 9.36322 0.0393236 
-0.0750342 0.0393236 9.5757 
9.72365 -0.192749 -0.206619 
-0.192749 9.31673 -0.0358255 
-0.206619 -0.0358255 9.65122 
9.59677 -0.161675 -0.0606603 
-0.161675 9.46364 -0.00736822 
-0.0606603 -0.00736822 9.63119 
9.49391 -0.0978386 0.259803 
-0.0978386 9.56347 0.146608 
0.259803 0.146608 9.52024 
9.55977 -0.0343588 0.19466 
-0.0343588 9.49996 0.193191 
0.19466 0.193191 9.51789 
9.50821 -0.0137581 0.130189 
-0.0137581 9.33588 0.118566 
0.130189 0.118566 9.73353 
9.72088 -0.106178 0.159065 
-0.106178 9.23488 0.390903 
0.159065 0.390903 9.62186 
11.5132 -0.563966 -0.0151455 
-0.563966 4.49005 0.237156 
-0.0151455 0.237156 7.8455 
5.15026 -0.32249 0.0422955 
-0.32249 7.50792 -0.131049 
0.0422955 -0.131049 11.1905 
6.25639 1.26567 1.79727 
1.26567 7.00271 -5.02438 
1.79727 -5.02438 10.5896 
9.41884 0.806226 -0.345829 
0.806226 8.20789 -1.70225 
-0.345829 -1.70225 6.22198 
9.70565 -0.0291272 0.0536299 
-0.0291272 9.70256 -0.0349355 
0.0536299 -0.0349355 9.78403 
9.75039 0.0248927 0.0814906 
0.0248927 9.66571 0.00950367 
0.0814906 0.00950367 9.77614 
9.72489 -0.00354612 0.0697332 
-0.00354612 9.66602 0.000693945 
0.0697332 0.000693945 9.80132 
9.7899 -0.0240177 0.0333714 
-0.0240177 9.67402 0.0728616 
0.0333714 0.0728616 9.72831 
9.67131 0.013765 -0.0555917 
0.013765 9.74822 -0.20509 
-0.0555917 -0.20509 9.57676 
9.68226 -0.00498929 -0.151877 
-0.00498929 9.75207 -0.195076 
-0.151877 -0.195076 9.56196 
9.71447 0.0267721 -0.0375827 
0.0267721 9.74237 -0.256397 
-0.0375827 -0.256397 9.53945 
9.58207 -0.00270699 -0.0408407 
-0.00270699 9.94707 -0.159626 
-0.0408407 -0.159626 9.46715 
9.76946 0.0583601 0.179537 
0.0583601 9.89018 -0.0141971 
0.179537 -0.0141971 9.50355 
9.73361 -0.000444358 0.187253 
-0.000444358 9.91458 0.105291 
0.187253 0.105291 9.515 
9.77474 0.0705403 0.174312 
0.0705403 9.88976 0.0515496 
0.174312 0.0515496 9.4987 
9.87917 -0.0104173 0.179285 
-0.0104173 9.75994 0.141376 
0.179285 0.141376 9.52409 
9.68183 -0.100272 -0.0292667 
-0.100272 9.62787 0.0894531 
-0.0292667 0.0894531 9.59261 
9.564 -0.0975372 -0.0756808 
-0.0975372 9.65111 0.0481094 
-0.0756808 0.0481094 9.68719 
9.25033 0.113322 -0.235811 
0.113322 9.7995 0.0296883 
-0.235811 0.0296883 9.85248 
9.3575 -0.125605 0.0556215 
-0.125605 9.62228 0.0176064 
0.0556215 0.0176064 9.92252 
9.83172 0.00955939 0.241564 
0.00955939 9.69862 -0.0215616 
0.241564 -0.0215616 10.0621 
9.83921 -0.0235188 0.189559 
-0.0235188 9.79688 -0.132115 
0.189559 -0.132115 9.95633 
9.83762 -0.0691235 0.190931 
-0.0691235 9.68505 -0.0862755 
0.190931 -0.0862755 10.0698 
9.8356 -0.0238193 0.191041 
-0.0238193 9.7004 -0.0704116 
0.191041 -0.0704116 10.0564 
9.57777 -0.022732 0.377032 
-0.022732 9.44874 -0.0998126 
0.377032 -0.0998126 9.77028 
9.451 -0.0936619 0.361133 
-0.0936619 9.48632 -0.0680691 
0.361133 -0.0680691 9.85947 
9.55541 -0.0603286 0.32136 
-0.0603286 9.39211 -0.0742215 
0.32136 -0.0742215 9.84927 
9.77287 -0.123001 0.100593 
-0.123001 9.27171 -0.0395733 
0.100593 -0.0395733 9.75221 
9.76766 0.00552224 0.219138 
0.00552224 9.45088 -0.258697 
0.219138 -0.258697 9.566 
9.45192 -0.0636354 0.089388 
-0.0636354 9.30744 0.0183719 
0.089388 0.0183719 10.0252 
9.63797 0.0526554 0.283473 
0.0526554 9.52806 -0.13096 
0.283473 -0.13096 9.6185 
9.56552 0.00680369 0.217605 
0.00680369 9.5804 -0.152012 
0.217605 -0.152012 9.63862 
8.90442 -0.0490121 0.265455 
-0.0490121 9.20096 -0.121964 
0.265455 -0.121964 10.3872 
9.07909 -0.054544 0.229794 
-0.054544 9.32768 -0.1282 
0.229794 -0.1282 10.0858 
9.30639 -0.178248 0.2141 
-0.178248 8.94649 -0.143133 
0.2141 -0.143133 10.2397 
9.1883 -0.37045 0.429038 
-0.37045 9.00466 -0.068368 
0.429038 -0.068368 10.2996 
7.74422 0.677257 0.477017 
0.677257 9.41371 0.0663194 
0.477017 0.0663194 9.70664 
8.1827 0.63268 -0.0412267 
0.63268 9.62947 0.0062203 
-0.0412267 0.0062203 9.0524 
7.47759 0.653563 0.363228 
0.653563 9.06759 0.219115 
0.363228 0.219115 10.3194 
7.38998 0.601882 0.260089 
0.601882 9.38696 0.270869 
0.260089 0.270869 10.0876 
9.24739 -0.0860041 -0.0600542 
-0.0860041 9.64001 0.0924983 
-0.0600542 0.0924983 9.90282 
9.63322 -0.032909 -0.358121 
-0.032909 9.27119 0.198997 
-0.358121 0.198997 9.88581 
8.96019 0.186498 -0.224335 
0.186498 9.56613 -0.0285228 
-0.224335 -0.0285228 10.2639 
9.22086 0.0126855 -0.196981 
0.0126855 9.45921 0.0821046 
-0.196981 0.0821046 10.1102 
9.568 0.0988782 0.0444361 
0.0988782 9.39165 0.208429 
0.0444361 0.208429 9.81177 
9.53699 -0.0508456 0.125635 
-0.0508456 9.36147 0.122545 
0.125635 0.122545 9.87296 
9.56622 0.0910998 0.0814639 
0.0910998 9.46181 0.217041 
0.0814639 0.217041 9.74339 
9.65561 -0.0594732 0.178685 
-0.0594732 9.31186 0.361817 
0.178685 0.361817 9.80396 
9.39451 0.0735688 -0.555808 
0.0735688 9.26763 0.167966 
-0.555808 0.167966 9.91041 
9.77835 0.158991 -0.839756 
0.158991 9.55242 0.591988 
-0.839756 0.591988 9.24179 
9.92328 -0.0756158 -0.43138 
-0.0756158 10.0083 -0.113065 
-0.43138 -0.113065 8.64093 
9.59943 0.00922365 -0.654518 
0.00922365 9.77556 0.138763 
-0.654518 0.138763 9.19757 
9.32054 -0.0375647 0.125162 
-0.0375647 9.70214 -0.679284 
0.125162 -0.679284 9.22858 
9.44433 -0.125397 0.143965 
-0.125397 9.48702 -0.516214 
0.143965 -0.516214 9.31991 
9.43579 0.0556323 -0.105925 
0.0556323 9.47853 -0.587222 
-0.105925 -0.587222 9.33693 
9.36102 0.00570944 -0.0479602 
0.00570944 9.61097 -0.562162 
-0.0479602 -0.562162 9.27926 
9.73693 0.00584836 -0.495518 
0.00584836 9.81013 -0.212578 
-0.495518 -0.212578 9.75313 
9.74871 0.0135629 -0.518379 
0.0135629 9.81232 -0.225785 
-0.518379 -0.225785 9.73917 
9.71515 -0.00397887 -0.484896 
-0.00397887 9.8092 -0.20618 
-0.484896 -0.20618 9.77584 
9.72961 0.00721797 -0.519274 
0.00721797 9.81233 -0.216025 
-0.519274 -0.216025 9.75825 
8.97354 0.142674 0.35335 
0.142674 9.35038 0.564978 
0.35335 0.564978 9.64199 
9.0249 0.0284582 0.444811 
0.0284582 9.40677 0.522921 
0.444811 0.522921 9.53424 
8.84353 0.13393 0.433665 
0.13393 9.38467 0.56209 
0.433665 0.56209 9.73772 
8.83885 0.266073 0.324469 
0.266073 9.54639 0.721349 
0.324469 0.721349 9.58068 
9.42191 -0.152162 -0.60338 
-0.152162 9.23734 0.19496 
-0.60338 0.19496 9.55563 
9.50483 -0.152303 -0.543508 
-0.152303 9.34234 0.217713 
-0.543508 0.217713 9.36771 
9.21998 -0.0222547 -0.671462 
-0.0222547 9.48795 -0.129007 
-0.671462 -0.129007 9.50696 
9.36242 0.0347055 -0.472192 
0.0347055 9.33916 0.112295 
-0.472192 0.112295 9.51331 
9.42958 -0.0928026 0.145996 
-0.0928026 9.41226 0.0934146 
0.145996 0.0934146 9.64487 
9.48438 0.0497927 0.0421773 
0.0497927 9.21989 0.0687821 
0.0421773 0.0687821 9.78242 
9.51503 0.0319625 0.0587013 
0.0319625 9.34255 0.0716753 
0.0587013 0.0716753 9.62912 
9.27019 0.0980836 0.0353544 
0.0980836 9.45822 0.244389 
0.0353544 0.244389 9.75828 
9.35681 0.123599 0.319817 
0.123599 9.50757 0.624887 
0.319817 0.624887 9.29247 
9.47391 0.0343511 0.18821 
0.0343511 9.42823 0.668242 
0.18821 0.668242 9.25472 
9.40531 0.0841588 0.38969 
0.0841588 9.35835 0.423604 
0.38969 0.423604 9.39319 
9.40389 0.11655 0.0498244 
0.11655 9.60501 0.553394 
0.0498244 0.553394 9.14795 
9.61024 -0.185791 0.323834 
-0.185791 9.11653 0.0015866 
0.323834 0.0015866 9.25818 
9.6051 0.111314 0.328123 
0.111314 9.21051 0.0712853 
0.328123 0.0712853 9.16934 
9.73815 -0.0281442 0.0144686 
-0.0281442 9.12708 -0.0737286 
0.0144686 -0.0737286 9.11972 
9.62768 -0.0162242 0.257386 
-0.0162242 9.17964 -0.00124067 
0.257386 -0.00124067 9.17763 
7.9871 0.524926 0.39719 
0.524926 7.65934 -1.44442 
0.39719 -1.44442 7.94852 
7.1685 -0.0917567 -1.22301 
-0.0917567 11.183 -1.35353 
-1.22301 -1.35353 5.24348 
7.74251 0.858651 0.150208 
0.858651 5.24013 -0.754116 
0.150208 -0.754116 10.6123 
8.7995 0.0354274 1.7277 
0.0354274 6.46923 -3.42148 
1.7277 -3.42148 8.32622 
9.75613 -0.0056681 0.128234 
-0.0056681 9.72051 0.0455362 
0.128234 0.0455362 9.9871 
9.76697 -9.14804e-05 0.162533 
-9.14804e-05 9.68013 0.0319052 
0.162533 0.0319052 10.0166 
9.82536 -0.0320537 0.191831 
-0.0320537 9.68196 0.00367731 
0.191831 0.00367731 9.95642 
9.86691 -0.0404313 0.210785 
-0.0404313 9.70875 -0.103254 
0.210785 -0.103254 9.88808 
9.10408 -0.280831 -0.880742 
-0.280831 9.53395 -0.131742 
-0.880742 -0.131742 9.77124 
9.27047 0.197318 -0.944241 
0.197318 9.54404 0.11912 
-0.944241 0.11912 9.59476 
9.43506 0.13053 -0.677425 
0.13053 9.36365 0.162548 
-0.677425 0.162548 9.61056 
9.29329 -0.137102 -0.817964 
-0.137102 9.57082 -0.00855211 
-0.817964 -0.00855211 9.54516 
9.58423 -0.0776874 0.363585 
-0.0776874 9.616 -0.0714425 
0.363585 -0.0714425 9.8744 
9.71799 -0.113571 0.384852 
-0.113571 9.52653 0.0741765 
0.384852 0.0741765 9.8301 
9.6554 -0.0672072 0.376694 
-0.0672072 9.60597 0.002446 
0.376694 0.002446 9.81326 
9.66663 -0.0471949 0.378894 
-0.0471949 9.60655 0.00140424 
0.378894 0.00140424 9.80144 
9.42334 0.0325215 0.145148 
0.0325215 9.53758 0.569617 
0.145148 0.569617 9.28213 
9.43321 -0.101676 0.106117 
-0.101676 9.66701 0.559306 
0.106117 0.559306 9.14281 
9.39875 0.0598488 0.0269218 
0.0598488 9.5355 0.602154 
0.0269218 0.602154 9.30879 
9.39682 0.117782 0.187577 
0.117782 9.47019 0.467424 
0.187577 0.467424 9.37602 
9.63137 -0.37501 -0.261423 
-0.37501 9.82041 -0.056005 
-0.261423 -0.056005 10.169 
9.73895 -0.0750079 0.216828 
-0.0750079 9.85662 -0.118523 
0.216828 -0.118523 10.0252 
9.56656 -0.120081 0.0703963 
-0.120081 9.83392 -0.0863912 
0.0703963 -0.0863912 10.2203 
9.4133 -0.112626 0.136998 
-0.112626 9.88434 -0.0198612 
0.136998 -0.0198612 10.3232 
9.17303 -0.189993 0.482221 
-0.189993 8.90725 0.419764 
0.482221 0.419764 8.04506 
9.22991 -0.203791 0.474104 
-0.203791 8.79079 0.41646 
0.474104 0.41646 8.10463 
9.36394 -0.35635 0.553515 
-0.35635 8.93394 0.443857 
0.553515 0.443857 7.82746 
9.73047 -0.199604 0.0807623 
-0.199604 8.62568 0.337127 
0.0807623 0.337127 7.76918 
9.77764 0.00672116 0.0582579 
0.00672116 9.8616 0.379439 
0.0582579 0.379439 9.56619 
9.71985 -0.00944789 0.0602692 
-0.00944789 9.89025 0.352838 
0.0602692 0.352838 9.59533 
9.73419 0.0455768 0.0754681 
0.0455768 9.7908 0.374824 
0.0754681 0.374824 9.68043 
9.73445 -0.013971 0.133203 
-0.013971 9.80039 0.331256 
0.133203 0.331256 9.67058 
9.60838 -0.170101 0.280602 
-0.170101 9.42042 0.00937332 
0.280602 0.00937332 9.74184 
9.59707 -0.108243 0.39059 
-0.108243 9.17659 0.0861236 
0.39059 0.0861236 9.99697 
9.49611 -0.0325531 -0.044276 
-0.0325531 9.40669 0.136673 
-0.044276 0.136673 9.86784 
9.64668 -0.0531325 0.291949 
-0.0531325 9.53266 -0.0261379 
0.291949 -0.0261379 9.59129 
9.48716 -0.0396486 0.19202 
-0.0396486 9.3711 -0.112102 
0.19202 -0.112102 9.95137 
9.36377 -0.0357259 0.132909 
-0.0357259 9.38978 -0.09632 
0.132909 -0.09632 10.0561 
9.50882 -0.132579 0.0573263 
-0.132579 9.3731 -0.103734 
0.0573263 -0.103734 9.92772 
9.43505 -0.108868 0.119793 
-0.108868 9.39065 -0.117661 
0.119793 -0.117661 9.98394 
9.74193 0.0476341 0.263236 
0.0476341 9.78918 -0.363901 
0.263236 -0.363901 9.75751 
9.85482 0.0335519 0.286608 
0.0335519 9.86416 -0.519028 
0.286608 -0.519028 9.56964 
9.75911 0.00373975 0.275614 
0.00373975 9.82605 -0.545164 
0.275614 -0.545164 9.70346 
9.79286 -0.000658392 0.245141 
-0.000658392 9.79926 -0.546936 
0.245141 -0.546936 9.69651 
9.57774 -0.0574346 0.152808 
-0.0574346 9.42913 -0.0416218 
0.152808 -0.0416218 9.83076 
9.47581 -0.0469404 0.021679 
-0.0469404 9.49209 -0.131021 
0.021679 -0.131021 9.86973 
9.53621 -0.0410015 0.0892813 
-0.0410015 9.39499 -0.0519624 
0.0892813 -0.0519624 9.90643 
9.45893 -0.116988 0.147663 
-0.116988 9.47085 -0.159551 
0.147663 -0.159551 9.90785 
9.4563 -0.0643191 -0.394891 
-0.0643191 9.45711 0.220815 
-0.394891 0.220815 9.59252 
9.37306 -0.0614156 -0.432901 
-0.0614156 9.47288 0.200923 
-0.432901 0.200923 9.66 
9.41071 -0.0558045 -0.428841 
-0.0558045 9.4559 0.205778 
-0.428841 0.205778 9.63932 
9.36839 -0.0477698 -0.445459 
-0.0477698 9.46998 0.147646 
-0.445459 0.147646 9.66757 
9.4023 0.126287 -0.0770738 
0.126287 9.36501 0.341593 
-0.0770738 0.341593 9.75324 
9.19238 0.0422494 -0.301697 
0.0422494 9.61085 0.0144644 
-0.301697 0.0144644 9.71731 
9.35984 -0.0408694 -0.286195 
-0.0408694 9.54108 0.0290799 
-0.286195 0.0290799 9.61962 
9.1882 -0.198967 -0.190937 
-0.198967 9.4687 0.195198 
-0.190937 0.195198 9.86365 
9.15652 -0.012205 -0.427288 
-0.012205 9.45249 0.0140662 
-0.427288 0.0140662 9.9916 
9.30474 0.073228 -0.34793 
0.073228 9.4754 0.009926 
-0.34793 0.009926 9.82047 
9.30015 0.0305653 -0.417523 
0.0305653 9.37133 -0.0650294 
-0.417523 -0.0650294 9.92914 
9.62161 -0.0045504 -0.630966 
-0.0045504 9.22341 -0.0425121 
-0.630966 -0.0425121 9.7556 
8.93879 -0.154737 0.0828727 
-0.154737 9.25925 -0.805168 
0.0828727 -0.805168 8.81856 
8.86673 -0.0664381 0.0517337 
-0.0664381 9.36368 -0.733988 
0.0517337 -0.733988 8.78621 
8.81058 -0.0887009 -0.372043 
-0.0887009 9.56351 -0.703544 
-0.372043 -0.703544 8.64252 
8.64901 0.062261 0.228347 
0.062261 8.9202 -0.6501 
0.228347 -0.6501 9.44741 
9.08681 0.194032 0.226037 
0.194032 9.31322 -0.356603 
0.226037 -0.356603 9.29085 
9.51303 0.247467 0.581573 
0.247467 9.72774 -0.274695 
0.581573 -0.274695 8.4501 
9.53388 0.0220088 0.282947 
0.0220088 9.32796 -0.0777336 
0.282947 -0.0777336 8.82903 
9.60673 0.0388602 0.381126 
0.0388602 9.22774 0.0156154 
0.381126 0.0156154 8.8564 
5.6174 1.03948 -5.46673 
1.03948 11.8409 1.11709 
-5.46673 1.11709 9.76344 
10.9001 -0.197759 -1.62669 
-0.197759 8.31971 0.385211 
-1.62669 0.385211 8.00186 
7.61923 0.141406 -0.603717 
0.141406 8.61778 0.464332 
-0.603717 0.464332 10.9847 
9.61269 0.135481 -1.82162 
0.135481 10.0801 -1.14385 
-1.82162 -1.14385 7.52889 
6.71989 1.11616 1.105 
1.11616 9.31176 -0.37056 
1.105 -0.37056 7.11186 
8.60146 -0.648199 -1.09733 
-0.648199 8.44774 -0.580375 
-1.09733 -0.580375 6.09432 
10.9622 -0.263542 0.430514 
-0.263542 7.78799 -0.919022 
0.430514 -0.919022 4.39332 
8.77735 0.0662963 0.0423756 
0.0662963 8.28447 -0.755372 
0.0423756 -0.755372 6.08169 
8.35627 0.735438 0.351903 
0.735438 10.4314 0.656142 
0.351903 0.656142 10.9129 
8.605 1.02584 -2.26116 
1.02584 9.56358 -0.959796 
-2.26116 -0.959796 11.5319 
9.1327 -0.149743 -0.839577 
-0.149743 9.98636 1.36654 
-0.839577 1.36654 10.5815 
9.97306 0.39631 -1.85235 
0.39631 9.21486 -1.37029 
-1.85235 -1.37029 10.5126 
8.79992 -0.00783605 0.12751 
-0.00783605 9.14382 -0.783593 
0.12751 -0.783593 9.11039 
8.90218 0.0767214 -0.177177 
0.0767214 9.25296 -0.729696 
-0.177177 -0.729696 8.899 
8.83562 0.0799953 0.0510946 
0.0799953 9.11304 -0.77395 
0.0510946 -0.77395 9.10547 
8.75414 0.125659 0.190838 
0.125659 9.04625 -0.740668 
0.190838 -0.740668 9.25375 
9.38971 -0.175403 0.300116 
-0.175403 9.42647 -0.0383082 
0.300116 -0.0383082 9.96823 
9.32833 -0.352216 0.181683 
-0.352216 9.43469 -0.0262157 
0.181683 -0.0262157 10.0214 
9.47482 -0.261365 0.356182 
-0.261365 9.40768 0.119203 
0.356182 0.119203 9.9019 
9.48223 -0.0312955 0.238057 
-0.0312955 9.39333 0.045369 
0.238057 0.045369 9.90886 
8.65842 -0.0311457 -0.319173 
-0.0311457 9.40053 -1.05218 
-0.319173 -1.05218 9.25052 
8.87008 0.0264062 0.0923314 
0.0264062 9.12744 -0.625054 
0.0923314 -0.625054 9.31194 
8.9673 0.0629629 0.153098 
0.0629629 8.85757 0.138027 
0.153098 0.138027 9.4846 
8.2615 -0.425147 0.316876 
-0.425147 8.90495 -0.398904 
0.316876 -0.398904 10.143 
9.60455 0.0274098 -0.417786 
0.0274098 9.58216 0.0538716 
-0.417786 0.0538716 9.71147 
9.58003 0.0165025 -0.477477 
0.0165025 9.55913 0.105484 
-0.477477 0.105484 9.75902 
9.59236 -0.0116204 -0.394829 
-0.0116204 9.56272 0.0673027 
-0.394829 0.0673027 9.7431 
9.56729 0.0144328 -0.476324 
0.0144328 9.59104 0.0951994 
-0.476324 0.0951994 9.73985 
9.96979 0.0480681 -0.0667952 
0.0480681 9.82987 0.0808431 
-0.0667952 0.0808431 10.0338 
9.97844 -0.0133873 -0.128751 
-0.0133873 10.0022 0.0144104 
-0.128751 0.0144104 9.85275 
9.92184 0.00940136 -0.0902308 
0.00940136 9.88001 0.0519464 
-0.0902308 0.0519464 10.0316 
10.0042 -0.0475162 -0.0642937 
-0.0475162 9.86763 0.000864118 
-0.0642937 0.000864118 9.96162 
9.6258 -0.137172 0.190605 
-0.137172 9.48475 0.229548 
0.190605 0.229548 9.66495 
9.60835 -0.0634219 0.346238 
-0.0634219 9.35507 0.0778946 
0.346238 0.0778946 9.81208 
9.77244 -0.00395486 0.262457 
-0.00395486 9.18347 0.0829134 
0.262457 0.0829134 9.81958 
9.49699 -0.162636 0.346864 
-0.162636 9.40685 -0.039314 
0.346864 -0.039314 9.87166 
9.72231 0.00941889 -0.453497 
0.00941889 9.59817 0.00792126 
-0.453497 0.00792126 9.61899 
9.61356 0.00748555 -0.360492 
0.00748555 9.46039 0.0973386 
-0.360492 0.0973386 9.86553 
9.67405 0.0173961 -0.476665 
0.0173961 9.5848 0.0224116 
-0.476665 0.0224116 9.68062 
9.66913 -0.0605806 -0.568716 
-0.0605806 9.6177 0.0177002 
-0.568716 0.0177002 9.65265 
9.72978 0.199111 0.27207 
0.199111 11.2893 0.316226 
0.27207 0.316226 13.0607 
7.57811 0.209002 -0.155478 
0.209002 9.99283 0.0788908 
-0.155478 0.0788908 16.5089 
10.2519 0.0658836 -0.0159866 
0.0658836 9.76596 0.168972 
-0.0159866 0.168972 14.062 
9.20958 0.300487 0.545031 
0.300487 11.8568 -0.24843 
0.545031 -0.24843 13.0134 
11.1764 -1.38703 0.422853 
-1.38703 10.2891 0.266466 
0.422853 0.266466 12.7638 
10.0406 -0.740588 0.220375 
-0.740588 12.0708 0.146025 
0.220375 0.146025 12.1178 
11.714 0.484925 0.37762 
0.484925 10.1583 0.0883642 
0.37762 0.0883642 12.357 
11.2397 -0.593409 0.493589 
-0.593409 10.8947 0.442426 
0.493589 0.442426 12.0948 
8.77563 -0.0716082 0.151609 
-0.0716082 9.90878 -0.165187 
0.151609 -0.165187 7.46924 
8.69671 0.17708 0.782654 
0.17708 8.21432 0.42732 
0.782654 0.42732 9.24261 
9.95173 0.0824352 0.910698 
0.0824352 9.71358 -0.505038 
0.910698 -0.505038 6.48834 
9.06774 -0.363926 0.203929 
-0.363926 9.45282 0.291996 
0.203929 0.291996 7.63308 
9.16324 0.0328755 0.34488 
0.0328755 8.4284 0.654082 
0.34488 0.654082 9.383 
9.18645 -0.119383 0.328934 
-0.119383 8.45044 0.817827 
0.328934 0.817827 9.33776 
8.58193 0.445324 0.139805 
0.445324 9.40644 0.36734 
0.139805 0.36734 8.98628 
9.09508 0.564473 -0.0654136 
0.564473 8.73641 0.891006 
-0.0654136 0.891006 9.14316 
9.01215 -0.526572 0.457617 
-0.526572 8.91453 -0.892595 
0.457617 -0.892595 8.55515 
8.32102 -0.0625786 0.916521 
-0.0625786 9.81105 -0.134394 
0.916521 -0.134394 8.34976 
8.3504 0.371006 0.316608 
0.371006 9.10716 -0.343311 
0.316608 -0.343311 9.02427 
8.05007 -0.620222 0.61695 
-0.620222 10.3523 0.0496452 
0.61695 0.0496452 8.07948 
8.10089 -0.532046 1.30927 
-0.532046 7.41475 0.350812 
1.30927 0.350812 5.932 
8.46572 -0.411805 1.39453 
-0.411805 8.24713 0.841941 
1.39453 0.841941 4.73479 
8.27628 -0.409689 1.89015 
-0.409689 8.92753 0.564962 
1.89015 0.564962 4.24383 
8.41348 -0.710236 1.26469 
-0.710236 7.92278 0.0333395 
1.26469 0.0333395 5.11139 
9.59326 -0.0265568 -0.46263 
-0.0265568 9.39533 0.063576 
-0.46263 0.063576 9.59519 
9.5807 0.0546943 -0.486458 
0.0546943 9.43322 -0.029421 
-0.486458 -0.029421 9.56986 
9.58061 0.0199742 -0.496133 
0.0199742 9.41493 0.012183 
-0.496133 0.012183 9.58825 
9.5986 -0.026129 -0.502445 
-0.026129 9.40159 -0.000525148 
-0.502445 -0.000525148 9.58359 
9.31246 -0.154968 0.111378 
-0.154968 9.11643 -0.193108 
0.111378 -0.193108 10.0984 
9.19871 -0.188757 0.148236 
-0.188757 9.06788 -0.184903 
0.148236 -0.184903 10.2606 
9.11715 -0.0433629 0.1922 
-0.0433629 9.29273 -0.273507 
0.1922 -0.273507 10.1174 
9.07181 -0.126574 0.239185 
-0.126574 9.27106 -0.156169 
0.239185 -0.156169 10.1844 
9.82819 -0.0273659 0.0351074 
-0.0273659 9.80717 -0.046546 
0.0351074 -0.046546 9.85781 
9.83222 0.0162041 0.0309303 
0.0162041 9.81084 -0.0283503 
0.0309303 -0.0283503 9.8501 
9.83415 0.00456175 0.00967362 
0.00456175 9.80929 -0.0346543 
0.00967362 -0.0346543 9.84974 
9.83456 -0.0294333 -0.0323248 
-0.0294333 9.83671 0.00548005 
-0.0323248 0.00548005 9.8219 
9.60823 -0.115891 -0.000864704 
-0.115891 9.532 0.0434512 
-0.000864704 0.0434512 9.30706 
9.69338 -0.127575 -0.152589 
-0.127575 9.4405 0.0471044 
-0.152589 0.0471044 9.31341 
9.41589 0.147351 -0.13104 
0.147351 9.59356 0.19263 
-0.13104 0.19263 9.43783 
9.67336 0.145695 -0.329762 
0.145695 9.73164 -0.0952408 
-0.329762 -0.0952408 9.04229 
9.02958 -0.0436195 0.296486 
-0.0436195 9.03623 0.0580799 
0.296486 0.0580799 9.55827 
9.13316 -0.108175 0.160292 
-0.108175 9.0279 0.132354 
0.160292 0.132354 9.46301 
8.96145 0.00937028 0.37909 
0.00937028 9.1064 0.162347 
0.37909 0.162347 9.55622 
9.05471 0.151695 0.188207 
0.151695 9.05832 0.0176322 
0.188207 0.0176322 9.51104 
8.76086 -0.01748 -0.668189 
-0.01748 8.80606 -0.575076 
-0.668189 -0.575076 9.6015 
9.46808 -0.0221092 -0.710867 
-0.0221092 9.71922 -0.646055 
-0.710867 -0.646055 7.98111 
9.02096 0.0184028 -0.467355 
0.0184028 9.49911 -0.102334 
-0.467355 -0.102334 8.64834 
9.08463 0.0971069 -0.259558 
0.0971069 9.36296 -0.326407 
-0.259558 -0.326407 8.72083 
9.3789 0.0345125 0.15622 
0.0345125 9.69935 0.606178 
0.15622 0.606178 9.13979 
9.36421 -0.0236089 0.232572 
-0.0236089 9.72965 0.565798 
0.232572 0.565798 9.12417 
9.46648 -0.00712741 0.171769 
-0.00712741 9.56283 0.625565 
0.171769 0.625565 9.18872 
9.63074 -0.0387523 0.188428 
-0.0387523 9.57453 0.583982 
0.188428 0.583982 9.01277 
9.89784 -0.0190795 -0.0447997 
-0.0190795 9.80025 -0.00613675 
-0.0447997 -0.00613675 9.89912 
9.90453 -0.0274497 -0.0155668 
-0.0274497 9.76151 0.000812959 
-0.0155668 0.000812959 9.93117 
9.86574 0.013082 -0.0413571 
0.013082 9.78723 0.0362475 
-0.0413571 0.0362475 9.94424 
9.85871 0.054262 -0.0106821 
0.054262 9.82268 0.136894 
-0.0106821 0.136894 9.91582 
9.94555 -0.0368434 -0.205819 
-0.0368434 9.79815 0.0679477 
-0.205819 0.0679477 9.88381 
9.9101 0.00609623 -0.243572 
0.00609623 9.8408 0.0785123 
-0.243572 0.0785123 9.87661 
9.83455 0.0150271 -0.213386 
0.0150271 9.83838 0.0331155 
-0.213386 0.0331155 9.95458 
9.90027 0.000105104 -0.229413 
0.000105104 9.84369 0.0382763 
-0.229413 0.0382763 9.88355 
9.99564 -0.668838 1.36449 
-0.668838 10.4296 -0.624293 
1.36449 -0.624293 12.6375 
9.29777 -0.411776 -0.880732 
-0.411776 11.5956 0.41113 
-0.880732 0.41113 12.1693 
12.3232 0.054176 0.132696 
0.054176 8.85385 0.263046 
0.132696 0.263046 11.8857 
11.3731 -0.128135 -0.546096 
-0.128135 9.0716 1.16014 
-0.546096 1.16014 12.618 
9.89436 -0.184071 0.217989 
-0.184071 8.6564 -0.733229 
0.217989 -0.733229 8.52129 
9.49685 -0.30433 -0.113583 
-0.30433 9.04998 -0.33851 
-0.113583 -0.33851 8.52522 
9.53205 -0.271379 0.0180129 
-0.271379 8.93707 -0.379429 
0.0180129 -0.379429 8.60293 
9.2955 0.339926 -0.365265 
0.339926 8.8413 -0.101325 
-0.365265 -0.101325 8.93525 
7.18944 -0.381843 -2.52577 
-0.381843 8.69036 -1.47767 
-2.52577 -1.47767 7.65009 
6.83055 0.0996434 -1.35999 
0.0996434 9.04697 -0.818082 
-1.35999 -0.818082 7.65237 
7.04484 -0.210287 -1.38862 
-0.210287 7.10342 -1.13485 
-1.38862 -1.13485 9.38162 
8.20783 0.106624 0.210609 
0.106624 9.72892 -0.559416 
0.210609 -0.559416 5.59314 
9.9296 0.000596714 0.173897 
0.000596714 9.63057 -0.0337621 
0.173897 -0.0337621 9.95711 
9.78905 0.0197186 0.192239 
0.0197186 9.78717 0.0668334 
0.192239 0.0668334 9.94106 
9.84524 0.00784189 0.166361 
0.00784189 9.77476 0.0144422 
0.166361 0.0144422 9.89729 
9.86602 -0.0411999 0.301238 
-0.0411999 9.70192 0.0176494 
0.301238 0.0176494 9.94934 
8.70278 -0.236079 0.0106531 
-0.236079 9.30252 -0.246449 
0.0106531 -0.246449 10.6444 
9.23435 -0.132733 0.349322 
-0.132733 9.24486 -0.487748 
0.349322 -0.487748 10.1705 
8.81655 -0.309008 -0.0902563 
-0.309008 8.93637 -0.256341 
-0.0902563 -0.256341 10.8968 
8.94026 -0.317149 0.2403 
-0.317149 9.17806 -0.207664 
0.2403 -0.207664 10.5314 
9.43288 0.0829185 -0.298894 
0.0829185 9.45422 -0.153588 
-0.298894 -0.153588 9.51914 
9.54986 0.152059 -0.364748 
0.152059 9.37828 0.000495936 
-0.364748 0.000495936 9.4781 
9.06146 0.126576 -0.204656 
0.126576 9.454 -0.0151107 
-0.204656 -0.0151107 9.89078 
9.21707 -0.0293367 -0.378338 
-0.0293367 9.52043 0.0609412 
-0.378338 0.0609412 9.66874 
9.39996 0.0586311 -0.307472 
0.0586311 9.47523 -0.0668391 
-0.307472 -0.0668391 9.81523 
9.28553 0.0187797 -0.404273 
0.0187797 9.53349 -0.158731 
-0.404273 -0.158731 9.87139 
9.25289 -0.0213379 -0.298347 
-0.0213379 9.6675 0.15418 
-0.298347 0.15418 9.77002 
9.51066 0.0879078 -0.577304 
0.0879078 9.51408 0.155661 
-0.577304 0.155661 9.66567 
9.68762 0.005097 0.0378293 
0.005097 9.79346 0.451763 
0.0378293 0.451763 9.56024 
9.68806 0.0211368 0.0665736 
0.0211368 9.77957 0.527002 
0.0665736 0.527002 9.57369 
9.72949 0.0057999 0.0641078 
0.0057999 9.83349 0.475714 
0.0641078 0.475714 9.47834 
9.71063 0.0129634 0.0538283 
0.0129634 9.76666 0.531432 
0.0538283 0.531432 9.56402 
9.44614 0.0317973 -0.407221 
0.0317973 9.5285 0.0582996 
-0.407221 0.0582996 9.69309 
9.31383 0.158372 -0.181342 
0.158372 9.60229 -0.162208 
-0.181342 -0.162208 9.7516 
9.36208 0.0189143 -0.374395 
0.0189143 9.54576 0.0610476 
-0.374395 0.0610476 9.75987 
9.46829 0.0309192 -0.570822 
0.0309192 9.38336 -0.123898 
-0.570822 -0.123898 9.81607 
9.83513 -0.108882 0.246795 
-0.108882 9.71615 -0.0452925 
0.246795 -0.0452925 9.92559 
9.80555 -0.0415271 0.253625 
-0.0415271 9.77426 -0.000706696 
0.253625 -0.000706696 9.89706 
9.8259 -0.0503744 0.264709 
-0.0503744 9.77725 0.00578888 
0.264709 0.00578888 9.87372 
9.8509 -0.0421032 0.217078 
-0.0421032 9.73875 0.0377683 
0.217078 0.0377683 9.88722 
10.598 1.10419 -0.260754 
1.10419 9.43632 0.654575 
-0.260754 0.654575 11.1219 
9.83548 0.616427 -1.85186 
0.616427 10.778 0.778393 
-1.85186 0.778393 10.5428 
5.36257 0.32417 -1.76623 
0.32417 11.9731 1.94523 
-1.76623 1.94523 13.8206 
9.46496 1.06366 -1.43828 
1.06366 10.2075 1.06928 
-1.43828 1.06928 11.4838 
9.56338 0.0601552 -0.502149 
0.0601552 9.74955 -0.194943 
-0.502149 -0.194943 9.62584 
9.5805 0.0384767 -0.520543 
0.0384767 9.73495 -0.196733 
-0.520543 -0.196733 9.62333 
9.55285 0.00858725 -0.521584 
0.00858725 9.73888 -0.192499 
-0.521584 -0.192499 9.64705 
9.6622 0.0579277 -0.533474 
0.0579277 9.66784 -0.1981 
-0.533474 -0.1981 9.60874 
9.58068 -0.114894 0.0854451 
-0.114894 9.15112 -0.121252 
0.0854451 -0.121252 10.0625 
9.59666 -0.136098 0.142947 
-0.136098 9.00711 -0.0136617 
0.142947 -0.0136617 10.1905 
9.53014 -0.052172 0.211519 
-0.052172 9.2353 -0.00128344 
0.211519 -0.00128344 10.0288 
9.48463 -0.242089 0.183936 
-0.242089 8.90231 0.0515203 
0.183936 0.0515203 10.4073 
9.52881 -0.0201777 -0.543357 
-0.0201777 9.69623 -0.256759 
-0.543357 -0.256759 9.744 
9.66104 0.129175 -0.515392 
0.129175 9.69149 -0.230188 
-0.515392 -0.230188 9.61652 
9.59843 0.0207943 -0.508207 
0.0207943 9.71878 -0.24967 
-0.508207 -0.24967 9.65183 
9.63206 -0.00569444 -0.438914 
-0.00569444 9.5798 -0.209702 
-0.438914 -0.209702 9.75719 
9.58804 0.0312696 -0.413727 
0.0312696 9.56802 -0.0249624 
-0.413727 -0.0249624 9.77772 
9.62878 0.00679059 -0.520586 
0.00679059 9.55771 -0.026424 
-0.520586 -0.026424 9.74728 
9.60828 0.00939008 -0.456545 
0.00939008 9.53149 0.0193275 
-0.456545 0.0193275 9.794 
9.59715 0.0120143 -0.534723 
0.0120143 9.54456 -0.0100982 
-0.534723 -0.0100982 9.79206 
9.74226 -0.0369633 0.072696 
-0.0369633 9.53026 0.0428286 
0.072696 0.0428286 9.92106 
9.76865 -0.0440161 0.150403 
-0.0440161 9.54017 -0.0859177 
0.150403 -0.0859177 9.88476 
9.65346 0.00702989 0.0412167 
0.00702989 9.62678 -0.097986 
0.0412167 -0.097986 9.91334 
9.69318 -0.044062 0.126779 
-0.044062 9.57416 0.0319505 
0.126779 0.0319505 9.92624 
9.50442 -0.0245278 0.0126684 
-0.0245278 9.51605 0.13747 
0.0126684 0.13747 10.3667 
9.74067 -0.123663 -0.0942713 
-0.123663 9.96285 0.103675 
-0.0942713 0.103675 9.68366 
9.56237 0.170602 -0.289758 
0.170602 9.89081 0.246189 
-0.289758 0.246189 9.934 
9.75469 -0.024358 -0.202982 
-0.024358 9.52014 0.135281 
-0.202982 0.135281 10.1124 
9.2269 0.151523 -0.137941 
0.151523 9.67837 -0.152511 
-0.137941 -0.152511 9.71963 
9.1248 0.119947 -0.291249 
0.119947 9.49228 0.368244 
-0.291249 0.368244 10.0078 
9.43157 -0.0333047 -0.162789 
-0.0333047 9.36586 0.261821 
-0.162789 0.261821 9.82746 
9.42923 0.015862 -0.588971 
0.015862 9.45015 -0.107608 
-0.588971 -0.107608 9.74551 
9.72585 -0.0951981 0.107115 
-0.0951981 9.34493 0.0975272 
0.107115 0.0975272 9.75469 
9.65261 -0.192418 0.0257249 
-0.192418 9.4921 -0.0246694 
0.0257249 -0.0246694 9.68075 
9.60964 -0.123229 0.183112 
-0.123229 9.36888 -0.000354279 
0.183112 -0.000354279 9.84694 
9.7423 -0.0278274 0.181921 
-0.0278274 9.35028 0.0679488 
0.181921 0.0679488 9.73289 
9.28889 -0.0364161 -0.140034 
-0.0364161 8.85988 0.135765 
-0.140034 0.135765 10.026 
9.65582 0.0118921 0.237016 
0.0118921 9.56524 0.48935 
0.237016 0.48935 8.95371 
9.23872 0.100842 -0.141637 
0.100842 9.43504 0.430748 
-0.141637 0.430748 9.501 
9.48822 0.195532 -0.404657 
0.195532 8.96088 0.591048 
-0.404657 0.591048 9.72566 
9.09775 0.128543 -0.225931 
0.128543 9.53996 -0.170291 
-0.225931 -0.170291 9.41051 
9.27236 -0.0294001 -0.0883999 
-0.0294001 9.44452 -0.102708 
-0.0883999 -0.102708 9.33134 
9.09995 0.0230443 -0.267823 
0.0230443 9.28969 -0.281424 
-0.267823 -0.281424 9.65858 
9.35298 -0.133428 -0.348398 
-0.133428 9.68983 -0.123314 
-0.348398 -0.123314 9.00542 
9.64477 -0.10427 0.0949311 
-0.10427 9.30401 -0.101821 
0.0949311 -0.101821 10.095 
9.75735 0.0139645 0.241543 
0.0139645 9.33395 -0.17989 
0.241543 -0.17989 9.9525 
9.60978 -0.0859986 0.174516 
-0.0859986 9.37793 -0.0355801 
0.174516 -0.0355801 10.0561 
9.75564 -0.036468 0.250425 
-0.036468 9.26626 -0.108557 
0.250425 -0.108557 10.0219 
9.16054 0.0408027 -0.146115 
0.0408027 9.37471 -0.755181 
-0.146115 -0.755181 9.09389 
9.1298 0.0491003 0.167034 
0.0491003 9.22795 -0.75196 
0.167034 -0.75196 9.27139 
9.15306 0.0180489 0.0250272 
0.0180489 9.25739 -0.649283 
0.0250272 -0.649283 9.2187 
9.13717 0.0335391 0.0064289 
0.0335391 9.26093 -0.634968 
0.0064289 -0.634968 9.23106 
9.77515 0.022487 -0.501667 
0.022487 9.78042 0.218922 
-0.501667 0.218922 9.85901 
9.78522 -0.00820692 -0.426186 
-0.00820692 9.78281 0.173121 
-0.426186 0.173121 9.84656 
9.78885 -0.0169543 -0.409404 
-0.0169543 9.81914 0.123626 
-0.409404 0.123626 9.80659 
9.78289 0.0266307 -0.466332 
0.0266307 9.73478 0.157668 
-0.466332 0.157668 9.89691 
9.4763 0.0190224 0.116011 
0.0190224 9.29902 0.124663 
0.116011 0.124663 9.65823 
9.46246 0.023987 0.115076 
0.023987 9.31786 0.115656 
0.115076 0.115656 9.65323 
9.48238 0.0488657 0.110601 
0.0488657 9.3352 0.148934 
0.110601 0.148934 9.61597 
9.44246 0.0197166 0.156354 
0.0197166 9.32607 0.142066 
0.156354 0.142066 9.66503 
9.80248 -0.0534156 0.267341 
-0.0534156 9.68859 -0.0387732 
0.267341 -0.0387732 10.0119 
9.80089 -0.0381155 0.236716 
-0.0381155 9.67702 -0.0494806 
0.236716 -0.0494806 10.025 
9.86403 0.0362462 0.204742 
0.0362462 9.7166 -0.0697644 
0.204742 -0.0697644 9.9223 
9.81622 -0.0315122 0.228729 
-0.0315122 9.69051 -0.0386674 
0.228729 -0.0386674 9.9962 
8.68044 0.151192 0.688587 
0.151192 7.15988 -0.908257 
0.688587 -0.908257 8.31681 
8.39771 -0.047322 -0.276171 
-0.047322 8.92747 -0.152409 
-0.276171 -0.152409 6.83195 
8.55192 -0.704867 -0.528189 
-0.704867 7.84448 -0.0119305 
-0.528189 -0.0119305 7.76073 
9.79711 0.365821 0.099494 
0.365821 9.19581 -0.0454568 
0.099494 -0.0454568 5.16421 
9.6531 -0.168209 -0.122618 
-0.168209 8.79834 0.6034 
-0.122618 0.6034 8.77851 
9.62087 0.122121 -0.117426 
0.122121 8.6265 0.324007 
-0.117426 0.324007 8.98258 
9.70979 -0.285148 -0.0810973 
-0.285148 8.68828 0.768971 
-0.0810973 0.768971 8.83189 
9.5442 -0.521777 -0.0876345 
-0.521777 9.02371 0.563601 
-0.0876345 0.563601 8.66205 
9.70407 -0.185442 0.401451 
-0.185442 9.60843 -0.00277359 
0.401451 -0.00277359 9.74733 
9.67753 -0.146408 0.410642 
-0.146408 9.58356 0.0573687 
0.410642 0.0573687 9.79874 
9.81215 -0.00461112 0.421432 
-0.00461112 9.54113 0.187097 
0.421432 0.187097 9.70656 
9.64013 -0.011074 0.376979 
-0.011074 9.5415 -0.0580702 
0.376979 -0.0580702 9.87819 
8.83575 0.083209 0.178912 
0.083209 8.53465 0.411658 
0.178912 0.411658 9.6171 
8.69439 0.245014 -0.0165368 
0.245014 9.16869 0.461233 
-0.0165368 0.461233 9.12442 
8.87468 0.0913432 0.174543 
0.0913432 8.77957 0.484034 
0.174543 0.484034 9.33325 
8.73337 -0.127266 0.133201 
-0.127266 8.87889 0.451684 
0.133201 0.451684 9.37524 
8.62655 0.0168614 -0.554988 
0.0168614 9.218 -0.304756 
-0.554988 -0.304756 11.2011 
9.19994 -0.458698 -0.488574 
-0.458698 8.98965 -0.701189 
-0.488574 -0.701189 10.8561 
9.90108 0.173825 1.31949 
0.173825 9.08279 -0.0699078 
1.31949 -0.0699078 10.0618 
8.56028 -0.358652 -0.623876 
-0.358652 8.80634 0.83075 
-0.623876 0.83075 11.6791 
8.94535 0.273302 0.123505 
0.273302 8.87372 0.0376006 
0.123505 0.0376006 9.75834 
9.14947 0.239459 0.164416 
0.239459 8.86768 0.0985824 
0.164416 0.0985824 9.56026 
9.07768 0.155982 0.290427 
0.155982 8.84525 0.132165 
0.290427 0.132165 9.65448 
9.14582 0.166567 0.201876 
0.166567 8.82521 0.0582833 
0.201876 0.0582833 9.60638 
9.1166 0.416761 0.0723457 
0.416761 9.15007 -1.0733 
0.0723457 -1.0733 8.18646 
9.1649 0.508501 0.297994 
0.508501 8.9591 -1.30292 
0.297994 -1.30292 8.32913 
9.05756 0.103125 0.679163 
0.103125 9.56903 -0.926263 
0.679163 -0.926263 7.82653 
8.98886 0.0181486 -0.282668 
0.0181486 8.89889 -0.414996 
-0.282668 -0.414996 8.56537 
9.47443 1.32235 -0.251762 
1.32235 8.50939 1.64564 
-0.251762 1.64564 12.7752 
10.5146 2.0142 -0.705888 
2.0142 9.82398 2.26819 
-0.705888 2.26819 10.4205 
11.5574 -1.03966 -0.221871 
-1.03966 8.0944 1.08631 
-0.221871 1.08631 11.1073 
10.1498 -0.411422 -0.920049 
-0.411422 8.46169 2.40906 
-0.920049 2.40906 12.1475 
10.6653 0.0910065 -0.144248 
0.0910065 8.53753 0.487193 
-0.144248 0.487193 10.4855 
9.45608 0.21945 -0.121177 
0.21945 9.37587 0.643764 
-0.121177 0.643764 10.8564 
10.3494 0.402076 -0.523525 
0.402076 8.42171 0.387347 
-0.523525 0.387347 10.9173 
10.2141 0.49318 -0.215084 
0.49318 8.37624 0.473203 
-0.215084 0.473203 11.098 
9.82539 -0.0152828 0.0871037 
-0.0152828 9.72718 0.00665123 
0.0871037 0.00665123 9.93857 
9.82476 -0.00478496 0.0318973 
-0.00478496 9.76142 -0.0287666 
0.0318973 -0.0287666 9.90497 
9.78295 -0.0271496 0.0611784 
-0.0271496 9.79951 -0.041837 
0.0611784 -0.041837 9.90868 
9.87138 -0.0326231 0.132419 
-0.0326231 9.73928 0.0112237 
0.132419 0.0112237 9.88048 
9.1649 -0.230888 0.0787471 
-0.230888 8.97115 -0.351601 
0.0787471 -0.351601 10.2032 
9.22985 -0.410161 0.0623549 
-0.410161 8.87628 -0.414397 
0.0623549 -0.414397 10.2331 
9.14543 -0.172457 0.0403032 
-0.172457 9.04048 -0.135016 
0.0403032 -0.135016 10.1533 
9.38207 -0.0251259 0.170007 
-0.0251259 8.96332 -0.15986 
0.170007 -0.15986 9.99387 
9.64044 -0.0977326 -0.300788 
-0.0977326 9.32639 0.10783 
-0.300788 0.10783 9.60528 
9.54327 -0.0832683 -0.289114 
-0.0832683 9.47982 0.177497 
-0.289114 0.177497 9.54901 
9.61296 -0.086094 -0.418054 
-0.086094 9.4136 0.173557 
-0.418054 0.173557 9.54554 
9.9047 -0.015685 -0.285181 
-0.015685 9.21785 0.243239 
-0.285181 0.243239 9.44955 
9.18976 0.135805 -0.189025 
0.135805 9.53489 0.0437823 
-0.189025 0.0437823 9.85974 
8.95382 0.0466743 -0.253867 
0.0466743 9.57969 0.188819 
-0.253867 0.188819 10.0509 
9.36319 -0.177975 -0.358034 
-0.177975 9.36807 0.0149687 
-0.358034 0.0149687 9.85314 
9.12142 0.0148085 -0.269329 
0.0148085 9.47797 0.0977375 
-0.269329 0.0977375 9.98501 
9.51732 -0.00293261 0.0731561 
-0.00293261 9.55139 0.631947 
0.0731561 0.631947 9.41339 
9.40077 -0.0255905 0.134884 
-0.0255905 9.62194 0.674577 
0.134884 0.674577 9.45939 
9.54041 -0.0213128 0.0445045 
-0.0213128 9.6356 0.617556 
0.0445045 0.617556 9.30609 
9.38703 -0.00781576 0.188302 
-0.00781576 9.51174 0.587573 
0.188302 0.587573 9.58333 
9.30974 -0.0596443 -0.573733 
-0.0596443 9.15137 0.139168 
-0.573733 0.139168 9.64326 
9.51563 0.0765177 -0.977814 
0.0765177 8.92651 0.344045 
-0.977814 0.344045 9.66224 
9.25521 -0.136322 -0.486789 
-0.136322 8.96798 0.118351 
-0.486789 0.118351 9.88119 
9.3824 0.0344672 -0.477114 
0.0344672 9.40028 0.0402385 
-0.477114 0.0402385 9.32169 
9.32868 0.50909 0.0449855 
0.50909 9.90065 -1.41518 
0.0449855 -1.41518 7.69346 
9.29674 2.0646 0.719938 
2.0646 9.91211 -2.10003 
0.719938 -2.10003 7.71394 
9.0671 0.660365 -0.697067 
0.660365 10.5042 -1.07956 
-0.697067 -1.07956 7.35152 
10.522 -0.00859724 -0.532668 
-0.00859724 10.097 -0.575409 
-0.532668 -0.575409 6.30375 
11.1509 0.00849953 0.158712 
0.00849953 9.32746 -0.21832 
0.158712 -0.21832 13.4656 
10.6373 0.265411 0.773543 
0.265411 9.91902 0.855748 
0.773543 0.855748 13.3877 
10.2793 0.191212 0.846408 
0.191212 9.59601 -0.345944 
0.846408 -0.345944 14.0686 
10.879 0.481479 -0.133479 
0.481479 10.0224 -0.5986 
-0.133479 -0.5986 13.0425 
9.68576 -0.0244729 0.23751 
-0.0244729 9.94878 0.0720695 
0.23751 0.0720695 9.99721 
9.9247 -0.0135532 0.178199 
-0.0135532 9.79999 0.0726266 
0.178199 0.0726266 9.90707 
9.91425 -0.00562367 0.101674 
-0.00562367 9.7209 0.0343034 
0.101674 0.0343034 9.9966 
9.75937 -0.118635 0.14355 
-0.118635 9.85236 -0.177274 
0.14355 -0.177274 10.02 
9.55012 -0.439022 0.466095 
-0.439022 9.23679 -0.00038877 
0.466095 -0.00038877 10.0672 
9.64375 -0.188866 0.35513 
-0.188866 9.2642 0.150356 
0.35513 0.150356 9.94614 
9.50686 0.012279 0.459827 
0.012279 9.33687 0.17407 
0.459827 0.17407 10.0104 
9.5551 -0.138699 0.304847 
-0.138699 9.28645 -0.0384547 
0.304847 -0.0384547 10.0125 
7.61626 0.263781 0.291538 
0.263781 5.59431 -0.331201 
0.291538 -0.331201 1.27061 
7.27419 -0.190527 -0.574676 
-0.190527 6.87372 -0.162298 
-0.574676 -0.162298 0.333274 
7.63764 0.110846 -0.0853604 
0.110846 5.51156 -0.334608 
-0.0853604 -0.334608 1.33198 
5.99084 -1.06396 1.54893 
-1.06396 5.8948 -0.722778 
1.54893 -0.722778 2.59555 
8.45726 0.409392 0.0673217 
0.409392 9.81984 0.0246236 
0.0673217 0.0246236 10.2529 
8.95254 0.173894 0.220729 
0.173894 9.35091 0.406056 
0.220729 0.406056 10.2265 
9.16021 0.141414 0.533937 
0.141414 9.79337 1.12008 
0.533937 1.12008 9.57642 
8.61884 0.167703 0.112162 
0.167703 9.53957 0.401475 
0.112162 0.401475 10.3716 
9.84007 0.00795611 -0.477686 
0.00795611 9.86232 0.161394 
-0.477686 0.161394 9.91817 
9.83903 -0.00302638 -0.454964 
-0.00302638 9.83216 0.155959 
-0.454964 0.155959 9.94937 
9.85717 -0.0266384 -0.436321 
-0.0266384 9.83598 0.164101 
-0.436321 0.164101 9.9274 
9.83857 0.0107903 -0.479585 
0.0107903 9.86714 0.166126 
-0.479585 0.166126 9.91485 
9.65578 -0.164815 0.189169 
-0.164815 9.49714 0.109061 
0.189169 0.109061 9.78167 
9.61646 -0.0532767 0.180423 
-0.0532767 9.62939 0.134832 
0.180423 0.134832 9.68875 
9.7811 -0.0245156 0.29564 
-0.0245156 9.53308 0.150752 
0.29564 0.150752 9.62041 
9.63693 0.0126116 0.32845 
0.0126116 9.41675 -0.0629464 
0.32845 -0.0629464 9.8809 
9.7524 -1.3014 -1.01226 
-1.3014 9.12196 -0.335272 
-1.01226 -0.335272 10.8746 
8.31447 0.0240019 -1.09021 
0.0240019 11.2359 -0.183019 
-1.09021 -0.183019 10.1986 
8.07461 -0.478407 -1.08672 
-0.478407 10.1328 -0.81372 
-1.08672 -0.81372 11.5416 
9.2932 -0.645445 -1.68328 
-0.645445 9.15721 -0.657107 
-1.68328 -0.657107 11.2985 
9.96796 0.0147457 0.216215 
0.0147457 10.0052 -0.455277 
0.216215 -0.455277 9.90978 
9.89445 -0.00122929 0.144188 
-0.00122929 9.86755 -0.439203 
0.144188 -0.439203 10.1209 
9.96775 0.00761042 0.221849 
0.00761042 10.0354 -0.434521 
0.221849 -0.434521 9.87971 
9.97376 0.00897002 0.20503 
0.00897002 10.029 -0.495939 
0.20503 -0.495939 9.88017 
9.75544 -0.0663608 -0.178294 
-0.0663608 9.58741 -0.00758044 
-0.178294 -0.00758044 9.49163 
9.7259 -0.0854389 -0.0785204 
-0.0854389 9.49631 0.08015 
-0.0785204 0.08015 9.61228 
9.77931 0.0129109 -0.171476 
0.0129109 9.52221 -0.00631626 
-0.171476 -0.00631626 9.53296 
9.74146 -0.102832 -0.210279 
-0.102832 9.61309 -0.00216873 
-0.210279 -0.00216873 9.47994 
9.455 0.189349 -0.574472 
0.189349 9.46193 -0.485823 
-0.574472 -0.485823 8.991 
9.38736 0.178142 -0.437007 
0.178142 9.59728 -0.291078 
-0.437007 -0.291078 8.92329 
9.32882 -0.0944992 -0.46265 
-0.0944992 9.39689 -0.487735 
-0.46265 -0.487735 9.18221 
9.43555 0.0945425 -0.533718 
0.0945425 9.5459 -0.288521 
-0.533718 -0.288521 8.92647 
10.6455 -0.786399 2.43879 
-0.786399 5.74335 -3.4028 
2.43879 -3.4028 12.4733 
8.4905 1.74767 0.0188894 
1.74767 10.3691 -1.4091 
0.0188894 -1.4091 10.0025 
11.7425 0.135774 -1.20111 
0.135774 9.36581 -1.05713 
-1.20111 -1.05713 7.75377 
8.37855 -1.73238 0.858335 
-1.73238 7.50458 0.425128 
0.858335 0.425128 12.979 
9.80375 0.0734429 0.235327 
0.0734429 9.23282 -0.106182 
0.235327 -0.106182 9.96959 
9.46969 -0.213949 0.0812035 
-0.213949 9.28663 -0.157199 
0.0812035 -0.157199 10.2498 
9.64955 0.112104 0.0714736 
0.112104 9.38559 -0.193105 
0.0714736 -0.193105 9.97102 
9.72895 -0.0115231 0.218446 
-0.0115231 9.36365 -0.0220979 
0.218446 -0.0220979 9.91356 
9.88705 0.00994052 -0.267997 
0.00994052 9.82693 -0.162222 
-0.267997 -0.162222 9.81009 
9.81862 0.0246681 -0.267427 
0.0246681 9.97558 -0.169417 
-0.267427 -0.169417 9.72987 
9.80806 0.0102638 -0.255439 
0.0102638 9.86659 -0.169674 
-0.255439 -0.169674 9.84941 
9.91967 -0.0117641 -0.255991 
-0.0117641 9.79957 -0.0753304 
-0.255991 -0.0753304 9.80483 
9.76425 -0.0258934 -0.161918 
-0.0258934 9.70403 0.1664 
-0.161918 0.1664 9.66994 
9.76842 -0.0317098 -0.158737 
-0.0317098 9.72375 0.15317 
-0.158737 0.15317 9.64606 
9.77838 -0.0338718 -0.200719 
-0.0338718 9.73167 0.153103 
-0.200719 0.153103 9.62818 
9.74651 -0.0365449 -0.144612 
-0.0365449 9.71657 0.137377 
-0.144612 0.137377 9.67515 
9.8587 -0.0416613 0.315382 
-0.0416613 9.83557 -0.13352 
0.315382 -0.13352 9.88696 
9.87669 -0.0434034 0.434712 
-0.0434034 9.79699 -0.205237 
0.434712 -0.205237 9.90756 
9.85587 0.0366661 0.390403 
0.0366661 9.86386 -0.132315 
0.390403 -0.132315 9.86151 
9.83641 -0.060883 0.262228 
-0.060883 9.91113 -0.123274 
0.262228 -0.123274 9.83369 
9.88228 -0.0272893 0.458599 
-0.0272893 9.87549 -0.164973 
0.458599 -0.164973 9.95716 
9.8941 -0.00091679 0.469004 
-0.00091679 9.88269 -0.151255 
0.469004 -0.151255 9.93814 
9.87724 -0.0176124 0.434146 
-0.0176124 9.86622 -0.136283 
0.434146 -0.136283 9.97147 
9.88744 0.00306401 0.466302 
0.00306401 9.89168 -0.157006 
0.466302 -0.157006 9.93582 
9.48303 0.0830595 -0.556337 
0.0830595 9.66471 -0.168613 
-0.556337 -0.168613 9.62491 
9.49267 -0.00620698 -0.486653 
-0.00620698 9.67819 -0.30984 
-0.486653 -0.30984 9.60178 
9.51173 0.078969 -0.540915 
0.078969 9.66435 -0.19776 
-0.540915 -0.19776 9.59658 
9.58712 0.0707063 -0.556981 
0.0707063 9.59237 -0.124939 
-0.556981 -0.124939 9.59316 
9.5208 -0.306318 -0.819372 
-0.306318 9.38581 -0.285709 
-0.819372 -0.285709 9.9717 
9.5006 0.00148526 -0.933558 
0.00148526 9.57805 -0.299815 
-0.933558 -0.299815 9.79965 
9.57054 -0.549185 -1.0295 
-0.549185 9.1554 -0.419992 
-1.0295 -0.419992 10.1524 
9.42479 -0.105196 -0.664258 
-0.105196 9.30195 -0.215168 
-0.664258 -0.215168 10.1516 
9.08689 -0.439243 0.519184 
-0.439243 10.0684 0.891346 
0.519184 0.891346 9.56272 
9.2032 -0.705779 -0.0655848 
-0.705779 9.88807 0.0712124 
-0.0655848 0.0712124 9.62673 
9.6748 0.0928569 -0.350186 
0.0928569 8.96462 -0.41681 
-0.350186 -0.41681 10.0786 
7.63444 0.169553 0.623311 
0.169553 9.75328 -0.399643 
0.623311 -0.399643 11.3303 
9.6068 0.0892834 -0.003023 
0.0892834 9.16489 -0.0639041 
-0.003023 -0.0639041 8.57297 
9.81336 -0.194443 -0.135135 
-0.194443 9.19036 -0.10375 
-0.135135 -0.10375 8.34094 
9.37687 -0.325136 -0.285326 
-0.325136 9.07782 0.54921 
-0.285326 0.54921 8.88997 
9.74927 0.0730551 -0.113882 
0.0730551 9.11301 0.191418 
-0.113882 0.191418 8.48238 
8.65818 -0.29056 0.285239 
-0.29056 8.58083 -0.771069 
0.285239 -0.771069 9.37173 
9.27331 -0.342373 -0.29275 
-0.342373 9.1034 -0.949983 
-0.29275 -0.949983 8.23403 
8.83403 0.202694 -0.152279 
0.202694 8.9496 -0.711589 
-0.152279 -0.711589 8.82711 
8.71296 0.142905 0.0612256 
0.142905 9.06555 -0.723043 
0.0612256 -0.723043 8.83224 
9.29454 -0.00864824 0.0870111 
-0.00864824 9.76443 0.168826 
0.0870111 0.168826 9.64822 
9.58839 0.122024 0.027021 
0.122024 9.36121 -0.168853 
0.027021 -0.168853 9.75759 
9.51986 -0.174537 0.093074 
-0.174537 9.17819 -0.181509 
0.093074 -0.181509 10.0091 
9.65055 -0.0778401 0.245324 
-0.0778401 9.51782 0.0832354 
0.245324 0.0832354 9.53883 
8.90279 1.0631 -0.0726668 
1.0631 9.37516 -0.21556 
-0.0726668 -0.21556 11.2046 
9.46877 0.890145 0.304278 
0.890145 9.5836 0.51489 
0.304278 0.51489 10.4302 
9.7021 0.233093 -0.229054 
0.233093 9.42656 0.105516 
-0.229054 0.105516 10.3539 
8.79252 0.88478 -0.193867 
0.88478 9.32059 0.0983527 
-0.193867 0.0983527 11.3695 
9.24936 0.0159952 -0.612551 
0.0159952 9.44894 -0.0373826 
-0.612551 -0.0373826 9.65773 
9.22885 0.0207149 -0.605439 
0.0207149 9.4011 -0.00795194 
-0.605439 -0.00795194 9.72609 
9.2498 -0.0279998 -0.641306 
-0.0279998 9.46095 -0.0966996 
-0.641306 -0.0966996 9.64529 
9.26615 0.0804363 -0.584066 
0.0804363 9.46019 -0.00123222 
-0.584066 -0.00123222 9.6297 
8.50735 0.179884 -0.0614737 
0.179884 9.26791 0.53279 
-0.0614737 0.53279 8.78967 
8.79877 0.140703 0.0927585 
0.140703 9.35401 0.344649 
0.0927585 0.344649 8.41215 
8.70112 0.299053 -0.399652 
0.299053 9.05794 0.740918 
-0.399652 0.740918 8.80586 
8.49499 0.279532 -0.00673739 
0.279532 9.01814 0.569082 
-0.00673739 0.569082 9.0518 
9.82665 -0.0508156 0.46731 
-0.0508156 9.76277 -0.194027 
0.46731 -0.194027 9.91957 
9.79491 -0.0260691 0.426941 
-0.0260691 9.88205 -0.122914 
0.426941 -0.122914 9.83204 
9.79966 -0.0224134 0.458777 
-0.0224134 9.83494 -0.140131 
0.458777 -0.140131 9.8744 
9.78795 0.00458618 0.448781 
0.00458618 9.80528 -0.115248 
0.448781 -0.115248 9.91576 
10.0094 0.136829 -0.0108868 
0.136829 9.74563 -0.174871 
-0.0108868 -0.174871 9.8843 
9.88111 -0.0403922 -0.0627234 
-0.0403922 9.97816 -0.0530065 
-0.0627234 -0.0530065 9.78011 
9.86447 0.0738279 0.0448984 
0.0738279 9.83036 -0.0252273 
0.0448984 -0.0252273 9.94455 
10.0138 0.147092 -0.0368061 
0.147092 9.76831 -0.109451 
-0.0368061 -0.109451 9.85725 
9.34786 0.180422 0.0763495 
0.180422 9.66446 -0.0273588 
0.0763495 -0.0273588 9.57059 
9.55181 -0.114813 0.277376 
-0.114813 9.25199 -0.019005 
0.277376 -0.019005 9.77911 
9.19088 -0.228819 0.379221 
-0.228819 9.43932 0.243779 
0.379221 0.243779 9.95271 
9.62996 -0.0866874 0.242377 
-0.0866874 9.37614 -0.0574657 
0.242377 -0.0574657 9.57681 
9.42896 -0.0652551 0.542842 
-0.0652551 9.62319 -0.256847 
0.542842 -0.256847 9.37088 
9.40442 0.0286489 0.616087 
0.0286489 9.61615 -0.116691 
0.616087 -0.116691 9.40247 
9.37754 0.0735798 0.523745 
0.0735798 9.54387 -0.184801 
0.523745 -0.184801 9.50162 
9.34393 -0.158325 0.462613 
-0.158325 9.64685 -0.109865 
0.462613 -0.109865 9.43226 
9.72042 -0.0681705 -0.139622 
-0.0681705 9.59047 0.122509 
-0.139622 0.122509 9.44205 
9.66989 -0.173056 -0.08175 
-0.173056 9.57093 -0.0163017 
-0.08175 -0.0163017 9.51212 
9.67528 -0.089194 -0.185847 
-0.089194 9.47768 -0.0618936 
-0.185847 -0.0618936 9.59998 
9.70188 -0.0636364 -0.135002 
-0.0636364 9.48232 -0.0209879 
-0.135002 -0.0209879 9.56875 
10.8664 -0.0821365 -0.153583 
-0.0821365 11.0693 0.201869 
-0.153583 0.201869 11.417 
10.9354 0.0196129 -0.274633 
0.0196129 11.2449 0.119529 
-0.274633 0.119529 11.1723 
11.144 -0.0869153 -0.252632 
-0.0869153 10.8313 0.124948 
-0.252632 0.124948 11.3773 
10.9069 -0.118458 -0.322885 
-0.118458 11.1319 0.072358 
-0.322885 0.072358 11.3138 
9.93712 -0.0451227 -0.0248042 
-0.0451227 9.6118 -0.0985306 
-0.0248042 -0.0985306 8.90017 
9.74203 0.031287 0.13779 
0.031287 9.55919 -0.0110615 
0.13779 -0.0110615 9.14787 
10.137 -0.0312809 0.241421 
-0.0312809 9.35541 -0.25613 
0.241421 -0.25613 8.95665 
9.71889 -0.0870126 0.153634 
-0.0870126 9.516 -0.157253 
0.153634 -0.157253 9.2142 
9.39574 0.209145 0.560911 
0.209145 9.45851 0.662364 
0.560911 0.662364 9.03158 
9.49543 -0.0438674 0.36088 
-0.0438674 9.55814 0.456381 
0.36088 0.456381 8.83225 
9.31573 0.119683 0.421434 
0.119683 9.57322 0.459034 
0.421434 0.459034 8.99687 
9.32033 -0.286093 0.304604 
-0.286093 9.30892 0.377347 
0.304604 0.377347 9.25656 
9.60272 0.0446485 -0.0483295 
0.0446485 8.77841 -0.197835 
-0.0483295 -0.197835 9.50079 
9.88267 0.00979014 -0.20865 
0.00979014 9.00289 -0.296791 
-0.20865 -0.296791 8.99636 
9.88179 0.0871604 -0.148257 
0.0871604 8.96456 -0.216995 
-0.148257 -0.216995 9.03557 
9.82287 -0.0203939 -0.206117 
-0.0203939 8.97482 -0.228142 
-0.206117 -0.228142 9.08423 
9.53662 -0.0125508 0.141454 
-0.0125508 9.41289 0.154352 
0.141454 0.154352 9.78209 
9.58301 0.0759664 0.155759 
0.0759664 9.3944 0.106219 
0.155759 0.106219 9.75418 
9.60475 0.00637906 0.126097 
0.00637906 9.297 0.0855964 
0.126097 0.0855964 9.82984 
9.45541 -0.0341786 0.117097 
-0.0341786 9.41216 0.0909833 
0.117097 0.0909833 9.86403 
9.54571 -0.0430511 0.0885636 
-0.0430511 9.44616 0.00835659 
0.0885636 0.00835659 9.83414 
9.60489 0.093759 0.0778594 
0.093759 9.54133 0.0276252 
0.0778594 0.0276252 9.67979 
9.5574 0.0292028 0.0457205 
0.0292028 9.64561 0.0607877 
0.0457205 0.0607877 9.623 
9.54098 0.00552532 -0.0415205 
0.00552532 9.58724 0.072206 
-0.0415205 0.072206 9.69778 
8.54145 -0.177782 -1.46159 
-0.177782 9.4377 -1.10443 
-1.46159 -1.10443 4.62724 
7.64915 -0.727934 -0.911667 
-0.727934 8.73871 -0.177359 
-0.911667 -0.177359 6.21853 
7.32551 -0.324181 -1.71535 
-0.324181 7.19008 -0.74087 
-1.71535 -0.74087 8.0908 
7.69621 0.415452 -1.20711 
0.415452 7.83284 -0.320565 
-1.20711 -0.320565 7.07735 
9.75952 0.0139914 0.0760081 
0.0139914 9.71252 -0.0195715 
0.0760081 -0.0195715 9.80717 
9.7474 0.00867208 0.0673822 
0.00867208 9.7162 0.0024093 
0.0673822 0.0024093 9.81561 
9.77459 -0.00170242 0.0593243 
-0.00170242 9.73508 0.0247178 
0.0593243 0.0247178 9.76954 
9.78796 0.000170703 0.0914511 
0.000170703 9.71954 0.038367 
0.0914511 0.038367 9.77171 
8.87877 0.2646 -0.109202 
0.2646 9.1924 0.126765 
-0.109202 0.126765 9.09726 
9.0646 0.210669 -0.351445 
0.210669 9.82047 0.47642 
-0.351445 0.47642 8.28336 
9.04001 0.173228 0.0980786 
0.173228 9.32175 0.35816 
0.0980786 0.35816 8.80667 
9.05914 -0.00289249 -0.197275 
-0.00289249 9.3049 0.288924 
-0.197275 0.288924 8.80438 
9.60216 -0.0720107 0.367803 
-0.0720107 9.73941 -0.124649 
0.367803 -0.124649 9.56846 
9.83914 0.0374764 0.247376 
0.0374764 9.72112 0.153469 
0.247376 0.153469 9.34978 
9.54813 -0.0619567 0.46815 
-0.0619567 9.51806 -0.164244 
0.46815 -0.164244 9.84385 
9.7387 -0.0674157 0.331492 
-0.0674157 9.67548 -0.11768 
0.331492 -0.11768 9.49586 
9.72383 -0.0654963 0.352659 
-0.0654963 9.612 -0.039013 
0.352659 -0.039013 9.81092 
9.76826 -0.187084 0.38384 
-0.187084 9.59035 0.00471682 
0.38384 0.00471682 9.78815 
9.58547 -0.0102491 0.390857 
-0.0102491 9.64638 -0.0764855 
0.390857 -0.0764855 9.91491 
9.76782 0.013813 0.31765 
0.013813 9.55426 -0.0863662 
0.31765 -0.0863662 9.82468 
9.96153 -0.00101419 0.339961 
-0.00101419 9.90171 -0.103564 
0.339961 -0.103564 9.99647 
9.96385 -0.016111 0.324187 
-0.016111 9.91956 -0.105895 
0.324187 -0.105895 9.9763 
9.95738 -0.0153951 0.334063 
-0.0153951 9.94661 -0.105912 
0.334063 -0.105912 9.95572 
9.97407 -0.00173481 0.326593 
-0.00173481 9.96169 -0.126865 
0.326593 -0.126865 9.92394 
9.68653 -0.0560708 0.279248 
-0.0560708 9.38266 -0.0184217 
0.279248 -0.0184217 9.95194 
9.7029 -0.0615658 0.190984 
-0.0615658 9.3572 0.0418633 
0.190984 0.0418633 9.96104 
9.67775 0.0462735 0.318502 
0.0462735 9.33079 -0.155965 
0.318502 -0.155965 10.0126 
9.65914 -0.101814 0.220035 
-0.101814 9.54587 0.0396017 
0.220035 0.0396017 9.81613 
9.8588 -0.00694861 0.0688593 
-0.00694861 9.84119 -0.0294639 
0.0688593 -0.0294639 9.96195 
9.84214 -0.00545197 0.0918542 
-0.00545197 9.80018 -0.00361597 
0.0918542 -0.00361597 10.0196 
9.87019 -0.0167068 0.0834028 
-0.0167068 9.86059 -0.0275291 
0.0834028 -0.0275291 9.93117 
9.89571 -0.0261958 0.0768753 
-0.0261958 9.85852 -0.0509988 
0.0768753 -0.0509988 9.9077 
8.16137 0.834688 2.61506 
0.834688 10.2534 -0.565149 
2.61506 -0.565149 10.5003 
7.35148 0.320636 1.31605 
0.320636 10.3616 0.553554 
1.31605 0.553554 11.2019 
7.34498 -0.550559 1.37239 
-0.550559 11.4844 0.546791 
1.37239 0.546791 10.0856 
8.21338 0.734495 1.07069 
0.734495 11.202 0.172427 
1.07069 0.172427 9.4996 
10.6077 -0.423064 0.0526303 
-0.423064 9.13423 -0.154103 
0.0526303 -0.154103 12.184 
10.1826 0.220966 0.12011 
0.220966 9.99296 0.436036 
0.12011 0.436036 11.7504 
10.1347 0.608687 0.0332192 
0.608687 10.4623 -0.061253 
0.0332192 -0.061253 11.3289 
11.0107 -0.0783433 -0.298381 
-0.0783433 9.54392 0.588946 
-0.298381 0.588946 11.3713 
9.50588 -0.0179876 -0.761896 
-0.0179876 10.3391 -0.0295516 
-0.761896 -0.0295516 10.9129 
11.1839 0.321171 -0.0409617 
0.321171 9.31877 0.338546 
-0.0409617 0.338546 10.2552 
10.4141 0.455687 0.108671 
0.455687 9.30613 -0.278212 
0.108671 -0.278212 11.0376 
10.0207 0.483793 -0.0228864 
0.483793 9.9464 -0.512374 
-0.0228864 -0.512374 10.7907 
9.57704 -0.0811101 0.0454595 
-0.0811101 9.43238 -0.0443979 
0.0454595 -0.0443979 9.80787 
9.57993 -0.0541449 0.0701892 
-0.0541449 9.42182 -0.0617044 
0.0701892 -0.0617044 9.81554 
9.57133 -0.0566402 0.103472 
-0.0566402 9.43979 -0.0528885 
0.103472 -0.0528885 9.80617 
9.5981 -0.0616112 0.091474 
-0.0616112 9.46597 -0.0562522 
0.091474 -0.0562522 9.75321 
9.8026 -0.00444353 -0.0802072 
-0.00444353 9.861 -0.0301626 
-0.0802072 -0.0301626 9.95549 
9.8927 0.00272538 -0.035676 
0.00272538 9.88335 -0.0215563 
-0.035676 -0.0215563 9.84303 
9.92641 -0.0112212 -0.076143 
-0.0112212 9.83563 -0.00284665 
-0.076143 -0.00284665 9.85705 
9.87513 -0.0126212 -0.0711664 
-0.0126212 9.86594 -0.0358328 
-0.0711664 -0.0358328 9.87802 
9.61113 0.0435073 0.461129 
0.0435073 9.77273 -0.220573 
0.461129 -0.220573 9.62371 
9.66273 -0.00949321 0.433839 
-0.00949321 9.77891 -0.268865 
0.433839 -0.268865 9.56593 
9.59988 -0.0171513 0.46992 
-0.0171513 9.81228 -0.258974 
0.46992 -0.258974 9.5954 
9.63931 -0.0651626 0.409624 
-0.0651626 9.61712 -0.280016 
0.409624 -0.280016 9.75114 
10.0864 -0.0852059 -0.440651 
-0.0852059 9.42698 0.245842 
-0.440651 0.245842 8.88019 
9.9491 -0.0748902 -0.356505 
-0.0748902 9.43578 0.26266 
-0.356505 0.26266 9.00872 
9.38402 -0.0514825 -0.416574 
-0.0514825 9.35058 0.2958 
-0.416574 0.2958 9.659 
10.1284 0.11058 -0.230885 
0.11058 9.34159 0.34175 
-0.230885 0.34175 8.92362 
9.82983 -0.0550079 0.239015 
-0.0550079 9.89991 -0.400172 
0.239015 -0.400172 9.77341 
9.79562 0.0333709 0.269303 
0.0333709 9.83949 -0.355016 
0.269303 -0.355016 9.86805 
9.86542 0.0682454 0.198591 
0.0682454 9.93306 -0.372874 
0.198591 -0.372874 9.70467 
9.83869 -0.00641426 0.226634 
-0.00641426 9.88523 -0.397007 
0.226634 -0.397007 9.77925 
9.09135 -0.251097 -0.86575 
-0.251097 8.46997 -1.54071 
-0.86575 -1.54071 7.69809 
9.645 0.102793 0.193776 
0.102793 9.97348 -1.28812 
0.193776 -1.28812 5.64093 
9.0241 -0.254773 -0.78171 
-0.254773 8.86301 -1.27608 
-0.78171 -1.27608 7.37229 
7.85458 0.160868 -0.183334 
0.160868 8.50993 0.0395687 
-0.183334 0.0395687 8.8949 
9.76099 0.128183 0.0799193 
0.128183 9.8818 -0.122707 
0.0799193 -0.122707 9.84061 
9.81644 -0.0272257 0.0650512 
-0.0272257 9.89716 -0.0729167 
0.0650512 -0.0729167 9.76979 
9.82927 -0.0158646 0.0862587 
-0.0158646 9.87853 -0.133544 
0.0862587 -0.133544 9.77559 
9.84431 0.0802668 0.117743 
0.0802668 9.91687 0.000886053 
0.117743 0.000886053 9.7222 
9.70885 -0.0351609 -0.423964 
-0.0351609 9.55874 0.0964484 
-0.423964 0.0964484 9.76664 
9.61567 -0.0705371 -0.418387 
-0.0705371 9.60076 0.0765972 
-0.418387 0.0765972 9.81779 
9.67382 -0.0103209 -0.445035 
-0.0103209 9.50289 0.167093 
-0.445035 0.167093 9.8575 
9.69409 -0.00280744 -0.353314 
-0.00280744 9.55932 0.234618 
-0.353314 0.234618 9.78081 
5.24698 0.167451 -1.82455 
0.167451 6.30579 -0.742043 
-1.82455 -0.742043 1.90018 
6.42633 0.15821 -1.62387 
0.15821 4.84541 -1.34886 
-1.62387 -1.34886 2.18121 
5.87986 -0.739588 -1.9173 
-0.739588 5.61077 -1.91566 
-1.9173 -1.91566 1.96233 
4.53498 -1.31535 -2.16383 
-1.31535 5.77754 -1.17262 
-2.16383 -1.17262 3.14044 
10.5661 -0.547984 -0.13387 
-0.547984 10.1406 -0.380508 
-0.13387 -0.380508 13.228 
11.0095 1.6799 0.203713 
1.6799 11.5313 -0.0473172 
0.203713 -0.0473172 11.3939 
11.8587 0.217632 0.109948 
0.217632 9.16406 -0.798199 
0.109948 -0.798199 12.9119 
12.2572 0.530406 -0.556979 
0.530406 10.1451 -1.3546 
-0.556979 -1.3546 11.5324 
8.5639 0.605134 0.4428 
0.605134 8.58233 -0.53673 
0.4428 -0.53673 9.30463 
9.13418 -0.312915 0.522111 
-0.312915 9.13617 -1.26872 
0.522111 -1.26872 8.18051 
8.86411 0.113712 0.359166 
0.113712 8.87785 -0.849553 
0.359166 -0.849553 8.70889 
8.82461 -0.314943 -0.140516 
-0.314943 9.30172 -0.906042 
-0.140516 -0.906042 8.32453 
9.73039 -0.0769969 -0.111555 
-0.0769969 9.66058 0.0455284 
-0.111555 0.0455284 9.83165 
9.46988 0.23537 0.0317797 
0.23537 9.74419 0.00867576 
0.0317797 0.00867576 10.0086 
9.75489 -0.114777 -0.101616 
-0.114777 9.69467 0.0398158 
-0.101616 0.0398158 9.77306 
9.47282 -0.0317434 -0.236641 
-0.0317434 9.77137 0.279543 
-0.236641 0.279543 9.97843 
9.47828 -0.0463248 0.136236 
-0.0463248 9.69258 0.715284 
0.136236 0.715284 9.40167 
9.55822 0.0187427 0.044539 
0.0187427 9.55761 0.533047 
0.044539 0.533047 9.4567 
9.64191 0.0113442 0.0899231 
0.0113442 9.41885 0.61445 
0.0899231 0.61445 9.51177 
9.61445 -0.0042012 0.0835075 
-0.0042012 9.53065 0.514241 
0.0835075 0.514241 9.42743 
12.2664 0.433799 -0.487132 
0.433799 10.509 0.0341978 
-0.487132 0.0341978 11.6545 
7.80089 -0.306524 -0.800667 
-0.306524 12.7742 -0.879791 
-0.800667 -0.879791 13.8548 
10.0306 0.176281 0.280628 
0.176281 11.4574 0.174271 
0.280628 0.174271 12.9419 
10.2796 -0.681032 0.817134 
-0.681032 11.2873 0.110684 
0.817134 0.110684 12.8631 
9.71199 -0.0550164 -0.389725 
-0.0550164 9.54001 0.10121 
-0.389725 0.10121 9.63448 
9.73104 -0.0841105 -0.339447 
-0.0841105 9.51401 0.1605 
-0.339447 0.1605 9.64142 
9.69155 -0.0941352 -0.265462 
-0.0941352 9.53434 0.122434 
-0.265462 0.122434 9.66058 
9.66951 0.0475861 -0.360076 
0.0475861 9.47399 0.173131 
-0.360076 0.173131 9.74297 
9.68306 -0.118728 0.0620271 
-0.118728 9.50982 -0.0461067 
0.0620271 -0.0461067 9.69061 
9.57144 0.0312629 -0.0521435 
0.0312629 9.44566 0.0201232 
-0.0521435 0.0201232 9.86639 
9.55965 -0.0438125 -0.0947995 
-0.0438125 9.49427 -0.0550687 
-0.0947995 -0.0550687 9.82956 
9.71001 -0.0879204 -0.0123743 
-0.0879204 9.55007 0.0127154 
-0.0123743 0.0127154 9.6234 
9.87558 -0.00712522 0.0455783 
-0.00712522 9.8754 -0.202623 
0.0455783 -0.202623 10.1214 
9.96863 -0.031978 0.104822 
-0.031978 9.96683 -0.175883 
0.104822 -0.175883 9.93693 
9.9773 -0.0219146 0.135841 
-0.0219146 10.0262 -0.20988 
0.135841 -0.20988 9.86888 
9.96112 -0.0156111 0.105692 
-0.0156111 10.0095 -0.143036 
0.105692 -0.143036 9.9018 
9.52242 -0.0866448 0.0976427 
-0.0866448 9.23512 0.00643129 
0.0976427 0.00643129 9.97207 
9.58894 -0.067266 0.29008 
-0.067266 9.10164 0.0225927 
0.29008 0.0225927 10.039 
9.51083 -0.0211798 0.120488 
-0.0211798 9.18662 -0.00948859 
0.120488 -0.00948859 10.0322 
9.3441 -0.0925704 0.0920125 
-0.0925704 9.28677 0.0581144 
0.0920125 0.0581144 10.0987 
9.50787 0.0550877 -0.360934 
0.0550877 9.72496 -0.420605 
-0.360934 -0.420605 9.18091 
9.50918 0.0103472 -0.472733 
0.0103472 9.7845 -0.444384 
-0.472733 -0.444384 9.12006 
9.4004 -0.0351885 -0.348381 
-0.0351885 9.81215 -0.524249 
-0.348381 -0.524249 9.20119 
9.52555 0.0314505 -0.477513 
0.0314505 9.78437 -0.469925 
-0.477513 -0.469925 9.10382 
9.6972 -0.000191201 -0.399229 
-0.000191201 9.73487 -0.158849 
-0.399229 -0.158849 9.71069 
9.76909 0.01248 -0.391825 
0.01248 9.75015 -0.141966 
-0.391825 -0.141966 9.62352 
9.73889 0.00602631 -0.391541 
0.00602631 9.71268 -0.150517 
-0.391541 -0.150517 9.69119 
9.77334 0.0429979 -0.395905 
0.0429979 9.73301 -0.0993013 
-0.395905 -0.0993013 9.6364 
9.53893 -0.0120252 0.175706 
-0.0120252 9.34137 0.074158 
0.175706 0.074158 10.0406 
9.55025 0.0420606 0.286032 
0.0420606 9.39157 0.0299847 
0.286032 0.0299847 9.97909 
9.69055 -0.0784203 0.191703 
-0.0784203 9.33664 0.144416 
0.191703 0.144416 9.89372 
9.52467 0.00646005 0.196827 
0.00646005 9.42872 0.0238673 
0.196827 0.0238673 9.96752 
9.55772 0.0771674 -0.559443 
0.0771674 9.32336 0.0622912 
-0.559443 0.0622912 9.65195 
9.50092 0.0376663 -0.557396 
0.0376663 9.3939 0.0331758 
-0.557396 0.0331758 9.63822 
9.4721 0.017461 -0.415914 
0.017461 9.46393 0.00113907 
-0.415914 0.00113907 9.59702 
9.44396 -0.118013 -0.412021 
-0.118013 9.50916 -0.0695229 
-0.412021 -0.0695229 9.57992 
9.71766 -0.0133618 -0.291855 
-0.0133618 9.74413 0.26561 
-0.291855 0.26561 9.69149 
9.76924 0.0139564 -0.305212 
0.0139564 9.74096 0.265827 
-0.305212 0.265827 9.64307 
9.76431 -0.00674099 -0.2852 
-0.00674099 9.74733 0.22977 
-0.2852 0.22977 9.64163 
9.74171 0.0127767 -0.29239 
0.0127767 9.7374 0.269059 
-0.29239 0.269059 9.67417 
9.52231 0.0176886 -0.516206 
0.0176886 9.53484 -0.0193346 
-0.516206 -0.0193346 9.74828 
9.50258 0.0291004 -0.512399 
0.0291004 9.54792 -0.0428155 
-0.512399 -0.0428155 9.75493 
9.52156 0.00722353 -0.458613 
0.00722353 9.5034 -0.0106768 
-0.458613 -0.0106768 9.78047 
9.53423 0.0352352 -0.536539 
0.0352352 9.55162 0.0117569 
-0.536539 0.0117569 9.71957 
8.3873 -0.660578 -0.768391 
-0.660578 9.65698 2.06002 
-0.768391 2.06002 9.82807 
9.92363 -0.873282 -0.657694 
-0.873282 7.52219 -0.957258 
-0.657694 -0.957258 10.4265 
8.976 -0.0461589 1.65792 
-0.0461589 8.23457 -2.11931 
1.65792 -2.11931 10.6618 
9.74432 -1.32221 2.97356 
-1.32221 8.04685 0.899644 
2.97356 0.899644 10.0812 
9.80047 0.0240464 -0.460691 
0.0240464 9.83331 -0.182387 
-0.460691 -0.182387 9.82168 
9.78938 0.0122584 -0.470097 
0.0122584 9.88296 -0.185589 
-0.470097 -0.185589 9.78312 
9.77865 0.0163509 -0.468536 
0.0163509 9.83966 -0.174414 
-0.468536 -0.174414 9.83715 
9.79653 0.0207242 -0.473631 
0.0207242 9.85225 -0.178618 
-0.473631 -0.178618 9.80668 
9.48347 0.062141 -0.474507 
0.062141 9.64757 -0.253847 
-0.474507 -0.253847 9.56371 
9.53638 -0.042206 -0.594282 
-0.042206 9.66802 -0.375864 
-0.594282 -0.375864 9.49036 
9.48051 0.0630838 -0.558242 
0.0630838 9.75354 -0.273213 
-0.558242 -0.273213 9.4607 
9.51134 -0.0136783 -0.544635 
-0.0136783 9.64332 -0.264356 
-0.544635 -0.264356 9.54009 
9.91471 0.00514782 0.431102 
0.00514782 9.93773 -0.115634 
0.431102 -0.115634 9.98579 
9.92738 0.000296824 0.440632 
0.000296824 9.92909 -0.12124 
0.440632 -0.12124 9.98177 
9.94618 -0.00202502 0.43487 
-0.00202502 9.92618 -0.129343 
0.43487 -0.129343 9.96588 
9.9402 -0.00191235 0.435761 
-0.00191235 9.92887 -0.137101 
0.435761 -0.137101 9.96917 
9.54615 -0.0415694 0.371998 
-0.0415694 9.45539 -0.0920701 
0.371998 -0.0920701 9.79895 
9.59071 -0.0138587 0.346842 
-0.0138587 9.36169 -0.114123 
0.346842 -0.114123 9.84808 
9.5261 0.120968 0.427052 
0.120968 9.366 -0.140873 
0.427052 -0.140873 9.90839 
9.73811 -0.0800007 0.177505 
-0.0800007 9.27221 -0.0609489 
0.177505 -0.0609489 9.79017 
10.1573 -0.161335 -0.274711 
-0.161335 9.60027 -0.0415135 
-0.274711 -0.0415135 8.347 
9.7878 -0.0920691 0.182904 
-0.0920691 9.78476 -0.276195 
0.182904 -0.276195 8.53198 
9.78586 -0.248455 0.347118 
-0.248455 9.77944 -0.367703 
0.347118 -0.367703 8.53924 
9.47746 -0.133861 0.489423 
-0.133861 9.38046 -0.20026 
0.489423 -0.20026 9.24662 
9.52745 0.0361071 0.293669 
0.0361071 9.58405 0.501352 
0.293669 0.501352 9.41024 
9.50181 0.0934064 0.256346 
0.0934064 9.72251 0.496182 
0.256346 0.496182 9.29741 
9.57813 0.0652891 0.260306 
0.0652891 9.58736 0.583865 
0.260306 0.583865 9.35624 
9.51027 0.0647298 0.265244 
0.0647298 9.57273 0.497348 
0.265244 0.497348 9.43872 
9.80912 -0.00950141 0.285872 
-0.00950141 9.81628 0.242319 
0.285872 0.242319 9.81948 
9.78788 -0.0151897 0.224373 
-0.0151897 9.85077 0.198337 
0.224373 0.198337 9.80624 
9.79661 -0.0589567 0.219695 
-0.0589567 9.84102 0.158369 
0.219695 0.158369 9.80725 
9.81243 0.0970602 0.173859 
0.0970602 9.92626 0.115979 
0.173859 0.115979 9.70619 
9.32873 0.0265791 -0.217759 
0.0265791 9.47047 0.143528 
-0.217759 0.143528 9.85648 
9.2787 0.0238341 -0.415818 
0.0238341 9.54113 0.0707168 
-0.415818 0.0707168 9.83585 
8.98584 0.123849 -0.362673 
0.123849 9.64698 0.160441 
-0.362673 0.160441 10.0229 
9.58124 -0.0260957 -0.62418 
-0.0260957 9.24618 0.173779 
-0.62418 0.173779 9.82825 
9.78259 -0.190455 -1.21462 
-0.190455 9.08742 -1.27288 
-1.21462 -1.27288 2.79994 
9.57658 -1.2448 -0.0763881 
-1.2448 8.9792 -0.477557 
-0.0763881 -0.477557 3.11418 
9.04915 -1.34128 1.10685 
-1.34128 6.65176 -1.01925 
1.10685 -1.01925 5.96904 
10.3501 -1.21791 -0.768041 
-1.21791 6.01764 -0.740631 
-0.768041 -0.740631 5.30224 
9.28349 0.123268 0.15653 
0.123268 9.40245 0.248404 
0.15653 0.248404 8.90938 
9.20244 0.205007 -0.16384 
0.205007 9.60999 0.290969 
-0.16384 0.290969 8.78288 
9.33439 -0.0344249 0.0882072 
-0.0344249 9.46856 0.195287 
0.0882072 0.195287 8.79236 
9.28077 0.100979 0.0775287 
0.100979 9.5078 0.258327 
0.0775287 0.258327 8.80675 
9.31876 0.0150231 0.035403 
0.0150231 9.48524 -0.0336918 
0.035403 -0.0336918 9.8183 
9.41202 -0.0524945 0.147074 
-0.0524945 9.42655 -0.229474 
0.147074 -0.229474 9.78373 
9.62653 -0.078236 0.132032 
-0.078236 9.27903 -0.248464 
0.132032 -0.248464 9.71674 
9.52921 0.0584814 0.113679 
0.0584814 9.55419 -0.3094 
0.113679 -0.3094 9.5389 
9.07678 0.0481163 0.270877 
0.0481163 9.57044 0.18606 
0.270877 0.18606 9.28584 
9.24205 0.0226529 0.195022 
0.0226529 9.52579 0.129997 
0.195022 0.129997 9.16522 
9.10921 0.0292494 0.252216 
0.0292494 9.55122 0.138578 
0.252216 0.138578 9.27262 
9.23563 0.0465091 0.176395 
0.0465091 9.5454 0.0605785 
0.176395 0.0605785 9.15202 
9.6605 -0.042183 -0.346305 
-0.042183 9.41184 0.104605 
-0.346305 0.104605 9.23776 
9.41843 -0.104302 -0.197421 
-0.104302 9.57041 0.146172 
-0.197421 0.146172 9.32126 
9.69588 -0.0777648 -0.156042 
-0.0777648 9.3528 0.0528842 
-0.156042 0.0528842 9.26143 
9.55564 -0.0556556 -0.0457655 
-0.0556556 9.66459 -0.156052 
-0.0457655 -0.156052 9.08987 
9.80858 -0.120068 0.0555285 
-0.120068 9.3546 0.0515277 
0.0555285 0.0515277 9.74024 
9.59294 -0.0187881 0.0402772 
-0.0187881 9.46417 0.0551118 
0.0402772 0.0551118 9.84631 
9.88879 -0.152011 -0.0496486 
-0.152011 9.29842 0.0976119 
-0.0496486 0.0976119 9.71621 
9.75416 -0.101194 0.120635 
-0.101194 9.46782 0.0549545 
0.120635 0.0549545 9.68145 
1.74909 0.896409 2.26033 
0.896409 0.0265863 -1.33961 
2.26033 -1.33961 7.8663 
6.55364 0.871157 -1.01102 
0.871157 6.81915 -0.820129 
-1.01102 -0.820129 -3.73081 
4.92351 0.0310788 -1.19954 
0.0310788 7.78016 -2.47796 
-1.19954 -2.47796 -3.06169 
8.67631 -0.292948 4.33063 
-0.292948 5.71219 -4.19085 
4.33063 -4.19085 -4.74653 
9.57306 0.113988 -0.557872 
0.113988 9.67555 -0.208438 
-0.557872 -0.208438 9.56761 
9.5219 0.0692829 -0.499267 
0.0692829 9.64363 -0.258985 
-0.499267 -0.258985 9.65069 
9.46132 -0.063734 -0.527945 
-0.063734 9.69369 -0.221502 
-0.527945 -0.221502 9.66121 
9.50132 0.0756827 -0.444294 
0.0756827 9.75612 -0.144188 
-0.444294 -0.144188 9.55877 
9.59639 -0.0703525 0.454903 
-0.0703525 9.67787 -0.124771 
0.454903 -0.124771 9.75761 
9.65291 -0.0633841 0.444553 
-0.0633841 9.63341 -0.0556619 
0.444553 -0.0556619 9.74556 
9.62737 -0.0530559 0.454122 
-0.0530559 9.63391 -0.0901453 
0.454122 -0.0901453 9.7706 
9.58527 -0.00454509 0.412601 
-0.00454509 9.62404 -0.0938497 
0.412601 -0.0938497 9.82257 
9.73607 0.00203613 -0.395261 
0.00203613 9.74593 0.156231 
-0.395261 0.156231 9.89872 
9.74101 0.0182093 -0.404769 
0.0182093 9.76812 0.133306 
-0.404769 0.133306 9.87158 
9.78349 -0.0183115 -0.438005 
-0.0183115 9.79027 0.108654 
-0.438005 0.108654 9.80694 
9.79344 -0.00392173 -0.44499 
-0.00392173 9.73884 0.147795 
-0.44499 0.147795 9.84843 
9.69675 -0.053152 0.266262 
-0.053152 9.44868 -0.00995822 
0.266262 -0.00995822 9.8572 
9.66224 -0.101378 0.30382 
-0.101378 9.39826 0.0409209 
0.30382 0.0409209 9.94212 
9.6929 -0.0558748 0.238239 
-0.0558748 9.45397 -0.0349195 
0.238239 -0.0349195 9.85575 
9.67434 -0.0653206 0.259265 
-0.0653206 9.45376 -0.00438052 
0.259265 -0.00438052 9.87452 
9.7936 -0.0105333 -0.429913 
-0.0105333 9.78083 0.0278787 
-0.429913 0.0278787 9.91294 
9.78783 0.00798566 -0.412788 
0.00798566 9.78892 0.0473922 
-0.412788 0.0473922 9.91062 
9.79786 0.0253122 -0.426575 
0.0253122 9.81305 0.053997 
-0.426575 0.053997 9.87646 
9.82091 0.012539 -0.402958 
0.012539 9.80541 0.0356675 
-0.402958 0.0356675 9.86105 
9.53815 -0.00992872 0.0661169 
-0.00992872 9.42742 -0.629704 
0.0661169 -0.629704 9.53134 
9.4968 -0.0133727 0.0518914 
-0.0133727 9.52418 -0.552203 
0.0518914 -0.552203 9.47593 
9.40211 0.00890444 0.0673019 
0.00890444 9.67725 -0.716069 
0.0673019 -0.716069 9.41755 
9.48864 0.0174729 0.0668697 
0.0174729 9.53047 -0.483795 
0.0668697 -0.483795 9.47781 
9.76772 -0.144412 0.197786 
-0.144412 9.32163 -0.186413 
0.197786 -0.186413 10.101 
9.75084 -0.0618273 0.143075 
-0.0618273 9.40874 -0.200784 
0.143075 -0.200784 10.0307 
9.72682 -0.110571 0.200177 
-0.110571 9.39177 -0.17136 
0.200177 -0.17136 10.0717 
9.67398 -0.107852 0.206522 
-0.107852 9.46396 -0.161153 
0.206522 -0.161153 10.0524 
9.57206 -0.0448766 0.160552 
-0.0448766 9.39893 -0.165274 
0.160552 -0.165274 9.91199 
9.61114 -0.0691017 0.111785 
-0.0691017 9.42866 0.000440914 
0.111785 0.000440914 9.84318 
9.76281 -0.104218 0.275503 
-0.104218 9.27818 0.005271 
0.275503 0.005271 9.84199 
9.49978 -0.0684195 0.147202 
-0.0684195 9.50309 0.0117551 
0.147202 0.0117551 9.88011 
9.87752 -0.0771512 0.491889 
-0.0771512 9.74543 -0.0322311 
0.491889 -0.0322311 9.94894 
9.8809 0.0422847 0.43539 
0.0422847 9.83504 -0.0392011 
0.43539 -0.0392011 9.85595 
9.83127 0.0730366 0.488432 
0.0730366 9.87412 0.000513256 
0.488432 0.000513256 9.86649 
9.90751 -0.0103695 0.418573 
-0.0103695 9.84206 -0.0304899 
0.418573 -0.0304899 9.82232 
7.15249 0.215065 -0.962131 
0.215065 8.2393 -0.536022 
-0.962131 -0.536022 5.19771 
8.12008 -0.140156 -1.69296 
-0.140156 8.05192 -0.270702 
-1.69296 -0.270702 4.4175 
7.17642 -0.372582 -1.17064 
-0.372582 7.15563 -0.756719 
-1.17064 -0.756719 6.25746 
7.81481 0.0745014 -1.36042 
0.0745014 7.95544 -0.829319 
-1.36042 -0.829319 4.81925 
9.53519 -0.277312 0.148748 
-0.277312 9.3722 0.419686 
0.148748 0.419686 10.0422 
9.95409 0.334089 -0.139589 
0.334089 9.24623 -0.046979 
-0.139589 -0.046979 9.74932 
9.60655 0.25127 0.0837286 
0.25127 9.31071 -0.677916 
0.0837286 -0.677916 10.0324 
8.96134 0.430055 0.616205 
0.430055 9.4108 -0.00527007 
0.616205 -0.00527007 10.5775 
9.10415 0.0794476 0.03737 
0.0794476 8.27418 0.112219 
0.03737 0.112219 9.15926 
8.77748 0.01131 0.0228267 
0.01131 8.27628 0.351075 
0.0228267 0.351075 9.48383 
9.26076 -0.0191792 0.0230952 
-0.0191792 8.42552 0.130804 
0.0230952 0.130804 8.85131 
9.10727 -0.185157 0.0689237 
-0.185157 8.29204 0.209929 
0.0689237 0.209929 9.13827 
9.52356 0.147178 0.113472 
0.147178 9.20311 0.333997 
0.113472 0.333997 10.086 
9.58775 -0.0623286 0.124641 
-0.0623286 9.31016 -0.0128718 
0.124641 -0.0128718 9.9148 
9.71764 -0.0750383 0.16291 
-0.0750383 9.2403 0.373687 
0.16291 0.373687 9.85477 
9.38168 -0.0422461 0.000123969 
-0.0422461 9.02002 0.322957 
0.000123969 0.322957 10.411 
9.67599 -0.166483 0.06715 
-0.166483 9.19033 0.138501 
0.06715 0.138501 9.55209 
9.87223 -0.0829192 0.0709184 
-0.0829192 9.18614 0.11611 
0.0709184 0.11611 9.36005 
9.73645 -0.113995 0.0549029 
-0.113995 9.24651 0.122278 
0.0549029 0.122278 9.43545 
9.77104 -0.18007 0.0419209 
-0.18007 9.23757 0.206065 
0.0419209 0.206065 9.4098 
8.66812 0.373587 -3.73864 
0.373587 7.6027 -0.0789837 
-3.73864 -0.0789837 5.07083 
7.20987 -0.0947587 -3.88674 
-0.0947587 6.12055 1.51564 
-3.88674 1.51564 8.01123 
4.21583 -1.02329 -1.65478 
-1.02329 9.71609 -0.275257 
-1.65478 -0.275257 7.40974 
6.62438 0.750996 -3.83589 
0.750996 6.34722 -1.94293 
-3.83589 -1.94293 8.37006 
8.16598 -0.597614 -2.28569 
-0.597614 8.55865 -1.24927 
-2.28569 -1.24927 7.53635 
8.44069 0.641927 -0.922406 
0.641927 8.93932 0.286331 
-0.922406 0.286331 6.88096 
8.36347 -0.639365 -1.60661 
-0.639365 7.12722 -1.09742 
-1.60661 -1.09742 8.77028 
8.35713 -0.612918 -1.02036 
-0.612918 8.96767 -0.651982 
-1.02036 -0.651982 6.93618 
9.24958 -0.0508772 0.0852765 
-0.0508772 9.53494 -0.625018 
0.0852765 -0.625018 9.59981 
9.58992 0.143255 0.0808836 
0.143255 9.62597 -0.683131 
0.0808836 -0.683131 9.16844 
9.48707 -0.0439038 0.0798005 
-0.0439038 9.41623 -0.692414 
0.0798005 -0.692414 9.48103 
9.20775 0.085886 -0.0153413 
0.085886 9.56843 -0.369505 
-0.0153413 -0.369505 9.60814 
9.79634 -0.0240743 -0.279478 
-0.0240743 9.57694 0.0781649 
-0.279478 0.0781649 9.71062 
9.80087 -0.0218732 -0.273491 
-0.0218732 9.5879 0.0717981 
-0.273491 0.0717981 9.69514 
9.75628 0.0147809 -0.297285 
0.0147809 9.57567 0.10203 
-0.297285 0.10203 9.75197 
9.78103 -0.0546952 -0.27833 
-0.0546952 9.60931 0.0863483 
-0.27833 0.0863483 9.69357 
9.9069 -0.0394678 -0.278741 
-0.0394678 9.84297 -0.257166 
-0.278741 -0.257166 9.74994 
9.75499 0.0263642 -0.261972 
0.0263642 9.88476 -0.240419 
-0.261972 -0.240419 9.86005 
9.80725 0.0425294 -0.299469 
0.0425294 9.99172 -0.179892 
-0.299469 -0.179892 9.70084 
9.95689 -0.0102718 -0.329288 
-0.0102718 9.83109 -0.4111 
-0.329288 -0.4111 9.71182 
9.72528 0.0153277 -0.00572363 
0.0153277 9.78578 0.248532 
-0.00572363 0.248532 9.63024 
9.73863 3.83568e-05 -0.0158713 
3.83568e-05 9.784 0.181591 
-0.0158713 0.181591 9.61867 
9.7701 0.0136157 -0.0211845 
0.0136157 9.83122 0.250382 
-0.0211845 0.250382 9.53998 
9.73226 -0.00429317 -0.013929 
-0.00429317 9.80007 0.21427 
-0.013929 0.21427 9.60897 
9.3115 0.318288 -0.429294 
0.318288 8.97831 0.385704 
-0.429294 0.385704 9.73511 
8.16414 -0.221463 -0.245052 
-0.221463 9.8651 -0.123324 
-0.245052 -0.123324 9.99567 
8.01761 0.289225 -0.479551 
0.289225 9.2526 0.387178 
-0.479551 0.387178 10.7547 
7.93612 0.429372 -0.359407 
0.429372 9.39542 0.233444 
-0.359407 0.233444 10.6934 
9.62564 0.0113501 -0.0858205 
0.0113501 9.38663 0.0479327 
-0.0858205 0.0479327 9.73835 
9.64319 -0.0195555 0.032821 
-0.0195555 9.43181 -0.00313517 
0.032821 -0.00313517 9.67562 
9.65554 0.0149271 0.070685 
0.0149271 9.42237 -0.018671 
0.070685 -0.018671 9.67271 
9.64614 -0.0881661 0.0511914 
-0.0881661 9.44477 -0.0162256 
0.0511914 -0.0162256 9.65971 
9.65708 0.0526809 0.526943 
0.0526809 9.66602 0.117686 
0.526943 0.117686 9.44504 
9.64102 0.0490403 0.503288 
0.0490403 9.80074 0.158576 
0.503288 0.158576 9.32639 
9.63462 0.067727 0.556871 
0.067727 9.72567 0.0743095 
0.556871 0.0743095 9.40786 
9.59998 0.0749245 0.454405 
0.0749245 9.5445 0.200952 
0.454405 0.200952 9.62366 
9.49538 -0.321167 -0.800295 
-0.321167 8.25636 -0.962022 
-0.800295 -0.962022 9.27177 
9.84549 -0.19813 -1.70202 
-0.19813 9.02541 -0.734131 
-1.70202 -0.734131 8.15261 
9.0825 -0.25406 -1.19129 
-0.25406 8.55102 -0.905247 
-1.19129 -0.905247 9.38998 
9.26424 -0.221033 -1.13432 
-0.221033 8.28784 -0.810976 
-1.13432 -0.810976 9.47143 
9.75464 0.0422354 0.533268 
0.0422354 9.78355 0.135127 
0.533268 0.135127 9.71821 
9.78673 0.0323582 0.535743 
0.0323582 9.82225 0.122916 
0.535743 0.122916 9.64743 
9.72494 0.0244678 0.446779 
0.0244678 9.8088 0.0769221 
0.446779 0.0769221 9.72267 
9.77286 0.0246721 0.53278 
0.0246721 9.7849 0.128486 
0.53278 0.128486 9.69865 
10.0679 -0.474634 -0.164474 
-0.474634 9.06328 -0.362543 
-0.164474 -0.362543 10.8072 
9.96096 -0.59258 0.0770339 
-0.59258 9.28043 -0.131663 
0.0770339 -0.131663 10.697 
9.65273 -0.860227 0.107459 
-0.860227 8.59974 -0.335529 
0.107459 -0.335529 11.686 
9.70626 -0.62304 -0.178609 
-0.62304 10.0722 -0.886093 
-0.178609 -0.886093 10.16 
9.63096 -0.00309633 0.173541 
-0.00309633 9.30849 0.0936859 
0.173541 0.0936859 10.1039 
9.66139 -0.00721369 0.179438 
-0.00721369 9.35899 0.124413 
0.179438 0.124413 10.0229 
9.57888 -0.0376395 0.130103 
-0.0376395 9.39729 0.0959437 
0.130103 0.0959437 10.0671 
9.56615 -0.00991279 0.173833 
-0.00991279 9.43023 0.0475721 
0.173833 0.0475721 10.0469 
9.71751 0.00569977 -0.415653 
0.00569977 9.40992 0.154366 
-0.415653 0.154366 9.66767 
9.66843 -0.0898484 -0.396825 
-0.0898484 9.5287 0.150889 
-0.396825 0.150889 9.59797 
9.65907 -0.00347093 -0.349767 
-0.00347093 9.49058 0.106698 
-0.349767 0.106698 9.64545 
9.63583 -0.0687025 -0.376487 
-0.0687025 9.48131 0.113571 
-0.376487 0.113571 9.67796 
6.74817 0.462084 -1.12957 
0.462084 10.4198 -0.492318 
-1.12957 -0.492318 7.96215 
8.15945 -0.0922613 1.50244 
-0.0922613 8.43545 0.30439 
1.50244 0.30439 8.53525 
8.45194 -0.304753 1.26773 
-0.304753 9.10808 0.673844 
1.26773 0.673844 7.57013 
9.00949 -0.544319 1.23718 
-0.544319 8.13953 0.36121 
1.23718 0.36121 7.98113 
9.86061 -0.0562042 -0.094721 
-0.0562042 9.50087 -0.0107185 
-0.094721 -0.0107185 9.50857 
9.7685 -0.0951709 -0.0479171 
-0.0951709 9.44848 0.012823 
-0.0479171 0.012823 9.65307 
9.67949 -0.139185 -0.112739 
-0.139185 9.47898 0.0668484 
-0.112739 0.0668484 9.71159 
9.83216 0.0213543 -0.0225206 
0.0213543 9.52944 0.0602731 
-0.0225206 0.0602731 9.50846 
9.66975 0.0245207 0.17554 
0.0245207 9.32953 -0.288457 
0.17554 -0.288457 9.95519 
9.58911 -0.0996888 0.239908 
-0.0996888 9.30536 0.0703586 
0.239908 0.0703586 10.06 
9.67946 -0.0568221 0.182505 
-0.0568221 9.38828 -0.102331 
0.182505 -0.102331 9.88673 
9.59761 -0.195157 0.346899 
-0.195157 9.58689 0.0747316 
0.346899 0.0747316 9.76997 
9.35082 -0.137836 0.0438321 
-0.137836 9.38575 0.24931 
0.0438321 0.24931 10.9044 
9.77098 -0.161114 -0.557429 
-0.161114 9.54936 -0.11787 
-0.557429 -0.11787 10.3206 
9.59911 -0.12856 0.245863 
-0.12856 9.45936 0.107086 
0.245863 0.107086 10.5825 
9.43735 0.0766078 -0.186687 
0.0766078 9.52927 -0.0577291 
-0.186687 -0.0577291 10.6744 
9.67629 -0.0679532 0.252016 
-0.0679532 9.65599 -0.127646 
0.252016 -0.127646 10.1325 
9.51047 0.0713746 -0.051465 
0.0713746 9.75226 -0.00726985 
-0.051465 -0.00726985 10.202 
9.869 0.120796 -0.396518 
0.120796 9.93708 0.000104989 
-0.396518 0.000104989 9.6587 
9.55903 0.0618994 -0.0149422 
0.0618994 9.73437 0.0533708 
-0.0149422 0.0533708 10.1714 
8.92743 -0.0390154 -0.564349 
-0.0390154 9.39929 -0.302797 
-0.564349 -0.302797 9.86491 
9.01624 -0.212189 0.24529 
-0.212189 9.18015 -0.465866 
0.24529 -0.465866 9.99524 
8.65327 -0.041893 -0.599548 
-0.041893 9.47391 -0.166272 
-0.599548 -0.166272 10.0645 
8.87804 -0.132411 -0.625023 
-0.132411 9.67585 -0.409175 
-0.625023 -0.409175 9.63774 
8.67461 -0.205051 -0.00539339 
-0.205051 8.99505 0.198239 
-0.00539339 0.198239 9.78414 
8.60305 0.450976 0.753987 
0.450976 9.38537 1.35669 
0.753987 1.35669 9.46539 
8.91604 -0.351628 0.00382991 
-0.351628 8.84121 0.151303 
0.00382991 0.151303 9.69655 
8.18126 -0.883159 -0.0460005 
-0.883159 9.21652 0.569238 
-0.0460005 0.569238 10.056 
9.46402 -0.180428 -0.358961 
-0.180428 9.06247 -0.0557451 
-0.358961 -0.0557451 9.39991 
9.44683 -0.212609 -0.390217 
-0.212609 9.20645 -0.0282584 
-0.390217 -0.0282584 9.27312 
9.55409 -0.265061 -0.5533 
-0.265061 9.17159 0.254732 
-0.5533 0.254732 9.20073 
9.51634 -0.251674 -0.394965 
-0.251674 9.07186 0.0148401 
-0.394965 0.0148401 9.33821 
9.90016 -0.347841 0.104318 
-0.347841 9.63417 0.25377 
0.104318 0.25377 9.34135 
9.17759 0.485062 -1.15946 
0.485062 9.71779 0.532947 
-1.15946 0.532947 9.98031 
9.03511 0.258487 -1.23607 
0.258487 9.87253 0.249226 
-1.23607 0.249226 9.96805 
9.15199 0.390864 -1.09382 
0.390864 9.93754 -0.381001 
-1.09382 -0.381001 9.78616 
9.37093 -0.195443 0.298956 
-0.195443 9.17923 0.0941703 
0.298956 0.0941703 9.87105 
9.4532 -0.181119 0.258805 
-0.181119 9.05312 -0.0831933 
0.258805 -0.0831933 9.91489 
9.45098 -0.140068 0.479285 
-0.140068 9.20685 0.0405885 
0.479285 0.0405885 9.76338 
9.52175 -0.139435 0.415805 
-0.139435 9.09222 0.140325 
0.415805 0.140325 9.80724 
9.67846 -0.0257411 -0.0912449 
-0.0257411 9.57531 0.0159956 
-0.0912449 0.0159956 9.56201 
9.61195 -0.0320509 -0.116883 
-0.0320509 9.58737 0.0740435 
-0.116883 0.0740435 9.61646 
9.59232 0.0229104 -0.165851 
0.0229104 9.60713 0.132253 
-0.165851 0.132253 9.61633 
9.6101 -0.0756267 -0.188114 
-0.0756267 9.49813 0.148414 
-0.188114 0.148414 9.70755 
9.85896 -0.0142934 -0.218579 
-0.0142934 9.82274 0.183419 
-0.218579 0.183419 9.8042 
9.82002 0.106296 -0.203547 
0.106296 9.82903 0.261713 
-0.203547 0.261713 9.83685 
9.87093 0.0117509 -0.22142 
0.0117509 9.82252 0.211248 
-0.22142 0.211248 9.79245 
9.89525 0.0316297 -0.238321 
0.0316297 9.8174 0.0913794 
-0.238321 0.0913794 9.77325 
6.38738 0.557367 -1.45561 
0.557367 6.60892 -1.08171 
-1.45561 -1.08171 5.19627 
7.41812 -0.185734 -1.62342 
-0.185734 6.38938 -2.29241 
-1.62342 -2.29241 4.38508 
7.02992 -0.875757 -0.966642 
-0.875757 6.85831 -2.11322 
-0.966642 -2.11322 4.30434 
6.69339 -0.254332 -1.8058 
-0.254332 6.03179 -1.94512 
-1.8058 -1.94512 5.4674 
9.52868 0.0383204 -0.426702 
0.0383204 9.18025 0.064113 
-0.426702 0.064113 9.25245 
9.40279 0.00903819 -0.435698 
0.00903819 9.51222 0.0323062 
-0.435698 0.0323062 9.04637 
9.44473 -0.0697435 -0.396047 
-0.0697435 9.36587 0.115006 
-0.396047 0.115006 9.15078 
9.57457 0.0262213 -0.479382 
0.0262213 9.4611 -0.00275117 
-0.479382 -0.00275117 8.92572 
8.85383 -0.0244702 -0.331566 
-0.0244702 9.2402 0.40446 
-0.331566 0.40446 8.89087 
9.73116 0.276075 -0.013761 
0.276075 8.82534 0.427695 
-0.013761 0.427695 8.4284 
8.99723 0.286394 -0.577486 
0.286394 9.31754 0.328786 
-0.577486 0.328786 8.67013 
8.99475 0.0669148 -0.581605 
0.0669148 9.42384 0.417846 
-0.581605 0.417846 8.56632 
9.55443 0.0715452 -0.382417 
0.0715452 9.23816 0.00599516 
-0.382417 0.00599516 9.21708 
9.58286 0.0506024 -0.250909 
0.0506024 9.2414 0.0132966 
-0.250909 0.0132966 9.18542 
9.5746 0.0435625 -0.348485 
0.0435625 9.25259 0.0546288 
-0.348485 0.0546288 9.18249 
9.6468 0.0316846 -0.325021 
0.0316846 9.26605 0.0858209 
-0.325021 0.0858209 9.09683 
9.88152 0.0072392 -0.448238 
0.0072392 9.88941 0.145606 
-0.448238 0.145606 9.98706 
9.91182 0.00198565 -0.439061 
0.00198565 9.91008 0.161503 
-0.439061 0.161503 9.93608 
9.87927 0.000947801 -0.432296 
0.000947801 9.8899 0.132768 
-0.432296 0.132768 9.98881 
9.90695 0.00868451 -0.430018 
0.00868451 9.88725 0.186238 
-0.430018 0.186238 9.96378 
9.88396 -8.87328e-05 0.122255 
-8.87328e-05 9.79079 0.0111493 
0.122255 0.0111493 9.8934 
9.77614 -0.00427418 0.0934172 
-0.00427418 9.84725 -0.0474409 
0.0934172 -0.0474409 9.94476 
9.83463 -0.0296889 0.161323 
-0.0296889 9.88287 0.0389005 
0.161323 0.0389005 9.85065 
9.88049 -0.00185818 0.118536 
-0.00185818 9.78377 0.0124907 
0.118536 0.0124907 9.90389 
9.85297 0.0500934 0.444962 
0.0500934 9.77071 0.0277941 
0.444962 0.0277941 10.0228 
9.8628 0.0366301 0.499898 
0.0366301 9.88902 0.0489872 
0.499898 0.0489872 9.89464 
9.87251 0.0301175 0.534734 
0.0301175 9.8853 0.0576014 
0.534734 0.0576014 9.88865 
9.911 0.0325102 0.499181 
0.0325102 9.87497 0.0290906 
0.499181 0.0290906 9.86049 
9.72998 0.0650701 -0.215049 
0.0650701 9.34338 -0.0467815 
-0.215049 -0.0467815 9.59957 
9.27981 0.0341884 -0.321861 
0.0341884 9.62057 -0.0146815 
-0.321861 -0.0146815 9.77255 
9.06771 -0.0113837 -0.247141 
-0.0113837 9.71093 -0.0492508 
-0.247141 -0.0492508 9.89429 
9.39249 0.318019 -0.37284 
0.318019 9.49064 0.0153672 
-0.37284 0.0153672 9.78981 
9.78129 -0.00487831 0.20634 
-0.00487831 9.85331 -0.540421 
0.20634 -0.540421 9.81729 
9.80245 0.00528609 0.224515 
0.00528609 9.8716 -0.531897 
0.224515 -0.531897 9.77785 
9.82675 0.041971 0.286885 
0.041971 9.84358 -0.553814 
0.286885 -0.553814 9.78156 
9.77446 -0.00013015 0.261501 
-0.00013015 9.91531 -0.529312 
0.261501 -0.529312 9.76212 
9.15096 -0.0133881 -0.526653 
-0.0133881 9.70468 0.814742 
-0.526653 0.814742 9.81298 
8.39464 -0.367844 -0.195304 
-0.367844 9.99092 0.217916 
-0.195304 0.217916 10.2831 
8.73914 -0.0492211 -0.819722 
-0.0492211 9.5747 -0.1761 
-0.819722 -0.1761 10.3548 
9.4796 0.393533 -0.231646 
0.393533 9.42166 0.339212 
-0.231646 0.339212 9.76736 
9.65683 -0.0490568 0.370751 
-0.0490568 9.55109 -0.0276816 
0.370751 -0.0276816 9.77508 
9.63978 0.00119122 0.463355 
0.00119122 9.50947 0.025002 
0.463355 0.025002 9.83375 
9.63339 -0.0802006 0.42514 
-0.0802006 9.53955 -0.0734344 
0.42514 -0.0734344 9.81006 
9.63141 -0.100615 0.381777 
-0.100615 9.51592 -0.0510233 
0.381777 -0.0510233 9.83566 
9.13163 0.185978 -0.323401 
0.185978 9.56173 -0.553694 
-0.323401 -0.553694 9.60083 
9.74513 0.0433056 -0.487801 
0.0433056 9.51299 -0.638698 
-0.487801 -0.638698 9.03606 
9.38165 -0.218983 -0.421621 
-0.218983 9.53557 -0.602541 
-0.421621 -0.602541 9.37697 
9.33343 0.251507 -0.20216 
0.251507 9.41653 -0.105923 
-0.20216 -0.105923 9.54423 
2.52652 -0.76264 1.14244 
-0.76264 2.61668 -0.252676 
1.14244 -0.252676 2.83265 
4.13996 -1.23502 1.50146 
-1.23502 3.97086 0.735996 
1.50146 0.735996 -0.13497 
4.99676 -0.842655 0.914901 
-0.842655 3.38059 1.04802 
0.914901 1.04802 -0.401498 
3.40588 -0.939656 0.953613 
-0.939656 4.41376 -0.844174 
0.953613 -0.844174 0.156208 
6.07461 0.689638 -0.107651 
0.689638 5.76714 0.678732 
-0.107651 0.678732 1.89965 
5.65266 0.203711 0.128603 
0.203711 5.8172 0.105874 
0.128603 0.105874 2.27155 
5.94545 -0.121504 -0.200122 
-0.121504 6.01755 0.225797 
-0.200122 0.225797 1.77841 
5.65977 0.0679709 0.262479 
0.0679709 6.34947 -0.336806 
0.262479 -0.336806 1.73217 
9.45989 0.244401 0.753513 
0.244401 9.44224 0.0589681 
0.753513 0.0589681 9.04044 
9.55728 0.0293967 0.458326 
0.0293967 9.83577 -0.257106 
0.458326 -0.257106 8.54952 
9.07921 0.000135811 0.53865 
0.000135811 9.45259 -0.141705 
0.53865 -0.141705 9.41078 
9.54909 0.1637 0.56177 
0.1637 9.37632 0.0782063 
0.56177 0.0782063 9.01717 
9.89005 -0.0233814 0.428297 
-0.0233814 9.85976 -0.130199 
0.428297 -0.130199 9.95195 
9.88034 0.0121559 0.448991 
0.0121559 9.90037 -0.113076 
0.448991 -0.113076 9.92105 
9.86858 -0.00458644 0.434058 
-0.00458644 9.86902 -0.128414 
0.434058 -0.128414 9.96416 
9.88475 -0.0188008 0.433726 
-0.0188008 9.8747 -0.123588 
0.433726 -0.123588 9.94232 
9.79287 -0.00341261 -0.381557 
-0.00341261 9.73997 0.135203 
-0.381557 0.135203 9.87345 
9.7959 0.0136423 -0.400848 
0.0136423 9.75562 0.14642 
-0.400848 0.14642 9.85478 
9.7856 -0.00801065 -0.393578 
-0.00801065 9.78741 0.120813 
-0.393578 0.120813 9.83329 
9.79853 -0.0192514 -0.427953 
-0.0192514 9.7473 0.142385 
-0.427953 0.142385 9.86046 
9.46399 0.0823455 -0.478541 
0.0823455 9.42912 -0.075472 
-0.478541 -0.075472 9.78128 
9.44224 0.0108949 -0.560678 
0.0108949 9.45788 0.0369957 
-0.560678 0.0369957 9.77428 
9.38537 0.0475267 -0.60979 
0.0475267 9.44522 0.0472882 
-0.60979 0.0472882 9.84381 
9.45831 -0.10173 -0.612928 
-0.10173 9.48177 0.0503302 
-0.612928 0.0503302 9.73432 
10.2129 1.47117 0.639415 
1.47117 11.8227 0.229911 
0.639415 0.229911 11.8978 
9.18291 -1.36164 -0.945094 
-1.36164 8.76093 0.15226 
-0.945094 0.15226 15.9895 
6.38417 0.159631 -0.119177 
0.159631 11.2957 0.147066 
-0.119177 0.147066 16.2535 
7.52291 -0.12931 1.43654 
-0.12931 12.6767 1.54485 
1.43654 1.54485 13.7338 
9.4993 0.164009 -0.597239 
0.164009 9.54435 -0.198173 
-0.597239 -0.198173 10.1691 
9.70987 -0.453063 -0.73599 
-0.453063 8.77288 -0.459845 
-0.73599 -0.459845 10.7301 
9.35727 -0.323711 -0.644643 
-0.323711 9.61419 -0.536452 
-0.644643 -0.536452 10.2413 
9.55117 -0.300736 -0.932738 
-0.300736 9.27143 -0.44669 
-0.932738 -0.44669 10.3902 
9.22096 -0.510619 0.712265 
-0.510619 8.80926 -0.320419 
0.712265 -0.320419 10.4272 
9.41757 -0.4802 0.92477 
-0.4802 9.09452 -0.545151 
0.92477 -0.545151 9.94532 
9.1532 -0.54247 0.790522 
-0.54247 8.54986 -0.193431 
0.790522 -0.193431 10.7544 
9.1272 -0.474109 0.693073 
-0.474109 8.89189 -0.432066 
0.693073 -0.432066 10.4383 
8.98273 -0.0348964 -0.597023 
-0.0348964 9.26384 -0.770784 
-0.597023 -0.770784 9.04462 
8.95243 -0.524476 -0.610934 
-0.524476 9.14755 -0.775056 
-0.610934 -0.775056 9.19121 
9.33475 0.15365 -0.722404 
0.15365 9.46733 -0.849516 
-0.722404 -0.849516 8.48911 
8.92774 -0.0139807 -0.415709 
-0.0139807 9.52315 -0.846387 
-0.415709 -0.846387 8.8403 
10.344 -1.77323 -1.85088 
-1.77323 6.26273 -0.588991 
-1.85088 -0.588991 11.5655 
9.84575 -0.445971 0.233897 
-0.445971 8.70709 -1.29434 
0.233897 -1.29434 9.61943 
8.91021 -0.502577 -0.912905 
-0.502577 9.36877 -1.18176 
-0.912905 -1.18176 9.89328 
8.73669 -0.54222 -0.975335 
-0.54222 8.23747 0.592068 
-0.975335 0.592068 11.1981 
9.7689 0.044059 -0.520678 
0.044059 9.79255 -0.171307 
-0.520678 -0.171307 9.85101 
9.76233 0.0270104 -0.509497 
0.0270104 9.81045 -0.155048 
-0.509497 -0.155048 9.83968 
9.76284 0.0218423 -0.4605 
0.0218423 9.83514 -0.13985 
-0.4605 -0.13985 9.81448 
9.76826 0.00768661 -0.492809 
0.00768661 9.80528 -0.167201 
-0.492809 -0.167201 9.83892 
9.84711 -0.0344369 0.0982825 
-0.0344369 9.67036 -0.0237544 
0.0982825 -0.0237544 10.0268 
9.80721 -0.0430962 0.0864844 
-0.0430962 9.71203 -0.0439664 
0.0864844 -0.0439664 10.025 
9.84614 -0.0145254 0.140504 
-0.0145254 9.71568 -0.000830572 
0.140504 -0.000830572 9.98244 
9.84932 -0.00469036 0.126043 
-0.00469036 9.75201 0.0790364 
0.126043 0.0790364 9.94293 
8.02714 -0.314171 0.653461 
-0.314171 8.28247 0.818129 
0.653461 0.818129 7.5357 
8.20912 -0.138636 1.19481 
-0.138636 8.66528 0.735672 
1.19481 0.735672 6.97091 
8.3016 -0.0592741 1.09053 
-0.0592741 8.67656 0.147034 
1.09053 0.147034 6.86714 
7.94371 0.208108 1.69236 
0.208108 9.20733 1.63702 
1.69236 1.63702 6.69426 
9.36941 -0.122296 -0.484038 
-0.122296 8.93378 0.167099 
-0.484038 0.167099 9.26667 
9.2984 0.0240824 -0.596655 
0.0240824 9.12441 -0.0717833 
-0.596655 -0.0717833 9.14706 
9.37755 -0.109885 -0.410938 
-0.109885 9.00248 0.113734 
-0.410938 0.113734 9.18983 
9.30122 -0.176103 -0.600648 
-0.176103 9.19711 0.079449 
-0.600648 0.079449 9.07153 
9.77956 0.00669761 -0.0827555 
0.00669761 9.79616 0.312417 
-0.0827555 0.312417 9.4956 
9.73668 0.0102826 -0.107033 
0.0102826 9.78917 0.332199 
-0.107033 0.332199 9.54547 
9.7523 0.0254943 -0.0625251 
0.0254943 9.74938 0.317384 
-0.0625251 0.317384 9.56964 
9.74052 0.00758952 -0.121221 
0.00758952 9.76492 0.333665 
-0.121221 0.333665 9.56587 
9.88728 -0.00414485 -0.216967 
-0.00414485 9.84114 0.071208 
-0.216967 0.071208 10.0687 
9.94977 -0.0103747 -0.202698 
-0.0103747 9.93473 0.0516651 
-0.202698 0.0516651 9.9126 
9.92765 0.00250968 -0.202444 
0.00250968 9.90362 0.0767829 
-0.202444 0.0767829 9.96584 
9.95543 -0.0255271 -0.216284 
-0.0255271 9.93073 0.0953277 
-0.216284 0.0953277 9.91095 
9.2285 0.145658 0.229399 
0.145658 9.6441 0.046363 
0.229399 0.046363 8.85458 
9.38493 0.0458087 0.285886 
0.0458087 9.51189 0.306102 
0.285886 0.306102 8.83035 
9.37931 0.0420592 0.354804 
0.0420592 9.58909 0.371714 
0.354804 0.371714 8.75877 
9.35928 -0.0366149 0.254883 
-0.0366149 9.37409 0.351697 
0.254883 0.351697 8.99381 
9.87347 -0.038496 -0.228113 
-0.038496 9.82392 0.179931 
-0.228113 0.179931 9.91751 
9.8522 -0.0580551 -0.299715 
-0.0580551 9.92036 0.162587 
-0.299715 0.162587 9.84234 
9.85853 -0.0428131 -0.261041 
-0.0428131 9.88855 0.130922 
-0.261041 0.130922 9.86781 
9.90781 -0.055628 -0.223273 
-0.055628 9.82628 0.168474 
-0.223273 0.168474 9.88081 
9.95489 0.0185671 0.462664 
0.0185671 9.98829 0.00450432 
0.462664 0.00450432 9.8686 
9.89071 -0.00345705 0.411744 
-0.00345705 9.85845 0.0294177 
0.411744 0.0294177 10.0626 
9.91669 0.0163767 0.444475 
0.0163767 9.9206 -0.00535878 
0.444475 -0.00535878 9.97449 
9.97069 0.0594729 0.412808 
0.0594729 9.91711 -0.0782591 
0.412808 -0.0782591 9.92398 
9.73823 -0.0105549 0.247289 
-0.0105549 9.66614 0.297565 
0.247289 0.297565 9.61521 
9.67809 0.031755 0.216827 
0.031755 9.7246 0.183908 
0.216827 0.183908 9.61689 
9.57922 0.0526177 0.21538 
0.0526177 9.91501 0.194405 
0.21538 0.194405 9.52535 
9.70689 -0.00862605 0.120252 
-0.00862605 9.78857 0.222943 
0.120252 0.222943 9.52412 
9.67097 -0.124771 -0.259194 
-0.124771 9.26541 0.0895867 
-0.259194 0.0895867 9.43371 
9.94301 -0.0770884 -0.170844 
-0.0770884 9.21014 -0.0775857 
-0.170844 -0.0775857 9.21694 
9.5624 -0.0872171 -0.274743 
-0.0872171 9.45382 0.112646 
-0.274743 0.112646 9.35387 
9.54723 -0.155818 -0.136993 
-0.155818 9.41991 0.0330519 
-0.136993 0.0330519 9.40295 
8.85306 0.529177 -0.293015 
0.529177 9.46219 0.669482 
-0.293015 0.669482 9.2508 
8.82124 -0.120976 -0.624908 
-0.120976 9.29375 0.52207 
-0.624908 0.52207 9.45106 
8.50156 0.559887 -0.151036 
0.559887 9.37382 0.065577 
-0.151036 0.065577 9.69067 
8.41288 0.468475 -0.262759 
0.468475 9.30521 0.346372 
-0.262759 0.346372 9.84796 
9.37685 -0.0168923 0.107872 
-0.0168923 9.32266 -0.0521933 
0.107872 -0.0521933 9.0505 
9.68962 -0.134276 0.0344126 
-0.134276 9.52973 -0.457097 
0.0344126 -0.457097 8.53067 
9.38609 -0.0822036 -0.0238754 
-0.0822036 9.3643 -0.0808443 
-0.0238754 -0.0808443 8.99963 
9.35616 -0.0234865 -0.0635675 
-0.0234865 9.43376 -0.0583662 
-0.0635675 -0.0583662 8.9601 
9.8104 -0.0526085 0.0402475 
-0.0526085 9.67673 0.00685697 
0.0402475 0.00685697 9.8671 
9.80495 -0.0104156 0.0465264 
-0.0104156 9.67474 0.0201058 
0.0465264 0.0201058 9.87455 
9.80724 0.010102 0.0269678 
0.010102 9.6743 0.0128184 
0.0269678 0.0128184 9.8727 
9.79911 -0.021075 0.0951349 
-0.021075 9.7163 0.0936977 
0.0951349 0.0936977 9.83883 
8.3977 0.0768588 0.0885662 
0.0768588 8.9064 0.439972 
0.0885662 0.439972 10.3725 
8.62628 -0.00964475 0.28533 
-0.00964475 9.34932 0.639357 
0.28533 0.639357 9.70103 
9.11392 0.276187 0.331893 
0.276187 9.4082 0.393612 
0.331893 0.393612 9.1545 
8.70267 -0.12966 0.517954 
-0.12966 9.31187 0.721691 
0.517954 0.721691 9.66209 
9.21474 -0.154515 0.29719 
-0.154515 8.42866 0.223367 
0.29719 0.223367 9.56056 
9.60607 -0.248786 0.439276 
-0.248786 8.02752 -0.0387247 
0.439276 -0.0387247 9.57038 
8.85741 -0.0821526 0.230297 
-0.0821526 8.48698 0.588602 
0.230297 0.588602 9.85958 
8.93438 -0.259406 0.814441 
-0.259406 9.26401 0.190639 
0.814441 0.190639 9.00558 
9.28859 -0.0459093 0.546932 
-0.0459093 9.38279 0.100866 
0.546932 0.100866 9.33503 
9.10256 -0.123761 0.394948 
-0.123761 9.42115 0.0314411 
0.394948 0.0314411 9.48269 
9.01549 -0.168291 0.346258 
-0.168291 9.49943 -0.0903606 
0.346258 -0.0903606 9.49147 
8.99774 -0.217546 0.476406 
-0.217546 9.45195 -0.11804 
0.476406 -0.11804 9.55671 
9.5397 -0.0481934 0.183129 
-0.0481934 9.36898 0.050919 
0.183129 0.050919 9.93492 
9.61566 -0.0615169 0.178372 
-0.0615169 9.37313 -0.0460954 
0.178372 -0.0460954 9.8548 
9.56174 -0.0539511 0.142194 
-0.0539511 9.43683 -0.00885834 
0.142194 -0.00885834 9.84503 
9.56277 -0.0268825 0.135544 
-0.0268825 9.46328 -0.0235953 
0.135544 -0.0235953 9.81755 
9.18108 -0.133683 -0.996086 
-0.133683 9.10452 -0.216202 
-0.996086 -0.216202 8.13912 
9.00171 -0.143351 -1.39622 
-0.143351 9.43447 -0.208976 
-1.39622 -0.208976 7.98854 
9.75939 -0.0201617 -0.903441 
-0.0201617 8.81489 -0.160356 
-0.903441 -0.160356 7.85044 
8.77105 -0.230841 -0.816793 
-0.230841 9.27702 -0.451403 
-0.816793 -0.451403 8.37664 
8.55312 -0.0281491 -0.40907 
-0.0281491 9.28512 0.365604 
-0.40907 0.365604 8.65052 
8.34976 0.228537 -0.927167 
0.228537 9.39464 0.458889 
-0.927167 0.458889 8.74435 
8.04109 -0.199049 -0.477725 
-0.199049 8.7849 -0.170479 
-0.477725 -0.170479 9.66276 
8.56905 0.348522 -0.818461 
0.348522 9.19749 0.0799767 
-0.818461 0.0799767 8.72222 
9.74324 -0.120054 0.374846 
-0.120054 9.65809 -0.0810678 
0.374846 -0.0810678 9.68309 
9.61195 -0.0432521 0.355355 
-0.0432521 9.54166 -0.173804 
0.355355 -0.173804 9.93082 
9.7445 0.00419398 0.314062 
0.00419398 9.7832 0.122209 
0.314062 0.122209 9.55672 
9.7406 -0.0533994 0.407082 
-0.0533994 9.74972 -0.0843511 
0.407082 -0.0843511 9.5941 
9.27208 -0.100918 0.619921 
-0.100918 9.42029 -0.00426899 
0.619921 -0.00426899 9.20106 
9.29275 -0.103965 0.536888 
-0.103965 9.42422 0.000951146 
0.536888 0.000951146 9.17646 
9.29476 -0.104376 0.658389 
-0.104376 9.44242 0.0449756 
0.658389 0.0449756 9.15626 
9.25707 -0.0839126 0.57351 
-0.0839126 9.38546 0.0200228 
0.57351 0.0200228 9.2509 
9.78297 0.0117011 -0.147415 
0.0117011 9.68275 0.0234951 
-0.147415 0.0234951 9.72027 
9.79594 0.00036794 -0.105336 
0.00036794 9.71355 -0.0123866 
-0.105336 -0.0123866 9.6765 
9.75263 0.0117214 -0.160909 
0.0117214 9.69535 0.0229109 
-0.160909 0.0229109 9.73801 
9.76978 -0.015411 -0.133273 
-0.015411 9.71839 -0.0349314 
-0.133273 -0.0349314 9.69782 
9.7528 0.122749 -0.274565 
0.122749 9.91941 0.263409 
-0.274565 0.263409 9.93327 
9.61135 0.059702 0.0153718 
0.059702 9.66126 0.0515939 
0.0153718 0.0515939 10.3329 
9.91001 -0.102299 0.259836 
-0.102299 9.61188 -0.162905 
0.259836 -0.162905 10.0836 
9.56397 0.0718674 0.0138108 
0.0718674 9.86848 0.076925 
0.0138108 0.076925 10.173 
9.32211 0.170362 -0.275685 
0.170362 9.01319 0.0824947 
-0.275685 0.0824947 9.15467 
9.70504 0.0791611 -0.291819 
0.0791611 9.48913 -0.112333 
-0.291819 -0.112333 8.29581 
9.43657 -0.170866 -0.900338 
-0.170866 9.82684 0.346298 
-0.900338 0.346298 8.22656 
9.81718 0.149814 -0.436148 
0.149814 8.91817 0.0336389 
-0.436148 0.0336389 8.75462 
9.85436 0.00538958 0.41602 
0.00538958 9.85331 0.163907 
0.41602 0.163907 10.149 
9.93447 -0.00169312 0.455515 
-0.00169312 9.99932 0.111621 
0.455515 0.111621 9.92287 
9.99269 0.0242281 0.448296 
0.0242281 9.99103 0.0928543 
0.448296 0.0928543 9.87294 
9.9599 0.0331106 0.458733 
0.0331106 10.0134 0.154269 
0.458733 0.154269 9.88334 
9.32798 0.0170146 0.308057 
0.0170146 8.81519 -0.832269 
0.308057 -0.832269 8.49926 
9.6291 0.03964 0.124507 
0.03964 8.7402 -0.578927 
0.124507 -0.578927 8.27312 
9.55486 0.237597 0.282858 
0.237597 8.73811 -0.840105 
0.282858 -0.840105 8.34947 
9.15625 -0.229211 0.140191 
-0.229211 9.59471 -1.05719 
0.140191 -1.05719 7.89148 
11.1083 0.0949992 -0.490258 
0.0949992 10.9921 0.0540413 
-0.490258 0.0540413 11.2366 
10.2791 -0.802422 0.425824 
-0.802422 10.4779 -0.0913562 
0.425824 -0.0913562 12.58 
11.645 -0.121895 -0.829047 
-0.121895 11.9522 0.288891 
-0.829047 0.288891 9.73976 
10.1214 -0.10655 -0.773154 
-0.10655 11.5791 -0.00657361 
-0.773154 -0.00657361 11.6365 
9.83858 0.00465033 -0.391133 
0.00465033 9.81233 -0.0630429 
-0.391133 -0.0630429 9.82505 
9.84903 0.00914341 -0.37396 
0.00914341 9.8186 -0.0915889 
-0.37396 -0.0915889 9.80833 
9.88711 -0.0447792 -0.342135 
-0.0447792 9.7571 -0.125808 
-0.342135 -0.125808 9.83175 
9.90016 -0.00355153 -0.422468 
-0.00355153 9.78153 -0.0303716 
-0.422468 -0.0303716 9.79427 
9.82816 -0.0126828 0.43379 
-0.0126828 9.82766 -0.168203 
0.43379 -0.168203 9.87562 
9.85432 -0.029426 0.403213 
-0.029426 9.87699 -0.11929 
0.403213 -0.11929 9.80013 
9.81362 0.0116039 0.480927 
0.0116039 9.79868 -0.215401 
0.480927 -0.215401 9.91914 
9.83682 -0.0109212 0.45054 
-0.0109212 9.78862 -0.127336 
0.45054 -0.127336 9.906 
9.38892 -0.53253 -1.04989 
-0.53253 8.79647 -0.11852 
-1.04989 -0.11852 8.3759 
9.60911 -0.440761 -0.547637 
-0.440761 8.91492 -0.508388 
-0.547637 -0.508388 8.03726 
9.51286 -0.409704 -0.712176 
-0.409704 8.74871 -0.387532 
-0.712176 -0.387532 8.29973 
8.63338 -0.24223 -0.380408 
-0.24223 9.26665 -0.381735 
-0.380408 -0.381735 8.66126 
9.74862 -0.0304 0.34862 
-0.0304 9.62016 -0.0896212 
0.34862 -0.0896212 9.84002 
9.74042 -0.0458312 0.391702 
-0.0458312 9.60656 -0.104188 
0.391702 -0.104188 9.86182 
9.72062 0.00577153 0.377266 
0.00577153 9.65868 -0.114404 
0.377266 -0.114404 9.82951 
9.71315 -0.0288068 0.394342 
-0.0288068 9.61733 -0.0971506 
0.394342 -0.0971506 9.87833 
8.74067 0.0420521 -0.0111141 
0.0420521 9.40792 0.331748 
-0.0111141 0.331748 9.96734 
9.17865 0.35368 -0.183873 
0.35368 9.38562 0.136098 
-0.183873 0.136098 9.55166 
8.84862 -0.369329 0.980635 
-0.369329 9.51438 0.476153 
0.980635 0.476153 9.75294 
8.30186 -0.26734 -0.293001 
-0.26734 9.68844 0.122606 
-0.293001 0.122606 10.1256 
9.10195 -0.224946 0.498446 
-0.224946 9.3748 -0.0507544 
0.498446 -0.0507544 9.64965 
9.11551 -0.134102 0.463028 
-0.134102 9.36353 -0.00133382 
0.463028 -0.00133382 9.64737 
9.15506 -0.186438 0.528505 
-0.186438 9.35726 0.0161767 
0.528505 0.0161767 9.61409 
9.38399 -0.239112 0.604798 
-0.239112 9.1844 0.0519411 
0.604798 0.0519411 9.55802 
9.65835 0.0453465 -0.436899 
0.0453465 9.62119 0.0854644 
-0.436899 0.0854644 9.7411 
9.60851 0.027891 -0.446087 
0.027891 9.66138 0.0448703 
-0.446087 0.0448703 9.75076 
9.56669 0.0410179 -0.466819 
0.0410179 9.66656 0.101024 
-0.466819 0.101024 9.7874 
9.59212 -0.0318706 -0.537445 
-0.0318706 9.6205 -0.0154568 
-0.537445 -0.0154568 9.80802 
9.32035 -0.388563 -0.846287 
-0.388563 9.18604 -0.15211 
-0.846287 -0.15211 8.94525 
9.52415 -0.136754 -0.849726 
-0.136754 9.17756 -0.289238 
-0.849726 -0.289238 8.74992 
9.48613 -0.235207 -0.55776 
-0.235207 9.15571 -0.0190244 
-0.55776 -0.0190244 8.80979 
9.22513 -0.0614205 -0.293053 
-0.0614205 9.38981 0.346515 
-0.293053 0.346515 8.8367 
9.86432 0.0569391 0.233892 
0.0569391 9.87807 0.0888432 
0.233892 0.0888432 9.81522 
9.84349 -0.149348 0.181333 
-0.149348 9.76533 0.0730681 
0.181333 0.0730681 9.94879 
9.87175 0.0424405 0.208034 
0.0424405 9.87576 0.0517491 
0.208034 0.0517491 9.8101 
9.8658 0.008114 0.180793 
0.008114 9.89196 0.0672954 
0.180793 0.0672954 9.79986 
9.08046 -0.169914 -1.17542 
-0.169914 8.90196 -0.392035 
-1.17542 -0.392035 7.87684 
9.23856 -0.147949 -0.548934 
-0.147949 8.78011 -0.347568 
-0.548934 -0.347568 7.8406 
9.18906 0.0639658 -1.03207 
0.0639658 8.92249 -0.349825 
-1.03207 -0.349825 7.74771 
8.93094 -0.205009 -1.5602 
-0.205009 9.23964 -0.568906 
-1.5602 -0.568906 7.68868 
9.44504 -0.212783 0.020251 
-0.212783 8.63219 -0.319777 
0.020251 -0.319777 10.005 
9.47762 -0.156683 0.0693093 
-0.156683 8.55267 -0.23108 
0.0693093 -0.23108 10.052 
9.31321 -0.165964 0.0609467 
-0.165964 8.86383 -0.184841 
0.0609467 -0.184841 9.90522 
9.33509 -0.180254 0.0686938 
-0.180254 8.68344 -0.392637 
0.0686938 -0.392637 10.0637 
9.57039 0.0791874 -0.449883 
0.0791874 9.55039 -0.0752141 
-0.449883 -0.0752141 9.72309 
9.48334 0.0557509 -0.419188 
0.0557509 9.59654 0.0331025 
-0.419188 0.0331025 9.764 
9.51265 0.0426054 -0.494459 
0.0426054 9.57863 -0.0271499 
-0.494459 -0.0271499 9.7526 
9.53115 0.0453609 -0.445413 
0.0453609 9.57087 0.010125 
-0.445413 0.010125 9.74187 
9.59931 -0.0885138 0.157834 
-0.0885138 9.71123 -0.210781 
0.157834 -0.210781 9.46146 
9.69648 0.00515425 0.127429 
0.00515425 9.79016 -0.181341 
0.127429 -0.181341 9.28536 
9.58313 -0.0376802 0.026875 
-0.0376802 9.89312 -0.273573 
0.026875 -0.273573 9.29575 
9.81099 0.14854 0.0445431 
0.14854 9.73434 0.114894 
0.0445431 0.114894 9.22666 
9.49731 0.238298 -0.191132 
0.238298 9.36157 -0.101452 
-0.191132 -0.101452 9.91172 
9.96165 -0.0879037 0.0612158 
-0.0879037 9.23332 0.0480094 
0.0612158 0.0480094 9.57563 
9.80249 0.116132 -0.328765 
0.116132 9.87971 0.215586 
-0.328765 0.215586 9.08839 
9.89318 -0.195562 -0.0527257 
-0.195562 9.45031 0.230298 
-0.0527257 0.230298 9.4271 
9.07414 -0.457065 0.324913 
-0.457065 9.68303 0.542662 
0.324913 0.542662 11.1478 
7.71078 -0.691486 0.27054 
-0.691486 9.33005 1.71024 
0.27054 1.71024 12.8641 
10.0569 -0.801641 0.0184064 
-0.801641 9.6626 -0.0458379 
0.0184064 -0.0458379 10.1854 
9.24463 -0.436462 1.62179 
-0.436462 10.2082 0.565567 
1.62179 0.565567 10.4521 
8.94162 -0.174181 -0.870727 
-0.174181 9.37282 -0.325959 
-0.870727 -0.325959 8.57475 
9.27533 -0.197729 -0.919884 
-0.197729 8.711 0.181208 
-0.919884 0.181208 8.90286 
9.1957 0.00888901 -0.655585 
0.00888901 9.30517 -0.313615 
-0.655585 -0.313615 8.38832 
9.79969 -0.310057 -1.33029 
-0.310057 8.979 -0.0398534 
-1.33029 -0.0398534 8.1105 
9.85855 0.023573 0.0501472 
0.023573 9.82357 -0.0643555 
0.0501472 -0.0643555 9.87802 
9.8455 -0.00442798 0.0961367 
-0.00442798 9.85353 -0.0535207 
0.0961367 -0.0535207 9.86113 
9.84295 0.0168798 0.0736103 
0.0168798 9.85142 -0.0353315 
0.0736103 -0.0353315 9.86578 
9.86938 0.0229991 0.121296 
0.0229991 9.85904 -0.0556852 
0.121296 -0.0556852 9.83173 
9.30223 0.0761362 -0.0068831 
0.0761362 9.51625 -0.0633854 
-0.0068831 -0.0633854 9.29092 
9.28786 0.0306714 -0.132639 
0.0306714 9.56431 -0.127461 
-0.132639 -0.127461 9.25724 
9.19394 0.0498631 -0.00180323 
0.0498631 9.73361 0.0134556 
-0.00180323 0.0134556 9.18187 
9.43747 -0.0287372 -0.0125178 
-0.0287372 9.68175 0.0676594 
-0.0125178 0.0676594 8.99019 
9.75711 -0.0278081 0.211339 
-0.0278081 9.13632 -0.150115 
0.211339 -0.150115 10.1386 
9.69788 -0.146921 0.34194 
-0.146921 9.19008 0.024435 
0.34194 0.024435 10.144 
9.69809 -0.00127593 0.274577 
-0.00127593 9.10179 -0.0540409 
0.274577 -0.0540409 10.2321 
9.63757 -0.139908 0.237335 
-0.139908 9.25572 0.0518029 
0.237335 0.0518029 10.1387 
8.3087 -0.0572423 -4.70186 
-0.0572423 9.99057 -1.54905 
-4.70186 -1.54905 6.11796 
6.36012 0.488943 -2.08586 
0.488943 9.87498 -0.332306 
-2.08586 -0.332306 8.18213 
8.44724 -0.184513 -3.29188 
-0.184513 8.98301 -1.02954 
-3.29188 -1.02954 6.98698 
9.41986 -0.424892 -3.05483 
-0.424892 8.10867 -1.52185 
-3.05483 -1.52185 6.8887 
9.42754 -0.136361 -0.0621851 
-0.136361 9.34548 -0.275098 
-0.0621851 -0.275098 10.225 
9.36006 -0.0216566 -0.251239 
-0.0216566 9.40936 -0.522049 
-0.251239 -0.522049 10.2286 
9.63247 -0.15575 -0.27146 
-0.15575 9.29653 -0.540231 
-0.27146 -0.540231 10.069 
9.32237 -0.744319 -0.390384 
-0.744319 9.08838 -0.21375 
-0.390384 -0.21375 10.5873 
6.91826 0.642083 -0.43595 
0.642083 6.16768 -0.26602 
-0.43595 -0.26602 1.66823 
6.76776 0.579893 -0.312816 
0.579893 6.75852 -0.147203 
-0.312816 -0.147203 1.22788 
6.45221 -0.870603 0.203064 
-0.870603 7.61577 -0.393839 
0.203064 -0.393839 0.686181 
5.73471 -1.05929 -1.09707 
-1.05929 6.63415 -0.770037 
-1.09707 -0.770037 2.3853 
9.22084 -0.00578626 0.0842107 
-0.00578626 9.47564 -0.767512 
0.0842107 -0.767512 9.03665 
9.24905 -0.0140907 0.0298858 
-0.0140907 9.287 -0.721079 
0.0298858 -0.721079 9.19708 
9.251 -0.0366109 0.0902223 
-0.0366109 9.16195 -0.803321 
0.0902223 -0.803321 9.32018 
9.24378 -0.0372128 0.0451839 
-0.0372128 9.23917 -0.616126 
0.0451839 -0.616126 9.25018 
9.3835 -0.188433 -0.0416461 
-0.188433 9.01237 -0.175713 
-0.0416461 -0.175713 10.2694 
9.38149 -0.246635 -0.0341894 
-0.246635 8.91605 -0.249513 
-0.0341894 -0.249513 10.3677 
9.31098 -0.264154 -0.0663529 
-0.264154 8.94195 -0.397981 
-0.0663529 -0.397981 10.4123 
9.41401 -0.295321 0.0775258 
-0.295321 8.8064 -0.203488 
0.0775258 -0.203488 10.4448 
8.04768 0.189164 1.2214 
0.189164 8.32173 0.514197 
1.2214 0.514197 6.40057 
8.02658 -0.0155818 1.28485 
-0.0155818 8.60858 0.728155 
1.28485 0.728155 6.13481 
8.11533 0.167934 1.46485 
0.167934 8.19754 0.411144 
1.46485 0.411144 6.4571 
7.82334 0.357906 1.62578 
0.357906 8.52403 0.83899 
1.62578 0.83899 6.4226 
9.69713 0.192668 0.208581 
0.192668 9.56393 0.0304217 
0.208581 0.0304217 9.65179 
9.75291 0.135788 0.367095 
0.135788 9.08488 -0.16835 
0.367095 -0.16835 10.0751 
9.42322 0.218079 0.169907 
0.218079 9.32966 -0.102729 
0.169907 -0.102729 10.16 
9.6686 -0.313524 0.172537 
-0.313524 9.5169 0.107501 
0.172537 0.107501 9.72736 
9.69749 -0.109826 0.309576 
-0.109826 9.37316 -0.0688662 
0.309576 -0.0688662 9.7981 
9.68736 -0.167093 0.209007 
-0.167093 9.33287 0.163521 
0.209007 0.163521 9.84853 
9.59493 -0.0962988 0.338002 
-0.0962988 9.4614 -0.0438147 
0.338002 -0.0438147 9.81243 
9.50163 -0.0548306 0.224946 
-0.0548306 9.61491 0.00824815 
0.224946 0.00824815 9.75223 
9.90419 0.0335179 0.252926 
0.0335179 9.86087 -0.511445 
0.252926 -0.511445 9.84422 
9.87505 0.0567737 0.238261 
0.0567737 9.89117 -0.560838 
0.238261 -0.560838 9.84305 
9.73968 -0.119971 0.158566 
-0.119971 9.87918 -0.494276 
0.158566 -0.494276 9.99041 
9.88419 -0.0352279 0.239618 
-0.0352279 9.95236 -0.564782 
0.239618 -0.564782 9.77273 
10.5945 0.259973 0.00969156 
0.259973 10.6743 0.0545288 
0.00969156 0.0545288 11.099 
10.1535 -0.455273 0.0658929 
-0.455273 10.5993 0.285056 
0.0658929 0.285056 11.6149 
10.3205 0.0176557 -0.170124 
0.0176557 10.7779 -0.104637 
-0.170124 -0.104637 11.2693 
10.6138 -0.00153034 -0.208759 
-0.00153034 10.5294 -0.15407 
-0.208759 -0.15407 11.2246 
9.89311 0.00981415 -0.0895874 
0.00981415 9.87235 -0.0114792 
-0.0895874 -0.0114792 10.0607 
9.92348 0.00747734 -0.0785592 
0.00747734 9.94571 -0.0300931 
-0.0785592 -0.0300931 9.95697 
9.94426 0.0246675 -0.0880245 
0.0246675 9.94573 -0.0444267 
-0.0880245 -0.0444267 9.93617 
9.95879 0.0114885 -0.0648263 
0.0114885 9.94529 -0.0240529 
-0.0648263 -0.0240529 9.92208 
3.06595 0.466921 -0.337594 
0.466921 3.94308 -0.335523 
-0.337594 -0.335523 0.627239 
3.10316 -0.350482 0.0723238 
-0.350482 4.88512 0.219477 
0.0723238 0.219477 -0.352009 
3.69071 0.28676 -0.426686 
0.28676 3.62983 -0.296289 
-0.426686 -0.296289 0.315722 
3.0679 1.08602 -0.336837 
1.08602 3.66236 -1.02281 
-0.336837 -1.02281 0.90601 
9.35027 0.211621 0.70644 
0.211621 9.66079 0.656089 
0.70644 0.656089 9.41609 
9.65521 0.0158584 0.519756 
0.0158584 9.73503 0.45499 
0.519756 0.45499 9.0369 
9.6013 -0.0462928 0.587437 
-0.0462928 9.68361 0.499247 
0.587437 0.499247 9.14224 
9.60569 0.11415 0.494765 
0.11415 9.29642 0.167165 
0.494765 0.167165 9.52504 
7.03754 -1.16755 1.41923 
-1.16755 6.10425 -0.518122 
1.41923 -0.518122 2.70689 
5.24081 2.13549 0.886283 
2.13549 7.4359 -1.31568 
0.886283 -1.31568 3.17198 
7.38317 0.681509 1.00963 
0.681509 6.88005 1.55049 
1.00963 1.55049 1.58546 
7.35345 -1.5792 2.06589 
-1.5792 6.24138 -1.10148 
2.06589 -1.10148 2.25386 
9.4563 -0.0273713 0.414103 
-0.0273713 9.32385 0.311729 
0.414103 0.311729 9.80362 
9.5208 -0.0673195 0.058596 
-0.0673195 9.29473 0.0890443 
0.058596 0.0890443 9.76825 
9.59689 -0.0723255 0.502056 
-0.0723255 9.02134 0.150684 
0.502056 0.150684 9.96554 
9.68159 -0.0639244 0.193632 
-0.0639244 9.17033 0.369204 
0.193632 0.369204 9.73186 
8.80638 0.177968 0.864606 
0.177968 9.51757 -0.140164 
0.864606 -0.140164 8.55765 
8.74418 0.29628 0.889797 
0.29628 9.33594 0.194268 
0.889797 0.194268 8.80148 
8.95815 0.0395131 1.21877 
0.0395131 9.6776 -0.0477066 
1.21877 -0.0477066 8.24585 
9.00406 0.159175 1.24098 
0.159175 9.46452 -0.369777 
1.24098 -0.369777 8.41302 
9.81794 -0.0233983 -0.284518 
-0.0233983 9.77511 0.13443 
-0.284518 0.13443 9.8184 
9.83445 -0.0275545 -0.268993 
-0.0275545 9.76452 0.200154 
-0.268993 0.200154 9.81248 
9.86349 -0.0631296 -0.323322 
-0.0631296 9.76704 0.175471 
-0.323322 0.175471 9.78093 
9.84465 -0.0271517 -0.264164 
-0.0271517 9.77522 0.109402 
-0.264164 0.109402 9.79158 
9.32892 -0.27696 0.197307 
-0.27696 9.34646 0.278693 
0.197307 0.278693 9.8525 
9.63516 -0.0804628 0.333454 
-0.0804628 9.16507 -0.266096 
0.333454 -0.266096 9.72766 
9.42977 -0.00230897 0.313654 
-0.00230897 9.227 -0.0686476 
0.313654 -0.0686476 9.87111 
9.46687 -0.0932716 0.394741 
-0.0932716 9.16303 0.0922071 
0.394741 0.0922071 9.89798 
8.90077 -0.40297 -0.826656 
-0.40297 9.48444 -0.504319 
-0.826656 -0.504319 8.3995 
8.197 0.853327 -1.07833 
0.853327 10.6115 0.13288 
-1.07833 0.13288 7.97625 
8.76658 0.0855984 -0.234952 
0.0855984 9.3758 0.0541921 
-0.234952 0.0541921 8.64234 
8.90894 -0.276917 -0.553558 
-0.276917 9.59642 0.0495783 
-0.553558 0.0495783 8.27935 
8.68212 0.321724 0.845594 
0.321724 9.02313 0.856104 
0.845594 0.856104 8.12399 
9.57904 0.127634 1.25494 
0.127634 9.32797 0.400209 
1.25494 0.400209 6.92223 
8.29564 -0.202601 1.31334 
-0.202601 9.50943 0.568598 
1.31334 0.568598 8.02417 
9.03959 0.442439 -1.26629 
0.442439 7.40456 -0.149111 
-1.26629 -0.149111 9.38509 
9.4385 0.00824339 0.00312425 
0.00824339 9.58418 -0.611236 
0.00312425 -0.611236 9.41701 
9.4424 0.0730857 0.0448259 
0.0730857 9.68782 -0.551879 
0.0448259 -0.551879 9.30948 
9.46154 0.0184988 0.0964056 
0.0184988 9.61984 -0.585512 
0.0964056 -0.585512 9.35832 
9.5913 -0.073535 0.076267 
-0.073535 9.38508 -0.420413 
0.076267 -0.420413 9.46331 
7.36273 -0.902066 -0.896307 
-0.902066 7.85029 -1.60512 
-0.896307 -1.60512 7.43586 
8.09826 0.251935 -1.25269 
0.251935 8.35352 -1.15435 
-1.25269 -1.15435 6.19711 
7.52362 -0.0129708 -1.01404 
-0.0129708 7.96718 -1.19579 
-1.01404 -1.19579 7.15809 
7.2468 -0.261827 -0.899979 
-0.261827 8.34939 -1.28627 
-0.899979 -1.28627 7.05269 
9.39669 -0.0199781 0.0727459 
-0.0199781 9.18963 -1.09163 
0.0727459 -1.09163 8.23767 
8.97161 0.119863 0.197686 
0.119863 9.70071 -0.60312 
0.197686 -0.60312 8.15166 
9.27237 -0.026134 0.109904 
-0.026134 8.98397 -0.664494 
0.109904 -0.664494 8.56765 
9.20134 -0.0536992 0.0407754 
-0.0536992 9.16413 -0.725891 
0.0407754 -0.725891 8.45851 
9.71724 0.116073 0.0449906 
0.116073 9.86778 -0.354379 
0.0449906 -0.354379 9.67007 
9.78698 0.021853 0.0132758 
0.021853 9.89301 -0.291678 
0.0132758 -0.291678 9.5751 
9.72021 0.00957988 0.0664852 
0.00957988 9.79635 -0.369536 
0.0664852 -0.369536 9.73854 
9.74657 0.0414631 0.0350316 
0.0414631 9.78794 -0.381824 
0.0350316 -0.381824 9.72058 
9.43939 1.64313 -1.93505 
1.64313 7.17235 5.10905 
-1.93505 5.10905 7.28058 
6.68623 0.39548 -1.31632 
0.39548 7.49409 -0.033539 
-1.31632 -0.033539 9.712 
8.44915 0.700847 -1.49922 
0.700847 9.39494 1.93993 
-1.49922 1.93993 6.04823 
8.20817 0.0300232 -0.941885 
0.0300232 8.99066 2.25407 
-0.941885 2.25407 6.69349 
9.71727 -0.0294591 0.263898 
-0.0294591 9.76492 -0.430888 
0.263898 -0.430888 9.69492 
9.77586 -0.00828591 0.275947 
-0.00828591 9.75714 -0.577587 
0.275947 -0.577587 9.6441 
9.74011 0.0161292 0.22051 
0.0161292 9.77943 -0.529528 
0.22051 -0.529528 9.65755 
9.76587 0.0231469 0.245696 
0.0231469 9.74645 -0.522618 
0.245696 -0.522618 9.66478 
8.9067 2.49855 -0.773566 
2.49855 8.73505 -0.427686 
-0.773566 -0.427686 18.9615 
11.4031 -0.0379559 -0.221082 
-0.0379559 9.69039 -0.621606 
-0.221082 -0.621606 15.5098 
10.917 1.20147 0.501085 
1.20147 12.7372 -0.228987 
0.501085 -0.228987 12.9491 
11.4957 3.03065 -0.456914 
3.03065 11.1582 -2.27007 
-0.456914 -2.27007 13.9494 
9.33611 -0.0733618 0.589871 
-0.0733618 9.41041 0.135855 
0.589871 0.135855 8.40365 
9.25536 -0.00103916 0.367726 
-0.00103916 9.3888 0.377389 
0.367726 0.377389 8.50601 
9.64689 -0.0341358 0.129022 
-0.0341358 9.57284 0.13395 
0.129022 0.13395 7.93044 
8.68381 0.178029 -0.15747 
0.178029 9.19845 -0.217371 
-0.15747 -0.217371 9.26791 
9.74303 -0.0233065 0.016985 
-0.0233065 9.87855 -0.327609 
0.016985 -0.327609 9.54081 
9.7727 0.0266529 0.0386258 
0.0266529 9.84956 -0.333105 
0.0386258 -0.333105 9.54013 
9.72499 -0.0514366 0.0472923 
-0.0514366 9.87372 -0.376474 
0.0472923 -0.376474 9.56367 
9.6935 -0.0188855 0.0500377 
-0.0188855 9.93411 -0.375028 
0.0500377 -0.375028 9.53477 
9.64519 -0.0347108 0.23603 
-0.0347108 9.82957 -0.313543 
0.23603 -0.313543 11.1328 
10.2196 0.709514 0.718915 
0.709514 9.71093 0.0286988 
0.718915 0.0286988 10.6771 
9.66754 1.01801 0.152886 
1.01801 9.34341 -0.69035 
0.152886 -0.69035 11.5967 
9.9031 0.721998 0.530533 
0.721998 9.20134 -0.856998 
0.530533 -0.856998 11.5032 
8.65901 0.266867 -0.319301 
0.266867 9.56736 -0.122379 
-0.319301 -0.122379 9.13733 
8.69846 0.112698 0.0145605 
0.112698 8.36144 -0.759831 
0.0145605 -0.759831 10.3038 
8.77572 -0.0230431 -0.871137 
-0.0230431 9.60938 -0.397548 
-0.871137 -0.397548 8.97859 
9.18872 -0.224681 -0.427446 
-0.224681 9.69534 0.267183 
-0.427446 0.267183 8.47964 
9.79534 -0.0329334 0.321113 
-0.0329334 9.72937 -0.0381198 
0.321113 -0.0381198 9.93086 
9.82492 -0.0888 0.173137 
-0.0888 9.75347 0.11907 
0.173137 0.11907 9.87718 
9.80019 0.00368383 0.298733 
0.00368383 9.667 -0.00374377 
0.298733 -0.00374377 9.98838 
9.7979 -0.0292922 0.238534 
-0.0292922 9.72604 0.00940797 
0.238534 0.00940797 9.93162 
9.65951 -0.111813 0.187087 
-0.111813 9.5619 -0.0442299 
0.187087 -0.0442299 10.0172 
9.67358 -0.040121 0.136322 
-0.040121 9.58538 -0.0931205 
0.136322 -0.0931205 9.97962 
9.75268 -0.0473229 0.13054 
-0.0473229 9.53397 -0.0785236 
0.13054 -0.0785236 9.95193 
9.73595 -0.0260618 0.121336 
-0.0260618 9.55254 0.00546481 
0.121336 0.00546481 9.95009 
10.3742 -0.615268 0.177635 
-0.615268 9.32328 1.70019 
0.177635 1.70019 5.99467 
9.52761 -0.59904 0.185086 
-0.59904 8.67958 1.49963 
0.185086 1.49963 7.48495 
8.42574 0.122216 -0.480457 
0.122216 8.12599 -0.0485959 
-0.480457 -0.0485959 9.14042 
10.7115 -0.176573 -0.66903 
-0.176573 8.40149 1.20824 
-0.66903 1.20824 6.57915 
9.8803 -0.072631 0.203271 
-0.072631 9.74524 -0.0641616 
0.203271 -0.0641616 9.91851 
9.9118 0.203561 -0.0129351 
0.203561 9.53301 0.0740506 
-0.0129351 0.0740506 10.0992 
9.81483 0.130409 0.102386 
0.130409 9.64975 -0.0430529 
0.102386 -0.0430529 10.0795 
9.68433 0.168383 0.109494 
0.168383 9.671 -0.0865618 
0.109494 -0.0865618 10.1887 
9.61897 0.0127278 -0.424144 
0.0127278 9.68526 0.358022 
-0.424144 0.358022 9.87674 
9.6653 4.53722e-05 -0.35604 
4.53722e-05 9.73219 0.245112 
-0.35604 0.245112 9.78348 
9.70399 -0.0307198 -0.440159 
-0.0307198 9.85644 0.29037 
-0.440159 0.29037 9.62054 
9.65382 0.0102342 -0.370689 
0.0102342 9.78309 0.297542 
-0.370689 0.297542 9.74405 
10.2726 0.019944 0.0231483 
0.019944 8.51403 -0.285469 
0.0231483 -0.285469 10.8075 
10.4559 -0.0680827 -0.18379 
-0.0680827 8.77385 -0.363749 
-0.18379 -0.363749 10.3644 
10.1125 -0.125711 0.0857558 
-0.125711 9.572 -0.073149 
0.0857558 -0.073149 9.90963 
10.1144 0.198188 0.172466 
0.198188 8.73253 -0.70601 
0.172466 -0.70601 10.7472 
9.75055 0.00276304 -0.413122 
0.00276304 9.79276 0.30125 
-0.413122 0.30125 9.85938 
9.75632 -0.0142876 -0.41653 
-0.0142876 9.79162 0.30696 
-0.41653 0.30696 9.85475 
9.76705 0.0106922 -0.39582 
0.0106922 9.79652 0.286276 
-0.39582 0.286276 9.83912 
9.72786 0.018729 -0.428741 
0.018729 9.82403 0.283477 
-0.428741 0.283477 9.8508 
9.10807 0.171675 0.0325981 
0.171675 9.87248 0.0573038 
0.0325981 0.0573038 10.0664 
9.92937 -0.271922 -0.00479121 
-0.271922 9.58219 0.0590789 
-0.00479121 0.0590789 9.53543 
9.67358 -0.040038 -0.0706155 
-0.040038 9.65136 0.0348929 
-0.0706155 0.0348929 9.72205 
9.60988 0.0757826 -0.410864 
0.0757826 9.53373 0.0592519 
-0.410864 0.0592519 9.90338 
9.9313 0.00384621 0.119932 
0.00384621 9.91776 -0.0333192 
0.119932 -0.0333192 9.94787 
9.92811 -0.000867462 0.127637 
-0.000867462 9.90434 -0.0445017 
0.127637 -0.0445017 9.96449 
9.89118 -0.000831053 0.109452 
-0.000831053 9.8831 -0.0534066 
0.109452 -0.0534066 10.0227 
9.93306 9.14385e-05 0.133174 
9.14385e-05 9.92781 -0.0177556 
0.133174 -0.0177556 9.93606 
9.81544 0.00859081 -0.369991 
0.00859081 9.83653 -0.180917 
-0.369991 -0.180917 9.84313 
9.82897 -0.0228438 -0.388982 
-0.0228438 9.83828 -0.141928 
-0.388982 -0.141928 9.82784 
9.83769 -0.00324992 -0.397092 
-0.00324992 9.8242 -0.179923 
-0.397092 -0.179923 9.83321 
9.84839 0.0586237 -0.363885 
0.0586237 9.86703 -0.106377 
-0.363885 -0.106377 9.77968 
9.6886 -0.0425259 0.0615666 
-0.0425259 9.84077 -0.445356 
0.0615666 -0.445356 9.91871 
9.83361 0.0149535 0.0605106 
0.0149535 9.7991 -0.342175 
0.0605106 -0.342175 9.81536 
9.85342 0.014236 0.0572315 
0.014236 9.79482 -0.371784 
0.0572315 -0.371784 9.79983 
9.78953 -0.0440476 0.00635161 
-0.0440476 9.97628 -0.292636 
0.00635161 -0.292636 9.68227 
9.42517 0.04651 -0.437981 
0.04651 9.5799 0.0870359 
-0.437981 0.0870359 9.72045 
9.46683 0.0272118 -0.482232 
0.0272118 9.52238 0.0914414 
-0.482232 0.0914414 9.73631 
9.46937 0.0530355 -0.449875 
0.0530355 9.48737 0.12284 
-0.449875 0.12284 9.76878 
9.47806 0.033671 -0.458588 
0.033671 9.55757 0.0961164 
-0.458588 0.0961164 9.68989 
9.7616 0.00883987 0.227859 
0.00883987 9.7705 0.536369 
0.227859 0.536369 9.66825 
9.74331 0.0339383 0.247739 
0.0339383 9.81769 0.552891 
0.247739 0.552891 9.63934 
9.71984 0.00908748 0.224862 
0.00908748 9.77447 0.518942 
0.224862 0.518942 9.70603 
9.72349 0.00227139 0.250814 
0.00227139 9.79205 0.54075 
0.250814 0.54075 9.6848 
9.73011 0.02645 -0.483341 
0.02645 9.75126 0.0698147 
-0.483341 0.0698147 9.77968 
9.75173 -0.00836618 -0.428136 
-0.00836618 9.70789 0.0503333 
-0.428136 0.0503333 9.80143 
9.7638 0.00202391 -0.402532 
0.00202391 9.72712 0.0797361 
-0.402532 0.0797361 9.77012 
9.72526 -0.0080611 -0.414871 
-0.0080611 9.70943 0.041305 
-0.414871 0.041305 9.82635 
9.68859 0.0224392 -0.423711 
0.0224392 9.57229 0.0275549 
-0.423711 0.0275549 9.59832 
9.66564 0.01547 -0.389934 
0.01547 9.56877 0.000796243 
-0.389934 0.000796243 9.62479 
9.67669 -0.000647863 -0.406723 
-0.000647863 9.57564 -0.0138967 
-0.406723 -0.0138967 9.60688 
9.63707 0.0181213 -0.3605 
0.0181213 9.50223 0.0069009 
-0.3605 0.0069009 9.71991 
9.58011 -0.241117 0.367561 
-0.241117 9.35208 0.210551 
0.367561 0.210551 9.62134 
9.52655 -0.23303 0.56203 
-0.23303 9.29441 0.273917 
0.56203 0.273917 9.73257 
9.56974 -0.30114 0.390607 
-0.30114 9.20391 0.135636 
0.390607 0.135636 9.77988 
9.37145 -0.166093 0.293394 
-0.166093 9.09527 0.0539273 
0.293394 0.0539273 10.0868 
9.51944 0.0772664 -0.564134 
0.0772664 9.7313 -0.463036 
-0.564134 -0.463036 9.40782 
9.59384 -0.028389 -0.310527 
-0.028389 9.59273 -0.309887 
-0.310527 -0.309887 9.472 
9.4978 -0.137605 -0.446339 
-0.137605 9.63634 -0.44824 
-0.446339 -0.44824 9.52442 
9.56206 -0.0547959 -0.453599 
-0.0547959 9.6419 -0.423694 
-0.453599 -0.423694 9.4546 
9.60216 -0.00927387 0.372747 
-0.00927387 9.51996 0.0930817 
0.372747 0.0930817 9.49123 
9.55054 0.132025 0.61999 
0.132025 9.72146 0.122797 
0.61999 0.122797 9.34135 
9.4513 0.136661 0.468542 
0.136661 9.83938 0.116796 
0.468542 0.116796 9.32267 
9.5896 0.0934002 0.65182 
0.0934002 9.73488 0.170685 
0.65182 0.170685 9.28887 
8.31414 -0.166374 -1.4266 
-0.166374 8.5421 0.212491 
-1.4266 0.212491 6.77128 
7.5117 -0.152581 -1.24842 
-0.152581 8.13589 -0.442021 
-1.24842 -0.442021 7.97992 
8.64642 -0.345533 -1.608 
-0.345533 8.78714 -0.206252 
-1.608 -0.206252 6.19396 
8.59649 -0.231699 -1.98901 
-0.231699 8.32949 -0.246435 
-1.98901 -0.246435 6.70154 
9.40407 0.00870402 0.0837617 
0.00870402 9.59683 -0.593693 
0.0837617 -0.593693 9.41243 
9.42438 -0.0166977 -0.0329698 
-0.0166977 9.62371 -0.623696 
-0.0329698 -0.623696 9.36524 
9.40424 -0.0438524 0.0585928 
-0.0438524 9.65374 -0.579101 
0.0585928 -0.579101 9.35534 
9.42645 0.0610024 0.0325805 
0.0610024 9.58118 -0.537116 
0.0325805 -0.537116 9.4057 
4.43402 -0.39124 1.48047 
-0.39124 2.39379 -0.0624787 
1.48047 -0.0624787 1.87526 
5.03276 -0.252013 0.908674 
-0.252013 3.51086 0.4497 
0.908674 0.4497 0.159443 
5.36892 1.09301 -0.172791 
1.09301 4.30946 0.214926 
-0.172791 0.214926 -0.975311 
5.56044 -0.455836 1.60321 
-0.455836 2.81281 -0.0612799 
1.60321 -0.0612799 0.329818 
9.35549 0.0817624 -0.595 
0.0817624 8.91101 0.0468732 
-0.595 0.0468732 9.38247 
9.23325 -0.0881988 -0.799511 
-0.0881988 8.90941 0.0219321 
-0.799511 0.0219321 9.50631 
9.11185 0.0137611 -0.451329 
0.0137611 8.87352 0.114539 
-0.451329 0.114539 9.6636 
9.18763 -0.0377847 -0.579193 
-0.0377847 8.84094 0.019697 
-0.579193 0.019697 9.62039 
9.64022 -0.0337474 -0.52991 
-0.0337474 9.82812 -0.336198 
-0.52991 -0.336198 9.79135 
9.83248 0.0834624 -0.535827 
0.0834624 9.76018 -0.324584 
-0.535827 -0.324584 9.66703 
9.6589 0.00845521 -0.508713 
0.00845521 9.83097 -0.351561 
-0.508713 -0.351561 9.76981 
9.68934 0.0108912 -0.401073 
0.0108912 9.85483 -0.332131 
-0.401073 -0.332131 9.71552 
8.13969 0.223258 2.46657 
0.223258 8.43506 -1.12671 
2.46657 -1.12671 10.968 
8.22631 1.05463 -1.01749 
1.05463 10.8738 0.915485 
-1.01749 0.915485 8.44261 
9.31974 0.228327 1.74382 
0.228327 9.487 -0.713742 
1.74382 -0.713742 8.73599 
9.42683 0.289777 1.66121 
0.289777 8.86911 -0.521398 
1.66121 -0.521398 9.24678 
9.6669 0.0376641 0.338326 
0.0376641 9.52879 0.0134624 
0.338326 0.0134624 9.43909 
9.6317 -0.226602 0.35319 
-0.226602 9.77983 -0.233635 
0.35319 -0.233635 9.22325 
9.54204 0.0274312 0.476016 
0.0274312 9.6324 -0.086167 
0.476016 -0.086167 9.46034 
9.39915 -0.145553 0.473005 
-0.145553 9.55572 -0.250631 
0.473005 -0.250631 9.67991 
9.86394 -0.0110016 -0.0171431 
-0.0110016 9.83326 0.0512923 
-0.0171431 0.0512923 9.95762 
9.90363 -0.0265629 -0.0162487 
-0.0265629 9.81509 0.0206336 
-0.0162487 0.0206336 9.93611 
9.89743 -0.00444907 -0.00878825 
-0.00444907 9.84589 0.00533785 
-0.00878825 0.00533785 9.9115 
9.89714 -0.0191124 -0.0157621 
-0.0191124 9.82662 0.0248205 
-0.0157621 0.0248205 9.93106 
9.67542 -0.301376 0.144726 
-0.301376 10.1814 1.01421 
0.144726 1.01421 9.28546 
10.0023 -0.596639 -0.184734 
-0.596639 7.33925 -0.0779981 
-0.184734 -0.0779981 11.8007 
11.4322 -1.51503 0.955656 
-1.51503 6.24775 1.88428 
0.955656 1.88428 11.4623 
10.8076 0.0255868 -0.848863 
0.0255868 8.77746 0.982143 
-0.848863 0.982143 9.55725 
7.59156 2.84681 -2.20188 
2.84681 12.3188 -0.12851 
-2.20188 -0.12851 13.9196 
8.6304 -1.57771 0.692829 
-1.57771 10.5577 -0.951218 
0.692829 -0.951218 14.642 
10.7415 -2.14766 -1.62721 
-2.14766 11.3118 -1.48556 
-1.62721 -1.48556 11.7767 
6.4298 1.53219 1.65719 
1.53219 13.7016 1.45667 
1.65719 1.45667 13.6987 
9.62706 -0.1273 0.384296 
-0.1273 9.66752 0.0808714 
0.384296 0.0808714 9.37697 
9.65797 -0.0405339 0.258081 
-0.0405339 9.66198 0.0247649 
0.258081 0.0247649 9.3516 
9.61669 -0.0379699 0.279978 
-0.0379699 9.6645 -0.0398802 
0.279978 -0.0398802 9.39037 
9.78643 0.1388 0.251222 
0.1388 9.68393 0.0896472 
0.251222 0.0896472 9.20119 
9.96585 0.247676 0.0449771 
0.247676 9.27496 0.0715628 
0.0449771 0.0715628 10.2205 
9.56052 0.543906 0.271618 
0.543906 9.80611 0.721026 
0.271618 0.721026 10.0947 
9.65369 0.250209 -0.0903019 
0.250209 9.35762 0.404388 
-0.0903019 0.404388 10.45 
9.97852 0.268987 0.210337 
0.268987 9.07367 0.0161677 
0.210337 0.0161677 10.4091 
9.70457 0.0586462 -0.0749939 
0.0586462 9.86303 -0.256982 
-0.0749939 -0.256982 9.82195 
9.79108 -0.0135002 -0.0322287 
-0.0135002 9.87339 -0.243472 
-0.0322287 -0.243472 9.72509 
9.81307 -0.0396099 -0.0662239 
-0.0396099 9.82672 -0.231545 
-0.0662239 -0.231545 9.74977 
9.79084 0.0347354 -0.0756358 
0.0347354 9.88935 -0.306118 
-0.0756358 -0.306118 9.70936 
9.75404 0.0132802 -0.630074 
0.0132802 9.5006 0.390708 
-0.630074 0.390708 9.2874 
9.6027 -0.0828113 -0.493413 
-0.0828113 9.41692 0.218022 
-0.493413 0.218022 9.52242 
9.91059 -0.144965 -0.313904 
-0.144965 9.56101 0.18808 
-0.313904 0.18808 9.07044 
9.8987 -0.0603029 -0.344483 
-0.0603029 9.42735 0.322835 
-0.344483 0.322835 9.21599 
9.54992 -0.333693 -0.330279 
-0.333693 10.0626 -0.318916 
-0.330279 -0.318916 8.20821 
9.86283 -0.0515706 0.306103 
-0.0515706 9.68275 -0.35246 
0.306103 -0.35246 8.27513 
9.82154 -0.0414779 0.194432 
-0.0414779 9.6566 -0.182038 
0.194432 -0.182038 8.34258 
9.5769 0.0316853 0.402847 
0.0316853 9.53057 -0.0713434 
0.402847 -0.0713434 8.71324 
15.0788 -0.520866 0.757387 
-0.520866 11.6788 1.19616 
0.757387 1.19616 9.97891 
11.3676 0.450788 -0.384127 
0.450788 9.53136 1.56435 
-0.384127 1.56435 15.8375 
11.566 1.21985 -1.24262 
1.21985 9.54457 1.27274 
-1.24262 1.27274 15.626 
11.31 0.841496 0.359959 
0.841496 10.6421 -0.391651 
0.359959 -0.391651 14.7844 
8.79525 0.108066 0.346568 
0.108066 9.34501 -0.510574 
0.346568 -0.510574 8.54491 
9.17953 -0.0718546 0.815092 
-0.0718546 9.29219 -0.546365 
0.815092 -0.546365 8.21346 
8.12937 -0.206298 1.07561 
-0.206298 9.51922 -0.127822 
1.07561 -0.127822 9.03659 
8.89632 -0.0745284 -0.221078 
-0.0745284 9.42298 -0.475543 
-0.221078 -0.475543 8.36587 
5.92825 -0.148906 -2.33299 
-0.148906 6.48683 -1.50397 
-2.33299 -1.50397 10.6312 
8.34583 -1.27302 -1.60045 
-1.27302 8.9859 -1.28557 
-1.60045 -1.28557 5.7145 
9.11909 -0.229121 -4.55081 
-0.229121 10.6615 0.323868 
-4.55081 0.323868 3.2656 
7.84829 -0.678059 -1.35754 
-0.678059 10.0297 -0.523611 
-1.35754 -0.523611 5.16825 
9.54491 -0.080295 0.0992756 
-0.080295 9.40074 0.0199355 
0.0992756 0.0199355 9.81888 
9.59306 -0.10644 0.0733442 
-0.10644 9.34939 0.0108106 
0.0733442 0.0108106 9.82208 
9.47873 -0.00858938 0.0693523 
-0.00858938 9.28745 0.00734931 
0.0693523 0.00734931 9.99835 
9.50026 -0.0661843 0.192929 
-0.0661843 9.47763 0.0619839 
0.192929 0.0619839 9.78664 
9.21073 -0.045597 -0.524828 
-0.045597 9.33212 -0.114915 
-0.524828 -0.114915 9.33254 
9.22898 0.0479418 -0.538412 
0.0479418 9.14976 0.0337278 
-0.538412 0.0337278 9.49665 
9.43678 0.0342643 -0.621574 
0.0342643 9.04305 0.0593239 
-0.621574 0.0593239 9.39556 
9.47261 0.161097 -0.749525 
0.161097 9.24857 0.344901 
-0.749525 0.344901 9.15421 
8.82866 -0.694527 1.55094 
-0.694527 9.84232 0.503758 
1.55094 0.503758 10.6992 
9.46151 -0.317605 0.682499 
-0.317605 9.88516 0.193801 
0.682499 0.193801 10.0235 
9.88792 0.246099 1.29988 
0.246099 9.60551 0.475805 
1.29988 0.475805 9.87671 
9.54371 -0.26343 0.958792 
-0.26343 9.62963 0.348425 
0.958792 0.348425 10.1968 
8.99782 -0.225744 -0.0913232 
-0.225744 9.49537 -0.760125 
-0.0913232 -0.760125 9.12283 
9.09019 0.0120736 0.0161951 
0.0120736 9.26804 -0.725332 
0.0161951 -0.725332 9.2578 
9.44744 0.211778 0.117736 
0.211778 8.84815 -0.768634 
0.117736 -0.768634 9.32044 
8.84464 0.0923089 -0.0037848 
0.0923089 9.43317 -0.618034 
-0.0037848 -0.618034 9.33822 
9.73703 0.00958603 0.379625 
0.00958603 9.78756 -0.145161 
0.379625 -0.145161 9.80061 
9.7821 -0.0123417 0.404325 
-0.0123417 9.77787 -0.131276 
0.404325 -0.131276 9.76523 
9.77293 -0.0175163 0.376256 
-0.0175163 9.77032 -0.111921 
0.376256 -0.111921 9.78195 
9.78482 -0.021899 0.388057 
-0.021899 9.78385 -0.0699915 
0.388057 -0.0699915 9.75654 
9.44958 -0.0355088 -0.561399 
-0.0355088 9.28131 -0.0427635 
-0.561399 -0.0427635 9.60026 
9.4568 0.150511 -0.612965 
0.150511 9.2791 0.09434 
-0.612965 0.09434 9.59524 
9.42906 0.144527 -0.490629 
0.144527 9.30019 0.069553 
-0.490629 0.069553 9.6019 
9.32607 0.016285 -0.527347 
0.016285 9.31497 -0.131553 
-0.527347 -0.131553 9.6901 
9.57473 -0.0170471 -0.03066 
-0.0170471 9.54685 -0.612247 
-0.03066 -0.612247 9.61799 
9.55293 0.00909167 0.028976 
0.00909167 9.68073 -0.631905 
0.028976 -0.631905 9.5059 
9.59602 0.0663672 0.102898 
0.0663672 9.64273 -0.640977 
0.102898 -0.640977 9.50081 
9.53388 -0.0541363 0.00114919 
-0.0541363 9.58981 -0.66237 
0.00114919 -0.66237 9.61587 
9.83216 0.0567928 0.302149 
0.0567928 8.53433 0.182592 
0.302149 0.182592 9.74549 
9.16215 -1.08086 0.668909 
-1.08086 8.68311 0.708973 
0.668909 0.708973 10.2667 
9.43241 0.418748 0.505744 
0.418748 9.22717 0.71085 
0.505744 0.71085 9.4524 
9.63876 -0.249904 0.580038 
-0.249904 8.92683 0.466376 
0.580038 0.466376 9.54639 
9.52026 0.0319188 -0.39439 
0.0319188 9.57619 -0.449526 
-0.39439 -0.449526 9.19673 
9.46288 0.014408 -0.471082 
0.014408 9.58518 -0.412353 
-0.471082 -0.412353 9.24512 
9.6644 0.111692 -0.359449 
0.111692 9.55211 -0.430399 
-0.359449 -0.430399 9.07667 
9.45707 -0.101906 -0.267404 
-0.101906 9.59242 -0.38489 
-0.267404 -0.38489 9.24369 
9.66187 -0.0378947 -0.430068 
-0.0378947 9.46615 0.0210742 
-0.430068 0.0210742 9.57716 
9.63302 -0.0135503 -0.433826 
-0.0135503 9.44694 -0.000342327 
-0.433826 -0.000342327 9.62522 
9.6387 0.0093445 -0.420572 
0.0093445 9.46143 -0.0220244 
-0.420572 -0.0220244 9.60504 
9.6662 0.0159839 -0.444929 
0.0159839 9.44357 -0.0166263 
-0.444929 -0.0166263 9.5954 
9.39209 -0.485431 -0.0325048 
-0.485431 9.14044 -0.498733 
-0.0325048 -0.498733 10.4141 
9.4631 -0.0600548 -0.325898 
-0.0600548 9.17147 -0.302155 
-0.325898 -0.302155 10.3121 
9.46056 -0.628968 -0.22053 
-0.628968 9.16567 -0.475221 
-0.22053 -0.475221 10.3204 
10.3167 -0.256229 0.00108602 
-0.256229 8.76044 -0.320626 
0.00108602 -0.320626 9.86952 
7.71723 0.522352 0.490618 
0.522352 6.89917 -2.23971 
0.490618 -2.23971 2.05115 
6.57407 -0.77616 0.633764 
-0.77616 6.78177 -2.51593 
0.633764 -2.51593 3.31172 
8.13396 1.06703 1.48447 
1.06703 6.93808 -1.80099 
1.48447 -1.80099 1.59551 
8.17753 -0.494523 1.80694 
-0.494523 6.25221 -2.61712 
1.80694 -2.61712 2.23782 
9.84189 0.0396055 -0.236892 
0.0396055 9.86732 0.535342 
-0.236892 0.535342 9.81374 
9.78839 -0.026146 -0.266759 
-0.026146 9.88276 0.540106 
-0.266759 0.540106 9.8518 
9.85389 0.00790666 -0.227535 
0.00790666 9.82865 0.483777 
-0.227535 0.483777 9.84042 
9.80757 -0.0132503 -0.284071 
-0.0132503 9.91607 0.517113 
-0.284071 0.517113 9.79931 
8.41586 0.644678 0.825856 
0.644678 8.39156 -0.788126 
0.825856 -0.788126 3.26557 
8.72047 0.693408 0.278758 
0.693408 7.57669 -0.888055 
0.278758 -0.888055 3.77583 
7.48686 -0.503555 0.306652 
-0.503555 6.77145 -1.08507 
0.306652 -1.08507 5.81467 
7.83976 0.725473 0.807926 
0.725473 8.38755 -1.03585 
0.807926 -1.03585 3.84568 
9.68447 0.0443009 0.231062 
0.0443009 9.43941 -0.0644644 
0.231062 -0.0644644 9.82755 
9.73215 0.168937 0.259507 
0.168937 9.32161 -0.0508227 
0.259507 -0.0508227 9.89766 
9.53773 0.0661151 0.284386 
0.0661151 9.26496 -0.15227 
0.284386 -0.15227 10.1487 
9.75388 0.493261 0.213376 
0.493261 9.42625 0.113632 
0.213376 0.113632 9.7713 
9.49861 -0.0313901 0.190549 
-0.0313901 9.61172 0.659153 
0.190549 0.659153 9.26636 
9.43666 0.175055 0.0495333 
0.175055 9.73166 0.542109 
0.0495333 0.542109 9.20837 
9.45596 -0.00616918 -0.0081236 
-0.00616918 9.60149 0.636875 
-0.0081236 0.636875 9.31923 
9.47352 -0.0890138 0.0571707 
-0.0890138 9.58066 0.580874 
0.0571707 0.580874 9.32251 
9.85496 -0.00776642 -0.477985 
-0.00776642 9.93876 -0.261151 
-0.477985 -0.261151 9.91609 
9.89917 0.0315874 -0.445778 
0.0315874 9.82455 -0.250191 
-0.445778 -0.250191 9.9861 
9.87505 -0.00572414 -0.480574 
-0.00572414 9.91955 -0.257759 
-0.480574 -0.257759 9.91522 
9.92264 0.00779145 -0.514267 
0.00779145 9.92387 -0.292873 
-0.514267 -0.292873 9.86332 
9.39239 -0.0143395 -0.43519 
-0.0143395 9.52959 -0.397425 
-0.43519 -0.397425 9.25031 
9.40238 0.00762867 -0.531957 
0.00762867 9.58636 -0.32809 
-0.531957 -0.32809 9.18355 
9.32829 0.0334532 -0.449314 
0.0334532 9.74024 -0.336642 
-0.449314 -0.336642 9.10376 
9.5287 -0.0430895 -0.431882 
-0.0430895 9.3752 -0.191986 
-0.431882 -0.191986 9.26838 
9.8666 0.00844089 0.376125 
0.00844089 9.79875 -0.0502816 
0.376125 -0.0502816 9.93532 
9.86054 -0.00772958 0.384354 
-0.00772958 9.81789 -0.0687177 
0.384354 -0.0687177 9.92225 
9.84572 -0.0242303 0.370847 
-0.0242303 9.83633 -0.0604478 
0.370847 -0.0604478 9.91863 
9.88369 0.00583278 0.394603 
0.00583278 9.81317 -0.042036 
0.394603 -0.042036 9.90382 
9.75025 0.00619535 -0.349733 
0.00619535 9.84254 -0.149273 
-0.349733 -0.149273 9.55387 
9.80544 0.0157142 -0.359651 
0.0157142 9.68927 -0.200192 
-0.359651 -0.200192 9.65194 
9.73259 0.0183572 -0.38522 
0.0183572 9.74254 -0.0951964 
-0.38522 -0.0951964 9.67152 
9.76952 0.019006 -0.314181 
0.019006 9.78298 -0.135173 
-0.314181 -0.135173 9.59415 
9.31464 -0.204003 -0.457143 
-0.204003 10.0088 -0.157396 
-0.457143 -0.157396 10.4287 
9.54516 -0.27939 -0.525209 
-0.27939 9.79239 -0.509105 
-0.525209 -0.509105 10.4146 
9.07943 0.0940579 -0.483826 
0.0940579 10.133 -0.0477229 
-0.483826 -0.0477229 10.5397 
9.17901 -0.41593 -0.474929 
-0.41593 10.0412 -0.103535 
-0.474929 -0.103535 10.5319 
8.9053 0.254543 -0.553606 
0.254543 9.41618 -0.136997 
-0.553606 -0.136997 9.57959 
9.0914 0.27134 -0.670276 
0.27134 9.46143 0.0317472 
-0.670276 0.0317472 9.34824 
8.91494 0.286164 -0.429945 
0.286164 9.42003 -0.0335275 
-0.429945 -0.0335275 9.5661 
8.85588 0.190018 -0.828666 
0.190018 9.4548 0.0762333 
-0.828666 0.0762333 9.59039 
9.29062 -0.0613053 0.165028 
-0.0613053 8.9418 -0.237961 
0.165028 -0.237961 9.6176 
8.86213 -0.071945 -0.0136276 
-0.071945 8.94486 -0.174061 
-0.0136276 -0.174061 10.043 
9.02944 0.0458571 0.457152 
0.0458571 9.31705 -0.527329 
0.457152 -0.527329 9.50353 
9.23502 0.0210207 0.138728 
0.0210207 9.25603 -0.184015 
0.138728 -0.184015 9.35897 
9.93037 0.0443528 -0.253318 
0.0443528 9.97549 -0.27689 
-0.253318 -0.27689 9.89198 
9.82561 -0.0253342 -0.311294 
-0.0253342 9.85541 -0.345329 
-0.311294 -0.345329 10.1168 
9.9404 0.00478488 -0.279324 
0.00478488 9.97297 -0.27676 
-0.279324 -0.27676 9.88447 
9.96627 0.0191503 -0.273511 
0.0191503 9.98945 -0.314196 
-0.273511 -0.314196 9.84212 
9.25078 -0.85493 0.315702 
-0.85493 7.88243 -1.26152 
0.315702 -1.26152 11.1967 
10.5758 -0.130673 0.249689 
-0.130673 9.13594 0.050846 
0.249689 0.050846 8.61826 
11.2313 -1.43276 0.0275795 
-1.43276 6.5821 -0.312833 
0.0275795 -0.312833 10.5165 
9.78626 -1.01313 0.124141 
-1.01313 7.71177 -0.644539 
0.124141 -0.644539 10.8319 
9.40962 0.0932355 0.134745 
0.0932355 9.50745 -0.0361712 
0.134745 -0.0361712 9.72565 
9.79126 0.149118 0.261727 
0.149118 9.41267 -0.0658246 
0.261727 -0.0658246 9.43879 
9.4433 0.0456018 0.110477 
0.0456018 9.39926 -0.0567727 
0.110477 -0.0567727 9.80017 
9.5028 0.0220293 0.242136 
0.0220293 9.42657 0.0444425 
0.242136 0.0444425 9.71335 
9.54595 0.0460123 -0.39072 
0.0460123 9.57531 0.0201765 
-0.39072 0.0201765 9.75392 
9.46486 0.0299178 -0.495489 
0.0299178 9.6265 0.0756063 
-0.495489 0.0756063 9.78382 
9.50418 0.0243068 -0.475417 
0.0243068 9.59586 0.0466021 
-0.475417 0.0466021 9.77514 
9.59287 0.00652371 -0.534662 
0.00652371 9.52292 0.0741624 
-0.534662 0.0741624 9.75939 
9.55973 0.180343 0.230458 
0.180343 9.86242 0.278624 
0.230458 0.278624 9.36301 
9.72437 0.174148 0.21798 
0.174148 9.61929 0.047965 
0.21798 0.047965 9.4415 
9.57475 -0.00189267 -0.0554108 
-0.00189267 9.83578 0.0737342 
-0.0554108 0.0737342 9.37463 
9.65956 -0.0260432 -0.0276305 
-0.0260432 9.69626 0.178562 
-0.0276305 0.178562 9.42935 
9.60385 -0.173174 0.165186 
-0.173174 9.05312 0.252051 
0.165186 0.252051 10.0385 
9.63678 -0.0813425 0.160136 
-0.0813425 9.20188 0.334155 
0.160136 0.334155 9.85682 
9.49828 0.00818481 0.173446 
0.00818481 9.28829 -0.0315341 
0.173446 -0.0315341 9.90892 
9.54806 -0.102645 0.173925 
-0.102645 8.94067 0.267533 
0.173925 0.267533 10.2067 
8.9183 -0.0546661 -0.0580594 
-0.0546661 9.47303 -0.35638 
-0.0580594 -0.35638 8.91952 
9.32053 0.0436944 -0.373158 
0.0436944 9.21427 0.0493464 
-0.373158 0.0493464 8.77605 
9.20936 -0.028811 -0.461684 
-0.028811 9.12299 -0.0583895 
-0.461684 -0.0583895 8.9785 
9.40022 0.07011 -0.36585 
0.07011 9.01741 -0.0202062 
-0.36585 -0.0202062 8.89322 
9.74085 0.0597373 -0.468289 
0.0597373 9.79081 -0.229216 
-0.468289 -0.229216 9.65605 
9.59879 0.0377557 -0.567565 
0.0377557 9.71421 -0.130369 
-0.567565 -0.130369 9.87471 
9.63097 0.0877091 -0.45837 
0.0877091 9.76515 -0.124635 
-0.45837 -0.124635 9.7916 
9.68386 -0.0156599 -0.436466 
-0.0156599 9.78348 -0.170263 
-0.436466 -0.170263 9.72038 
9.46108 -0.288115 -0.324292 
-0.288115 8.05202 1.2313 
-0.324292 1.2313 8.64402 
9.19344 -0.198243 -0.367559 
-0.198243 8.41187 0.98569 
-0.367559 0.98569 8.5518 
9.45249 -0.480037 -0.648843 
-0.480037 8.27474 1.36537 
-0.648843 1.36537 8.42988 
9.0241 -0.324731 -0.501586 
-0.324731 8.16705 1.17266 
-0.501586 1.17266 8.96597 
9.62529 -0.105333 -0.216267 
-0.105333 9.26557 0.319261 
-0.216267 0.319261 9.06063 
9.57487 -0.145006 -0.240605 
-0.145006 9.12289 0.181311 
-0.240605 0.181311 9.25372 
9.56022 -0.0342632 -0.327221 
-0.0342632 9.17151 0.127615 
-0.327221 0.127615 9.21976 
9.52797 -0.111993 -0.174199 
-0.111993 9.08139 0.119112 
-0.174199 0.119112 9.34212 
8.89505 0.0596243 -1.07734 
0.0596243 9.91051 0.38599 
-1.07734 0.38599 9.7248 
8.87717 0.235029 -0.771521 
0.235029 9.67424 -0.292526 
-0.771521 -0.292526 9.97895 
9.43314 -0.236766 -1.6991 
-0.236766 9.21146 -0.323542 
-1.6991 -0.323542 9.88577 
9.43902 -0.0919622 0.474711 
-0.0919622 9.32979 0.842602 
0.474711 0.842602 9.76156 
9.81315 -0.0658135 -0.26339 
-0.0658135 9.84855 0.342534 
-0.26339 0.342534 9.90138 
9.91055 -0.0367716 -0.257344 
-0.0367716 9.85836 0.196647 
-0.257344 0.196647 9.79417 
9.83302 0.00902103 -0.26877 
0.00902103 9.88581 0.279219 
-0.26877 0.279219 9.84425 
9.85569 0.0135137 -0.277547 
0.0135137 9.87976 0.308122 
-0.277547 0.308122 9.82763 
9.00403 0.234202 -0.0675632 
0.234202 8.38539 -0.986603 
-0.0675632 -0.986603 9.2333 
8.5615 -0.257131 -0.0615793 
-0.257131 9.16883 -0.683474 
-0.0615793 -0.683474 8.89238 
8.52592 -0.175761 0.186542 
-0.175761 9.23906 -0.55805 
0.186542 -0.55805 8.85773 
8.74236 -0.0951585 -0.337901 
-0.0951585 8.56967 -0.476715 
-0.337901 -0.476715 9.31068 
9.49263 0.0452186 0.236452 
0.0452186 9.11797 0.149383 
0.236452 0.149383 10.1438 
9.3716 0.0555468 0.25557 
0.0555468 9.31695 -0.0213305 
0.25557 -0.0213305 10.0658 
9.5288 -0.0620803 0.0870647 
-0.0620803 9.20061 0.0424329 
0.0870647 0.0424329 10.025 
9.30853 -0.113082 0.0450015 
-0.113082 8.97965 0.174747 
0.0450015 0.174747 10.4662 
9.13037 0.0557943 -0.0647061 
0.0557943 8.9049 -1.09425 
-0.0647061 -1.09425 8.81145 
8.92049 -0.0403988 -0.00759988 
-0.0403988 9.06918 -0.821375 
-0.00759988 -0.821375 8.85705 
8.91882 -0.0284789 -0.0737282 
-0.0284789 9.0335 -1.08516 
-0.0737282 -1.08516 8.89439 
8.91548 -0.219506 -0.0596069 
-0.219506 8.92031 -1.0723 
-0.0596069 -1.0723 9.01092 
8.16958 0.131598 1.13081 
0.131598 8.63229 0.90323 
1.13081 0.90323 7.5016 
8.82044 -1.14185 0.321784 
-1.14185 8.26866 0.127496 
0.321784 0.127496 7.21438 
8.5514 -0.25365 1.5993 
-0.25365 9.66547 -0.545695 
1.5993 -0.545695 6.0866 
7.93545 0.596938 1.15149 
0.596938 9.51626 0.212227 
1.15149 0.212227 6.85176 
6.65657 -2.67463 0.658435 
-2.67463 10.7747 0.504488 
0.658435 0.504488 14.0597 
9.15115 1.64228 -0.0636379 
1.64228 10.8906 0.175563 
-0.0636379 0.175563 11.4492 
8.54263 -0.621609 1.65586 
-0.621609 11.3458 0.735304 
1.65586 0.735304 11.6025 
8.17749 0.019958 1.65723 
0.019958 11.3123 0.322106 
1.65723 0.322106 12.0012 
9.30331 -0.0415448 -0.291577 
-0.0415448 9.45865 0.0567572 
-0.291577 0.0567572 9.75592 
9.17273 0.0189555 -0.304079 
0.0189555 9.3548 0.0845627 
-0.304079 0.0845627 9.99037 
9.26978 -0.0840729 -0.341742 
-0.0840729 9.56525 -0.0561848 
-0.341742 -0.0561848 9.68287 
9.15584 0.126414 0.105527 
0.126414 9.71176 0.0464901 
0.105527 0.0464901 9.65029 
9.93132 -0.0195059 -0.00419413 
-0.0195059 9.89824 0.0608584 
-0.00419413 0.0608584 9.9633 
9.92581 0.00329053 -0.016361 
0.00329053 9.89853 0.0440511 
-0.016361 0.0440511 9.96852 
9.87888 -0.00535207 -0.0212899 
-0.00535207 9.91333 0.0701193 
-0.0212899 0.0701193 10.0006 
9.93879 -0.00285274 -0.0151355 
-0.00285274 9.91959 0.0404866 
-0.0151355 0.0404866 9.93448 
8.31894 1.6811 0.65128 
1.6811 11.5471 -0.263214 
0.65128 -0.263214 13.113 
4.96324 3.46313 -1.98864 
3.46313 8.96876 0.134352 
-1.98864 0.134352 19.0471 
2.83847 2.36278 -1.84755 
2.36278 9.94584 1.31907 
-1.84755 1.31907 20.1948 
8.94577 0.961098 -1.61806 
0.961098 10.2948 0.239449 
-1.61806 0.239449 13.7385 
8.75008 1.36727 -1.28923 
1.36727 6.83923 1.39776 
-1.28923 1.39776 2.07678 
7.92836 3.14136 -0.715128 
3.14136 2.89092 -0.572836 
-0.715128 -0.572836 6.84681 
6.48358 -1.12463 -0.745873 
-1.12463 7.36774 1.74218 
-0.745873 1.74218 3.81477 
5.0236 -0.0417563 -2.01939 
-0.0417563 7.81882 3.14998 
-2.01939 3.14998 4.82367 
9.79337 -0.0206113 -0.274152 
-0.0206113 9.71055 0.0454348 
-0.274152 0.0454348 9.80753 
9.83562 -0.0210997 -0.296928 
-0.0210997 9.71016 0.0577011 
-0.296928 0.0577011 9.76567 
9.8457 0.00381891 -0.27929 
0.00381891 9.76406 0.0966193 
-0.27929 0.0966193 9.7017 
9.78941 -0.0345085 -0.328447 
-0.0345085 9.67521 0.090538 
-0.328447 0.090538 9.84684 
9.82534 -0.0302728 0.109874 
-0.0302728 9.82001 -0.0381874 
0.109874 -0.0381874 9.96876 
9.85422 -0.0252542 0.120704 
-0.0252542 9.79083 -0.0206963 
0.120704 -0.0206963 9.96906 
9.89067 0.0369696 0.102043 
0.0369696 9.74981 -0.0519495 
0.102043 -0.0519495 9.97363 
9.81664 -0.0542969 0.0508908 
-0.0542969 9.83386 0.0740622 
0.0508908 0.0740622 9.96361 
9.28184 0.270151 0.844574 
0.270151 7.47861 0.349874 
0.844574 0.349874 9.17646 
8.61413 -0.379579 -0.299491 
-0.379579 8.686 1.20999 
-0.299491 1.20999 8.63678 
9.37881 0.482941 -0.702487 
0.482941 8.61986 1.46283 
-0.702487 1.46283 7.93824 
8.35109 -0.228186 0.401219 
-0.228186 9.27462 0.732528 
0.401219 0.732528 8.3112 
9.40305 0.431768 0.11623 
0.431768 9.98526 -0.0571123 
0.11623 -0.0571123 10.6134 
9.72964 0.0133151 0.0795272 
0.0133151 9.90612 0.0340456 
0.0795272 0.0340456 10.3659 
9.83386 0.0328478 0.0568124 
0.0328478 9.85371 -0.12789 
0.0568124 -0.12789 10.3141 
9.71143 -0.0887893 0.0195722 
-0.0887893 9.97204 0.162928 
0.0195722 0.162928 10.3182 
8.5051 0.112641 1.06507 
0.112641 9.38039 -1.08014 
1.06507 -1.08014 9.68938 
8.9825 0.12744 0.255736 
0.12744 9.35345 0.126292 
0.255736 0.126292 9.23893 
8.00598 0.935419 1.36804 
0.935419 10.2868 -0.781021 
1.36804 -0.781021 9.2821 
9.8195 0.315582 0.76287 
0.315582 9.89675 -0.680732 
0.76287 -0.680732 7.85862 
9.29077 -0.278264 0.40197 
-0.278264 8.41742 0.355937 
0.40197 0.355937 9.81163 
9.683 -0.46788 1.5061 
-0.46788 8.32267 0.821463 
1.5061 0.821463 9.51415 
8.40768 -0.141437 0.836027 
-0.141437 8.91658 0.379492 
0.836027 0.379492 10.1956 
8.75804 -0.334499 0.480239 
-0.334499 9.1209 -0.296447 
0.480239 -0.296447 9.64087 
9.2392 0.14374 -0.209991 
0.14374 9.34438 0.727152 
-0.209991 0.727152 8.69293 
9.20846 0.00651262 -0.0200841 
0.00651262 9.45152 0.824064 
-0.0200841 0.824064 8.61653 
9.18644 0.0306379 -0.280418 
0.0306379 9.22801 0.76283 
-0.280418 0.76283 8.86206 
9.5833 -0.0138071 -0.434868 
-0.0138071 9.37613 0.62291 
-0.434868 0.62291 8.31709 
9.64969 0.018649 -0.477284 
0.018649 9.56381 0.105548 
-0.477284 0.105548 9.82306 
9.63688 0.00738407 -0.475673 
0.00738407 9.61227 0.0927116 
-0.475673 0.0927116 9.78741 
9.61335 0.00111897 -0.431018 
0.00111897 9.61269 0.075838 
-0.431018 0.075838 9.81052 
9.6658 -0.0375851 -0.467749 
-0.0375851 9.56687 0.107348 
-0.467749 0.107348 9.8039 
9.87784 -0.0869018 -0.0536599 
-0.0869018 9.74784 -0.0473507 
-0.0536599 -0.0473507 11.06 
9.94146 0.0877641 -0.345597 
0.0877641 10.2857 -0.43519 
-0.345597 -0.43519 10.4586 
10.4513 -0.169522 -0.296083 
-0.169522 9.96935 -0.310136 
-0.296083 -0.310136 10.2651 
9.81669 -0.325745 -0.685543 
-0.325745 10.0893 -0.327918 
-0.685543 -0.327918 10.7797 
9.72458 -0.119735 -0.46499 
-0.119735 9.27079 0.18308 
-0.46499 0.18308 9.49762 
9.60661 -0.0721535 -0.286629 
-0.0721535 9.40088 0.127862 
-0.286629 0.127862 9.48551 
9.75754 -0.114761 -0.290007 
-0.114761 9.39693 0.240145 
-0.290007 0.240145 9.33852 
9.80024 -0.099764 -0.309526 
-0.099764 9.34165 0.160028 
-0.309526 0.160028 9.3511 
9.57792 0.0102072 -0.202544 
0.0102072 9.66559 0.589841 
-0.202544 0.589841 9.2316 
9.67007 0.00141715 -0.0337189 
0.00141715 9.69179 0.574958 
-0.0337189 0.574958 9.11326 
9.58574 -0.0259308 -0.17465 
-0.0259308 9.61953 0.625926 
-0.17465 0.625926 9.26984 
9.47357 0.0446478 0.0365716 
0.0446478 9.42191 0.503227 
0.0365716 0.503227 9.57963 
9.82557 -0.0397425 0.0472532 
-0.0397425 9.81135 0.0669987 
0.0472532 0.0669987 9.90869 
9.86186 -0.0177838 0.0622067 
-0.0177838 9.80866 -0.0137705 
0.0622067 -0.0137705 9.87509 
9.82195 0.00277158 0.0707221 
0.00277158 9.84102 0.015084 
0.0707221 0.015084 9.88264 
9.85361 -0.0145853 0.0453127 
-0.0145853 9.82966 0.0441694 
0.0453127 0.0441694 9.86234 
9.53274 0.0564352 -0.42882 
0.0564352 9.59329 0.0854252 
-0.42882 0.0854252 9.73983 
9.52033 0.0305799 -0.492065 
0.0305799 9.57842 0.0723143 
-0.492065 0.0723143 9.76712 
9.47936 -0.0138195 -0.476536 
-0.0138195 9.56541 0.018757 
-0.476536 0.018757 9.82109 
9.54008 0.0399799 -0.517469 
0.0399799 9.54625 0.00886133 
-0.517469 0.00886133 9.77954 
9.48204 0.0985438 0.150398 
0.0985438 9.24099 0.162989 
0.150398 0.162989 9.69756 
9.34566 -0.0362175 0.180242 
-0.0362175 9.3607 0.0211724 
0.180242 0.0211724 9.71423 
9.43233 0.111413 0.154704 
0.111413 9.28404 0.15928 
0.154704 0.15928 9.70422 
9.48891 0.168139 0.0745261 
0.168139 9.36354 0.237981 
0.0745261 0.237981 9.56815 
8.67659 0.194143 -0.0426608 
0.194143 9.35805 0.218517 
-0.0426608 0.218517 9.1102 
8.81569 0.357301 -0.533968 
0.357301 9.68207 0.465251 
-0.533968 0.465251 8.64707 
9.09465 0.211715 -0.250519 
0.211715 9.5394 0.420892 
-0.250519 0.420892 8.51078 
9.07709 0.00968741 -0.278795 
0.00968741 9.57541 0.383954 
-0.278795 0.383954 8.49233 
9.89277 -0.861781 -2.20299 
-0.861781 8.49956 -0.967913 
-2.20299 -0.967913 10.273 
10.7746 -0.0216997 0.338641 
-0.0216997 6.92965 -0.67374 
0.338641 -0.67374 10.9611 
9.14496 0.174537 0.605711 
0.174537 9.48008 1.31724 
0.605711 1.31724 10.0403 
10.864 -0.780747 -0.870701 
-0.780747 8.08925 0.87484 
-0.870701 0.87484 9.71215 
8.64932 0.23065 0.0683716 
0.23065 8.84214 1.57379 
0.0683716 1.57379 8.31178 
9.00298 0.00766376 0.124898 
0.00766376 8.24292 0.978783 
0.124898 0.978783 8.55734 
8.67959 0.610329 -0.118182 
0.610329 9.00525 1.41964 
-0.118182 1.41964 8.1184 
9.27696 0.288636 -0.259481 
0.288636 9.49505 1.28455 
-0.259481 1.28455 7.03124 
9.80095 -0.0435808 -0.0805687 
-0.0435808 9.71049 0.0436221 
-0.0805687 0.0436221 9.82171 
9.7705 -0.0222348 -0.0544949 
-0.0222348 9.76484 0.0220051 
-0.0544949 0.0220051 9.79781 
9.80105 -0.0363437 -0.0509336 
-0.0363437 9.72606 0.0235992 
-0.0509336 0.0235992 9.80604 
9.86675 -0.00546018 -0.00581198 
-0.00546018 9.74303 0.0198241 
-0.00581198 0.0198241 9.72336 
9.49917 -0.241922 0.375436 
-0.241922 8.85111 0.65692 
0.375436 0.65692 10.0544 
9.65052 -0.39812 0.555942 
-0.39812 8.88067 0.699448 
0.555942 0.699448 9.87347 
9.62605 -0.260042 0.207443 
-0.260042 8.8287 0.340474 
0.207443 0.340474 9.9499 
9.45479 -0.235345 0.382398 
-0.235345 8.53484 0.300696 
0.382398 0.300696 10.415 
9.56724 0.105839 0.433976 
0.105839 9.52421 0.683369 
0.433976 0.683369 9.31938 
9.50973 0.048421 0.353287 
0.048421 9.55216 0.581561 
0.353287 0.581561 9.34894 
9.61517 0.0734797 0.249326 
0.0734797 9.58768 0.565027 
0.249326 0.565027 9.20797 
9.33311 0.0167471 0.337747 
0.0167471 9.4777 0.458431 
0.337747 0.458431 9.60002 
9.12001 0.0931372 0.270371 
0.0931372 9.46451 0.248571 
0.270371 0.248571 8.4709 
8.77301 0.0772412 0.280972 
0.0772412 9.09328 0.333218 
0.280972 0.333218 9.18913 
9.0407 0.102447 0.64403 
0.102447 9.58753 0.48652 
0.64403 0.48652 8.42719 
9.27532 0.0888567 0.279083 
0.0888567 9.08877 0.351441 
0.279083 0.351441 8.69133 
6.20041 0.0254449 1.39408 
0.0254449 7.44682 -0.928718 
1.39408 -0.928718 2.05531 
7.12824 0.056431 1.00854 
0.056431 7.03925 -0.513124 
1.00854 -0.513124 1.53505 
6.75767 0.475947 1.19005 
0.475947 4.75574 -1.9959 
1.19005 -1.9959 4.18913 
6.51851 -0.272474 0.545454 
-0.272474 7.07548 -0.74342 
0.545454 -0.74342 2.10855 
9.51955 0.0970409 0.507788 
0.0970409 9.56406 -0.17881 
0.507788 -0.17881 9.60444 
9.75756 0.315934 0.435336 
0.315934 9.43635 -0.223771 
0.435336 -0.223771 9.49414 
9.55592 0.181774 0.594266 
0.181774 9.61793 -0.171019 
0.594266 -0.171019 9.5142 
9.58563 0.108007 0.499798 
0.108007 9.55351 -0.109401 
0.499798 -0.109401 9.54891 
10.0023 -0.0124591 -0.180408 
-0.0124591 8.14037 -0.046922 
-0.180408 -0.046922 9.18115 
9.69346 0.00199176 0.586748 
0.00199176 8.09064 0.335757 
0.586748 0.335757 9.53974 
9.47925 -0.0637057 0.361722 
-0.0637057 8.38293 -0.136095 
0.361722 -0.136095 9.46166 
9.87029 0.199986 -0.227929 
0.199986 8.46536 0.411015 
-0.227929 0.411015 8.98819 
6.8804 1.86172 5.40519 
1.86172 10.1136 -3.18863 
5.40519 -3.18863 9.32711 
7.35866 1.53786 1.113 
1.53786 7.23657 -0.184009 
1.113 -0.184009 11.7259 
10.2002 0.655245 0.0774679 
0.655245 10.2866 -0.237396 
0.0774679 -0.237396 5.83437 
10.4447 0.565722 1.06063 
0.565722 7.3314 -1.02503 
1.06063 -1.02503 8.54505 
9.3084 -0.0140084 -0.577889 
-0.0140084 9.66675 -0.341858 
-0.577889 -0.341858 9.55816 
9.51076 0.134392 -0.511495 
0.134392 9.56205 -0.25672 
-0.511495 -0.25672 9.4605 
9.37303 0.027345 -0.558076 
0.027345 9.64261 -0.349669 
-0.558076 -0.349669 9.51767 
9.46971 0.0982724 -0.662003 
0.0982724 9.68465 -0.303603 
-0.662003 -0.303603 9.37895 
7.31837 -0.17675 0.338354 
-0.17675 5.99584 0.410509 
0.338354 0.410509 7.96422 
8.39107 -1.54422 -0.132505 
-1.54422 8.58806 -0.333638 
-0.132505 -0.333638 4.29929 
9.81988 0.026347 -2.54433 
0.026347 8.82925 0.402924 
-2.54433 0.402924 2.6293 
8.93303 -0.860925 -0.7501 
-0.860925 7.94291 -0.119739 
-0.7501 -0.119739 4.40249 
9.73065 0.0324026 0.137151 
0.0324026 9.69264 0.272731 
0.137151 0.272731 9.6983 
9.7213 0.0148918 0.173195 
0.0148918 9.87997 0.159196 
0.173195 0.159196 9.52032 
9.69933 0.0125664 0.12195 
0.0125664 9.74062 0.155691 
0.12195 0.155691 9.68163 
9.70601 0.00897495 0.189874 
0.00897495 9.79508 0.186467 
0.189874 0.186467 9.6205 
8.53334 0.303606 0.463148 
0.303606 9.84369 0.718048 
0.463148 0.718048 9.34105 
9.04018 0.117269 0.543602 
0.117269 9.58919 0.666382 
0.543602 0.666382 9.08871 
8.52289 -0.0142671 0.0934367 
-0.0142671 9.91723 0.193676 
0.0934367 0.193676 9.27796 
9.03948 0.167739 0.0589589 
0.167739 8.99936 0.615734 
0.0589589 0.615734 9.67923 
9.64812 -0.00587699 -0.449598 
-0.00587699 9.62587 0.156366 
-0.449598 0.156366 9.82698 
9.6343 -0.0282494 -0.432875 
-0.0282494 9.62136 0.132257 
-0.432875 0.132257 9.8453 
9.62085 0.0338891 -0.403113 
0.0338891 9.66021 0.126839 
-0.403113 0.126839 9.81991 
9.68668 -0.00851866 -0.457931 
-0.00851866 9.62863 0.145608 
-0.457931 0.145608 9.78566 
9.41842 -0.0252118 0.105337 
-0.0252118 9.45772 0.0562884 
0.105337 0.0562884 9.94003 
9.57354 -0.0550359 -0.0273707 
-0.0550359 9.46126 -0.214193 
-0.0273707 -0.214193 9.78137 
9.47794 -0.0405213 0.0491853 
-0.0405213 9.56225 -0.0963548 
0.0491853 -0.0963548 9.77598 
9.54406 -0.0081693 0.0249639 
-0.0081693 9.58846 -0.0960392 
0.0249639 -0.0960392 9.68365 
9.47832 0.048629 -0.580112 
0.048629 9.51509 -0.143937 
-0.580112 -0.143937 9.6053 
9.4143 0.03967 -0.539815 
0.03967 9.55534 -0.170092 
-0.539815 -0.170092 9.62908 
9.43437 0.0378724 -0.597655 
0.0378724 9.61326 -0.0899507 
-0.597655 -0.0899507 9.55109 
9.43691 0.111552 -0.57978 
0.111552 9.60451 -0.0951234 
-0.57978 -0.0951234 9.55729 
9.32443 -0.060416 0.0672082 
-0.060416 9.24449 -0.256995 
0.0672082 -0.256995 9.53175 
9.43813 -0.07479 0.0651723 
-0.07479 9.2292 -0.123233 
0.0651723 -0.123233 9.43334 
9.33909 -0.0461753 0.0836282 
-0.0461753 9.26527 -0.218624 
0.0836282 -0.218624 9.49631 
9.45566 -0.02388 0.142528 
-0.02388 9.29347 -0.235452 
0.142528 -0.235452 9.35154 
10.4244 -0.476113 0.276241 
-0.476113 10.1628 0.478361 
0.276241 0.478361 10.4378 
9.91539 -0.67426 0.261278 
-0.67426 9.75134 -0.18044 
0.261278 -0.18044 11.3583 
9.76351 0.397461 -0.0617911 
0.397461 10.1633 0.463225 
-0.0617911 0.463225 11.0982 
10.5084 1.18844 -0.886265 
1.18844 9.53673 -1.2112 
-0.886265 -1.2112 10.9799 
9.91267 -0.169907 0.0961271 
-0.169907 9.09496 -0.065011 
0.0961271 -0.065011 10.6407 
9.91933 -0.144053 0.15808 
-0.144053 9.14657 -0.093134 
0.15808 -0.093134 10.5824 
9.94844 -0.118493 0.0690304 
-0.118493 9.197 -0.0529155 
0.0690304 -0.0529155 10.5029 
10.1972 -0.208193 -0.0613403 
-0.208193 9.236 -0.422126 
-0.0613403 -0.422126 10.2151 
9.74859 0.0286162 -0.345986 
0.0286162 9.76973 -0.255236 
-0.345986 -0.255236 9.65827 
9.73949 0.0370131 -0.444354 
0.0370131 9.8055 -0.339568 
-0.444354 -0.339568 9.6316 
9.80896 0.0280797 -0.367822 
0.0280797 9.85923 -0.211389 
-0.367822 -0.211389 9.50839 
9.75056 0.0139897 -0.421249 
0.0139897 9.81087 -0.366936 
-0.421249 -0.366936 9.61516 
9.76869 0.0068568 0.322939 
0.0068568 9.14036 -0.672549 
0.322939 -0.672549 9.85935 
9.73135 0.0362583 0.421568 
0.0362583 9.5625 -0.855016 
0.421568 -0.855016 9.47456 
9.91461 -0.115235 0.30716 
-0.115235 9.09359 -0.505878 
0.30716 -0.505878 9.76021 
10.0125 0.352035 -0.137759 
0.352035 8.77723 -1.02535 
-0.137759 -1.02535 9.97865 
8.17598 0.221408 0.187132 
0.221408 9.37339 -0.0507697 
0.187132 -0.0507697 8.93953 
8.63724 0.388868 0.343979 
0.388868 9.08015 -0.0587902 
0.343979 -0.0587902 8.77151 
8.55406 0.430423 0.347201 
0.430423 9.1964 0.0943293 
0.347201 0.0943293 8.73845 
8.32173 0.21729 0.416975 
0.21729 9.66459 -0.12443 
0.416975 -0.12443 8.50259 
9.55419 0.088272 -0.73506 
0.088272 8.98662 -0.122769 
-0.73506 -0.122769 8.99219 
9.87032 0.109416 -0.426195 
0.109416 8.47262 0.523751 
-0.426195 0.523751 9.19006 
9.64785 -0.270024 -0.00665592 
-0.270024 8.45314 0.228417 
-0.00665592 0.228417 9.432 
9.65605 -0.2916 -0.0860525 
-0.2916 8.69921 0.287955 
-0.0860525 0.287955 9.17773 
9.57107 0.0507328 0.217942 
0.0507328 9.58187 -0.555626 
0.217942 -0.555626 9.24869 
9.5211 -0.181639 0.129651 
-0.181639 9.80766 -0.541701 
0.129651 -0.541701 9.07287 
9.53664 0.0461546 0.242387 
0.0461546 9.6285 -0.616642 
0.242387 -0.616642 9.23649 
9.46421 0.00724796 0.187453 
0.00724796 9.60872 -0.534362 
0.187453 -0.534362 9.32869 
9.54137 -0.118388 0.20419 
-0.118388 9.26145 -0.0214868 
0.20419 -0.0214868 9.79868 
9.51272 -0.0594601 0.402023 
-0.0594601 9.15793 0.114768 
0.402023 0.114768 9.93084 
9.51963 -0.111122 0.371799 
-0.111122 9.17473 0.0188856 
0.371799 0.0188856 9.90714 
9.51641 -0.141473 0.350965 
-0.141473 9.10718 -0.0759752 
0.350965 -0.0759752 9.97791 
8.98894 0.505018 -0.674322 
0.505018 8.57235 0.934808 
-0.674322 0.934808 8.67875 
9.33047 0.633801 -0.293103 
0.633801 8.83313 0.699412 
-0.293103 0.699412 8.07644 
7.97151 0.0686656 -0.0469819 
0.0686656 9.4568 0.247157 
-0.0469819 0.247157 8.81174 
8.46989 0.398276 -0.848814 
0.398276 9.56568 0.650695 
-0.848814 0.650695 8.20448 
9.80498 0.00396343 0.0729595 
0.00396343 9.80739 0.250502 
0.0729595 0.250502 10.1662 
9.94484 -0.0261626 0.0271745 
-0.0261626 9.93365 0.298486 
0.0271745 0.298486 9.90004 
9.94869 -0.004323 0.0277506 
-0.004323 9.97944 0.335854 
0.0277506 0.335854 9.8504 
9.93439 -0.00984311 0.055066 
-0.00984311 10.0008 0.27074 
0.055066 0.27074 9.84335 
9.1337 -0.291727 -0.877513 
-0.291727 9.13535 -0.228557 
-0.877513 -0.228557 9.31271 
9.76329 -0.21059 -0.538035 
-0.21059 7.7234 0.208966 
-0.538035 0.208966 10.0951 
9.73227 0.190512 -0.494892 
0.190512 8.14514 0.455035 
-0.494892 0.455035 9.70435 
9.4913 -0.089895 -0.626027 
-0.089895 7.99622 0.181793 
-0.626027 0.181793 10.0942 
9.8538 -0.0340481 -0.338228 
-0.0340481 9.80554 0.194109 
-0.338228 0.194109 9.90642 
9.80817 0.0303751 -0.35863 
0.0303751 9.8484 0.209298 
-0.35863 0.209298 9.90919 
9.84327 -0.0100902 -0.369535 
-0.0100902 9.83318 0.198177 
-0.369535 0.198177 9.8893 
9.89604 -0.050739 -0.423775 
-0.050739 9.82632 0.233059 
-0.423775 0.233059 9.8434 
9.22294 0.350653 -0.11947 
0.350653 9.08719 0.246272 
-0.11947 0.246272 10.1351 
8.54351 0.451037 0.0415321 
0.451037 8.44657 1.07613 
0.0415321 1.07613 11.4552 
9.36361 0.056763 -0.263372 
0.056763 8.46874 1.06776 
-0.263372 1.06776 10.6129 
9.57396 0.731736 -0.777759 
0.731736 9.24302 1.14981 
-0.777759 1.14981 9.62827 
9.83719 0.0228436 -0.459823 
0.0228436 9.88124 -0.105598 
-0.459823 -0.105598 9.91933 
9.82605 0.0140449 -0.466874 
0.0140449 9.87618 -0.114403 
-0.466874 -0.114403 9.93552 
9.8515 0.0243715 -0.465627 
0.0243715 9.88106 -0.112399 
-0.465627 -0.112399 9.90519 
9.83136 -0.00552354 -0.450444 
-0.00552354 9.88619 -0.161435 
-0.450444 -0.161435 9.92021 
9.21178 -0.00865291 -0.0743291 
-0.00865291 9.94722 -0.0573294 
-0.0743291 -0.0573294 10.1967 
9.32558 0.094605 -0.325352 
0.094605 10.1114 -0.0142864 
-0.325352 -0.0142864 9.91865 
9.25764 -0.0589355 -0.0940041 
-0.0589355 10.0011 -0.170187 
-0.0940041 -0.170187 10.097 
9.49297 0.102006 -0.314825 
0.102006 9.7383 -0.0338313 
-0.314825 -0.0338313 10.1244 
10.1308 0.107541 0.0607847 
0.107541 9.70853 -0.0631725 
0.0607847 -0.0631725 11.3576 
10.2219 0.0737212 0.023519 
0.0737212 9.68083 0.110774 
0.023519 0.110774 11.2942 
10.2763 0.144842 0.0307022 
0.144842 9.36922 0.0137693 
0.0307022 0.0137693 11.5514 
10.5023 -0.178978 -0.191205 
-0.178978 10.0533 0.821288 
-0.191205 0.821288 10.6413 
9.54773 -0.0169301 -0.446971 
-0.0169301 9.7093 0.135447 
-0.446971 0.135447 9.64552 
9.52534 0.0248171 -0.455777 
0.0248171 9.66489 0.149073 
-0.455777 0.149073 9.71231 
9.54552 0.0052925 -0.40475 
0.0052925 9.59778 0.236207 
-0.40475 0.236207 9.75924 
9.55569 -0.00807072 -0.386779 
-0.00807072 9.59469 0.182203 
-0.386779 0.182203 9.75216 
9.841 0.0602724 0.358828 
0.0602724 9.883 -0.0453281 
0.358828 -0.0453281 9.86375 
9.92344 -0.0189478 0.339182 
-0.0189478 9.83138 -0.0571935 
0.339182 -0.0571935 9.83293 
9.89121 -0.0396369 0.346368 
-0.0396369 9.79874 -0.00557252 
0.346368 -0.00557252 9.8978 
9.91032 0.039036 0.316703 
0.039036 9.80968 -0.0615538 
0.316703 -0.0615538 9.86775 
9.03756 0.32282 1.37216 
0.32282 9.8179 0.161582 
1.37216 0.161582 8.71023 
8.75542 0.578157 1.7199 
0.578157 9.57121 0.165505 
1.7199 0.165505 9.23908 
9.01622 0.237568 0.544841 
0.237568 9.5665 -0.00184007 
0.544841 -0.00184007 8.98298 
10.0389 0.241159 0.921339 
0.241159 10.0789 -0.901992 
0.921339 -0.901992 7.44796 
8.51307 0.205306 -0.824167 
0.205306 9.42516 -0.589987 
-0.824167 -0.589987 8.73534 
9.17444 0.276537 -1.39652 
0.276537 9.66245 -0.0139922 
-1.39652 -0.0139922 7.83668 
8.49576 -0.275801 -1.19928 
-0.275801 9.54149 -0.18273 
-1.19928 -0.18273 8.63631 
8.89673 0.344479 0.106972 
0.344479 8.37275 0.0751165 
0.106972 0.0751165 9.40408 
9.55803 0.0884357 0.431553 
0.0884357 9.62431 -0.0736575 
0.431553 -0.0736575 9.65782 
9.60981 0.0782901 0.438174 
0.0782901 9.55966 -0.107437 
0.438174 -0.107437 9.67069 
9.59655 0.0448353 0.425246 
0.0448353 9.53467 -0.12252 
0.425246 -0.12252 9.70894 
9.60715 0.0773023 0.463794 
0.0773023 9.56173 -0.0944218 
0.463794 -0.0944218 9.67129 
5.38506 0.860564 -0.439105 
0.860564 9.02955 0.604871 
-0.439105 0.604871 -0.0982812 
6.14491 -0.913388 1.81369 
-0.913388 6.30502 0.846028 
1.81369 0.846028 1.8664 
6.46894 -0.820076 1.31223 
-0.820076 5.95825 0.456299 
1.31223 0.456299 1.88913 
2.29054 0.899009 3.65115 
0.899009 7.28846 2.05253 
3.65115 2.05253 4.73732 
9.96119 -0.103217 -0.335147 
-0.103217 8.31363 0.985716 
-0.335147 0.985716 10.45 
8.99463 0.517309 0.183915 
0.517309 8.86058 0.594716 
0.183915 0.594716 10.8697 
9.50865 0.289148 0.145216 
0.289148 9.02089 0.291057 
0.145216 0.291057 10.1953 
9.37229 -0.574063 0.200271 
-0.574063 8.89292 -0.124232 
0.200271 -0.124232 10.4597 
9.19886 0.132654 0.673052 
0.132654 9.21802 0.261627 
0.673052 0.261627 8.0202 
9.00538 -0.181401 0.227269 
-0.181401 9.42322 0.176201 
0.227269 0.176201 8.00847 
8.81954 -0.0635764 0.334693 
-0.0635764 9.47802 0.55555 
0.334693 0.55555 8.13951 
9.19459 0.151858 0.596338 
0.151858 8.90667 -0.00803436 
0.596338 -0.00803436 8.33581 
9.80754 -0.0168094 0.418528 
-0.0168094 9.76426 -0.0814545 
0.418528 -0.0814545 9.95289 
9.83132 0.000270079 0.399472 
0.000270079 9.73572 -0.0752059 
0.399472 -0.0752059 9.95764 
9.83485 0.0103342 0.380928 
0.0103342 9.82244 -0.0171864 
0.380928 -0.0171864 9.8674 
9.81121 -0.00549498 0.394046 
-0.00549498 9.75426 -0.0724587 
0.394046 -0.0724587 9.95921 
9.27482 -0.46976 -0.774764 
-0.46976 9.04267 -0.0721654 
-0.774764 -0.0721654 9.31795 
9.45087 -0.618429 -0.235763 
-0.618429 8.48363 0.0632785 
-0.235763 0.0632785 9.70095 
9.66058 -0.670969 -0.42919 
-0.670969 8.53863 -0.367304 
-0.42919 -0.367304 9.43623 
9.18765 -0.2084 -0.669411 
-0.2084 9.68358 -0.0857621 
-0.669411 -0.0857621 8.76421 
8.66803 -0.121092 -0.653926 
-0.121092 9.46771 0.0674476 
-0.653926 0.0674476 7.5697 
8.71329 0.386164 -0.193914 
0.386164 9.52356 0.520763 
-0.193914 0.520763 7.46858 
8.83535 0.0292928 -0.366384 
0.0292928 9.25753 0.268404 
-0.366384 0.268404 7.61256 
9.0102 -0.0842094 -0.226825 
-0.0842094 8.83899 0.282691 
-0.226825 0.282691 7.85625 
9.11429 -0.461249 0.568816 
-0.461249 9.67144 0.163359 
0.568816 0.163359 9.86296 
8.37668 -0.344623 0.624122 
-0.344623 10.1061 0.0281186 
0.624122 0.0281186 10.166 
9.14824 -0.315108 0.326283 
-0.315108 9.66238 -0.0342682 
0.326283 -0.0342682 9.83806 
9.35855 -0.407801 0.710624 
-0.407801 9.49093 -0.0311262 
0.710624 -0.0311262 9.7992 
9.18121 0.18237 0.225593 
0.18237 9.34685 0.199818 
0.225593 0.199818 10.5584 
9.13909 0.49525 -0.345728 
0.49525 8.99824 0.258028 
-0.345728 0.258028 10.9492 
9.46417 0.782777 -0.10918 
0.782777 8.85815 0.40234 
-0.10918 0.40234 10.7642 
9.481 0.442357 -0.225599 
0.442357 9.46064 0.665268 
-0.225599 0.665268 10.1449 
9.67383 0.161831 -0.119096 
0.161831 9.48199 0.664621 
-0.119096 0.664621 9.84073 
9.73005 -0.0346683 0.262421 
-0.0346683 9.72349 0.752009 
0.262421 0.752009 9.54301 
9.55561 0.0935828 -0.0543912 
0.0935828 9.94193 0.633158 
-0.0543912 0.633158 9.49901 
9.73663 0.0157857 0.101599 
0.0157857 9.81346 0.638019 
0.101599 0.638019 9.44646 
9.21873 -0.0117149 -0.291325 
-0.0117149 9.46385 -0.0287473 
-0.291325 -0.0287473 9.89748 
9.15845 0.0236465 -0.132949 
0.0236465 9.39424 0.0266727 
-0.132949 0.0266727 10.0274 
8.93775 0.110163 -0.423204 
0.110163 9.55841 -0.123276 
-0.423204 -0.123276 10.0839 
9.06429 -0.0116784 0.05934 
-0.0116784 9.58966 -0.0518544 
0.05934 -0.0518544 9.92611 
9.63156 -0.143253 0.593029 
-0.143253 8.81272 -0.196081 
0.593029 -0.196081 10.3294 
8.54433 -0.958395 0.511052 
-0.958395 9.51056 0.115696 
0.511052 0.115696 10.7187 
9.20226 -0.111364 -0.146129 
-0.111364 8.87354 -0.236057 
-0.146129 -0.236057 10.6978 
9.42427 -0.317024 0.644551 
-0.317024 9.18528 -0.357099 
0.644551 -0.357099 10.1641 
9.68752 0.0416443 0.0555018 
0.0416443 9.65149 0.0835162 
0.0555018 0.0835162 9.74342 
9.66246 0.0188743 0.0621689 
0.0188743 9.6897 0.0163207 
0.0621689 0.0163207 9.73027 
9.66942 0.0158618 0.0699757 
0.0158618 9.6851 0.0313127 
0.0699757 0.0313127 9.7279 
9.66342 0.0132861 0.0355223 
0.0132861 9.67154 0.0501496 
0.0355223 0.0501496 9.74747 
9.20303 -0.113415 0.693524 
-0.113415 9.45201 0.14329 
0.693524 0.14329 9.22496 
9.07873 0.0402271 0.0730491 
0.0402271 9.17383 -0.183278 
0.0730491 -0.183278 9.62745 
9.22362 -0.042301 0.195382 
-0.042301 9.31009 0.230754 
0.195382 0.230754 9.34629 
9.26995 -0.0293066 0.0497741 
-0.0293066 9.3237 0.220003 
0.0497741 0.220003 9.28635 
9.6795 0.030843 -0.392819 
0.030843 9.79588 0.402484 
-0.392819 0.402484 9.77964 
9.65139 0.00851343 -0.409225 
0.00851343 9.75244 0.38814 
-0.409225 0.38814 9.85118 
9.75838 -0.0164563 -0.428076 
-0.0164563 9.80777 0.354978 
-0.428076 0.354978 9.68887 
9.69142 0.0233224 -0.35748 
0.0233224 9.79337 0.395882 
-0.35748 0.395882 9.77021 
9.77004 -0.0152415 0.098059 
-0.0152415 9.58504 0.0464279 
0.098059 0.0464279 9.81719 
9.78405 -0.00879635 0.0609283 
-0.00879635 9.56888 0.0381875 
0.0609283 0.0381875 9.81934 
9.77005 0.0193615 0.113214 
0.0193615 9.57308 0.0206537 
0.113214 0.0206537 9.82914 
9.80248 -0.0139325 0.0706138 
-0.0139325 9.5664 -0.0384863 
0.0706138 -0.0384863 9.80338 
9.95315 0.209608 0.0218034 
0.209608 8.84807 -0.264803 
0.0218034 -0.264803 10.7926 
10.0983 -0.679321 0.271141 
-0.679321 9.84458 -0.00917839 
0.271141 -0.00917839 9.65098 
10.229 0.771201 0.056307 
0.771201 8.93535 -0.209456 
0.056307 -0.209456 10.4295 
10.3751 0.762872 0.664303 
0.762872 8.65447 -0.745736 
0.664303 -0.745736 10.5642 
9.0123 0.609587 0.694505 
0.609587 8.73365 -0.478303 
0.694505 -0.478303 6.26466 
8.03329 0.519051 0.68909 
0.519051 7.8548 -1.37586 
0.68909 -1.37586 8.12252 
7.26666 0.646383 0.266971 
0.646383 7.61782 -0.94771 
0.266971 -0.94771 9.12613 
8.09673 0.0241693 1.20275 
0.0241693 7.63753 -1.47868 
1.20275 -1.47868 8.27635 
9.69628 -0.00121576 -0.438669 
-0.00121576 9.641 0.141671 
-0.438669 0.141671 9.79771 
9.61337 -0.0207292 -0.367375 
-0.0207292 9.66874 0.116178 
-0.367375 0.116178 9.85288 
9.67409 -0.0118975 -0.404915 
-0.0118975 9.62699 0.153977 
-0.404915 0.153977 9.83391 
9.75287 -0.087078 -0.436798 
-0.087078 9.60541 0.137338 
-0.436798 0.137338 9.77672 
9.41353 0.0420546 -0.0216347 
0.0420546 9.58381 -0.733297 
-0.0216347 -0.733297 9.43363 
9.48586 0.0540391 0.067179 
0.0540391 9.64409 -0.662732 
0.067179 -0.662732 9.30102 
9.50516 0.0321941 0.014516 
0.0321941 9.53854 -0.74781 
0.014516 -0.74781 9.38727 
9.3671 0.00327437 -0.0869349 
0.00327437 9.51008 -0.567807 
-0.0869349 -0.567807 9.55379 
9.19455 -0.723201 1.74935 
-0.723201 8.52526 0.751212 
1.74935 0.751212 8.35874 
9.15295 -0.180768 -0.0553897 
-0.180768 8.27088 1.25392 
-0.0553897 1.25392 8.65472 
8.41091 0.421177 -0.594088 
0.421177 9.86726 0.780556 
-0.594088 0.780556 7.80038 
9.00825 -0.447771 0.626377 
-0.447771 8.34488 1.73865 
0.626377 1.73865 8.72542 
10.0781 0.72843 0.432075 
0.72843 9.38963 0.851985 
0.432075 0.851985 10.8953 
10.333 0.625387 -0.664493 
0.625387 9.17768 -0.426432 
-0.664493 -0.426432 10.8523 
10.2364 0.666981 0.416981 
0.666981 8.69182 0.684754 
0.416981 0.684754 11.4348 
9.56619 0.441845 -0.925027 
0.441845 9.20339 0.784179 
-0.925027 0.784179 11.5935 
9.58153 -0.0314494 0.599301 
-0.0314494 9.69593 0.461963 
0.599301 0.461963 9.2917 
9.54918 0.0436253 0.508303 
0.0436253 9.70678 0.330449 
0.508303 0.330449 9.3132 
9.63324 0.228555 0.492266 
0.228555 9.79774 0.256371 
0.492266 0.256371 9.13818 
9.50064 0.0669709 0.422564 
0.0669709 9.59975 0.28549 
0.422564 0.28549 9.46876 
7.38629 -0.226111 1.05418 
-0.226111 8.33116 -0.260956 
1.05418 -0.260956 9.85704 
9.90451 -1.46442 2.07902 
-1.46442 5.84799 3.33078 
2.07902 3.33078 9.82199 
7.90081 -0.344152 1.04827 
-0.344152 9.17423 2.13693 
1.04827 2.13693 8.49944 
8.70893 -0.409662 -0.00877228 
-0.409662 8.77762 2.39206 
-0.00877228 2.39206 8.08794 
9.23357 0.012375 0.505302 
0.012375 9.50154 -0.271613 
0.505302 -0.271613 9.22753 
9.08552 -0.0123061 0.54107 
-0.0123061 9.46931 -0.330117 
0.54107 -0.330117 9.4078 
9.15219 -0.0352157 0.594543 
-0.0352157 9.53612 -0.292288 
0.594543 -0.292288 9.27432 
9.11712 -0.0454649 0.541811 
-0.0454649 9.52015 -0.303956 
0.541811 -0.303956 9.32537 
9.24968 0.0761876 0.239068 
0.0761876 9.48451 0.32675 
0.239068 0.32675 8.53687 
9.36896 -0.0758976 -0.0945154 
-0.0758976 9.32168 0.33049 
-0.0945154 0.33049 8.58041 
9.32 0.0520608 -0.294709 
0.0520608 9.23893 0.531942 
-0.294709 0.531942 8.71214 
9.58126 0.0908262 -0.281574 
0.0908262 9.38951 0.417272 
-0.281574 0.417272 8.30029 
9.30302 -0.0622171 -0.527282 
-0.0622171 8.9597 -0.0863951 
-0.527282 -0.0863951 9.88703 
9.26348 -0.020887 -0.759606 
-0.020887 9.02348 -0.201927 
-0.759606 -0.201927 9.86279 
9.27957 0.0348922 -0.629335 
0.0348922 9.02612 -0.104802 
-0.629335 -0.104802 9.84406 
9.29964 0.122948 -0.616125 
0.122948 9.08241 -0.134149 
-0.616125 -0.134149 9.7677 
9.54587 0.0599415 -0.340716 
0.0599415 9.54301 -0.00789216 
-0.340716 -0.00789216 9.63795 
9.57438 0.122372 -0.374751 
0.122372 9.49684 0.0282396 
-0.374751 0.0282396 9.65561 
9.3329 -0.00492277 -0.325994 
-0.00492277 9.62097 0.0243884 
-0.325994 0.0243884 9.77295 
9.55753 0.0268507 -0.438655 
0.0268507 9.45188 0.00573581 
-0.438655 0.00573581 9.71742 
10.2046 0.10109 -0.133322 
0.10109 9.35993 0.0394089 
-0.133322 0.0394089 10.2231 
10.1296 0.290078 -0.226547 
0.290078 9.11121 0.156141 
-0.226547 0.156141 10.5468 
10.1232 -0.365014 -0.25436 
-0.365014 9.4216 0.180383 
-0.25436 0.180383 10.2429 
9.78444 -0.301392 0.380177 
-0.301392 9.57624 -0.488794 
0.380177 -0.488794 10.427 
9.79458 -0.00739039 -0.0202792 
-0.00739039 9.74115 -0.0908479 
-0.0202792 -0.0908479 9.7331 
9.75052 -0.250477 -0.065475 
-0.250477 9.66705 -0.102703 
-0.065475 -0.102703 9.85125 
9.72004 -0.0765855 0.00439179 
-0.0765855 9.74191 -0.0276778 
0.00439179 -0.0276778 9.80688 
9.76971 -0.129079 0.0484996 
-0.129079 9.6795 -0.0535059 
0.0484996 -0.0535059 9.8196 
12.1265 -0.729119 -0.158129 
-0.729119 10.5928 -0.298562 
-0.158129 -0.298562 11.2798 
10.6263 0.103202 -0.0814019 
0.103202 10.8338 -0.250491 
-0.0814019 -0.250491 12.539 
11.3382 0.602659 0.0384024 
0.602659 9.35754 -0.725825 
0.0384024 -0.725825 13.3033 
11.8002 0.120858 0.590824 
0.120858 10.3333 -0.242134 
0.590824 -0.242134 11.8656 
9.66981 0.0984928 0.441269 
0.0984928 9.71477 0.163337 
0.441269 0.163337 9.20544 
9.62676 0.00554254 0.371404 
0.00554254 9.66927 0.191218 
0.371404 0.191218 9.29399 
9.58387 -0.0265488 0.19402 
-0.0265488 9.81617 0.0678128 
0.19402 0.0678128 9.18998 
9.5404 0.101954 0.414523 
0.101954 9.58044 0.249832 
0.414523 0.249832 9.46917 
8.84268 0.0185593 0.458843 
0.0185593 9.77974 0.416371 
0.458843 0.416371 11.5711 
11.0389 0.251779 -1.06011 
0.251779 8.963 -1.39552 
-1.06011 -1.39552 10.1917 
8.62403 -1.13885 0.497681 
-1.13885 10.9065 0.14281 
0.497681 0.14281 10.663 
8.55198 -0.777444 -0.500218 
-0.777444 10.3906 -0.367774 
-0.500218 -0.367774 11.251 
9.35804 0.000853932 -0.449178 
0.000853932 9.57141 -0.247874 
-0.449178 -0.247874 9.65927 
9.49137 0.00133964 -0.469555 
0.00133964 9.52781 -0.0966871 
-0.469555 -0.0966871 9.56953 
9.50171 0.0884719 -0.61226 
0.0884719 9.58911 -0.0615703 
-0.61226 -0.0615703 9.49789 
9.43571 0.0889988 -0.412064 
0.0889988 9.54501 -0.159534 
-0.412064 -0.159534 9.60799 
8.94941 -0.29013 0.347069 
-0.29013 8.94878 0.0872992 
0.347069 0.0872992 10.8042 
9.3786 -0.174894 0.64766 
-0.174894 9.29173 -0.156868 
0.64766 -0.156868 10.0321 
8.74402 -0.111664 0.948919 
-0.111664 9.3386 -0.148565 
0.948919 -0.148565 10.6198 
9.00167 -0.196272 0.650652 
-0.196272 9.18681 -0.0777517 
0.650652 -0.0777517 10.5139 
9.92866 -0.0298028 -0.221199 
-0.0298028 9.95236 0.432514 
-0.221199 0.432514 9.98802 
9.98948 0.0164744 -0.236886 
0.0164744 9.97322 0.438069 
-0.236886 0.438069 9.90634 
9.89649 -0.00140219 -0.237834 
-0.00140219 9.9423 0.442783 
-0.237834 0.442783 10.0303 
9.93631 0.00159187 -0.247355 
0.00159187 9.99371 0.386932 
-0.247355 0.386932 9.93902 
9.76083 -0.0388055 -0.123817 
-0.0388055 9.70511 -0.0168209 
-0.123817 -0.0168209 10.5654 
9.93485 -0.0047339 0.0708355 
-0.0047339 9.8763 -0.0201835 
0.0708355 -0.0201835 10.2202 
10.136 0.0795231 0.132981 
0.0795231 10.0615 -0.062902 
0.132981 -0.062902 9.83381 
9.63381 -0.0643199 0.376655 
-0.0643199 10.0648 0.160943 
0.376655 0.160943 10.3327 
9.91747 0.00313963 0.200097 
0.00313963 10.0149 0.152009 
0.200097 0.152009 9.87229 
9.92514 0.0450781 0.200739 
0.0450781 9.97533 0.138964 
0.200739 0.138964 9.90417 
9.83786 0.00640912 0.131402 
0.00640912 9.8416 0.146481 
0.131402 0.146481 10.1252 
9.95408 -0.00585259 0.211133 
-0.00585259 9.99453 0.0929117 
0.211133 0.0929117 9.85604 
9.22633 -0.0297474 -0.358773 
-0.0297474 9.49933 0.0512618 
-0.358773 0.0512618 9.84449 
9.32026 0.182737 -0.429126 
0.182737 9.41951 0.0805726 
-0.429126 0.0805726 9.83037 
9.07628 0.0510353 -0.443475 
0.0510353 9.57478 0.0500112 
-0.443475 0.0500112 9.91909 
9.26144 0.178384 -0.354803 
0.178384 9.41129 0.0365257 
-0.354803 0.0365257 9.89741 
9.40385 0.252127 0.751879 
0.252127 8.29466 1.21326 
0.751879 1.21326 4.86702 
8.55406 -0.168422 -0.0434155 
-0.168422 8.22032 0.762459 
-0.0434155 0.762459 5.79114 
9.04603 -0.382084 0.567983 
-0.382084 8.07383 1.00902 
0.567983 1.00902 5.44567 
8.49841 0.0510739 0.0128777 
0.0510739 9.04719 0.680091 
0.0128777 0.680091 5.01992 
9.84048 -0.845736 -0.24978 
-0.845736 8.41073 0.224429 
-0.24978 0.224429 10.6094 
9.92935 -0.474928 -0.191348 
-0.474928 9.18956 0.173351 
-0.191348 0.173351 9.74175 
10.0551 -0.536665 -0.148252 
-0.536665 8.93265 0.282946 
-0.148252 0.282946 9.8729 
9.95496 -0.453528 -0.0575984 
-0.453528 8.97786 0.242173 
-0.0575984 0.242173 9.92782 
9.89382 -0.0219974 0.508654 
-0.0219974 9.91926 0.167321 
0.508654 0.167321 9.8832 
9.88485 0.0690315 0.444727 
0.0690315 9.78991 0.186811 
0.444727 0.186811 10.0215 
9.86756 -0.0128363 0.548653 
-0.0128363 9.9599 0.199153 
0.548653 0.199153 9.8688 
9.95572 0.0382185 0.487754 
0.0382185 9.92394 0.183963 
0.487754 0.183963 9.81661 
9.87099 -0.29082 -0.453774 
-0.29082 8.65626 0.0143629 
-0.453774 0.0143629 9.61982 
9.85079 -0.19308 -0.454866 
-0.19308 8.82215 0.128447 
-0.454866 0.128447 9.47412 
10.0607 -0.38779 -0.0106192 
-0.38779 8.70819 -0.0127114 
-0.0106192 -0.0127114 9.37813 
9.82227 -0.490056 -0.0903437 
-0.490056 8.95465 -0.0833526 
-0.0903437 -0.0833526 9.37015 
6.7404 -0.0884598 -1.38284 
-0.0884598 8.04407 -1.13992 
-1.38284 -1.13992 2.77265 
6.70854 0.801175 -1.27198 
0.801175 8.2215 -0.684947 
-1.27198 -0.684947 2.62708 
7.75423 -0.529501 -1.51008 
-0.529501 8.31483 -1.57208 
-1.51008 -1.57208 1.48806 
7.69175 -0.858932 -1.93778 
-0.858932 7.56276 -1.88427 
-1.93778 -1.88427 2.30261 
9.74368 -0.0357008 0.437056 
-0.0357008 9.79385 -0.111109 
0.437056 -0.111109 9.79525 
9.73255 -0.049908 0.446589 
-0.049908 9.79682 -0.1229 
0.446589 -0.1229 9.8034 
9.74407 -0.0389764 0.441129 
-0.0389764 9.76699 -0.0977334 
0.441129 -0.0977334 9.82171 
9.73117 -0.0412243 0.437149 
-0.0412243 9.80911 -0.122717 
0.437149 -0.122717 9.79249 
9.75465 -0.0193537 -0.323285 
-0.0193537 9.56749 0.0297746 
-0.323285 0.0297746 9.67552 
9.72796 0.0077466 -0.32479 
0.0077466 9.58475 0.0154427 
-0.32479 0.0154427 9.68494 
9.73196 0.00727494 -0.33977 
0.00727494 9.53734 -0.0338743 
-0.33977 -0.0338743 9.72835 
9.72773 -0.0149057 -0.314991 
-0.0149057 9.55358 -0.00124409 
-0.314991 -0.00124409 9.71635 
9.34137 -0.358485 -0.36911 
-0.358485 9.02495 0.704532 
-0.36911 0.704532 9.43653 
9.41606 0.236273 -0.182213 
0.236273 9.45973 0.560869 
-0.182213 0.560869 8.92706 
9.52993 0.0441855 0.0227672 
0.0441855 9.5686 0.855922 
0.0227672 0.855922 8.70432 
9.40163 0.0214276 -0.236315 
0.0214276 9.3947 0.757225 
-0.236315 0.757225 9.00652 
13.0386 0.321117 0.0903449 
0.321117 11.7238 -0.365029 
0.0903449 -0.365029 12.6979 
11.5993 0.427677 -0.0817289 
0.427677 11.7592 -0.716088 
-0.0817289 -0.716088 14.1018 
11.894 0.611583 0.393108 
0.611583 12.4036 -0.387609 
0.393108 -0.387609 13.1627 
11.9784 0.193658 1.08016 
0.193658 12.5626 -0.154038 
1.08016 -0.154038 12.9192 
8.69537 -0.177505 0.155064 
-0.177505 8.59324 -1.06923 
0.155064 -1.06923 8.11835 
8.17664 -0.440054 -0.799772 
-0.440054 8.21223 -0.295809 
-0.799772 -0.295809 9.01809 
8.70875 -0.155247 -0.634962 
-0.155247 8.34453 -0.58308 
-0.634962 -0.58308 8.35368 
9.09968 -0.487626 -0.948246 
-0.487626 8.86645 -1.21614 
-0.948246 -1.21614 7.44084 
7.34958 0.257655 0.413325 
0.257655 6.52114 0.823429 
0.413325 0.823429 6.46838 
8.94299 -0.162144 -2.00547 
-0.162144 8.82612 0.316575 
-2.00547 0.316575 2.56998 
8.92043 1.40708 -0.346572 
1.40708 6.79698 0.477692 
-0.346572 0.477692 4.62169 
8.02917 0.321734 -0.686155 
0.321734 8.50306 0.680707 
-0.686155 0.680707 3.80687 
9.80068 0.0040036 0.331288 
0.0040036 9.7013 -0.0713106 
0.331288 -0.0713106 9.82644 
9.85326 0.00947191 0.278398 
0.00947191 9.74139 -0.137613 
0.278398 -0.137613 9.73378 
9.80933 0.00635492 0.269802 
0.00635492 9.69793 -0.0962691 
0.269802 -0.0962691 9.82117 
9.79894 0.0131682 0.282228 
0.0131682 9.7321 -0.120685 
0.282228 -0.120685 9.79739 
9.38536 0.0445993 0.227802 
0.0445993 9.44867 -0.628902 
0.227802 -0.628902 9.94112 
9.60106 -0.0545183 0.236464 
-0.0545183 9.69169 -0.417804 
0.236464 -0.417804 9.4824 
9.69627 0.171929 0.281123 
0.171929 9.91611 -0.712071 
0.281123 -0.712071 9.16276 
9.60318 -0.115896 0.211711 
-0.115896 9.62314 -0.555932 
0.211711 -0.555932 9.54882 
9.38163 0.0611702 -0.295919 
0.0611702 9.31665 0.478672 
-0.295919 0.478672 9.09481 
9.29618 0.0447659 -0.437662 
0.0447659 9.44972 0.584892 
-0.437662 0.584892 9.04719 
9.20376 -0.0511431 -0.630431 
-0.0511431 9.52473 0.467222 
-0.630431 0.467222 9.06459 
9.42578 0.31583 -0.508559 
0.31583 9.43688 0.617676 
-0.508559 0.617676 8.93043 
9.97561 -0.0302508 -0.226743 
-0.0302508 9.97215 0.256761 
-0.226743 0.256761 9.91436 
9.96222 -0.0141007 -0.21997 
-0.0141007 9.99054 0.260545 
-0.21997 0.260545 9.90937 
9.84305 -0.00483361 -0.15445 
-0.00483361 9.91414 0.285787 
-0.15445 0.285787 10.1049 
9.99765 -0.0107798 -0.210321 
-0.0107798 9.98051 0.220213 
-0.210321 0.220213 9.88396 
9.66545 -0.0541179 0.0780272 
-0.0541179 9.43357 -0.0438983 
0.0780272 -0.0438983 10.0777 
9.68455 -0.0493132 0.0551477 
-0.0493132 9.44384 -0.140511 
0.0551477 -0.140511 10.0483 
9.5723 -0.0849356 0.166043 
-0.0849356 9.41344 -0.00881409 
0.166043 -0.00881409 10.1909 
9.57852 -0.0344833 0.221398 
-0.0344833 9.54429 0.0259672 
0.221398 0.0259672 10.0539 
9.03927 0.352607 0.512691 
0.352607 9.70936 0.473353 
0.512691 0.473353 8.88532 
9.25993 0.171515 0.334235 
0.171515 9.58786 0.0560186 
0.334235 0.0560186 8.78617 
8.56925 -0.0408728 0.0769174 
-0.0408728 9.86315 0.231994 
0.0769174 0.231994 9.20156 
8.74168 0.0331021 0.0309994 
0.0331021 9.34354 0.348493 
0.0309994 0.348493 9.54873 
9.62335 -0.0227622 0.101683 
-0.0227622 9.42337 0.0942712 
0.101683 0.0942712 9.94468 
9.56785 0.00619597 0.138262 
0.00619597 9.42377 -0.0130611 
0.138262 -0.0130611 9.99978 
9.58751 -0.0334726 0.150363 
-0.0334726 9.43657 0.0604755 
0.150363 0.0604755 9.96732 
9.62423 -0.0543942 0.211233 
-0.0543942 9.46272 -0.022959 
0.211233 -0.022959 9.90445 
10.0574 -0.501117 0.0250741 
-0.501117 9.90844 -0.148117 
0.0250741 -0.148117 10.2676 
9.63418 0.103851 0.0016948 
0.103851 9.92728 -0.356257 
0.0016948 -0.356257 10.672 
10.0192 -0.0195204 -0.0942031 
-0.0195204 10.001 0.135831 
-0.0942031 0.135831 10.2132 
9.84363 -0.434434 -0.0950321 
-0.434434 10.001 0.0514573 
-0.0950321 0.0514573 10.3889 
9.70363 0.059701 0.684982 
0.059701 8.65318 -0.460947 
0.684982 -0.460947 10.4454 
9.78197 -0.175468 -0.0918589 
-0.175468 8.91107 -0.256696 
-0.0918589 -0.256696 10.1092 
10.3021 0.0883393 0.658468 
0.0883393 8.40367 -0.481238 
0.658468 -0.481238 10.0964 
9.68257 -0.269183 0.474748 
-0.269183 9.01028 -0.437542 
0.474748 -0.437542 10.1094 
7.71915 0.545012 -1.46761 
0.545012 7.78039 1.80602 
-1.46761 1.80602 8.27893 
8.00402 0.225629 -1.32689 
0.225629 8.27583 1.31969 
-1.32689 1.31969 7.49861 
8.65412 0.173021 -1.62818 
0.173021 8.57814 1.74231 
-1.62818 1.74231 6.5462 
8.92401 0.649378 0.484898 
0.649378 7.27749 0.251892 
0.484898 0.251892 7.57696 
9.61851 0.0418475 -0.470729 
0.0418475 9.60938 -0.0569913 
-0.470729 -0.0569913 9.76445 
9.59297 0.0288542 -0.504507 
0.0288542 9.64428 -0.000938054 
-0.504507 -0.000938054 9.7551 
9.56198 0.0331841 -0.472097 
0.0331841 9.68889 0.0185531 
-0.472097 0.0185531 9.74146 
9.57937 0.0220224 -0.509469 
0.0220224 9.6328 -0.000757659 
-0.509469 -0.000757659 9.78016 
9.07593 -0.183089 -0.557304 
-0.183089 9.12156 -0.503222 
-0.557304 -0.503222 8.63842 
8.98943 -0.11024 -0.491409 
-0.11024 9.44107 -0.492929 
-0.491409 -0.492929 8.4054 
9.13397 -0.0394061 -0.20526 
-0.0394061 9.28448 -0.783931 
-0.20526 -0.783931 8.41745 
9.31369 -0.0228323 -0.12921 
-0.0228323 9.01968 -0.628143 
-0.12921 -0.628143 8.50253 
9.81513 -0.0416741 -0.0637743 
-0.0416741 9.82913 0.0624614 
-0.0637743 0.0624614 9.81048 
9.8565 -0.0560588 -0.0719238 
-0.0560588 9.81522 0.0781971 
-0.0719238 0.0781971 9.78303 
9.85362 -0.0997354 -0.0773604 
-0.0997354 9.76059 0.1093 
-0.0773604 0.1093 9.84054 
9.86603 -0.0490299 -0.0325804 
-0.0490299 9.79776 0.0181526 
-0.0325804 0.0181526 9.79095 
9.4731 0.0221261 -0.463932 
0.0221261 9.54283 0.0964153 
-0.463932 0.0964153 9.71643 
9.57455 0.0544185 -0.415564 
0.0544185 9.42204 0.11076 
-0.415564 0.11076 9.73577 
9.49823 0.0396869 -0.571261 
0.0396869 9.52617 0.098157 
-0.571261 0.098157 9.70796 
9.34151 -0.0731324 -0.4807 
-0.0731324 9.59537 0.135024 
-0.4807 0.135024 9.79548 
9.74898 -0.381511 -0.652732 
-0.381511 8.18238 -2.24834 
-0.652732 -2.24834 9.6622 
8.95724 -0.23334 -0.334839 
-0.23334 9.83062 -1.21414 
-0.334839 -1.21414 8.8057 
9.05296 0.309528 -0.0973431 
0.309528 7.80896 -1.07596 
-0.0973431 -1.07596 10.7316 
10.5282 -0.356172 0.207385 
-0.356172 9.3964 -1.17748 
0.207385 -1.17748 7.66899 
8.47627 0.317132 -0.82655 
0.317132 9.15311 0.0867096 
-0.82655 0.0867096 9.23837 
8.18462 0.0972226 -0.186233 
0.0972226 9.52745 -0.0354236 
-0.186233 -0.0354236 9.15568 
8.89063 -0.0631994 -0.772943 
-0.0631994 9.08084 -0.0340355 
-0.772943 -0.0340355 8.89628 
8.43651 0.110289 -0.863919 
0.110289 9.19458 -0.0139764 
-0.863919 -0.0139764 9.23665 
9.4381 0.128602 0.172443 
0.128602 9.3261 0.107168 
0.172443 0.107168 8.98374 
9.45254 0.0584471 0.447123 
0.0584471 9.49485 0.0494299 
0.447123 0.0494299 8.80056 
9.49952 0.160384 0.319613 
0.160384 9.34274 0.0849168 
0.319613 0.0849168 8.90569 
9.43853 0.0364685 0.436186 
0.0364685 9.35258 0.132414 
0.436186 0.132414 8.95684 
9.49679 -0.145231 0.0450152 
-0.145231 9.3035 -0.235328 
0.0450152 -0.235328 10.5321 
9.08261 -0.24388 -0.152868 
-0.24388 9.62267 -0.354991 
-0.152868 -0.354991 10.6271 
9.11111 -0.157091 -0.354362 
-0.157091 9.71924 -0.487371 
-0.354362 -0.487371 10.502 
9.18805 -0.579996 -0.100579 
-0.579996 9.18928 -0.466575 
-0.100579 -0.466575 10.955 
9.14196 -0.0210914 -0.315274 
-0.0210914 9.79458 0.206783 
-0.315274 0.206783 9.69349 
9.12334 0.0486321 -0.213137 
0.0486321 9.76624 0.0986803 
-0.213137 0.0986803 9.74044 
9.09801 -0.0486251 -0.0221975 
-0.0486251 9.80452 0.105758 
-0.0221975 0.105758 9.7275 
9.00993 -0.0100664 -0.0476329 
-0.0100664 9.73065 0.151684 
-0.0476329 0.151684 9.88945 
9.94467 0.0495562 -0.345787 
0.0495562 9.9698 -0.135764 
-0.345787 -0.135764 9.9168 
9.85547 -0.0125979 -0.275148 
-0.0125979 9.87271 -0.128485 
-0.275148 -0.128485 10.1031 
9.9629 0.00124444 -0.345836 
0.00124444 9.97853 -0.133511 
-0.345836 -0.133511 9.88984 
9.97387 0.00483699 -0.342948 
0.00483699 9.97081 -0.0797109 
-0.342948 -0.0797109 9.88658 
9.18408 -0.0380936 0.00245006 
-0.0380936 9.49381 -0.200708 
0.00245006 -0.200708 8.98063 
9.41581 0.0329053 0.105738 
0.0329053 9.53632 -0.348924 
0.105738 -0.348924 8.70639 
9.19499 -0.0941431 -0.169856 
-0.0941431 9.65095 -0.209692 
-0.169856 -0.209692 8.81258 
9.4821 0.122245 0.0712037 
0.122245 9.39359 -0.222464 
0.0712037 -0.222464 8.78283 
9.28779 -0.0471453 -0.477396 
-0.0471453 9.29153 0.0922354 
-0.477396 0.0922354 8.7457 
9.21898 0.0662957 -0.322748 
0.0662957 9.35583 0.532856 
-0.322748 0.532856 8.75021 
9.32649 0.00189939 -0.401098 
0.00189939 9.35915 0.230714 
-0.401098 0.230714 8.63938 
9.38386 0.0115647 -0.456006 
0.0115647 9.47689 0.327422 
-0.456006 0.327422 8.46427 
9.54887 -0.00802027 -0.444129 
-0.00802027 9.7386 0.277158 
-0.444129 0.277158 9.68885 
9.60853 -0.0105881 -0.447363 
-0.0105881 9.69463 0.272267 
-0.447363 0.272267 9.67316 
9.56655 -0.00726077 -0.435633 
-0.00726077 9.7094 0.282413 
-0.435633 0.282413 9.70037 
9.56585 0.0109224 -0.476531 
0.0109224 9.68272 0.224361 
-0.476531 0.224361 9.72776 
3.92441 -4.20276 -0.929418 
-4.20276 8.19505 -0.690686 
-0.929418 -0.690686 20.9786 
9.82424 -2.45093 1.11537 
-2.45093 11.7531 1.09717 
1.11537 1.09717 11.5207 
5.16412 -2.17654 -0.18545 
-2.17654 11.1707 -0.920044 
-0.18545 -0.920044 16.7632 
8.95943 -0.849196 -1.07535 
-0.849196 11.0455 -0.760561 
-1.07535 -0.760561 13.0931 
9.41012 0.0113022 0.0794334 
0.0113022 9.27548 0.102004 
0.0794334 0.102004 9.59181 
9.39024 -0.0683486 0.108343 
-0.0683486 9.34766 0.0891303 
0.108343 0.0891303 9.53951 
9.47087 0.154663 -0.0818931 
0.154663 9.32207 0.0494244 
-0.0818931 0.0494244 9.48447 
9.56379 -0.0642805 0.145787 
-0.0642805 9.32705 0.141625 
0.145787 0.141625 9.38656 
9.56159 0.0840809 0.534436 
0.0840809 9.64196 -0.482836 
0.534436 -0.482836 9.4421 
9.52585 -0.034949 0.50707 
-0.034949 9.65061 -0.374176 
0.50707 -0.374176 9.46918 
9.55324 -0.0498685 0.419318 
-0.0498685 9.80574 -0.350809 
0.419318 -0.350809 9.28667 
9.42402 -0.0502304 0.407382 
-0.0502304 9.62804 -0.283693 
0.407382 -0.283693 9.59359 
8.97104 0.151249 0.948799 
0.151249 9.01636 -0.0989043 
0.948799 -0.0989043 7.46466 
8.93677 0.186127 0.755013 
0.186127 8.87013 -0.158599 
0.755013 -0.158599 7.64516 
8.74998 0.140785 0.634383 
0.140785 9.32317 -0.35037 
0.634383 -0.35037 7.37891 
9.03717 0.137782 0.773656 
0.137782 9.03824 -0.237944 
0.773656 -0.237944 7.37665 
9.70307 0.0302029 0.0211039 
0.0302029 9.76394 -0.321667 
0.0211039 -0.321667 9.63428 
9.74517 -0.0178922 -0.048009 
-0.0178922 9.8047 -0.362798 
-0.048009 -0.362798 9.55143 
9.69792 0.0177227 0.0123394 
0.0177227 9.73043 -0.302495 
0.0123394 -0.302495 9.67295 
9.73723 -0.0201876 -0.0119233 
-0.0201876 9.7293 -0.322548 
-0.0119233 -0.322548 9.63476 
9.71974 0.00964166 -0.242124 
0.00964166 9.75862 0.347973 
-0.242124 0.347973 9.69409 
9.74693 0.0229047 -0.23542 
0.0229047 9.77365 0.293596 
-0.23542 0.293596 9.65187 
9.75077 -0.0537779 -0.244784 
-0.0537779 9.88973 0.329315 
-0.244784 0.329315 9.53195 
9.76266 0.00965826 -0.257413 
0.00965826 9.74137 0.258109 
-0.257413 0.258109 9.66842 
9.31066 0.174356 -0.106307 
0.174356 8.92381 0.414763 
-0.106307 0.414763 9.88555 
9.64992 0.0138704 0.202453 
0.0138704 8.73888 0.735136 
0.202453 0.735136 9.73122 
9.72469 -0.0441757 0.156922 
-0.0441757 8.93283 0.66435 
0.156922 0.66435 9.4625 
9.5705 0.644378 -0.264237 
0.644378 9.01359 0.913512 
-0.264237 0.913512 9.53594 
9.13085 0.073549 0.305227 
0.073549 9.20511 0.656144 
0.305227 0.656144 9.03516 
9.17668 0.0984523 0.309633 
0.0984523 9.20235 0.695619 
0.309633 0.695619 8.99209 
9.26482 -0.0247812 0.31868 
-0.0247812 8.94212 0.744396 
0.31868 0.744396 9.16419 
9.18516 0.153497 0.210865 
0.153497 9.05174 0.571326 
0.210865 0.571326 9.13422 
8.96479 0.0129947 0.697913 
0.0129947 9.93944 1.24912 
0.697913 1.24912 7.674 
8.86239 0.0922049 0.578284 
0.0922049 8.94823 0.0440711 
0.578284 0.0440711 8.7676 
9.04514 0.0617091 0.44773 
0.0617091 9.81483 0.601262 
0.44773 0.601262 7.71825 
9.33356 1.01226 0.662018 
1.01226 10.0561 -0.780876 
0.662018 -0.780876 7.18859 
7.28426 -0.392472 1.32723 
-0.392472 8.01638 -0.21433 
1.32723 -0.21433 0.225085 
8.75814 0.153679 1.54465 
0.153679 3.56627 0.24232 
1.54465 0.24232 3.20131 
7.31424 -0.136134 0.791118 
-0.136134 7.30694 0.346089 
0.791118 0.346089 0.904547 
7.6659 -1.09458 2.04065 
-1.09458 7.1935 0.227425 
2.04065 0.227425 0.66633 
9.308 0.02985 -0.19658 
0.02985 9.68134 0.128965 
-0.19658 0.128965 9.79547 
9.50284 -0.061511 -0.135842 
-0.061511 9.6817 0.0116664 
-0.135842 0.0116664 9.60028 
9.45531 -0.11159 -0.103963 
-0.11159 9.66995 0.0471851 
-0.103963 0.0471851 9.65956 
9.41967 -0.0101834 -0.0769391 
-0.0101834 9.61213 0.0969803 
-0.0769391 0.0969803 9.75302 
9.86665 0.0254785 0.0325747 
0.0254785 9.71858 -0.0048045 
0.0325747 -0.0048045 9.91722 
9.85741 0.0119952 0.0256686 
0.0119952 9.78919 0.0302241 
0.0256686 0.0302241 9.85585 
9.80669 0.00644831 0.0403166 
0.00644831 9.8214 0.0251925 
0.0403166 0.0251925 9.87436 
9.84198 -0.00794318 0.0505962 
-0.00794318 9.79397 0.04643 
0.0505962 0.04643 9.86649 
9.8041 -0.0319297 0.268167 
-0.0319297 9.8478 0.562672 
0.268167 0.562672 9.76558 
9.81744 -0.0082778 0.197414 
-0.0082778 9.87568 0.545184 
0.197414 0.545184 9.72437 
9.76803 -0.0236863 0.232326 
-0.0236863 9.86499 0.598969 
0.232326 0.598969 9.78446 
9.7611 -0.00827549 0.240371 
-0.00827549 9.88976 0.576446 
0.240371 0.576446 9.76663 
9.92571 0.0226087 0.413072 
0.0226087 9.94375 -0.0301685 
0.413072 -0.0301685 9.95322 
9.9368 -0.0269625 0.412245 
-0.0269625 9.91442 -0.0303057 
0.412245 -0.0303057 9.97147 
9.92408 0.013265 0.395802 
0.013265 9.8949 -0.0105745 
0.395802 -0.0105745 10.0037 
9.94485 0.0196349 0.43105 
0.0196349 9.93094 -0.0300643 
0.43105 -0.0300643 9.94689 
11.0508 0.550231 -0.157154 
0.550231 8.07574 0.822298 
-0.157154 0.822298 11.1001 
9.97068 -1.25526 0.191933 
-1.25526 9.32011 0.993739 
0.191933 0.993739 10.9358 
9.41872 -1.6346 -0.445358 
-1.6346 8.47363 1.49671 
-0.445358 1.49671 12.3343 
9.88457 -0.0399514 0.433581 
-0.0399514 8.6799 1.52382 
0.433581 1.52382 11.6621 
9.46588 -0.0847014 0.348839 
-0.0847014 9.63798 -0.0772654 
0.348839 -0.0772654 9.67003 
9.53681 -0.162512 0.494908 
-0.162512 9.578 -0.114646 
0.494908 -0.114646 9.65908 
9.45219 -0.130417 0.547021 
-0.130417 9.556 0.0145076 
0.547021 0.0145076 9.7657 
9.38372 -0.0665766 0.497658 
-0.0665766 9.73007 -0.0921579 
0.497658 -0.0921579 9.6601 
9.31204 -0.0987089 0.106031 
-0.0987089 9.24003 0.493462 
0.106031 0.493462 7.77278 
8.92664 -0.0960326 -0.22081 
-0.0960326 9.43828 0.044933 
-0.22081 0.044933 7.95994 
9.04181 0.124166 0.117847 
0.124166 9.27457 0.275742 
0.117847 0.275742 8.00847 
9.32873 0.021084 -0.809364 
0.021084 8.27044 -0.195682 
-0.809364 -0.195682 8.72569 
7.29635 0.303633 -0.67569 
0.303633 6.71163 1.66139 
-0.67569 1.66139 0.0857415 
6.72064 0.541955 0.564986 
0.541955 6.30533 -0.210847 
0.564986 -0.210847 1.06775 
5.70874 0.478701 0.322373 
0.478701 6.18409 -0.218432 
0.322373 -0.218432 2.20088 
6.1967 -0.554093 0.0390382 
-0.554093 6.59508 1.47264 
0.0390382 1.47264 1.30193 
9.85774 -0.00682924 -0.279592 
-0.00682924 9.86261 0.149643 
-0.279592 0.149643 9.88961 
9.88317 0.00168894 -0.258712 
0.00168894 9.82111 0.159409 
-0.258712 0.159409 9.90568 
9.92477 0.00556712 -0.256459 
0.00556712 9.80637 0.179501 
-0.256459 0.179501 9.87882 
9.84815 -0.0234341 -0.26699 
-0.0234341 9.87306 0.153705 
-0.26699 0.153705 9.88875 
8.9455 0.207381 -0.749804 
0.207381 9.25213 0.625814 
-0.749804 0.625814 8.99062 
8.76612 0.0685526 -0.655828 
0.0685526 9.12701 0.443132 
-0.655828 0.443132 9.29512 
8.79803 0.091335 -0.677638 
0.091335 9.31337 0.494743 
-0.677638 0.494743 9.07685 
8.8906 0.236255 -0.780351 
0.236255 9.56121 0.377797 
-0.780351 0.377797 8.73644 
6.68466 -0.504655 -4.39163 
-0.504655 10.3922 -0.849878 
-4.39163 -0.849878 8.94065 
6.39547 -0.658858 -0.91641 
-0.658858 7.70248 -0.57321 
-0.91641 -0.57321 11.9195 
10.4388 -2.39807 -0.723085 
-2.39807 7.86884 -0.84758 
-0.723085 -0.84758 7.70986 
9.19843 -1.29951 -0.110657 
-1.29951 10.6964 0.755445 
-0.110657 0.755445 6.12264 
8.88697 -0.00777398 -0.640851 
-0.00777398 9.34488 -0.518208 
-0.640851 -0.518208 8.21052 
8.87182 -0.0212915 -0.430594 
-0.0212915 9.13331 -0.877523 
-0.430594 -0.877523 8.43724 
8.89196 -0.111401 -0.649104 
-0.111401 9.26095 -0.627724 
-0.649104 -0.627724 8.28946 
8.88264 -0.0685411 -0.508064 
-0.0685411 9.62924 -0.895221 
-0.508064 -0.895221 7.93049 
9.06738 0.251997 -2.1858 
0.251997 9.9599 1.08906 
-2.1858 1.08906 7.72585 
8.17845 0.348593 -1.24337 
0.348593 9.33918 -0.273515 
-1.24337 -0.273515 9.2355 
9.23135 -0.492717 -0.256106 
-0.492717 8.40823 0.251502 
-0.256106 0.251502 9.11355 
7.82828 0.81149 -1.05874 
0.81149 9.93043 0.194746 
-1.05874 0.194746 8.99442 
8.45003 -0.683244 -0.610892 
-0.683244 10.3929 -0.59643 
-0.610892 -0.59643 10.8459 
10.428 -1.07282 -2.24751 
-1.07282 6.86095 -0.707785 
-2.24751 -0.707785 12.3999 
9.45885 -0.58468 -0.763571 
-0.58468 8.86731 -0.676823 
-0.763571 -0.676823 11.3627 
9.82739 -0.409894 -0.0782903 
-0.409894 9.01334 -1.72598 
-0.0782903 -1.72598 10.8481 
9.68086 0.558542 -0.615104 
0.558542 10.759 0.737631 
-0.615104 0.737631 6.41651 
8.67137 -0.616024 0.693278 
-0.616024 10.7537 0.75641 
0.693278 0.75641 7.43138 
9.23715 -0.0961291 0.847217 
-0.0961291 9.41625 0.686485 
0.847217 0.686485 8.20301 
11.6946 -0.0259059 0.749254 
-0.0259059 9.96403 -0.0347902 
0.749254 -0.0347902 5.19778 
13.9495 0.471128 -0.421132 
0.471128 12.7879 -0.51064 
-0.421132 -0.51064 10.1188 
10.488 0.190836 0.764704 
0.190836 9.92139 -2.25409 
0.764704 -2.25409 16.4467 
12.9628 0.550421 0.0395846 
0.550421 11.2582 -0.607632 
0.0395846 -0.607632 12.6352 
13.1384 0.0886151 0.746275 
0.0886151 9.88084 0.606314 
0.746275 0.606314 13.8369 
9.13654 0.774994 1.12209 
0.774994 10.4154 -0.321496 
1.12209 -0.321496 12.0234 
8.35993 0.85814 -0.574892 
0.85814 8.90748 -1.24791 
-0.574892 -1.24791 14.308 
12.1339 1.87291 1.06874 
1.87291 9.78866 0.53929 
1.06874 0.53929 9.65289 
8.91464 -0.105251 1.74559 
-0.105251 9.91917 -1.02774 
1.74559 -1.02774 12.7416 
9.17873 0.219532 0.251448 
0.219532 9.32688 0.389313 
0.251448 0.389313 9.09634 
9.14866 0.197259 0.0344558 
0.197259 9.47704 0.435441 
0.0344558 0.435441 8.97625 
8.97355 0.0624887 0.0366359 
0.0624887 9.52214 0.438453 
0.0366359 0.438453 9.10626 
9.11475 0.136398 0.0785945 
0.136398 9.40344 0.459189 
0.0785945 0.459189 9.08375 
9.62221 0.0639616 0.0333737 
0.0639616 9.68245 0.0677313 
0.0333737 0.0677313 9.08484 
9.42581 0.0878007 0.175619 
0.0878007 9.83627 0.453445 
0.175619 0.453445 9.12741 
9.48749 0.0837592 0.23686 
0.0837592 9.58937 0.322538 
0.23686 0.322538 9.31264 
9.47774 0.0228113 0.192114 
0.0228113 9.45745 0.419275 
0.192114 0.419275 9.4543 
8.07913 0.902228 1.54361 
0.902228 7.38496 0.0595736 
1.54361 0.0595736 7.69892 
7.89158 -0.412204 -1.27491 
-0.412204 8.37313 -0.66958 
-1.27491 -0.66958 6.8983 
8.0041 -0.1529 -1.29398 
-0.1529 8.46483 -0.202871 
-1.29398 -0.202871 6.69408 
8.8909 0.147939 -1.65074 
0.147939 9.50892 -0.204725 
-1.65074 -0.204725 4.76319 
9.92159 -0.226099 -0.157297 
-0.226099 9.60593 -0.000443352 
-0.157297 -0.000443352 9.68244 
9.35207 0.181205 -0.213455 
0.181205 9.79548 0.111536 
-0.213455 0.111536 10.0624 
9.51555 0.0753607 -0.0802904 
0.0753607 9.72881 0.0430192 
-0.0802904 0.0430192 9.9656 
9.89203 0.241505 -0.0181964 
0.241505 9.3375 0.0281515 
-0.0181964 0.0281515 9.98043 
9.621 -0.10657 -0.834488 
-0.10657 8.52398 0.421845 
-0.834488 0.421845 9.35864 
9.32204 -0.229431 -0.459863 
-0.229431 8.57193 0.592378 
-0.459863 0.592378 9.60964 
9.51622 -0.281822 -0.526019 
-0.281822 8.42837 0.446166 
-0.526019 0.446166 9.55902 
9.36889 -0.200118 -0.630477 
-0.200118 8.48861 0.541365 
-0.630477 0.541365 9.64611 
8.85283 0.508713 0.645001 
0.508713 8.64819 0.975193 
0.645001 0.975193 8.63518 
8.71548 -0.0554163 0.332656 
-0.0554163 8.74528 1.162 
0.332656 1.162 8.67544 
9.35335 -0.183304 0.0290571 
-0.183304 8.52257 1.11809 
0.0290571 1.11809 8.26028 
8.98006 -0.0362921 0.27876 
-0.0362921 8.91823 1.16647 
0.27876 1.16647 8.2379 
9.30059 -0.247184 -0.433355 
-0.247184 8.92493 0.258272 
-0.433355 0.258272 9.54341 
8.34765 -0.00158056 -0.134312 
-0.00158056 9.55728 -0.552853 
-0.134312 -0.552853 9.864 
9.37082 0.223761 0.441563 
0.223761 9.36691 -1.11076 
0.441563 -1.11076 9.03121 
8.63493 0.254581 -0.234193 
0.254581 8.9383 -0.3462 
-0.234193 -0.3462 10.1957 
8.23251 -0.699844 0.17864 
-0.699844 8.60433 -0.490798 
0.17864 -0.490798 6.21455 
10.1832 -0.832896 0.226067 
-0.832896 8.13577 -1.3997 
0.226067 -1.3997 4.73246 
8.07657 -0.734201 0.371654 
-0.734201 8.28425 0.547699 
0.371654 0.547699 6.69058 
8.95621 -0.509837 -0.103628 
-0.509837 8.87891 -0.69911 
-0.103628 -0.69911 5.21628 
9.62746 -0.10771 -0.32447 
-0.10771 9.68362 0.160955 
-0.32447 0.160955 9.48123 
9.46284 0.072193 -0.493521 
0.072193 9.57107 0.259378 
-0.493521 0.259378 9.7584 
9.61923 -0.0895981 -0.31831 
-0.0895981 9.5968 0.189451 
-0.31831 0.189451 9.57628 
9.46956 0.00892021 -0.402011 
0.00892021 9.58251 0.115288 
-0.402011 0.115288 9.74024 
8.5469 0.0946557 1.27244 
0.0946557 8.59324 0.467045 
1.27244 0.467045 7.55981 
9.21881 -0.835731 0.213151 
-0.835731 9.8479 1.20657 
0.213151 1.20657 5.63324 
7.40069 -0.477553 0.313205 
-0.477553 9.81141 -0.230145 
0.313205 -0.230145 7.48785 
9.81862 -0.0609199 0.834925 
-0.0609199 7.88973 0.823638 
0.834925 0.823638 6.99159 
9.12776 0.149904 -0.622699 
0.149904 9.43583 -0.164271 
-0.622699 -0.164271 9.46364 
9.25921 0.154409 -0.602853 
0.154409 9.32336 -0.096113 
-0.602853 -0.096113 9.44465 
9.26899 0.115384 -0.649778 
0.115384 9.37116 0.0244589 
-0.649778 0.0244589 9.38708 
9.11332 -0.0125844 -0.582823 
-0.0125844 9.25597 -0.111481 
-0.582823 -0.111481 9.65794 
9.60191 -0.0230694 0.322998 
-0.0230694 9.58964 0.0129513 
0.322998 0.0129513 9.36699 
9.58293 -0.0575473 0.376974 
-0.0575473 9.60613 -0.119164 
0.376974 -0.119164 9.36947 
9.41445 -0.0941792 0.455512 
-0.0941792 9.99511 -0.172487 
0.455512 -0.172487 9.14897 
9.54968 -0.014623 0.400715 
-0.014623 9.56783 -0.188701 
0.400715 -0.188701 9.44102 
6.62097 1.79564 -0.507433 
1.79564 9.15782 2.77688 
-0.507433 2.77688 5.71545 
10.6055 -2.29333 0.0752695 
-2.29333 6.92059 3.15482 
0.0752695 3.15482 3.96812 
8.79882 -0.383756 -1.16238 
-0.383756 7.24606 2.13299 
-1.16238 2.13299 5.44936 
9.48572 -0.53281 -3.81504 
-0.53281 6.66219 0.258167 
-3.81504 0.258167 5.34632 
8.60802 -0.97606 -0.415855 
-0.97606 9.19966 -0.417542 
-0.415855 -0.417542 10.0515 
9.01499 -0.753738 -0.237809 
-0.753738 8.92392 -0.773156 
-0.237809 -0.773156 9.9203 
9.14693 -0.0190191 -0.101367 
-0.0190191 9.44237 -1.44869 
-0.101367 -1.44869 9.26991 
9.20852 -0.896882 -0.192616 
-0.896882 8.45398 -0.867571 
-0.192616 -0.867571 10.1967 
8.4549 1.53461 -1.4149 
1.53461 10.0474 -0.827195 
-1.4149 -0.827195 6.8766 
7.47784 -1.26222 -0.958851 
-1.26222 8.95138 -0.378224 
-0.958851 -0.378224 8.94969 
7.91107 -0.434996 -0.993958 
-0.434996 8.44863 -0.604395 
-0.993958 -0.604395 9.01921 
9.25913 -0.0642565 -0.601878 
-0.0642565 8.41923 0.794778 
-0.601878 0.794778 7.70054 
9.66958 0.0641194 0.356887 
0.0641194 9.6692 0.00289883 
0.356887 0.00289883 9.28063 
9.70653 0.0650094 0.433872 
0.0650094 9.73176 0.0937108 
0.433872 0.0937108 9.18112 
9.67804 0.0807008 0.280832 
0.0807008 9.6569 -0.00243809 
0.280832 -0.00243809 9.28447 
9.62468 0.0878869 0.431287 
0.0878869 9.46692 0.142682 
0.431287 0.142682 9.52781 
9.88451 0.039908 -0.405755 
0.039908 9.84465 -0.0597397 
-0.405755 -0.0597397 9.88602 
9.82986 -0.0208816 -0.455067 
-0.0208816 9.95609 -0.0787216 
-0.455067 -0.0787216 9.82923 
9.76813 -0.00152932 -0.376887 
-0.00152932 9.87618 -0.103459 
-0.376887 -0.103459 9.97088 
9.87764 0.0294639 -0.413595 
0.0294639 9.8568 -0.0455818 
-0.413595 -0.0455818 9.88074 
9.05415 0.136934 -0.292697 
0.136934 8.84261 0.633459 
-0.292697 0.633459 7.18414 
9.44064 -1.43546 -0.0138827 
-1.43546 10.0225 -0.451323 
-0.0138827 -0.451323 5.61781 
8.70822 0.213453 0.183303 
0.213453 9.17776 0.219125 
0.183303 0.219125 7.19493 
8.59308 0.0533597 0.176078 
0.0533597 8.63175 -0.42323 
0.176078 -0.42323 7.85607 
5.98469 0.673607 1.30977 
0.673607 7.52221 0.573562 
1.30977 0.573562 10.6069 
8.75932 0.410653 1.12538 
0.410653 9.42066 -2.04679 
1.12538 -2.04679 5.93385 
9.44944 1.41019 1.72688 
1.41019 7.15876 -5.33743 
1.72688 -5.33743 7.50562 
8.60624 -0.316799 0.778825 
-0.316799 8.7103 -2.28785 
0.778825 -2.28785 6.79729 
9.47289 -0.0642506 0.578641 
-0.0642506 9.78106 -0.235442 
0.578641 -0.235442 9.56754 
9.50298 -0.0518256 0.479429 
-0.0518256 9.59101 -0.202064 
0.479429 -0.202064 9.72751 
9.54422 -0.0694211 0.316809 
-0.0694211 9.59215 -0.197114 
0.316809 -0.197114 9.68511 
9.4006 -0.114332 0.508283 
-0.114332 9.76943 -0.110744 
0.508283 -0.110744 9.65146 
7.65389 -0.606187 0.134589 
-0.606187 9.53795 0.179327 
0.134589 0.179327 11.5174 
8.86054 -0.42697 0.486356 
-0.42697 9.68149 -0.0531662 
0.486356 -0.0531662 10.1672 
9.54244 0.853352 0.0281147 
0.853352 9.45785 0.336821 
0.0281147 0.336821 9.70891 
8.331 -0.794332 0.693426 
-0.794332 8.95238 0.519198 
0.693426 0.519198 11.4258 
9.4068 -0.0384062 -0.420947 
-0.0384062 9.54038 0.21191 
-0.420947 0.21191 9.72137 
9.42001 -0.0242593 -0.434987 
-0.0242593 9.53883 0.220141 
-0.434987 0.220141 9.7097 
9.39174 0.00113987 -0.446047 
0.00113987 9.55893 0.216956 
-0.446047 0.216956 9.71788 
9.45622 -0.026481 -0.434531 
-0.026481 9.51448 0.191621 
-0.434531 0.191621 9.69785 
10.1932 1.61869 -1.19279 
1.61869 7.46461 -0.367318 
-1.19279 -0.367318 13.0418 
10.1421 -0.375957 0.29223 
-0.375957 8.87476 -0.412613 
0.29223 -0.412613 11.6827 
9.92172 -0.554097 -0.455465 
-0.554097 9.42447 0.167139 
-0.455465 0.167139 11.3534 
10.5404 0.556703 0.939738 
0.556703 9.42369 -0.507707 
0.939738 -0.507707 10.7354 
9.50404 0.125718 -0.61912 
0.125718 9.0489 0.0646292 
-0.61912 0.0646292 9.35388 
9.34447 -0.0176294 -0.714078 
-0.0176294 8.8742 0.559791 
-0.714078 0.559791 9.68815 
9.31409 -0.106157 -0.531375 
-0.106157 8.86632 0.32189 
-0.531375 0.32189 9.72641 
9.55314 0.371706 -0.930149 
0.371706 8.36637 -0.0413778 
-0.930149 -0.0413778 9.98731 
9.69628 -0.00787636 -0.327914 
-0.00787636 9.70613 0.160378 
-0.327914 0.160378 9.51454 
9.71707 -0.0166506 -0.243073 
-0.0166506 9.64628 0.230071 
-0.243073 0.230071 9.5536 
9.75375 -0.0506661 -0.303724 
-0.0506661 9.59868 0.222128 
-0.303724 0.222128 9.56453 
9.70624 -0.0411196 -0.307583 
-0.0411196 9.66078 0.281388 
-0.307583 0.281388 9.54993 
8.72123 -0.00411165 0.367426 
-0.00411165 9.16446 -0.386051 
0.367426 -0.386051 9.55249 
8.64887 -0.0580095 -0.0497451 
-0.0580095 8.94648 -0.194887 
-0.0497451 -0.194887 9.84284 
8.3526 0.0485181 -0.116466 
0.0485181 9.42716 -0.175669 
-0.116466 -0.175669 9.65842 
9.03604 0.21601 0.191355 
0.21601 9.19935 0.0178259 
0.191355 0.0178259 9.20279 
9.38141 0.043196 0.0310556 
0.043196 9.63698 0.178452 
0.0310556 0.178452 9.07636 
9.75692 -0.0769396 -0.0340339 
-0.0769396 9.51725 -0.255865 
-0.0340339 -0.255865 8.82057 
9.42693 -0.0188436 0.0848627 
-0.0188436 9.35466 0.101713 
0.0848627 0.101713 9.31315 
9.46917 0.0427234 -0.0140951 
0.0427234 9.52629 0.0544756 
-0.0140951 0.0544756 9.09928 
7.51802 -0.868549 -0.561233 
-0.868549 8.32155 -1.69022 
-0.561233 -1.69022 8.48341 
7.47982 0.0256047 -1.06227 
0.0256047 8.42657 0.428515 
-1.06227 0.428515 8.4166 
7.39011 0.682767 -2.66277 
0.682767 8.98376 0.303923 
-2.66277 0.303923 7.94911 
6.63216 0.226328 0.0934284 
0.226328 9.13807 0.44204 
0.0934284 0.44204 8.55275 
9.86191 0.019156 0.414998 
0.019156 9.82817 -0.021865 
0.414998 -0.021865 9.90703 
9.84566 -0.0181536 0.397523 
-0.0181536 9.87689 -0.0651963 
0.397523 -0.0651963 9.87456 
9.83729 0.00456698 0.403014 
0.00456698 9.83523 -0.061717 
0.403014 -0.061717 9.92459 
9.88294 0.0184647 0.413849 
0.0184647 9.81813 -0.0336816 
0.413849 -0.0336816 9.89605 
9.44766 0.0660784 -0.383371 
0.0660784 9.67937 0.48455 
-0.383371 0.48455 9.43871 
9.52876 0.0166072 -0.474179 
0.0166072 9.68662 0.337892 
-0.474179 0.337892 9.35036 
9.56025 -0.0101075 -0.324732 
-0.0101075 9.67403 0.511233 
-0.324732 0.511233 9.33145 
9.49776 0.10981 -0.368917 
0.10981 9.35604 0.276914 
-0.368917 0.276914 9.71194 
9.45179 -0.0368627 -0.61112 
-0.0368627 9.14121 0.0566272 
-0.61112 0.0566272 9.51783 
9.51798 0.139085 -0.756097 
0.139085 9.17457 0.297135 
-0.756097 0.297135 9.41829 
9.57344 -0.0766668 -0.514306 
-0.0766668 9.06127 0.365618 
-0.514306 0.365618 9.47612 
9.5523 0.261684 -0.67941 
0.261684 9.32244 0.162691 
-0.67941 0.162691 9.23609 
9.46226 0.665129 0.397463 
0.665129 8.50436 -0.0761346 
0.397463 -0.0761346 10.5826 
9.97998 0.619331 0.553777 
0.619331 7.84039 -0.932171 
0.553777 -0.932171 10.7288 
9.9967 -0.413996 0.240974 
-0.413996 9.53888 -0.0875299 
0.240974 -0.0875299 9.0136 
9.33995 0.843855 0.575864 
0.843855 8.82824 -0.142976 
0.575864 -0.142976 10.381 
9.90761 0.00865061 -0.00354821 
0.00865061 9.91772 0.032079 
-0.00354821 0.032079 10.0063 
9.93676 0.00974468 -0.0134725 
0.00974468 9.91385 0.0147747 
-0.0134725 0.0147747 9.98099 
9.97195 -0.00521565 0.00888283 
-0.00521565 9.90552 0.0247916 
0.00888283 0.0247916 9.95414 
9.9582 -0.0114487 0.000760814 
-0.0114487 9.94618 0.0199391 
0.000760814 0.0199391 9.92723 
9.13038 -0.033514 0.0952499 
-0.033514 9.24555 0.481108 
0.0952499 0.481108 9.04875 
9.13573 0.0973388 0.26759 
0.0973388 9.27656 0.296496 
0.26759 0.296496 9.0124 
9.15422 0.0933711 0.245074 
0.0933711 9.23904 0.259291 
0.245074 0.259291 9.03142 
9.18951 0.0589729 0.253612 
0.0589729 9.40544 0.214426 
0.253612 0.214426 8.82973 
9.86665 0.241658 -0.446699 
0.241658 11.5422 -0.963927 
-0.446699 -0.963927 16.7711 
11.5912 -0.992309 0.101665 
-0.992309 14.3144 1.20774 
0.101665 1.20774 12.2743 
8.67235 -0.599253 0.316337 
-0.599253 12.7889 -0.432609 
0.316337 -0.432609 16.7186 
9.19738 -1.225 1.84243 
-1.225 15.6574 -1.49608 
1.84243 -1.49608 13.3251 
9.84917 0.0428513 0.501507 
0.0428513 9.89573 0.204666 
0.501507 0.204666 9.80803 
9.81971 0.0335185 0.558739 
0.0335185 9.92929 0.173572 
0.558739 0.173572 9.80393 
9.86572 0.0365645 0.49225 
0.0365645 9.92672 0.168223 
0.49225 0.168223 9.76049 
9.85457 0.0687043 0.52733 
0.0687043 9.90501 0.175717 
0.52733 0.175717 9.79335 
9.48607 -0.107268 0.433391 
-0.107268 9.59535 -0.0463338 
0.433391 -0.0463338 9.674 
9.52887 -0.0307757 0.467632 
-0.0307757 9.59013 -0.154044 
0.467632 -0.154044 9.63642 
9.46856 -0.0531126 0.421144 
-0.0531126 9.60407 -0.127897 
0.421144 -0.127897 9.68278 
9.48383 -0.0260335 0.473605 
-0.0260335 9.56421 -0.105632 
0.473605 -0.105632 9.70737 
9.87055 0.0100698 -0.38752 
0.0100698 9.86271 0.0392114 
-0.38752 0.0392114 9.93502 
9.87371 -0.0284303 -0.429201 
-0.0284303 9.8483 0.0642673 
-0.429201 0.0642673 9.94627 
9.89556 -0.00876087 -0.417128 
-0.00876087 9.83403 0.00923462 
-0.417128 0.00923462 9.93869 
9.86778 0.025256 -0.408416 
0.025256 9.90749 0.062465 
-0.408416 0.062465 9.89301 
10.1464 -0.24035 0.116399 
-0.24035 10.0526 -0.16783 
0.116399 -0.16783 11.1372 
10.494 -0.0171382 -0.0512078 
-0.0171382 9.81481 -0.374932 
-0.0512078 -0.374932 11.0274 
10.7802 -0.0767261 -0.0323146 
-0.0767261 9.22733 -0.0946721 
-0.0323146 -0.0946721 11.3286 
9.64932 -0.173522 0.364963 
-0.173522 10.8954 1.24549 
0.364963 1.24549 10.7915 
9.45536 0.806462 0.123226 
0.806462 8.6059 1.14823 
0.123226 1.14823 8.70471 
9.22771 1.01812 1.05928 
1.01812 8.97248 -0.0893759 
1.05928 -0.0893759 8.56579 
9.24936 -0.979529 -0.345689 
-0.979529 7.3444 0.387682 
-0.345689 0.387682 10.1722 
8.14495 -0.13479 0.126329 
-0.13479 9.22136 1.75758 
0.126329 1.75758 9.39966 
7.56728 -0.304817 0.469855 
-0.304817 8.43427 0.0704006 
0.469855 0.0704006 6.07919 
8.02462 0.507598 -0.891173 
0.507598 8.33492 0.535944 
-0.891173 0.535944 5.72119 
7.98416 0.156919 -0.610846 
0.156919 8.14127 0.678757 
-0.610846 0.678757 5.9553 
8.59725 0.205498 -1.08652 
0.205498 8.68625 0.577082 
-1.08652 0.577082 4.79724 
9.5812 0.0793901 0.483216 
0.0793901 9.5579 -0.00235762 
0.483216 -0.00235762 9.65185 
9.66564 0.166809 0.441451 
0.166809 9.55098 -0.0597641 
0.441451 -0.0597641 9.57433 
9.58448 0.131917 0.552501 
0.131917 9.59149 0.042351 
0.552501 0.042351 9.61498 
9.39 -0.0767954 0.437674 
-0.0767954 9.45706 -0.0548464 
0.437674 -0.0548464 9.94389 
9.81336 -0.0432781 -0.117619 
-0.0432781 9.60029 0.0325972 
-0.117619 0.0325972 9.72475 
9.67648 0.0277281 -0.173899 
0.0277281 9.63143 0.0591715 
-0.173899 0.0591715 9.83049 
9.27335 0.139412 -0.0944011 
0.139412 9.82665 0.0378704 
-0.0944011 0.0378704 10.0384 
9.63547 -0.0507895 -0.376351 
-0.0507895 9.62237 0.126773 
-0.376351 0.126773 9.88056 
9.56479 -0.495303 0.263138 
-0.495303 9.26078 0.288043 
0.263138 0.288043 10.1201 
9.22002 -0.158632 0.161813 
-0.158632 9.07807 -0.117075 
0.161813 -0.117075 10.6476 
9.65358 -0.285918 0.274667 
-0.285918 9.03061 0.00545775 
0.274667 0.00545775 10.2615 
9.521 -0.189275 0.193186 
-0.189275 9.30141 0.0742428 
0.193186 0.0742428 10.1233 
9.49246 0.0410845 -0.543856 
0.0410845 9.411 0.163454 
-0.543856 0.163454 9.6729 
9.43386 -0.0460501 -0.390054 
-0.0460501 9.35929 -0.0174038 
-0.390054 -0.0174038 9.78321 
9.39514 0.00706896 -0.555091 
0.00706896 9.43666 0.169955 
-0.555091 0.169955 9.74456 
9.52972 0.0449431 -0.70131 
0.0449431 9.63557 0.0586447 
-0.70131 0.0586447 9.41107 
9.7744 -0.0854006 -0.360491 
-0.0854006 9.7544 0.200751 
-0.360491 0.200751 9.7527 
9.75999 -0.05153 -0.360763 
-0.05153 9.73571 0.219068 
-0.360763 0.219068 9.7858 
9.76392 -0.0120196 -0.330348 
-0.0120196 9.77016 0.191816 
-0.330348 0.191816 9.74743 
9.80279 -0.00393374 -0.297182 
-0.00393374 9.7312 0.226877 
-0.297182 0.226877 9.74752 
9.78327 0.0187866 0.363311 
0.0187866 9.84693 -0.42434 
0.363311 -0.42434 9.72749 
9.78668 -0.00967253 0.364608 
-0.00967253 9.87614 -0.435458 
0.364608 -0.435458 9.69488 
9.80087 0.0232923 0.315504 
0.0232923 9.79644 -0.372199 
0.315504 -0.372199 9.76038 
9.78912 0.00843708 0.36225 
0.00843708 9.83229 -0.433292 
0.36225 -0.433292 9.73628 
9.89286 0.0150443 -0.396664 
0.0150443 9.90126 0.2352 
-0.396664 0.2352 9.98199 
9.89827 -0.0282008 -0.375394 
-0.0282008 9.91207 0.212952 
-0.375394 0.212952 9.96578 
9.91077 -0.0113014 -0.398508 
-0.0113014 9.9051 0.20857 
-0.398508 0.20857 9.96024 
9.93238 -0.0146666 -0.370559 
-0.0146666 9.92372 0.220237 
-0.370559 0.220237 9.92 
9.02962 0.160863 -0.679129 
0.160863 9.50468 0.265546 
-0.679129 0.265546 9.41679 
8.82811 -0.045723 -0.804442 
-0.045723 9.44697 0.25775 
-0.804442 0.25775 9.67601 
9.11871 0.0204382 -0.960061 
0.0204382 9.66324 0.361954 
-0.960061 0.361954 9.16915 
9.25316 0.113236 -0.538272 
0.113236 9.14461 0.330233 
-0.538272 0.330233 9.55333 
8.91812 0.292095 1.31125 
0.292095 10.3017 0.0484839 
1.31125 0.0484839 7.46427 
9.18476 0.414867 0.334327 
0.414867 8.94328 -0.464353 
0.334327 -0.464353 8.55605 
8.31789 -0.0812968 0.641237 
-0.0812968 8.37834 0.597408 
0.641237 0.597408 9.98785 
9.15655 0.112079 0.601764 
0.112079 8.9719 0.152641 
0.601764 0.152641 8.55564 
9.33598 0.0644591 0.0132742 
0.0644591 9.70844 0.150256 
0.0132742 0.150256 10.0056 
9.49951 0.0152705 -0.222113 
0.0152705 9.62805 0.0834243 
-0.222113 0.0834243 9.9224 
9.53657 0.0669778 -0.146786 
0.0669778 9.64776 -0.0840458 
-0.146786 -0.0840458 9.86565 
9.47213 0.172518 -0.243154 
0.172518 9.68417 -0.0792675 
-0.243154 -0.0792675 9.89367 
8.39522 1.38756 0.969105 
1.38756 6.34452 -2.11722 
0.969105 -2.11722 0.358945 
8.11615 0.46269 -2.39036 
0.46269 4.10305 -0.348442 
-2.39036 -0.348442 2.8795 
3.76994 -0.174747 -0.691292 
-0.174747 8.43934 -1.96445 
-0.691292 -1.96445 2.88941 
6.42898 0.490972 -1.22158 
0.490972 6.16222 -1.29787 
-1.22158 -1.29787 2.5075 
9.51259 0.115802 -0.487431 
0.115802 9.16115 0.0273649 
-0.487431 0.0273649 9.1875 
9.52608 0.0519291 -0.490079 
0.0519291 9.29436 0.151097 
-0.490079 0.151097 9.0408 
9.71206 0.0628357 -0.576172 
0.0628357 8.95595 0.248421 
-0.576172 0.248421 9.19323 
9.62549 -0.125341 -0.367967 
-0.125341 9.48762 0.224808 
-0.367967 0.224808 8.74814 
9.74997 -0.00627398 -0.372769 
-0.00627398 9.75769 0.202074 
-0.372769 0.202074 9.84938 
9.87583 -0.000841728 -0.411522 
-0.000841728 9.81101 0.152886 
-0.411522 0.152886 9.6702 
9.70132 0.0286837 -0.34764 
0.0286837 9.74566 0.311278 
-0.34764 0.311278 9.91006 
9.81199 -0.0193131 -0.388718 
-0.0193131 9.7459 0.216754 
-0.388718 0.216754 9.79915 
8.8745 -0.444483 0.191056 
-0.444483 8.01011 1.12635 
0.191056 1.12635 9.59685 
9.10085 0.0173499 0.312268 
0.0173499 8.29962 0.584202 
0.312268 0.584202 9.08099 
8.81734 1.21764 0.0978428 
1.21764 9.03205 0.634453 
0.0978428 0.634453 8.63207 
7.98719 -0.166282 -0.414578 
-0.166282 8.7373 0.107967 
-0.414578 0.107967 9.75697 
9.84442 0.00617768 -0.443929 
0.00617768 9.84842 -0.0737129 
-0.443929 -0.0737129 9.87384 
9.83697 0.0413989 -0.464809 
0.0413989 9.81838 -0.0697419 
-0.464809 -0.0697419 9.91133 
9.87848 0.0641596 -0.41992 
0.0641596 9.86662 -0.0864458 
-0.41992 -0.0864458 9.82158 
9.8629 -0.00242855 -0.414989 
-0.00242855 9.8452 -0.0515956 
-0.414989 -0.0515956 9.85858 
9.68364 -0.0297955 0.482324 
-0.0297955 9.60031 0.295384 
0.482324 0.295384 9.73568 
9.71307 -0.164114 0.293962 
-0.164114 9.30423 0.152039 
0.293962 0.152039 10.0023 
9.6602 -0.124397 0.268461 
-0.124397 9.42985 0.132873 
0.268461 0.132873 9.92959 
9.4657 -0.00949148 0.237052 
-0.00949148 9.52745 -0.085395 
0.237052 -0.085395 10.0265 
7.44689 -0.0530432 -0.174473 
-0.0530432 7.74147 -0.859292 
-0.174473 -0.859292 6.85877 
8.13553 -0.330739 0.828685 
-0.330739 8.82162 -0.551639 
0.828685 -0.551639 5.08998 
8.65948 -0.186457 0.743259 
-0.186457 8.97822 -0.362177 
0.743259 -0.362177 4.40944 
8.25076 -0.277598 0.72624 
-0.277598 8.80294 -0.752621 
0.72624 -0.752621 4.99343 
7.55884 -1.03691 -0.684261 
-1.03691 8.6395 1.20972 
-0.684261 1.20972 0.65982 
4.52637 -1.99228 -2.21622 
-1.99228 7.18553 3.2711 
-2.21622 3.2711 5.14627 
8.53287 1.92994 -0.195175 
1.92994 3.77072 1.53891 
-0.195175 1.53891 4.55457 
8.23023 -0.34612 0.159191 
-0.34612 5.24705 3.04047 
0.159191 3.04047 3.38089 
9.93838 0.00685443 -0.447229 
0.00685443 9.98186 -0.241074 
-0.447229 -0.241074 9.94357 
9.96658 0.02009 -0.454073 
0.02009 9.98151 -0.2305 
-0.454073 -0.2305 9.91572 
9.89626 0.00972012 -0.41367 
0.00972012 9.89963 -0.245164 
-0.41367 -0.245164 10.0679 
9.96111 0.0209448 -0.470714 
0.0209448 9.98603 -0.26713 
-0.470714 -0.26713 9.91668 
9.82042 -0.00252877 -0.454049 
-0.00252877 9.86178 0.236693 
-0.454049 0.236693 9.90722 
9.81839 -0.0173979 -0.428755 
-0.0173979 9.84678 0.234391 
-0.428755 0.234391 9.92424 
9.84869 -0.0227665 -0.407141 
-0.0227665 9.85531 0.208884 
-0.407141 0.208884 9.88542 
9.8337 -0.0119484 -0.452864 
-0.0119484 9.87239 0.232165 
-0.452864 0.232165 9.88332 
8.93453 -1.06892 -1.11212 
-1.06892 10.0634 0.504173 
-1.11212 0.504173 12.5782 
9.6303 -0.82427 -0.978329 
-0.82427 10.3045 0.0477249 
-0.978329 0.0477249 11.6413 
8.59252 0.451197 -0.12308 
0.451197 11.1437 -0.507357 
-0.12308 -0.507357 11.8399 
9.67858 -0.37771 -1.02592 
-0.37771 9.66968 -1.19244 
-1.02592 -1.19244 12.2279 
9.79046 0.0146401 -0.51038 
0.0146401 9.85305 -0.32933 
-0.51038 -0.32933 9.81379 
9.77888 0.00687974 -0.512674 
0.00687974 9.87342 -0.327175 
-0.512674 -0.327175 9.805 
9.7743 0.0455976 -0.417853 
0.0455976 9.79696 -0.306666 
-0.417853 -0.306666 9.88603 
9.8543 0.00813122 -0.52477 
0.00813122 9.90547 -0.315582 
-0.52477 -0.315582 9.69752 
10.4441 -0.98284 -1.23506 
-0.98284 6.12344 -2.92255 
-1.23506 -2.92255 10.8278 
8.14834 -0.407425 0.131812 
-0.407425 10.2288 -1.7553 
0.131812 -1.7553 9.01829 
8.27913 -0.484434 -1.04248 
-0.484434 7.09332 -3.29348 
-1.04248 -3.29348 12.023 
9.19151 -0.681342 -0.821071 
-0.681342 7.60381 -2.53163 
-0.821071 -2.53163 10.6001 
9.93912 -0.00516366 0.0839522 
-0.00516366 9.94046 0.000953563 
0.0839522 0.000953563 9.9484 
9.90164 -0.00778917 0.0932162 
-0.00778917 9.92417 0.0229102 
0.0932162 0.0229102 10.0022 
9.91146 -0.000161059 0.113524 
-0.000161059 9.92465 0.0120719 
0.113524 0.0120719 9.99186 
9.92418 -0.0134264 0.0826829 
-0.0134264 9.9393 -0.00986546 
0.0826829 -0.00986546 9.9645 
1.5186 -0.0103322 -1.38304 
-0.0103322 2.81934 0.787598 
-1.38304 0.787598 2.6606 
4.3299 -0.0772048 1.61606 
-0.0772048 4.32306 -0.255257 
1.61606 -0.255257 -1.65441 
2.98598 -0.368519 -0.554548 
-0.368519 3.11289 0.451145 
-0.554548 0.451145 0.899673 
5.46153 -1.27989 -1.4995 
-1.27989 2.75928 0.455615 
-1.4995 0.455615 -1.22227 
9.75297 0.00397231 -0.35783 
0.00397231 9.7343 -0.0360181 
-0.35783 -0.0360181 9.7649 
9.79514 0.0295985 -0.399543 
0.0295985 9.75216 -0.0530859 
-0.399543 -0.0530859 9.70487 
9.76259 0.00690301 -0.362028 
0.00690301 9.74092 -0.0358777 
-0.362028 -0.0358777 9.74866 
9.77724 0.00287242 -0.360114 
0.00287242 9.74374 -0.0606541 
-0.360114 -0.0606541 9.73119 
9.52556 -0.140626 0.090286 
-0.140626 9.32516 0.27203 
0.090286 0.27203 9.61802 
9.45416 0.0926153 0.0179231 
0.0926153 9.35341 0.224026 
0.0179231 0.224026 9.66117 
9.37656 0.00485022 0.0935776 
0.00485022 9.6157 0.362424 
0.0935776 0.362424 9.47648 
9.46221 0.117245 -0.002115 
0.117245 9.4139 0.324736 
-0.002115 0.324736 9.59262 
9.27902 0.278806 0.096253 
0.278806 9.02129 -0.0520607 
0.096253 -0.0520607 9.97244 
9.47602 0.0788934 0.198287 
0.0788934 8.91546 0.0231973 
0.198287 0.0231973 9.88127 
9.01628 0.205156 0.088203 
0.205156 9.76141 1.0113 
0.088203 1.0113 9.49506 
9.44688 0.748843 0.184285 
0.748843 8.75367 0.372051 
0.184285 0.372051 10.0722 
9.57544 0.0545429 0.420026 
0.0545429 9.54102 -0.0951974 
0.420026 -0.0951974 9.73972 
9.61013 0.0414372 0.399054 
0.0414372 9.56674 -0.0734306 
0.399054 -0.0734306 9.6793 
9.64082 0.038168 0.390778 
0.038168 9.56621 -0.0601572 
0.390778 -0.0601572 9.64914 
9.6129 0.0534797 0.38467 
0.0534797 9.55034 -0.0360375 
0.38467 -0.0360375 9.69294 
9.25999 0.0814359 -0.740075 
0.0814359 9.66751 0.0872301 
-0.740075 0.0872301 10.1903 
9.24592 0.0935649 -0.500666 
0.0935649 9.70276 0.0744668 
-0.500666 0.0744668 10.1691 
9.30007 0.0548478 -0.809547 
0.0548478 9.68668 -0.0242744 
-0.809547 -0.0242744 10.1311 
9.14671 -0.0330211 -0.635183 
-0.0330211 9.58286 0.0376864 
-0.635183 0.0376864 10.3882 
9.44965 -0.0856384 0.483251 
-0.0856384 8.46627 1.35322 
0.483251 1.35322 9.25796 
9.31564 -0.355048 -0.176063 
-0.355048 8.04908 0.30633 
-0.176063 0.30633 9.80916 
9.25793 0.494649 0.302658 
0.494649 7.54254 1.30632 
0.302658 1.30632 10.3734 
8.89385 0.05878 -0.0745188 
0.05878 9.1601 1.3583 
-0.0745188 1.3583 9.11993 
8.55064 -0.386202 -0.420401 
-0.386202 8.53422 -1.02735 
-0.420401 -1.02735 9.13221 
8.82827 0.710656 -0.998588 
0.710656 9.26221 -1.22703 
-0.998588 -1.22703 8.12659 
8.59373 -0.583942 -0.335388 
-0.583942 8.98299 -0.880594 
-0.335388 -0.880594 8.64035 
9.3765 -0.0682426 -0.603143 
-0.0682426 8.91047 -0.498492 
-0.603143 -0.498492 7.93009 
8.0715 0.178452 -0.153697 
0.178452 9.31996 0.00175901 
-0.153697 0.00175901 9.59321 
8.48608 0.259592 0.0566552 
0.259592 9.26357 -0.338237 
0.0566552 -0.338237 9.23502 
8.63942 0.189247 0.103986 
0.189247 9.24639 -0.353766 
0.103986 -0.353766 9.09887 
8.3376 0.278079 0.465638 
0.278079 9.66284 -0.421915 
0.465638 -0.421915 8.98423 
10.1837 -1.38088 -2.22502 
-1.38088 9.53901 -0.466307 
-2.22502 -0.466307 13.7601 
12.5234 -0.889747 2.224 
-0.889747 7.31563 -0.845306 
2.224 -0.845306 13.6437 
11.0041 -0.34024 0.557084 
-0.34024 9.86401 -1.17867 
0.557084 -1.17867 12.6146 
10.362 0.601411 -1.83527 
0.601411 9.96478 1.13516 
-1.83527 1.13516 13.156 
10.3088 -0.13607 -0.380204 
-0.13607 8.98034 -0.026318 
-0.380204 -0.026318 11.0631 
10.3907 -0.0932116 0.0166105 
-0.0932116 8.72472 -0.034142 
0.0166105 -0.034142 11.2367 
10.4324 -0.269525 0.224277 
-0.269525 9.3074 0.475869 
0.224277 0.475869 10.6124 
9.93179 -0.146604 0.00333683 
-0.146604 9.67758 0.754529 
0.00333683 0.754529 10.7428 
9.36465 -0.114955 0.426054 
-0.114955 9.6279 -0.631474 
0.426054 -0.631474 9.09289 
9.44349 0.192643 0.433642 
0.192643 9.29251 -0.538924 
0.433642 -0.538924 9.34943 
9.35897 -0.0596578 0.31471 
-0.0596578 9.69529 -0.404273 
0.31471 -0.404273 9.03118 
9.41597 -0.0627201 0.399837 
-0.0627201 9.56848 -0.467726 
0.399837 -0.467726 9.10099 
9.45316 0.012291 -0.449453 
0.012291 9.64039 0.353271 
-0.449453 0.353271 9.62554 
9.46961 -0.0074979 -0.432219 
-0.0074979 9.67453 0.334497 
-0.432219 0.334497 9.57495 
9.47807 0.0409861 -0.40932 
0.0409861 9.5741 0.327761 
-0.40932 0.327761 9.66692 
9.42751 0.00452111 -0.478116 
0.00452111 9.66239 0.351991 
-0.478116 0.351991 9.62919 
9.3467 0.091592 -0.225894 
0.091592 9.45903 0.70885 
-0.225894 0.70885 9.02524 
9.53744 -0.00882685 -0.158443 
-0.00882685 9.36927 0.986063 
-0.158443 0.986063 8.92425 
9.29958 0.0147588 -0.296743 
0.0147588 9.35949 0.704135 
-0.296743 0.704135 9.17191 
9.41306 0.208696 -0.25168 
0.208696 9.5666 0.568991 
-0.25168 0.568991 8.85131 
9.62046 -0.0306539 -0.382048 
-0.0306539 9.51215 -0.0670094 
-0.382048 -0.0670094 9.78537 
9.70642 -0.0329506 -0.43772 
-0.0329506 9.55804 0.0456588 
-0.43772 0.0456588 9.65352 
9.6444 -0.0315583 -0.448322 
-0.0315583 9.53675 0.0145291 
-0.448322 0.0145291 9.73684 
9.69313 0.0907095 -0.524503 
0.0907095 9.55331 0.0177169 
-0.524503 0.0177169 9.67154 
9.21904 0.0377365 0.399565 
0.0377365 9.27323 -0.653227 
0.399565 -0.653227 8.99761 
9.21261 0.077431 0.415096 
0.077431 9.29317 -0.571904 
0.415096 -0.571904 8.9841 
9.24746 0.0868277 0.431987 
0.0868277 9.50532 -0.633921 
0.431987 -0.633921 8.7371 
9.16846 0.0271745 0.388824 
0.0271745 9.3184 -0.608618 
0.388824 -0.608618 9.00301 
9.19083 0.394537 0.582637 
0.394537 9.15808 -0.184563 
0.582637 -0.184563 9.37123 
9.0131 0.100381 0.438883 
0.100381 9.28633 -0.319785 
0.438883 -0.319785 9.42071 
9.32003 0.372752 0.569581 
0.372752 8.96798 -0.377026 
0.569581 -0.377026 9.43214 
9.43106 0.399011 0.477492 
0.399011 9.02285 -0.397439 
0.477492 -0.397439 9.26623 
9.68659 0.392491 0.553754 
0.392491 9.67098 0.138318 
0.553754 0.138318 9.28312 
9.5115 0.177839 0.728785 
0.177839 9.72162 -0.282382 
0.728785 -0.282382 9.40757 
9.64795 0.241923 0.42055 
0.241923 9.47282 -0.495824 
0.42055 -0.495824 9.51992 
9.37647 -0.0138151 0.205729 
-0.0138151 9.76745 0.15935 
0.205729 0.15935 9.49677 
9.86035 -0.0446883 -0.193363 
-0.0446883 9.78411 0.0654169 
-0.193363 0.0654169 9.90176 
9.90452 -0.0243853 -0.183456 
-0.0243853 9.81561 -0.00304918 
-0.183456 -0.00304918 9.82608 
9.86943 -0.0152095 -0.164011 
-0.0152095 9.81534 0.0133099 
-0.164011 0.0133099 9.86145 
9.88647 -0.00364151 -0.158105 
-0.00364151 9.79909 0.046652 
-0.158105 0.046652 9.86066 
9.56738 0.0395075 -0.136354 
0.0395075 9.64498 -0.665295 
-0.136354 -0.665295 9.32232 
9.52662 0.0453465 0.00421283 
0.0453465 9.72581 -0.587052 
0.00421283 -0.587052 9.28224 
9.51984 0.017293 -0.0570495 
0.017293 9.65198 -0.612312 
-0.0570495 -0.612312 9.36285 
9.49557 -0.082256 -0.00724905 
-0.082256 9.50053 -0.50551 
-0.00724905 -0.50551 9.53857 
9.85598 -0.0532522 0.404928 
-0.0532522 9.83875 -0.055053 
0.404928 -0.055053 9.85428 
9.795 -0.00144137 0.389933 
-0.00144137 9.77885 -0.125933 
0.389933 -0.125933 9.97515 
9.82234 -0.0160939 0.379855 
-0.0160939 9.81117 -0.0853276 
0.379855 -0.0853276 9.9155 
9.84832 -0.0301217 0.393101 
-0.0301217 9.77698 -0.0558056 
0.393101 -0.0558056 9.92371 
9.18016 -0.0980587 0.366902 
-0.0980587 9.38445 -0.209047 
0.366902 -0.209047 8.34307 
9.3037 -0.175406 0.308949 
-0.175406 9.34446 -0.308159 
0.308949 -0.308159 8.25952 
9.0633 0.10066 0.29723 
0.10066 9.43857 -0.449445 
0.29723 -0.449445 8.40581 
9.14437 -0.0191116 0.288144 
-0.0191116 9.31169 -0.340719 
0.288144 -0.340719 8.45162 
10.0498 0.0367328 0.0989575 
0.0367328 9.26284 -0.191748 
0.0989575 -0.191748 10.2351 
9.93268 -0.304888 0.162786 
-0.304888 9.10338 -0.023047 
0.162786 -0.023047 10.5117 
9.62085 -0.273866 0.0911292 
-0.273866 9.34857 -0.0481072 
0.0911292 -0.0481072 10.5784 
9.79001 -0.248509 0.115481 
-0.248509 9.35951 -0.00325961 
0.115481 -0.00325961 10.3982 
12.5597 -0.209837 1.27309 
-0.209837 10.9267 1.05651 
1.27309 1.05651 16.0975 
15.0688 1.75806 -1.10814 
1.75806 13.3651 -1.2986 
-1.10814 -1.2986 11.15 
14.2413 -1.02413 0.00090074 
-1.02413 10.3402 0.0194408 
0.00090074 0.0194408 15.0024 
13.496 -0.724246 -0.542578 
-0.724246 11.5337 -0.627389 
-0.542578 -0.627389 14.5542 
9.00609 -0.306667 -1.81246 
-0.306667 8.74576 -0.0577546 
-1.81246 -0.0577546 9.0517 
9.37211 -0.305374 -1.12822 
-0.305374 8.76541 -0.349238 
-1.12822 -0.349238 8.66604 
9.35201 -0.190661 -1.12355 
-0.190661 9.31518 -0.997523 
-1.12355 -0.997523 8.13637 
8.89956 0.0867309 -0.862828 
0.0867309 9.50301 -0.29739 
-0.862828 -0.29739 8.40099 
9.73212 -0.00589458 0.11752 
-0.00589458 9.76119 0.431901 
0.11752 0.431901 9.6908 
9.7938 0.0298616 0.224578 
0.0298616 9.8975 0.381115 
0.224578 0.381115 9.49281 
9.76591 0.120346 0.147575 
0.120346 9.8394 0.435765 
0.147575 0.435765 9.57879 
9.68738 0.048779 0.0609354 
0.048779 9.80243 0.350635 
0.0609354 0.350635 9.6943 
9.97953 0.0652893 -0.0726709 
0.0652893 8.89322 -0.703789 
-0.0726709 -0.703789 10.1915 
9.71473 -0.161002 0.151455 
-0.161002 9.22718 -0.442415 
0.151455 -0.442415 10.1224 
10.645 -0.310888 -0.245725 
-0.310888 8.70799 -0.418608 
-0.245725 -0.418608 9.71132 
10.0831 0.215126 0.114476 
0.215126 8.79759 -0.727891 
0.114476 -0.727891 10.1836 
8.75934 -0.0217431 0.360466 
-0.0217431 9.04631 0.605509 
0.360466 0.605509 9.12831 
8.90975 -0.0706701 0.385866 
-0.0706701 8.93568 0.696518 
0.385866 0.696518 9.08852 
8.74085 -0.122124 0.382386 
-0.122124 9.1049 0.630841 
0.382386 0.630841 9.0882 
9.01996 -0.03169 0.46194 
-0.03169 9.01916 0.81351 
0.46194 0.81351 8.89484 
11.3741 0.341444 -0.168312 
0.341444 10.8716 -0.450593 
-0.168312 -0.450593 12.4227 
10.8238 0.41417 0.0451947 
0.41417 10.8542 -0.224962 
0.0451947 -0.224962 12.9904 
11.3786 0.554105 -0.349724 
0.554105 10.77 -0.282562 
-0.349724 -0.282562 12.5198 
11.5325 0.27651 -0.609754 
0.27651 11.2355 -0.60896 
-0.609754 -0.60896 11.9005 
8.13994 -0.92902 0.00173017 
-0.92902 7.54879 1.63709 
0.00173017 1.63709 9.57836 
8.89389 0.751895 -0.0714766 
0.751895 9.52341 0.997945 
-0.0714766 0.997945 6.84978 
9.47837 -0.0734205 0.304302 
-0.0734205 8.26308 2.74208 
0.304302 2.74208 7.52563 
9.53124 0.307651 0.745319 
0.307651 8.78586 1.12304 
0.745319 1.12304 6.94998 
8.81545 0.39291 0.542922 
0.39291 8.63653 0.913151 
0.542922 0.913151 8.2757 
8.72378 -0.0546528 0.241274 
-0.0546528 8.09804 0.796759 
0.241274 0.796759 8.90586 
9.22265 -0.0465564 0.078686 
-0.0465564 8.38504 1.14387 
0.078686 1.14387 8.11999 
8.63341 0.0620484 0.289745 
0.0620484 8.58963 0.854506 
0.289745 0.854506 8.50464 
9.95867 0.0114363 -0.244936 
0.0114363 9.97209 -0.123536 
-0.244936 -0.123536 9.90775 
9.94891 0.0370976 -0.250224 
0.0370976 9.96276 -0.115483 
-0.250224 -0.115483 9.92685 
9.88536 0.00253082 -0.285154 
0.00253082 9.88084 -0.110247 
-0.285154 -0.110247 10.0723 
9.98233 0.00436275 -0.2345 
0.00436275 9.97424 -0.102237 
-0.2345 -0.102237 9.88194 
8.19046 0.0925595 -1.01864 
0.0925595 10.6063 1.68329 
-1.01864 1.68329 10.257 
8.19256 1.01924 -0.431139 
1.01924 9.93025 -0.975026 
-0.431139 -0.975026 10.931 
8.18613 1.18923 -1.09283 
1.18923 9.80564 1.12686 
-1.09283 1.12686 11.062 
8.62208 0.455045 -1.98482 
0.455045 9.17056 -0.0672455 
-1.98482 -0.0672455 11.2612 
9.04264 -0.626696 0.32458 
-0.626696 9.60206 0.0786826 
0.32458 0.0786826 9.92712 
9.41966 -0.348359 0.628417 
-0.348359 9.39154 -0.091278 
0.628417 -0.091278 9.76064 
9.46955 -0.345815 0.169837 
-0.345815 9.21593 -0.0706687 
0.169837 -0.0706687 9.88636 
9.35394 -0.46946 0.206325 
-0.46946 9.24042 -0.153627 
0.206325 -0.153627 9.97747 
9.75182 -0.0073704 0.256387 
-0.0073704 9.74216 0.437005 
0.256387 0.437005 9.6788 
9.73695 0.046932 0.308957 
0.046932 9.81008 0.515238 
0.308957 0.515238 9.62575 
9.72141 0.0270932 0.311829 
0.0270932 9.77296 0.514734 
0.311829 0.514734 9.67841 
9.74046 0.0276952 0.279979 
0.0276952 9.7909 0.524415 
0.279979 0.524415 9.64142 
9.78854 0.000823777 -0.491629 
0.000823777 9.82405 0.0735288 
-0.491629 0.0735288 9.88683 
9.78669 -0.0291422 -0.450607 
-0.0291422 9.85057 0.0951655 
-0.450607 0.0951655 9.86215 
9.8147 -0.000473119 -0.486493 
-0.000473119 9.82701 0.080065 
-0.486493 0.080065 9.85771 
9.77297 0.0150132 -0.475308 
0.0150132 9.84383 0.115931 
-0.475308 0.115931 9.88262 
9.58162 0.0199956 -0.0491915 
0.0199956 9.61232 0.383113 
-0.0491915 0.383113 9.20379 
9.62535 0.040032 -0.0117866 
0.040032 9.65578 0.489799 
-0.0117866 0.489799 9.11659 
9.5674 0.0697947 -0.131413 
0.0697947 9.66005 0.278238 
-0.131413 0.278238 9.17028 
9.33582 -0.145806 0.0573224 
-0.145806 9.61141 0.500692 
0.0573224 0.500692 9.45049 
9.62648 0.0265273 -0.0329209 
0.0265273 9.6595 0.178746 
-0.0329209 0.178746 9.30889 
9.45489 0.0257526 0.127258 
0.0257526 9.56834 0.129456 
0.127258 0.129456 9.57164 
9.51343 -0.137721 0.0458328 
-0.137721 9.74052 -0.0597499 
0.0458328 -0.0597499 9.34093 
9.4824 0.0376673 0.0551709 
0.0376673 9.6321 0.0794965 
0.0551709 0.0794965 9.48037 
9.89388 -2.33735e-05 -0.473598 
-2.33735e-05 9.84527 -0.108584 
-0.473598 -0.108584 9.92569 
9.89485 -0.0032791 -0.469035 
-0.0032791 9.86758 -0.111914 
-0.469035 -0.111914 9.90241 
9.86797 -7.5845e-06 -0.431528 
-7.5845e-06 9.8538 -0.0760623 
-0.431528 -0.0760623 9.94307 
9.87634 -0.0101907 -0.421531 
-0.0101907 9.86932 -0.0790245 
-0.421531 -0.0790245 9.91918 
9.55141 -0.051827 0.104809 
-0.051827 9.69762 0.166073 
0.104809 0.166073 9.34141 
9.61806 -0.0449608 0.0212171 
-0.0449608 9.59259 0.103139 
0.0212171 0.103139 9.3798 
9.56742 0.111689 -0.161905 
0.111689 9.42507 0.227493 
-0.161905 0.227493 9.59797 
9.71619 0.0283508 -0.0909853 
0.0283508 9.64565 0.102905 
-0.0909853 0.102905 9.22861 
9.53256 -0.00253659 -0.143731 
-0.00253659 8.74983 0.799678 
-0.143731 0.799678 8.63736 
10.2869 0.384176 -0.108068 
0.384176 7.95653 0.801708 
-0.108068 0.801708 8.67634 
9.54812 -0.394132 -0.222315 
-0.394132 8.43902 0.739669 
-0.222315 0.739669 8.9326 
9.79569 0.0666916 -0.205451 
0.0666916 8.28838 0.531315 
-0.205451 0.531315 8.83568 
9.74838 -0.224381 0.0845674 
-0.224381 8.79441 -0.0226862 
0.0845674 -0.0226862 10.2591 
9.76307 -0.263733 0.0625956 
-0.263733 8.70925 -0.174067 
0.0625956 -0.174067 10.3295 
9.58527 -0.237157 0.00457119 
-0.237157 8.83946 -0.295376 
0.00457119 -0.295376 10.3771 
9.51421 -0.376554 0.242389 
-0.376554 8.65158 -0.0185805 
0.242389 -0.0185805 10.6361 
8.55457 0.275903 -0.798444 
0.275903 8.61027 0.393069 
-0.798444 0.393069 9.2341 
9.19405 0.20014 -1.22108 
0.20014 9.47489 0.452022 
-1.22108 0.452022 7.72999 
8.53568 0.326188 -0.742215 
0.326188 9.34696 0.864284 
-0.742215 0.864284 8.5163 
9.14211 -0.553812 -0.740466 
-0.553812 9.3635 0.943919 
-0.740466 0.943919 7.89333 
9.45433 0.000133054 -0.0614728 
0.000133054 9.31917 0.0329692 
-0.0614728 0.0329692 9.49293 
9.5322 -0.0201031 0.110382 
-0.0201031 9.37565 0.0646759 
0.110382 0.0646759 9.35859 
9.4497 0.0450825 0.0842768 
0.0450825 9.40864 0.0725313 
0.0842768 0.0725313 9.4081 
9.34505 -0.053734 -0.0524471 
-0.053734 9.49641 -0.0366862 
-0.0524471 -0.0366862 9.42498 
9.31581 0.202611 0.217074 
0.202611 9.14775 0.12098 
0.217074 0.12098 10.2036 
9.40102 -0.0227329 0.21683 
-0.0227329 8.91829 0.0759988 
0.21683 0.0759988 10.3479 
9.19146 0.269143 0.148877 
0.269143 9.05504 0.258507 
0.148877 0.258507 10.4207 
9.03643 -0.0479317 0.554832 
-0.0479317 8.97307 -0.186131 
0.554832 -0.186131 10.6577 
9.4458 -0.0193877 -0.417528 
-0.0193877 9.56119 0.155865 
-0.417528 0.155865 9.78324 
9.51861 -0.0916739 -0.429575 
-0.0916739 9.61708 -0.034963 
-0.429575 -0.034963 9.65455 
9.53136 0.0349873 -0.438138 
0.0349873 9.53036 0.107876 
-0.438138 0.107876 9.72852 
9.50347 0.127743 -0.432717 
0.127743 9.54297 -0.0257663 
-0.432717 -0.0257663 9.7438 
9.5204 -0.188579 0.0729923 
-0.188579 8.92814 1.11992 
0.0729923 1.11992 10.0062 
9.45876 0.193281 0.0668703 
0.193281 8.9741 0.364765 
0.0668703 0.364765 10.0219 
9.85732 -0.0660503 0.0262973 
-0.0660503 9.01805 0.249007 
0.0262973 0.249007 9.57935 
8.97333 -0.154682 0.181183 
-0.154682 8.87338 0.27991 
0.181183 0.27991 10.608 
9.91375 0.0219993 0.416091 
0.0219993 9.86491 -0.0373124 
0.416091 -0.0373124 10.0125 
9.93882 0.0108327 0.407226 
0.0108327 9.88186 -0.0687213 
0.407226 -0.0687213 9.97047 
9.92754 0.0229735 0.393455 
0.0229735 9.92116 -0.0610811 
0.393455 -0.0610811 9.94246 
9.94643 0.00645574 0.379421 
0.00645574 9.8983 -0.0757611 
0.379421 -0.0757611 9.94643 
9.67268 0.0291374 0.0430824 
0.0291374 9.89315 -0.136571 
0.0430824 -0.136571 9.80633 
9.93039 0.127713 0.0166354 
0.127713 9.51364 0.126256 
0.0166354 0.126256 9.92813 
9.88367 -0.0449218 -0.0462076 
-0.0449218 9.7041 0.00143989 
-0.0462076 0.00143989 9.78439 
9.88483 -0.0291717 0.0669621 
-0.0291717 9.60166 0.0274432 
0.0669621 0.0274432 9.88567 
8.73642 0.210179 -0.731861 
0.210179 9.4414 -0.516741 
-0.731861 -0.516741 8.93302 
8.73343 -0.120752 -0.619388 
-0.120752 9.29654 -0.316517 
-0.619388 -0.316517 9.08087 
8.81314 -0.0902616 -0.635265 
-0.0902616 9.35555 -0.501038 
-0.635265 -0.501038 8.94215 
8.84031 0.121326 -0.767011 
0.121326 9.16671 -0.390381 
-0.767011 -0.390381 9.10381 
8.99569 -0.0466541 0.0291006 
-0.0466541 8.40782 -0.761455 
0.0291006 -0.761455 9.01897 
8.70486 -0.144787 0.164415 
-0.144787 9.03839 -0.924005 
0.164415 -0.924005 8.67922 
9.02642 -0.0454192 0.0468577 
-0.0454192 8.8337 -0.905556 
0.0468577 -0.905556 8.56236 
8.75743 0.00306865 0.070474 
0.00306865 8.92688 -0.77244 
0.070474 -0.77244 8.73817 
8.38346 -0.0537295 -1.26302 
-0.0537295 6.76347 2.29282 
-1.26302 2.29282 9.4143 
9.50805 -0.294054 -0.427216 
-0.294054 7.80142 1.85559 
-0.427216 1.85559 7.25175 
8.99283 0.237558 0.394388 
0.237558 8.50773 1.35793 
0.394388 1.35793 7.06067 
9.40216 0.158856 -0.216809 
0.158856 8.47813 2.07487 
-0.216809 2.07487 6.68095 
9.32928 0.166459 -0.345335 
0.166459 9.29855 -0.077281 
-0.345335 -0.077281 9.69271 
9.16942 0.081829 -0.434629 
0.081829 9.35545 -0.118486 
-0.434629 -0.118486 9.79568 
9.23516 0.0959897 -0.360466 
0.0959897 9.4957 -0.079459 
-0.360466 -0.079459 9.58968 
9.34311 0.00497843 -0.721869 
0.00497843 9.59849 0.0359386 
-0.721869 0.0359386 9.37894 
9.60887 0.0101884 0.0779741 
0.0101884 9.58162 0.0132642 
0.0779741 0.0132642 9.6627 
9.59402 0.00646461 0.0699276 
0.00646461 9.60032 0.0672912 
0.0699276 0.0672912 9.65885 
9.58313 0.0133994 0.021727 
0.0133994 9.58356 0.0129969 
0.021727 0.0129969 9.6865 
9.58381 -0.0232092 0.0580409 
-0.0232092 9.61005 0.0522748 
0.0580409 0.0522748 9.65933 
9.72301 3.03302 1.37116 
3.03302 7.0608 -2.21174 
1.37116 -2.21174 14.873 
12.2081 1.83561 1.84425 
1.83561 9.21525 -3.04989 
1.84425 -3.04989 10.2335 
12.4715 -2.30641 -0.544181 
-2.30641 7.86134 -1.80623 
-0.544181 -1.80623 11.324 
10.7668 0.0482986 1.26017 
0.0482986 8.68326 -2.95272 
1.26017 -2.95272 12.2067 
9.9614 0.0145831 0.26618 
0.0145831 9.94463 -0.253269 
0.26618 -0.253269 9.99837 
9.98339 -0.000991775 0.251377 
-0.000991775 9.99718 -0.24641 
0.251377 -0.24641 9.92382 
9.93048 0.0094329 0.2447 
0.0094329 9.9493 -0.268433 
0.2447 -0.268433 10.0246 
9.97322 -0.0193068 0.27979 
-0.0193068 9.99667 -0.276286 
0.27979 -0.276286 9.9345 
10.7209 0.241878 -0.289475 
0.241878 4.37179 2.74982 
-0.289475 2.74982 6.30901 
5.3033 -0.391493 -0.393571 
-0.391493 8.70743 4.244 
-0.393571 4.244 7.39094 
8.23403 -0.232654 0.00756855 
-0.232654 9.19327 3.51257 
0.00756855 3.51257 3.97438 
7.71021 0.500807 2.10945 
0.500807 7.53971 4.35531 
2.10945 4.35531 6.15176 
10.2937 -0.528621 0.877064 
-0.528621 9.27352 0.0700282 
0.877064 0.0700282 15.5811 
11.4325 -0.813054 0.0814805 
-0.813054 11.7641 -0.025482 
0.0814805 -0.025482 11.9517 
11.627 -0.0324093 -0.0783402 
-0.0324093 12.1824 0.274091 
-0.0783402 0.274091 11.3389 
10.9716 -1.05885 -1.12157 
-1.05885 11.7599 -1.33018 
-1.12157 -1.33018 12.4169 
9.49131 -0.0147211 0.460706 
-0.0147211 9.69579 -0.306967 
0.460706 -0.306967 9.40614 
9.54432 0.0382615 0.403929 
0.0382615 9.68312 -0.491249 
0.403929 -0.491249 9.3658 
9.44226 -0.171292 0.364474 
-0.171292 9.89844 -0.302236 
0.364474 -0.302236 9.25255 
9.58098 0.0573667 0.388744 
0.0573667 9.57975 -0.26339 
0.388744 -0.26339 9.43252 
9.36387 0.0732203 -0.207918 
0.0732203 9.62151 -0.0291381 
-0.207918 -0.0291381 9.78511 
9.81028 0.0762042 0.0521181 
0.0762042 9.42301 -0.0283139 
0.0521181 -0.0283139 9.53719 
9.50127 0.0420395 -0.0561075 
0.0420395 9.63867 0.00190047 
-0.0561075 0.00190047 9.63054 
9.43091 -0.0454517 -0.0879342 
-0.0454517 9.58059 -0.105728 
-0.0879342 -0.105728 9.75898 
8.9727 -0.160035 0.263554 
-0.160035 8.83847 -0.398474 
0.263554 -0.398474 11.092 
9.17859 -0.831873 1.40137 
-0.831873 7.6831 0.665363 
1.40137 0.665363 12.0415 
8.37451 -0.0938483 -0.0438902 
-0.0938483 9.68728 -0.0839197 
-0.0438902 -0.0839197 10.8414 
9.49929 -0.265108 0.487018 
-0.265108 9.2718 -0.195301 
0.487018 -0.195301 10.1321 
9.53839 -0.0725686 0.309375 
-0.0725686 9.34288 0.0723625 
0.309375 0.0723625 9.07245 
9.34097 -0.0547533 0.226552 
-0.0547533 9.41241 0.127531 
0.226552 0.127531 9.20033 
9.62315 -0.0350487 0.0897716 
-0.0350487 9.39503 0.135219 
0.0897716 0.135219 8.93553 
9.50468 -0.04132 0.214667 
-0.04132 9.39199 0.156913 
0.214667 0.156913 9.05704 
9.21955 0.136024 0.547243 
0.136024 9.62312 -0.500622 
0.547243 -0.500622 9.44183 
9.41712 -0.133632 0.46382 
-0.133632 9.57117 -0.351873 
0.46382 -0.351873 9.29622 
9.22232 0.060759 0.538974 
0.060759 9.66289 -0.445012 
0.538974 -0.445012 9.3993 
9.28245 -0.0383528 0.632908 
-0.0383528 9.70776 -0.412805 
0.632908 -0.412805 9.29429 
9.40455 0.0408555 -0.200109 
0.0408555 9.5821 0.00259053 
-0.200109 0.00259053 9.95331 
9.59357 0.0641474 -0.126803 
0.0641474 9.76249 -0.0532979 
-0.126803 -0.0532979 9.5839 
9.36511 0.0095491 -0.0789942 
0.0095491 9.74104 -0.0134761 
-0.0789942 -0.0134761 9.8338 
9.44974 0.0310593 -0.109118 
0.0310593 9.61034 -0.0263743 
-0.109118 -0.0263743 9.87988 
10.4995 0.251118 0.424371 
0.251118 8.97032 0.239185 
0.424371 0.239185 12.3411 
6.92067 1.08057 0.367144 
1.08057 10.2853 1.67292 
0.367144 1.67292 14.605 
10.1059 0.824696 -0.249218 
0.824696 9.35147 -0.10929 
-0.249218 -0.10929 12.3536 
9.32274 1.42472 -1.20553 
1.42472 11.7507 0.236728 
-1.20553 0.236728 10.7375 
9.54197 -0.00603095 -0.0725943 
-0.00603095 9.50822 0.341906 
-0.0725943 0.341906 8.98441 
9.53975 0.00220126 -0.0639644 
0.00220126 9.5327 0.316118 
-0.0639644 0.316118 8.96215 
9.40882 0.0211208 -0.135817 
0.0211208 9.57608 0.471035 
-0.135817 0.471035 9.04969 
9.51322 -0.0195149 -0.0365129 
-0.0195149 9.54027 0.327332 
-0.0365129 0.327332 8.98111 
8.96001 0.758689 -0.460308 
0.758689 8.56682 1.52824 
-0.460308 1.52824 6.12614 
9.55768 -0.179816 0.361164 
-0.179816 7.84012 0.252035 
0.361164 0.252035 6.25518 
7.69334 -0.164985 0.555547 
-0.164985 7.83697 1.58143 
0.555547 1.58143 8.12267 
7.6797 0.6122 0.180649 
0.6122 9.0332 1.71954 
0.180649 1.71954 6.94008 
8.11914 1.26019 0.086035 
1.26019 6.62051 -1.97137 
0.086035 -1.97137 2.93404 
5.86244 -1.0787 1.91378 
-1.0787 8.03644 -2.24889 
1.91378 -2.24889 3.7748 
7.16626 0.154723 0.0592543 
0.154723 8.76704 -1.36163 
0.0592543 -1.36163 1.74038 
6.64652 0.252454 0.98124 
0.252454 8.02372 -2.38661 
0.98124 -2.38661 3.00345 
9.55993 0.0474939 -0.424894 
0.0474939 9.54029 -0.0383523 
-0.424894 -0.0383523 9.67253 
9.44545 0.0676399 -0.426505 
0.0676399 9.63856 -0.0480962 
-0.426505 -0.0480962 9.68874 
9.55379 0.0301583 -0.434254 
0.0301583 9.54827 -0.0265284 
-0.434254 -0.0265284 9.67068 
9.52687 0.06644 -0.442002 
0.06644 9.55067 -0.0361008 
-0.442002 -0.0361008 9.6952 
9.44056 -0.10059 0.500078 
-0.10059 9.50331 0.0538624 
0.500078 0.0538624 9.63289 
9.48192 -0.100275 0.48778 
-0.100275 9.49386 0.0336607 
0.48778 0.0336607 9.60097 
9.4399 -0.110129 0.477683 
-0.110129 9.48647 0.037056 
0.477683 0.037056 9.65038 
9.48198 -0.123053 0.505326 
-0.123053 9.5081 0.0545129 
0.505326 0.0545129 9.58668 
9.92407 0.00347511 0.303544 
0.00347511 9.91796 -0.0276693 
0.303544 -0.0276693 10.0071 
9.96862 0.00691928 0.345659 
0.00691928 9.97146 -0.0243846 
0.345659 -0.0243846 9.90907 
9.92595 -0.03324 0.307864 
-0.03324 9.95275 -0.0214394 
0.307864 -0.0214394 9.97045 
9.99849 0.00424845 0.325883 
0.00424845 9.95406 -0.0274303 
0.325883 -0.0274303 9.89661 
8.9668 -0.0247785 0.590856 
-0.0247785 9.53246 -0.353505 
0.590856 -0.353505 9.08222 
8.78548 0.221756 1.03168 
0.221756 9.67878 -0.369121 
1.03168 -0.369121 9.11723 
9.27192 0.00946527 0.949572 
0.00946527 9.46729 -0.338472 
0.949572 -0.338472 8.84228 
9.0328 0.117047 0.455475 
0.117047 9.36916 -0.387077 
0.455475 -0.387077 9.17953 
9.47783 0.174641 0.164201 
0.174641 9.34065 0.013098 
0.164201 0.013098 9.82075 
9.63741 0.123397 0.214701 
0.123397 8.86364 -0.52639 
0.214701 -0.52639 10.1382 
9.84124 -0.142005 0.62359 
-0.142005 9.05431 -0.184676 
0.62359 -0.184676 9.74368 
9.36523 0.737011 0.364824 
0.737011 9.29199 -0.269109 
0.364824 -0.269109 9.98201 
9.73952 -0.0310667 -0.340065 
-0.0310667 9.81333 0.437195 
-0.340065 0.437195 9.88109 
9.85425 0.0345039 -0.251911 
0.0345039 9.8045 0.497371 
-0.251911 0.497371 9.77518 
9.74373 -0.00853264 -0.313101 
-0.00853264 9.84305 0.530497 
-0.313101 0.530497 9.84716 
9.84128 -1.9156e-05 -0.24445 
-1.9156e-05 9.89628 0.540344 
-0.24445 0.540344 9.69637 
9.77019 0.00883868 -0.335654 
0.00883868 9.70874 0.425402 
-0.335654 0.425402 9.72413 
9.7065 -0.0278078 -0.330251 
-0.0278078 9.78946 0.495535 
-0.330251 0.495535 9.7071 
9.72129 -0.0218005 -0.340062 
-0.0218005 9.83299 0.483823 
-0.340062 0.483823 9.64877 
9.73687 -0.00325059 -0.297273 
-0.00325059 9.8368 0.499747 
-0.297273 0.499747 9.62939 
9.32823 -0.0301113 -0.402567 
-0.0301113 9.47008 0.146711 
-0.402567 0.146711 9.64938 
9.26256 0.0331698 -0.460952 
0.0331698 9.49849 0.170691 
-0.460952 0.170691 9.68664 
9.22801 0.0451681 -0.241778 
0.0451681 9.5751 0.260791 
-0.241778 0.260791 9.64458 
9.33481 -0.0605083 -0.419108 
-0.0605083 9.48696 0.348951 
-0.419108 0.348951 9.62592 
9.56831 -0.594281 -0.381354 
-0.594281 6.94757 0.877992 
-0.381354 0.877992 10.3032 
10.5413 0.109685 -0.630975 
0.109685 6.83019 0.819127 
-0.630975 0.819127 9.44755 
10.6613 -0.259761 0.0816693 
-0.259761 6.2186 1.25207 
0.0816693 1.25207 9.93918 
9.89855 -0.0387566 -0.252316 
-0.0387566 7.95965 0.381269 
-0.252316 0.381269 8.96087 
9.55541 -0.201951 -0.114264 
-0.201951 9.10368 -0.110705 
-0.114264 -0.110705 9.0407 
9.8724 0.0263147 -0.198953 
0.0263147 8.55534 -0.274027 
-0.198953 -0.274027 9.27203 
9.69963 0.112093 -0.0678485 
0.112093 9.10428 -0.0786747 
-0.0678485 -0.0786747 8.89587 
9.60068 -0.0420469 -0.194292 
-0.0420469 8.54238 0.0962194 
-0.194292 0.0962194 9.55673 
9.23776 0.139396 -0.198832 
0.139396 9.66377 0.0116605 
-0.198832 0.0116605 9.77754 
9.49882 -0.00580501 -0.300474 
-0.00580501 9.50353 0.109674 
-0.300474 0.109674 9.67672 
9.7662 -0.132693 -0.288932 
-0.132693 9.42292 0.0735907 
-0.288932 0.0735907 9.48995 
9.44418 0.0700275 -0.449892 
0.0700275 9.47323 0.0528514 
-0.449892 0.0528514 9.76166 
9.86079 0.0388405 -0.211914 
0.0388405 9.78701 0.46267 
-0.211914 0.46267 9.86503 
10.0115 0.0864702 -0.196461 
0.0864702 9.82027 0.401012 
-0.196461 0.401012 9.6811 
9.81459 -0.0016648 -0.186726 
-0.0016648 9.9306 0.463681 
-0.186726 0.463681 9.76765 
9.8231 -0.0252728 -0.0889315 
-0.0252728 9.91176 0.472801 
-0.0889315 0.472801 9.77797 
9.60555 0.0323565 -0.498382 
0.0323565 9.69915 -0.0469898 
-0.498382 -0.0469898 9.80294 
9.66228 0.021686 -0.533551 
0.021686 9.64449 -0.0174642 
-0.533551 -0.0174642 9.80088 
9.65881 0.0456255 -0.518861 
0.0456255 9.67372 -0.0090505 
-0.518861 -0.0090505 9.77512 
9.61491 0.00703134 -0.451353 
0.00703134 9.67668 -0.0265125 
-0.451353 -0.0265125 9.81605 
7.48433 0.212108 -2.3608 
0.212108 9.30197 -0.0309774 
-2.3608 -0.0309774 10.282 
6.04351 1.99304 -0.765453 
1.99304 11.465 1.06548 
-0.765453 1.06548 9.55975 
7.01421 0.573439 -0.955518 
0.573439 9.04873 0.487693 
-0.955518 0.487693 11.0053 
8.02097 0.0432469 0.193982 
0.0432469 11.1791 0.682611 
0.193982 0.682611 7.86825 
9.90169 -0.0137676 -0.363178 
-0.0137676 9.86409 0.120052 
-0.363178 0.120052 9.9412 
9.87911 0.0095879 -0.361965 
0.0095879 9.86876 0.133264 
-0.361965 0.133264 9.9591 
9.90594 -0.00406638 -0.372176 
-0.00406638 9.86023 0.132674 
-0.372176 0.132674 9.94082 
9.89968 -0.00252139 -0.372958 
-0.00252139 9.87679 0.119463 
-0.372958 0.119463 9.93051 
11.0581 -0.150132 -0.181482 
-0.150132 11.1168 0.367074 
-0.181482 0.367074 13.1123 
10.4496 -0.221059 -0.682811 
-0.221059 11.8719 0.0450105 
-0.682811 0.0450105 12.9657 
12.236 0.803935 0.00926666 
0.803935 13.7734 -0.410285 
0.00926666 -0.410285 9.27782 
10.9559 -0.0692972 -0.584498 
-0.0692972 11.5387 -1.187 
-0.584498 -1.187 12.7926 
9.87674 0.0218442 -0.295244 
0.0218442 9.83731 0.057128 
-0.295244 0.057128 9.90048 
9.90853 0.0187247 -0.288834 
0.0187247 9.84826 0.0552454 
-0.288834 0.0552454 9.85773 
9.86232 0.00884371 -0.297197 
0.00884371 9.80544 0.126756 
-0.297197 0.126756 9.94677 
9.91837 0.0166663 -0.293732 
0.0166663 9.80276 0.13489 
-0.293732 0.13489 9.8934 
9.61463 0.112765 0.282518 
0.112765 9.52842 -0.587413 
0.282518 -0.587413 9.50905 
9.53263 -0.0715827 0.229374 
-0.0715827 10.0517 -0.742364 
0.229374 -0.742364 9.06781 
9.61502 0.0847797 0.258922 
0.0847797 9.26122 -0.670535 
0.258922 -0.670535 9.77586 
9.64158 -0.0654249 0.372763 
-0.0654249 9.64131 -0.303143 
0.372763 -0.303143 9.36921 
9.29469 -0.153553 0.295789 
-0.153553 9.11083 0.0241475 
0.295789 0.0241475 9.85767 
9.50731 -0.176457 0.193104 
-0.176457 9.16354 0.0115941 
0.193104 0.0115941 9.59234 
9.36423 -0.18194 0.349668 
-0.18194 9.08841 -0.0777321 
0.349668 -0.0777321 9.81056 
9.56686 0.0215474 0.72403 
0.0215474 9.015 -0.0556498 
0.72403 -0.0556498 9.68134 
9.81601 0.0339043 0.2081 
0.0339043 9.82718 0.523467 
0.2081 0.523467 9.74305 
9.81241 0.0738226 0.169719 
0.0738226 9.83581 0.446664 
0.169719 0.446664 9.73802 
9.63469 -0.0915607 0.171914 
-0.0915607 9.92856 0.5607 
0.171914 0.5607 9.82299 
9.73696 -0.0512387 0.151178 
-0.0512387 10.0067 0.351273 
0.151178 0.351273 9.64253 
9.10132 0.199472 0.588332 
0.199472 9.26003 -0.233856 
0.588332 -0.233856 9.13872 
8.89837 0.128521 0.578976 
0.128521 9.41422 0.187191 
0.578976 0.187191 9.18749 
9.11115 0.0149013 0.990369 
0.0149013 9.41376 -0.00841058 
0.990369 -0.00841058 8.97516 
9.23989 0.171009 0.742613 
0.171009 9.19087 0.390942 
0.742613 0.390942 9.06931 
8.56064 -0.0438864 0.48817 
-0.0438864 8.21756 1.34383 
0.48817 1.34383 8.0761 
8.69709 -0.404511 0.53616 
-0.404511 8.32114 1.35566 
0.53616 1.35566 7.83608 
8.71002 -0.422922 0.632855 
-0.422922 8.19505 1.16869 
0.632855 1.16869 7.94923 
8.57505 -0.188423 0.674763 
-0.188423 8.36905 1.50062 
0.674763 1.50062 7.91021 
9.95196 -0.0299594 0.0636331 
-0.0299594 9.3796 0.040503 
0.0636331 0.040503 10.6206 
10.0327 -0.0678085 0.160472 
-0.0678085 9.50432 0.0264808 
0.160472 0.0264808 10.4152 
9.91635 -0.117564 0.112589 
-0.117564 9.58293 -0.11562 
0.112589 -0.11562 10.4529 
10.2102 -0.149777 0.0129287 
-0.149777 9.53355 -0.314231 
0.0129287 -0.314231 10.2084 
9.26491 0.0452349 -0.486399 
0.0452349 9.308 0.240633 
-0.486399 0.240633 9.80858 
9.26995 0.0649227 -0.472151 
0.0649227 9.32029 0.203805 
-0.472151 0.203805 9.79124 
9.20162 0.0288182 -0.513008 
0.0288182 9.34736 0.15589 
-0.513008 0.15589 9.83251 
9.22034 0.110706 -0.462949 
0.110706 9.36943 0.214323 
-0.462949 0.214323 9.79172 
8.98034 0.196063 0.364562 
0.196063 9.08614 0.0900212 
0.364562 0.0900212 10.0533 
9.1475 0.160165 0.564947 
0.160165 8.89698 0.0685601 
0.564947 0.0685601 10.0753 
9.29781 0.168704 0.283373 
0.168704 8.9928 0.184433 
0.283373 0.184433 9.82914 
9.10957 0.319077 0.510818 
0.319077 9.00736 -0.0536908 
0.510818 -0.0536908 10.0028 
9.62599 -0.0161812 0.0748149 
-0.0161812 9.53475 0.864992 
0.0748149 0.864992 9.25694 
9.50286 -0.0355196 -0.0412203 
-0.0355196 9.62763 0.8435 
-0.0412203 0.8435 9.28719 
9.62759 0.0421499 0.090251 
0.0421499 9.70369 0.647248 
0.090251 0.647248 9.08641 
9.34476 0.106596 0.00445022 
0.106596 9.50795 0.545953 
0.00445022 0.545953 9.56497 
9.294 0.161344 0.48787 
0.161344 9.31722 0.559989 
0.48787 0.559989 9.21499 
9.34391 -0.130256 0.40972 
-0.130256 9.19335 0.786687 
0.40972 0.786687 9.28896 
9.40175 0.15709 0.451213 
0.15709 9.42438 0.595909 
0.451213 0.595909 9.00008 
9.27851 -0.0325934 0.500329 
-0.0325934 9.4353 0.620694 
0.500329 0.620694 9.1124 
10.4878 0.0559732 0.0511514 
0.0559732 8.00608 0.667234 
0.0511514 0.667234 11.6988 
10.6137 -0.92795 -2.40175 
-0.92795 9.11797 1.43748 
-2.40175 1.43748 10.4611 
10.4442 0.73784 -1.111 
0.73784 8.08637 0.922673 
-1.111 0.922673 11.6622 
10.5159 0.467395 -0.235703 
0.467395 8.4776 0.975231 
-0.235703 0.975231 11.1993 
9.79364 -0.030143 -0.141271 
-0.030143 9.73648 0.085287 
-0.141271 0.085287 9.83525 
9.81724 -0.0450461 -0.0966249 
-0.0450461 9.71892 0.0728928 
-0.0966249 0.0728928 9.8292 
9.89909 -0.0589386 -0.11744 
-0.0589386 9.71648 0.0628683 
-0.11744 0.0628683 9.7498 
9.86288 -0.055693 -0.14302 
-0.055693 9.73282 0.00642535 
-0.14302 0.00642535 9.76967 
9.31783 0.112855 -0.316178 
0.112855 9.53267 0.51112 
-0.316178 0.51112 9.33804 
9.39388 0.0208127 -0.351593 
0.0208127 9.53595 0.553716 
-0.351593 0.553716 9.25872 
9.27596 -0.0190165 -0.531079 
-0.0190165 9.61088 0.494588 
-0.531079 0.494588 9.30171 
9.47146 0.0161521 -0.39849 
0.0161521 9.43852 0.495129 
-0.39849 0.495129 9.27857 
9.07731 0.189805 0.219305 
0.189805 9.1167 0.124699 
0.219305 0.124699 10.1927 
8.8276 0.222693 0.232953 
0.222693 8.91299 0.329333 
0.232953 0.329333 10.6461 
9.12887 0.366667 0.487189 
0.366667 8.94081 0.12623 
0.487189 0.12623 10.317 
9.18105 0.497847 0.781175 
0.497847 8.8015 -0.252775 
0.781175 -0.252775 10.4042 
9.80684 -0.0337092 -0.394739 
-0.0337092 9.82912 0.279335 
-0.394739 0.279335 9.85081 
9.83278 -0.0162016 -0.41401 
-0.0162016 9.82592 0.27191 
-0.41401 0.27191 9.82808 
9.76401 -0.0132719 -0.365334 
-0.0132719 9.84612 0.226352 
-0.365334 0.226352 9.87665 
9.79337 0.00342774 -0.383445 
0.00342774 9.87358 0.197135 
-0.383445 0.197135 9.81983 
9.40131 0.0766215 -0.0710327 
0.0766215 9.61841 -0.748698 
-0.0710327 -0.748698 9.33784 
9.39166 -0.0275666 -0.0115459 
-0.0275666 9.53514 -0.699393 
-0.0115459 -0.699393 9.43077 
9.46118 0.0456872 -0.112064 
0.0456872 9.53095 -0.62876 
-0.112064 -0.62876 9.36544 
9.50043 0.0448227 -0.153199 
0.0448227 9.61798 -0.689118 
-0.153199 -0.689118 9.23916 
9.3675 -0.95251 0.459157 
-0.95251 9.47723 -0.473423 
0.459157 -0.473423 11.1139 
9.69815 -0.432052 -0.766787 
-0.432052 10.1589 -0.16134 
-0.766787 -0.16134 10.1016 
9.3002 -0.862553 -0.100673 
-0.862553 9.71592 -0.349849 
-0.100673 -0.349849 10.9425 
8.85433 -0.624012 -0.313249 
-0.624012 9.9507 -0.353801 
-0.313249 -0.353801 11.1536 
10.0705 -0.521148 0.0300551 
-0.521148 9.45664 0.204782 
0.0300551 0.204782 10.1169 
9.84383 -0.0760747 -0.207874 
-0.0760747 9.923 0.753572 
-0.207874 0.753572 9.87722 
9.18784 -0.971647 0.427063 
-0.971647 9.44637 0.182356 
0.427063 0.182356 11.0098 
9.58915 -0.743075 0.820956 
-0.743075 9.10718 0.347307 
0.820956 0.347307 10.9477 
4.89917 -0.62215 0.173959 
-0.62215 6.95152 1.07224 
0.173959 1.07224 1.51106 
5.76696 0.0168765 -0.24962 
0.0168765 6.73015 0.896975 
-0.24962 0.896975 0.864633 
6.02558 -0.1325 0.742442 
-0.1325 6.44968 1.23467 
0.742442 1.23467 0.886486 
6.50176 0.13029 -0.33471 
0.13029 5.31372 1.32912 
-0.33471 1.32912 1.54626 
9.56374 0.0570279 -0.492915 
0.0570279 9.61809 0.0123317 
-0.492915 0.0123317 9.77976 
9.63458 -0.00404443 -0.529976 
-0.00404443 9.55339 -0.036851 
-0.529976 -0.036851 9.77363 
9.57698 0.0614635 -0.474679 
0.0614635 9.62075 -0.0165325 
-0.474679 -0.0165325 9.76387 
9.54378 0.0920239 -0.504961 
0.0920239 9.66014 -0.0124131 
-0.504961 -0.0124131 9.75769 
9.93874 -0.00713181 -0.249246 
-0.00713181 9.96609 0.170196 
-0.249246 0.170196 9.92347 
9.90263 0.00989185 -0.238991 
0.00989185 9.93653 0.137685 
-0.238991 0.137685 9.98913 
9.91181 0.0387165 -0.199924 
0.0387165 9.88455 0.144528 
-0.199924 0.144528 10.0319 
9.95666 -0.0311392 -0.242791 
-0.0311392 9.97043 0.161491 
-0.242791 0.161491 9.90121 
9.17233 -0.0267768 -0.555349 
-0.0267768 9.50297 0.431893 
-0.555349 0.431893 9.63627 
9.3166 0.023303 -0.359237 
0.023303 9.70935 0.417445 
-0.359237 0.417445 9.28562 
9.15091 -0.114094 -0.535759 
-0.114094 9.66378 0.363798 
-0.535759 0.363798 9.49689 
9.42754 0.0491268 -0.345437 
0.0491268 9.51274 0.343351 
-0.345437 0.343351 9.37129 
9.36655 -0.221165 0.417669 
-0.221165 9.23081 0.83617 
0.417669 0.83617 8.25933 
9.38284 -0.278608 0.488992 
-0.278608 9.40301 0.884363 
0.488992 0.884363 8.07085 
9.14872 0.0409622 0.577374 
0.0409622 8.80216 0.568924 
0.577374 0.568924 8.90581 
9.40191 -0.0354993 0.176658 
-0.0354993 9.41595 1.03131 
0.176658 1.03131 8.03884 
10.1958 -0.154937 -0.19452 
-0.154937 6.05984 -1.55864 
-0.19452 -1.55864 10.6912 
10.1382 -0.67522 -0.164911 
-0.67522 6.61469 -0.429461 
-0.164911 -0.429461 10.1939 
10.2649 -1.17959 0.0193432 
-1.17959 6.57167 -0.669632 
0.0193432 -0.669632 10.1103 
10.2899 -0.972231 0.378853 
-0.972231 7.24855 0.352564 
0.378853 0.352564 9.40832 
9.50725 0.0484577 -0.538608 
0.0484577 9.66409 -0.205811 
-0.538608 -0.205811 9.65455 
9.50844 -0.0812537 -0.484792 
-0.0812537 9.5738 -0.123041 
-0.484792 -0.123041 9.74365 
9.53359 0.0717196 -0.55411 
0.0717196 9.62645 -0.0912039 
-0.55411 -0.0912039 9.66586 
9.53442 0.1426 -0.471096 
0.1426 9.68598 -0.106781 
-0.471096 -0.106781 9.60549 
5.94774 -0.446341 -0.421401 
-0.446341 11.0177 2.26125 
-0.421401 2.26125 13.8206 
10.8254 0.446072 -1.60429 
0.446072 7.98798 0.987173 
-1.60429 0.987173 11.9727 
12.1533 -1.65993 0.636188 
-1.65993 8.23536 -1.15143 
0.636188 -1.15143 10.3974 
9.64482 -1.08615 1.20197 
-1.08615 12.1958 -0.198825 
1.20197 -0.198825 8.94542 
7.70937 0.0246967 0.140433 
0.0246967 10.7618 0.887796 
0.140433 0.887796 7.60451 
8.13744 -0.407413 0.199192 
-0.407413 8.98391 0.945145 
0.199192 0.945145 8.95429 
9.1517 -0.546501 0.175813 
-0.546501 6.7227 -0.0683683 
0.175813 -0.0683683 10.2012 
8.12149 0.286329 0.967046 
0.286329 7.63136 2.18492 
0.967046 2.18492 10.3228 
11.1686 -0.820837 0.307108 
-0.820837 10.4843 0.777877 
0.307108 0.777877 13.4289 
11.9686 -1.09225 0.490568 
-1.09225 9.76019 1.45577 
0.490568 1.45577 13.353 
12.2792 -1.59667 0.880359 
-1.59667 7.81394 0.997484 
0.880359 0.997484 14.9887 
11.9963 -1.31589 0.971222 
-1.31589 9.61088 1.20223 
0.971222 1.20223 13.4746 
8.03935 0.95521 -0.793588 
0.95521 7.08653 0.509301 
-0.793588 0.509301 10.2949 
9.95541 0.904721 0.4163 
0.904721 7.56603 2.01541 
0.4163 2.01541 7.89939 
10.0219 -0.442813 1.39737 
-0.442813 6.40912 2.89256 
1.39737 2.89256 8.98979 
9.93343 0.548109 0.945415 
0.548109 7.92666 1.85314 
0.945415 1.85314 7.56073 
9.62546 -0.0171113 -0.63603 
-0.0171113 9.20451 -1.13476 
-0.63603 -1.13476 7.4124 
10.1141 0.616609 -0.378437 
0.616609 9.2117 -0.809442 
-0.378437 -0.809442 6.91659 
9.14024 1.14851 -1.22461 
1.14851 9.71524 0.243836 
-1.22461 0.243836 7.38688 
10.3639 -0.109625 -0.894426 
-0.109625 8.8889 -1.55546 
-0.894426 -1.55546 6.98952 
8.09151 -0.0436593 0.820812 
-0.0436593 7.59152 0.343311 
0.820812 0.343311 -2.53463 
5.37644 -2.92308 1.54637 
-2.92308 9.84025 -0.13943 
1.54637 -0.13943 -2.06829 
3.53891 2.38192 -3.83362 
2.38192 2.67376 0.91485 
-3.83362 0.91485 6.93573 
11.0051 -2.23226 -0.772506 
-2.23226 3.30268 4.63805 
-0.772506 4.63805 -1.15939 
8.67034 0.220502 0.863913 
0.220502 9.47291 -0.045513 
0.863913 -0.045513 8.57842 
8.73313 0.265879 0.962903 
0.265879 9.20413 0.0590314 
0.962903 0.0590314 8.7844 
8.82002 0.142762 1.07043 
0.142762 9.47888 0.12285 
1.07043 0.12285 8.42277 
8.66611 0.296689 0.767317 
0.296689 9.63073 -0.332956 
0.767317 -0.332956 8.42484 
9.35499 -0.0112696 0.109571 
-0.0112696 9.29335 0.7513 
0.109571 0.7513 9.28649 
9.26998 -0.0453391 0.1601 
-0.0453391 9.44657 0.712933 
0.1601 0.712933 9.21827 
9.31773 -0.0100545 0.123074 
-0.0100545 9.37592 0.729745 
0.123074 0.729745 9.24118 
9.27709 0.0197603 0.110501 
0.0197603 9.34281 0.685555 
0.110501 0.685555 9.31494 
9.79897 -0.331101 -0.043107 
-0.331101 8.92046 0.0882147 
-0.043107 0.0882147 9.32799 
9.80555 -0.319446 -0.0156944 
-0.319446 8.65492 0.133997 
-0.0156944 0.133997 9.58694 
9.71482 -0.12978 -0.161489 
-0.12978 9.23216 0.132039 
-0.161489 0.132039 9.10044 
9.63906 -0.45657 -0.112047 
-0.45657 8.73343 -0.0783527 
-0.112047 -0.0783527 9.67492 
8.49536 -0.119562 -0.215865 
-0.119562 7.63863 1.55361 
-0.215865 1.55361 7.86105 
8.63347 0.180619 -0.225384 
0.180619 6.74359 0.996827 
-0.225384 0.996827 8.61799 
8.57778 0.397441 0.0228192 
0.397441 6.50363 0.666214 
0.0228192 0.666214 8.91364 
7.83235 0.426492 0.363837 
0.426492 6.86711 1.7213 
0.363837 1.7213 9.29558 
10.5014 -0.638638 0.279659 
-0.638638 8.59332 0.558559 
0.279659 0.558559 10.7294 
10.1996 -0.392559 0.594769 
-0.392559 9.59374 0.47051 
0.594769 0.47051 10.0308 
10.7479 -0.460443 0.275046 
-0.460443 8.24616 0.621702 
0.275046 0.621702 10.83 
10.5433 -1.19238 0.565701 
-1.19238 8.63457 0.318047 
0.565701 0.318047 10.6463 
9.44733 0.0392062 -0.551237 
0.0392062 9.58301 -0.387039 
-0.551237 -0.387039 9.40876 
9.531 0.0245133 -0.438098 
0.0245133 9.72217 -0.403859 
-0.438098 -0.403859 9.18594 
9.47171 0.0296761 -0.564295 
0.0296761 9.56284 -0.401585 
-0.564295 -0.401585 9.40456 
9.38178 0.0251561 -0.525424 
0.0251561 9.52195 -0.268342 
-0.525424 -0.268342 9.53537 
8.71796 0.178764 0.179286 
0.178764 8.86084 -0.472993 
0.179286 -0.472993 9.48302 
8.53397 0.540086 0.0651553 
0.540086 9.65689 -0.534116 
0.0651553 -0.534116 8.87096 
9.14749 0.133316 0.0500674 
0.133316 8.40261 -0.380884 
0.0500674 -0.380884 9.51172 
8.7972 0.0119469 -0.0588038 
0.0119469 9.00014 -0.76443 
-0.0588038 -0.76443 9.26447 
9.524 -0.122306 -0.656662 
-0.122306 9.10883 -0.258593 
-0.656662 -0.258593 10.1607 
9.32234 -0.034816 -0.500061 
-0.034816 9.30547 -0.125503 
-0.500061 -0.125503 10.1657 
9.40012 -0.026221 -0.424096 
-0.026221 9.26295 -0.129069 
-0.424096 -0.129069 10.1305 
9.32954 -0.0956533 -0.510686 
-0.0956533 9.28719 0.0116319 
-0.510686 0.0116319 10.1768 
9.83678 -0.000176247 -0.428567 
-0.000176247 9.8262 0.107755 
-0.428567 0.107755 9.92279 
9.85652 -0.00194851 -0.388739 
-0.00194851 9.80153 0.125366 
-0.388739 0.125366 9.92771 
9.81056 0.00818166 -0.416596 
0.00818166 9.85623 0.130098 
-0.416596 0.130098 9.91897 
9.87936 -0.0182546 -0.473454 
-0.0182546 9.82463 0.118226 
-0.473454 0.118226 9.88177 
7.79916 0.821677 1.04803 
0.821677 10.1621 -0.668662 
1.04803 -0.668662 9.20669 
7.69749 0.807906 0.865078 
0.807906 10.131 -0.394086 
0.865078 -0.394086 9.33949 
8.43209 0.25276 1.22943 
0.25276 9.98442 -0.562065 
1.22943 -0.562065 8.75148 
7.55511 0.530904 0.807328 
0.530904 10.374 -0.242171 
0.807328 -0.242171 9.23886 
9.81291 0.117223 0.0897013 
0.117223 9.95282 0.0230473 
0.0897013 0.0230473 9.78249 
9.7535 -0.2126 0.142631 
-0.2126 9.76523 0.124348 
0.142631 0.124348 10.0295 
9.69929 -0.145824 0.0571247 
-0.145824 9.86865 0.0113676 
0.0571247 0.0113676 9.98027 
9.72381 -0.0774246 0.0417431 
-0.0774246 9.78882 -0.00422358 
0.0417431 -0.00422358 10.0356 
9.9707 0.00111801 -0.214633 
0.00111801 9.91904 0.0354154 
-0.214633 0.0354154 9.90926 
9.8891 -0.0177275 -0.23236 
-0.0177275 9.85556 0.0535864 
-0.23236 0.0535864 10.0543 
9.90922 -0.000452716 -0.222904 
-0.000452716 9.90308 0.018795 
-0.222904 0.018795 9.98669 
9.98464 0.00864971 -0.253519 
0.00864971 9.89587 0.00609006 
-0.253519 0.00609006 9.91849 
9.36528 0.00889076 -0.358633 
0.00889076 9.53756 0.167829 
-0.358633 0.167829 9.73638 
9.33554 0.00388364 -0.482484 
0.00388364 9.45999 0.190042 
-0.482484 0.190042 9.84369 
9.44014 -0.0308065 -0.463114 
-0.0308065 9.52598 0.170061 
-0.463114 0.170061 9.67309 
9.38374 0.0102333 -0.39035 
0.0102333 9.52399 0.219299 
-0.39035 0.219299 9.73148 
8.78889 0.640858 -1.09964 
0.640858 8.50647 1.3623 
-1.09964 1.3623 8.73245 
8.58054 1.06511 -0.660031 
1.06511 7.83054 0.315103 
-0.660031 0.315103 9.61673 
7.5975 0.727474 -1.52078 
0.727474 8.65739 1.68979 
-1.52078 1.68979 9.77292 
9.03652 0.113083 -1.28984 
0.113083 8.53693 0.866138 
-1.28984 0.866138 8.45436 
3.56583 0.152709 0.937481 
0.152709 5.09046 0.220438 
0.937481 0.220438 -2.15786 
4.88242 1.16883 1.16467 
1.16883 2.9667 0.781142 
1.16467 0.781142 -1.35069 
1.38427 -0.289026 -1.37521 
-0.289026 1.45069 -2.36973 
-1.37521 -2.36973 3.66348 
3.56301 1.21957 -0.885988 
1.21957 4.51019 -0.497389 
-0.885988 -0.497389 -1.57476 
9.20462 0.391277 -0.324733 
0.391277 9.36934 -0.743293 
-0.324733 -0.743293 9.09304 
9.28911 -0.0467932 -0.465403 
-0.0467932 9.3511 -0.817871 
-0.465403 -0.817871 9.0268 
9.1603 -0.214894 -0.616481 
-0.214894 9.29526 -0.717179 
-0.616481 -0.717179 9.21145 
9.472 -0.112479 -0.557809 
-0.112479 9.20894 -0.938458 
-0.557809 -0.938458 8.98606 
10.3674 0.999816 1.38559 
0.999816 8.10198 0.417676 
1.38559 0.417676 11.7318 
10.0111 0.362652 1.48311 
0.362652 10.3161 -0.555973 
1.48311 -0.555973 9.87398 
11.0693 0.119097 0.376421 
0.119097 6.48632 -1.1384 
0.376421 -1.1384 12.6455 
10.7813 -0.367511 -0.0546254 
-0.367511 7.05889 -0.83757 
-0.0546254 -0.83757 12.361 
9.27986 0.0331381 -0.196588 
0.0331381 9.51076 0.0023464 
-0.196588 0.0023464 9.7604 
9.34305 0.0108723 -0.297587 
0.0108723 9.50963 0.0657227 
-0.297587 0.0657227 9.69834 
9.35209 0.0933331 -0.295696 
0.0933331 9.37666 -0.0329083 
-0.295696 -0.0329083 9.82227 
9.2849 0.0752724 -0.287051 
0.0752724 9.46138 0.0124492 
-0.287051 0.0124492 9.80474 
6.50826 1.03952 1.33294 
1.03952 9.6917 0.160398 
1.33294 0.160398 8.618 
8.71652 -0.435789 -1.59795 
-0.435789 8.81697 -1.27478 
-1.59795 -1.27478 7.28447 
8.41823 -0.432613 -2.52258 
-0.432613 9.01702 -0.719119 
-2.52258 -0.719119 7.38271 
9.46149 -0.0229715 -1.72336 
-0.0229715 10.2449 -0.947654 
-1.72336 -0.947654 5.11152 
9.74057 -0.0231757 -0.466081 
-0.0231757 9.74823 0.164645 
-0.466081 0.164645 9.7501 
9.70961 0.0112492 -0.449229 
0.0112492 9.74881 0.185588 
-0.449229 0.185588 9.78048 
9.69667 -0.00993941 -0.461143 
-0.00993941 9.72484 0.185208 
-0.461143 0.185208 9.81739 
9.70477 0.00964117 -0.42114 
0.00964117 9.74997 0.159375 
-0.42114 0.159375 9.78416 
9.45724 0.344981 -0.579042 
0.344981 9.3496 0.467936 
-0.579042 0.467936 7.46586 
9.16367 0.340211 -0.655544 
0.340211 9.59079 0.893087 
-0.655544 0.893087 7.51824 
9.42983 -0.276568 -0.449843 
-0.276568 9.12151 0.625344 
-0.449843 0.625344 7.72136 
9.62676 -0.263089 -0.410365 
-0.263089 9.38458 0.797482 
-0.410365 0.797482 7.26135 
9.76474 -0.0128723 0.448348 
-0.0128723 9.79465 -0.157664 
0.448348 -0.157664 9.8094 
9.76727 -0.0121894 0.447331 
-0.0121894 9.78859 -0.162331 
0.447331 -0.162331 9.81293 
9.74216 -0.0129782 0.452839 
-0.0129782 9.77746 -0.169684 
0.452839 -0.169684 9.84917 
9.7737 -0.0215747 0.43881 
-0.0215747 9.79065 -0.157033 
0.43881 -0.157033 9.80443 
9.48781 0.0116517 -0.39611 
0.0116517 9.67822 0.198455 
-0.39611 0.198455 9.70933 
9.52604 -0.0529574 -0.357673 
-0.0529574 9.65132 0.301484 
-0.357673 0.301484 9.69799 
9.52236 -0.0180088 -0.456871 
-0.0180088 9.63626 0.253882 
-0.456871 0.253882 9.71673 
9.5029 -0.0228244 -0.416527 
-0.0228244 9.6646 0.260986 
-0.416527 0.260986 9.70785 
8.6529 -0.609003 0.0714408 
-0.609003 8.13943 0.458794 
0.0714408 0.458794 9.73691 
8.66193 0.243701 0.213218 
0.243701 9.30882 0.529078 
0.213218 0.529078 8.55848 
8.50797 -0.0666283 0.296342 
-0.0666283 9.0136 0.64659 
0.296342 0.64659 9.00767 
8.5993 -0.073403 0.732926 
-0.073403 8.6739 0.980045 
0.732926 0.980045 9.25604 
9.61134 -0.0842574 0.309537 
-0.0842574 9.88661 -0.592683 
0.309537 -0.592683 9.4598 
9.70656 0.0789616 0.243974 
0.0789616 9.58118 -0.625104 
0.243974 -0.625104 9.67001 
9.48565 -0.0640747 0.338593 
-0.0640747 9.72915 -0.571398 
0.338593 -0.571398 9.74294 
9.61893 0.125696 0.278595 
0.125696 9.73572 -0.546312 
0.278595 -0.546312 9.60309 
9.84379 0.0185996 -0.463856 
0.0185996 9.81553 -0.148111 
-0.463856 -0.148111 9.93949 
9.86627 0.0155319 -0.536474 
0.0155319 9.83741 -0.177467 
-0.536474 -0.177467 9.89513 
9.83239 -0.00645549 -0.474165 
-0.00645549 9.88065 -0.171752 
-0.474165 -0.171752 9.88578 
9.86587 0.0235249 -0.557259 
0.0235249 9.8887 -0.17019 
-0.557259 -0.17019 9.84425 
9.19703 0.292705 -0.43675 
0.292705 8.58525 -0.593892 
-0.43675 -0.593892 9.06156 
8.5046 -0.0767979 0.267308 
-0.0767979 8.98987 -0.722996 
0.267308 -0.722996 9.34937 
8.22508 0.434707 0.600758 
0.434707 9.32168 -0.888049 
0.600758 -0.888049 9.29708 
8.70909 -0.140039 0.0682283 
-0.140039 9.21831 -0.843084 
0.0682283 -0.843084 8.91643 
9.58409 -0.146487 0.0259314 
-0.146487 9.67126 -0.0682862 
0.0259314 -0.0682862 9.78744 
9.62341 -0.166995 0.0662983 
-0.166995 9.66755 -0.00322958 
0.0662983 -0.00322958 9.75182 
9.5689 -0.0262219 0.0274103 
-0.0262219 9.66277 -0.0274688 
0.0274103 -0.0274688 9.81112 
9.57451 -0.131611 0.075312 
-0.131611 9.71694 -0.103687 
0.075312 -0.103687 9.75133 
8.98893 0.0384197 -0.29352 
0.0384197 9.78841 -0.197005 
-0.29352 -0.197005 9.81866 
9.664 0.124724 -0.326861 
0.124724 9.42879 -0.080075 
-0.326861 -0.080075 9.5032 
9.30666 0.125876 -0.384155 
0.125876 9.6197 -0.142066 
-0.384155 -0.142066 9.66964 
9.38397 0.235825 -0.524815 
0.235825 9.49823 -0.106604 
-0.524815 -0.106604 9.71379 
9.76325 -0.000153727 -0.422567 
-0.000153727 9.78887 0.258472 
-0.422567 0.258472 9.898 
9.79779 -0.0158774 -0.406907 
-0.0158774 9.79084 0.275268 
-0.406907 0.275268 9.86149 
9.77616 0.00125082 -0.430394 
0.00125082 9.81587 0.266123 
-0.430394 0.266123 9.85809 
9.79617 0.0028955 -0.444022 
0.0028955 9.82798 0.284585 
-0.444022 0.284585 9.82597 
9.75882 0.108519 -0.00741495 
0.108519 9.91032 0.0128367 
-0.00741495 0.0128367 10.3556 
9.94421 0.00137459 0.0657818 
0.00137459 9.74286 0.0163556 
0.0657818 0.0163556 10.3377 
9.8568 0.0493064 0.0555241 
0.0493064 9.86768 0.0167653 
0.0555241 0.0167653 10.3002 
9.83782 0.0644212 0.083936 
0.0644212 9.95469 0.0801697 
0.083936 0.0801697 10.2322 
9.5716 0.217049 0.00937838 
0.217049 9.66969 -0.0154338 
0.00937838 -0.0154338 10.7727 
9.9117 0.156596 0.0011403 
0.156596 9.67075 0.373834 
0.0011403 0.373834 10.4316 
9.6459 0.244622 -0.0758441 
0.244622 9.72393 0.15415 
-0.0758441 0.15415 10.6442 
9.75317 0.274117 -0.118171 
0.274117 9.39938 0.200503 
-0.118171 0.200503 10.8615 
9.57593 0.0101427 0.289677 
0.0101427 9.15847 -0.174082 
0.289677 -0.174082 9.90136 
9.58892 0.0304613 0.259571 
0.0304613 9.14222 -0.214313 
0.259571 -0.214313 9.90462 
9.53106 -0.0410731 0.296213 
-0.0410731 9.22714 -0.224271 
0.296213 -0.224271 9.87756 
9.59994 -0.0412751 0.297812 
-0.0412751 9.11928 -0.150818 
0.297812 -0.150818 9.91654 
9.45461 -0.119387 0.370033 
-0.119387 8.92409 -0.0839094 
0.370033 -0.0839094 9.6736 
9.6353 0.0137006 0.940474 
0.0137006 8.67001 0.00145005 
0.940474 0.00145005 9.74698 
8.98733 0.0167028 0.342164 
0.0167028 9.17423 -0.161152 
0.342164 -0.161152 9.89073 
9.31383 -0.122513 0.623728 
-0.122513 9.1466 0.0541648 
0.623728 0.0541648 9.59186 
9.95816 0.0118189 -0.459366 
0.0118189 9.95712 -0.124057 
-0.459366 -0.124057 9.94586 
9.91761 0.014283 -0.482128 
0.014283 9.92272 -0.117221 
-0.482128 -0.117221 10.0208 
9.90398 0.0012262 -0.485404 
0.0012262 9.96262 -0.104587 
-0.485404 -0.104587 9.99453 
9.93976 0.0308393 -0.440765 
0.0308393 9.96314 -0.103671 
-0.440765 -0.103671 9.95823 
9.30933 0.0091499 0.0221552 
0.0091499 9.68294 0.0844361 
0.0221552 0.0844361 9.78634 
9.22135 -0.0241704 -0.0509568 
-0.0241704 9.73973 -0.0330106 
-0.0509568 -0.0330106 9.81753 
9.33229 0.00442931 -0.102705 
0.00442931 9.76492 0.137018 
-0.102705 0.137018 9.68139 
9.38146 -0.0603736 -0.112551 
-0.0603736 9.69531 0.0981439 
-0.112551 0.0981439 9.70184 
9.75212 0.0490912 -0.164857 
0.0490912 9.75258 0.507897 
-0.164857 0.507897 9.639 
9.77345 0.0276189 -0.180911 
0.0276189 9.81402 0.587637 
-0.180911 0.587637 9.55623 
9.73487 0.0237532 -0.166448 
0.0237532 9.77562 0.595863 
-0.166448 0.595863 9.63321 
9.74474 0.00852243 -0.168154 
0.00852243 9.77605 0.597279 
-0.168154 0.597279 9.62291 
9.32842 -0.190419 -0.0259136 
-0.190419 8.33418 0.194619 
-0.0259136 0.194619 9.68344 
9.05035 0.278566 -0.0423679 
0.278566 9.00376 0.358167 
-0.0423679 0.358167 9.29192 
8.78336 0.277957 -0.0209614 
0.277957 9.24524 0.454512 
-0.0209614 0.454512 9.31743 
9.12261 0.410875 0.26533 
0.410875 8.63105 0.582621 
0.26533 0.582621 9.59237 
12.2784 -0.13636 0.262718 
-0.13636 10.8719 0.648207 
0.262718 0.648207 12.8047 
11.9017 -0.608391 0.530272 
-0.608391 10.4822 1.0512 
0.530272 1.0512 13.5711 
12.788 -0.48404 0.329826 
-0.48404 10.9266 0.478551 
0.329826 0.478551 12.2405 
12.1708 -0.609571 0.0225405 
-0.609571 11.0513 0.585895 
0.0225405 0.585895 12.7329 
9.1839 -0.0239958 -0.409205 
-0.0239958 9.55537 0.41966 
-0.409205 0.41966 9.38192 
9.12826 0.136836 -0.582309 
0.136836 9.55761 0.2759 
-0.582309 0.2759 9.43533 
9.18006 -0.0550887 -0.677095 
-0.0550887 9.62392 0.286311 
-0.677095 0.286311 9.31722 
9.32743 0.0138435 -0.230938 
0.0138435 9.36818 0.362524 
-0.230938 0.362524 9.42559 
9.86928 -0.0646245 -0.201591 
-0.0646245 9.70715 0.00942045 
-0.201591 0.00942045 9.94946 
10.0147 -0.100257 -0.256679 
-0.100257 9.7655 0.149353 
-0.256679 0.149353 9.74573 
9.85782 -0.0287961 -0.259977 
-0.0287961 9.82054 0.0695294 
-0.259977 0.0695294 9.84754 
9.8166 -0.0147374 -0.312817 
-0.0147374 9.87132 0.0788446 
-0.312817 0.0788446 9.83797 
6.17099 -0.593928 0.376541 
-0.593928 8.1485 1.28868 
0.376541 1.28868 8.30199 
7.53752 -0.955969 1.98356 
-0.955969 8.34708 1.01778 
1.98356 1.01778 6.73688 
7.23336 -0.219132 0.927484 
-0.219132 8.31061 -0.638947 
0.927484 -0.638947 7.07751 
7.51162 -0.0441084 1.2797 
-0.0441084 7.52298 1.40294 
1.2797 1.40294 7.58688 
9.94893 -0.0102348 0.2457 
-0.0102348 9.94821 -0.0197405 
0.2457 -0.0197405 9.96203 
9.89028 -0.0346686 0.275124 
-0.0346686 9.90484 -0.0546785 
0.275124 -0.0546785 10.064 
9.95869 -0.0157439 0.229091 
-0.0157439 9.9886 -0.0349604 
0.229091 -0.0349604 9.91187 
9.96652 -0.0118737 0.229116 
-0.0118737 9.94229 0.0143609 
0.229116 0.0143609 9.95035 
9.70656 -0.0770075 0.008108 
-0.0770075 9.47208 0.105925 
0.008108 0.105925 9.72605 
9.82606 -0.0453767 -0.0364699 
-0.0453767 9.5299 0.0317316 
-0.0364699 0.0317316 9.54873 
9.63609 -0.0750143 -0.00114207 
-0.0750143 9.53345 0.0404895 
-0.00114207 0.0404895 9.73514 
9.80824 -0.0877848 0.12746 
-0.0877848 9.41652 -0.00243617 
0.12746 -0.00243617 9.67993 
9.33956 0.139352 -0.507288 
0.139352 9.09899 -0.0619877 
-0.507288 -0.0619877 9.74392 
9.30145 0.0305526 -0.542698 
0.0305526 9.18133 -0.0113321 
-0.542698 -0.0113321 9.69969 
9.29144 0.078294 -0.530781 
0.078294 9.30153 0.0734244 
-0.530781 0.0734244 9.5895 
9.34722 -0.155678 -0.729041 
-0.155678 9.28695 -0.0566996 
-0.729041 -0.0566996 9.5483 
9.78293 0.0127939 -0.461389 
0.0127939 9.78211 0.0120304 
-0.461389 0.0120304 9.9039 
9.80403 0.0273134 -0.467919 
0.0273134 9.79735 0.00717496 
-0.467919 0.00717496 9.86756 
9.80852 0.027091 -0.449833 
0.027091 9.78139 -0.000289657 
-0.449833 -0.000289657 9.87903 
9.81146 0.0292281 -0.432066 
0.0292281 9.83471 -0.0171385 
-0.432066 -0.0171385 9.82276 
9.25004 0.0803464 -0.521633 
0.0803464 9.58408 -0.116441 
-0.521633 -0.116441 9.59691 
9.27617 0.135202 -0.487066 
0.135202 9.58088 -0.00925667 
-0.487066 -0.00925667 9.57399 
9.29158 0.0891224 -0.450352 
0.0891224 9.53246 -0.0937466 
-0.450352 -0.0937466 9.607 
9.31807 0.0491464 -0.366926 
0.0491464 9.38634 -0.227784 
-0.366926 -0.227784 9.72663 
8.89105 -0.0380455 -0.519005 
-0.0380455 9.48891 -0.281092 
-0.519005 -0.281092 9.48483 
9.09731 0.304816 -0.759781 
0.304816 9.53913 -0.294294 
-0.759781 -0.294294 9.22836 
8.90894 -0.0646058 -0.465121 
-0.0646058 9.59814 -0.332975 
-0.465121 -0.332975 9.35772 
9.18961 0.0440439 -0.562537 
0.0440439 9.59132 -0.154173 
-0.562537 -0.154173 9.08387 
8.91744 0.0257528 -0.518711 
0.0257528 9.51893 0.348576 
-0.518711 0.348576 9.39963 
8.96492 -0.116564 -0.738372 
-0.116564 9.51003 0.113209 
-0.738372 0.113209 9.36107 
9.19957 0.251147 -0.45387 
0.251147 9.25939 0.191879 
-0.45387 0.191879 9.37705 
8.95482 -0.119036 -0.504345 
-0.119036 9.60915 0.202244 
-0.504345 0.202244 9.27204 
9.84614 0.0177296 0.252673 
0.0177296 9.88988 0.378484 
0.252673 0.378484 9.80413 
9.85035 0.00801164 0.243989 
0.00801164 9.86499 0.396356 
0.243989 0.396356 9.82481 
9.88949 0.00369981 0.24507 
0.00369981 9.88323 0.3759 
0.24507 0.3759 9.76743 
9.86604 0.010804 0.230522 
0.010804 9.88381 0.389366 
0.230522 0.389366 9.79029 
9.19053 -0.198026 0.154655 
-0.198026 9.36108 -0.689183 
0.154655 -0.689183 7.99494 
8.08536 -0.446984 -0.742617 
-0.446984 7.94525 -0.6615 
-0.742617 -0.6615 10.5159 
8.55076 -0.225254 -0.180331 
-0.225254 8.49044 -1.3026 
-0.180331 -1.3026 9.50534 
8.92561 -0.259383 -0.407402 
-0.259383 8.37434 -1.5502 
-0.407402 -1.5502 9.2466 
8.80374 0.157739 0.795411 
0.157739 9.00712 -0.762886 
0.795411 -0.762886 8.65403 
8.6777 0.0756092 0.765598 
0.0756092 9.10642 -0.559792 
0.765598 -0.559792 8.68077 
8.8309 0.24351 0.632193 
0.24351 9.56484 -0.585152 
0.632193 -0.585152 8.06915 
8.56979 0.109286 0.765954 
0.109286 8.93642 -0.38246 
0.765954 -0.38246 8.95868 
9.81483 0.00626648 -0.44798 
0.00626648 9.804 0.113888 
-0.44798 0.113888 9.8797 
9.80012 0.00999149 -0.44282 
0.00999149 9.84331 0.0945856 
-0.44282 0.0945856 9.8551 
9.79228 0.00875537 -0.49441 
0.00875537 9.81931 0.108807 
-0.49441 0.108807 9.88693 
9.80103 0.0217178 -0.49553 
0.0217178 9.82513 0.114138 
-0.49553 0.114138 9.87236 
9.79016 0.00151019 -0.387677 
0.00151019 9.7051 0.0256347 
-0.387677 0.0256347 9.81903 
9.80494 -0.0258824 -0.378289 
-0.0258824 9.71575 0.0364812 
-0.378289 0.0364812 9.7936 
9.79581 -0.0243393 -0.387666 
-0.0243393 9.73542 0.0418324 
-0.387666 0.0418324 9.78307 
9.84392 -0.00536515 -0.355382 
-0.00536515 9.73378 0.0570201 
-0.355382 0.0570201 9.7366 
9.91966 0.00369727 0.29768 
0.00369727 9.96723 -0.296902 
0.29768 -0.296902 10.0079 
9.91623 5.99628e-05 0.26215 
5.99628e-05 9.91803 -0.323334 
0.26215 -0.323334 10.0606 
9.98113 -0.00500728 0.293774 
-0.00500728 10.0438 -0.323884 
0.293774 -0.323884 9.8699 
9.94617 -0.0392392 0.258675 
-0.0392392 10.0251 -0.240605 
0.258675 -0.240605 9.92361 
10.0433 -0.424562 -0.335902 
-0.424562 6.85039 -0.63821 
-0.335902 -0.63821 5.97786 
7.2834 -0.494258 -1.43835 
-0.494258 7.84656 -0.50321 
-1.43835 -0.50321 7.74161 
9.19976 0.0430449 0.0134125 
0.0430449 8.84328 -1.15925 
0.0134125 -1.15925 4.82854 
9.15723 0.117736 -0.150018 
0.117736 8.2852 -1.06056 
-0.150018 -1.06056 5.42915 
9.7997 0.127408 -0.0956815 
0.127408 9.83171 -0.370792 
-0.0956815 -0.370792 9.84791 
9.84883 0.027264 0.0200811 
0.027264 9.82919 -0.330439 
0.0200811 -0.330439 9.80131 
9.83931 0.0108924 -0.0522692 
0.0108924 9.85459 -0.35021 
-0.0522692 -0.35021 9.78542 
9.83759 0.0595974 0.0980037 
0.0595974 9.8956 -0.307748 
0.0980037 -0.307748 9.74614 
5.7691 1.71783 -0.751972 
1.71783 5.75472 0.0568767 
-0.751972 0.0568767 0.000150107 
5.3481 0.772751 -0.612391 
0.772751 5.11517 0.718878 
-0.612391 0.718878 1.06069 
6.33021 1.20656 -0.825699 
1.20656 5.0789 0.878019 
-0.825699 0.878019 0.114855 
4.1914 0.566583 -2.04461 
0.566583 4.95181 1.48718 
-2.04461 1.48718 2.38076 
9.87424 -0.0107831 -0.392515 
-0.0107831 9.81333 0.0353727 
-0.392515 0.0353727 9.95116 
9.87487 0.00856258 -0.452561 
0.00856258 9.86308 0.0701437 
-0.452561 0.0701437 9.90077 
9.85653 -0.00957104 -0.445472 
-0.00957104 9.84969 0.0642559 
-0.445472 0.0642559 9.9325 
9.86817 0.0121436 -0.410027 
0.0121436 9.85338 0.0293166 
-0.410027 0.0293166 9.91718 
9.65619 0.0142779 -0.0241241 
0.0142779 9.87048 -0.307206 
-0.0241241 -0.307206 9.46655 
9.57415 -0.0352159 0.022088 
-0.0352159 9.91135 -0.308232 
0.022088 -0.308232 9.5077 
9.60992 0.0178937 -0.000957655 
0.0178937 9.89675 -0.332769 
-0.000957655 -0.332769 9.48654 
9.69762 -0.0191023 -0.052371 
-0.0191023 9.77292 -0.247413 
-0.052371 -0.247413 9.52268 
9.93685 0.0307441 0.214706 
0.0307441 8.06975 -0.265133 
0.214706 -0.265133 11.7677 
9.89768 -0.098517 0.4637 
-0.098517 8.24181 -0.611963 
0.4637 -0.611963 11.6348 
10.4482 -0.246258 0.378456 
-0.246258 8.78636 -0.390196 
0.378456 -0.390196 10.5398 
9.9932 0.154122 0.40194 
0.154122 8.51809 -0.20362 
0.40194 -0.20362 11.263 
8.70666 -0.00406686 0.635751 
-0.00406686 9.56257 -0.199979 
0.635751 -0.199979 9.50833 
9.05201 -0.25771 -0.0872496 
-0.25771 9.21888 -0.0227989 
-0.0872496 -0.0227989 9.50667 
8.17116 -0.297988 0.610328 
-0.297988 9.59826 -0.277581 
0.610328 -0.277581 10.0081 
8.95676 -0.137948 0.830305 
-0.137948 9.47247 -0.14634 
0.830305 -0.14634 9.34833 
8.3789 0.447123 -0.553826 
0.447123 8.3389 0.862124 
-0.553826 0.862124 7.9806 
8.42045 0.40169 -0.836231 
0.40169 8.55694 0.576758 
-0.836231 0.576758 7.721 
8.40474 0.445332 -0.55796 
0.445332 8.18543 1.11714 
-0.55796 1.11714 8.10823 
8.31423 0.180656 -0.488269 
0.180656 8.05642 1.1094 
-0.488269 1.1094 8.32775 
9.17429 0.497702 -1.38072 
0.497702 8.77485 0.0178576 
-1.38072 0.0178576 9.05537 
8.86936 0.315336 -0.812857 
0.315336 9.03845 0.342879 
-0.812857 0.342879 9.0967 
9.01843 0.236561 -0.898833 
0.236561 8.86065 0.287103 
-0.898833 0.287103 9.12543 
8.55577 0.258932 -0.946591 
0.258932 9.13605 0.240039 
-0.946591 0.240039 9.3127 
9.22737 0.0935943 -0.582907 
0.0935943 9.42956 0.238065 
-0.582907 0.238065 9.66231 
9.28238 0.0668801 -0.57249 
0.0668801 9.3926 0.122508 
-0.57249 0.122508 9.64425 
9.21822 0.0223325 -0.532393 
0.0223325 9.3862 0.174062 
-0.532393 0.174062 9.71482 
9.11794 0.0766874 -0.45492 
0.0766874 9.27055 0.193544 
-0.45492 0.193544 9.93074 
8.26433 -0.107703 1.12185 
-0.107703 9.37564 -0.342746 
1.12185 -0.342746 9.01146 
7.99662 -0.47008 0.872213 
-0.47008 9.51962 -0.108542 
0.872213 -0.108542 9.13519 
8.39606 -0.0807044 1.36997 
-0.0807044 9.38489 0.250417 
1.36997 0.250417 8.87048 
8.50764 0.316945 0.83924 
0.316945 9.14185 -0.0786873 
0.83924 -0.0786873 9.00193 
9.85417 0.0528421 0.127605 
0.0528421 9.5873 0.0902511 
0.127605 0.0902511 9.88823 
9.76542 0.213521 -0.176013 
0.213521 9.76849 0.224802 
-0.176013 0.224802 9.7958 
9.76345 0.104498 0.0129989 
0.104498 9.56818 0.095636 
0.0129989 0.095636 9.99808 
9.65611 0.214866 0.100026 
0.214866 9.58384 0.19457 
0.100026 0.19457 10.0898 
6.10896 0.757721 0.298744 
0.757721 4.34276 1.72359 
0.298744 1.72359 1.71593 
4.90077 -0.642768 0.0225635 
-0.642768 4.69311 1.73925 
0.0225635 1.73925 2.57377 
7.73526 -1.41343 -0.165165 
-1.41343 8.63308 4.25463 
-0.165165 4.25463 -4.2007 
3.82271 -0.958677 -1.94217 
-0.958677 4.24232 1.81225 
-1.94217 1.81225 4.10261 
6.29969 -0.150181 -1.29686 
-0.150181 11.5974 0.958409 
-1.29686 0.958409 17.6495 
10.0337 2.14478 -2.25487 
2.14478 8.2295 1.92986 
-2.25487 1.92986 17.2834 
12.0535 -3.03738 3.20868 
-3.03738 14.3241 -0.811772 
3.20868 -0.811772 9.16895 
7.34451 1.24359 -0.300157 
1.24359 12.5266 -2.73778 
-0.300157 -2.73778 15.6755 
9.88642 -0.0150928 0.0214495 
-0.0150928 9.89428 0.0810127 
0.0214495 0.0810127 10.0263 
9.93083 -0.00771229 0.0274826 
-0.00771229 9.93451 0.0457663 
0.0274826 0.0457663 9.94168 
9.91896 0.000571575 0.0122276 
0.000571575 9.92761 0.0480501 
0.0122276 0.0480501 9.96045 
9.94516 -0.0109663 0.0289582 
-0.0109663 9.92555 0.0179652 
0.0289582 0.0179652 9.93631 
9.60105 -0.0363241 -0.32907 
-0.0363241 9.59124 0.230912 
-0.32907 0.230912 9.42816 
9.67433 -0.0177111 -0.250249 
-0.0177111 9.5798 0.243923 
-0.250249 0.243923 9.36631 
9.61062 0.00498757 -0.450096 
0.00498757 9.61383 0.234545 
-0.450096 0.234545 9.396 
9.47021 -0.0441058 -0.372637 
-0.0441058 9.55804 0.258798 
-0.372637 0.258798 9.5922 
6.83175 -1.86064 -0.0569308 
-1.86064 9.78 -0.333851 
-0.0569308 -0.333851 15.0156 
10.0538 -1.22891 -1.26903 
-1.22891 11.9684 -0.417117 
-1.26903 -0.417117 9.60517 
4.7932 -1.35166 -0.579162 
-1.35166 9.73716 0.663902 
-0.579162 0.663902 17.097 
8.56041 -0.348819 1.61511 
-0.348819 10.3734 -0.205412 
1.61511 -0.205412 12.6935 
5.14842 -1.94145 -1.15807 
-1.94145 5.14623 -2.89489 
-1.15807 -2.89489 4.61425 
4.9501 1.14014 -2.92406 
1.14014 6.12087 -1.67506 
-2.92406 -1.67506 3.83793 
5.07562 -0.465466 -1.88528 
-0.465466 5.28436 -2.96023 
-1.88528 -2.96023 4.54891 
5.49127 -0.608135 -2.32082 
-0.608135 5.78154 -2.92727 
-2.32082 -2.92727 3.63608 
9.84468 -0.00921917 -0.254627 
-0.00921917 9.8585 -0.434812 
-0.254627 -0.434812 10.125 
9.98789 0.0288888 -0.188472 
0.0288888 9.97406 -0.354008 
-0.188472 -0.354008 9.86622 
9.98718 -0.0102695 -0.210443 
-0.0102695 9.92676 -0.397577 
-0.210443 -0.397577 9.91422 
9.98656 0.0329143 -0.243786 
0.0329143 9.99663 -0.382415 
-0.243786 -0.382415 9.84499 
9.71425 -0.0575032 -0.405064 
-0.0575032 9.73894 0.0798811 
-0.405064 0.0798811 9.66524 
9.68384 -0.0487509 -0.410563 
-0.0487509 9.7346 0.236847 
-0.410563 0.236847 9.69999 
9.70325 -0.043245 -0.408487 
-0.043245 9.69813 0.199748 
-0.408487 0.199748 9.71705 
9.6786 -0.0022445 -0.30352 
-0.0022445 9.63709 0.253178 
-0.30352 0.253178 9.80274 
9.72758 -0.0332991 -0.0616273 
-0.0332991 9.73251 0.0267699 
-0.0616273 0.0267699 9.7928 
9.73711 -0.129494 0.0449067 
-0.129494 9.67585 -0.0347537 
0.0449067 -0.0347537 9.83993 
9.73277 -0.00396662 0.032019 
-0.00396662 9.76894 -0.0290045 
0.032019 -0.0290045 9.75118 
9.75327 -0.0613744 0.0148134 
-0.0613744 9.66137 -0.00612379 
0.0148134 -0.00612379 9.83825 
9.82287 -0.0202448 -0.193912 
-0.0202448 9.95637 -0.362087 
-0.193912 -0.362087 9.75932 
9.97795 -0.00274047 -0.171456 
-0.00274047 9.87305 -0.43447 
-0.171456 -0.43447 9.68757 
9.91112 -0.000653572 -0.13527 
-0.000653572 9.68966 -0.362032 
-0.13527 -0.362032 9.93779 
9.82552 0.00779285 -0.234478 
0.00779285 9.93548 -0.397066 
-0.234478 -0.397066 9.77758 
9.15246 -0.002477 -0.313782 
-0.002477 9.58299 0.166679 
-0.313782 0.166679 9.73886 
9.42557 -0.161277 -0.500828 
-0.161277 9.45856 0.214153 
-0.500828 0.214153 9.59018 
9.18754 0.0765776 -0.435572 
0.0765776 9.49065 0.175242 
-0.435572 0.175242 9.79612 
9.129 0.0310853 -0.467217 
0.0310853 9.52146 0.197514 
-0.467217 0.197514 9.82384 
10.1056 -0.189479 0.0610701 
-0.189479 9.88671 0.352817 
0.0610701 0.352817 10.6415 
10.5113 0.114694 0.20917 
0.114694 10.3859 -0.248326 
0.20917 -0.248326 9.73667 
10.1609 -0.0776332 0.109876 
-0.0776332 10.1079 0.0457929 
0.109876 0.0457929 10.365 
10.5187 -0.0685601 -0.145591 
-0.0685601 9.50698 -0.0311271 
-0.145591 -0.0311271 10.6081 
9.73083 -0.0262361 -0.380333 
-0.0262361 9.57502 0.0987498 
-0.380333 0.0987498 9.64335 
9.61879 -0.0249137 -0.389858 
-0.0249137 9.53723 0.179462 
-0.389858 0.179462 9.79319 
9.7027 0.0169249 -0.326299 
0.0169249 9.57989 0.134182 
-0.326299 0.134182 9.66662 
9.6864 -0.0327627 -0.370931 
-0.0327627 9.54454 0.101528 
-0.370931 0.101528 9.71827 
9.03626 0.190321 -0.556712 
0.190321 9.61378 -0.0641894 
-0.556712 -0.0641894 9.44345 
9.10866 0.118163 -0.489788 
0.118163 9.45354 -0.0234796 
-0.489788 -0.0234796 9.53129 
9.31253 -0.0159808 -0.529111 
-0.0159808 9.42159 -0.0829122 
-0.529111 -0.0829122 9.35937 
9.03124 0.170034 -0.669502 
0.170034 9.59115 -0.048294 
-0.669502 -0.048294 9.4711 
9.55476 0.00288577 -0.500001 
0.00288577 9.61007 0.0291172 
-0.500001 0.0291172 9.81751 
9.57289 0.0378977 -0.457087 
0.0378977 9.62321 0.0314933 
-0.457087 0.0314933 9.78624 
9.527 -0.00630383 -0.561592 
-0.00630383 9.61647 0.0787573 
-0.561592 0.0787573 9.83887 
9.56471 -0.0113652 -0.4776 
-0.0113652 9.59794 0.0474888 
-0.4776 0.0474888 9.81969 
7.95745 0.102572 -1.27582 
0.102572 6.91198 1.58626 
-1.27582 1.58626 1.54843 
6.03072 -0.853912 -0.991058 
-0.853912 7.2563 2.96585 
-0.991058 2.96585 3.13084 
8.34373 1.3886 -2.46276 
1.3886 6.05551 1.32791 
-2.46276 1.32791 2.01862 
8.25566 -0.840112 -2.24234 
-0.840112 6.17158 2.98885 
-2.24234 2.98885 1.99062 
9.52317 0.0714085 -0.453713 
0.0714085 9.63618 0.151812 
-0.453713 0.151812 9.69065 
9.51675 0.0283564 -0.425966 
0.0283564 9.56085 0.103663 
-0.425966 0.103663 9.77239 
9.53443 0.0253753 -0.437606 
0.0253753 9.56933 0.123691 
-0.437606 0.123691 9.74624 
9.54937 -0.0367471 -0.422832 
-0.0367471 9.59061 0.183327 
-0.422832 0.183327 9.71002 
9.49455 0.0345779 -0.47949 
0.0345779 9.48841 0.131444 
-0.47949 0.131444 9.73243 
9.29758 0.0463111 -0.433023 
0.0463111 9.54488 0.103871 
-0.433023 0.103871 9.87294 
9.41541 0.0131037 -0.37841 
0.0131037 9.551 0.0914414 
-0.37841 0.0914414 9.74898 
9.4077 0.0297811 -0.421976 
0.0297811 9.53838 0.0909388 
-0.421976 0.0909388 9.76931 
9.88964 0.0150156 -0.251493 
0.0150156 9.85004 -0.535672 
-0.251493 -0.535672 9.84322 
9.90169 0.00355844 -0.207349 
0.00355844 9.81718 -0.579334 
-0.207349 -0.579334 9.86403 
9.78383 0.00577422 -0.256831 
0.00577422 9.85232 -0.450081 
-0.256831 -0.450081 9.94675 
9.84182 -0.0376269 -0.256682 
-0.0376269 10.0047 -0.598982 
-0.256682 -0.598982 9.73636 
9.0596 0.0901598 0.776858 
0.0901598 9.56879 -0.321714 
0.776858 -0.321714 8.97341 
9.03398 -0.214164 0.787568 
-0.214164 9.60341 -0.162591 
0.787568 -0.162591 8.96442 
9.13636 0.0415921 0.784571 
0.0415921 9.55349 -0.296743 
0.784571 -0.296743 8.91195 
9.11732 0.05614 0.645476 
0.05614 9.3828 -0.272955 
0.645476 -0.272955 9.1017 
8.9192 0.0842868 -0.714916 
0.0842868 9.4909 0.50503 
-0.714916 0.50503 9.55674 
8.82258 0.142832 -0.896396 
0.142832 10.265 0.232859 
-0.896396 0.232859 8.87926 
9.01203 0.343153 -0.876917 
0.343153 9.35974 0.618028 
-0.876917 0.618028 9.59507 
8.93825 -0.119534 -0.0380215 
-0.119534 9.52596 0.250741 
-0.0380215 0.250741 9.50263 
9.40202 -0.0815121 -2.6591 
-0.0815121 7.71799 1.03502 
-2.6591 1.03502 9.22919 
10.1306 0.636779 -1.41167 
0.636779 7.30769 -0.951858 
-1.41167 -0.951858 8.91093 
8.20306 -0.897504 2.42172 
-0.897504 8.8533 -1.23333 
2.42172 -1.23333 9.29283 
10.3586 0.465825 0.401786 
0.465825 5.91149 2.43583 
0.401786 2.43583 10.0791 
9.6716 0.234932 0.463988 
0.234932 9.4771 -0.00383774 
0.463988 -0.00383774 9.19386 
9.44967 0.281171 0.66719 
0.281171 9.32127 -0.158227 
0.66719 -0.158227 9.57161 
9.30816 0.454911 0.407222 
0.454911 9.30185 -0.140536 
0.407222 -0.140536 9.73255 
9.41064 0.137897 0.500391 
0.137897 9.52065 -0.0123612 
0.500391 -0.0123612 9.41127 
9.44242 0.00492589 -0.494226 
0.00492589 9.26327 0.407657 
-0.494226 0.407657 10.0772 
9.24975 -0.0295774 -0.415753 
-0.0295774 9.44109 0.0260271 
-0.415753 0.0260271 10.092 
9.2599 -0.171571 -0.55425 
-0.171571 9.27096 0.323262 
-0.55425 0.323262 10.252 
8.98513 -0.00639327 -0.346402 
-0.00639327 9.2728 0.2345 
-0.346402 0.2345 10.5249 
9.19945 -0.19772 0.650635 
-0.19772 9.37259 0.217665 
0.650635 0.217665 9.31786 
8.98445 -0.196634 0.362732 
-0.196634 9.23566 0.171989 
0.362732 0.171989 9.66978 
9.29064 -0.0755199 0.541135 
-0.0755199 9.28024 0.107534 
0.541135 0.107534 9.31901 
9.30404 -0.149585 0.640026 
-0.149585 9.25448 0.0343948 
0.640026 0.0343948 9.33138 
9.82707 0.0568737 0.143194 
0.0568737 9.84314 0.340981 
0.143194 0.340981 9.84598 
9.82116 -0.0203287 0.173513 
-0.0203287 9.87703 0.332749 
0.173513 0.332749 9.81801 
9.89803 0.0944709 0.156408 
0.0944709 9.88172 0.356376 
0.156408 0.356376 9.73644 
9.78911 -0.0162772 0.114288 
-0.0162772 9.9289 0.278108 
0.114288 0.278108 9.79819 
9.47757 0.110149 0.429148 
0.110149 9.66056 -0.473926 
0.429148 -0.473926 9.55034 
9.48634 0.0267592 0.363887 
0.0267592 9.69896 -0.464659 
0.363887 -0.464659 9.50316 
9.39694 -0.0301909 0.548119 
-0.0301909 9.88735 -0.396157 
0.548119 -0.396157 9.40418 
9.61875 -0.0304014 0.175671 
-0.0304014 9.59293 -0.432497 
0.175671 -0.432497 9.47678 
9.6053 0.375684 -0.258156 
0.375684 10.1571 0.132495 
-0.258156 0.132495 10.9356 
10.3561 0.0514905 -0.0351379 
0.0514905 9.63866 0.452274 
-0.0351379 0.452274 10.7033 
9.65794 0.20252 -0.0576509 
0.20252 9.76749 -0.0594036 
-0.0576509 -0.0594036 11.2726 
9.55308 0.351357 -0.325687 
0.351357 10.0967 0.191038 
-0.325687 0.191038 11.0482 
9.88694 0.0307847 0.329155 
0.0307847 9.87093 -0.0586276 
0.329155 -0.0586276 10.0319 
9.93286 -0.0384715 0.356735 
-0.0384715 9.87705 -0.0545245 
0.356735 -0.0545245 9.97988 
9.94447 -0.0346994 0.341307 
-0.0346994 9.87316 -0.0481768 
0.341307 -0.0481768 9.97216 
9.9296 -0.0126217 0.339827 
-0.0126217 9.88132 -0.0667162 
0.339827 -0.0667162 9.97888 
8.53215 -0.0881183 -0.280043 
-0.0881183 8.22496 -0.192506 
-0.280043 -0.192506 9.84638 
8.32136 -0.200361 0.0236694 
-0.200361 9.31267 -0.596767 
0.0236694 -0.596767 8.96946 
8.69379 -0.253103 -0.210641 
-0.253103 8.92192 -0.496766 
-0.210641 -0.496766 8.98777 
8.71359 -0.405345 0.162814 
-0.405345 8.33081 -0.613513 
0.162814 -0.613513 9.55908 
9.77133 -0.0394011 1.03351 
-0.0394011 8.09066 -0.470068 
1.03351 -0.470068 7.25573 
8.01121 0.845093 1.7558 
0.845093 9.75624 -0.943128 
1.7558 -0.943128 7.35028 
8.61619 0.070314 1.26934 
0.070314 8.67907 -0.144426 
1.26934 -0.144426 7.82246 
9.19251 0.0104091 1.14642 
0.0104091 7.9476 -0.852927 
1.14642 -0.852927 7.97762 
9.89801 -0.0442362 0.372169 
-0.0442362 9.84564 -0.0328534 
0.372169 -0.0328534 9.78593 
9.84943 -0.0544408 0.376997 
-0.0544408 9.79365 -0.0592338 
0.376997 -0.0592338 9.88649 
9.82449 -0.0575531 0.380275 
-0.0575531 9.75312 -0.10948 
0.380275 -0.10948 9.95197 
9.85035 -0.0245373 0.358645 
-0.0245373 9.79309 -0.0475895 
0.358645 -0.0475895 9.88614 
9.66932 0.126029 0.624197 
0.126029 9.68766 -0.0331405 
0.624197 -0.0331405 9.52714 
9.65379 0.00150104 0.502503 
0.00150104 9.60316 0.0922525 
0.502503 0.0922525 9.62717 
9.58722 0.0157676 0.560372 
0.0157676 9.64703 0.225451 
0.560372 0.225451 9.64987 
9.63501 0.0217863 0.550034 
0.0217863 9.64431 0.124559 
0.550034 0.124559 9.6048 
9.48284 -0.0275251 0.0196281 
-0.0275251 9.94521 -0.0654317 
0.0196281 -0.0654317 9.89048 
9.64095 0.00746811 0.103279 
0.00746811 9.75149 -0.00442603 
0.103279 -0.00442603 9.9261 
10.0807 0.161208 0.0577297 
0.161208 9.50928 0.0314332 
0.0577297 0.0314332 9.72855 
9.94764 -0.152641 0.166077 
-0.152641 9.45099 0.0124014 
0.166077 0.0124014 9.91991 
9.56841 -0.0467893 -0.463202 
-0.0467893 9.56652 0.174503 
-0.463202 0.174503 9.59134 
9.50832 -0.0234427 -0.421867 
-0.0234427 9.58001 0.229305 
-0.421867 0.229305 9.63794 
9.48734 -0.0773958 -0.471246 
-0.0773958 9.67816 0.283989 
-0.471246 0.283989 9.56078 
9.50147 0.0251981 -0.427796 
0.0251981 9.58585 0.184827 
-0.427796 0.184827 9.63896 
9.32108 0.0944175 -0.123925 
0.0944175 9.55972 0.317973 
-0.123925 0.317973 9.77587 
9.57634 -0.0918021 -0.335231 
-0.0918021 9.58155 -0.1747 
-0.335231 -0.1747 9.49878 
9.26703 0.0443528 -0.422644 
0.0443528 9.64078 0.0593298 
-0.422644 0.0593298 9.74885 
9.42842 0.0596746 -0.491184 
0.0596746 9.33696 0.338566 
-0.491184 0.338566 9.89128 
9.58946 0.144709 -0.374721 
0.144709 9.76317 0.321731 
-0.374721 0.321731 9.61014 
9.56296 -0.00305752 -0.427047 
-0.00305752 9.72864 0.360988 
-0.427047 0.360988 9.67118 
9.61624 -0.029796 -0.280867 
-0.029796 9.42294 0.426765 
-0.280867 0.426765 9.9236 
9.48417 -0.0948056 -0.51368 
-0.0948056 9.74917 0.367748 
-0.51368 0.367748 9.72943 
8.93864 0.00327716 0.388122 
0.00327716 8.91198 0.990663 
0.388122 0.990663 8.34065 
9.58771 -0.454144 0.409091 
-0.454144 8.7304 1.05729 
0.409091 1.05729 7.87317 
8.47328 -0.209475 1.12828 
-0.209475 9.43505 0.983815 
1.12828 0.983815 8.28295 
8.97218 -0.25724 0.234776 
-0.25724 8.7006 0.95439 
0.234776 0.95439 8.51851 
8.61984 -0.261979 0.636514 
-0.261979 8.9864 0.454098 
0.636514 0.454098 9.20316 
8.34994 -0.111381 0.188433 
-0.111381 9.41193 0.550635 
0.188433 0.550635 9.04754 
9.04456 -0.429764 0.349724 
-0.429764 8.6212 0.440638 
0.349724 0.440638 9.14365 
8.80716 -0.397717 0.374086 
-0.397717 8.70087 0.709332 
0.374086 0.709332 9.30138 
9.98828 -0.000772758 -0.126338 
-0.000772758 10.0075 -0.338534 
-0.126338 -0.338534 9.87089 
9.93807 0.031867 -0.12115 
0.031867 10.0032 -0.354779 
-0.12115 -0.354779 9.92538 
9.84933 0.00219893 -0.113111 
0.00219893 9.87075 -0.340636 
-0.113111 -0.340636 10.1466 
9.98198 -0.014956 -0.119007 
-0.014956 10.0139 -0.405482 
-0.119007 -0.405482 9.87083 
9.06018 -0.150235 -0.41205 
-0.150235 9.68218 0.433753 
-0.41205 0.433753 9.28365 
9.27447 0.180022 -0.389663 
0.180022 9.41831 0.606761 
-0.389663 0.606761 9.33323 
9.27558 0.16581 -0.293349 
0.16581 9.39267 0.671192 
-0.293349 0.671192 9.35776 
9.23777 0.173129 -0.484879 
0.173129 9.62753 0.665334 
-0.484879 0.665334 9.1607 
8.85669 -0.0711753 0.2829 
-0.0711753 7.84265 0.944014 
0.2829 0.944014 9.23342 
8.19217 -0.479926 0.274918 
-0.479926 9.6818 1.07415 
0.274918 1.07415 8.05878 
8.81886 -0.353063 0.0695452 
-0.353063 8.11507 0.794092 
0.0695452 0.794092 8.99883 
8.60621 -0.176824 0.715336 
-0.176824 8.73517 0.170859 
0.715336 0.170859 8.59137 
4.41582 -0.268252 -0.571224 
-0.268252 2.34258 -0.663215 
-0.571224 -0.663215 0.0325138 
1.9406 -0.21096 -1.10606 
-0.21096 2.30759 -1.30483 
-1.10606 -1.30483 2.54274 
3.12832 -0.74902 -0.317936 
-0.74902 2.87858 -1.2293 
-0.317936 -1.2293 0.784016 
3.12836 0.133007 -0.995262 
0.133007 2.86282 -2.31098 
-0.995262 -2.31098 0.79974 
9.78456 -0.00625265 -0.235953 
-0.00625265 9.72186 -0.00886753 
-0.235953 -0.00886753 9.79332 
9.85717 -0.00342951 -0.197357 
-0.00342951 9.71468 0.0315143 
-0.197357 0.0315143 9.7279 
9.89328 -0.0244964 -0.20684 
-0.0244964 9.70776 -0.00872726 
-0.20684 -0.00872726 9.6987 
9.81537 0.0159335 -0.159297 
0.0159335 9.68728 -0.0187277 
-0.159297 -0.0187277 9.7971 
9.78624 -1.51037 0.165172 
-1.51037 8.52233 0.327907 
0.165172 0.327907 16.5869 
11.0111 -0.899162 0.792721 
-0.899162 12.6742 0.280002 
0.792721 0.280002 11.2101 
10.3959 0.629606 -0.064634 
0.629606 9.97587 0.0131019 
-0.064634 0.0131019 14.5237 
11.5628 -1.31845 -0.770797 
-1.31845 10.6321 1.11816 
-0.770797 1.11816 12.7006 
9.61843 1.01281 1.21449 
1.01281 9.90175 0.350508 
1.21449 0.350508 7.74534 
8.44292 -0.31842 0.716787 
-0.31842 9.51292 0.0470948 
0.716787 0.0470948 9.30968 
8.53985 -0.37201 0.62608 
-0.37201 9.01071 0.535619 
0.62608 0.535619 9.71496 
9.75252 0.364001 0.540314 
0.364001 8.79669 -0.806849 
0.540314 -0.806849 8.71631 
9.78435 0.0447068 -0.453153 
0.0447068 9.80041 -0.0462578 
-0.453153 -0.0462578 9.7973 
9.78428 0.000209365 -0.429429 
0.000209365 9.80697 -0.0716738 
-0.429429 -0.0716738 9.7908 
9.77928 0.0134148 -0.45809 
0.0134148 9.76819 -0.0513932 
-0.45809 -0.0513932 9.83458 
9.79505 0.0186893 -0.449126 
0.0186893 9.75451 -0.0376054 
-0.449126 -0.0376054 9.8325 
10.3094 0.330736 0.490716 
0.330736 10.2072 -0.0132985 
0.490716 -0.0132985 12.717 
10.9922 -0.00457681 0.176622 
-0.00457681 9.88211 0.391247 
0.176622 0.391247 12.3593 
11.2385 -0.0959915 0.348429 
-0.0959915 9.85064 0.16782 
0.348429 0.16782 12.1445 
10.5125 0.451191 0.0614196 
0.451191 10.6677 -0.301762 
0.0614196 -0.301762 12.0534 
9.46386 0.256776 0.260715 
0.256776 9.33696 -0.0474986 
0.260715 -0.0474986 9.72621 
9.76021 0.165902 0.677056 
0.165902 9.14381 -0.12717 
0.677056 -0.12717 9.62301 
9.59188 0.216821 0.294172 
0.216821 9.00878 -0.247559 
0.294172 -0.247559 9.92637 
9.21483 -0.268994 -0.0639791 
-0.268994 9.28851 -0.0169942 
-0.0639791 -0.0169942 10.0237 
9.89919 -0.0184485 -0.267131 
-0.0184485 9.86468 0.142476 
-0.267131 0.142476 9.91826 
9.85743 -0.039682 -0.294267 
-0.039682 9.85096 0.083591 
-0.294267 0.083591 9.97375 
9.92265 -0.0301175 -0.245765 
-0.0301175 9.85848 0.129997 
-0.245765 0.129997 9.90101 
9.87361 -0.0672889 -0.296765 
-0.0672889 9.87584 0.0490354 
-0.296765 0.0490354 9.93268 
9.66977 0.0979657 0.123536 
0.0979657 10.3266 -0.0957213 
0.123536 -0.0957213 10.6763 
9.91947 -0.0368973 0.143376 
-0.0368973 9.96585 -0.327983 
0.143376 -0.327983 10.7873 
10.3289 -0.324243 0.344644 
-0.324243 9.28225 -0.00102465 
0.344644 -0.00102465 11.0615 
9.87361 -0.278835 -0.0619044 
-0.278835 10.1096 -0.322037 
-0.0619044 -0.322037 10.6895 
9.90324 0.00643238 0.21565 
0.00643238 9.9388 0.386851 
0.21565 0.386851 10.0091 
9.95221 0.00795541 0.198504 
0.00795541 9.99473 0.418639 
0.198504 0.418639 9.90423 
9.90809 -0.0055303 0.191721 
-0.0055303 9.94181 0.432818 
0.191721 0.432818 10.0013 
9.95442 0.0247974 0.155838 
0.0247974 9.98442 0.401018 
0.155838 0.401018 9.91234 
9.93677 0.0119818 0.147772 
0.0119818 9.94468 -0.0674378 
0.147772 -0.0674378 9.93564 
9.8762 -0.0146908 0.13003 
-0.0146908 9.85973 -0.102308 
0.13003 -0.102308 10.0812 
9.95999 -0.0112793 0.147967 
-0.0112793 9.94446 -0.0693051 
0.147967 -0.0693051 9.91265 
9.97289 -0.0245308 0.15201 
-0.0245308 9.9269 -0.00898029 
0.15201 -0.00898029 9.91731 
9.17303 0.327069 0.121639 
0.327069 9.25617 -0.148049 
0.121639 -0.148049 9.53273 
9.25735 0.0772386 0.53277 
0.0772386 9.31179 -0.295244 
0.53277 -0.295244 9.39278 
9.13504 0.159545 0.468157 
0.159545 9.28969 -0.19633 
0.468157 -0.19633 9.5372 
9.2156 0.397479 0.30774 
0.397479 9.14154 -0.307069 
0.30774 -0.307069 9.60479 
10.9173 0.0339667 0.182641 
0.0339667 10.2974 0.535007 
0.182641 0.535007 12.2095 
12.0913 -0.386706 0.0295767 
-0.386706 11.0143 0.280265 
0.0295767 0.280265 10.3186 
10.8822 -0.0626168 0.452502 
-0.0626168 9.92624 0.0842737 
0.452502 0.0842737 12.6157 
10.9547 0.0839434 -0.736124 
0.0839434 10.5414 0.230846 
-0.736124 0.230846 11.9281 
9.29084 0.105771 -0.11269 
0.105771 9.56326 -0.786359 
-0.11269 -0.786359 8.9617 
9.49143 -0.00613924 0.0791173 
-0.00613924 9.59556 -0.65438 
0.0791173 -0.65438 8.72881 
9.45434 -0.15073 -0.0870381 
-0.15073 9.21694 -0.55992 
-0.0870381 -0.55992 9.14453 
9.27834 0.150361 -0.0336029 
0.150361 9.58261 -0.67707 
-0.0336029 -0.67707 8.95485 
7.8731 0.0196441 1.20317 
0.0196441 8.62969 -0.0341066 
1.20317 -0.0341066 3.58273 
7.63342 -0.178042 0.900464 
-0.178042 6.48559 -0.264831 
0.900464 -0.264831 5.96652 
7.60281 -0.448835 0.775778 
-0.448835 8.4317 0.477524 
0.775778 0.477524 4.05101 
7.52035 0.0984896 1.45442 
0.0984896 8.09826 0.0121379 
1.45442 0.0121379 4.46691 
9.54946 0.147941 -0.171446 
0.147941 9.30797 0.645938 
-0.171446 0.645938 9.41667 
9.41288 0.0319274 -0.189744 
0.0319274 9.8954 0.979048 
-0.189744 0.979048 8.96582 
9.42644 0.0438884 -0.0761253 
0.0438884 9.09011 0.646657 
-0.0761253 0.646657 9.75754 
9.49382 -0.0433264 -0.356561 
-0.0433264 9.704 0.534303 
-0.356561 0.534303 9.07628 
9.21626 -0.02946 -0.581607 
-0.02946 9.33876 -0.0709001 
-0.581607 -0.0709001 9.74369 
9.30133 0.0253385 -0.652275 
0.0253385 9.26166 -0.0611753 
-0.652275 -0.0611753 9.73572 
9.26246 0.00433396 -0.653249 
0.00433396 9.27161 -0.0809124 
-0.653249 -0.0809124 9.76464 
9.25784 -0.037776 -0.696048 
-0.037776 9.25046 -0.045451 
-0.696048 -0.045451 9.79041 
9.00024 -0.0233219 2.12278 
-0.0233219 7.61303 1.40311 
2.12278 1.40311 4.93047 
7.82467 0.109305 1.87141 
0.109305 6.8921 1.94848 
1.87141 1.94848 6.82696 
8.71775 -0.21934 0.750935 
-0.21934 8.16517 1.16152 
0.750935 1.16152 4.66081 
8.8301 0.00852108 1.30353 
0.00852108 7.42932 1.29774 
1.30353 1.29774 5.28431 
9.91298 -0.0379879 0.26617 
-0.0379879 9.85543 0.638162 
0.26617 0.638162 9.85398 
9.90059 0.0121873 0.230861 
0.0121873 9.8673 0.547387 
0.230861 0.547387 9.85449 
9.72501 0.083391 0.154225 
0.083391 9.8492 0.480674 
0.154225 0.480674 10.0482 
9.8669 0.0722101 0.200205 
0.0722101 10.0202 0.545803 
0.200205 0.545803 9.73531 
9.65258 -0.0390696 0.0127799 
-0.0390696 9.60267 0.660083 
0.0127799 0.660083 9.56387 
9.66732 -0.0770647 -0.0126625 
-0.0770647 9.32894 0.697786 
-0.0126625 0.697786 9.82285 
9.57233 0.0440121 0.0574263 
0.0440121 9.80299 0.781291 
0.0574263 0.781291 9.4438 
9.65918 0.0185112 0.0603458 
0.0185112 9.69043 0.5991 
0.0603458 0.5991 9.46949 
9.29109 -0.0810084 -0.306454 
-0.0810084 9.66111 0.208708 
-0.306454 0.208708 9.76658 
9.36103 -0.0393925 -0.335398 
-0.0393925 9.55694 0.277557 
-0.335398 0.277557 9.80081 
9.27138 -0.0579688 -0.313758 
-0.0579688 9.50881 0.143213 
-0.313758 0.143213 9.93859 
9.29783 -0.0427698 -0.289278 
-0.0427698 9.64402 0.234082 
-0.289278 0.234082 9.77692 
9.86137 -0.0273613 -0.121236 
-0.0273613 9.81927 0.0715063 
-0.121236 0.0715063 9.87498 
9.87157 -0.0325095 -0.129712 
-0.0325095 9.80719 0.0533103 
-0.129712 0.0533103 9.87686 
9.88665 0.0218604 -0.110051 
0.0218604 9.79084 0.0438766 
-0.110051 0.0438766 9.87813 
9.89003 -0.0964023 -0.108296 
-0.0964023 9.84576 0.0126147 
-0.108296 0.0126147 9.81983 
9.99713 0.683109 0.283116 
0.683109 10.148 0.0832139 
0.283116 0.0832139 10.4749 
9.94202 -0.236054 0.489285 
-0.236054 9.55679 0.080967 
0.489285 0.080967 11.1212 
9.91412 -0.174307 -0.262644 
-0.174307 10.0689 -0.00842581 
-0.262644 -0.00842581 10.6369 
9.93397 0.318001 -0.172809 
0.318001 9.75359 0.14262 
-0.172809 0.14262 10.9324 
11.6975 -2.77769 -1.24484 
-2.77769 10.4697 -1.83028 
-1.24484 -1.83028 12.1731 
11.0309 1.64112 0.231718 
1.64112 9.15368 -2.73509 
0.231718 -2.73509 14.1557 
13.0024 1.75409 0.767682 
1.75409 8.20685 0.536792 
0.767682 0.536792 13.131 
11.2313 -1.1511 0.0536446 
-1.1511 8.74527 -0.0231766 
0.0536446 -0.0231766 14.3637 
9.54659 0.175308 0.679252 
0.175308 8.97411 -0.773131 
0.679252 -0.773131 9.61024 
9.68873 0.15565 0.224844 
0.15565 9.29943 0.401481 
0.224844 0.401481 9.14278 
9.50255 0.423636 0.781117 
0.423636 8.59209 -0.362273 
0.781117 -0.362273 10.0363 
9.64628 0.225111 0.611213 
0.225111 8.83426 -0.295228 
0.611213 -0.295228 9.6504 
9.88618 -0.0384392 0.467408 
-0.0384392 9.86637 -0.0713194 
0.467408 -0.0713194 9.9525 
9.88707 0.00401504 0.431884 
0.00401504 9.86347 -0.0759548 
0.431884 -0.0759548 9.95451 
9.83218 -0.0222035 0.382721 
-0.0222035 9.90591 -0.0180854 
0.382721 -0.0180854 9.96697 
9.90461 0.0226483 0.432274 
0.0226483 9.8489 -0.0789665 
0.432274 -0.0789665 9.95154 
11.5068 -2.19355 0.705785 
-2.19355 13.4674 0.483231 
0.705785 0.483231 13.6565 
11.2745 -1.43697 0.464179 
-1.43697 9.33164 -0.0703151 
0.464179 -0.0703151 18.0245 
12.4218 -2.63819 -1.20759 
-2.63819 4.63681 0.63574 
-1.20759 0.63574 21.572 
12.2754 0.0533217 0.408832 
0.0533217 10.4676 -2.30194 
0.408832 -2.30194 15.8877 
9.41363 -0.0858373 0.518768 
-0.0858373 9.85564 -0.518872 
0.518768 -0.518872 9.3327 
9.51474 -0.0703513 0.476061 
-0.0703513 9.46551 -0.392857 
0.476061 -0.392857 9.62172 
9.568 0.0535854 0.452389 
0.0535854 9.80456 -0.418293 
0.452389 -0.418293 9.22941 
9.63657 0.0126688 0.408164 
0.0126688 9.82342 -0.379244 
0.408164 -0.379244 9.14198 
8.6828 0.825416 -0.802855 
0.825416 8.14352 0.654649 
-0.802855 0.654649 9.20289 
8.33626 0.306383 -0.884537 
0.306383 9.19762 0.872414 
-0.884537 0.872414 8.49533 
8.22215 0.192735 -0.604882 
0.192735 9.24866 0.631572 
-0.604882 0.631572 8.5584 
8.83807 -0.115181 -1.01935 
-0.115181 8.50318 0.852199 
-1.01935 0.852199 8.68797 
9.59774 -0.0172551 0.0239286 
-0.0172551 9.66922 -0.687538 
0.0239286 -0.687538 9.54487 
9.57949 -0.014026 0.0364117 
-0.014026 9.741 -0.755782 
0.0364117 -0.755782 9.49135 
9.71805 0.0943719 -0.00727293 
0.0943719 9.2684 -0.672217 
-0.00727293 -0.672217 9.82539 
9.58938 0.00110066 0.0386364 
0.00110066 9.70917 -0.629499 
0.0386364 -0.629499 9.51329 
8.21867 -0.241514 0.486432 
-0.241514 9.1254 1.14049 
0.486432 1.14049 9.37184 
9.02783 -0.0224149 0.358425 
-0.0224149 9.1053 0.966152 
0.358425 0.966152 8.58278 
9.065 -0.102903 0.349695 
-0.102903 9.00041 0.919159 
0.349695 0.919159 8.65049 
8.62522 0.194393 0.599382 
0.194393 8.94727 0.507233 
0.599382 0.507233 9.14342 
8.33204 1.03873 1.78295 
1.03873 8.98827 -1.78874 
1.78295 -1.78874 8.86661 
7.58 0.556812 1.36722 
0.556812 8.65729 -0.893623 
1.36722 -0.893623 9.94963 
6.89864 2.57206 1.64215 
2.57206 10.1212 -0.345621 
1.64215 -0.345621 9.16706 
9.50123 1.56322 1.00489 
1.56322 9.13784 0.0354367 
1.00489 0.0354367 7.54785 
9.4657 0.103506 0.105892 
0.103506 9.60506 0.689139 
0.105892 0.689139 9.26266 
9.44935 -0.0430561 0.105332 
-0.0430561 9.50975 0.569248 
0.105332 0.569248 9.37432 
9.40022 0.0417669 0.42061 
0.0417669 9.39869 0.526983 
0.42061 0.526983 9.53451 
9.34216 0.127709 0.337303 
0.127709 9.55896 0.460846 
0.337303 0.460846 9.4323 
9.79291 0.0709517 -0.24861 
0.0709517 9.82258 0.461307 
-0.24861 0.461307 9.87492 
9.83707 -0.0490976 -0.278464 
-0.0490976 9.87187 0.387359 
-0.278464 0.387359 9.78147 
9.87302 0.0657827 -0.240469 
0.0657827 9.869 0.32843 
-0.240469 0.32843 9.74839 
9.81307 -0.0392819 -0.291518 
-0.0392819 9.86982 0.346054 
-0.291518 0.346054 9.80752 
8.57 -1.17486 -1.00122 
-1.17486 9.14355 -0.706695 
-1.00122 -0.706695 10.6612 
9.41168 -0.347608 -0.171294 
-0.347608 7.62571 -0.987372 
-0.171294 -0.987372 11.3373 
8.71204 0.191818 -0.141847 
0.191818 9.94784 0.630533 
-0.141847 0.630533 9.71484 
8.61823 -0.712026 0.798487 
-0.712026 8.38304 -0.698837 
0.798487 -0.698837 11.3735 
9.04038 -0.273774 -0.19222 
-0.273774 8.45927 -0.274594 
-0.19222 -0.274594 7.61974 
8.84411 -0.0974601 0.936892 
-0.0974601 7.88006 -0.979131 
0.936892 -0.979131 8.39521 
9.00328 -0.55331 -0.451091 
-0.55331 8.06786 -0.466246 
-0.451091 -0.466246 8.04825 
9.69433 -0.108084 0.682659 
-0.108084 8.11103 -1.58876 
0.682659 -1.58876 7.31403 
8.68993 0.00815609 0.762898 
0.00815609 8.93693 2.64966 
0.762898 2.64966 12.7471 
8.78384 -0.47991 0.960435 
-0.47991 10.2141 0.285231 
0.960435 0.285231 11.3761 
9.22363 0.0146443 0.102978 
0.0146443 9.08718 1.81781 
0.102978 1.81781 12.0632 
9.35965 -0.239388 0.902631 
-0.239388 10.6117 0.113635 
0.902631 0.113635 10.4026 
9.73803 0.120998 0.496825 
0.120998 9.79612 0.105145 
0.496825 0.105145 9.58442 
9.61538 0.109267 0.597903 
0.109267 9.78022 -0.0608231 
0.597903 -0.0608231 9.72297 
9.7075 0.141626 0.458473 
0.141626 9.66424 -0.124761 
0.458473 -0.124761 9.74683 
9.68716 -0.0815109 0.349676 
-0.0815109 9.8279 0.115816 
0.349676 0.115816 9.60351 
3.27302 -0.501778 0.48525 
-0.501778 4.49256 -1.40394 
0.48525 -1.40394 1.2772 
4.32023 -0.620981 -0.291335 
-0.620981 5.31403 -2.64574 
-0.291335 -2.64574 -0.591476 
2.96923 0.119068 0.865598 
0.119068 4.01588 -1.34589 
0.865598 -1.34589 2.05767 
3.08637 0.84399 0.960607 
0.84399 5.25582 -0.224482 
0.960607 -0.224482 0.700581 
9.59939 -0.0165153 -0.499214 
-0.0165153 9.53928 0.188121 
-0.499214 0.188121 9.81653 
9.58263 0.00817861 -0.412924 
0.00817861 9.53604 0.138784 
-0.412924 0.138784 9.83653 
9.5345 -0.00543526 -0.414315 
-0.00543526 9.59232 0.142348 
-0.414315 0.142348 9.82837 
9.47052 0.0884323 -0.491652 
0.0884323 9.58962 0.152425 
-0.491652 0.152425 9.89506 
8.62814 1.09437 0.420643 
1.09437 11.2384 0.0911134 
0.420643 0.0911134 14.0321 
9.03058 1.30684 0.580496 
1.30684 11.9322 -0.461898 
0.580496 -0.461898 12.9359 
9.55325 0.746099 0.49254 
0.746099 10.8268 -0.205102 
0.49254 -0.205102 13.5186 
9.68474 0.516285 0.43082 
0.516285 10.3264 -0.526393 
0.43082 -0.526393 13.8875 
9.07 0.0739108 -0.225077 
0.0739108 9.44713 0.0753765 
-0.225077 0.0753765 9.68358 
9.04626 -0.0960425 -0.300561 
-0.0960425 9.37592 0.00430877 
-0.300561 0.00430877 9.77855 
9.29274 0.0689046 -0.352646 
0.0689046 9.41112 0.133337 
-0.352646 0.133337 9.49686 
9.11667 0.0483351 -0.345534 
0.0483351 9.33467 0.117461 
-0.345534 0.117461 9.74938 
9.30552 0.0673516 -0.514963 
0.0673516 9.65561 0.0450432 
-0.514963 0.0450432 9.78932 
9.66168 0.0150973 -0.341624 
0.0150973 9.49741 0.0761236 
-0.341624 0.0761236 9.59137 
9.62428 -0.0144518 -0.36563 
-0.0144518 9.56854 0.0403056 
-0.36563 0.0403056 9.55763 
9.4114 -0.0405375 -0.289814 
-0.0405375 9.52909 -0.0441364 
-0.289814 -0.0441364 9.80996 
9.93163 -0.0109623 0.0376573 
-0.0109623 9.90843 0.0114887 
0.0376573 0.0114887 9.95654 
9.92238 0.0081622 0.0405185 
0.0081622 9.92749 0.00456297 
0.0405185 0.00456297 9.94672 
9.8966 0.0110272 0.00605092 
0.0110272 9.85426 -0.00985035 
0.00605092 -0.00985035 10.0457 
9.93942 -0.0234032 0.0535131 
-0.0234032 9.91693 0.0265734 
0.0535131 0.0265734 9.94024 
9.65124 -0.0505701 0.447039 
-0.0505701 9.7107 -0.136615 
0.447039 -0.136615 9.74838 
9.68831 -0.0493124 0.473761 
-0.0493124 9.76372 -0.211674 
0.473761 -0.211674 9.65829 
9.56082 -0.00859108 0.433799 
-0.00859108 9.7161 -0.23314 
0.433799 -0.23314 9.8334 
9.66438 -0.0452056 0.401527 
-0.0452056 9.71964 -0.157436 
0.401527 -0.157436 9.7263 
9.80747 -0.293748 0.054048 
-0.293748 8.7323 0.168663 
0.054048 0.168663 10.7714 
9.81493 -0.245331 0.144718 
-0.245331 8.89992 0.116958 
0.144718 0.116958 10.5963 
9.71297 -0.309673 0.127054 
-0.309673 8.91582 0.258523 
0.127054 0.258523 10.6823 
9.754 -0.272551 0.0969833 
-0.272551 8.84643 0.188554 
0.0969833 0.188554 10.7107 
9.69934 0.060426 -0.287715 
0.060426 9.80445 -0.481035 
-0.287715 -0.481035 9.85361 
9.79909 -0.00142246 -0.268597 
-0.00142246 9.78213 -0.598174 
-0.268597 -0.598174 9.77618 
9.85507 -0.0276867 -0.266122 
-0.0276867 9.78626 -0.575394 
-0.266122 -0.575394 9.71606 
9.85753 -0.00277055 -0.272224 
-0.00277055 9.87694 -0.621352 
-0.272224 -0.621352 9.62293 
13.8254 -0.932039 0.10188 
-0.932039 11.4937 0.380149 
0.10188 0.380149 13.8253 
12.067 -0.548636 -0.963016 
-0.548636 11.8387 0.0587398 
-0.963016 0.0587398 15.2387 
13.2616 0.436555 -0.444518 
0.436555 12.5628 -0.0827527 
-0.444518 -0.0827527 13.32 
13.1352 -0.422496 0.279227 
-0.422496 12.482 0.343598 
0.279227 0.343598 13.5271 
9.58446 0.0169888 -0.49054 
0.0169888 9.42978 0.238934 
-0.49054 0.238934 9.76583 
9.48293 -0.0297846 -0.456356 
-0.0297846 9.51681 0.116658 
-0.456356 0.116658 9.78032 
9.42929 -0.0497526 -0.512894 
-0.0497526 9.46646 0.156216 
-0.512894 0.156216 9.88431 
9.39838 0.128444 -0.454974 
0.128444 9.50422 0.227936 
-0.454974 0.227936 9.87747 
9.4561 0.027347 0.438161 
0.027347 9.46978 0.547815 
0.438161 0.547815 9.83054 
9.51525 0.0786631 0.298322 
0.0786631 9.68624 0.472658 
0.298322 0.472658 9.55493 
9.73727 0.0789915 0.249332 
0.0789915 9.7323 0.675109 
0.249332 0.675109 9.28685 
9.6472 0.0129402 0.277552 
0.0129402 9.63018 0.50193 
0.277552 0.50193 9.47903 
9.61505 0.0710115 0.392374 
0.0710115 9.73279 0.524683 
0.392374 0.524683 9.50771 
9.62285 0.10969 0.126497 
0.10969 9.63775 0.558196 
0.126497 0.558196 9.59495 
9.63822 -0.00867392 0.180327 
-0.00867392 9.5685 0.673301 
0.180327 0.673301 9.64883 
9.61841 -0.0530156 0.286372 
-0.0530156 9.67235 0.44677 
0.286372 0.44677 9.56478 
9.13254 0.062679 0.0700533 
0.062679 9.22312 0.370723 
0.0700533 0.370723 8.89735 
9.3043 0.0810215 0.146125 
0.0810215 9.31889 0.142511 
0.146125 0.142511 8.62982 
9.2644 0.0708118 0.062094 
0.0708118 9.22384 0.252454 
0.062094 0.252454 8.76477 
9.28428 0.0645726 0.0256596 
0.0645726 9.17151 0.188047 
0.0256596 0.188047 8.79723 
9.52442 -0.0320342 -0.388053 
-0.0320342 9.59389 0.257732 
-0.388053 0.257732 9.6255 
9.42777 0.0510619 -0.364816 
0.0510619 9.67819 0.282666 
-0.364816 0.282666 9.63784 
9.47749 -0.0223309 -0.378102 
-0.0223309 9.61842 0.275872 
-0.378102 0.275872 9.64789 
9.46243 -0.042686 -0.385975 
-0.042686 9.62577 0.27655 
-0.385975 0.27655 9.65561 
9.10344 -0.0953084 0.244162 
-0.0953084 9.06191 0.582782 
0.244162 0.582782 7.54917 
9.01385 0.0309639 0.242096 
0.0309639 9.08869 0.529584 
0.242096 0.529584 7.61197 
8.88674 0.0528402 0.523726 
0.0528402 9.26887 0.7656 
0.523726 0.7656 7.5589 
9.00908 -0.00183062 0.234129 
-0.00183062 9.18204 0.618748 
0.234129 0.618748 7.52339 
9.87323 0.0113099 -0.287516 
0.0113099 9.75733 0.00189426 
-0.287516 0.00189426 9.74096 
9.85599 -0.00442431 -0.29392 
-0.00442431 9.75934 0.0473145 
-0.29392 0.0473145 9.75619 
9.80635 -0.00146844 -0.293756 
-0.00146844 9.74403 0.000630994 
-0.293756 0.000630994 9.82114 
9.82963 -0.0151384 -0.320756 
-0.0151384 9.73174 -0.00380712 
-0.320756 -0.00380712 9.81014 
9.97283 -0.00303898 0.0404818 
-0.00303898 9.98591 -0.331174 
0.0404818 -0.331174 9.85619 
9.88822 0.00470172 0.0653571 
0.00470172 9.85866 -0.237743 
0.0653571 -0.237743 10.0681 
9.94584 -0.0482165 0.0434014 
-0.0482165 9.92843 -0.272852 
0.0434014 -0.272852 9.94065 
9.96412 0.0122222 0.0311502 
0.0122222 10.023 -0.289772 
0.0311502 -0.289772 9.82784 
7.36131 -1.13815 3.5262 
-1.13815 8.09839 2.49451 
3.5262 2.49451 5.76555 
7.52261 -0.32734 2.04773 
-0.32734 7.72119 1.13513 
2.04773 1.13513 5.98145 
4.98687 -0.586373 0.601901 
-0.586373 6.28645 1.1525 
0.601901 1.1525 9.95193 
8.56497 0.0447039 1.59444 
0.0447039 7.13746 1.47886 
1.59444 1.47886 5.52281 
9.88471 0.0153372 -0.496493 
0.0153372 9.90135 0.088533 
-0.496493 0.088533 9.9455 
9.88723 -0.00769888 -0.485707 
-0.00769888 9.86696 0.0803939 
-0.485707 0.0803939 9.97737 
9.88077 -0.0156463 -0.470875 
-0.0156463 9.89148 0.0883793 
-0.470875 0.0883793 9.95931 
9.88829 0.0092438 -0.493665 
0.0092438 9.9095 0.086609 
-0.493665 0.086609 9.93376 
9.73847 0.0709538 -0.0424149 
0.0709538 9.76304 0.147689 
-0.0424149 0.147689 10.9222 
10.1689 0.0828812 0.105355 
0.0828812 10.1753 -0.0210657 
0.105355 -0.0210657 10.0795 
10.1274 -0.0347548 0.109429 
-0.0347548 9.97534 -0.0349251 
0.109429 -0.0349251 10.321 
10.0329 0.219584 0.316463 
0.219584 10.0607 -0.270054 
0.316463 -0.270054 10.3301 
9.36713 0.0591913 -0.189055 
0.0591913 9.34371 -0.756457 
-0.189055 -0.756457 9.24123 
9.17142 0.137629 -0.112655 
0.137629 9.46287 -0.755039 
-0.112655 -0.755039 9.31777 
9.37015 0.0712836 -0.109425 
0.0712836 9.43768 -0.7884 
-0.109425 -0.7884 9.14423 
9.38953 0.064643 -0.140635 
0.064643 9.32607 -0.785224 
-0.140635 -0.785224 9.23647 
9.88944 0.00539688 -0.0207307 
0.00539688 9.85624 0.218875 
-0.0207307 0.218875 9.86716 
9.97183 0.0131956 0.0313485 
0.0131956 9.8635 0.212777 
0.0313485 0.212777 9.77752 
9.84733 0.0138527 -0.048778 
0.0138527 9.90443 0.178559 
-0.048778 0.178559 9.86108 
9.84358 -0.0193817 0.00712636 
-0.0193817 9.92531 0.17458 
0.00712636 0.17458 9.84396 
9.7988 -0.020781 -0.333823 
-0.020781 9.74668 0.132055 
-0.333823 0.132055 9.83537 
9.82754 0.0167166 -0.348464 
0.0167166 9.71933 0.111866 
-0.348464 0.111866 9.83398 
9.82822 -0.0154148 -0.329833 
-0.0154148 9.74702 0.116827 
-0.329833 0.116827 9.80562 
9.86211 -0.05175 -0.320832 
-0.05175 9.75925 0.0721177 
-0.320832 0.0721177 9.75949 
9.8004 1.13636 -1.17255 
1.13636 8.79382 1.16693 
-1.17255 1.16693 10.3684 
9.901 1.10905 -1.06683 
1.10905 9.44405 0.518526 
-1.06683 0.518526 9.61762 
9.15926 0.704605 -0.689221 
0.704605 9.03233 0.0929282 
-0.689221 0.0929282 10.7711 
9.07139 1.42447 -0.709708 
1.42447 9.84176 0.377074 
-0.709708 0.377074 10.0495 
9.85535 -0.00406419 0.41888 
-0.00406419 9.82614 -0.0486685 
0.41888 -0.0486685 9.86081 
9.83664 0.0139683 0.456464 
0.0139683 9.81091 -0.0493308 
0.456464 -0.0493308 9.89475 
9.8484 0.0164741 0.476353 
0.0164741 9.78799 -0.0502134 
0.476353 -0.0502134 9.9059 
9.82549 0.0177733 0.455855 
0.0177733 9.82087 -0.059711 
0.455855 -0.059711 9.89594 
9.13232 0.0252692 -0.123855 
0.0252692 9.28238 -0.419771 
-0.123855 -0.419771 9.31608 
9.08178 -0.0622761 -0.0383222 
-0.0622761 9.45583 -0.142993 
-0.0383222 -0.142993 9.19317 
9.14718 -0.0446221 0.195795 
-0.0446221 9.51449 -0.139611 
0.195795 -0.139611 9.06912 
9.16724 -0.0207207 0.0578688 
-0.0207207 9.39009 -0.140199 
0.0578688 -0.140199 9.17346 
9.83944 -0.0863934 -0.0971064 
-0.0863934 9.80146 -0.399249 
-0.0971064 -0.399249 9.92731 
9.92634 -0.054134 -0.124337 
-0.054134 9.91765 -0.436764 
-0.124337 -0.436764 9.72422 
9.8717 0.0746155 -0.0738343 
0.0746155 9.90507 -0.408494 
-0.0738343 -0.408494 9.79144 
9.82567 0.0610249 -0.0468946 
0.0610249 9.94547 -0.480434 
-0.0468946 -0.480434 9.79706 
9.8846 -0.0692825 -0.220018 
-0.0692825 9.7906 0.093256 
-0.220018 0.093256 9.76886 
9.86915 -0.0325338 -0.236806 
-0.0325338 9.75905 0.118031 
-0.236806 0.118031 9.81586 
9.84368 -0.026801 -0.225957 
-0.026801 9.76067 0.10752 
-0.225957 0.10752 9.83971 
9.87278 -0.0437944 -0.247231 
-0.0437944 9.77043 0.0800433 
-0.247231 0.0800433 9.80085 
8.87196 0.754422 0.876942 
0.754422 7.02345 1.02581 
0.876942 1.02581 8.05781 
8.42689 0.0163948 1.2019 
0.0163948 7.99138 0.983965 
1.2019 0.983965 7.53494 
7.39303 -0.510999 1.54875 
-0.510999 8.60253 0.456573 
1.54875 0.456573 7.95765 
8.31304 -0.655915 1.30146 
-0.655915 8.11209 1.14668 
1.30146 1.14668 7.52808 
9.00831 0.28013 -0.27899 
0.28013 10.0013 0.199254 
-0.27899 0.199254 8.83973 
9.43172 -0.0672239 -0.0408549 
-0.0672239 9.45334 0.506578 
-0.0408549 0.506578 8.9643 
9.21387 -0.0674454 -0.0339922 
-0.0674454 9.54438 0.123115 
-0.0339922 0.123115 9.09111 
9.41072 -0.113348 -0.197693 
-0.113348 9.20167 -0.0568856 
-0.197693 -0.0568856 9.23696 
8.1227 0.374715 -0.432529 
0.374715 8.19083 -1.49334 
-0.432529 -1.49334 6.79261 
7.72347 0.403993 -0.291917 
0.403993 7.82995 -1.35239 
-0.291917 -1.35239 7.55272 
8.64889 0.36437 0.254989 
0.36437 6.99152 -1.4404 
0.254989 -1.4404 7.46574 
8.48324 -0.0376793 -0.248979 
-0.0376793 7.39984 -1.28188 
-0.248979 -1.28188 7.22307 
8.53487 -1.61963 -0.0443907 
-1.61963 9.03006 -1.12314 
-0.0443907 -1.12314 15.3918 
12.0162 1.99937 -0.120302 
1.99937 11.2322 1.3511 
-0.120302 1.3511 9.70834 
10.4641 0.0981973 -0.132764 
0.0981973 6.99222 0.141594 
-0.132764 0.141594 15.5003 
12.6336 -0.467899 2.68639 
-0.467899 7.92449 0.885518 
2.68639 0.885518 12.3986 
9.29462 0.0531037 0.121064 
0.0531037 9.43796 -0.0487272 
0.121064 -0.0487272 9.36462 
9.54304 0.0556972 0.102941 
0.0556972 9.30862 0.0920132 
0.102941 0.0920132 9.24554 
9.317 -0.359153 0.245048 
-0.359153 9.47425 0.0592845 
0.245048 0.0592845 9.30595 
9.382 -0.163988 0.115394 
-0.163988 9.44631 0.0890581 
0.115394 0.0890581 9.26888 
10.5047 -0.99753 0.531447 
-0.99753 9.69141 -0.789765 
0.531447 -0.789765 13.0028 
10.5085 -0.15278 -0.287659 
-0.15278 9.51705 -2.08636 
-0.287659 -2.08636 13.1734 
11.595 -0.694308 -1.46219 
-0.694308 8.18105 -0.526242 
-1.46219 -0.526242 13.4228 
11.8975 -0.390164 -1.20784 
-0.390164 8.97392 -0.544854 
-1.20784 -0.544854 12.3274 
4.90119 -0.932065 1.79687 
-0.932065 8.74324 0.459622 
1.79687 0.459622 3.37896 
7.7428 0.35089 2.50055 
0.35089 5.18458 0.562003 
2.50055 0.562003 4.09602 
8.23947 0.13543 1.55534 
0.13543 6.92062 0.685906 
1.55534 0.685906 1.86331 
7.46896 -0.651034 2.77862 
-0.651034 6.53035 0.262704 
2.77862 0.262704 3.02409 
9.0086 0.0714951 -0.264152 
0.0714951 9.57739 0.14709 
-0.264152 0.14709 9.49905 
9.0925 0.0204969 -0.49093 
0.0204969 9.42071 0.19149 
-0.49093 0.19149 9.57183 
9.29919 0.11348 -0.529594 
0.11348 9.39815 0.208982 
-0.529594 0.208982 9.3877 
9.01928 0.0291451 -0.490995 
0.0291451 9.46956 0.154707 
-0.490995 0.154707 9.59619 
8.89357 0.345326 0.86521 
0.345326 7.85356 -1.47174 
0.86521 -1.47174 7.96305 
7.34614 0.483395 0.269577 
0.483395 10.2981 0.110577 
0.269577 0.110577 7.06592 
7.78405 -0.469295 -1.53442 
-0.469295 9.0697 0.267528 
-1.53442 0.267528 7.85643 
6.99207 -0.276014 -1.33965 
-0.276014 9.70054 -0.999159 
-1.33965 -0.999159 8.01757 
9.48257 -0.998905 -0.0282201 
-0.998905 7.28025 0.129334 
-0.0282201 0.129334 10.4354 
9.32763 0.36727 0.385893 
0.36727 8.83048 0.500979 
0.385893 0.500979 9.04011 
8.75888 1.19514 0.0536239 
1.19514 10.2119 0.446175 
0.0536239 0.446175 8.22743 
9.18754 0.52762 0.682986 
0.52762 8.01436 2.15737 
0.682986 2.15737 9.99632 
8.82692 -0.40414 0.205462 
-0.40414 9.9128 0.0877241 
0.205462 0.0877241 9.12323 
9.13768 0.0467956 0.262562 
0.0467956 9.5357 -0.270467 
0.262562 -0.270467 9.18957 
9.09054 -0.0390535 -0.0155265 
-0.0390535 9.4866 -0.167454 
-0.0155265 -0.167454 9.2858 
9.35846 0.198664 0.232837 
0.198664 9.36615 -0.0567842 
0.232837 -0.0567842 9.13833 
9.45003 0.223781 0.633491 
0.223781 9.16602 0.393809 
0.633491 0.393809 9.35549 
9.46224 0.105633 0.685096 
0.105633 9.56406 0.335546 
0.685096 0.335546 8.94524 
9.10131 0.02439 0.761669 
0.02439 9.56621 0.0465813 
0.761669 0.0465813 9.30403 
9.25577 -0.0333026 0.684502 
-0.0333026 9.53328 0.266429 
0.684502 0.266429 9.18249 
9.95798 -0.0014127 0.373308 
-0.0014127 9.94706 -0.0730921 
0.373308 -0.0730921 9.92488 
9.88474 0.0011464 0.331154 
0.0011464 9.8905 -0.0825974 
0.331154 -0.0825974 10.0547 
9.93163 -0.0294545 0.349345 
-0.0294545 9.92789 -0.0693608 
0.349345 -0.0693608 9.9704 
9.93518 -0.00515582 0.370617 
-0.00515582 9.94825 -0.0364647 
0.370617 -0.0364647 9.94648 
10.06 -0.118237 0.807133 
-0.118237 8.90963 -0.25765 
0.807133 -0.25765 9.47863 
9.95165 0.246577 0.282436 
0.246577 8.52722 -0.452598 
0.282436 -0.452598 9.96941 
9.53293 0.0158432 0.687826 
0.0158432 8.41177 -0.810599 
0.687826 -0.810599 10.5036 
9.93217 0.344168 0.526649 
0.344168 8.42155 -0.468858 
0.526649 -0.468858 10.0946 
7.66041 -0.438756 2.10159 
-0.438756 10.3363 -2.14391 
2.10159 -2.14391 9.2288 
7.50094 1.12768 1.05169 
1.12768 9.56807 0.0920135 
1.05169 0.0920135 10.1565 
7.64367 1.13734 1.63876 
1.13734 9.47432 -1.02889 
1.63876 -1.02889 10.1075 
8.07926 0.604122 2.21412 
0.604122 9.18876 -0.161479 
2.21412 -0.161479 9.95747 
9.28757 0.288256 0.561158 
0.288256 8.84864 0.972088 
0.561158 0.972088 8.43872 
9.18378 -0.0545143 0.421576 
-0.0545143 9.13249 1.16936 
0.421576 1.16936 8.25867 
9.05208 0.101952 0.592901 
0.101952 8.69724 0.807999 
0.592901 0.807999 8.82562 
9.43183 0.137626 0.161838 
0.137626 9.05458 1.03276 
0.161838 1.03276 8.08853 
9.79058 -0.01899 -0.1763 
-0.01899 9.68758 -0.481738 
-0.1763 -0.481738 9.71884 
9.80756 0.0382418 -0.1954 
0.0382418 9.89936 -0.540804 
-0.1954 -0.540804 9.49008 
9.75538 0.00785006 -0.258484 
0.00785006 9.80055 -0.609341 
-0.258484 -0.609341 9.64108 
9.75823 0.0158516 -0.223244 
0.0158516 9.82104 -0.569738 
-0.223244 -0.569738 9.61774 
9.49892 0.11843 0.904002 
0.11843 9.28243 -0.380554 
0.904002 -0.380554 9.50516 
9.61833 0.149706 0.635015 
0.149706 8.95456 -0.417036 
0.635015 -0.417036 9.71362 
9.71531 -0.140563 0.706098 
-0.140563 8.74463 -0.613482 
0.706098 -0.613482 9.82657 
8.95299 0.777508 0.463298 
0.777508 9.51462 -0.859641 
0.463298 -0.859641 9.8189 
9.84458 0.043633 -0.324456 
0.043633 9.85194 -0.0338377 
-0.324456 -0.0338377 9.91147 
9.90005 0.0242837 -0.309466 
0.0242837 9.84472 -0.00881646 
-0.309466 -0.00881646 9.86322 
9.87551 -0.00362878 -0.31838 
-0.00362878 9.83832 0.0471891 
-0.31838 0.0471891 9.89415 
9.90933 0.0291185 -0.336444 
0.0291185 9.8312 0.0783992 
-0.336444 0.0783992 9.86744 
9.74653 0.0388341 -0.415624 
0.0388341 9.73943 -0.0558435 
-0.415624 -0.0558435 9.51511 
9.66997 0.0653822 -0.357388 
0.0653822 9.75651 -0.140855 
-0.357388 -0.140855 9.57459 
9.69408 0.0609351 -0.3632 
0.0609351 9.74992 -0.0521156 
-0.3632 -0.0521156 9.55707 
9.71621 0.05559 -0.307148 
0.05559 9.68573 -0.0879304 
-0.307148 -0.0879304 9.59913 
9.87329 -0.0140091 -0.328425 
-0.0140091 9.81846 0.0296434 
-0.328425 0.0296434 9.89558 
9.89486 -0.0111747 -0.339921 
-0.0111747 9.83551 0.0505523 
-0.339921 0.0505523 9.85696 
9.87826 -0.00993243 -0.326841 
-0.00993243 9.81977 0.0532387 
-0.326841 0.0532387 9.88929 
9.89216 -0.00603912 -0.339231 
-0.00603912 9.8236 0.0363732 
-0.339231 0.0363732 9.87157 
9.92057 3.63179e-05 -0.427216 
3.63179e-05 9.93426 0.196866 
-0.427216 0.196866 9.92906 
9.88602 -0.00371639 -0.419947 
-0.00371639 9.9005 0.215067 
-0.419947 0.215067 9.99738 
9.88075 -0.0180589 -0.391471 
-0.0180589 9.89397 0.204342 
-0.391471 0.204342 10.0092 
9.88189 -0.00336471 -0.456881 
-0.00336471 9.94482 0.179284 
-0.456881 0.179284 9.95718 
9.71387 0.160834 -0.0237549 
0.160834 9.83844 0.290097 
-0.0237549 0.290097 9.88246 
9.85475 0.0208042 0.0719693 
0.0208042 9.81654 0.372148 
0.0719693 0.372148 9.76348 
9.81105 0.0418903 0.028856 
0.0418903 9.84065 0.343569 
0.028856 0.343569 9.78307 
9.86425 0.0988366 0.154775 
0.0988366 9.90343 0.35917 
0.154775 0.35917 9.66709 
9.95699 0.0327669 0.406496 
0.0327669 10.0008 0.094041 
0.406496 0.094041 9.94302 
10.006 0.0179175 0.400005 
0.0179175 9.98765 0.0861516 
0.400005 0.0861516 9.90715 
9.90562 0.0120031 0.38946 
0.0120031 9.88164 0.132595 
0.38946 0.132595 10.1136 
10.0121 0.0196977 0.441571 
0.0196977 9.98219 0.113071 
0.441571 0.113071 9.90656 
9.4627 -0.00341532 -0.410891 
-0.00341532 9.51806 -0.441919 
-0.410891 -0.441919 10.0049 
9.70288 -0.00973625 -0.495965 
-0.00973625 9.86031 -0.535902 
-0.495965 -0.535902 9.42244 
9.65839 0.0165839 -0.419612 
0.0165839 9.80425 -0.391422 
-0.419612 -0.391422 9.52299 
9.66797 0.0983592 -0.4055 
0.0983592 9.71472 -0.438959 
-0.4055 -0.438959 9.60293 
9.05032 -0.0515795 0.140115 
-0.0515795 9.06586 0.674446 
0.140115 0.674446 9.09705 
9.08759 -0.0818593 0.148436 
-0.0818593 8.81255 0.656191 
0.148436 0.656191 9.31309 
8.85345 0.00633283 0.277141 
0.00633283 9.36156 0.80646 
0.277141 0.80646 8.99822 
9.00553 0.0192211 0.28519 
0.0192211 9.22363 0.581295 
0.28519 0.581295 8.98408 
9.39515 0.182716 0.155245 
0.182716 8.92242 0.819871 
0.155245 0.819871 10.0242 
9.59111 -0.12771 0.081611 
-0.12771 8.93304 0.268923 
0.081611 0.268923 9.81765 
9.59861 -0.257511 0.157468 
-0.257511 8.78597 0.377649 
0.157468 0.377649 9.95721 
9.31197 -0.0934388 0.295582 
-0.0934388 8.82769 0.274825 
0.295582 0.274825 10.2021 
9.77883 -0.0382349 0.315946 
-0.0382349 9.86973 -0.370359 
0.315946 -0.370359 9.95124 
9.88647 0.01378 0.328244 
0.01378 9.85413 -0.436546 
0.328244 -0.436546 9.8592 
9.89006 -0.00540637 0.350756 
-0.00540637 9.84896 -0.42469 
0.350756 -0.42469 9.86077 
9.86675 -0.0117776 0.391408 
-0.0117776 9.95055 -0.47073 
0.391408 -0.47073 9.7825 
9.2639 0.089955 -0.118301 
0.089955 9.31141 0.00510196 
-0.118301 0.00510196 9.33508 
9.38545 0.0348564 -0.026016 
0.0348564 9.37075 0.104543 
-0.026016 0.104543 9.15418 
9.10209 -0.0532689 0.296232 
-0.0532689 9.52962 0.181475 
0.296232 0.181475 9.27868 
9.46715 0.0255871 -0.0643991 
0.0255871 9.3283 0.227862 
-0.0643991 0.227862 9.11494 
12.5678 -0.529926 -0.451966 
-0.529926 12.0675 -0.441983 
-0.451966 -0.441983 14.3366 
11.5999 -0.349769 -0.68924 
-0.349769 12.5171 -0.727523 
-0.68924 -0.727523 14.8548 
12.707 -0.136044 -0.257162 
-0.136044 12.4914 -0.422602 
-0.257162 -0.422602 13.7735 
12.6014 -0.633974 0.148595 
-0.633974 12.3771 -0.184181 
0.148595 -0.184181 13.9934 
4.02445 1.31634 -0.307664 
1.31634 3.87121 -0.450185 
-0.307664 -0.450185 -1.46346 
3.28093 0.587714 0.175262 
0.587714 4.89017 0.293401 
0.175262 0.293401 -1.7389 
0.625098 -0.214784 -2.1469 
-0.214784 1.02396 0.119586 
-2.1469 0.119586 4.78315 
3.87871 0.35019 -1.60261 
0.35019 2.83699 0.271175 
-1.60261 0.271175 -0.283491 
12.8749 -0.0615642 -0.134797 
-0.0615642 10.0063 0.442508 
-0.134797 0.442508 12.6491 
10.1483 0.24991 0.103582 
0.24991 10.8612 0.305135 
0.103582 0.305135 14.5208 
11.327 1.29243 -0.345785 
1.29243 11.1176 0.771949 
-0.345785 0.771949 13.0857 
11.6513 0.799625 -1.17908 
0.799625 11.3533 0.882493 
-1.17908 0.882493 12.5257 
10.9255 0.664863 0.231253 
0.664863 11.4604 -0.684631 
0.231253 -0.684631 10.3611 
12.2164 0.517327 -0.0330507 
0.517327 10.5802 -0.633218 
-0.0330507 -0.633218 9.95036 
9.9919 -0.53421 0.285038 
-0.53421 9.56131 1.1536 
0.285038 1.1536 13.1937 
11.4811 0.524144 0.809224 
0.524144 9.0406 -0.965946 
0.809224 -0.965946 12.2252 
9.79485 0.0986206 0.515519 
0.0986206 9.73745 0.0699647 
0.515519 0.0699647 9.68548 
9.67512 0.0315875 0.540306 
0.0315875 9.74487 0.079648 
0.540306 0.079648 9.79778 
9.72123 0.0443135 0.503127 
0.0443135 9.75563 0.0706929 
0.503127 0.0706929 9.74092 
9.71453 0.0314504 0.459506 
0.0314504 9.74811 0.0606444 
0.459506 0.0606444 9.75514 
10.3859 0.795285 0.752776 
0.795285 12.1603 0.33193 
0.752776 0.33193 14.5932 
11.3094 0.428395 -0.216506 
0.428395 10.8577 0.794058 
-0.216506 0.794058 14.9722 
12.5346 -0.672356 -0.378685 
-0.672356 13.3322 0.690429 
-0.378685 0.690429 11.2725 
11.1529 -0.0418152 -0.0559361 
-0.0418152 12.3974 -1.0268 
-0.0559361 -1.0268 13.5891 
9.51556 0.0109416 0.0867495 
0.0109416 9.7462 -0.250936 
0.0867495 -0.250936 9.35654 
9.58952 0.0601384 0.047861 
0.0601384 9.74626 -0.44871 
0.047861 -0.44871 9.28252 
9.58415 0.0430296 0.114116 
0.0430296 9.72418 -0.244639 
0.114116 -0.244639 9.30997 
9.50782 0.0250519 0.165195 
0.0250519 9.62158 -0.376025 
0.165195 -0.376025 9.48891 
5.10152 0.0867424 0.333104 
0.0867424 7.50325 -1.18589 
0.333104 -1.18589 1.48262 
5.59608 0.333259 0.449612 
0.333259 6.81562 -0.80024 
0.449612 -0.80024 1.67569 
6.85205 0.770108 -0.728139 
0.770108 6.39579 -1.00326 
-0.728139 -1.00326 0.83955 
7.15275 0.0423387 1.18343 
0.0423387 5.19965 -2.12247 
1.18343 -2.12247 1.73499 
10.2152 -0.372226 0.565437 
-0.372226 9.60884 0.49629 
0.565437 0.49629 8.63935 
9.79986 -0.138954 0.990482 
-0.138954 9.16396 0.0677793 
0.990482 0.0677793 9.49958 
9.56744 -0.0982197 0.474721 
-0.0982197 9.29453 -0.252809 
0.474721 -0.252809 9.60144 
9.67788 -0.222653 0.900082 
-0.222653 9.50657 0.147797 
0.900082 0.147797 9.27896 
9.1071 0.259169 -0.36441 
0.259169 8.74336 0.768217 
-0.36441 0.768217 9.57398 
9.05953 0.227922 -0.324001 
0.227922 9.24201 0.613684 
-0.324001 0.613684 9.12289 
8.91968 -0.0161387 -0.323909 
-0.0161387 9.95421 0.771634 
-0.323909 0.771634 8.55055 
9.08481 0.147208 -0.485342 
0.147208 9.32803 0.249878 
-0.485342 0.249878 9.0116 
9.84695 0.0370527 0.398021 
0.0370527 9.84786 -0.122108 
0.398021 -0.122108 9.86669 
9.80759 -0.0588164 0.363125 
-0.0588164 9.84024 -0.110098 
0.363125 -0.110098 9.91368 
9.84941 -0.0547155 0.387298 
-0.0547155 9.86987 -0.0678855 
0.387298 -0.0678855 9.84222 
9.81352 -0.0136824 0.398881 
-0.0136824 9.87205 -0.0712241 
0.398881 -0.0712241 9.87594 
10.945 -0.246101 0.312137 
-0.246101 7.81718 1.99621 
0.312137 1.99621 6.01403 
10.0453 0.00931135 -0.640188 
0.00931135 7.63278 2.42571 
-0.640188 2.42571 7.09807 
10.5396 -0.245348 0.502735 
-0.245348 7.42685 2.17143 
0.502735 2.17143 6.80972 
11.0099 -0.135312 0.282573 
-0.135312 7.60859 1.98346 
0.282573 1.98346 6.15768 
9.77464 0.0115139 0.0290955 
0.0115139 9.86307 0.102173 
0.0290955 0.102173 9.82578 
9.8144 0.00528579 0.0425308 
0.00528579 9.86645 0.0862377 
0.0425308 0.0862377 9.78264 
9.80934 -0.00524071 0.0491192 
-0.00524071 9.84519 0.0898658 
0.0491192 0.0898658 9.80895 
9.80956 0.0201079 0.0377046 
0.0201079 9.86066 0.0479958 
0.0377046 0.0479958 9.79326 
9.8297 -0.0164115 0.465756 
-0.0164115 9.86917 -0.236435 
0.465756 -0.236435 9.89541 
9.85503 0.00149828 0.41297 
0.00149828 9.82026 -0.209814 
0.41297 -0.209814 9.91899 
9.8437 0.00761512 0.457057 
0.00761512 9.88482 -0.248253 
0.457057 -0.248253 9.86575 
9.83933 -0.0331787 0.494695 
-0.0331787 9.90901 -0.23335 
0.494695 -0.23335 9.84594 
5.8232 1.15685 -0.259696 
1.15685 7.02698 0.740084 
-0.259696 0.740084 12.4976 
13.1886 -1.80658 -0.859065 
-1.80658 4.20279 -0.486217 
-0.859065 -0.486217 7.95632 
6.50861 -1.0126 2.06914 
-1.0126 7.72705 3.56524 
2.06914 3.56524 11.1121 
9.72376 -2.06027 -0.271398 
-2.06027 10.442 1.88327 
-0.271398 1.88327 5.18201 
9.00587 0.0235804 -0.528564 
0.0235804 8.9236 0.764812 
-0.528564 0.764812 9.01355 
8.93866 0.318538 -0.568495 
0.318538 9.15958 0.581701 
-0.568495 0.581701 8.84478 
8.81766 0.315644 -0.568149 
0.315644 9.31466 0.7411 
-0.568149 0.7411 8.81069 
9.03976 0.148351 -0.693912 
0.148351 9.19768 0.835916 
-0.693912 0.835916 8.70558 
9.16175 0.136244 -0.659685 
0.136244 9.5258 -0.00255579 
-0.659685 -0.00255579 9.45279 
9.27235 0.0743477 -0.515328 
0.0743477 9.39875 0.0717801 
-0.515328 0.0717801 9.46925 
9.2954 0.0914201 -0.60905 
0.0914201 9.39272 -0.0137669 
-0.60905 -0.0137669 9.45222 
9.24335 0.0972578 -0.391001 
0.0972578 9.37592 0.0889733 
-0.391001 0.0889733 9.52107 
11.2133 -0.874893 0.219863 
-0.874893 6.80479 -1.58052 
0.219863 -1.58052 12.2657 
10.7164 -0.86103 -0.878522 
-0.86103 6.81918 0.485822 
-0.878522 0.485822 12.7482 
9.33089 -0.984407 1.64763 
-0.984407 9.81693 -0.511226 
1.64763 -0.511226 11.136 
9.8036 -0.872618 -1.2709 
-0.872618 8.72939 0.765318 
-1.2709 0.765318 11.7508 
9.71926 -0.0095857 -0.00593421 
-0.0095857 9.74899 0.149282 
-0.00593421 0.149282 9.70648 
9.74978 -0.019419 0.00336424 
-0.019419 9.7798 0.152368 
0.00336424 0.152368 9.64515 
9.77304 0.0191774 0.027802 
0.0191774 9.75823 0.119858 
0.027802 0.119858 9.64346 
9.7212 0.0112228 -0.00662807 
0.0112228 9.76684 0.143028 
-0.00662807 0.143028 9.68669 
8.38955 1.13719 3.39626 
1.13719 8.78643 -0.167439 
3.39626 -0.167439 11.9339 
9.79189 0.456442 2.61514 
0.456442 10.2627 -1.79035 
2.61514 -1.79035 9.05529 
7.60819 -0.859242 0.864805 
-0.859242 11.6834 -0.131468 
0.864805 -0.131468 9.8183 
8.58223 0.660947 2.2782 
0.660947 9.73877 -0.359394 
2.2782 -0.359394 10.7888 
9.80937 -0.0890913 -0.476742 
-0.0890913 9.34387 -0.0161271 
-0.476742 -0.0161271 9.25252 
9.59872 0.0301307 -0.340006 
0.0301307 9.35231 0.0396185 
-0.340006 0.0396185 9.45473 
9.92323 -0.000674179 -0.491703 
-0.000674179 9.45437 -0.113473 
-0.491703 -0.113473 9.02817 
9.63208 0.00493797 -0.586999 
0.00493797 9.23804 -0.0411103 
-0.586999 -0.0411103 9.53564 
9.24433 -0.0268076 0.190936 
-0.0268076 9.39782 0.59168 
0.190936 0.59168 9.16131 
9.26022 -0.0719684 0.164084 
-0.0719684 9.48191 0.743597 
0.164084 0.743597 9.06134 
9.37032 -0.0950565 0.0810742 
-0.0950565 9.3074 0.637425 
0.0810742 0.637425 9.12575 
9.29255 -0.0293552 0.275555 
-0.0293552 9.44303 0.737152 
0.275555 0.737152 9.06788 
9.76213 -0.0146994 0.255358 
-0.0146994 9.89402 -0.532202 
0.255358 -0.532202 9.29841 
9.53665 0.0461625 0.374934 
0.0461625 9.78071 -0.398718 
0.374934 -0.398718 9.6372 
9.48719 -0.0101056 0.4801 
-0.0101056 9.58567 -0.499696 
0.4801 -0.499696 9.88171 
9.66479 0.0784559 0.353101 
0.0784559 9.73105 -0.378912 
0.353101 -0.378912 9.55872 
3.80666 -0.748776 -2.74017 
-0.748776 3.55176 -0.835315 
-2.74017 -0.835315 0.674613 
2.58975 -0.0614296 -1.78357 
-0.0614296 3.7355 -0.710457 
-1.78357 -0.710457 1.70779 
2.09244 0.462341 -2.01397 
0.462341 2.60544 -1.8216 
-2.01397 -1.8216 3.33516 
5.36538 0.791071 -3.74382 
0.791071 4.55694 -0.943996 
-3.74382 -0.943996 -1.88929 
6.36975 -0.3832 1.60625 
-0.3832 7.56367 1.79765 
1.60625 1.79765 1.14844 
5.91822 -1.39091 2.21694 
-1.39091 7.10982 1.57987 
2.21694 1.57987 2.05382 
5.71813 -0.260698 2.88844 
-0.260698 7.18592 1.63395 
2.88844 1.63395 2.17781 
6.70919 0.983217 3.44665 
0.983217 5.00233 1.32019 
3.44665 1.32019 3.37035 
6.865 2.34248 -0.168789 
2.34248 9.30715 0.211242 
-0.168789 0.211242 18.1776 
3.66382 2.18349 0.300947 
2.18349 11.1145 1.88417 
0.300947 1.88417 19.5714 
13.8878 3.87979 1.92232 
3.87979 11.4777 -1.00548 
1.92232 -1.00548 8.98418 
9.99391 -0.38466 -2.96127 
-0.38466 11.0712 1.16146 
-2.96127 1.16146 13.2846 
8.26312 0.474837 -0.37117 
0.474837 9.54702 0.229684 
-0.37117 0.229684 9.90976 
8.22844 -0.508724 -0.835428 
-0.508724 9.47603 0.71566 
-0.835428 0.71566 10.0154 
8.87727 0.110047 -0.53988 
0.110047 9.59977 0.396248 
-0.53988 0.396248 9.24286 
9.55292 0.07869 -0.477356 
0.07869 9.15082 0.452794 
-0.477356 0.452794 9.01616 
9.47025 0.0155413 0.258939 
0.0155413 9.50172 0.613488 
0.258939 0.613488 9.41634 
9.54922 -0.108259 0.251189 
-0.108259 9.16544 0.58544 
0.251189 0.58544 9.67365 
9.49104 0.125818 0.250367 
0.125818 9.69813 0.755819 
0.250367 0.755819 9.19914 
9.51263 0.0911749 0.269045 
0.0911749 9.66408 0.384237 
0.269045 0.384237 9.2116 
8.20088 0.10748 -0.880548 
0.10748 8.42849 0.976528 
-0.880548 0.976528 7.60681 
7.64124 0.279938 0.301865 
0.279938 9.86157 0.541795 
0.301865 0.541795 6.73337 
8.65339 0.221261 -0.544026 
0.221261 8.63803 1.47247 
-0.544026 1.47247 6.94476 
9.6204 -0.224025 -0.839486 
-0.224025 7.82947 1.03176 
-0.839486 1.03176 6.78631 
9.93974 0.0073213 0.132523 
0.0073213 9.92585 0.00562322 
0.132523 0.00562322 9.89903 
9.86482 0.0059603 0.101985 
0.0059603 9.84309 -0.00444047 
0.101985 -0.00444047 10.0567 
9.90238 0.00325572 0.118361 
0.00325572 9.88432 0.0350169 
0.118361 0.0350169 9.97792 
9.92546 0.00634016 0.167467 
0.00634016 9.89975 0.0390566 
0.167467 0.0390566 9.93941 
10.0993 -0.408237 0.532837 
-0.408237 8.90578 0.261996 
0.532837 0.261996 8.58021 
9.1807 -0.326577 0.252199 
-0.326577 9.27247 0.33207 
0.252199 0.33207 9.13213 
10.0236 -0.140209 0.586258 
-0.140209 9.02261 0.500187 
0.586258 0.500187 8.53914 
9.83409 -0.00865837 1.27019 
-0.00865837 8.76833 -0.0391177 
1.27019 -0.0391177 8.98289 
9.85173 -0.00601585 0.321823 
-0.00601585 9.94692 -0.31131 
0.321823 -0.31131 9.83183 
9.91472 0.000724189 0.322478 
0.000724189 9.90785 -0.306523 
0.322478 -0.306523 9.80792 
9.90234 -0.00716007 0.32618 
-0.00716007 9.85108 -0.321812 
0.32618 -0.321812 9.87706 
9.86631 0.00380416 0.327181 
0.00380416 9.92945 -0.301591 
0.327181 -0.301591 9.83473 
10.3511 0.187938 -0.303519 
0.187938 10.3938 -0.137468 
-0.303519 -0.137468 12.8637 
11.3294 -0.00458585 -0.0204349 
-0.00458585 11.2138 -0.138613 
-0.0204349 -0.138613 11.0653 
11.244 -0.0324747 -0.143556 
-0.0324747 11.1812 -0.196437 
-0.143556 -0.196437 11.1832 
11.4251 0.131522 0.175094 
0.131522 11.2579 -1.11997 
0.175094 -1.11997 10.9254 
8.89963 0.0965746 -0.472203 
0.0965746 9.42826 0.40287 
-0.472203 0.40287 9.33752 
8.96993 0.141352 -0.437406 
0.141352 9.47483 0.39172 
-0.437406 0.39172 9.22064 
8.89236 -0.0546124 -0.367408 
-0.0546124 9.20911 0.295931 
-0.367408 0.295931 9.56394 
8.69699 0.0629673 -0.669299 
0.0629673 9.48673 0.521357 
-0.669299 0.521357 9.48168 
9.96739 0.015462 0.00794099 
0.015462 9.96338 0.209591 
0.00794099 0.209591 9.91831 
9.98922 0.0105271 0.00859041 
0.0105271 9.92255 0.212793 
0.00859041 0.212793 9.9373 
9.8617 0.0244189 0.0368427 
0.0244189 9.88831 0.187374 
0.0368427 0.187374 10.0991 
9.97409 0.00912147 0.033772 
0.00912147 9.97261 0.230406 
0.033772 0.230406 9.90238 
9.51066 -0.378323 0.548654 
-0.378323 9.1317 0.725884 
0.548654 0.725884 10.1069 
9.49916 -0.516858 0.278555 
-0.516858 9.0567 1.20495 
0.278555 1.20495 10.1934 
9.99987 -0.300841 0.421267 
-0.300841 8.7397 0.308501 
0.421267 0.308501 10.0097 
9.59157 -0.315208 0.633842 
-0.315208 9.12852 0.906284 
0.633842 0.906284 10.0292 
9.8717 0.0299452 0.478197 
0.0299452 9.84162 -0.0592943 
0.478197 -0.0592943 9.96099 
9.88576 0.0146007 0.446463 
0.0146007 9.85181 -0.0573405 
0.446463 -0.0573405 9.93674 
9.88167 0.0199986 0.471145 
0.0199986 9.86347 -0.0491687 
0.471145 -0.0491687 9.92917 
9.8951 0.0216973 0.437094 
0.0216973 9.86294 -0.0555453 
0.437094 -0.0555453 9.91627 
9.51678 -0.150789 0.0368052 
-0.150789 8.90395 -0.0977012 
0.0368052 -0.0977012 10.0505 
9.37646 -0.168984 0.0369762 
-0.168984 8.87369 -0.251072 
0.0369762 -0.251072 10.2211 
9.40131 -0.160549 0.0680873 
-0.160549 8.87786 -0.153491 
0.0680873 -0.153491 10.192 
9.45578 -0.197856 0.102147 
-0.197856 8.79888 -0.116884 
0.102147 -0.116884 10.2165 
9.0354 0.0908896 -0.544496 
0.0908896 8.95867 0.360411 
-0.544496 0.360411 10.2989 
9.0275 -0.0404211 0.0068682 
-0.0404211 8.93899 0.229246 
0.0068682 0.229246 10.3265 
9.19244 -0.159431 -0.469127 
-0.159431 8.75903 0.548258 
-0.469127 0.548258 10.3415 
9.1338 0.329769 -0.0221108 
0.329769 8.52639 0.244062 
-0.0221108 0.244062 10.6328 
9.58118 -0.315519 0.0427403 
-0.315519 8.70693 -0.0109385 
0.0427403 -0.0109385 9.83783 
10.0319 -0.265327 -0.0458679 
-0.265327 9.18998 0.28728 
-0.0458679 0.28728 8.90405 
9.7808 -0.475315 0.516906 
-0.475315 8.9783 0.151691 
0.516906 0.151691 9.36683 
9.85196 -0.0640733 0.172028 
-0.0640733 8.95993 0.108537 
0.172028 0.108537 9.31405 
9.69814 -0.0942533 0.37433 
-0.0942533 9.67623 -0.0290002 
0.37433 -0.0290002 9.55493 
9.37783 -0.00322092 0.434784 
-0.00322092 9.71749 -0.0905341 
0.434784 -0.0905341 9.83399 
9.66757 -0.0691263 0.361234 
-0.0691263 9.5596 -0.0621004 
0.361234 -0.0621004 9.70215 
9.55275 -0.0461399 0.228213 
-0.0461399 9.5725 -0.0546545 
0.228213 -0.0546545 9.80406 
9.20755 -0.00323739 0.264658 
-0.00323739 9.54488 -0.0721807 
0.264658 -0.0721807 9.58718 
9.52131 -0.37093 0.456802 
-0.37093 9.44989 -0.172471 
0.456802 -0.172471 9.36841 
9.08905 0.128226 0.268148 
0.128226 9.61187 -0.219444 
0.268148 -0.219444 9.63869 
9.51412 -0.0485134 0.270402 
-0.0485134 9.3051 0.0329699 
0.270402 0.0329699 9.52039 
9.81937 -0.0448775 1.54555 
-0.0448775 9.25915 0.823181 
1.54555 0.823181 9.25922 
9.36081 -0.059129 0.749038 
-0.059129 8.91843 0.192473 
0.749038 0.192473 10.0585 
10.7536 -0.425613 0.493185 
-0.425613 10.172 -0.312318 
0.493185 -0.312318 7.41214 
9.32529 -0.155372 0.926728 
-0.155372 9.98601 0.160886 
0.926728 0.160886 9.02645 
9.50851 0.0140423 0.189711 
0.0140423 9.61507 0.670377 
0.189711 0.670377 9.45985 
9.55874 0.00811541 0.181795 
0.00811541 9.66477 0.60201 
0.181795 0.60201 9.35992 
9.49803 0.0361173 0.186249 
0.0361173 9.60738 0.633504 
0.186249 0.633504 9.47802 
9.41756 0.0422638 0.174208 
0.0422638 9.4878 0.52745 
0.174208 0.52745 9.67807 
9.6158 0.0447441 0.350089 
0.0447441 9.76234 -0.051821 
0.350089 -0.051821 9.82076 
9.75857 0.0273409 0.387642 
0.0273409 9.54179 -0.144127 
0.387642 -0.144127 9.89854 
9.73474 -0.0759096 0.448971 
-0.0759096 9.56838 -0.0526872 
0.448971 -0.0526872 9.89579 
9.74386 -0.0464496 0.407094 
-0.0464496 9.62081 -0.0773153 
0.407094 -0.0773153 9.83424 
9.88499 -0.0087667 -0.45 
-0.0087667 9.86134 0.141213 
-0.45 0.141213 10.0119 
9.90353 -0.000683368 -0.424476 
-0.000683368 9.89695 0.118623 
-0.424476 0.118623 9.95773 
9.8949 -0.00475758 -0.439421 
-0.00475758 9.90554 0.113615 
-0.439421 0.113615 9.95777 
9.92148 0.00227485 -0.418793 
0.00227485 9.90921 0.111954 
-0.418793 0.111954 9.92753 
9.56598 0.276896 -0.0496093 
0.276896 9.6863 0.0687625 
-0.0496093 0.0687625 8.30252 
9.60369 0.0323153 0.175596 
0.0323153 9.42522 0.149236 
0.175596 0.149236 8.52589 
9.56954 0.0229076 0.230803 
0.0229076 9.52387 0.327483 
0.230803 0.327483 8.46139 
9.35192 0.0166505 -0.0169197 
0.0166505 9.27768 0.128432 
-0.0169197 0.128432 8.9252 
9.66759 -0.469587 -0.835941 
-0.469587 9.62445 -0.534138 
-0.835941 -0.534138 10.4724 
9.57326 -0.144582 -0.74463 
-0.144582 9.69152 -0.421702 
-0.74463 -0.421702 10.4996 
9.6812 -0.122527 -0.343924 
-0.122527 9.68488 -0.246504 
-0.343924 -0.246504 10.3983 
9.35758 -0.136205 -0.752148 
-0.136205 10.3154 -0.187838 
-0.752148 -0.187838 10.0915 
8.49056 0.679995 -0.385724 
0.679995 8.7187 0.616979 
-0.385724 0.616979 9.36284 
8.68478 0.582398 -0.54204 
0.582398 8.72984 0.772219 
-0.54204 0.772219 9.15747 
8.28655 -0.598114 -0.345259 
-0.598114 9.82668 0.318206 
-0.345259 0.318206 8.45886 
7.80414 0.674396 -1.0652 
0.674396 9.75427 0.920214 
-1.0652 0.920214 9.01368 
9.75176 -0.026495 -0.065768 
-0.026495 9.73896 0.0957608 
-0.065768 0.0957608 9.75433 
9.79919 0.0158866 -0.0584889 
0.0158866 9.77686 0.0591882 
-0.0584889 0.0591882 9.669 
9.83863 0.00977228 -0.0769058 
0.00977228 9.77885 0.0971783 
-0.0769058 0.0971783 9.62757 
9.78974 -0.00114377 -0.0944081 
-0.00114377 9.73148 0.0874233 
-0.0944081 0.0874233 9.72382 
9.59894 0.131871 0.264992 
0.131871 9.49821 -0.793301 
0.264992 -0.793301 9.25072 
9.77033 -0.131104 0.136213 
-0.131104 9.69438 -0.542625 
0.136213 -0.542625 8.88316 
9.26739 0.00284648 0.129833 
0.00284648 9.64453 -0.841458 
0.129833 -0.841458 9.43594 
9.32285 -0.133505 0.145781 
-0.133505 9.38809 -0.41986 
0.145781 -0.41986 9.63692 
9.76675 0.0599302 0.275095 
0.0599302 9.66067 -0.70487 
0.275095 -0.70487 9.01887 
9.01893 0.0557666 0.0484167 
0.0557666 9.65267 -0.534764 
0.0484167 -0.534764 9.77469 
9.49818 -0.143954 0.284716 
-0.143954 9.65037 -0.781203 
0.284716 -0.781203 9.29774 
9.73657 0.23565 0.205948 
0.23565 9.97958 -0.307109 
0.205948 -0.307109 8.73013 
9.45872 0.33172 -0.348544 
0.33172 9.6605 -0.161831 
-0.348544 -0.161831 9.03681 
9.31677 0.193642 -0.371315 
0.193642 9.49454 -0.111389 
-0.371315 -0.111389 9.34472 
8.98417 -0.15005 -0.582454 
-0.15005 9.48898 -0.24235 
-0.582454 -0.24235 9.68288 
9.07277 0.0736769 -0.284894 
0.0736769 9.47501 0.10721 
-0.284894 0.10721 9.60826 
9.25294 0.0299871 -0.327357 
0.0299871 9.39606 0.154226 
-0.327357 0.154226 9.79836 
9.15343 -0.0733628 -0.327662 
-0.0733628 9.4952 0.149017 
-0.327662 0.149017 9.79873 
9.13248 -0.150818 -0.235688 
-0.150818 9.46555 0.143986 
-0.235688 0.143986 9.84933 
8.96161 0.101793 -0.346113 
0.101793 9.53796 0.066035 
-0.346113 0.066035 9.94779 
8.81775 -0.161006 0.183764 
-0.161006 8.81344 0.819401 
0.183764 0.819401 8.94189 
8.71335 -0.0455341 0.239545 
-0.0455341 9.12732 0.866048 
0.239545 0.866048 8.73241 
8.87106 -0.103238 0.224011 
-0.103238 8.95564 0.808381 
0.224011 0.808381 8.74638 
8.81538 -0.0306672 0.153309 
-0.0306672 8.93082 0.802998 
0.153309 0.802998 8.82688 
9.87126 0.0182616 0.474643 
0.0182616 9.84992 -0.045073 
0.474643 -0.045073 9.90666 
9.87544 0.0189088 0.467183 
0.0189088 9.86205 -0.0385071 
0.467183 -0.0385071 9.89036 
9.86881 0.0157994 0.465746 
0.0157994 9.84744 -0.0344439 
0.465746 -0.0344439 9.91159 
9.89862 0.0196508 0.470032 
0.0196508 9.85324 -0.0430241 
0.470032 -0.0430241 9.87598 
9.83136 0.0287565 -0.466083 
0.0287565 9.84106 0.0871382 
-0.466083 0.0871382 9.92355 
9.84022 0.00252036 -0.447672 
0.00252036 9.84273 0.0792077 
-0.447672 0.0792077 9.91303 
9.84929 -0.00264941 -0.451249 
-0.00264941 9.84655 0.0799636 
-0.451249 0.0799636 9.90013 
9.83502 0.0188386 -0.429516 
0.0188386 9.86156 0.111609 
-0.429516 0.111609 9.89939 
9.70202 0.00364963 0.0888411 
0.00364963 9.74428 0.0461157 
0.0888411 0.0461157 9.73826 
9.73968 0.0095227 0.0327908 
0.0095227 9.77787 0.0392537 
0.0327908 0.0392537 9.66701 
9.73567 0.00589157 0.0719867 
0.00589157 9.74431 0.0418742 
0.0719867 0.0418742 9.70458 
9.74473 0.0488358 0.0430057 
0.0488358 9.75323 0.00977936 
0.0430057 0.00977936 9.68661 
9.78246 0.058654 -0.0085735 
0.058654 9.81124 -0.00670859 
-0.0085735 -0.00670859 9.85498 
9.76324 0.0403598 0.0286298 
0.0403598 9.8212 -0.01047 
0.0286298 -0.01047 9.86424 
9.79181 0.0626553 0.00304923 
0.0626553 9.75791 0.00173614 
0.00304923 0.00173614 9.89897 
9.76571 0.0574703 0.0206631 
0.0574703 9.83507 -0.0272111 
0.0206631 -0.0272111 9.84791 
9.88659 0.00106419 -0.219162 
0.00106419 9.76996 -0.000907889 
-0.219162 -0.000907889 9.86085 
9.94515 0.040253 -0.174596 
0.040253 9.79881 -0.00267058 
-0.174596 -0.00267058 9.77344 
9.87118 -0.00188884 -0.214391 
-0.00188884 9.79665 -0.0283027 
-0.214391 -0.0283027 9.84957 
9.87647 -0.0330825 -0.182647 
-0.0330825 9.81136 -0.00243177 
-0.182647 -0.00243177 9.82958 
9.70195 -0.00788468 -0.0238224 
-0.00788468 9.79493 0.645597 
-0.0238224 0.645597 9.58059 
9.68714 -0.0193456 0.0559304 
-0.0193456 9.75876 0.581209 
0.0559304 0.581209 9.63156 
9.65149 -0.0328898 0.129919 
-0.0328898 9.7412 0.588223 
0.129919 0.588223 9.68477 
9.6712 -0.0256398 0.0769695 
-0.0256398 9.76593 0.582095 
0.0769695 0.582095 9.64034 
9.54205 0.0201759 -0.423237 
0.0201759 9.62591 0.214028 
-0.423237 0.214028 9.64879 
9.5718 -0.00835551 -0.397398 
-0.00835551 9.59953 0.22105 
-0.397398 0.22105 9.64541 
9.5381 -0.0152364 -0.403603 
-0.0152364 9.63891 0.186493 
-0.403603 0.186493 9.63973 
9.55961 -0.0258582 -0.438278 
-0.0258582 9.61534 0.171045 
-0.438278 0.171045 9.6418 
8.59989 -0.395394 0.408575 
-0.395394 8.54758 -0.658085 
0.408575 -0.658085 8.05064 
8.29451 0.707231 0.587426 
0.707231 7.90009 -1.36717 
0.587426 -1.36717 9.00351 
8.82502 -0.480075 0.798342 
-0.480075 8.40146 -0.687846 
0.798342 -0.687846 7.97162 
9.26936 0.349311 0.0113768 
0.349311 7.51099 -0.969254 
0.0113768 -0.969254 8.41776 
9.39814 -0.566881 0.13049 
-0.566881 8.72476 0.201398 
0.13049 0.201398 9.90901 
9.47261 0.0233831 0.54346 
0.0233831 9.30076 0.081138 
0.54346 0.081138 9.25853 
9.52339 -0.404261 0.675597 
-0.404261 9.0665 0.430484 
0.675597 0.430484 9.44201 
9.49652 -0.0363594 0.922722 
-0.0363594 9.00404 0.107536 
0.922722 0.107536 9.53135 
9.11156 0.0215729 0.373513 
0.0215729 9.15287 0.0104261 
0.373513 0.0104261 10.635 
9.21923 -0.00378671 0.203169 
-0.00378671 8.95247 0.139098 
0.203169 0.139098 10.7278 
9.2307 0.0232952 0.356958 
0.0232952 9.07568 0.104361 
0.356958 0.104361 10.5931 
9.17087 0.0420474 0.31293 
0.0420474 9.13962 0.168133 
0.31293 0.168133 10.589 
9.91302 -0.00151351 -0.293868 
-0.00151351 9.90485 0.0469383 
-0.293868 0.0469383 9.99453 
9.96421 0.000594975 -0.2996 
0.000594975 9.92844 0.0354312 
-0.2996 0.0354312 9.91976 
9.89733 -0.0211959 -0.284523 
-0.0211959 9.88047 0.0112902 
-0.284523 0.0112902 10.0346 
9.97981 0.00355599 -0.264931 
0.00355599 9.90353 0.0578024 
-0.264931 0.0578024 9.92907 
2.97359 -0.293123 -1.05477 
-0.293123 3.11713 -0.628246 
-1.05477 -0.628246 1.17625 
4.5253 -0.311208 0.466883 
-0.311208 4.21414 -1.47701 
0.466883 -1.47701 -1.47248 
2.28142 -0.34755 -1.291 
-0.34755 2.04232 -0.384426 
-1.291 -0.384426 2.94323 
4.44392 -1.62697 -2.33104 
-1.62697 2.79768 0.586668 
-2.33104 0.586668 0.0253652 
9.81355 -0.0481364 0.096504 
-0.0481364 9.50854 -0.0570929 
0.096504 -0.0570929 8.21608 
9.22026 -0.0770939 0.163616 
-0.0770939 9.71292 -0.321797 
0.163616 -0.321797 8.60499 
9.4103 -0.047731 0.424785 
-0.047731 9.62441 -0.299269 
0.424785 -0.299269 8.50347 
8.83367 0.0577471 -0.0965556 
0.0577471 9.31279 -0.195816 
-0.0965556 -0.195816 9.39172 
9.15067 -0.0594479 -0.367075 
-0.0594479 9.66583 0.46915 
-0.367075 0.46915 9.37497 
9.26395 0.0353766 -0.35088 
0.0353766 9.53334 0.426949 
-0.35088 0.426949 9.39418 
9.30135 0.198879 -0.344513 
0.198879 9.40718 0.286199 
-0.344513 0.286199 9.48294 
9.23297 -0.0582846 -0.43911 
-0.0582846 9.43917 0.425718 
-0.43911 0.425718 9.51933 
9.50113 -0.00820485 -0.467493 
-0.00820485 9.53978 0.112932 
-0.467493 0.112932 9.74084 
9.47906 -0.00921958 -0.474999 
-0.00921958 9.53091 0.128147 
-0.474999 0.128147 9.77178 
9.49177 -0.000881485 -0.472529 
-0.000881485 9.56542 0.112383 
-0.472529 0.112383 9.72456 
9.5289 0.00694567 -0.4311 
0.00694567 9.58779 0.074586 
-0.4311 0.074586 9.66506 
9.24515 0.086159 0.582872 
0.086159 9.59719 -0.291841 
0.582872 -0.291841 9.47212 
9.3249 -0.144133 0.365489 
-0.144133 9.60891 -0.278691 
0.365489 -0.278691 9.38065 
9.3327 -0.167733 0.400793 
-0.167733 9.67764 -0.23701 
0.400793 -0.23701 9.30413 
9.17281 -0.0507819 0.479677 
-0.0507819 9.59892 -0.199952 
0.479677 -0.199952 9.54274 
10.2411 -0.0324133 -0.0348295 
-0.0324133 10.3459 -0.0202517 
-0.0348295 -0.0202517 9.96018 
10.1473 -0.0461484 -0.0602201 
-0.0461484 10.1567 -0.135397 
-0.0602201 -0.135397 10.2432 
9.86809 -0.0950255 0.148823 
-0.0950255 10.194 -0.111459 
0.148823 -0.111459 10.4852 
10.037 -0.00318235 -0.165042 
-0.00318235 10.186 -0.218452 
-0.165042 -0.218452 10.3242 
9.67024 -0.322964 -0.333941 
-0.322964 9.60128 0.0629822 
-0.333941 0.0629822 10.1571 
9.37673 0.0889077 -0.330244 
0.0889077 10.2946 0.0207223 
-0.330244 0.0207223 9.75726 
9.71946 -0.00387309 0.157393 
-0.00387309 9.72953 -0.333634 
0.157393 -0.333634 9.97961 
9.20964 -0.0171993 -0.0714294 
-0.0171993 10.0272 -0.239184 
-0.0714294 -0.239184 10.1917 
9.75422 0.00131312 0.564168 
0.00131312 9.8229 0.451881 
0.564168 0.451881 9.37493 
9.50418 -0.00926156 0.515344 
-0.00926156 9.51489 0.411883 
0.515344 0.411883 9.93297 
9.6896 0.0483792 0.452325 
0.0483792 9.70854 0.373619 
0.452325 0.373619 9.5539 
9.64042 0.0646885 0.456904 
0.0646885 9.76979 0.335083 
0.456904 0.335083 9.54184 
9.27143 -1.16229 -1.95287 
-1.16229 7.73094 -2.76474 
-1.95287 -2.76474 9.7662 
7.63006 -0.333745 -0.1737 
-0.333745 7.3452 -1.2685 
-0.1737 -1.2685 11.7933 
10.103 0.415597 -1.18072 
0.415597 7.61126 -1.753 
-1.18072 -1.753 9.0543 
11.1967 -0.420727 -1.99613 
-0.420727 9.19662 -0.226623 
-1.99613 -0.226623 6.37525 
9.68957 0.00794532 -0.495886 
0.00794532 9.70724 0.0771921 
-0.495886 0.0771921 9.90212 
9.77487 0.0315079 -0.481404 
0.0315079 9.77973 0.0923514 
-0.481404 0.0923514 9.74434 
9.7102 -0.00665679 -0.443313 
-0.00665679 9.76034 0.0804444 
-0.443313 0.0804444 9.82839 
9.72218 0.00865677 -0.469813 
0.00865677 9.76117 0.0819124 
-0.469813 0.0819124 9.81558 
9.34616 0.00508534 0.0450557 
0.00508534 9.62428 -0.230351 
0.0450557 -0.230351 9.15647 
9.52817 0.0115954 0.196194 
0.0115954 9.59497 -0.193698 
0.196194 -0.193698 9.00378 
9.50777 0.0180222 0.0842486 
0.0180222 9.55446 -0.222671 
0.0842486 -0.222671 9.06469 
9.45531 0.0231048 0.13663 
0.0231048 9.65628 -0.290302 
0.13663 -0.290302 9.01533 
9.62425 0.103196 0.597534 
0.103196 9.68926 0.144241 
0.597534 0.144241 9.4645 
9.51155 0.0629749 0.587625 
0.0629749 9.64419 0.157775 
0.587625 0.157775 9.62227 
9.56321 0.0739836 0.557486 
0.0739836 9.66696 0.162159 
0.557486 0.162159 9.54783 
9.55151 0.0757853 0.501362 
0.0757853 9.6845 0.151816 
0.501362 0.151816 9.54199 
9.66937 -0.0438182 0.270622 
-0.0438182 9.64178 0.62252 
0.270622 0.62252 9.80068 
9.71529 0.0804841 0.252179 
0.0804841 9.79437 0.651042 
0.252179 0.651042 9.60218 
9.69829 -0.0508274 0.256482 
-0.0508274 9.72938 0.590217 
0.256482 0.590217 9.68417 
9.71918 -0.0204998 0.201682 
-0.0204998 9.74502 0.536861 
0.201682 0.536861 9.64764 
4.4579 0.194989 -1.21298 
0.194989 7.82243 2.00043 
-1.21298 2.00043 10.8094 
9.30221 0.37929 -0.570722 
0.37929 9.03809 0.441031 
-0.570722 0.441031 4.74941 
7.97483 0.0875819 -1.32585 
0.0875819 9.30081 3.31065 
-1.32585 3.31065 5.81406 
8.04742 -0.77683 -0.375915 
-0.77683 8.50012 1.69119 
-0.375915 1.69119 6.54216 
8.95823 0.493347 1.00434 
0.493347 9.25294 -0.458401 
1.00434 -0.458401 9.08017 
8.56198 0.308097 1.19579 
0.308097 9.63447 -0.464036 
1.19579 -0.464036 9.09489 
9.03602 0.16875 0.705702 
0.16875 9.08208 -0.187974 
0.705702 -0.187974 9.17323 
9.00504 0.721499 0.898297 
0.721499 9.13061 -0.581432 
0.898297 -0.581432 9.15568 
7.66684 -1.0845 -1.13546 
-1.0845 7.34963 4.40831 
-1.13546 4.40831 7.78973 
7.42499 1.65433 -1.36992 
1.65433 7.60944 2.03695 
-1.36992 2.03695 7.77176 
8.92387 1.96047 -1.37712 
1.96047 7.88501 5.23617 
-1.37712 5.23617 5.9973 
8.63014 -0.408917 -0.779303 
-0.408917 7.49133 2.53845 
-0.779303 2.53845 6.68472 
4.9956 0.857868 1.02845 
0.857868 3.15059 -0.6217 
1.02845 -0.6217 1.91649 
3.69307 -1.31495 0.509853 
-1.31495 5.84514 0.47213 
0.509853 0.47213 0.524473 
2.66795 -0.126378 -0.186023 
-0.126378 3.6606 -1.01668 
-0.186023 -1.01668 3.73413 
2.61583 -0.0385506 0.0505427 
-0.0385506 4.57699 -1.11736 
0.0505427 -1.11736 2.86986 
9.71593 0.000725496 -0.191419 
0.000725496 9.74367 0.369217 
-0.191419 0.369217 9.64741 
9.73698 -0.000277574 -0.103001 
-0.000277574 9.75919 0.333588 
-0.103001 0.333588 9.61084 
9.84215 0.0258002 -0.200969 
0.0258002 9.84711 0.332773 
-0.200969 0.332773 9.41775 
9.72036 -0.000268754 -0.100425 
-0.000268754 9.79039 0.352944 
-0.100425 0.352944 9.59626 
9.89754 -0.013458 -0.088075 
-0.013458 9.92699 0.0470485 
-0.088075 0.0470485 9.97955 
9.94676 -0.016228 -0.0874679 
-0.016228 9.92508 0.0389018 
-0.0874679 0.0389018 9.93224 
9.88721 -0.0353704 -0.0724543 
-0.0353704 9.89401 0.00600461 
-0.0724543 0.00600461 10.0229 
9.96892 -0.00900141 -0.083253 
-0.00900141 9.92091 0.0525708 
-0.083253 0.0525708 9.91424 
6.53693 -0.532059 0.172924 
-0.532059 7.52894 0.0141855 
0.172924 0.0141855 1.10786 
5.80496 0.84677 0.481127 
0.84677 7.46015 -0.461084 
0.481127 -0.461084 1.90863 
6.26499 -2.10758 1.98508 
-2.10758 4.91771 0.657657 
1.98508 0.657657 3.99104 
5.52414 0.589056 1.24624 
0.589056 7.48698 -0.02675 
1.24624 -0.02675 2.16261 
7.2433 -0.169877 2.50959 
-0.169877 5.62805 -5.5712 
2.50959 -5.5712 10.6973 
8.29276 3.43805 -0.162951 
3.43805 5.84916 -1.35904 
-0.162951 -1.35904 9.42672 
9.8502 1.65449 1.45669 
1.65449 5.10495 -4.82784 
1.45669 -4.82784 8.61349 
9.47251 -1.7881 0.714757 
-1.7881 7.69534 -2.28519 
0.714757 -2.28519 6.40079 
9.52218 0.030354 0.265705 
0.030354 9.64947 0.555373 
0.265705 0.555373 9.46957 
9.52353 0.113474 0.215866 
0.113474 9.69659 0.503382 
0.215866 0.503382 9.4211 
9.50582 0.0310152 0.182017 
0.0310152 9.61915 0.55866 
0.182017 0.55866 9.51624 
9.46983 -0.0553392 0.192096 
-0.0553392 9.60218 0.49252 
0.192096 0.49252 9.56921 
9.02776 0.153224 0.0128076 
0.153224 9.06351 -0.999743 
0.0128076 -0.999743 8.6279 
8.89484 0.428206 -0.14687 
0.428206 9.215 -0.947484 
-0.14687 -0.947484 8.60933 
9.19251 -0.173195 0.0855827 
-0.173195 8.11675 -0.910256 
0.0855827 -0.910256 9.4099 
8.76378 0.111553 0.0643312 
0.111553 9.23291 -0.724945 
0.0643312 -0.724945 8.72248 
9.09383 0.418704 -0.762185 
0.418704 9.99563 -0.68121 
-0.762185 -0.68121 8.75611 
9.02481 -0.358977 -0.474767 
-0.358977 9.36501 -0.502484 
-0.474767 -0.502484 9.45575 
9.10629 -0.214583 -0.578068 
-0.214583 9.10018 -0.562249 
-0.578068 -0.562249 9.63911 
9.3035 0.167871 -0.661823 
0.167871 9.47686 -0.102686 
-0.661823 -0.102686 9.06522 
9.94197 0.0232938 -0.457382 
0.0232938 9.91447 0.0798318 
-0.457382 0.0798318 9.97836 
9.9225 0.00253362 -0.449971 
0.00253362 9.92887 0.0835095 
-0.449971 0.0835095 9.98344 
9.91817 0.018852 -0.450982 
0.018852 9.94207 0.0773328 
-0.450982 0.0773328 9.97456 
9.94359 0.00267575 -0.453027 
0.00267575 9.93847 0.090271 
-0.453027 0.090271 9.95275 
9.76117 -0.057956 0.0381781 
-0.057956 9.63247 0.200317 
0.0381781 0.200317 10.8818 
10.2135 -0.0267897 -0.0261179 
-0.0267897 10.4017 0.0572157 
-0.0261179 0.0572157 9.66017 
10.1628 0.152266 0.0979157 
0.152266 9.96599 0.101106 
0.0979157 0.101106 10.1467 
10.2133 -0.0496377 0.415247 
-0.0496377 10.0744 0.0142849 
0.415247 0.0142849 9.98775 
7.78718 0.656537 1.92844 
0.656537 8.31795 -1.76291 
1.92844 -1.76291 8.96106 
8.71372 0.83933 1.22821 
0.83933 8.14995 -1.34746 
1.22821 -1.34746 8.20252 
8.2643 1.32968 0.669708 
1.32968 7.68524 -0.556363 
0.669708 -0.556363 9.11665 
9.08618 0.515193 1.29516 
0.515193 8.25095 -0.938503 
1.29516 -0.938503 7.72906 
9.84903 0.00568561 -0.0650647 
0.00568561 9.87955 -0.495795 
-0.0650647 -0.495795 10.1009 
9.98439 -0.0291584 -0.0624606 
-0.0291584 9.91299 -0.453533 
-0.0624606 -0.453533 9.93207 
9.96637 -2.43772e-05 -0.0543115 
-2.43772e-05 9.99943 -0.399353 
-0.0543115 -0.399353 9.86365 
9.94642 -0.00279898 -0.0327013 
-0.00279898 10.0286 -0.449984 
-0.0327013 -0.449984 9.85444 
9.2534 -0.361762 -0.139559 
-0.361762 8.96014 -0.0371865 
-0.139559 -0.0371865 10.8904 
9.54253 -0.392466 -0.154088 
-0.392466 8.78764 -0.367038 
-0.154088 -0.367038 10.7738 
9.72793 0.42595 0.168117 
0.42595 8.65589 -0.0765811 
0.168117 -0.0765811 10.7201 
9.29708 -0.322127 -0.0275443 
-0.322127 8.8177 -0.00441429 
-0.0275443 -0.00441429 10.9892 
7.66342 0.0756944 3.29787 
0.0756944 7.89308 1.66358 
3.29787 1.66358 4.35207 
7.92985 -0.203666 3.35841 
-0.203666 7.76931 1.87144 
3.35841 1.87144 4.2094 
7.13643 -0.723369 3.14861 
-0.723369 7.66116 1.75876 
3.14861 1.75876 5.11097 
7.78172 0.851566 1.68721 
0.851566 7.56685 1.06088 
1.68721 1.06088 4.56 
6.84027 0.252598 -0.86635 
0.252598 6.8162 -1.93087 
-0.86635 -1.93087 6.50263 
7.28973 1.11468 -1.58619 
1.11468 7.87234 -2.17014 
-1.58619 -2.17014 4.99703 
6.39519 -1.43599 -1.15104 
-1.43599 6.99241 -1.3053 
-1.15104 -1.3053 6.7715 
8.17445 -0.41943 -0.927504 
-0.41943 6.28926 -0.748098 
-0.927504 -0.748098 5.69539 
8.97648 0.43532 -0.3081 
0.43532 8.94861 0.661867 
-0.3081 0.661867 8.98627 
8.9013 0.507762 -0.462901 
0.507762 8.8483 0.342649 
-0.462901 0.342649 9.16176 
8.36993 -0.134604 -0.617833 
-0.134604 9.80611 0.716855 
-0.617833 0.716855 8.73533 
8.88278 -0.252439 -0.803632 
-0.252439 8.79711 0.507141 
-0.803632 0.507141 9.23148 
9.73541 0.190303 -0.0924287 
0.190303 9.89866 -0.030128 
-0.0924287 -0.030128 9.68074 
9.62837 0.0191851 0.102333 
0.0191851 9.72056 -0.0854654 
0.102333 -0.0854654 9.96588 
9.53805 0.0348811 -0.0217807 
0.0348811 9.8284 -0.0542307 
-0.0217807 -0.0542307 9.94836 
9.56772 0.0115774 -0.0415406 
0.0115774 9.67598 -0.0277854 
-0.0415406 -0.0277854 10.0711 
9.84638 -0.0112816 0.481458 
-0.0112816 9.83299 -0.066156 
0.481458 -0.066156 9.89079 
9.87132 0.0222963 0.469596 
0.0222963 9.80873 -0.0772799 
0.469596 -0.0772799 9.89011 
9.8248 0.00909674 0.455247 
0.00909674 9.8817 -0.0200186 
0.455247 -0.0200186 9.86366 
9.86789 -0.00782269 0.479185 
-0.00782269 9.84064 -0.037759 
0.479185 -0.037759 9.86163 
9.71679 0.122814 0.310725 
0.122814 9.78541 -0.0742327 
0.310725 -0.0742327 9.53105 
9.80039 0.120183 0.282227 
0.120183 9.67346 0.0532092 
0.282227 0.0532092 9.5594 
9.78351 0.0241564 0.324983 
0.0241564 9.77877 -0.0681516 
0.324983 -0.0681516 9.47096 
9.71122 0.0184546 0.36434 
0.0184546 9.71882 0.0444745 
0.36434 0.0444745 9.60321 
9.82637 -0.023787 0.442965 
-0.023787 9.87387 -0.236094 
0.442965 -0.236094 9.8008 
9.78187 -0.00395418 0.480996 
-0.00395418 9.8719 -0.269163 
0.480996 -0.269163 9.84727 
9.81945 -0.0362651 0.412994 
-0.0362651 9.79926 -0.234225 
0.412994 -0.234225 9.88232 
9.77846 -0.0346843 0.48475 
-0.0346843 9.91951 -0.234317 
0.48475 -0.234317 9.80306 
9.08565 -0.348628 -0.538648 
-0.348628 9.42226 2.07051 
-0.538648 2.07051 6.44791 
9.31347 -0.660322 -0.974422 
-0.660322 9.19964 2.3625 
-0.974422 2.3625 6.4427 
9.02957 -0.701579 -0.369548 
-0.701579 9.89287 0.763875 
-0.369548 0.763875 6.03337 
9.19529 -0.615099 -0.847935 
-0.615099 9.73675 1.42141 
-0.847935 1.42141 6.02378 
9.84003 -0.00844936 -0.317257 
-0.00844936 9.91686 0.0559242 
-0.317257 0.0559242 10.0445 
9.95293 -0.0306841 -0.288407 
-0.0306841 9.91095 0.0801146 
-0.288407 0.0801146 9.93753 
9.93765 -0.00363496 -0.292027 
-0.00363496 9.90882 0.0982528 
-0.292027 0.0982528 9.95493 
9.96305 -0.00513607 -0.292754 
-0.00513607 9.92004 0.098211 
-0.292754 0.098211 9.91831 
9.6973 0.00994646 -0.459917 
0.00994646 9.72618 -0.0109933 
-0.459917 -0.0109933 9.77939 
9.71154 0.0198182 -0.471875 
0.0198182 9.70307 0.00379589 
-0.471875 0.00379589 9.78826 
9.73258 0.0334671 -0.498019 
0.0334671 9.69934 0.0346636 
-0.498019 0.0346636 9.77096 
9.70832 0.00569543 -0.443337 
0.00569543 9.6689 -0.0142635 
-0.443337 -0.0142635 9.82565 
8.47347 0.153469 -0.173338 
0.153469 8.44916 0.0347138 
-0.173338 0.0347138 6.63466 
9.20875 -0.476916 0.646808 
-0.476916 8.47017 0.877543 
0.646808 0.877543 5.87837 
9.0134 -0.407375 0.0554609 
-0.407375 8.26955 0.429816 
0.0554609 0.429816 6.27434 
9.0613 -0.253663 0.0737961 
-0.253663 8.24606 0.51516 
0.0737961 0.51516 6.24992 
9.22609 0.164159 0.38971 
0.164159 9.17649 -0.0620546 
0.38971 -0.0620546 10.9308 
9.35257 -0.133142 0.137862 
-0.133142 9.07674 0.139556 
0.137862 0.139556 10.904 
9.39026 0.0158209 0.349077 
0.0158209 8.90902 0.229274 
0.349077 0.229274 11.0341 
9.12767 -0.279906 0.184438 
-0.279906 8.88146 0.218302 
0.184438 0.218302 11.3242 
10.4792 -0.155558 -0.147886 
-0.155558 9.46449 -0.127683 
-0.147886 -0.127683 10.937 
10.0518 -0.0658837 -0.0421635 
-0.0658837 10.0019 0.0817828 
-0.0421635 0.0817828 10.8269 
10.4347 -0.0213882 0.235205 
-0.0213882 9.77885 -0.06856 
0.235205 -0.06856 10.6671 
10.4476 -0.154166 -0.102908 
-0.154166 9.74622 -0.0431235 
-0.102908 -0.0431235 10.6868 
9.86931 -0.0117629 -0.26122 
-0.0117629 9.85007 0.0937577 
-0.26122 0.0937577 9.89704 
9.87761 0.00516052 -0.216595 
0.00516052 9.84175 0.118356 
-0.216595 0.118356 9.89707 
9.88083 -0.0179632 -0.229104 
-0.0179632 9.85925 0.111774 
-0.229104 0.111774 9.87634 
9.90621 -0.020506 -0.236499 
-0.020506 9.81118 0.0680965 
-0.236499 0.0680965 9.89904 
9.50087 0.0328197 -0.0112074 
0.0328197 9.72282 -0.289501 
-0.0112074 -0.289501 9.39226 
9.58692 0.0630803 0.0262162 
0.0630803 9.66952 -0.338303 
0.0262162 -0.338303 9.35951 
9.50843 -0.0121663 -0.10472 
-0.0121663 9.60862 -0.255657 
-0.10472 -0.255657 9.4989 
9.51049 0.0777869 0.16186 
0.0777869 9.86618 -0.066307 
0.16186 -0.066307 9.23928 
8.28603 0.855742 -3.39036 
0.855742 5.40659 0.622484 
-3.39036 0.622484 7.6199 
5.31816 -0.366267 -2.2623 
-0.366267 8.6721 2.28995 
-2.2623 2.28995 7.32227 
6.05209 -0.742291 -3.2172 
-0.742291 10.0891 0.998087 
-3.2172 0.998087 5.17136 
6.98654 0.327505 -2.32588 
0.327505 8.0355 1.90354 
-2.32588 1.90354 6.29048 
9.90122 -0.0224788 0.238094 
-0.0224788 9.85027 -0.0552379 
0.238094 -0.0552379 9.98186 
9.91975 -0.0152919 0.215574 
-0.0152919 9.8946 -0.0576603 
0.215574 -0.0576603 9.919 
9.8518 -0.00720973 0.21253 
-0.00720973 9.83607 -0.0330857 
0.21253 -0.0330857 10.0455 
9.90717 -0.00288955 0.22366 
-0.00288955 9.8807 -0.0994466 
0.22366 -0.0994466 9.94548 
9.27625 0.00326787 -0.26744 
0.00326787 9.3957 -0.247912 
-0.26744 -0.247912 9.01631 
9.24088 0.0698621 0.0420517 
0.0698621 9.33378 -0.703696 
0.0420517 -0.703696 9.11361 
9.51972 0.139735 -0.133051 
0.139735 9.35797 -0.983494 
-0.133051 -0.983494 8.81057 
9.25272 0.102848 -0.010754 
0.102848 9.37799 -0.766239 
-0.010754 -0.766239 9.05755 
7.15131 -0.279006 2.10074 
-0.279006 9.84738 -0.191489 
2.10074 -0.191489 8.04175 
6.99026 -0.292983 2.10271 
-0.292983 9.55528 0.326925 
2.10271 0.326925 8.49491 
7.35927 0.112082 1.91693 
0.112082 9.62618 -0.0900449 
1.91693 -0.0900449 8.055 
7.29661 -0.524457 1.98918 
-0.524457 9.81927 -0.000681294 
1.98918 -0.000681294 7.92458 
9.96217 -0.0237708 0.0456617 
-0.0237708 9.91975 -0.107694 
0.0456617 -0.107694 10.0029 
9.9782 0.00372884 0.037579 
0.00372884 9.96673 -0.0848616 
0.037579 -0.0848616 9.93984 
9.95312 0.00339433 0.016011 
0.00339433 9.91762 -0.0999035 
0.016011 -0.0999035 10.014 
9.97178 0.00934651 0.0388278 
0.00934651 9.98692 -0.0953844 
0.0388278 -0.0953844 9.92609 
7.79301 0.0732468 -0.101088 
0.0732468 9.49558 0.298161 
-0.101088 0.298161 9.12556 
8.52428 0.617931 0.579325 
0.617931 8.95698 0.406879 
0.579325 0.406879 8.93289 
7.63339 0.811552 0.279986 
0.811552 9.30325 0.665495 
0.279986 0.665495 9.47751 
7.93868 0.223017 0.500558 
0.223017 9.7808 0.223011 
0.500558 0.223011 8.69467 
9.8633 -0.00773185 0.366086 
-0.00773185 9.85567 0.0917896 
0.366086 0.0917896 9.82869 
9.84254 0.0229889 0.30131 
0.0229889 9.88402 0.115727 
0.30131 0.115727 9.8211 
9.8695 0.024169 0.261717 
0.024169 9.80406 0.0809849 
0.261717 0.0809849 9.87411 
9.88747 0.0409979 0.392495 
0.0409979 9.88241 0.0726542 
0.392495 0.0726542 9.77778 
11.0643 -0.177725 -0.780881 
-0.177725 7.24981 0.959285 
-0.780881 0.959285 13.6726 
9.88736 -1.5841 0.84831 
-1.5841 9.80941 0.944127 
0.84831 0.944127 12.29 
11.8657 0.373321 1.51183 
0.373321 8.71487 -0.123925 
1.51183 -0.123925 11.4061 
9.70042 -1.46106 0.916607 
-1.46106 9.32218 0.840888 
0.916607 0.840888 12.9641 
9.33373 0.940016 -0.474607 
0.940016 9.05578 0.695015 
-0.474607 0.695015 10.1671 
8.42545 -0.548142 0.407782 
-0.548142 10.8619 0.140793 
0.407782 0.140793 9.26929 
9.1699 -0.426524 1.03816 
-0.426524 9.49456 0.514344 
1.03816 0.514344 9.89216 
8.95496 -0.96575 0.751912 
-0.96575 9.11146 1.2906 
0.751912 1.2906 10.4902 
6.11731 0.0213937 -2.6902 
0.0213937 9.68298 -0.575442 
-2.6902 -0.575442 4.24695 
7.86343 -0.342128 -2.60456 
-0.342128 7.68089 -0.262624 
-2.60456 -0.262624 4.50291 
8.80602 0.17973 -2.41787 
0.17973 8.12871 -1.01959 
-2.41787 -1.01959 3.11251 
8.70938 -0.430047 -2.90034 
-0.430047 7.29023 1.31277 
-2.90034 1.31277 4.04763 
9.44696 0.0828707 0.172214 
0.0828707 9.69084 -0.155122 
0.172214 -0.155122 9.91454 
9.49282 0.041667 0.0845932 
0.041667 9.72744 -0.0302477 
0.0845932 -0.0302477 9.83209 
9.79437 -0.463688 -0.00218647 
-0.463688 9.65756 0.00115953 
-0.00218647 0.00115953 9.60042 
9.87698 -0.0525043 -0.0578465 
-0.0525043 9.17341 -0.0934568 
-0.0578465 -0.0934568 10.002 
9.78296 0.0316175 -0.132723 
0.0316175 9.8847 0.329053 
-0.132723 0.329053 9.84005 
9.84507 0.0189525 -0.0933494 
0.0189525 9.92862 0.373681 
-0.0933494 0.373681 9.73401 
9.87247 -0.00314912 -0.106919 
-0.00314912 9.84743 0.334943 
-0.106919 0.334943 9.7878 
9.88003 -0.00249784 -0.112521 
-0.00249784 9.8466 0.342603 
-0.112521 0.342603 9.78108 
9.50768 0.0574744 -0.530351 
0.0574744 9.65233 -0.14736 
-0.530351 -0.14736 9.67437 
9.56816 0.0617784 -0.48928 
0.0617784 9.61426 -0.117843 
-0.48928 -0.117843 9.65196 
9.54754 0.0475924 -0.456333 
0.0475924 9.5085 -0.163614 
-0.456333 -0.163614 9.77834 
9.58828 0.0740871 -0.544197 
0.0740871 9.66573 -0.0642506 
-0.544197 -0.0642506 9.58037 
9.80185 -0.0151167 0.0356581 
-0.0151167 9.74343 0.563417 
0.0356581 0.563417 9.74204 
9.75374 0.00979793 0.0566367 
0.00979793 9.79371 0.640827 
0.0566367 0.640827 9.73988 
9.78984 0.00207326 0.0409117 
0.00207326 9.80837 0.64202 
0.0409117 0.64202 9.68912 
9.76266 0.00895587 0.069075 
0.00895587 9.80725 0.639456 
0.069075 0.639456 9.71742 
9.79707 0.0297486 -0.103242 
0.0297486 9.85974 0.603991 
-0.103242 0.603991 9.77529 
9.82543 0.0268111 -0.128739 
0.0268111 9.87342 0.593235 
-0.128739 0.593235 9.73324 
9.837 0.0454197 -0.181381 
0.0454197 9.83859 0.613119 
-0.181381 0.613119 9.75651 
9.78974 0.0342858 -0.172704 
0.0342858 9.90909 0.608781 
-0.172704 0.608781 9.73327 
9.35743 0.242079 0.085919 
0.242079 8.97096 0.28372 
0.085919 0.28372 11.1475 
9.50264 -0.214225 0.132964 
-0.214225 9.01443 0.107467 
0.132964 0.107467 10.9589 
10.1225 0.0822501 -0.214134 
0.0822501 8.67487 0.552541 
-0.214134 0.552541 10.6786 
9.2652 -0.317378 -0.0213138 
-0.317378 8.90047 0.248942 
-0.0213138 0.248942 11.3103 
9.79454 0.0338236 -0.113879 
0.0338236 9.78509 -0.659569 
-0.113879 -0.659569 9.70537 
9.7866 0.0778195 -0.121366 
0.0778195 9.95885 -0.536907 
-0.121366 -0.536907 9.53955 
9.7803 -0.0229071 -0.109297 
-0.0229071 9.73079 -0.505922 
-0.109297 -0.505922 9.7739 
9.77545 -0.00111368 -0.13392 
-0.00111368 9.81449 -0.578743 
-0.13392 -0.578743 9.69506 
8.55418 -0.246804 0.183772 
-0.246804 8.82057 0.256625 
0.183772 0.256625 7.56399 
9.49909 0.574354 0.163481 
0.574354 8.34441 0.480194 
0.163481 0.480194 7.09525 
8.94088 -0.254651 -0.152324 
-0.254651 8.53472 0.282761 
-0.152324 0.282761 7.46315 
8.93846 0.330295 0.104231 
0.330295 8.14585 0.654108 
0.104231 0.654108 7.85444 
9.37621 0.112811 -0.371648 
0.112811 9.28502 0.477521 
-0.371648 0.477521 9.76687 
9.33352 0.0679103 -0.27899 
0.0679103 9.55632 0.470611 
-0.27899 0.470611 9.53827 
9.282 -0.0680748 -0.362043 
-0.0680748 9.91387 0.499065 
-0.362043 0.499065 9.23223 
9.34309 0.028232 -0.441739 
0.028232 9.60502 0.212742 
-0.441739 0.212742 9.48 
9.76646 -0.00566011 -0.405166 
-0.00566011 9.75327 0.0622199 
-0.405166 0.0622199 9.90549 
9.7625 0.0026789 -0.436441 
0.0026789 9.77125 0.0745207 
-0.436441 0.0745207 9.89147 
9.78361 -0.00271409 -0.472682 
-0.00271409 9.80751 0.105058 
-0.472682 0.105058 9.8341 
9.76026 2.50377e-05 -0.421587 
2.50377e-05 9.80989 0.113443 
-0.421587 0.113443 9.85508 
13.3029 -2.09402 -0.203914 
-2.09402 10.6056 -0.15651 
-0.203914 -0.15651 16.0189 
12.3013 -1.94251 0.266858 
-1.94251 7.45882 -0.406757 
0.266858 -0.406757 20.1672 
11.7159 -1.33111 0.333929 
-1.33111 9.3372 1.11163 
0.333929 1.11163 18.8742 
13.1548 -1.12686 -0.581975 
-1.12686 10.7803 0.395718 
-0.581975 0.395718 15.9922 
8.71261 -0.0731538 -1.37075 
-0.0731538 7.62141 2.89224 
-1.37075 2.89224 2.7622 
8.05997 0.201942 -1.70428 
0.201942 7.65376 2.33866 
-1.70428 2.33866 3.3825 
8.24534 1.50893 -1.92726 
1.50893 5.3845 2.50346 
-1.92726 2.50346 5.46638 
7.49811 -0.698138 -0.660557 
-0.698138 7.59224 1.02967 
-0.660557 1.02967 4.00587 
9.64169 -0.327234 1.089 
-0.327234 8.34782 1.52051 
1.089 1.52051 10.6678 
9.9471 0.655994 0.104247 
0.655994 8.49792 -0.354663 
0.104247 -0.354663 10.2123 
9.51769 -0.105844 -0.13577 
-0.105844 9.46486 -2.11193 
-0.13577 -2.11193 9.67478 
10.4985 0.834089 2.98695 
0.834089 8.16473 -0.960852 
2.98695 -0.960852 9.99415 
9.70157 0.0598239 0.346214 
0.0598239 9.5237 -0.143158 
0.346214 -0.143158 9.76519 
9.72333 0.060217 0.353142 
0.060217 9.48221 -0.11923 
0.353142 -0.11923 9.78492 
9.68365 -0.0180793 0.327745 
-0.0180793 9.53124 -0.171926 
0.327745 -0.171926 9.77557 
9.67666 -0.0350939 0.35194 
-0.0350939 9.5376 -0.126348 
0.35194 -0.126348 9.77621 
9.88289 -0.000573846 0.0470659 
-0.000573846 9.87576 0.49988 
0.0470659 0.49988 9.84719 
9.92861 0.00215952 0.0218294 
0.00215952 9.88456 0.526668 
0.0218294 0.526668 9.79268 
9.87471 0.00589475 0.0501672 
0.00589475 9.89319 0.517668 
0.0501672 0.517668 9.83793 
9.87379 0.000756861 0.047472 
0.000756861 9.91209 0.522841 
0.047472 0.522841 9.81996 
8.79271 -0.474251 -0.0952991 
-0.474251 8.20612 -1.65342 
-0.0952991 -1.65342 5.22895 
8.49477 -0.372347 0.0609526 
-0.372347 7.87007 -1.6688 
0.0609526 -1.6688 5.86294 
8.86327 1.0145 -0.566657 
1.0145 7.42183 -1.26399 
-0.566657 -1.26399 5.94267 
8.40762 -0.977062 -1.24916 
-0.977062 6.76798 -2.11909 
-1.24916 -2.11909 7.05218 
9.68219 0.0336757 -0.428022 
0.0336757 9.6092 0.0699016 
-0.428022 0.0699016 9.75283 
9.6585 -0.00824291 -0.340118 
-0.00824291 9.65912 0.0553462 
-0.340118 0.0553462 9.72661 
9.64987 0.0264935 -0.38998 
0.0264935 9.65106 0.0123829 
-0.38998 0.0123829 9.74328 
9.66966 0.0106816 -0.406165 
0.0106816 9.59162 0.0797781 
-0.406165 0.0797781 9.78294 
9.64029 0.0120348 -0.519793 
0.0120348 9.79453 0.117969 
-0.519793 0.117969 9.88603 
9.82793 0.00407737 -0.474893 
0.00407737 9.74447 0.0789697 
-0.474893 0.0789697 9.74846 
9.78758 -0.00814587 -0.461195 
-0.00814587 9.73892 0.091817 
-0.461195 0.091817 9.79436 
9.71184 0.0699945 -0.404396 
0.0699945 9.76709 0.147848 
-0.404396 0.147848 9.84194 
9.86505 0.00701787 0.106413 
0.00701787 9.85181 0.0477587 
0.106413 0.0477587 10.013 
9.90266 -0.0149702 0.0923091 
-0.0149702 9.82836 0.0277013 
0.0923091 0.0277013 9.99882 
9.89919 -0.0212218 0.104987 
-0.0212218 9.83178 0.0131124 
0.104987 0.0131124 9.99887 
9.89758 0.0156481 0.0932656 
0.0156481 9.86038 -0.0259143 
0.0932656 -0.0259143 9.97188 
8.19481 1.0124 0.944426 
1.0124 7.87802 -0.619621 
0.944426 -0.619621 8.91459 
8.59026 0.471379 0.908818 
0.471379 8.3367 -0.914456 
0.908818 -0.914456 8.06045 
7.71108 -0.513796 0.168542 
-0.513796 9.44544 -0.939478 
0.168542 -0.939478 7.8309 
8.79644 0.297382 1.07227 
0.297382 8.05508 -1.5411 
1.07227 -1.5411 8.1359 
8.20159 0.521022 0.920663 
0.521022 9.10539 -0.306199 
0.920663 -0.306199 9.10354 
8.42496 0.221412 0.677019 
0.221412 9.05494 -0.503342 
0.677019 -0.503342 8.93062 
8.40373 -0.295341 0.546266 
-0.295341 9.09158 -0.440792 
0.546266 -0.440792 8.9152 
8.74583 0.276865 0.741527 
0.276865 8.83583 -0.649427 
0.741527 -0.649427 8.82886 
9.47816 -0.0181349 -0.00497244 
-0.0181349 9.67958 -0.39838 
-0.00497244 -0.39838 9.30861 
9.48309 0.00703445 0.0335437 
0.00703445 9.66696 -0.504141 
0.0335437 -0.504141 9.3163 
9.4454 -0.00936433 0.00754551 
-0.00936433 9.69235 -0.395624 
0.00754551 -0.395624 9.3286 
9.42542 0.0110414 0.00225446 
0.0110414 9.61878 -0.470932 
0.00225446 -0.470932 9.42216 
7.27991 0.583737 0.472357 
0.583737 8.74475 -0.488599 
0.472357 -0.488599 9.48567 
7.19671 0.138089 0.949065 
0.138089 9.13726 -0.654814 
0.949065 -0.654814 9.17637 
8.04545 0.00897041 1.34812 
0.00897041 8.64159 0.305773 
1.34812 0.305773 8.8233 
7.35518 0.418815 0.96336 
0.418815 9.03281 -0.419922 
0.96336 -0.419922 9.12234 
9.03788 0.0991724 -0.00466581 
0.0991724 8.09364 -0.367937 
-0.00466581 -0.367937 9.6671 
9.04116 0.0763541 0.117307 
0.0763541 8.71529 -0.62004 
0.117307 -0.62004 9.04217 
8.31795 -0.414157 -0.0906747 
-0.414157 9.73085 -0.615645 
-0.0906747 -0.615645 8.74981 
8.3177 0.498671 -0.0564163 
0.498671 9.08798 -0.795861 
-0.0564163 -0.795861 9.39293 
10.117 -0.247157 0.0706498 
-0.247157 9.70442 0.37303 
0.0706498 0.37303 10.761 
10.272 -0.134686 0.113538 
-0.134686 9.61216 -0.285616 
0.113538 -0.285616 10.6983 
10.0517 -0.112139 0.103179 
-0.112139 9.38536 0.216861 
0.103179 0.216861 11.1453 
10.1947 -0.128024 -0.180329 
-0.128024 9.60061 -0.0559107 
-0.180329 -0.0559107 10.787 
9.43933 -0.220539 0.396493 
-0.220539 9.59109 -0.683449 
0.396493 -0.683449 8.73073 
9.36506 0.39363 0.339664 
0.39363 9.03884 -0.789816 
0.339664 -0.789816 9.35724 
9.21746 0.0418576 0.366965 
0.0418576 9.33528 -0.659413 
0.366965 -0.659413 9.2084 
9.12572 0.162297 0.219227 
0.162297 9.51697 -0.641156 
0.219227 -0.641156 9.11845 
9.70709 0.996586 0.83904 
0.996586 9.46286 -0.280614 
0.83904 -0.280614 10.6959 
9.60748 -0.285138 -0.144254 
-0.285138 9.44896 -0.0176867 
-0.144254 -0.0176867 10.8094 
9.983 0.476957 0.953888 
0.476957 9.00744 -0.535896 
0.953888 -0.535896 10.8754 
10.1996 0.632947 0.59655 
0.632947 8.74074 -0.690361 
0.59655 -0.690361 10.9255 
9.81665 -0.0425563 -0.387939 
-0.0425563 9.83138 0.197361 
-0.387939 0.197361 9.90964 
9.84688 -0.0223515 -0.401412 
-0.0223515 9.83598 0.133575 
-0.401412 0.133575 9.8748 
9.83751 0.00256492 -0.386433 
0.00256492 9.84425 0.151114 
-0.386433 0.151114 9.87591 
9.84837 -0.0197462 -0.401385 
-0.0197462 9.84327 0.181328 
-0.401385 0.181328 9.86603 
8.2099 0.426745 -0.068415 
0.426745 10.0496 0.530829 
-0.068415 0.530829 9.16572 
7.16204 0.820012 -1.79498 
0.820012 8.62266 1.30822 
-1.79498 1.30822 11.6405 
8.49661 0.56739 -1.21411 
0.56739 9.52448 0.648936 
-1.21411 0.648936 9.40409 
8.7236 0.320718 -1.26372 
0.320718 9.76039 0.829187 
-1.26372 0.829187 8.94119 
8.4547 0.941046 0.467685 
0.941046 9.05313 -0.00656532 
0.467685 -0.00656532 9.87449 
9.09777 -0.0366753 1.208 
-0.0366753 9.30128 0.0129177 
1.208 0.0129177 8.98328 
7.93017 0.906798 0.782369 
0.906798 9.27371 -0.0426176 
0.782369 -0.0426176 10.1784 
8.48666 0.870684 0.633496 
0.870684 9.36554 0.00283013 
0.633496 0.00283013 9.53012 
8.39448 0.534463 -0.131902 
0.534463 9.83418 -0.552294 
-0.131902 -0.552294 8.88036 
8.89013 0.0593127 -0.0358818 
0.0593127 8.77823 -0.672202 
-0.0358818 -0.672202 9.44065 
9.2737 0.0225989 0.106294 
0.0225989 8.34161 -0.432729 
0.106294 -0.432729 9.49371 
8.37172 -0.342579 -0.020782 
-0.342579 9.23055 -0.696576 
-0.020782 -0.696576 9.50676 
9.32159 -0.306664 -0.447566 
-0.306664 9.58139 -0.442342 
-0.447566 -0.442342 9.82519 
9.54604 0.122672 -0.468587 
0.122672 9.73252 -0.6169 
-0.468587 -0.6169 9.4496 
9.62502 0.0267503 -0.513267 
0.0267503 9.72766 -0.593769 
-0.513267 -0.593769 9.37548 
9.6281 0.0820419 -0.362205 
0.0820419 9.63854 -0.526239 
-0.362205 -0.526239 9.46152 
9.73851 -0.00815068 -0.0156333 
-0.00815068 9.84419 0.580016 
-0.0156333 0.580016 9.80244 
9.81413 -0.015106 0.0460871 
-0.015106 9.81511 0.632762 
0.0460871 0.632762 9.75592 
9.77397 0.00665149 0.0403411 
0.00665149 9.81423 0.6324 
0.0403411 0.6324 9.79694 
9.8042 -0.0191022 0.0526297 
-0.0191022 9.83728 0.650104 
0.0526297 0.650104 9.74366 
9.21004 0.197054 0.284107 
0.197054 9.34495 1.24915 
0.284107 1.24915 8.40221 
8.77775 -0.11427 1.03888 
-0.11427 9.17349 0.389131 
1.03888 0.389131 9.00597 
8.94851 0.0969141 0.447693 
0.0969141 9.37346 0.600481 
0.447693 0.600481 8.63524 
9.00881 0.00136121 0.327394 
0.00136121 9.42587 0.525514 
0.327394 0.525514 8.52253 
7.16939 -0.740902 0.534622 
-0.740902 10.3627 -1.81133 
0.534622 -1.81133 1.7716 
10.121 0.00302451 -0.493131 
0.00302451 4.34456 -1.81794 
-0.493131 -1.81794 4.83808 
6.99099 -0.657937 -0.327809 
-0.657937 7.73445 -3.27683 
-0.327809 -3.27683 4.57824 
5.03157 -0.205607 -2.013 
-0.205607 8.64485 -3.96122 
-2.013 -3.96122 5.62725 
9.45181 0.0868301 0.345716 
0.0868301 9.67606 0.150429 
0.345716 0.150429 9.22456 
9.52433 0.0605599 0.263953 
0.0605599 9.88506 -0.0945411 
0.263953 -0.0945411 8.94304 
9.49489 -0.0765834 0.44677 
-0.0765834 9.459 -0.107511 
0.44677 -0.107511 9.39853 
9.48682 0.0381102 0.354562 
0.0381102 9.6943 -0.00520189 
0.354562 -0.00520189 9.17131 
9.92571 0.00197114 -0.384789 
0.00197114 9.88035 -0.0518109 
-0.384789 -0.0518109 10.0255 
9.94249 -0.0108046 -0.418746 
-0.0108046 9.92961 -0.0635341 
-0.418746 -0.0635341 9.95946 
9.94333 0.00816052 -0.417658 
0.00816052 9.93465 -0.0581682 
-0.417658 -0.0581682 9.95357 
9.94858 -0.000270824 -0.433603 
-0.000270824 9.94929 -0.0708019 
-0.433603 -0.0708019 9.93369 
7.61041 0.0768472 -1.11377 
0.0768472 9.71391 0.175395 
-1.11377 0.175395 10.4227 
8.37081 0.0940144 -0.392732 
0.0940144 9.15525 -0.160606 
-0.392732 -0.160606 10.221 
8.69312 0.0658393 -1.06567 
0.0658393 9.6438 -0.865491 
-1.06567 -0.865491 9.41014 
8.64182 0.551287 -1.06922 
0.551287 9.56641 -0.26122 
-1.06922 -0.26122 9.53883 
14.6546 -0.428282 -0.150761 
-0.428282 8.70075 -0.312485 
-0.150761 -0.312485 17.3375 
15.9125 -1.90948 1.01021 
-1.90948 13.1398 0.714507 
1.01021 0.714507 11.6404 
9.40675 1.79123 0.124831 
1.79123 10.7926 -1.47525 
0.124831 -1.47525 20.4934 
16.2433 0.294146 -3.31162 
0.294146 7.2706 3.55862 
-3.31162 3.55862 17.1789 
9.68514 0.0582028 -0.129288 
0.0582028 9.67886 -0.177413 
-0.129288 -0.177413 9.23585 
9.55209 -0.0116554 -0.171682 
-0.0116554 9.81902 -0.421872 
-0.171682 -0.421872 9.22875 
9.58926 0.00771102 -0.257279 
0.00771102 9.66419 -0.378969 
-0.257279 -0.378969 9.34641 
9.71318 -0.0107584 -0.193978 
-0.0107584 9.57899 -0.393727 
-0.193978 -0.393727 9.30769 
9.91798 -0.023618 0.265452 
-0.023618 9.83706 -0.0489661 
0.265452 -0.0489661 9.92059 
9.95167 -0.0258264 0.242367 
-0.0258264 9.75234 -0.0716031 
0.242367 -0.0716031 9.97162 
9.83673 0.020082 0.272212 
0.020082 9.87774 -0.0277538 
0.272212 -0.0277538 9.96116 
9.83515 0.0176009 0.232992 
0.0176009 9.95168 -0.175455 
0.232992 -0.175455 9.88879 
2.58537 -4.01781 -5.45502 
-4.01781 4.3822 -1.89704 
-5.45502 -1.89704 7.57805 
15.4076 4.73191 -6.23306 
4.73191 4.67863 -6.83012 
-6.23306 -6.83012 -5.5406 
0.435302 0.616389 1.78582 
0.616389 5.27518 1.01367 
1.78582 1.01367 8.83513 
10.1167 1.5113 -5.91618 
1.5113 8.78859 -3.02979 
-5.91618 -3.02979 -4.3597 
9.83179 -0.0124944 0.143729 
-0.0124944 9.84374 0.0134078 
0.143729 0.0134078 9.86397 
9.87038 -0.023531 0.139341 
-0.023531 9.82502 -0.0457188 
0.139341 -0.0457188 9.84409 
9.84791 -0.0102375 0.171377 
-0.0102375 9.84242 -0.0346608 
0.171377 -0.0346608 9.84917 
9.86911 -0.0164543 0.132796 
-0.0164543 9.84246 0.00544302 
0.132796 0.00544302 9.82792 
10.9572 -0.00542563 -0.243394 
-0.00542563 10.0352 0.0649155 
-0.243394 0.0649155 11.3925 
9.36624 -0.192668 -0.162425 
-0.192668 11.0707 -0.647803 
-0.162425 -0.647803 11.948 
10.5618 -0.0935489 -0.489138 
-0.0935489 11.0309 -0.202977 
-0.489138 -0.202977 10.7921 
11.0328 0.530364 0.799271 
0.530364 9.94007 -0.0862955 
0.799271 -0.0862955 11.4121 
8.85886 0.816141 -0.581172 
0.816141 2.72545 -1.01735 
-0.581172 -1.01735 8.31194 
7.25954 -0.269271 1.20041 
-0.269271 5.9038 -4.06483 
1.20041 -4.06483 6.73291 
8.38203 1.21254 2.21568 
1.21254 5.97744 -6.54837 
2.21568 -6.54837 5.53678 
6.16095 -0.893249 1.06546 
-0.893249 9.1571 -2.13008 
1.06546 -2.13008 4.5782 
9.56113 0.0387405 -0.451656 
0.0387405 9.58552 -0.203158 
-0.451656 -0.203158 9.49568 
9.75228 0.0491174 -0.509714 
0.0491174 9.50583 -0.0784089 
-0.509714 -0.0784089 9.38422 
9.56748 0.0478508 -0.342363 
0.0478508 9.65054 -0.0790544 
-0.342363 -0.0790544 9.42431 
9.44008 0.00222284 -0.487775 
0.00222284 9.72054 -0.116646 
-0.487775 -0.116646 9.48171 
9.40298 0.108355 0.0279193 
0.108355 9.59816 -0.150069 
0.0279193 -0.150069 9.29636 
9.2868 0.0552198 0.0591309 
0.0552198 9.74808 0.154725 
0.0591309 0.154725 9.26263 
9.43518 -0.101932 0.0722317 
-0.101932 9.41018 -0.124336 
0.0722317 -0.124336 9.45215 
9.51765 0.0525841 -0.022977 
0.0525841 9.58408 0.122489 
-0.022977 0.122489 9.19578 
9.69886 -0.331599 -0.138641 
-0.331599 9.37202 -0.173115 
-0.138641 -0.173115 10.4665 
9.55947 -0.4915 -0.0393331 
-0.4915 9.40804 -0.0662388 
-0.0393331 -0.0662388 10.5699 
9.73894 -0.180044 0.325556 
-0.180044 9.87529 0.520632 
0.325556 0.520632 9.9232 
9.60306 -0.390982 0.0012822 
-0.390982 9.41487 -0.0879026 
0.0012822 -0.0879026 10.5195 
9.70328 0.0140216 -0.00610312 
0.0140216 9.78731 -0.682016 
-0.00610312 -0.682016 9.60244 
9.64103 0.0401367 0.141257 
0.0401367 9.73234 -0.623801 
0.141257 -0.623801 9.71966 
9.65408 0.0391257 0.0820715 
0.0391257 9.7732 -0.637749 
0.0820715 -0.637749 9.66575 
9.69358 0.039408 0.0613112 
0.039408 9.74713 -0.651244 
0.0613112 -0.651244 9.65232 
9.91653 -0.0152759 -0.104312 
-0.0152759 9.88197 -0.591894 
-0.104312 -0.591894 9.85113 
9.83347 0.036794 -0.0566458 
0.036794 9.87541 -0.540567 
-0.0566458 -0.540567 9.94076 
9.9049 -0.0258376 -0.126657 
-0.0258376 9.87929 -0.635792 
-0.126657 -0.635792 9.86544 
9.88966 0.0786479 -0.107982 
0.0786479 9.97896 -0.61484 
-0.107982 -0.61484 9.78102 
9.81878 0.0366462 -0.481768 
0.0366462 9.74377 -0.136451 
-0.481768 -0.136451 9.90006 
9.78419 0.0063751 -0.531839 
0.0063751 9.82567 -0.190417 
-0.531839 -0.190417 9.85274 
9.79584 -0.00709312 -0.517641 
-0.00709312 9.86521 -0.169768 
-0.517641 -0.169768 9.80156 
9.82025 0.0193335 -0.560581 
0.0193335 9.89188 -0.182806 
-0.560581 -0.182806 9.75048 
9.72958 -0.0983994 -0.128581 
-0.0983994 8.33694 0.800891 
-0.128581 0.800891 8.86244 
9.4983 0.158061 0.190827 
0.158061 9.28484 1.27193 
0.190827 1.27193 8.14582 
9.1772 0.00581285 0.072449 
0.00581285 9.04748 1.59548 
0.072449 1.59548 8.70429 
9.35101 0.0928988 0.0168864 
0.0928988 9.0088 1.39735 
0.0168864 1.39735 8.56915 
9.4845 -0.00226176 -0.35004 
-0.00226176 9.55497 0.17031 
-0.35004 0.17031 9.22648 
9.5302 -0.0727474 -0.331125 
-0.0727474 9.44408 0.15631 
-0.331125 0.15631 9.29168 
9.4543 -0.0331011 -0.381641 
-0.0331011 9.57369 0.220331 
-0.381641 0.220331 9.23797 
9.54516 0.00584344 -0.429793 
0.00584344 9.53397 0.264981 
-0.429793 0.264981 9.18683 
9.74265 -0.107771 -0.421387 
-0.107771 9.81718 0.292886 
-0.421387 0.292886 9.62617 
9.58203 0.131314 -0.481392 
0.131314 9.69595 0.332258 
-0.481392 0.332258 9.90802 
9.71841 -0.0449705 -0.407833 
-0.0449705 9.74001 0.274864 
-0.407833 0.274864 9.72758 
9.56927 0.00973088 -0.342357 
0.00973088 9.7808 0.112855 
-0.342357 0.112855 9.83592 
9.94859 0.00473597 0.436946 
0.00473597 9.9289 -0.0711979 
0.436946 -0.0711979 9.987 
9.93309 -0.0156508 0.431092 
-0.0156508 9.97275 -0.0454674 
0.431092 -0.0454674 9.95865 
9.95926 -0.0139154 0.441728 
-0.0139154 9.90679 -0.060508 
0.441728 -0.060508 9.99844 
9.95385 -0.00291324 0.419149 
-0.00291324 9.9415 -0.0497726 
0.419149 -0.0497726 9.96914 
9.58036 0.00234991 -0.425637 
0.00234991 9.66811 0.274235 
-0.425637 0.274235 9.72425 
9.52789 0.0773791 -0.40526 
0.0773791 9.71854 0.225203 
-0.40526 0.225203 9.72629 
9.6377 -0.106285 -0.419011 
-0.106285 9.69311 0.288132 
-0.419011 0.288132 9.64191 
9.64565 0.0126687 -0.460953 
0.0126687 9.58915 0.278762 
-0.460953 0.278762 9.73793 
9.84481 0.257268 0.12633 
0.257268 9.184 -0.15917 
0.12633 -0.15917 9.43457 
9.02098 0.371384 0.257896 
0.371384 9.48832 0.0438134 
0.257896 0.0438134 9.95409 
9.35647 0.272223 0.281975 
0.272223 9.46799 -0.016264 
0.281975 -0.016264 9.63893 
9.39355 0.144684 0.294847 
0.144684 9.41869 -0.0435935 
0.294847 -0.0435935 9.65115 
9.47243 0.00211135 0.00705297 
0.00211135 9.48506 -0.0698417 
0.00705297 -0.0698417 9.4563 
9.34548 -0.0716877 0.113654 
-0.0716877 9.69049 -0.0279323 
0.113654 -0.0279323 9.37782 
9.47057 0.0582137 0.050663 
0.0582137 9.54429 -0.0888942 
0.050663 -0.0888942 9.39893 
9.40366 -0.011366 0.050465 
-0.011366 9.55216 -0.0743003 
0.050465 -0.0743003 9.45798 
9.8714 0.00509318 -0.31076 
0.00509318 9.85626 -0.0419209 
-0.31076 -0.0419209 9.88354 
9.911 -0.0283651 -0.322458 
-0.0283651 9.85619 -0.00218925 
-0.322458 -0.00218925 9.84401 
9.87749 -0.022848 -0.314428 
-0.022848 9.83517 -0.0148462 
-0.314428 -0.0148462 9.89854 
9.89221 0.0235453 -0.329386 
0.0235453 9.84877 -0.0260713 
-0.329386 -0.0260713 9.87022 
12.032 0.761314 0.536879 
0.761314 9.53396 -0.961966 
0.536879 -0.961966 7.36805 
8.69953 1.20655 0.426185 
1.20655 10.6348 -0.85127 
0.426185 -0.85127 9.5997 
8.38519 -0.842924 0.768107 
-0.842924 8.884 0.554425 
0.768107 0.554425 11.6648 
11.3173 -0.0779478 2.4387 
-0.0779478 5.95006 -3.66939 
2.4387 -3.66939 11.6666 
9.83373 -0.0211886 -0.0785076 
-0.0211886 9.8316 -0.0104387 
-0.0785076 -0.0104387 9.85231 
9.83933 0.0616792 0.0640629 
0.0616792 9.81981 -0.0265906 
0.0640629 -0.0265906 9.8585 
9.81962 -0.0189113 0.0073155 
-0.0189113 9.7875 0.0420096 
0.0073155 0.0420096 9.91052 
9.80739 0.0143182 -0.0025068 
0.0143182 9.79971 0.0366238 
-0.0025068 0.0366238 9.91053 
9.91618 0.00796771 -0.384571 
0.00796771 9.93709 0.0476384 
-0.384571 0.0476384 9.9724 
9.90578 -0.00974875 -0.372747 
-0.00974875 9.90319 0.0458546 
-0.372747 0.0458546 10.0167 
9.92532 -0.0042529 -0.396374 
-0.0042529 9.94195 0.046739 
-0.396374 0.046739 9.95839 
9.93079 -0.0156058 -0.412482 
-0.0156058 9.94207 0.0548597 
-0.412482 0.0548597 9.95281 
5.11323 4.12947 1.87829 
4.12947 11.2911 0.497131 
1.87829 0.497131 19.9535 
1.44572 2.21094 2.29198 
2.21094 11.9712 -0.314314 
2.29198 -0.314314 22.9409 
8.29251 1.5975 -0.795079 
1.5975 12.8572 -0.0520128 
-0.795079 -0.0520128 15.2082 
10.6038 0.922034 1.54192 
0.922034 11.8119 -0.0571441 
1.54192 -0.0571441 13.9422 
2.80563 1.93371 0.944878 
1.93371 8.7774 -2.28033 
0.944878 -2.28033 20.1383 
12.2768 2.45611 -3.9202 
2.45611 15.004 2.00719 
-3.9202 2.00719 4.4405 
3.43915 3.11873 1.91889 
3.11873 7.06899 -0.508176 
1.91889 -0.508176 21.2132 
13.4387 -2.92265 7.65292 
-2.92265 10.3671 -3.72146 
7.65292 -3.72146 7.91551 
6.69407 -0.0492483 -2.75937 
-0.0492483 6.22265 1.23996 
-2.75937 1.23996 -0.0674599 
2.08621 -0.0872962 -0.300769 
-0.0872962 1.84761 0.637214 
-0.300769 0.637214 8.91545 
12.6222 2.06472 -1.25409 
2.06472 7.17634 0.584067 
-1.25409 0.584067 -6.94924 
4.44613 -0.783056 -8.60492 
-0.783056 5.02011 -0.409796 
-8.60492 -0.409796 3.38303 
9.70201 0.0487264 -0.544871 
0.0487264 9.66988 0.0633946 
-0.544871 0.0633946 9.79742 
9.72115 0.0181891 -0.434039 
0.0181891 9.64923 0.121392 
-0.434039 0.121392 9.79893 
9.65836 0.0332028 -0.432229 
0.0332028 9.68321 0.0667324 
-0.432229 0.0667324 9.82774 
9.62895 -0.0142971 -0.391198 
-0.0142971 9.65099 0.0163124 
-0.391198 0.0163124 9.88937 
9.91023 0.252364 0.633463 
0.252364 9.60183 0.103986 
0.633463 0.103986 9.29369 
9.50581 0.0705723 0.52174 
0.0705723 9.67379 0.0295985 
0.52174 0.0295985 9.62615 
9.3029 -0.0305857 0.594395 
-0.0305857 9.67758 0.149359 
0.594395 0.149359 9.82528 
9.59999 0.0301208 0.36706 
0.0301208 9.60932 -0.080549 
0.36706 -0.080549 9.59645 
9.72212 -0.0135342 0.0863814 
-0.0135342 9.78626 0.0751728 
0.0863814 0.0751728 9.80546 
9.65387 -0.135059 0.0763711 
-0.135059 9.74311 0.0416575 
0.0763711 0.0416575 9.91687 
9.67584 -0.066908 -0.0773482 
-0.066908 9.85121 0.0460584 
-0.0773482 0.0460584 9.78679 
9.64379 -0.0786609 0.0564623 
-0.0786609 9.78615 0.0582498 
0.0564623 0.0582498 9.8839 
8.77029 -0.38638 -0.761045 
-0.38638 8.91019 -1.32997 
-0.761045 -1.32997 7.59518 
8.50662 0.00492767 -0.292016 
0.00492767 9.09403 -1.49621 
-0.292016 -1.49621 7.67501 
9.78148 0.401438 -0.592126 
0.401438 9.27554 -0.535744 
-0.592126 -0.535744 6.21863 
8.47138 0.24223 0.163975 
0.24223 8.29428 -0.680742 
0.163975 -0.680742 8.51 
9.73698 -0.116086 0.363198 
-0.116086 9.80376 -0.345388 
0.363198 -0.345388 9.92989 
9.84918 0.047665 0.39886 
0.047665 9.85127 -0.477916 
0.39886 -0.477916 9.77018 
9.8084 0.00918206 0.386999 
0.00918206 9.82982 -0.518604 
0.386999 -0.518604 9.83242 
9.87302 0.0108656 0.426594 
0.0108656 9.94977 -0.511515 
0.426594 -0.511515 9.64786 
9.82382 0.0517729 0.381621 
0.0517729 9.88283 0.357869 
0.381621 0.357869 9.96506 
9.91474 -0.0373327 0.446604 
-0.0373327 9.91016 0.463811 
0.446604 0.463811 9.8468 
9.93055 -0.0194394 0.40674 
-0.0194394 9.88464 0.391951 
0.40674 0.391951 9.85652 
9.91456 0.0873328 0.389958 
0.0873328 9.99232 0.403094 
0.389958 0.403094 9.76483 
9.83082 0.0207621 0.392325 
0.0207621 9.84334 0.416517 
0.392325 0.416517 9.82412 
9.8143 -0.00079256 0.478776 
-0.00079256 9.89722 0.444775 
0.478776 0.444775 9.78676 
9.83255 0.00676668 0.450704 
0.00676668 9.90868 0.414484 
0.450704 0.414484 9.75705 
9.84525 0.0336522 0.496339 
0.0336522 9.94174 0.38753 
0.496339 0.38753 9.71129 
8.94068 0.304019 0.469807 
0.304019 9.22324 -0.0789564 
0.469807 -0.0789564 9.27815 
9.14219 0.161361 0.634775 
0.161361 9.04324 -0.157872 
0.634775 -0.157872 9.25663 
9.05843 0.615104 0.873005 
0.615104 8.83997 -0.0476289 
0.873005 -0.0476289 9.54366 
8.87111 0.501987 0.868072 
0.501987 9.14296 -0.136437 
0.868072 -0.136437 9.428 
9.56877 -0.269763 0.264476 
-0.269763 8.84469 0.125177 
0.264476 0.125177 10.7698 
9.68258 -0.255498 -0.0495503 
-0.255498 8.66611 0.180419 
-0.0495503 0.180419 10.8346 
9.70219 -0.261095 0.135135 
-0.261095 8.63088 0.0902682 
0.135135 0.0902682 10.8502 
9.64019 -0.162242 -0.128208 
-0.162242 8.66446 0.0426877 
-0.128208 0.0426877 10.8786 
9.05626 0.382068 0.733796 
0.382068 8.83921 0.925008 
0.733796 0.925008 8.31868 
8.82901 -0.0600525 0.527264 
-0.0600525 8.81229 0.876319 
0.527264 0.876319 8.57285 
8.70326 -0.40657 0.658903 
-0.40657 8.65586 0.883195 
0.658903 0.883195 8.85503 
9.04744 0.023644 0.419982 
0.023644 8.75559 0.564159 
0.419982 0.564159 8.41112 
9.84756 -0.219146 0.141308 
-0.219146 9.10506 0.196252 
0.141308 0.196252 10.6044 
9.78761 -0.132569 0.0928001 
-0.132569 9.07408 0.0954457 
0.0928001 0.0954457 10.6954 
9.80375 -0.118562 -0.0436803 
-0.118562 9.01931 0.123282 
-0.0436803 0.123282 10.734 
9.66118 -0.0885812 0.131165 
-0.0885812 9.15693 0.00812923 
0.131165 0.00812923 10.7389 
10.9935 -1.99766 -2.49134 
-1.99766 12.3132 6.69399 
-2.49134 6.69399 -7.79607 
5.81476 -0.765082 1.55195 
-0.765082 0.71564 -1.03145 
1.55195 -1.03145 8.98025 
5.15506 -5.57834 -6.28391 
-5.57834 17.2128 6.1276 
-6.28391 6.1276 -6.85722 
4.76411 4.54958 -2.32303 
4.54958 3.31561 6.54091 
-2.32303 6.54091 7.43093 
9.43224 -0.0664892 0.410964 
-0.0664892 9.42184 -0.121175 
0.410964 -0.121175 9.72932 
9.41902 -0.0639563 0.348693 
-0.0639563 9.38477 -0.0844006 
0.348693 -0.0844006 9.77962 
9.43272 -0.0953288 0.391613 
-0.0953288 9.40203 -0.121402 
0.391613 -0.121402 9.74865 
9.42792 -0.0529882 0.262655 
-0.0529882 9.41491 -0.155208 
0.262655 -0.155208 9.74058 
8.66099 -0.252724 1.29021 
-0.252724 8.99841 -0.0807462 
1.29021 -0.0807462 7.51332 
9.36065 -0.344265 0.6737 
-0.344265 9.03915 0.724865 
0.6737 0.724865 6.77292 
9.07709 -0.165868 0.789265 
-0.165868 8.91791 0.536811 
0.789265 0.536811 7.17771 
8.29844 0.274957 -0.142806 
0.274957 9.16321 0.976397 
-0.142806 0.976397 7.71106 
9.98692 0.0254967 -0.146913 
0.0254967 9.9937 0.46336 
-0.146913 0.46336 9.87276 
10.0132 0.0218715 -0.147413 
0.0218715 9.93757 0.485179 
-0.147413 0.485179 9.90263 
9.82489 0.00608633 -0.107038 
0.00608633 9.8244 0.465364 
-0.107038 0.465364 10.2041 
9.98521 0.019632 -0.0851044 
0.019632 10.008 0.503671 
-0.0851044 0.503671 9.86015 
8.34183 -0.219951 -0.873827 
-0.219951 9.17496 -0.642945 
-0.873827 -0.642945 6.71304 
7.98105 0.0813702 -0.558756 
0.0813702 10.1619 -0.712117 
-0.558756 -0.712117 6.08691 
8.12715 -0.00597131 -0.187246 
-0.00597131 8.54101 -1.70116 
-0.187246 -1.70116 7.56168 
8.81024 -0.34506 -0.308339 
-0.34506 8.39067 0.174206 
-0.308339 0.174206 7.02892 
8.96906 0.121758 -0.122246 
0.121758 9.12519 -0.724951 
-0.122246 -0.724951 9.15082 
8.76029 0.263494 0.0817974 
0.263494 9.4104 -0.881069 
0.0817974 -0.881069 9.07437 
9.26761 0.0205449 0.0761725 
0.0205449 8.61139 -0.725749 
0.0761725 -0.725749 9.36607 
8.97365 0.203602 0.131711 
0.203602 9.25284 -0.562831 
0.131711 -0.562831 9.01858 
9.23104 0.0364455 -0.0391262 
0.0364455 9.38393 -0.744404 
-0.0391262 -0.744404 9.22068 
9.24749 0.081945 -0.0395519 
0.081945 9.4347 -0.76252 
-0.0395519 -0.76252 9.15346 
9.26582 0.04675 -0.0398808 
0.04675 9.26224 -0.796542 
-0.0398808 -0.796542 9.30759 
9.26763 0.0630981 0.00483014 
0.0630981 9.26714 -0.733545 
0.00483014 -0.733545 9.30087 
9.19453 0.0946121 -0.168352 
0.0946121 9.6572 0.0169359 
-0.168352 0.0169359 9.81171 
9.61986 -0.0301753 -0.321305 
-0.0301753 9.50981 -0.000947182 
-0.321305 -0.000947182 9.53378 
9.65714 0.0271603 -0.364888 
0.0271603 9.42273 -0.0158141 
-0.364888 -0.0158141 9.58357 
9.37079 -0.0884525 -0.435545 
-0.0884525 9.49116 0.124789 
-0.435545 0.124789 9.80149 
9.54057 0.0046663 0.282891 
0.0046663 9.54866 0.594284 
0.282891 0.594284 9.55741 
9.55672 0.125373 0.298559 
0.125373 9.6858 0.650867 
0.298559 0.650867 9.40413 
9.50198 -0.0244981 0.313479 
-0.0244981 9.50733 0.608067 
0.313479 0.608067 9.63733 
9.49264 0.0064603 0.191361 
0.0064603 9.60985 0.552411 
0.191361 0.552411 9.54415 
10.1251 -0.519426 -0.235339 
-0.519426 8.50768 -0.157907 
-0.235339 -0.157907 9.63968 
9.01355 -0.289302 -0.428849 
-0.289302 8.55318 -1.85988 
-0.428849 -1.85988 10.7058 
9.417 -0.367104 -0.251562 
-0.367104 9.44189 -1.49388 
-0.251562 -1.49388 9.41359 
9.48553 -0.215764 -0.37716 
-0.215764 9.11605 -1.37709 
-0.37716 -1.37709 9.6709 
1.8454 -0.144054 -1.14182 
-0.144054 2.70933 0.049782 
-1.14182 0.049782 9.80643 
8.38863 -0.421808 -1.71543 
-0.421808 8.70798 -0.528761 
-1.71543 -0.528761 -2.73545 
9.55348 -0.164785 -0.345981 
-0.164785 8.59478 2.01293 
-0.345981 2.01293 -3.7871 
5.94101 1.31522 -7.41281 
1.31522 7.57689 2.56676 
-7.41281 2.56676 0.843259 
8.42894 0.264185 -0.25498 
0.264185 9.17667 0.550076 
-0.25498 0.550076 9.61753 
9.09878 0.494403 -0.940607 
0.494403 9.87922 0.387334 
-0.940607 0.387334 8.24514 
8.73832 -0.115561 -0.285343 
-0.115561 9.36229 0.247592 
-0.285343 0.247592 9.12253 
9.32549 -0.0149711 -0.757226 
-0.0149711 9.00182 0.0665691 
-0.757226 0.0665691 8.89583 
9.43186 0.277936 0.456924 
0.277936 8.86334 -0.482431 
0.456924 -0.482431 9.55829 
9.3486 0.0773475 0.492206 
0.0773475 9.00115 -0.344942 
0.492206 -0.344942 9.50373 
9.46424 0.169963 0.23044 
0.169963 8.85168 -0.408058 
0.23044 -0.408058 9.53757 
9.42697 0.165827 0.361065 
0.165827 8.90549 -0.434355 
0.361065 -0.434355 9.52103 
5.40084 -2.19663 2.09414 
-2.19663 5.35865 -2.17856 
2.09414 -2.17856 2.42608 
4.34275 -1.27643 -2.19786 
-1.27643 7.1291 -2.82002 
-2.19786 -2.82002 1.71371 
5.39056 0.752477 -2.0488 
0.752477 4.33226 -3.43189 
-2.0488 -3.43189 3.46275 
5.48506 0.195736 -1.01253 
0.195736 5.22055 -3.34654 
-1.01253 -3.34654 2.47996 
8.47135 -0.806979 3.81613 
-0.806979 9.4468 0.653792 
3.81613 0.653792 8.0764 
9.5022 -0.240481 2.29695 
-0.240481 8.70828 0.932942 
2.29695 0.932942 7.78407 
9.45588 0.263202 2.55103 
0.263202 8.6562 0.365732 
2.55103 0.365732 7.88247 
7.20507 -0.0559774 0.291403 
-0.0559774 7.18957 -1.54615 
0.291403 -1.54615 11.5999 
9.92534 -0.00157174 -0.341585 
-0.00157174 9.9306 0.312886 
-0.341585 0.312886 10.0256 
9.93933 -0.0249874 -0.369049 
-0.0249874 9.96753 0.32764 
-0.369049 0.32764 9.97468 
9.95932 -0.00279003 -0.368433 
-0.00279003 9.97703 0.318595 
-0.368433 0.318595 9.9452 
9.97606 0.00516687 -0.37265 
0.00516687 9.97732 0.329283 
-0.37265 0.329283 9.92816 
8.97123 0.242067 0.52712 
0.242067 9.10436 -0.0348794 
0.52712 -0.0348794 9.01354 
8.74291 0.497303 1.32913 
0.497303 9.37789 -0.295906 
1.32913 -0.295906 8.96834 
8.19441 0.732718 0.920291 
0.732718 9.03923 -0.431994 
0.920291 -0.431994 9.85549 
8.5798 0.421741 0.89349 
0.421741 9.33888 -0.245484 
0.89349 -0.245484 9.17046 
9.13041 0.0935896 -0.564796 
0.0935896 9.53337 -0.341813 
-0.564796 -0.341813 9.34799 
8.90383 -0.0409286 -0.496684 
-0.0409286 9.58251 -0.274138 
-0.496684 -0.274138 9.52543 
9.37577 0.188423 -0.532114 
0.188423 9.49001 -0.324819 
-0.532114 -0.324819 9.14599 
9.0703 0.0385933 -0.752013 
0.0385933 9.52818 -0.290593 
-0.752013 -0.290593 9.4133 
6.23934 0.0860597 0.419571 
0.0860597 6.95119 0.957729 
0.419571 0.957729 0.858868 
6.55153 0.93627 1.22917 
0.93627 6.11439 0.161748 
1.22917 0.161748 1.38348 
6.65096 1.22777 1.08827 
1.22777 5.68575 0.372583 
1.08827 0.372583 1.71269 
5.67948 -1.30053 2.43224 
-1.30053 6.19598 0.306561 
2.43224 0.306561 2.17394 
9.33262 -0.0317524 -0.318739 
-0.0317524 9.59502 0.136291 
-0.318739 0.136291 9.58481 
9.4069 -0.118716 -0.335279 
-0.118716 9.5516 0.154053 
-0.335279 0.154053 9.55395 
9.28618 0.0597013 -0.264804 
0.0597013 9.52642 0.107574 
-0.264804 0.107574 9.69985 
9.24032 -0.0293244 -0.313774 
-0.0293244 9.60958 0.204554 
-0.313774 0.204554 9.66255 
9.57893 -0.144258 0.316106 
-0.144258 8.37723 1.18514 
0.316106 1.18514 8.45773 
8.996 0.107806 0.0334596 
0.107806 9.09943 1.16045 
0.0334596 1.16045 8.31846 
8.9345 -0.0963329 -0.0032441 
-0.0963329 8.92967 0.854894 
-0.0032441 0.854894 8.54972 
9.27908 0.301112 -0.594938 
0.301112 9.27943 1.3647 
-0.594938 1.3647 7.85538 
9.09108 2.62285 1.40951 
2.62285 5.14868 0.676312 
1.40951 0.676312 20.3021 
17.2674 0.729434 0.482287 
0.729434 12.4878 -3.96575 
0.482287 -3.96575 4.7867 
9.08752 1.23534 -0.957376 
1.23534 2.8753 -0.206286 
-0.957376 -0.206286 22.579 
9.68096 -0.652255 -2.69715 
-0.652255 12.4407 6.949 
-2.69715 6.949 12.4202 
9.13217 0.00843519 -0.342827 
0.00843519 9.52708 0.216454 
-0.342827 0.216454 9.63455 
9.06821 0.130536 -0.29287 
0.130536 9.62663 0.186605 
-0.29287 0.186605 9.59897 
9.21491 -0.155863 -0.229752 
-0.155863 9.61707 0.20514 
-0.229752 0.20514 9.46182 
9.25011 0.000449175 -0.32706 
0.000449175 9.50114 0.223757 
-0.32706 0.223757 9.54256 
9.47032 0.0429087 0.121997 
0.0429087 9.63917 0.444383 
0.121997 0.444383 9.4375 
9.51942 0.1253 0.21643 
0.1253 9.6626 0.381154 
0.21643 0.381154 9.36496 
9.48879 0.0318007 0.141379 
0.0318007 9.67581 0.34908 
0.141379 0.34908 9.38238 
9.46973 -0.0412184 0.180181 
-0.0412184 9.64777 0.39643 
0.180181 0.39643 9.42948 
9.87771 0.0392747 0.401361 
0.0392747 9.89154 0.258064 
0.401361 0.258064 9.81063 
9.87849 0.000197492 0.422723 
0.000197492 9.91636 0.242751 
0.422723 0.242751 9.78503 
9.86138 0.00436259 0.388599 
0.00436259 9.88657 0.260649 
0.388599 0.260649 9.83193 
9.88168 -0.00189089 0.391842 
-0.00189089 9.91329 0.272498 
0.391842 0.272498 9.78492 
9.78567 0.0379197 0.479452 
0.0379197 9.78834 0.364466 
0.479452 0.364466 9.71525 
9.77265 -0.0091995 0.411318 
-0.0091995 9.80435 0.315169 
0.411318 0.315169 9.71227 
9.79208 0.0356984 0.491191 
0.0356984 9.82697 0.345607 
0.491191 0.345607 9.67021 
9.79447 0.0652225 0.471672 
0.0652225 9.8408 0.371711 
0.471672 0.371711 9.65399 
9.19668 0.0455725 0.548692 
0.0455725 8.92051 -0.915171 
0.548692 -0.915171 5.51234 
9.18879 -0.219615 0.429415 
-0.219615 8.4398 -1.62178 
0.429415 -1.62178 6.00094 
8.82492 0.0108097 0.376735 
0.0108097 8.40191 0.0502835 
0.376735 0.0502835 6.4027 
9.47449 0.0843007 -0.630499 
0.0843007 10.4718 -0.836479 
-0.630499 -0.836479 3.68326 
3.28733 -0.0667626 -0.369305 
-0.0667626 3.7742 -2.13155 
-0.369305 -2.13155 0.946359 
3.95331 -0.0328649 0.554105 
-0.0328649 4.35505 -1.87469 
0.554105 -1.87469 -0.300463 
3.09368 0.0570686 0.0666094 
0.0570686 3.53778 -1.51194 
0.0666094 -1.51194 1.37644 
2.73374 -0.112996 -0.630244 
-0.112996 2.8722 -1.74076 
-0.630244 -1.74076 2.40195 
9.80993 0.0565962 0.309298 
0.0565962 9.86062 0.40578 
0.309298 0.40578 9.9929 
9.88039 -0.0272429 0.339487 
-0.0272429 9.92809 0.467923 
0.339487 0.467923 9.85496 
9.89329 -0.0262445 0.386618 
-0.0262445 9.91178 0.51644 
0.386618 0.51644 9.85838 
9.91414 0.0726589 0.35921 
0.0726589 9.97474 0.444668 
0.35921 0.444668 9.77456 
12.6975 0.0504177 0.313675 
0.0504177 9.6236 -0.441844 
0.313675 -0.441844 9.93513 
8.2842 0.229551 -0.24227 
0.229551 10.1174 0.432826 
-0.24227 0.432826 13.8547 
9.4204 1.51985 0.340354 
1.51985 8.81642 -0.483668 
0.340354 -0.483668 14.0195 
10.6043 1.4839 2.02553 
1.4839 9.96918 0.695938 
2.02553 0.695938 11.6828 
9.22684 -0.0925491 -0.0367983 
-0.0925491 9.79579 -0.267958 
-0.0367983 -0.267958 9.80196 
9.25282 -0.114529 0.0796265 
-0.114529 9.79269 -0.163515 
0.0796265 -0.163515 9.77908 
9.2147 -0.0377076 -0.248177 
-0.0377076 9.78848 -0.121888 
-0.248177 -0.121888 9.82141 
9.0278 -0.131481 -0.0961706 
-0.131481 9.6525 -0.251206 
-0.0961706 -0.251206 10.1443 
9.40414 -0.120227 0.325451 
-0.120227 10.3039 0.486708 
0.325451 0.486708 11.0231 
10.3807 -0.252756 -0.204865 
-0.252756 9.2963 0.180682 
-0.204865 0.180682 11.0541 
10.962 -0.203934 0.0234283 
-0.203934 9.33201 0.409775 
0.0234283 0.409775 10.437 
9.50412 -0.688943 -0.229633 
-0.688943 10.3533 -0.746357 
-0.229633 -0.746357 10.8736 
10.4212 0.521109 0.234281 
0.521109 7.27129 -0.764608 
0.234281 -0.764608 15.7714 
10.6306 2.14204 1.40307 
2.14204 6.91323 -0.437738 
1.40307 -0.437738 15.9202 
13.8837 -0.467035 -0.0590087 
-0.467035 10.285 -1.37985 
-0.0590087 -1.37985 9.29521 
10.373 0.537621 -0.396023 
0.537621 9.75941 1.61592 
-0.396023 1.61592 13.3315 
9.54455 0.130486 0.0237538 
0.130486 9.40542 -0.211033 
0.0237538 -0.211033 10.7354 
9.97914 0.0675592 -0.0634329 
0.0675592 10.0229 0.457882 
-0.0634329 0.457882 9.68328 
10.0734 -0.13015 0.0509461 
-0.13015 10.3045 0.582396 
0.0509461 0.582396 9.30742 
10.1342 0.188048 -0.351125 
0.188048 9.3039 0.599636 
-0.351125 0.599636 10.2472 
9.87197 -0.0501784 -0.202784 
-0.0501784 9.82343 -0.609583 
-0.202784 -0.609583 9.74357 
9.76332 0.0134724 -0.0970058 
0.0134724 9.87289 -0.658502 
-0.0970058 -0.658502 9.80276 
9.78245 -0.0500127 -0.0356203 
-0.0500127 9.88821 -0.588411 
-0.0356203 -0.588411 9.76831 
9.80509 -0.00305386 -0.199018 
-0.00305386 9.9544 -0.557772 
-0.199018 -0.557772 9.67948 
9.898 -0.00377285 -0.419372 
-0.00377285 9.90751 0.202205 
-0.419372 0.202205 9.98142 
9.90247 0.00644943 -0.396268 
0.00644943 9.87615 0.224167 
-0.396268 0.224167 10.0083 
9.91101 0.0036526 -0.4015 
0.0036526 9.93579 0.192992 
-0.4015 0.192992 9.94013 
9.9238 -0.0110771 -0.402601 
-0.0110771 9.93689 0.176218 
-0.402601 0.176218 9.92624 
9.83879 -0.0271062 0.0513894 
-0.0271062 9.87429 0.0371265 
0.0513894 0.0371265 9.86286 
9.83209 -0.0515385 -0.00820124 
-0.0515385 9.84739 0.0509897 
-0.00820124 0.0509897 9.89646 
9.80792 -0.0198128 -0.0161407 
-0.0198128 9.83997 0.0652692 
-0.0161407 0.0652692 9.92804 
9.82079 -0.0424019 0.0208015 
-0.0424019 9.85069 0.0882381 
0.0208015 0.0882381 9.90446 
8.42161 0.139106 -1.31089 
0.139106 9.18423 -0.234269 
-1.31089 -0.234269 -5.93191 
5.20953 0.0230156 -0.511525 
0.0230156 5.67861 -1.92077 
-0.511525 -1.92077 0.785787 
1.77044 0.239613 0.837141 
0.239613 2.53012 -0.540634 
0.837141 -0.540634 7.37337 
3.87044 -0.291743 0.479058 
-0.291743 5.32491 -6.56615 
0.479058 -6.56615 2.47858 
9.96287 0.0215723 0.113879 
0.0215723 9.88688 0.293792 
0.113879 0.293792 9.97259 
9.88839 -0.026458 0.143249 
-0.026458 9.83061 0.268565 
0.143249 0.268565 10.1033 
9.96286 0.0141682 0.143393 
0.0141682 9.98519 0.337998 
0.143393 0.337998 9.87428 
9.93723 0.0172447 0.115835 
0.0172447 10.0153 0.284841 
0.115835 0.284841 9.86984 
9.63064 -0.0295511 -0.129628 
-0.0295511 9.78425 -0.470467 
-0.129628 -0.470467 9.71008 
9.74379 -0.0229989 -0.268613 
-0.0229989 9.77863 -0.62256 
-0.268613 -0.62256 9.60255 
9.75251 -0.0328922 -0.288511 
-0.0328922 9.73802 -0.497246 
-0.288511 -0.497246 9.63443 
9.72734 -0.0288658 -0.238975 
-0.0288658 9.75506 -0.568568 
-0.238975 -0.568568 9.64257 
9.24803 -0.140289 -0.502671 
-0.140289 9.53893 -0.321191 
-0.502671 -0.321191 9.73848 
9.50798 0.246718 -0.500293 
0.246718 9.65757 -0.117434 
-0.500293 -0.117434 9.3599 
9.41898 0.0709874 -0.463628 
0.0709874 9.56492 -0.192928 
-0.463628 -0.192928 9.54155 
9.36935 0.0657128 -0.344348 
0.0657128 9.42497 0.0255055 
-0.344348 0.0255055 9.73113 
9.61388 2.18183 -2.09732 
2.18183 4.84623 5.70021 
-2.09732 5.70021 7.87769 
5.95207 0.0904067 -2.54073 
0.0904067 6.21799 5.85735 
-2.54073 5.85735 10.1677 
7.63542 3.16494 -0.524644 
3.16494 5.75782 1.34901 
-0.524644 1.34901 8.94456 
8.51281 -1.76326 -1.31022 
-1.76326 8.11438 1.93814 
-1.31022 1.93814 5.71062 
9.93381 0.0757892 -0.469462 
0.0757892 9.70336 -0.754801 
-0.469462 -0.754801 9.16282 
9.44623 0.128929 -0.219578 
0.128929 9.39142 -0.749804 
-0.219578 -0.749804 9.96235 
9.6379 -0.0313738 -0.191142 
-0.0313738 9.74322 -0.494806 
-0.191142 -0.494806 9.41888 
9.47025 0.0306562 -0.232718 
0.0306562 9.78644 -0.534023 
-0.232718 -0.534023 9.54331 
9.93251 -0.00103977 -0.169189 
-0.00103977 9.89491 0.0174268 
-0.169189 0.0174268 10.0332 
9.98555 0.0222661 -0.148865 
0.0222661 9.90474 0.0232278 
-0.148865 0.0232278 9.97029 
9.99174 -0.00866187 -0.156572 
-0.00866187 9.94466 -0.00200205 
-0.156572 -0.00200205 9.9242 
9.99916 -0.0150535 -0.135158 
-0.0150535 9.94111 -0.0111444 
-0.135158 -0.0111444 9.92032 
1.80666 0.0503587 0.213376 
0.0503587 1.60527 0.579293 
0.213376 0.579293 6.87776 
6.41445 -0.707627 0.936967 
-0.707627 8.60902 0.0856719 
0.936967 0.0856719 -4.73378 
4.93273 0.201096 1.20043 
0.201096 5.49309 1.77399 
1.20043 1.77399 -0.136127 
3.66826 0.0359347 0.0227332 
0.0359347 5.19077 6.16339 
0.0227332 6.16339 1.43065 
9.61839 0.0187674 -0.386179 
0.0187674 9.60595 0.0787319 
-0.386179 0.0787319 9.64327 
9.69201 -0.0136972 -0.35814 
-0.0136972 9.52971 0.0650977 
-0.35814 0.0650977 9.64589 
9.48366 -0.00146852 -0.446876 
-0.00146852 9.64722 0.121537 
-0.446876 0.121537 9.73673 
9.54952 0.0648348 -0.377105 
0.0648348 9.62037 0.154953 
-0.377105 0.154953 9.69772 
9.86887 -0.0310751 0.282364 
-0.0310751 9.79152 -0.0320516 
0.282364 -0.0320516 9.96841 
9.91495 0.0219935 0.2736 
0.0219935 9.78603 -0.0777917 
0.2736 -0.0777917 9.92782 
9.88268 -0.00235569 0.315839 
-0.00235569 9.81787 -0.0814392 
0.315839 -0.0814392 9.92825 
9.89508 -0.0529504 0.274925 
-0.0529504 9.81549 -0.0113961 
0.274925 -0.0113961 9.91823 
9.82915 0.0313771 0.360157 
0.0313771 9.83507 0.510795 
0.360157 0.510795 9.75576 
9.84672 -0.000876562 0.336915 
-0.000876562 9.8133 0.548779 
0.336915 0.548779 9.75995 
9.81789 0.018797 0.36666 
0.018797 9.82106 0.45058 
0.36666 0.45058 9.78102 
9.86786 0.0552373 0.298088 
0.0552373 9.85219 0.547847 
0.298088 0.547847 9.69992 
9.77456 -0.0986001 0.218394 
-0.0986001 9.85922 0.329824 
0.218394 0.329824 9.83518 
9.78044 -0.0591118 0.227656 
-0.0591118 9.91823 0.350215 
0.227656 0.350215 9.7703 
9.83347 -0.0477766 0.0359204 
-0.0477766 9.8264 0.412675 
0.0359204 0.412675 9.8091 
9.81892 -0.0249533 0.0146468 
-0.0249533 9.90514 0.397722 
0.0146468 0.397722 9.74491 
6.28961 0.648454 2.03031 
0.648454 3.61807 1.38113 
2.03031 1.38113 -0.216225 
4.4474 0.318196 1.24983 
0.318196 3.36385 0.0536406 
1.24983 0.0536406 1.88021 
4.01054 0.345242 1.61839 
0.345242 4.4735 0.201436 
1.61839 0.201436 1.20741 
3.55836 1.04219 0.548976 
1.04219 4.9523 -0.751962 
0.548976 -0.751962 1.1808 
9.3617 0.328092 -0.404248 
0.328092 10.2682 0.0884266 
-0.404248 0.0884266 10.2369 
9.44386 0.0279137 -0.331477 
0.0279137 9.87775 -0.0676478 
-0.331477 -0.0676478 10.5452 
9.43501 -0.768653 0.515113 
-0.768653 10.0888 -0.307009 
0.515113 -0.307009 10.343 
9.11188 0.330374 0.0447634 
0.330374 9.89711 -0.0613842 
0.0447634 -0.0613842 10.8578 
8.5193 0.714864 0.4934 
0.714864 8.48254 -0.970211 
0.4934 -0.970211 8.73802 
8.25745 -0.518498 0.640283 
-0.518498 9.15299 -0.409459 
0.640283 -0.409459 8.32942 
8.2998 0.578991 0.726859 
0.578991 8.72856 -0.661978 
0.726859 -0.661978 8.71151 
8.01548 0.484818 1.14613 
0.484818 9.39136 -0.886127 
1.14613 -0.886127 8.33302 
9.1897 0.132286 0.840201 
0.132286 9.29389 -1.74632 
0.840201 -1.74632 8.4651 
9.26248 0.110721 0.216156 
0.110721 9.26104 -0.520769 
0.216156 -0.520769 8.42518 
8.78958 -0.207419 -0.884577 
-0.207419 8.68836 -0.954134 
-0.884577 -0.954134 9.47076 
8.78565 0.229871 -0.146025 
0.229871 9.46801 -0.53309 
-0.146025 -0.53309 8.69503 
4.66356 -0.092516 0.374458 
-0.092516 4.60218 0.82076 
0.374458 0.82076 0.975572 
5.11224 0.418146 -0.46413 
0.418146 6.82582 -0.0489313 
-0.46413 -0.0489313 -1.69675 
3.62193 0.8593 0.632728 
0.8593 3.96676 -0.318014 
0.632728 -0.318014 2.65261 
3.53957 0.554613 2.57285 
0.554613 4.00242 0.327975 
2.57285 0.327975 2.69932 
9.31303 0.29656 0.570085 
0.29656 9.21892 0.114715 
0.570085 0.114715 8.88886 
9.32041 0.469531 0.704163 
0.469531 9.06508 -0.134729 
0.704163 -0.134729 9.03532 
8.54398 0.288 0.405894 
0.288 9.27082 -0.0672092 
0.405894 -0.0672092 9.60601 
8.98141 0.102118 0.823036 
0.102118 9.09325 -0.188364 
0.823036 -0.188364 9.34615 
9.87094 0.022209 0.0985017 
0.022209 9.87759 0.161831 
0.0985017 0.161831 9.83527 
9.85614 0.0251972 0.0868931 
0.0251972 9.92133 0.130074 
0.0868931 0.130074 9.80634 
9.81968 -0.0434695 0.174389 
-0.0434695 9.86759 0.121988 
0.174389 0.121988 9.89654 
9.83383 -0.0164169 0.165477 
-0.0164169 9.92595 0.141624 
0.165477 0.141624 9.82402 
9.62356 -0.0961704 -0.0690267 
-0.0961704 9.77424 -0.0110713 
-0.0690267 -0.0110713 9.73011 
9.50508 0.0180727 -0.000614986 
0.0180727 9.769 0.0798809 
-0.000614986 0.0798809 9.85383 
9.55239 -0.0501666 -0.0303944 
-0.0501666 9.72971 -0.0303334 
-0.0303944 -0.0303334 9.84581 
9.61194 -0.0383936 0.00326683 
-0.0383936 9.71488 -0.0321164 
0.00326683 -0.0321164 9.80108 
9.83406 0.0253151 -0.0231676 
0.0253151 9.81659 -0.0101568 
-0.0231676 -0.0101568 9.88112 
9.87263 0.0215638 0.0241342 
0.0215638 9.78254 -0.00879165 
0.0241342 -0.00879165 9.8766 
9.82692 0.0237195 0.0381053 
0.0237195 9.82424 -0.0259869 
0.0381053 -0.0259869 9.8806 
9.86387 0.0130857 0.00857083 
0.0130857 9.80347 -0.0145401 
0.00857083 -0.0145401 9.86443 
8.91112 0.0677977 0.731946 
0.0677977 9.47526 0.16732 
0.731946 0.16732 9.25677 
9.4998 0.580009 0.572172 
0.580009 9.1935 0.00786053 
0.572172 0.00786053 8.94985 
8.99119 0.0149053 0.774875 
0.0149053 9.43307 0.231981 
0.774875 0.231981 9.2189 
8.93778 0.232633 0.948889 
0.232633 9.67596 0.154065 
0.948889 0.154065 9.02941 
9.39586 -0.02959 -0.350111 
-0.02959 9.56252 0.178863 
-0.350111 0.178863 9.76475 
9.4159 -0.0271462 -0.315684 
-0.0271462 9.54606 0.175121 
-0.315684 0.175121 9.76117 
9.45238 -0.0223468 -0.31584 
-0.0223468 9.55455 0.18748 
-0.31584 0.18748 9.7162 
9.48868 0.0241234 -0.319458 
0.0241234 9.53908 0.222373 
-0.319458 0.222373 9.69536 
9.50834 -0.0248343 -0.449722 
-0.0248343 9.1407 0.0174621 
-0.449722 0.0174621 8.98826 
9.34094 -0.167067 -0.382449 
-0.167067 9.18043 0.0769898 
-0.382449 0.0769898 9.11592 
9.44043 -0.13676 -0.50581 
-0.13676 9.30794 0.0556531 
-0.50581 0.0556531 8.88891 
9.31438 0.00216767 -0.270142 
0.00216767 9.26099 0.0573246 
-0.270142 0.0573246 9.06192 
9.39619 0.0255536 -0.278796 
0.0255536 9.46348 0.135308 
-0.278796 0.135308 9.4994 
9.4503 -0.0917871 -0.317211 
-0.0917871 9.43278 0.185787 
-0.317211 0.185787 9.47599 
9.27468 0.123277 -0.290854 
0.123277 9.47053 0.104164 
-0.290854 0.104164 9.61387 
9.46152 -0.0265591 -0.255047 
-0.0265591 9.42973 0.110632 
-0.255047 0.110632 9.46782 
9.6489 -0.0063652 0.0242329 
-0.0063652 9.75814 0.0797481 
0.0242329 0.0797481 9.46509 
9.67266 0.0474458 0.0499206 
0.0474458 9.62072 0.248419 
0.0499206 0.248419 9.57874 
9.68519 -0.0238763 0.0452202 
-0.0238763 9.66693 0.10933 
0.0452202 0.10933 9.52 
9.6241 -0.0294561 -0.0362778 
-0.0294561 9.67374 0.19014 
-0.0362778 0.19014 9.57428 
9.3942 -0.163549 0.39791 
-0.163549 9.65466 -0.125216 
0.39791 -0.125216 9.63809 
9.35368 -0.0933763 0.43903 
-0.0933763 9.66018 -0.160214 
0.43903 -0.160214 9.67309 
9.24911 -0.184012 0.418947 
-0.184012 9.57068 -0.0512772 
0.418947 -0.0512772 9.86715 
9.44699 -0.162304 0.53253 
-0.162304 9.52429 -0.0908529 
0.53253 -0.0908529 9.71566 
6.51652 -2.23189 5.44113 
-2.23189 8.3878 2.51007 
5.44113 2.51007 6.67541 
6.2103 0.583122 4.45864 
0.583122 7.23157 2.05892 
4.45864 2.05892 8.13786 
6.94127 -2.24273 1.72801 
-2.24273 6.54247 1.36745 
1.72801 1.36745 8.09598 
6.34037 1.53362 1.55124 
1.53362 9.14957 1.01192 
1.55124 1.01192 6.08979 
9.9409 0.0047637 -0.376538 
0.0047637 9.91866 0.096045 
-0.376538 0.096045 9.97997 
9.93833 0.00946913 -0.390933 
0.00946913 9.92386 0.107472 
-0.390933 0.107472 9.97735 
9.93516 0.00789563 -0.372653 
0.00789563 9.91657 0.118037 
-0.372653 0.118037 9.98781 
9.95147 0.00967796 -0.39513 
0.00967796 9.93382 0.115662 
-0.39513 0.115662 9.95424 
9.21375 0.0223535 0.415666 
0.0223535 9.41201 -0.62708 
0.415666 -0.62708 9.33774 
9.28743 0.2305 0.523153 
0.2305 9.32648 -0.617286 
0.523153 -0.617286 9.34958 
9.24343 -0.132506 0.342584 
-0.132506 9.83742 -0.604384 
0.342584 -0.604384 8.88265 
9.37016 0.017519 0.417387 
0.017519 9.34288 -0.493553 
0.417387 -0.493553 9.25046 
9.23016 -0.225772 -0.334286 
-0.225772 9.06687 -0.392247 
-0.334286 -0.392247 9.48271 
9.16912 0.0115223 -0.428958 
0.0115223 9.37004 -0.739247 
-0.428958 -0.739247 9.24059 
9.0457 -0.298951 -0.183398 
-0.298951 9.10707 -0.483906 
-0.183398 -0.483906 9.62698 
9.45195 -0.113785 -0.213399 
-0.113785 9.26132 -0.328667 
-0.213399 -0.328667 9.06648 
9.59911 0.175277 0.246729 
0.175277 9.42839 -0.621962 
0.246729 -0.621962 9.78124 
9.61058 -0.066908 0.200285 
-0.066908 9.72544 -0.746607 
0.200285 -0.746607 9.47271 
9.62312 0.020629 0.193123 
0.020629 9.61535 -0.648002 
0.193123 -0.648002 9.57026 
9.597 -0.0202767 0.123557 
-0.0202767 9.69249 -0.651603 
0.123557 -0.651603 9.51926 
8.97163 0.680412 -0.21069 
0.680412 9.09759 0.0133907 
-0.21069 0.0133907 9.66989 
8.63124 0.0111535 -0.540156 
0.0111535 9.82015 0.429239 
-0.540156 0.429239 9.28773 
8.74852 0.0677719 -0.165028 
0.0677719 9.52832 0.315682 
-0.165028 0.315682 9.46228 
8.98218 0.0426099 -0.577183 
0.0426099 9.42343 0.204591 
-0.577183 0.204591 9.33351 
9.32712 -0.00899353 0.215428 
-0.00899353 9.36023 0.720015 
0.215428 0.720015 9.38813 
9.31684 0.00787134 0.169092 
0.00787134 9.51109 0.7 
0.169092 0.7 9.24755 
9.32368 0.0196748 0.186167 
0.0196748 9.43194 0.676361 
0.186167 0.676361 9.31986 
9.34345 -0.0421068 0.230575 
-0.0421068 9.37566 0.668459 
0.230575 0.668459 9.35638 
9.65041 0.0794969 -0.523075 
0.0794969 9.68445 -0.201712 
-0.523075 -0.201712 9.64667 
9.55458 -0.0288076 -0.482476 
-0.0288076 9.72474 -0.125646 
-0.482476 -0.125646 9.70221 
9.64913 0.0595125 -0.519861 
0.0595125 9.67338 -0.179573 
-0.519861 -0.179573 9.65901 
9.65178 0.0280114 -0.551625 
0.0280114 9.61127 -0.171076 
-0.551625 -0.171076 9.71847 
9.30133 0.0331373 -0.0338657 
0.0331373 9.07347 0.945375 
-0.0338657 0.945375 9.1798 
9.16342 -0.00569492 -0.0554913 
-0.00569492 9.28071 0.847944 
-0.0554913 0.847944 9.11048 
9.13707 -0.115216 -0.0549502 
-0.115216 9.50449 0.851929 
-0.0549502 0.851929 8.91304 
9.20195 0.0970745 -0.0462755 
0.0970745 9.26776 0.85085 
-0.0462755 0.85085 9.08489 
9.39599 -0.131819 -0.251532 
-0.131819 10.3468 0.311268 
-0.251532 0.311268 7.15285 
9.4595 -0.0176728 -0.674394 
-0.0176728 9.2238 0.263346 
-0.674394 0.263346 8.21236 
8.60954 -0.135578 -0.171208 
-0.135578 9.43972 0.0226418 
-0.171208 0.0226418 8.84639 
9.55074 0.203804 -0.51976 
0.203804 9.11168 0.490072 
-0.51976 0.490072 8.23323 
10.6527 0.747038 -0.00469141 
0.747038 10.8215 -0.333466 
-0.00469141 -0.333466 11.4762 
10.8613 -0.00863502 0.0993918 
-0.00863502 10.27 -0.0568696 
0.0993918 -0.0568696 11.8192 
11.0964 -0.0681702 -0.113415 
-0.0681702 11.276 -0.202751 
-0.113415 -0.202751 10.5781 
10.8634 0.0109845 -0.465673 
0.0109845 10.8122 -0.108431 
-0.465673 -0.108431 11.2748 
9.8997 0.00134484 0.228396 
0.00134484 9.9479 0.000667313 
0.228396 0.000667313 10.0468 
9.97422 0.00169575 0.203507 
0.00169575 9.9756 -0.038341 
0.203507 -0.038341 9.94461 
9.95438 -0.0150858 0.213817 
-0.0150858 9.97433 -0.0341906 
0.213817 -0.0341906 9.96572 
9.99341 0.00836475 0.216763 
0.00836475 9.96748 -0.0507351 
0.216763 -0.0507351 9.93354 
9.61285 -0.0444004 0.457962 
-0.0444004 9.63015 0.468705 
0.457962 0.468705 9.59264 
9.74951 0.0600098 0.581892 
0.0600098 9.70499 0.509263 
0.581892 0.509263 9.38113 
9.42722 -0.0836282 0.520938 
-0.0836282 9.61871 0.399769 
0.520938 0.399769 9.78971 
9.63462 0.0524358 0.420885 
0.0524358 9.69136 0.505261 
0.420885 0.505261 9.50965 
9.25021 0.0955249 0.41482 
0.0955249 9.55585 -0.163327 
0.41482 -0.163327 9.73622 
9.46556 -0.179287 0.347647 
-0.179287 9.53996 -0.20317 
0.347647 -0.20317 9.53676 
9.42579 -0.184903 0.407986 
-0.184903 9.60161 -0.152562 
0.407986 -0.152562 9.51487 
9.28713 -0.156402 0.305455 
-0.156402 9.69127 -0.014264 
0.305455 -0.014264 9.56387 
9.54139 0.0123258 -0.334975 
0.0123258 9.68566 -0.654095 
-0.334975 -0.654095 9.51164 
9.60075 0.0441904 -0.329412 
0.0441904 9.68721 -0.694436 
-0.329412 -0.694436 9.45072 
9.69951 -0.15231 -0.315525 
-0.15231 9.34516 -0.635801 
-0.315525 -0.635801 9.69402 
9.54133 -0.00206324 -0.287879 
-0.00206324 9.69933 -0.570888 
-0.287879 -0.570888 9.49802 
9.00419 0.153307 -0.236504 
0.153307 8.40584 1.21142 
-0.236504 1.21142 8.07618 
8.82102 0.013866 0.281563 
0.013866 8.47969 1.38598 
0.281563 1.38598 8.1855 
8.82818 0.0141956 -0.128258 
0.0141956 8.48722 1.14307 
-0.128258 1.14307 8.1708 
8.90194 0.20482 -0.221295 
0.20482 8.62298 1.26 
-0.221295 1.26 7.96128 
10.0244 0.0289949 0.100523 
0.0289949 10.0672 -0.0863423 
0.100523 -0.0863423 9.72958 
9.90195 -0.0588712 -0.0291422 
-0.0588712 9.92666 -0.0962677 
-0.0291422 -0.0962677 9.99259 
9.87415 -0.0993289 -0.0230385 
-0.0993289 9.97631 -0.0424019 
-0.0230385 -0.0424019 9.97075 
9.9057 -0.0772818 -0.0949272 
-0.0772818 9.89996 -0.107415 
-0.0949272 -0.107415 10.0155 
8.87485 -0.375937 0.857099 
-0.375937 10.0008 -1.12424 
0.857099 -1.12424 8.21754 
8.99769 0.327419 0.42567 
0.327419 8.60865 -0.639501 
0.42567 -0.639501 9.48684 
9.03865 0.612431 0.357662 
0.612431 8.92204 -0.552142 
0.357662 -0.552142 9.13248 
9.43522 -0.33434 0.822717 
-0.33434 9.45593 -0.0770212 
0.822717 -0.0770212 8.20203 
6.56257 0.318986 0.845478 
0.318986 7.17121 0.814727 
0.845478 0.814727 1.00131 
6.10955 0.239056 1.79177 
0.239056 6.57049 1.10769 
1.79177 1.10769 2.05504 
5.28549 -1.19967 1.04895 
-1.19967 7.4525 1.46581 
1.04895 1.46581 1.9971 
5.92358 0.497694 1.36843 
0.497694 6.63176 1.82387 
1.36843 1.82387 2.17974 
10.0494 -0.145934 0.0651823 
-0.145934 10.577 -0.326383 
0.0651823 -0.326383 9.96331 
10.14 -0.3868 0.0616177 
-0.3868 10.3261 0.132103 
0.0616177 0.132103 10.1236 
10.53 -0.00839762 -0.214027 
-0.00839762 10.7418 0.292213 
-0.214027 0.292213 9.31794 
9.42783 -0.0676689 0.394055 
-0.0676689 9.98909 0.243292 
0.394055 0.243292 11.1728 
9.42407 -0.0536778 0.199078 
-0.0536778 9.45458 -0.0674839 
0.199078 -0.0674839 9.77076 
9.4942 0.0167773 0.100967 
0.0167773 9.33837 -0.0920367 
0.100967 -0.0920367 9.81684 
9.40968 -0.0461407 0.1772 
-0.0461407 9.50723 0.0336339 
0.1772 0.0336339 9.73249 
9.44855 0.0380119 0.209157 
0.0380119 9.41525 -0.020066 
0.209157 -0.020066 9.78561 
2.40817 0.25127 1.27041 
0.25127 1.86786 -1.14569 
1.27041 -1.14569 7.36559 
6.84134 -0.470246 2.12402 
-0.470246 6.74681 0.485386 
2.12402 0.485386 -1.94653 
7.47864 -0.0437271 1.09228 
-0.0437271 7.49121 -1.38658 
1.09228 -1.38658 -3.32823 
4.44806 0.308562 6.77951 
0.308562 6.47371 -2.39885 
6.77951 -2.39885 0.71985 
9.65865 0.0485981 -0.287773 
0.0485981 9.78175 -0.644012 
-0.287773 -0.644012 9.47934 
9.63579 0.084189 -0.0686751 
0.084189 9.70341 -0.627707 
-0.0686751 -0.627707 9.58053 
9.653 0.0134745 -0.0376059 
0.0134745 9.6089 -0.714949 
-0.0376059 -0.714949 9.65783 
9.71385 -0.0270878 -0.193964 
-0.0270878 9.65685 -0.554428 
-0.193964 -0.554428 9.54903 
4.45188 -1.2035 0.202558 
-1.2035 10.4286 0.314876 
0.202558 0.314876 19.1807 
6.92579 -2.26817 -0.123201 
-2.26817 10.967 1.0136 
-0.123201 1.0136 16.1685 
9.80489 -0.409023 1.81256 
-0.409023 14.1152 0.106927 
1.81256 0.106927 10.1412 
9.73226 -0.68327 -1.68178 
-0.68327 11.0796 0.00702801 
-1.68178 0.00702801 13.2494 
11.7329 -0.235966 -0.581441 
-0.235966 11.7371 0.0217564 
-0.581441 0.0217564 10.8716 
10.4386 0.230989 0.381033 
0.230989 10.9541 0.369642 
0.381033 0.369642 12.949 
11.9817 -0.066435 -0.5401 
-0.066435 11.0258 -0.0228963 
-0.5401 -0.0228963 11.3341 
10.7644 -0.568609 -0.885134 
-0.568609 11.4469 -0.0499935 
-0.885134 -0.0499935 12.1303 
5.93 -0.903312 -0.489475 
-0.903312 6.97385 0.901551 
-0.489475 0.901551 -2.23677 
2.53777 0.419368 0.529164 
0.419368 2.66724 -1.60177 
0.529164 -1.60177 5.46208 
6.65435 -0.577509 0.854738 
-0.577509 3.93219 -0.609011 
0.854738 -0.609011 0.0805499 
4.80977 -2.08678 2.48497 
-2.08678 5.34722 -2.48647 
2.48497 -2.48647 0.5101 
8.77791 -0.0541783 0.329626 
-0.0541783 9.57367 -0.359595 
0.329626 -0.359595 9.62473 
8.41728 0.154324 0.420757 
0.154324 9.56762 0.178679 
0.420757 0.178679 9.9914 
9.00457 0.204645 0.475517 
0.204645 9.77214 -0.394797 
0.475517 -0.394797 9.19959 
9.00666 -0.0221119 0.379175 
-0.0221119 9.48858 -0.203323 
0.379175 -0.203323 9.48106 
9.70232 0.0123726 -0.505251 
0.0123726 9.71492 -0.0584769 
-0.505251 -0.0584769 9.88881 
9.74961 0.023994 -0.488576 
0.023994 9.7352 -0.0463644 
-0.488576 -0.0463644 9.82123 
9.75103 0.0445637 -0.50612 
0.0445637 9.79125 -0.0467855 
-0.50612 -0.0467855 9.76377 
9.74046 0.0240784 -0.463929 
0.0240784 9.76727 -0.0208304 
-0.463929 -0.0208304 9.79831 
9.06207 0.113204 -0.51055 
0.113204 8.91852 0.336414 
-0.51055 0.336414 7.55893 
9.41732 0.000387807 -1.39308 
0.000387807 9.50139 0.141412 
-1.39308 0.141412 6.62081 
8.47646 0.0248178 -1.00016 
0.0248178 8.53201 0.209881 
-1.00016 0.209881 8.53106 
9.03229 0.163792 -0.467465 
0.163792 8.99402 0.588835 
-0.467465 0.588835 7.51321 
9.85141 0.124122 0.069307 
0.124122 9.83499 -0.0993948 
0.069307 -0.0993948 10.0544 
9.97703 0.0867439 0.0926994 
0.0867439 10.0489 -0.0437054 
0.0926994 -0.0437054 9.71482 
9.82656 0.0591656 0.0123775 
0.0591656 9.91194 -0.0705729 
0.0123775 -0.0705729 10.0023 
9.85837 0.037296 0.00360682 
0.037296 9.8818 0.0153294 
0.00360682 0.0153294 10.0006 
9.49476 -0.015544 0.430631 
-0.015544 9.72409 -0.0799005 
0.430631 -0.0799005 9.65192 
9.56539 -0.117193 0.395182 
-0.117193 9.66466 -0.13356 
0.395182 -0.13356 9.64072 
9.55262 -0.0912768 0.411133 
-0.0912768 9.62627 -0.123658 
0.411133 -0.123658 9.69188 
9.5831 -0.0669209 0.454542 
-0.0669209 9.62776 -0.14465 
0.454542 -0.14465 9.65992 
0.806897 -0.0454659 1.67727 
-0.0454659 4.75673 -1.6261 
1.67727 -1.6261 5.96386 
10.0966 2.8709 -1.11156 
2.8709 3.43553 0.671954 
-1.11156 0.671954 -2.00469 
9.53068 0.0101037 -1.85164 
0.0101037 9.20699 0.820071 
-1.85164 0.820071 -7.21018 
6.86221 -2.58561 3.20279 
-2.58561 3.83101 2.83058 
3.20279 2.83058 0.834263 
9.64069 0.0610115 0.107072 
0.0610115 9.8359 0.380482 
0.107072 0.380482 9.52517 
9.65167 0.00985086 0.189579 
0.00985086 9.82337 0.330224 
0.189579 0.330224 9.52672 
9.66891 0.0740562 0.153 
0.0740562 9.83406 0.280789 
0.153 0.280789 9.49879 
9.61728 0.00274454 0.0105731 
0.00274454 9.80777 0.398551 
0.0105731 0.398551 9.57671 
9.61648 -0.0462615 0.656396 
-0.0462615 9.62266 0.506192 
0.656396 0.506192 9.27574 
9.57018 0.100205 0.482419 
0.100205 9.87029 0.296035 
0.482419 0.296035 9.0744 
9.58539 0.0970567 0.626733 
0.0970567 9.59833 0.351861 
0.626733 0.351861 9.33116 
9.38874 0.0900211 0.489348 
0.0900211 9.57197 0.250892 
0.489348 0.250892 9.55417 
9.95651 0.00604987 -0.264322 
0.00604987 9.91799 -0.0947316 
-0.264322 -0.0947316 10.0082 
9.9646 -0.0113044 -0.299636 
-0.0113044 9.92659 -0.0847647 
-0.299636 -0.0847647 9.99148 
9.97967 0.0101541 -0.285744 
0.0101541 9.95651 -0.0812311 
-0.285744 -0.0812311 9.94649 
9.9802 0.0141417 -0.291011 
0.0141417 9.97523 -0.0753571 
-0.291011 -0.0753571 9.92725 
9.87953 0.00535794 -0.434731 
0.00535794 9.85269 -0.0279319 
-0.434731 -0.0279319 9.91611 
9.87245 0.0122044 -0.458318 
0.0122044 9.85798 -0.00863643 
-0.458318 -0.00863643 9.91789 
9.86781 0.00911112 -0.448039 
0.00911112 9.88311 -0.0110854 
-0.448039 -0.0110854 9.89739 
9.87622 0.0173135 -0.459506 
0.0173135 9.87348 -0.00199528 
-0.459506 -0.00199528 9.89862 
8.57904 -0.019123 -0.553628 
-0.019123 8.6219 0.655131 
-0.553628 0.655131 6.74784 
9.19179 0.465124 -1.01623 
0.465124 8.57796 0.655383 
-1.01623 0.655383 6.17903 
8.34111 -0.0167592 -0.708438 
-0.0167592 8.78725 0.306188 
-0.708438 0.306188 6.82043 
8.53462 -0.240178 0.159056 
-0.240178 8.30082 0.836364 
0.159056 0.836364 7.11334 
9.96236 -0.00111707 -0.029197 
-0.00111707 9.97251 -0.144811 
-0.029197 -0.144811 9.96 
9.97053 0.0210408 -0.0440647 
0.0210408 10.0227 -0.170626 
-0.0440647 -0.170626 9.90165 
9.88758 -0.0362143 0.0136557 
-0.0362143 9.96026 -0.187989 
0.0136557 -0.187989 10.047 
10.0042 0.00915353 -0.0274378 
0.00915353 9.99423 -0.142749 
-0.0274378 -0.142749 9.89644 
9.63745 -0.138458 -0.222678 
-0.138458 7.24781 -0.767738 
-0.222678 -0.767738 9.27933 
8.33374 -0.436431 0.225549 
-0.436431 8.22643 -1.16288 
0.225549 -1.16288 9.60443 
8.47232 -0.394309 0.481616 
-0.394309 7.41616 -1.88477 
0.481616 -1.88477 10.2761 
9.54473 0.549821 -0.506055 
0.549821 8.26941 -1.0519 
-0.506055 -1.0519 8.35046 
6.88214 2.05389 0.786267 
2.05389 6.03556 1.75057 
0.786267 1.75057 3.05717 
6.4908 -1.52109 -1.04534 
-1.52109 7.25795 2.1677 
-1.04534 2.1677 2.22612 
6.22977 -0.558718 1.68752 
-0.558718 8.64889 0.739444 
1.68752 0.739444 1.09621 
6.00948 -0.352373 0.509876 
-0.352373 7.40626 1.95872 
0.509876 1.95872 2.55914 
9.58128 -0.0265256 0.334225 
-0.0265256 9.43757 0.56217 
0.334225 0.56217 9.7474 
9.65686 0.0472782 0.365869 
0.0472782 9.71314 0.667606 
0.365869 0.667606 9.39626 
9.59821 -0.0296355 0.389264 
-0.0296355 9.59203 0.537914 
0.389264 0.537914 9.57601 
9.63218 0.0488092 0.412485 
0.0488092 9.63498 0.514205 
0.412485 0.514205 9.4991 
9.81724 0.137064 -0.507005 
0.137064 9.83344 -0.280312 
-0.507005 -0.280312 9.57115 
9.7386 0.0612101 -0.516058 
0.0612101 9.76359 -0.189636 
-0.516058 -0.189636 9.71964 
9.59435 -0.101263 -0.551349 
-0.101263 9.6747 -0.179975 
-0.551349 -0.179975 9.95278 
9.69656 0.0294891 -0.442354 
0.0294891 9.83156 -0.0135335 
-0.442354 -0.0135335 9.69372 
9.8007 -0.138075 -0.305764 
-0.138075 9.68751 0.0602481 
-0.305764 0.0602481 8.56661 
9.63007 -0.139465 -0.485393 
-0.139465 9.6344 -0.00890402 
-0.485393 -0.00890402 8.79035 
9.5629 -0.0210593 -0.442465 
-0.0210593 9.62902 -0.12148 
-0.442465 -0.12148 8.86289 
9.52024 -0.12899 -0.286777 
-0.12899 9.44084 0.0900798 
-0.286777 0.0900798 9.09374 
9.92543 0.00938874 0.0852941 
0.00938874 9.88461 0.0330561 
0.0852941 0.0330561 9.95551 
9.88976 -0.00516787 0.102698 
-0.00516787 9.88529 0.00869681 
0.102698 0.00869681 9.9905 
9.90376 -0.0145149 0.0648114 
-0.0145149 9.86906 0.015324 
0.0648114 0.015324 9.99273 
9.92476 -0.00230991 0.0872457 
-0.00230991 9.90717 0.0384993 
0.0872457 0.0384993 9.93362 
9.31922 0.0605842 -0.0543984 
0.0605842 9.56305 -0.369259 
-0.0543984 -0.369259 9.27897 
9.3246 -0.0944352 0.0556472 
-0.0944352 9.78694 -0.307918 
0.0556472 -0.307918 9.0497 
9.39713 -0.000260135 0.0700118 
-0.000260135 9.45382 -0.381918 
0.0700118 -0.381918 9.31029 
9.37759 0.0282611 0.0402079 
0.0282611 9.61959 -0.190668 
0.0402079 -0.190668 9.16405 
9.51045 0.0861899 0.32747 
0.0861899 9.09133 0.0602926 
0.32747 0.0602926 10.244 
9.41422 0.00215081 0.308911 
0.00215081 9.25695 0.114273 
0.308911 0.114273 10.1747 
9.44527 -0.00655067 0.169714 
-0.00655067 9.07959 0.0650798 
0.169714 0.0650798 10.321 
9.21172 -0.0191563 0.222642 
-0.0191563 9.19025 0.0513673 
0.222642 0.0513673 10.4439 
9.23887 -1.00936 2.75336 
-1.00936 8.54817 1.77025 
2.75336 1.77025 9.27345 
8.83756 -0.666685 1.11778 
-0.666685 7.80667 2.16774 
1.11778 2.16774 10.4163 
9.71043 -1.07304 2.12943 
-1.07304 8.02088 1.57571 
2.12943 1.57571 9.32917 
10.3125 -1.33786 2.30752 
-1.33786 8.48579 0.155491 
2.30752 0.155491 8.26223 
9.81986 0.00290101 0.494235 
0.00290101 9.81708 -0.0117682 
0.494235 -0.0117682 9.87414 
9.82726 0.0207886 0.509773 
0.0207886 9.83393 0.00175346 
0.509773 0.00175346 9.84989 
9.8564 0.00618283 0.460713 
0.00618283 9.80981 0.0137297 
0.460713 0.0137297 9.84486 
9.8486 0.0274945 0.496076 
0.0274945 9.85652 -0.00522607 
0.496076 -0.00522607 9.80595 
11.3828 -1.55553 -1.82223 
-1.55553 7.1228 0.870198 
-1.82223 0.870198 12.9422 
10.7711 0.627788 1.36988 
0.627788 7.34158 -0.30138 
1.36988 -0.30138 13.3351 
11.0131 -0.875386 -1.01394 
-0.875386 8.27973 -0.156775 
-1.01394 -0.156775 12.155 
10.1289 0.231544 1.31109 
0.231544 8.32165 0.701739 
1.31109 0.701739 12.9973 
10.8881 -0.0139768 0.0655856 
-0.0139768 10.7796 0.00527784 
0.0655856 0.00527784 11.007 
10.7966 0.165404 0.0408689 
0.165404 10.9097 0.0807923 
0.0408689 0.0807923 10.9684 
11.0288 -0.0371302 0.00775401 
-0.0371302 10.4457 -0.107035 
0.00775401 -0.107035 11.2002 
10.8398 -0.0839701 0.0770554 
-0.0839701 10.7485 0.0517807 
0.0770554 0.0517807 11.0864 
1.01798 1.34959 1.08893 
1.34959 0.734873 -1.7473 
1.08893 -1.7473 7.45682 
6.43766 -0.428241 -0.0830299 
-0.428241 4.51599 -0.268113 
-0.0830299 -0.268113 -1.74397 
4.90497 -1.76615 -2.14309 
-1.76615 7.24209 0.292028 
-2.14309 0.292028 -2.93738 
6.44247 -1.99666 1.48939 
-1.99666 4.35747 -4.59041 
1.48939 -4.59041 -1.59026 
9.47668 0.0550674 -0.502812 
0.0550674 9.5811 -0.060222 
-0.502812 -0.060222 9.66071 
9.46464 0.0631038 -0.469769 
0.0631038 9.61838 -0.0837199 
-0.469769 -0.0837199 9.63547 
9.47631 0.0336955 -0.509313 
0.0336955 9.59188 -0.0593476 
-0.509313 -0.0593476 9.65029 
9.48873 0.0704003 -0.495035 
0.0704003 9.61911 -0.0698496 
-0.495035 -0.0698496 9.61065 
8.13292 0.968176 -1.39686 
0.968176 8.85528 1.06197 
-1.39686 1.06197 8.91332 
8.0701 1.19552 -1.29433 
1.19552 8.50914 1.21286 
-1.29433 1.21286 9.32227 
7.9895 0.934259 -1.82152 
0.934259 8.88621 1.20616 
-1.82152 1.20616 9.0258 
8.66791 1.14792 -1.29113 
1.14792 8.7782 0.650353 
-1.29113 0.650353 8.45541 
9.935 -0.00937185 0.118426 
-0.00937185 9.89718 -0.0558254 
0.118426 -0.0558254 10.0229 
9.94226 -0.0112002 0.13243 
-0.0112002 9.96627 0.000866778 
0.13243 0.000866778 9.94655 
9.95404 0.00805938 0.134814 
0.00805938 9.94095 -0.00440652 
0.134814 -0.00440652 9.96008 
9.96395 -0.0199394 0.130095 
-0.0199394 9.89961 -0.00272382 
0.130095 -0.00272382 9.99152 
-0.775836 -0.548202 -0.867251 
-0.548202 0.726319 2.11172 
-0.867251 2.11172 15.5249 
9.72904 2.15816 1.40829 
2.15816 10.0252 -3.53204 
1.40829 -3.53204 -4.27888 
11.2984 0.211852 -1.63828 
0.211852 12.7707 -2.2792 
-1.63828 -2.2792 -8.59375 
10.1713 -1.60145 -4.49259 
-1.60145 0.0701436 -13.5995 
-4.49259 -13.5995 5.23391 
4.9829 -0.699255 0.667192 
-0.699255 3.50199 0.336077 
0.667192 0.336077 0.0271734 
3.51667 -0.188739 -1.20912 
-0.188739 2.51169 0.220919 
-1.20912 0.220919 2.48371 
5.97487 0.418311 0.393749 
0.418311 3.78108 -0.180537 
0.393749 -0.180537 -1.24389 
4.52051 -0.148846 -1.13285 
-0.148846 2.66579 0.649768 
-1.13285 0.649768 1.32576 
9.92748 0.0148409 -0.520224 
0.0148409 9.95944 -0.259665 
-0.520224 -0.259665 10.0296 
9.9694 0.01734 -0.508078 
0.01734 9.99591 -0.30294 
-0.508078 -0.30294 9.95122 
9.97392 0.0120945 -0.492948 
0.0120945 9.99932 -0.28239 
-0.492948 -0.28239 9.94328 
9.96997 0.0240263 -0.5189 
0.0240263 9.96831 -0.275638 
-0.5189 -0.275638 9.97825 
9.9466 -0.000343511 -0.143545 
-0.000343511 9.84196 0.569968 
-0.143545 0.569968 9.84867 
9.93156 0.0351029 -0.12567 
0.0351029 9.85959 0.630878 
-0.12567 0.630878 9.84608 
9.72962 -0.0209488 -0.115927 
-0.0209488 9.90445 0.520455 
-0.115927 0.520455 10.0032 
9.87733 -0.0139846 -0.0954592 
-0.0139846 9.99975 0.579887 
-0.0954592 0.579887 9.76015 
9.19546 -0.0391185 0.432735 
-0.0391185 9.02409 0.766938 
0.432735 0.766938 9.11346 
9.13014 0.168093 0.38038 
0.168093 9.25005 0.655273 
0.38038 0.655273 8.95282 
9.21229 0.0486393 0.439913 
0.0486393 9.0888 0.749687 
0.439913 0.749687 9.03192 
9.27371 0.06467 0.432845 
0.06467 9.0336 0.813514 
0.432845 0.813514 9.02571 
7.36129 0.491656 0.726868 
0.491656 9.06693 0.46435 
0.726868 0.46435 9.22709 
7.14889 0.365262 0.408004 
0.365262 9.14563 0.426912 
0.408004 0.426912 9.36079 
8.53846 0.456426 1.86815 
0.456426 9.31352 0.424651 
1.86815 0.424651 7.80333 
6.90849 0.883781 0.986792 
0.883781 9.01516 0.298094 
0.986792 0.298094 9.73167 
9.78538 0.27304 0.12089 
0.27304 10.8127 -0.433599 
0.12089 -0.433599 11.2523 
10.663 -0.202535 -0.08538 
-0.202535 10.2141 -0.232395 
-0.08538 -0.232395 10.9733 
10.6435 -0.327191 -0.279589 
-0.327191 10.0184 0.0155952 
-0.279589 0.0155952 11.1885 
10.2901 0.355263 -0.173989 
0.355263 10.6472 0.465275 
-0.173989 0.465275 10.9132 
8.70266 1.04633 -0.0994868 
1.04633 6.49368 1.78322 
-0.0994868 1.78322 8.25315 
7.99006 0.0712679 -0.48137 
0.0712679 6.44701 3.57871 
-0.48137 3.57871 9.01243 
6.48602 -0.0742523 -0.265116 
-0.0742523 7.002 1.00626 
-0.265116 1.00626 9.96148 
9.35465 0.235255 -0.190289 
0.235255 6.99384 1.88367 
-0.190289 1.88367 7.10101 
9.72172 -0.0444002 0.312726 
-0.0444002 10.0358 -0.590361 
0.312726 -0.590361 9.41572 
9.62267 0.0433358 0.38203 
0.0433358 9.54424 -0.524224 
0.38203 -0.524224 10.0063 
9.7097 0.0607508 0.372793 
0.0607508 9.73871 -0.506047 
0.372793 -0.506047 9.72485 
9.72004 0.0632953 0.433883 
0.0632953 9.80549 -0.337607 
0.433883 -0.337607 9.64772 
9.98002 0.152711 0.584284 
0.152711 11.5583 -0.383714 
0.584284 -0.383714 13.0967 
11.5916 0.347758 0.085568 
0.347758 11.6309 0.0288038 
0.085568 0.0288038 11.4126 
11.5144 0.419735 -0.00057201 
0.419735 12.1618 -0.199572 
-0.00057201 -0.199572 10.9587 
11.5639 0.0506484 0.404648 
0.0506484 11.7522 0.495303 
0.404648 0.495303 11.3189 
9.96042 0.0205408 -0.51863 
0.0205408 9.95232 -0.200126 
-0.51863 -0.200126 9.94129 
9.92435 -0.00748463 -0.512017 
-0.00748463 9.90141 -0.242405 
-0.512017 -0.242405 10.0283 
9.96183 0.00693805 -0.539611 
0.00693805 9.97533 -0.194858 
-0.539611 -0.194858 9.91687 
9.96812 0.0154826 -0.532699 
0.0154826 9.90886 -0.221849 
-0.532699 -0.221849 9.97706 
9.56734 0.0424342 -0.528512 
0.0424342 9.60563 0.00608806 
-0.528512 0.00608806 9.75277 
9.58254 0.0193046 -0.47121 
0.0193046 9.61775 -0.0134798 
-0.47121 -0.0134798 9.72545 
9.56619 0.0406145 -0.512373 
0.0406145 9.6228 -0.0399161 
-0.512373 -0.0399161 9.73675 
9.55537 0.0307314 -0.46134 
0.0307314 9.5978 -0.0142884 
-0.46134 -0.0142884 9.77257 
9.92286 0.0771005 0.172909 
0.0771005 9.88158 -0.0858947 
0.172909 -0.0858947 10.0203 
9.14517 -0.171563 0.206848 
-0.171563 10.2799 -0.190702 
0.206848 -0.190702 10.3997 
9.71452 0.0483139 -0.0518626 
0.0483139 9.94461 -0.066721 
-0.0518626 -0.066721 10.1656 
9.75238 -0.0424588 -0.0717154 
-0.0424588 9.88487 -0.0206965 
-0.0717154 -0.0206965 10.1875 
9.67149 0.033841 -0.508064 
0.033841 9.65606 0.00318691 
-0.508064 0.00318691 9.78334 
9.69286 0.0193097 -0.488516 
0.0193097 9.63475 -0.0390908 
-0.488516 -0.0390908 9.78328 
9.66983 0.00690039 -0.458902 
0.00690039 9.64193 -0.0457107 
-0.458902 -0.0457107 9.79913 
9.71587 0.0350141 -0.463214 
0.0350141 9.62545 -0.0549193 
-0.463214 -0.0549193 9.76958 
8.2919 -0.249561 1.31004 
-0.249561 9.75388 0.293679 
1.31004 0.293679 9.06664 
8.0565 -0.561778 1.07519 
-0.561778 9.89411 0.106713 
1.07519 0.106713 9.16182 
8.21277 -0.554842 0.573373 
-0.554842 9.51636 1.11426 
0.573373 1.11426 9.3833 
9.34185 0.428338 0.929262 
0.428338 8.51017 -0.27641 
0.929262 -0.27641 9.26041 
9.69162 0.0713974 -0.137539 
0.0713974 9.84837 -0.716377 
-0.137539 -0.716377 9.58684 
9.73711 -0.0459948 -0.147234 
-0.0459948 9.70784 -0.645622 
-0.147234 -0.645622 9.68187 
9.65372 -0.0274676 -0.143256 
-0.0274676 9.59379 -0.691434 
-0.143256 -0.691434 9.87931 
9.72543 -0.0149647 -0.107586 
-0.0149647 9.75858 -0.573836 
-0.107586 -0.573836 9.64281 
6.56883 0.871367 -3.09421 
0.871367 11.2089 -0.36492 
-3.09421 -0.36492 -3.48132 
-0.0262014 1.22719 3.81736 
1.22719 -0.495181 0.963788 
3.81736 0.963788 14.8178 
12.378 1.15945 -1.45235 
1.15945 12.9935 -0.998853 
-1.45235 -0.998853 -11.0751 
4.47832 -5.36388 -6.57815 
-5.36388 4.97503 -11.7094 
-6.57815 -11.7094 4.84304 
9.22247 0.071188 0.00163982 
0.071188 9.13669 -0.755805 
0.00163982 -0.755805 9.15529 
9.07613 0.102928 -0.00491845 
0.102928 9.35098 -0.773456 
-0.00491845 -0.773456 9.08735 
9.08814 0.0319424 -0.00394984 
0.0319424 9.25339 -0.749052 
-0.00394984 -0.749052 9.17293 
9.15483 0.0249506 -0.00757959 
0.0249506 9.17158 -0.79755 
-0.00757959 -0.79755 9.18805 
9.17713 -1.21457 -0.47495 
-1.21457 8.52853 0.131127 
-0.47495 0.131127 10.3539 
8.79568 0.202905 0.96062 
0.202905 9.1311 -2.56824 
0.96062 -2.56824 10.1328 
9.45108 -0.953641 0.256353 
-0.953641 7.72773 -1.48106 
0.256353 -1.48106 10.8808 
9.57637 -0.336125 -1.43952 
-0.336125 8.76359 -0.375793 
-1.43952 -0.375793 9.71961 
9.39931 0.0972183 -0.368023 
0.0972183 9.51217 0.169455 
-0.368023 0.169455 9.66428 
9.6757 -0.264919 -0.359727 
-0.264919 9.49132 0.177271 
-0.359727 0.177271 9.40874 
9.40834 0.0467033 -0.307744 
0.0467033 9.52246 0.125396 
-0.307744 0.125396 9.64496 
9.31324 -0.0367154 -0.333738 
-0.0367154 9.64532 0.143631 
-0.333738 0.143631 9.61721 
9.70295 -0.0154149 0.0326326 
-0.0154149 9.71904 0.598687 
0.0326326 0.598687 9.7246 
9.76245 0.0289265 0.0933994 
0.0289265 9.70505 0.668179 
0.0933994 0.668179 9.67909 
9.7066 -0.00232083 0.10056 
-0.00232083 9.73391 0.551401 
0.10056 0.551401 9.70609 
9.68538 0.00116204 0.0138153 
0.00116204 9.73539 0.643751 
0.0138153 0.643751 9.72582 
9.11566 -0.0747983 -0.700156 
-0.0747983 9.13228 0.102715 
-0.700156 0.102715 9.97548 
8.79142 0.0270017 -0.455356 
0.0270017 9.19507 0.134069 
-0.455356 0.134069 10.2369 
9.17206 -0.0871676 -0.464985 
-0.0871676 9.34329 0.101187 
-0.464985 0.101187 9.70807 
9.09897 -0.341198 -0.669234 
-0.341198 9.33453 -0.0451323 
-0.669234 -0.0451323 9.78993 
9.97287 -1.09137 0.0487887 
-1.09137 8.55432 0.195438 
0.0487887 0.195438 11.1669 
9.81139 -1.0821 1.45606 
-1.0821 8.53657 0.273197 
1.45606 0.273197 11.3461 
10.1718 0.318217 2.47611 
0.318217 9.28303 0.20723 
2.47611 0.20723 10.2393 
9.86885 -0.741787 -0.17236 
-0.741787 9.23245 0.617041 
-0.17236 0.617041 10.5928 
8.63796 0.188832 1.04511 
0.188832 8.3575 -0.614852 
1.04511 -0.614852 6.96332 
8.76801 0.332795 0.597755 
0.332795 8.18556 -0.904632 
0.597755 -0.904632 7.00521 
8.63887 0.275257 0.656039 
0.275257 8.41986 -1.05564 
0.656039 -1.05564 6.90005 
8.94084 0.296488 0.843834 
0.296488 8.38032 -1.1821 
0.843834 -1.1821 6.63762 
8.34878 0.869447 -0.88192 
0.869447 8.07662 1.21818 
-0.88192 1.21818 8.02938 
9.01944 0.0153493 -1.24529 
0.0153493 7.96503 1.44441 
-1.24529 1.44441 7.47031 
7.82546 0.162032 0.736456 
0.162032 8.99547 1.4721 
0.736456 1.4721 7.63384 
8.5896 0.213234 -0.0188298 
0.213234 7.7739 1.07281 
-0.0188298 1.07281 8.09127 
9.90052 0.0171869 0.00977348 
0.0171869 9.85371 -0.654357 
0.00977348 -0.654357 9.85821 
9.82055 0.00458642 0.0089333 
0.00458642 9.8992 -0.573829 
0.0089333 -0.573829 9.89268 
9.89936 -0.00204467 0.00160679 
-0.00204467 9.87066 -0.601682 
0.00160679 -0.601682 9.84242 
9.80689 -0.046273 -0.00388993 
-0.046273 10.0627 -0.671814 
-0.00388993 -0.671814 9.7428 
8.0365 -0.658843 5.03384 
-0.658843 7.82381 1.77793 
5.03384 1.77793 10.2517 
10.8316 -1.47319 2.21613 
-1.47319 7.69817 0.51981 
2.21613 0.51981 7.58231 
6.70724 -1.74833 5.91073 
-1.74833 10.3461 2.29271 
5.91073 2.29271 9.05865 
4.92976 0.47325 1.10785 
0.47325 11.2911 -0.136847 
1.10785 -0.136847 9.89115 
9.85648 -0.0130901 0.00169136 
-0.0130901 9.8624 0.0104873 
0.00169136 0.0104873 9.84728 
9.84617 -0.025994 0.00423434 
-0.025994 9.84666 0.0144105 
0.00423434 0.0144105 9.87332 
9.85266 0.00518026 0.038244 
0.00518026 9.87961 0.0233917 
0.038244 0.0233917 9.83389 
9.84754 0.0204539 -0.0192942 
0.0204539 9.86066 -0.0175849 
-0.0192942 -0.0175849 9.85795 
9.38138 0.148798 0.378711 
0.148798 9.45087 0.0617352 
0.378711 0.0617352 9.53236 
9.36338 0.173969 0.382513 
0.173969 9.42779 -0.0357261 
0.382513 -0.0357261 9.57343 
9.48085 0.253093 0.445538 
0.253093 9.35217 -0.0865946 
0.445538 -0.0865946 9.53159 
9.45706 0.195213 0.383705 
0.195213 9.43666 -0.0826718 
0.383705 -0.0826718 9.47089 
10.1122 -0.0596951 0.0621928 
-0.0596951 10.0031 -0.0357563 
0.0621928 -0.0357563 9.79589 
9.94402 -0.0261922 0.00246522 
-0.0261922 9.77917 -0.219342 
0.00246522 -0.219342 10.188 
9.9123 0.0264106 0.0443204 
0.0264106 9.96682 -0.0741664 
0.0443204 -0.0741664 10.032 
10.0794 -0.0401574 -0.0278962 
-0.0401574 9.77218 -0.0322313 
-0.0278962 -0.0322313 10.0596 
9.89475 -0.00414676 0.000421467 
-0.00414676 9.89808 0.0107993 
0.000421467 0.0107993 9.89516 
9.89621 -0.0237958 -0.00952788 
-0.0237958 9.88362 -0.00159884 
-0.00952788 -0.00159884 9.90815 
9.89575 -0.00659523 -0.0228162 
-0.00659523 9.88045 0.00479452 
-0.0228162 0.00479452 9.91179 
9.91055 -0.0138896 -0.00185451 
-0.0138896 9.90914 0.0225972 
-0.00185451 0.0225972 9.86829 
3.16783 1.21995 -0.107737 
1.21995 3.80743 -1.32377 
-0.107737 -1.32377 -1.66914 
1.79467 0.25414 -0.248696 
0.25414 0.301364 1.03761 
-0.248696 1.03761 3.21009 
2.68033 -0.279267 -0.522936 
-0.279267 4.19053 -2.16979 
-0.522936 -2.16979 -1.56473 
2.14715 0.521694 -0.909274 
0.521694 4.37753 0.309727 
-0.909274 0.309727 -1.21855 
9.62735 -0.0694343 -0.253871 
-0.0694343 9.62168 -0.640986 
-0.253871 -0.640986 9.56009 
9.58223 -0.039809 -0.300874 
-0.039809 9.4869 -0.694765 
-0.300874 -0.694765 9.73999 
9.58294 0.170199 -0.24272 
0.170199 9.85748 -0.71638 
-0.24272 -0.71638 9.3687 
9.63092 -0.0495219 -0.204812 
-0.0495219 9.66159 -0.516543 
-0.204812 -0.516543 9.51662 
9.91842 -0.00844701 0.29664 
-0.00844701 9.87136 0.00154854 
0.29664 0.00154854 10.0029 
9.93573 -0.0048782 0.282985 
-0.0048782 9.87186 -0.016841 
0.282985 -0.016841 9.98507 
9.93492 -0.0288896 0.290188 
-0.0288896 9.85803 -0.0356309 
0.290188 -0.0356309 9.99971 
9.94567 -0.0189803 0.290207 
-0.0189803 9.86021 -0.0390527 
0.290207 -0.0390527 9.98678 
8.98169 0.193166 -0.494893 
0.193166 9.12776 0.501276 
-0.494893 0.501276 9.53871 
8.85986 0.000849913 -0.345562 
0.000849913 9.53451 0.32099 
-0.345562 0.32099 9.25379 
8.81 -0.0875416 -0.326972 
-0.0875416 9.81388 0.314714 
-0.326972 0.314714 9.02429 
8.8959 0.0595313 -0.428146 
0.0595313 9.31596 0.0755573 
-0.428146 0.0755573 9.43631 
9.9131 0.0173666 0.00852459 
0.0173666 9.84399 0.596934 
0.00852459 0.596934 9.81501 
9.72065 -0.00947479 0.0273324 
-0.00947479 9.89952 0.520924 
0.0273324 0.520924 9.95193 
9.89238 0.00293868 -0.00508816 
0.00293868 9.84304 0.642593 
-0.00508816 0.642593 9.83669 
9.8017 0.00815894 -0.0799991 
0.00815894 10.068 0.655309 
-0.0799991 0.655309 9.70244 
9.86414 -0.00379705 -0.0888394 
-0.00379705 9.88999 0.410224 
-0.0888394 0.410224 10.1382 
9.95958 3.64917e-05 -0.098922 
3.64917e-05 10.0193 0.413239 
-0.098922 0.413239 9.91346 
9.95566 0.0237491 -0.104507 
0.0237491 10.0116 0.418234 
-0.104507 0.418234 9.92513 
9.99722 -0.00184465 -0.0977045 
-0.00184465 10.0157 0.467499 
-0.0977045 0.467499 9.87947 
9.7057 -0.0412664 -0.352657 
-0.0412664 9.6486 0.206093 
-0.352657 0.206093 9.43985 
9.67825 -0.0076799 -0.312531 
-0.0076799 9.71948 0.241182 
-0.312531 0.241182 9.39643 
9.57952 -0.0519529 -0.195699 
-0.0519529 9.63551 0.262172 
-0.195699 0.262172 9.57913 
9.74576 -0.00195601 -0.158495 
-0.00195601 9.74911 0.142949 
-0.158495 0.142949 9.29928 
9.5714 -0.0171785 0.39876 
-0.0171785 9.74291 -0.510302 
0.39876 -0.510302 9.56684 
9.57644 0.132296 0.42244 
0.132296 9.59126 -0.499361 
0.42244 -0.499361 9.71345 
9.62521 0.0317384 0.439175 
0.0317384 9.73466 -0.500504 
0.439175 -0.500504 9.52128 
9.58666 -0.0340732 0.391713 
-0.0340732 9.73317 -0.484723 
0.391713 -0.484723 9.56132 
11.063 0.164571 0.348779 
0.164571 11.5861 -0.202405 
0.348779 -0.202405 12.3677 
10.9266 0.687695 0.306691 
0.687695 11.8127 -0.0378947 
0.306691 -0.0378947 12.2776 
10.7814 0.861804 0.382185 
0.861804 10.441 -0.675356 
0.382185 -0.675356 13.7944 
11.2866 0.620773 0.166257 
0.620773 11.6245 0.193653 
0.166257 0.193653 12.1057 
9.48931 -0.0425712 -0.0931003 
-0.0425712 9.37882 -0.225016 
-0.0931003 -0.225016 9.00045 
9.43954 -0.0260241 -0.0791438 
-0.0260241 9.41781 0.0220163 
-0.0791438 0.0220163 9.01122 
9.4287 0.028562 -0.0273438 
0.028562 9.408 -0.0799636 
-0.0273438 -0.0799636 9.03188 
9.42375 0.0502288 -0.137165 
0.0502288 9.40305 -0.138299 
-0.137165 -0.138299 9.04178 
6.91379 -2.57439 -1.52012 
-2.57439 7.60474 -1.8613 
-1.52012 -1.8613 5.20881 
9.68556 1.19245 -1.83051 
1.19245 7.43778 -1.82823 
-1.83051 -1.82823 2.60401 
8.14239 0.240582 -2.32894 
0.240582 6.78939 -3.35581 
-2.32894 -3.35581 4.79557 
8.02361 1.70195 -1.08471 
1.70195 6.50661 -4.48714 
-1.08471 -4.48714 5.19713 
9.68271 -0.232885 -0.164144 
-0.232885 8.80463 0.31675 
-0.164144 0.31675 10.7466 
9.59197 -0.288162 0.101279 
-0.288162 8.87665 -0.0518796 
0.101279 -0.0518796 10.7654 
9.65036 -0.222375 0.0908193 
-0.222375 8.69735 0.0888718 
0.0908193 0.0888718 10.8863 
9.67694 -0.108671 0.0733829 
-0.108671 8.54912 0.00247519 
0.0733829 0.00247519 11.0079 
8.56086 0.616742 0.537901 
0.616742 11.0282 -0.903707 
0.537901 -0.903707 19.3539 
12.3615 -0.183218 0.2386 
-0.183218 15.8873 -1.11143 
0.2386 -1.11143 10.6941 
10.249 -0.18842 -0.403702 
-0.18842 13.4196 -0.5511 
-0.403702 -0.5511 15.2744 
10.13 -0.218167 -2.74413 
-0.218167 14.7952 2.02816 
-2.74413 2.02816 14.0178 
9.85637 -0.0345395 0.276182 
-0.0345395 9.83327 -0.0254271 
0.276182 -0.0254271 10.0513 
9.90851 -0.00542755 0.284129 
-0.00542755 9.87808 -0.066532 
0.284129 -0.066532 9.95438 
9.91637 0.0175697 0.276544 
0.0175697 9.89162 -0.0574077 
0.276544 -0.0574077 9.93297 
9.95204 -0.00495919 0.268939 
-0.00495919 9.86863 -0.0916647 
0.268939 -0.0916647 9.92029 
9.69541 0.0407916 -0.506708 
0.0407916 9.63396 -0.0480095 
-0.506708 -0.0480095 9.70054 
9.57356 0.00774992 -0.456887 
0.00774992 9.73805 0.00342251 
-0.456887 0.00342251 9.71831 
9.65643 0.0193655 -0.49635 
0.0193655 9.6543 -0.023096 
-0.49635 -0.023096 9.71918 
9.65228 -0.000448527 -0.513197 
-0.000448527 9.63038 -0.00731881 
-0.513197 -0.00731881 9.74727 
9.58786 0.245433 0.00904856 
0.245433 9.44906 0.11849 
0.00904856 0.11849 9.89168 
9.55959 0.185557 -0.119139 
0.185557 9.53816 0.259126 
-0.119139 0.259126 9.83085 
9.78029 0.107524 0.263116 
0.107524 9.48735 0.0122428 
0.263116 0.0122428 9.66095 
9.56677 0.334749 0.0139439 
0.334749 9.34066 0.0747676 
0.0139439 0.0747676 10.0212 
9.4705 -0.159805 0.367758 
-0.159805 9.63308 0.00600961 
0.367758 0.00600961 9.77069 
9.50313 -0.175974 0.35252 
-0.175974 9.51908 0.0164389 
0.35252 0.0164389 9.85206 
9.54973 -0.127675 0.324367 
-0.127675 9.486 0.0292052 
0.324367 0.0292052 9.83855 
9.57059 -0.0589833 0.318775 
-0.0589833 9.5534 0.0937054 
0.318775 0.0937054 9.75028 
8.86465 1.16625 0.198422 
1.16625 10.2695 -0.268586 
0.198422 -0.268586 10.6584 
10.5712 0.763546 1.38201 
0.763546 7.25564 -0.253421 
1.38201 -0.253421 11.9657 
9.60927 0.484525 0.473548 
0.484525 9.08641 -1.42996 
0.473548 -1.42996 11.0969 
10.9802 0.581064 1.21197 
0.581064 8.20669 -0.506748 
1.21197 -0.506748 10.6057 
9.34326 -0.013537 -0.37652 
-0.013537 9.58898 0.333623 
-0.37652 0.333623 9.51378 
9.31004 0.0119199 -0.379376 
0.0119199 9.59761 0.307704 
-0.379376 0.307704 9.53837 
9.29317 0.0213268 -0.360567 
0.0213268 9.57494 0.320509 
-0.360567 0.320509 9.57791 
9.29165 0.0126624 -0.370378 
0.0126624 9.61371 0.315376 
-0.370378 0.315376 9.54065 
2.42523 0.59932 -0.35738 
0.59932 1.95922 0.73341 
-0.35738 0.73341 2.37935 
3.57185 -0.768875 -0.710051 
-0.768875 3.14231 0.0305216 
-0.710051 0.0305216 0.0496306 
2.86424 -0.0913162 0.10721 
-0.0913162 2.48156 0.238176 
0.10721 0.238176 1.41799 
2.43864 -0.0213364 0.280098 
-0.0213364 2.50404 1.4484 
0.280098 1.4484 1.82112 
3.1987 -0.782398 1.1312 
-0.782398 3.97025 0.851144 
1.1312 0.851144 3.10349 
6.40569 -1.05877 0.647611 
-1.05877 5.98095 0.212274 
0.647611 0.212274 -2.1142 
4.17215 -0.223675 1.86341 
-0.223675 4.27331 0.464909 
1.86341 0.464909 1.82699 
4.16427 -0.193726 3.34332 
-0.193726 3.04711 1.95362 
3.34332 1.95362 3.06106 
9.32457 -0.115595 -0.805033 
-0.115595 9.53492 0.199399 
-0.805033 0.199399 9.62787 
9.00854 -0.0493719 -0.847585 
-0.0493719 9.88529 0.206795 
-0.847585 0.206795 9.59353 
9.33303 -0.312245 -0.833915 
-0.312245 9.65923 0.0999314 
-0.833915 0.0999314 9.4951 
9.45891 0.0965333 -0.745806 
0.0965333 9.25169 0.156676 
-0.745806 0.156676 9.77676 
9.91392 -0.0133234 0.0932757 
-0.0133234 9.90835 0.000856429 
0.0932757 0.000856429 9.96712 
9.87624 -0.000880094 0.100826 
-0.000880094 9.89149 0.0234654 
0.100826 0.0234654 10.0217 
9.92084 -0.00348223 0.103317 
-0.00348223 9.89793 0.00396327 
0.103317 0.00396327 9.97062 
9.94039 0.00360753 0.0959314 
0.00360753 9.90419 -0.0105529 
0.0959314 -0.0105529 9.9448 
8.87228 -0.118343 1.06329 
-0.118343 9.37425 -0.196212 
1.06329 -0.196212 8.9826 
8.91349 -0.0215648 0.564943 
-0.0215648 9.25134 -0.210769 
0.564943 -0.210769 9.06429 
8.77314 0.172203 0.484457 
0.172203 9.12108 -0.778212 
0.484457 -0.778212 9.33491 
8.81047 -0.0858667 0.540153 
-0.0858667 9.29908 -0.24856 
0.540153 -0.24856 9.11958 
10.1699 -0.297946 0.438093 
-0.297946 8.612 0.803089 
0.438093 0.803089 7.91945 
9.89115 -0.14501 0.770167 
-0.14501 8.95945 0.356495 
0.770167 0.356495 7.85077 
9.25167 -0.827905 1.83787 
-0.827905 9.47227 0.355039 
1.83787 0.355039 7.97743 
9.11458 -0.0896553 1.0266 
-0.0896553 8.71048 0.115342 
1.0266 0.115342 8.87631 
9.29964 0.0941191 -0.522487 
0.0941191 9.54092 -0.337297 
-0.522487 -0.337297 9.3708 
9.12593 -0.153298 -0.635561 
-0.153298 9.5513 -0.398663 
-0.635561 -0.398663 9.53413 
9.34241 0.203578 -0.551037 
0.203578 9.64055 -0.383594 
-0.551037 -0.383594 9.2284 
9.14239 0.045802 -0.467791 
0.045802 9.58877 -0.217036 
-0.467791 -0.217036 9.4802 
9.46657 0.0258964 -0.458074 
0.0258964 9.46772 0.154184 
-0.458074 0.154184 9.81085 
9.42443 0.0224916 -0.550563 
0.0224916 9.52621 0.123174 
-0.550563 0.123174 9.7945 
9.39935 0.025094 -0.497436 
0.025094 9.4599 0.135992 
-0.497436 0.135992 9.88588 
9.40542 0.0263391 -0.500249 
0.0263391 9.52831 0.112113 
-0.500249 0.112113 9.81141 
9.93099 0.0245737 -0.343746 
0.0245737 9.86511 -0.388147 
-0.343746 -0.388147 10.078 
9.9614 -0.0136559 -0.318237 
-0.0136559 9.92541 -0.363205 
-0.318237 -0.363205 9.98729 
9.97962 -0.0164633 -0.340209 
-0.0164633 9.99659 -0.323412 
-0.340209 -0.323412 9.89789 
9.95482 -0.0143373 -0.317604 
-0.0143373 10.0274 -0.3638 
-0.317604 -0.3638 9.89186 
8.23064 -0.060319 0.0733197 
-0.060319 8.48359 1.10949 
0.0733197 1.10949 8.02528 
8.57487 -0.156342 -0.163069 
-0.156342 7.80429 1.43686 
-0.163069 1.43686 8.36035 
8.69168 -0.280353 -0.00926765 
-0.280353 7.36623 1.40482 
-0.00926765 1.40482 8.6816 
8.4653 -0.187809 0.246855 
-0.187809 8.22705 1.64498 
0.246855 1.64498 8.04716 
7.61758 0.699549 1.20178 
0.699549 9.92292 -1.94012 
1.20178 -1.94012 11.4857 
9.58847 1.48553 0.638618 
1.48553 8.72369 0.47594 
0.638618 0.47594 10.714 
9.14296 0.274202 1.96973 
0.274202 9.13578 0.144897 
1.96973 0.144897 10.7474 
8.31615 0.110137 0.583364 
0.110137 10.2553 -0.917654 
0.583364 -0.917654 10.4547 
9.88773 -0.037141 -0.358213 
-0.037141 9.848 -0.321718 
-0.358213 -0.321718 9.85978 
9.90728 -0.020183 -0.341189 
-0.020183 9.90187 -0.328451 
-0.341189 -0.328451 9.78636 
9.87861 0.0288118 -0.375932 
0.0288118 9.89874 -0.331466 
-0.375932 -0.331466 9.81815 
9.88559 0.0111453 -0.385904 
0.0111453 9.91749 -0.332469 
-0.385904 -0.332469 9.79242 
10.3405 0.0901208 0.0742576 
0.0901208 10.2231 -0.0449282 
0.0742576 -0.0449282 10.2799 
10.1877 0.181993 0.121452 
0.181993 10.5462 0.153055 
0.121452 0.153055 10.1098 
10.2852 0.092201 0.0439199 
0.092201 10.4079 0.0936149 
0.0439199 0.0936149 10.1505 
9.92605 -0.107167 -0.167349 
-0.107167 10.3194 0.0518559 
-0.167349 0.0518559 10.5981 
9.23286 -0.00496692 -0.238094 
-0.00496692 8.74682 -0.979111 
-0.238094 -0.979111 9.07502 
9.25503 0.10535 -0.150096 
0.10535 8.94795 -0.820444 
-0.150096 -0.820444 8.85172 
8.99148 0.185506 -0.24202 
0.185506 9.61995 -1.0241 
-0.24202 -1.0241 8.44327 
9.21178 -0.00458106 -0.0592952 
-0.00458106 9.07631 -0.632277 
-0.0592952 -0.632277 8.76662 
9.91482 -0.00100062 0.186007 
-0.00100062 9.90219 -0.0144409 
0.186007 -0.0144409 9.97346 
9.90281 -0.0190421 0.170649 
-0.0190421 9.8955 -0.0275344 
0.170649 -0.0275344 9.99216 
9.92763 -0.0084102 0.17887 
-0.0084102 9.8849 -0.00487126 
0.17887 -0.00487126 9.97794 
9.92532 -0.00914062 0.191275 
-0.00914062 9.90483 -0.0141435 
0.191275 -0.0141435 9.96032 
9.87454 -0.000245301 0.390952 
-0.000245301 9.82901 -0.109436 
0.390952 -0.109436 9.93841 
9.88175 -0.0055315 0.39177 
-0.0055315 9.83677 -0.115075 
0.39177 -0.115075 9.92343 
9.86861 -0.000643933 0.398801 
-0.000643933 9.8393 -0.098646 
0.398801 -0.098646 9.93405 
9.86806 0.00247919 0.400287 
0.00247919 9.84629 -0.10948 
0.400287 -0.10948 9.92761 
8.28523 0.157699 -3.4156 
0.157699 8.26182 -1.40715 
-3.4156 -1.40715 6.09987 
7.96111 -1.00664 -1.9943 
-1.00664 7.93547 -1.95737 
-1.9943 -1.95737 6.75034 
9.25183 -1.4559 -4.7672 
-1.4559 9.13232 -2.20719 
-4.7672 -2.20719 4.26277 
8.08948 0.101242 -2.62208 
0.101242 8.65695 -1.04299 
-2.62208 -1.04299 5.90049 
9.09758 -2.19475 1.95158 
-2.19475 5.34911 3.88686 
1.95158 3.88686 9.41793 
8.32026 -0.493897 1.70924 
-0.493897 5.59114 3.25236 
1.70924 3.25236 9.95322 
9.42229 -1.74112 0.333423 
-1.74112 4.72706 0.726593 
0.333423 0.726593 9.71527 
7.05621 1.25871 0.777865 
1.25871 9.72222 3.26237 
0.777865 3.26237 7.08619 
9.91492 -0.0160685 -0.0579511 
-0.0160685 9.90958 0.0320686 
-0.0579511 0.0320686 10.0215 
9.89809 -0.00274427 -0.050129 
-0.00274427 9.94681 0.00497262 
-0.050129 0.00497262 10.0011 
9.9648 -0.00820075 -0.0465697 
-0.00820075 9.938 0.0213381 
-0.0465697 0.0213381 9.94315 
9.97659 0.00648204 -0.0626405 
0.00648204 9.93393 0.0134297 
-0.0626405 0.0134297 9.93544 
9.43264 0.188272 0.101025 
0.188272 9.38517 0.0927257 
0.101025 0.0927257 8.44671 
9.38403 -0.119678 -0.0840015 
-0.119678 9.1487 0.0194785 
-0.0840015 0.0194785 8.73179 
9.28289 -0.0966124 -0.104363 
-0.0966124 9.35448 -0.0526906 
-0.104363 -0.0526906 8.62715 
9.19882 0.03742 0.184123 
0.03742 9.14927 -0.0830564 
0.184123 -0.0830564 8.91642 
9.91891 -0.00755675 -0.04078 
-0.00755675 9.90208 0.0117031 
-0.04078 0.0117031 9.98169 
9.91201 -0.00492011 -0.018719 
-0.00492011 9.88544 0.038688 
-0.018719 0.038688 10.0052 
9.92689 -0.0104132 -0.0171147 
-0.0104132 9.92121 0.0154067 
-0.0171147 0.0154067 9.95458 
9.94421 -0.0150892 -0.0165029 
-0.0150892 9.92503 0.0126229 
-0.0165029 0.0126229 9.93344 
9.56365 0.00288623 -0.0405808 
0.00288623 9.69417 -0.742742 
-0.0405808 -0.742742 9.54921 
9.61238 0.00779008 0.0100783 
0.00779008 9.58986 -0.684921 
0.0100783 -0.684921 9.60479 
9.63349 0.0295316 -0.0134463 
0.0295316 9.46767 -0.681025 
-0.0134463 -0.681025 9.70586 
9.59296 0.0203733 -0.0578842 
0.0203733 9.65684 -0.679247 
-0.0578842 -0.679247 9.55723 
9.96755 -0.00155934 -0.253791 
-0.00155934 9.93774 -0.0503387 
-0.253791 -0.0503387 9.97949 
9.96738 -0.0053748 -0.269384 
-0.0053748 9.93669 -0.066188 
-0.269384 -0.066188 9.98071 
9.96427 -0.00373928 -0.276902 
-0.00373928 9.93557 -0.0437071 
-0.276902 -0.0437071 9.98495 
9.98817 -0.00454088 -0.264832 
-0.00454088 9.95117 -0.0439406 
-0.264832 -0.0439406 9.94544 
9.52241 -0.0170876 0.151005 
-0.0170876 9.65055 -0.042419 
0.151005 -0.042419 9.83097 
9.81311 -0.0934742 0.0260445 
-0.0934742 9.50735 -0.0260786 
0.0260445 -0.0260786 9.68347 
9.59829 -0.0580319 0.0813613 
-0.0580319 9.66243 -0.070646 
0.0813613 -0.070646 9.74322 
9.52806 -0.1418 0.115744 
-0.1418 9.64913 0.018832 
0.115744 0.018832 9.82674 
9.87917 -0.00244311 0.451213 
-0.00244311 9.90278 0.258826 
0.451213 0.258826 9.94504 
9.88718 0.014584 0.486223 
0.014584 9.941 0.247536 
0.486223 0.247536 9.8988 
9.89461 0.0140213 0.526223 
0.0140213 9.95545 0.274553 
0.526223 0.274553 9.87693 
10.0105 0.045682 0.482961 
0.045682 9.90039 0.243519 
0.482961 0.243519 9.81609 
9.84182 -0.0500838 -0.259887 
-0.0500838 9.65186 0.114104 
-0.259887 0.114104 9.75252 
9.83598 -0.0616831 -0.327903 
-0.0616831 9.68112 0.0866493 
-0.327903 0.0866493 9.72911 
9.79074 -0.0178696 -0.234658 
-0.0178696 9.63761 0.188931 
-0.234658 0.188931 9.81785 
9.85611 -0.0234265 -0.253167 
-0.0234265 9.66409 0.0646532 
-0.253167 0.0646532 9.726 
9.83964 -0.00550143 0.507354 
-0.00550143 9.85164 0.325826 
0.507354 0.325826 9.77102 
9.847 0.0181926 0.502214 
0.0181926 9.83026 0.320973 
0.502214 0.320973 9.78504 
9.79582 0.0179906 0.490221 
0.0179906 9.84059 0.280098 
0.490221 0.280098 9.82589 
9.85882 0.0191847 0.501536 
0.0191847 9.89356 0.360654 
0.501536 0.360654 9.70993 
9.11544 -0.0536044 0.158699 
-0.0536044 9.72685 -0.0420469 
0.158699 -0.0420469 9.64167 
9.01436 -0.0738685 0.0515766 
-0.0738685 9.71731 -0.316407 
0.0515766 -0.316407 9.75229 
9.00338 -0.120362 0.143935 
-0.120362 9.59895 -0.0204343 
0.143935 -0.0204343 9.88163 
9.10874 -0.119565 0.0695151 
-0.119565 9.64661 -0.0945134 
0.0695151 -0.0945134 9.72861 
10.0082 -0.0156115 0.291234 
-0.0156115 9.99582 0.388268 
0.291234 0.388268 9.90082 
9.86381 0.0126259 0.301364 
0.0126259 9.8754 0.343023 
0.301364 0.343023 10.1656 
10.0097 0.00969674 0.288945 
0.00969674 9.99091 0.362863 
0.288945 0.362863 9.90427 
9.99653 0.00110342 0.354673 
0.00110342 10.0229 0.355181 
0.354673 0.355181 9.88541 
9.99039 -0.0172908 -0.185664 
-0.0172908 9.98058 0.0830789 
-0.185664 0.0830789 9.93225 
9.97036 -0.0102701 -0.191875 
-0.0102701 9.93209 0.0960875 
-0.191875 0.0960875 10.0008 
9.98582 0.00167715 -0.171278 
0.00167715 9.91669 0.119794 
-0.171278 0.119794 10.0007 
10.0041 -0.0253995 -0.16809 
-0.0253995 9.94006 0.0755964 
-0.16809 0.0755964 9.95902 
9.93963 0.00958169 0.00845947 
0.00958169 9.97605 -0.63503 
0.00845947 -0.63503 9.92571 
9.95983 0.0120326 0.00083773 
0.0120326 9.97255 -0.663955 
0.00083773 -0.663955 9.909 
9.87489 -0.00211513 0.00495518 
-0.00211513 9.88482 -0.642765 
0.00495518 -0.642765 10.0817 
9.92888 -0.00367588 0.00715496 
-0.00367588 9.96524 -0.646575 
0.00715496 -0.646575 9.94726 
9.00749 -0.2681 0.416181 
-0.2681 9.35437 -0.347957 
0.416181 -0.347957 9.20174 
9.20978 -0.281726 0.494573 
-0.281726 9.37798 -0.273549 
0.494573 -0.273549 8.97584 
8.57491 0.171569 0.240846 
0.171569 9.52459 0.0228914 
0.240846 0.0228914 9.4641 
8.71103 0.0355584 0.674092 
0.0355584 9.16065 -0.137933 
0.674092 -0.137933 9.69191 
9.8758 -0.00271514 -0.000984422 
-0.00271514 9.87871 0.634783 
-0.000984422 0.634783 10.0852 
9.92965 -0.0277632 0.00291105 
-0.0277632 9.97107 0.629019 
0.00291105 0.629019 9.93901 
9.9373 -0.00143471 -0.0024544 
-0.00143471 9.96891 0.631539 
-0.0024544 0.631539 9.93353 
9.96523 -0.00176475 -0.00764931 
-0.00176475 9.96847 0.659586 
-0.00764931 0.659586 9.90604 
9.69452 0.0108959 -0.492227 
0.0108959 9.6805 0.0486229 
-0.492227 0.0486229 9.73079 
9.69341 0.0187823 -0.486825 
0.0187823 9.66126 0.0317507 
-0.486825 0.0317507 9.75114 
9.63927 0.0203316 -0.465509 
0.0203316 9.72376 0.0303009 
-0.465509 0.0303009 9.74278 
9.6738 0.030039 -0.496201 
0.030039 9.67687 0.0341 
-0.496201 0.0341 9.75514 
9.7283 -0.0212632 -0.339607 
-0.0212632 9.42253 0.04422 
-0.339607 0.04422 9.52007 
9.32631 0.0264397 -0.408573 
0.0264397 9.61671 0.0570516 
-0.408573 0.0570516 9.72788 
9.37739 0.0314422 -0.313512 
0.0314422 9.62358 0.0341666 
-0.313512 0.0341666 9.66993 
9.50826 0.151534 -0.32705 
0.151534 9.4946 0.0740705 
-0.32705 0.0740705 9.66803 
9.30144 0.0663955 -0.292525 
0.0663955 9.54595 0.185493 
-0.292525 0.185493 9.72385 
9.4403 -0.138628 -0.343676 
-0.138628 9.55154 0.153445 
-0.343676 0.153445 9.57939 
9.38307 0.026761 -0.315105 
0.026761 9.57113 0.235329 
-0.315105 0.235329 9.61704 
9.46243 -0.0211311 -0.33296 
-0.0211311 9.44199 0.213337 
-0.33296 0.213337 9.66682 
9.04965 0.0562537 0.19584 
0.0562537 9.29165 0.164028 
0.19584 0.164028 8.69186 
9.14923 -0.103949 0.0908409 
-0.103949 9.53045 0.110106 
0.0908409 0.110106 8.35349 
9.1171 0.0502234 0.137219 
0.0502234 9.36359 0.0276854 
0.137219 0.0276854 8.55247 
9.20207 0.0179184 0.248111 
0.0179184 9.60026 0.157871 
0.248111 0.157871 8.23084 
9.70046 1.31963 0.599326 
1.31963 5.61864 -2.76943 
0.599326 -2.76943 5.359 
5.93827 -1.25267 0.511495 
-1.25267 7.81046 -3.56026 
0.511495 -3.56026 6.92937 
8.94012 0.531724 0.622981 
0.531724 7.48434 -3.19223 
0.622981 -3.19223 4.25364 
8.74548 0.62615 0.904526 
0.62615 7.05369 -3.20866 
0.904526 -3.20866 4.87893 
9.82508 -0.168427 -0.115548 
-0.168427 9.72718 0.0421246 
-0.115548 0.0421246 9.71857 
9.60466 0.0185094 -0.00153696 
0.0185094 9.95073 -0.067095 
-0.00153696 -0.067095 9.71543 
9.73527 -0.0326229 -0.0398274 
-0.0326229 9.8361 0.0581445 
-0.0398274 0.0581445 9.69945 
9.6246 -0.00195419 -0.12018 
-0.00195419 9.89346 -0.0185659 
-0.12018 -0.0185659 9.75276 
9.92214 0.00708548 0.488612 
0.00708548 9.91331 -0.0157326 
0.488612 -0.0157326 10.0305 
9.95858 -0.00198446 0.486637 
-0.00198446 9.96268 -0.0169177 
0.486637 -0.0169177 9.94474 
9.97438 0.00214523 0.494577 
0.00214523 9.91617 -0.0182981 
0.494577 -0.0182981 9.97545 
9.96674 0.0112549 0.501112 
0.0112549 9.95904 -0.00642642 
0.501112 -0.00642642 9.94022 
9.85309 0.106219 0.604892 
0.106219 9.77121 0.262506 
0.604892 0.262506 9.55898 
9.68689 0.0415548 0.554175 
0.0415548 9.81048 0.180734 
0.554175 0.180734 9.68592 
9.55373 0.00726845 0.59422 
0.00726845 9.75924 0.273849 
0.59422 0.273849 9.87031 
9.70822 0.0745935 0.453442 
0.0745935 9.78495 0.174585 
0.453442 0.174585 9.6901 
9.24456 -0.0735188 -0.578888 
-0.0735188 9.5174 -0.501076 
-0.578888 -0.501076 9.39978 
9.22988 -0.0399604 -0.607627 
-0.0399604 9.59024 -0.45152 
-0.607627 -0.45152 9.34163 
9.27172 0.285988 -0.530267 
0.285988 9.63395 -0.349822 
-0.530267 -0.349822 9.25607 
9.17342 -0.0328968 -0.704043 
-0.0328968 9.70872 -0.511963 
-0.704043 -0.511963 9.2796 
9.89411 0.00408166 -0.345015 
0.00408166 9.94043 0.158263 
-0.345015 0.158263 10.0177 
9.94302 -0.00458317 -0.351404 
-0.00458317 9.9436 0.140321 
-0.351404 0.140321 9.96563 
9.94991 0.000266017 -0.360355 
0.000266017 9.939 0.134542 
-0.360355 0.134542 9.96334 
9.9528 -0.0046351 -0.360696 
-0.0046351 9.94627 0.124796 
-0.360696 0.124796 9.95318 
9.08243 0.541038 -0.808567 
0.541038 9.68224 -1.57433 
-0.808567 -1.57433 7.87072 
8.67312 -0.652832 -0.635003 
-0.652832 8.32538 -0.712756 
-0.635003 -0.712756 9.63689 
9.34492 -0.334733 -0.446094 
-0.334733 8.46316 -0.719535 
-0.446094 -0.719535 8.82731 
9.01912 -0.0321614 -0.0203162 
-0.0321614 9.69022 -0.904191 
-0.0203162 -0.904191 7.92605 
8.80934 -0.112438 0.595383 
-0.112438 8.67393 0.702431 
0.595383 0.702431 9.23315 
9.13172 -0.160391 0.419398 
-0.160391 8.64168 0.710081 
0.419398 0.710081 8.94303 
9.19332 0.457535 0.621467 
0.457535 9.11876 0.960043 
0.621467 0.960043 8.40435 
8.96593 0.0151095 0.154143 
0.0151095 9.10951 0.623187 
0.154143 0.623187 8.64098 
9.78906 -0.00242076 0.435192 
-0.00242076 9.82287 -0.281407 
0.435192 -0.281407 9.79392 
9.74991 0.0264462 0.411137 
0.0264462 9.8359 -0.257421 
0.411137 -0.257421 9.82004 
9.78379 -0.0636502 0.439594 
-0.0636502 9.82413 -0.285425 
0.439594 -0.285425 9.79793 
9.75463 0.0292536 0.469675 
0.0292536 9.89651 -0.233256 
0.469675 -0.233256 9.75471 
9.88601 0.0120749 -0.525859 
0.0120749 9.89658 -0.0594303 
-0.525859 -0.0594303 9.94693 
9.89166 0.0116764 -0.498047 
0.0116764 9.90391 -0.068431 
-0.498047 -0.068431 9.93394 
9.87282 0.0130194 -0.506526 
0.0130194 9.90259 -0.0736408 
-0.506526 -0.0736408 9.95411 
9.90903 0.0102457 -0.526452 
0.0102457 9.90206 -0.066202 
-0.526452 -0.066202 9.91843 
9.6216 0.017125 -0.0934701 
0.017125 9.58222 0.694393 
-0.0934701 0.694393 9.58294 
9.6024 -0.0613778 -0.11472 
-0.0613778 9.65783 0.598475 
-0.11472 0.598475 9.52655 
9.60188 -0.0106561 -0.358024 
-0.0106561 9.75718 0.621642 
-0.358024 0.621642 9.42771 
9.6755 0.0438235 -0.24329 
0.0438235 9.61108 0.54041 
-0.24329 0.54041 9.50019 
9.95575 0.0560126 0.0756132 
0.0560126 9.90327 -0.0182737 
0.0756132 -0.0182737 10.4257 
10.0788 0.0720131 0.0500933 
0.0720131 10.0246 0.107152 
0.0500933 0.107152 10.1813 
10.0938 0.0506901 0.066994 
0.0506901 10.2654 0.0656621 
0.066994 0.0656621 9.92553 
10.1417 0.0659469 0.0242071 
0.0659469 9.94673 0.238885 
0.0242071 0.238885 10.1963 
9.68968 -0.0046666 -0.458662 
-0.0046666 9.70001 0.115495 
-0.458662 0.115495 9.71664 
9.58033 0.0450794 -0.489527 
0.0450794 9.71491 0.133354 
-0.489527 0.133354 9.81109 
9.72947 -0.0127334 -0.455523 
-0.0127334 9.66221 0.134128 
-0.455523 0.134128 9.71465 
9.65892 -0.02417 -0.402326 
-0.02417 9.66709 0.0941773 
-0.402326 0.0941773 9.78032 
9.98309 0.0102011 0.269865 
0.0102011 9.97033 -0.0288054 
0.269865 -0.0288054 9.96967 
9.94682 0.0246662 0.280186 
0.0246662 9.9516 -0.00846127 
0.280186 -0.00846127 10.0247 
9.98657 0.00951467 0.275101 
0.00951467 9.9761 -0.0368493 
0.275101 -0.0368493 9.96042 
9.98923 0.00469204 0.266625 
0.00469204 9.97875 -0.0414601 
0.266625 -0.0414601 9.9551 
9.426 -0.038745 -0.125883 
-0.038745 9.2669 -0.403306 
-0.125883 -0.403306 9.10962 
9.15881 0.0351335 0.10456 
0.0351335 9.62391 -0.332054 
0.10456 -0.332054 9.0198 
9.48935 -0.0178743 0.181329 
-0.0178743 9.55308 -0.40566 
0.181329 -0.40566 8.76009 
9.24092 0.0513753 0.0649451 
0.0513753 9.5855 -0.241421 
0.0649451 -0.241421 8.9761 
9.26396 -0.258005 0.308177 
-0.258005 9.04761 0.126411 
0.308177 0.126411 10.6903 
9.34123 0.0731008 0.175128 
0.0731008 9.15049 0.10888 
0.175128 0.10888 10.5102 
9.48286 -0.284716 0.324889 
-0.284716 9.15061 -0.0193808 
0.324889 -0.0193808 10.3684 
9.16805 0.0507031 0.352626 
0.0507031 9.30933 0.197572 
0.352626 0.197572 10.5245 
9.45674 0.133802 -0.474139 
0.133802 9.56221 -0.152224 
-0.474139 -0.152224 9.40734 
9.36535 0.130217 -0.476066 
0.130217 9.54065 -0.173411 
-0.476066 -0.173411 9.52029 
9.26269 -0.0199944 -0.406733 
-0.0199944 9.54047 -0.161096 
-0.406733 -0.161096 9.62314 
9.30918 0.0991446 -0.555268 
0.0991446 9.53046 -0.232682 
-0.555268 -0.232682 9.58665 
12.1579 -4.93178 -0.739334 
-4.93178 1.11031 -0.909578 
-0.739334 -0.909578 19.4432 
8.875 -2.21782 0.00484718 
-2.21782 10.2033 0.390828 
0.00484718 0.390828 13.6332 
8.3314 -1.35748 0.790185 
-1.35748 6.36377 -0.939496 
0.790185 -0.939496 18.0163 
10.0443 -0.324857 -1.93244 
-0.324857 9.70375 -1.05737 
-1.93244 -1.05737 12.9634 
9.85091 -0.00776578 -0.412848 
-0.00776578 9.89929 0.405495 
-0.412848 0.405495 9.89566 
9.82315 0.0354955 -0.402143 
0.0354955 9.90491 0.401315 
-0.402143 0.401315 9.9178 
9.86474 -0.00421456 -0.416513 
-0.00421456 9.90413 0.39299 
-0.416513 0.39299 9.87699 
9.86195 0.0130536 -0.397952 
0.0130536 9.90968 0.40932 
-0.397952 0.40932 9.87423 
9.27055 0.243017 0.56067 
0.243017 9.29627 0.0151008 
0.56067 0.0151008 9.15829 
8.74534 0.0307309 0.793655 
0.0307309 9.49607 0.0895905 
0.793655 0.0895905 9.48369 
9.55616 0.450694 0.662895 
0.450694 9.3135 0.108914 
0.662895 0.108914 8.85544 
9.03038 0.325765 0.442036 
0.325765 9.37141 -0.124243 
0.442036 -0.124243 9.32331 
5.84323 0.573687 0.89874 
0.573687 5.54348 1.04161 
0.89874 1.04161 1.00088 
9.4634 0.866528 -0.462668 
0.866528 9.39151 0.240297 
-0.462668 0.240297 -6.46732 
2.44707 0.33411 0.224543 
0.33411 2.83844 -0.819435 
0.224543 -0.819435 7.10208 
4.44952 0.896545 4.54181 
0.896545 4.45068 3.50307 
4.54181 3.50307 3.48739 
9.50817 -0.0145618 -0.26466 
-0.0145618 9.49642 -0.363197 
-0.26466 -0.363197 9.39927 
9.66272 0.110552 0.0014624 
0.110552 9.7958 -0.380954 
0.0014624 -0.380954 8.94535 
9.53671 -0.0110464 -0.128788 
-0.0110464 9.71837 -0.222664 
-0.128788 -0.222664 9.14879 
9.51192 0.000599454 -0.0719175 
0.000599454 9.75078 -0.10282 
-0.0719175 -0.10282 9.14116 
10.6762 0.0237619 0.0595103 
0.0237619 10.7149 -0.145109 
0.0595103 -0.145109 10.8726 
10.6136 0.0405994 0.199861 
0.0405994 10.5029 -0.0471876 
0.199861 -0.0471876 11.1472 
11.0978 0.0297932 -0.0148087 
0.0297932 11.0555 0.116669 
-0.0148087 0.116669 10.1105 
10.7296 0.00881496 -0.1247 
0.00881496 10.6907 -0.157286 
-0.1247 -0.157286 10.8435 
9.90179 -0.00834955 0.431795 
-0.00834955 9.9372 -0.321313 
0.431795 -0.321313 9.94131 
9.8866 0.0256092 0.393993 
0.0256092 9.9428 -0.318847 
0.393993 -0.318847 9.9509 
9.89171 0.00334199 0.442703 
0.00334199 9.96494 -0.338626 
0.442703 -0.338626 9.92365 
9.97295 -0.0372066 0.438416 
-0.0372066 9.93154 -0.33733 
0.438416 -0.33733 9.87581 
9.42337 -0.134858 0.081696 
-0.134858 9.97636 -0.00464872 
0.081696 -0.00464872 7.98896 
9.43386 0.139104 0.0378015 
0.139104 9.50433 0.0477924 
0.0378015 0.0477924 8.4505 
9.64968 0.094513 0.00602401 
0.094513 9.74375 0.410498 
0.00602401 0.410498 7.99526 
9.55492 -0.0105989 0.275163 
-0.0105989 9.35703 0.124518 
0.275163 0.124518 8.47674 
9.80679 0.0165097 -0.512827 
0.0165097 9.8152 -0.0368248 
-0.512827 -0.0368248 9.90206 
9.79683 0.0127686 -0.507665 
0.0127686 9.84271 -0.0256776 
-0.507665 -0.0256776 9.88451 
9.80802 0.0067592 -0.480171 
0.0067592 9.83383 -0.0338628 
-0.480171 -0.0338628 9.8822 
9.81029 0.0179066 -0.505022 
0.0179066 9.82208 -0.0420215 
-0.505022 -0.0420215 9.89168 
9.62132 -0.0901162 0.440352 
-0.0901162 9.7163 -0.322247 
0.440352 -0.322247 9.62662 
9.58651 -0.0419979 0.467831 
-0.0419979 9.68757 -0.263468 
0.467831 -0.263468 9.69016 
9.53433 0.051443 0.462457 
0.051443 9.77517 -0.205602 
0.462457 -0.205602 9.65475 
9.60504 -0.0198324 0.504383 
-0.0198324 9.65777 -0.270521 
0.504383 -0.270521 9.70144 
8.98324 0.0906033 -0.0283114 
0.0906033 9.60144 0.0757957 
-0.0283114 0.0757957 9.69506 
9.12387 -0.00338465 -0.299251 
-0.00338465 9.49681 0.0898629 
-0.299251 0.0898629 9.65906 
9.03592 0.0163153 -0.202647 
0.0163153 9.49908 0.0392477 
-0.202647 0.0392477 9.74476 
8.92086 -0.072244 -0.238993 
-0.072244 9.55649 0.360527 
-0.238993 0.360527 9.8024 
9.91386 -0.0354365 0.177069 
-0.0354365 9.87786 0.0853449 
0.177069 0.0853449 10.0524 
9.97163 0.0125528 0.154223 
0.0125528 9.97757 0.112622 
0.154223 0.112622 9.89495 
9.94358 0.000922363 0.124519 
0.000922363 9.88823 0.102051 
0.124519 0.102051 10.0124 
9.94325 0.0193825 0.131541 
0.0193825 10.0053 0.0742956 
0.131541 0.0742956 9.89558 
4.32211 -0.39149 -1.35924 
-0.39149 5.12217 -0.538045 
-1.35924 -0.538045 -1.65505 
3.43671 0.307034 -0.56452 
0.307034 4.35118 -1.14406 
-0.56452 -1.14406 0.00133554 
2.17331 -0.294438 -0.769854 
-0.294438 2.53682 -0.326059 
-0.769854 -0.326059 3.07909 
2.53549 -0.583378 0.830417 
-0.583378 3.48673 0.394346 
0.830417 0.394346 1.767 
9.79105 -0.0479494 0.0166165 
-0.0479494 9.9789 0.0809243 
0.0166165 0.0809243 9.98344 
9.96062 0.0332122 -0.0422943 
0.0332122 9.99093 0.0648661 
-0.0422943 0.0648661 9.80185 
9.93011 -0.0316048 -0.00735308 
-0.0316048 10.0022 0.0321058 
-0.00735308 0.0321058 9.82104 
9.83388 -0.0374959 0.129039 
-0.0374959 9.91651 0.0740288 
0.129039 0.0740288 10.003 
9.6654 0.0580195 -0.090673 
0.0580195 9.75056 0.297076 
-0.090673 0.297076 9.41415 
9.65085 0.0309272 -0.124512 
0.0309272 9.74232 0.361544 
-0.124512 0.361544 9.43695 
9.68424 0.0370211 -0.1485 
0.0370211 9.75495 0.333685 
-0.1485 0.333685 9.39093 
9.64993 0.0225335 -0.0890627 
0.0225335 9.71672 0.263252 
-0.0890627 0.263252 9.46347 
9.5855 -0.126407 -0.421081 
-0.126407 9.55973 -0.468406 
-0.421081 -0.468406 9.84056 
9.64014 0.0988307 -0.586383 
0.0988307 9.88517 -0.571633 
-0.586383 -0.571633 9.46048 
9.5866 -0.0874403 -0.447755 
-0.0874403 9.7345 -0.434182 
-0.447755 -0.434182 9.66469 
9.69434 0.0692692 -0.54818 
0.0692692 9.76911 -0.363431 
-0.54818 -0.363431 9.52235 
9.7968 -0.0173942 -0.00275695 
-0.0173942 9.79908 -0.0125898 
-0.00275695 -0.0125898 9.80021 
9.80011 0.034672 -0.0100905 
0.034672 9.79735 0.00380583 
-0.0100905 0.00380583 9.79863 
9.77737 0.0179143 0.0211266 
0.0179143 9.77201 -0.0296676 
0.0211266 -0.0296676 9.84671 
9.81592 0.0212384 -0.0149053 
0.0212384 9.80853 -0.0204172 
-0.0149053 -0.0204172 9.77165 
9.31179 0.0144944 0.0414209 
0.0144944 9.53671 -0.190567 
0.0414209 -0.190567 9.38327 
9.37827 0.0839195 0.014274 
0.0839195 9.42242 -0.0658464 
0.014274 -0.0658464 9.43108 
9.36097 -0.000713935 0.0289784 
-0.000713935 9.59883 -0.12784 
0.0289784 -0.12784 9.27198 
9.36108 -0.0147034 0.0558185 
-0.0147034 9.54154 -0.139824 
0.0558185 -0.139824 9.32915 
9.72997 -0.147809 0.0297824 
-0.147809 9.72111 -0.0238767 
0.0297824 -0.0238767 9.86025 
9.62288 0.10473 -0.0256587 
0.10473 9.91279 0.0079593 
-0.0256587 0.0079593 9.77566 
9.80681 -0.10043 0.0451158 
-0.10043 9.81462 0.0184554 
0.0451158 0.0184554 9.6899 
9.62847 0.114068 0.117596 
0.114068 9.84661 -0.0406205 
0.117596 -0.0406205 9.83625 
9.85054 -0.0213277 0.42338 
-0.0213277 9.87104 -0.179983 
0.42338 -0.179983 9.86399 
9.83943 -0.00934997 0.376778 
-0.00934997 9.90124 -0.182652 
0.376778 -0.182652 9.8449 
9.8336 0.040327 0.361425 
0.040327 9.88213 -0.221688 
0.361425 -0.221688 9.86985 
9.82695 0.00336178 0.456793 
0.00336178 9.93209 -0.179455 
0.456793 -0.179455 9.82653 
9.21639 0.0771294 -0.2768 
0.0771294 8.89286 0.557065 
-0.2768 0.557065 7.19702 
8.93694 0.0569976 0.0259726 
0.0569976 8.54252 0.920201 
0.0259726 0.920201 7.82681 
8.98804 0.213231 0.228154 
0.213231 9.31638 1.14968 
0.228154 1.14968 7.00185 
9.45261 0.246772 -0.446493 
0.246772 8.48881 0.732665 
-0.446493 0.732665 7.36485 
6.21936 -0.551367 2.80686 
-0.551367 8.71058 0.559204 
2.80686 0.559204 7.87942 
6.61675 0.487018 1.46877 
0.487018 6.85926 0.780178 
1.46877 0.780178 9.33335 
6.95683 -0.806213 2.00419 
-0.806213 8.23193 0.797875 
2.00419 0.797875 7.62059 
7.35445 -0.45124 1.88311 
-0.45124 8.65623 0.497966 
1.88311 0.497966 6.79866 
5.49489 -1.69545 1.75103 
-1.69545 8.3131 1.55459 
1.75103 1.55459 4.30051 
9.1741 0.701315 1.48289 
0.701315 7.33378 2.56229 
1.48289 2.56229 1.60062 
7.6883 0.104666 3.62493 
0.104666 6.33333 2.60132 
3.62493 2.60132 4.08686 
7.66969 -0.0513714 1.96927 
-0.0513714 7.27739 2.45377 
1.96927 2.45377 3.16142 
9.82296 0.036367 -0.0445062 
0.036367 9.54789 -0.0658493 
-0.0445062 -0.0658493 9.68151 
9.44516 0.0460538 -0.205709 
0.0460538 9.76491 0.0322456 
-0.205709 0.0322456 9.84229 
9.59507 0.0790553 -0.097387 
0.0790553 9.69604 -0.00730051 
-0.097387 -0.00730051 9.76125 
9.55642 0.166922 -0.0782427 
0.166922 9.64163 0.0769414 
-0.0782427 0.0769414 9.85431 
7.45537 0.304838 -0.539097 
0.304838 6.43286 -2.93663 
-0.539097 -2.93663 6.05019 
7.93193 -0.555631 -0.419917 
-0.555631 4.5719 -1.5094 
-0.419917 -1.5094 7.43459 
7.83603 0.0510416 -0.106947 
0.0510416 6.1676 -3.44275 
-0.106947 -3.44275 5.93479 
7.52005 -0.839118 -0.470414 
-0.839118 6.83405 -2.26686 
-0.470414 -2.26686 5.58433 
9.44228 0.047626 -0.48375 
0.047626 9.82949 0.359493 
-0.48375 0.359493 9.46564 
9.51287 0.0398182 -0.403884 
0.0398182 9.61618 0.417502 
-0.403884 0.417502 9.60835 
9.47887 0.0439533 -0.386058 
0.0439533 9.62289 0.430807 
-0.386058 0.430807 9.63565 
9.57097 0.058156 -0.409473 
0.058156 9.56354 0.379929 
-0.409473 0.379929 9.6029 
9.88195 -0.00295659 0.502944 
-0.00295659 9.92372 0.348222 
0.502944 0.348222 9.88139 
9.80233 -0.0347005 0.500899 
-0.0347005 9.94052 0.348579 
0.500899 0.348579 9.94421 
9.88725 0.0130363 0.529967 
0.0130363 9.92868 0.332223 
0.529967 0.332223 9.87112 
9.89271 0.0171625 0.502935 
0.0171625 9.90127 0.325868 
0.502935 0.325868 9.89308 
9.83511 0.0212824 0.0546062 
0.0212824 9.8115 -0.642243 
0.0546062 -0.642243 9.77167 
9.74274 0.0109435 -0.00187084 
0.0109435 9.83482 -0.581024 
-0.00187084 -0.581024 9.84072 
9.79865 0.0108369 0.0418553 
0.0108369 9.82666 -0.635269 
0.0418553 -0.635269 9.79297 
9.84499 0.0426222 0.0646484 
0.0426222 9.90269 -0.650971 
0.0646484 -0.650971 9.6706 
9.14564 -1.04211 -0.922533 
-1.04211 9.7048 -2.21178 
-0.922533 -2.21178 12.7391 
9.68175 -1.32934 -0.700098 
-1.32934 9.85002 -0.105596 
-0.700098 -0.105596 12.0577 
9.20816 -0.125435 0.045867 
-0.125435 10.3021 -1.33114 
0.045867 -1.33114 12.0792 
9.81412 -0.712384 -1.24285 
-0.712384 10.1516 -0.275622 
-1.24285 -0.275622 11.6238 
9.55207 -0.015339 -0.360007 
-0.015339 9.74071 0.36721 
-0.360007 0.36721 9.52872 
9.51422 0.0760196 -0.437099 
0.0760196 9.64845 0.392205 
-0.437099 0.392205 9.65883 
9.56268 -0.0621689 -0.340737 
-0.0621689 9.68684 0.360963 
-0.340737 0.360963 9.57198 
9.47442 0.00724049 -0.393157 
0.00724049 9.69533 0.332063 
-0.393157 0.332063 9.65175 
13.7687 -0.671421 -0.868278 
-0.671421 7.19376 1.23029 
-0.868278 1.23029 20.228 
16.7259 -1.94459 -0.38003 
-1.94459 12.5093 -2.07322 
-0.38003 -2.07322 11.9553 
10.0151 2.26236 -1.98145 
2.26236 11.3784 1.44179 
-1.98145 1.44179 19.7971 
15.5147 1.00851 2.59554 
1.00851 6.47458 -0.973756 
2.59554 -0.973756 19.2012 
7.84923 2.16784 1.50487 
2.16784 4.32507 -0.347383 
1.50487 -0.347383 -1.19406 
2.81498 -1.73022 1.67382 
-1.73022 3.31595 2.3947 
1.67382 2.3947 4.84931 
5.91139 -0.0438755 1.63662 
-0.0438755 6.99115 0.271702 
1.63662 0.271702 -1.92229 
2.90153 0.857007 4.30334 
0.857007 7.41106 1.54026 
4.30334 1.54026 0.667654 
9.84909 -0.000425578 -0.462849 
-0.000425578 9.87958 -0.0117711 
-0.462849 -0.0117711 9.94221 
9.87176 0.00423415 -0.480021 
0.00423415 9.86475 -0.00233015 
-0.480021 -0.00233015 9.93436 
9.87684 0.0129852 -0.477417 
0.0129852 9.87759 -0.00862831 
-0.477417 -0.00862831 9.91645 
9.86197 0.000918412 -0.457543 
0.000918412 9.90399 -0.0270397 
-0.457543 -0.0270397 9.90491 
9.58579 0.0210429 -0.500063 
0.0210429 9.68056 -0.142844 
-0.500063 -0.142844 9.75729 
9.64521 0.0431018 -0.520934 
0.0431018 9.69036 -0.125186 
-0.520934 -0.125186 9.68808 
9.62174 0.0389439 -0.504621 
0.0389439 9.69061 -0.120589 
-0.504621 -0.120589 9.7113 
9.6387 0.0421196 -0.507886 
0.0421196 9.68203 -0.116505 
-0.507886 -0.116505 9.70292 
14.8394 -0.539868 -6.18498 
-0.539868 8.08839 3.63896 
-6.18498 3.63896 -2.54603 
2.1417 -0.21412 4.53894 
-0.21412 1.16102 -3.26593 
4.53894 -3.26593 17.079 
13.8133 -3.3448 -8.48549 
-3.3448 12.685 1.40946 
-8.48549 1.40946 -6.11662 
-3.53392 6.77684 -8.31792 
6.77684 7.46707 3.00639 
-8.31792 3.00639 16.4486 
11.5125 -3.24352 0.452011 
-3.24352 7.36192 -0.924401 
0.452011 -0.924401 20.0653 
13.53 -4.15172 -1.41456 
-4.15172 1.11319 -1.14341 
-1.41456 -1.14341 24.2965 
12.317 -2.10525 0.0321847 
-2.10525 9.77749 0.0306379 
0.0321847 0.0306379 16.8452 
12.3831 0.395899 -1.2055 
0.395899 11.9208 -1.9193 
-1.2055 -1.9193 14.6358 
9.34783 0.0490337 0.191501 
0.0490337 9.52846 -0.26359 
0.191501 -0.26359 8.77033 
9.21379 -0.00392701 0.162767 
-0.00392701 9.44532 -0.279542 
0.162767 -0.279542 8.98751 
9.30639 0.0262568 0.396297 
0.0262568 9.36684 -0.225392 
0.396297 -0.225392 8.97338 
9.25491 0.0310371 0.239382 
0.0310371 9.51813 -0.270934 
0.239382 -0.270934 8.87357 
9.99825 0.000373385 0.407322 
0.000373385 9.91868 0.141566 
0.407322 0.141566 9.98014 
9.91083 -0.0089789 0.378577 
-0.0089789 9.90184 0.164048 
0.378577 0.164048 10.0844 
9.99786 0.00369492 0.381459 
0.00369492 10.0023 0.118384 
0.381459 0.118384 9.89686 
9.98504 0.0275522 0.421116 
0.0275522 10.0111 0.156255 
0.421116 0.156255 9.90092 
9.00115 0.236658 0.197582 
0.236658 8.89458 -0.856559 
0.197582 -0.856559 9.10556 
8.96537 -0.139344 0.419717 
-0.139344 9.13668 -0.848836 
0.419717 -0.848836 8.89924 
9.00432 -0.112556 0.313535 
-0.112556 9.15106 -0.761904 
0.313535 -0.761904 8.8459 
9.24221 0.00108075 0.336491 
0.00108075 8.89225 -0.749542 
0.336491 -0.749542 8.86683 
9.97009 -0.0367198 -0.0510218 
-0.0367198 9.97619 0.465478 
-0.0510218 0.465478 9.93705 
9.97816 0.000757333 -0.0537785 
0.000757333 10.0146 0.447737 
-0.0537785 0.447737 9.89058 
9.86593 -0.00032523 -0.0436691 
-0.00032523 9.86637 0.454132 
-0.0436691 0.454132 10.151 
9.97187 0.0135833 -0.0759552 
0.0135833 10.0223 0.508888 
-0.0759552 0.508888 9.88914 
9.82336 0.045221 0.0380709 
0.045221 9.75141 -0.543693 
0.0380709 -0.543693 9.78189 
9.77864 0.00625219 0.0359651 
0.00625219 9.91618 -0.630193 
0.0359651 -0.630193 9.66184 
9.76457 -0.0121642 0.0595601 
-0.0121642 9.81573 -0.660374 
0.0595601 -0.660374 9.77636 
9.78321 -0.00192842 0.0722296 
-0.00192842 9.85697 -0.626557 
0.0722296 -0.626557 9.71648 
9.50874 0.360661 -1.6793 
0.360661 10.3482 0.415074 
-1.6793 0.415074 7.48691 
9.33871 -0.298241 -1.18999 
-0.298241 10.0864 0.866561 
-1.18999 0.866561 7.9188 
8.31629 -0.310229 0.898144 
-0.310229 9.54019 0.0245322 
0.898144 0.0245322 9.48741 
10.4152 -0.0181129 -1.34594 
-0.0181129 10.5231 -0.0377986 
-1.34594 -0.0377986 6.40563 
9.73473 -0.0235155 0.0242531 
-0.0235155 9.86251 -0.0263785 
0.0242531 -0.0263785 9.75904 
9.78246 -0.000291022 -0.00475519 
-0.000291022 9.83882 -0.0961491 
-0.00475519 -0.0961491 9.735 
9.76542 -0.0257727 -0.0151544 
-0.0257727 9.83619 -0.0578966 
-0.0151544 -0.0578966 9.75466 
9.74093 -0.0327419 -0.0656407 
-0.0327419 9.69483 0.0282235 
-0.0656407 0.0282235 9.92052 
9.91901 0.0536447 -0.52249 
0.0536447 9.89587 0.0526186 
-0.52249 0.0526186 9.83721 
9.85583 0.0508937 -0.542313 
0.0508937 9.8355 -0.0450565 
-0.542313 -0.0450565 9.96076 
9.85878 0.00994792 -0.517967 
0.00994792 9.89118 0.00656891 
-0.517967 0.00656891 9.90213 
9.86229 0.000294745 -0.51958 
0.000294745 9.88692 -0.00871433 
-0.51958 -0.00871433 9.90287 
11.4691 -1.291 -0.123913 
-1.291 8.06348 -0.364648 
-0.123913 -0.364648 15.0921 
10.307 -3.76735 -0.655833 
-3.76735 5.70245 0.42663 
-0.655833 0.42663 18.6152 
10.7413 -1.77297 0.648762 
-1.77297 4.22443 -0.0599716 
0.648762 -0.0599716 19.6589 
10.7215 -0.361634 0.218268 
-0.361634 10.2728 1.44076 
0.218268 1.44076 13.6304 
7.80388 -0.212398 0.240924 
-0.212398 7.56511 -1.08943 
0.240924 -1.08943 9.92574 
9.11448 0.645292 0.17999 
0.645292 7.49152 -1.70216 
0.17999 -1.70216 8.68873 
8.92936 -0.216761 0.027701 
-0.216761 6.76098 -2.44567 
0.027701 -2.44567 9.60439 
9.31782 0.109639 -0.173179 
0.109639 8.00776 -1.57115 
-0.173179 -1.57115 7.96914 
9.8563 -0.00424408 -0.499633 
-0.00424408 9.92011 -0.341616 
-0.499633 -0.341616 9.87383 
9.83572 -0.0107104 -0.510542 
-0.0107104 9.908 -0.329434 
-0.510542 -0.329434 9.90651 
9.88 0.0180642 -0.516649 
0.0180642 9.89015 -0.335535 
-0.516649 -0.335535 9.88009 
9.87356 0.012801 -0.513141 
0.012801 9.89073 -0.334196 
-0.513141 -0.334196 9.88595 
9.69453 0.118775 -0.0399599 
0.118775 9.60988 0.0914773 
-0.0399599 0.0914773 9.64978 
9.52519 0.193986 -0.129307 
0.193986 9.52747 -0.0181848 
-0.129307 -0.0181848 9.90153 
9.40998 -0.0293339 -0.0208004 
-0.0293339 9.69826 -0.122923 
-0.0208004 -0.122923 9.84594 
9.50979 0.196946 -0.175388 
0.196946 9.65437 -0.0505751 
-0.175388 -0.0505751 9.79003 
9.27676 -0.0242301 -0.375421 
-0.0242301 9.60934 0.510279 
-0.375421 0.510279 9.68874 
9.39795 -0.123366 -0.386304 
-0.123366 9.46807 0.280864 
-0.386304 0.280864 9.70882 
9.54073 0.114195 -0.384571 
0.114195 9.57882 0.479898 
-0.384571 0.479898 9.45529 
9.57741 -0.026643 -0.366092 
-0.026643 9.62818 0.445811 
-0.366092 0.445811 9.36925 
9.60784 0.096458 0.490244 
0.096458 9.57869 -0.0147585 
0.490244 -0.0147585 9.67803 
9.62501 0.0944699 0.467804 
0.0944699 9.62273 -0.0621663 
0.467804 -0.0621663 9.61682 
9.60962 0.0702636 0.467013 
0.0702636 9.57414 -0.019951 
0.467013 -0.019951 9.6808 
9.57495 0.0164076 0.439804 
0.0164076 9.49829 -0.00394217 
0.439804 -0.00394217 9.79132 
9.74704 -0.0269037 -0.0336718 
-0.0269037 9.72294 -0.0082068 
-0.0336718 -0.0082068 9.808 
9.75127 -0.0328832 0.0192873 
-0.0328832 9.74183 -0.0224128 
0.0192873 -0.0224128 9.78487 
9.80949 -0.0447269 0.0449469 
-0.0447269 9.65731 -0.0291322 
0.0449469 -0.0291322 9.81117 
9.74767 -0.050977 -0.0114247 
-0.050977 9.72018 -0.0228494 
-0.0114247 -0.0228494 9.81012 
9.8683 0.0191254 -0.0944253 
0.0191254 9.88192 0.150242 
-0.0944253 0.150242 9.89447 
9.88802 0.0321222 -0.128544 
0.0321222 9.95473 0.101097 
-0.128544 0.101097 9.80194 
9.9061 -0.0170099 -0.119695 
-0.0170099 9.87291 0.143726 
-0.119695 0.143726 9.86569 
9.92927 -0.0280996 -0.116702 
-0.0280996 9.8464 0.11137 
-0.116702 0.11137 9.86903 
9.78684 -0.0876282 0.0896563 
-0.0876282 9.76158 0.0534008 
0.0896563 0.0534008 9.8384 
9.84408 0.0247699 -0.0280262 
0.0247699 9.71603 -0.0316118 
-0.0280262 -0.0316118 9.8267 
9.95851 -0.000338004 -0.0210107 
-0.000338004 9.55751 0.0622615 
-0.0210107 0.0622615 9.8708 
9.91704 -0.0112452 0.00109709 
-0.0112452 9.66443 0.00109632 
0.00109709 0.00109632 9.80536 
9.0417 -1.28588 -0.0173687 
-1.28588 4.45066 1.84513 
-0.0173687 1.84513 9.603 
8.50388 -1.84631 1.8464 
-1.84631 5.39346 5.3156 
1.8464 5.3156 9.19801 
9.2408 -0.661185 1.05188 
-0.661185 5.05509 3.94876 
1.05188 3.94876 8.79947 
6.71088 2.19955 0.200046 
2.19955 10.5679 1.6366 
0.200046 1.6366 5.81658 
9.23095 -0.153391 0.144235 
-0.153391 9.41635 -0.366967 
0.144235 -0.366967 8.54766 
8.94194 -0.0617821 0.236398 
-0.0617821 9.5446 -0.403668 
0.236398 -0.403668 8.70842 
9.43781 0.0248416 0.300547 
0.0248416 9.67082 -0.0183275 
0.300547 -0.0183275 8.08634 
8.95507 0.0593014 0.2024 
0.0593014 9.18346 -0.109101 
0.2024 -0.109101 9.05644 
9.99033 -0.00736369 0.00127417 
-0.00736369 9.98963 0.526428 
0.00127417 0.526428 9.90617 
9.99604 -0.0230252 -0.00591697 
-0.0230252 9.95828 0.514576 
-0.00591697 0.514576 9.9318 
9.87905 -0.00442594 -0.00274765 
-0.00442594 9.88121 0.506198 
-0.00274765 0.506198 10.1259 
9.98866 0.00116337 -0.0503868 
0.00116337 9.9954 0.519802 
-0.0503868 0.519802 9.90206 
9.19948 -0.0214502 -1.04149 
-0.0214502 8.85219 -0.0152248 
-1.04149 -0.0152248 9.50021 
8.75539 0.308266 -0.154259 
0.308266 8.19774 0.544495 
-0.154259 0.544495 10.5988 
8.92217 0.615567 -0.882787 
0.615567 8.66221 0.512281 
-0.882787 0.512281 9.96751 
8.73797 0.753629 -0.549979 
0.753629 8.99209 0.577161 
-0.549979 0.577161 9.82183 
3.18826 -1.46687 -0.310513 
-1.46687 10.1027 -0.352954 
-0.310513 -0.352954 4.50528 
13.3077 1.4916 -1.26484 
1.4916 6.35911 -2.52578 
-1.26484 -2.52578 -1.87061 
7.32875 0.865108 -4.0938 
0.865108 5.14677 -1.34793 
-4.0938 -1.34793 5.32071 
7.03424 0.826497 -2.45419 
0.826497 7.70685 -0.937566 
-2.45419 -0.937566 3.05514 
9.92371 -0.086175 0.448016 
-0.086175 9.81835 0.426942 
0.448016 0.426942 9.97616 
9.94447 -0.0341695 0.435435 
-0.0341695 9.90285 0.44452 
0.435435 0.44452 9.87089 
9.90222 0.036287 0.450743 
0.036287 9.91433 0.417725 
0.450743 0.417725 9.90167 
9.88422 0.0292447 0.464139 
0.0292447 9.94378 0.444903 
0.464139 0.444903 9.89022 
7.51286 1.28343 2.26269 
1.28343 8.15454 0.488673 
2.26269 0.488673 11.4981 
7.15483 -0.361961 0.909535 
-0.361961 10.3117 0.412065 
0.909535 0.412065 9.69896 
8.15851 0.785894 1.64722 
0.785894 9.00188 0.378604 
1.64722 0.378604 10.0051 
8.40964 0.805614 1.22818 
0.805614 9.40048 -0.490748 
1.22818 -0.490748 9.35534 
9.94066 0.00582077 0.52431 
0.00582077 9.92704 0.227265 
0.52431 0.227265 10.0537 
9.98438 0.023646 0.517075 
0.023646 10.0095 0.309721 
0.517075 0.309721 9.92746 
9.99201 0.0350164 0.482054 
0.0350164 10.0048 0.259028 
0.482054 0.259028 9.92459 
9.98354 0.0223288 0.512072 
0.0223288 9.98153 0.274162 
0.512072 0.274162 9.95631 
9.79112 0.0100646 0.420503 
0.0100646 9.86036 -0.363848 
0.420503 -0.363848 9.84781 
9.81005 0.00197548 0.420596 
0.00197548 9.86485 -0.395395 
0.420596 -0.395395 9.82439 
9.8087 0.0265255 0.433749 
0.0265255 9.86674 -0.401195 
0.433749 -0.401195 9.82384 
9.79833 -0.00344017 0.439745 
-0.00344017 9.92228 -0.418951 
0.439745 -0.418951 9.77869 
9.06418 0.179082 1.32972 
0.179082 8.6943 -1.02529 
1.32972 -1.02529 8.23997 
8.97805 0.359778 1.17834 
0.359778 8.68007 -1.09655 
1.17834 -1.09655 8.34033 
8.79456 0.626959 0.742898 
0.626959 8.77744 -0.378183 
0.742898 -0.378183 8.42644 
8.60973 0.274131 1.21991 
0.274131 8.69397 -1.12017 
1.21991 -1.12017 8.69475 
9.61868 -0.0166548 -0.154643 
-0.0166548 9.73293 0.343635 
-0.154643 0.343635 9.28286 
9.60604 -0.0168055 -0.0933108 
-0.0168055 9.74858 0.383992 
-0.0933108 0.383992 9.27984 
9.5938 0.0474951 -0.16841 
0.0474951 9.61367 0.285188 
-0.16841 0.285188 9.427 
9.70363 0.0132552 -0.164816 
0.0132552 9.7258 0.193106 
-0.164816 0.193106 9.20504 
9.51777 0.24226 0.144734 
0.24226 9.94357 -0.191975 
0.144734 -0.191975 9.98348 
9.67385 0.217712 -0.00696249 
0.217712 10.017 -0.0887961 
-0.00696249 -0.0887961 9.75399 
9.60743 -0.247913 -0.116594 
-0.247913 9.81648 -0.174509 
-0.116594 -0.174509 10.0209 
9.69763 -0.111078 0.106529 
-0.111078 9.96968 -0.00197655 
0.106529 -0.00197655 9.77751 
9.89034 0.0276599 -0.33959 
0.0276599 9.89988 0.445662 
-0.33959 0.445662 9.88869 
9.86984 -0.00347611 -0.293777 
-0.00347611 9.86069 0.412203 
-0.293777 0.412203 9.94837 
9.89964 0.0361117 -0.338136 
0.0361117 9.90314 0.479478 
-0.338136 0.479478 9.87612 
9.85218 -0.0161796 -0.385337 
-0.0161796 9.99874 0.454694 
-0.385337 0.454694 9.82799 
9.55406 -0.0115219 0.444721 
-0.0115219 9.67781 -0.354744 
0.444721 -0.354744 9.89387 
9.67184 -0.0265889 0.384357 
-0.0265889 9.74861 -0.238161 
0.384357 -0.238161 9.70528 
9.722 -0.0302211 0.502379 
-0.0302211 9.90292 -0.2901 
0.502379 -0.2901 9.50081 
9.6659 -0.0092747 0.412887 
-0.0092747 9.77143 -0.288222 
0.412887 -0.288222 9.68841 
11.6106 0.35344 0.14339 
0.35344 10.1847 -1.00033 
0.14339 -1.00033 14.0986 
12.9166 -0.987462 -1.33285 
-0.987462 14.7288 0.86449 
-1.33285 0.86449 8.24842 
9.63323 0.434868 -0.592639 
0.434868 11.7071 -0.589448 
-0.592639 -0.589448 14.5536 
10.6155 0.599414 -0.427274 
0.599414 11.407 1.46974 
-0.427274 1.46974 13.8713 
9.95447 0.0216004 0.42724 
0.0216004 9.96718 0.416538 
0.42724 0.416538 9.92481 
9.96654 0.0423039 0.417102 
0.0423039 9.93825 0.433586 
0.417102 0.433586 9.94168 
9.90048 0.00713268 0.383149 
0.00713268 9.89415 0.466104 
0.383149 0.466104 10.0518 
9.97404 0.00689692 0.464352 
0.00689692 9.9818 0.426052 
0.464352 0.426052 9.89063 
8.86289 2.64223 -0.385055 
2.64223 7.43269 0.298904 
-0.385055 0.298904 17.4202 
10.4745 1.82561 -0.117261 
1.82561 9.7384 0.74824 
-0.117261 0.74824 13.503 
10.9965 2.8338 0.83321 
2.8338 5.00967 0.779432 
0.83321 0.779432 17.7097 
10.4558 0.815775 0.953108 
0.815775 10.0252 -0.488656 
0.953108 -0.488656 13.2349 
9.83016 0.027007 0.412889 
0.027007 9.90242 -0.42492 
0.412889 -0.42492 9.92473 
9.85535 -0.00884027 0.424076 
-0.00884027 9.89945 -0.409369 
0.424076 -0.409369 9.90251 
9.85988 0.0142912 0.414044 
0.0142912 9.91155 -0.418469 
0.414044 -0.418469 9.88588 
9.86025 0.00666065 0.434951 
0.00666065 9.91582 -0.401502 
0.434951 -0.401502 9.88124 
9.2054 -0.0271274 0.141208 
-0.0271274 9.31289 -0.737592 
0.141208 -0.737592 9.13881 
9.32724 0.0388955 0.153147 
0.0388955 9.0933 -0.811667 
0.153147 -0.811667 9.23656 
9.18492 -0.0306898 0.1535 
-0.0306898 9.42649 -0.807489 
0.1535 -0.807489 9.04569 
9.31371 -0.0936906 0.151501 
-0.0936906 9.19422 -0.759911 
0.151501 -0.759911 9.14917 
9.48589 0.0488067 -0.00559821 
0.0488067 9.53823 0.00486824 
-0.00559821 0.00486824 9.51637 
9.49041 0.0287301 -0.0130094 
0.0287301 9.53966 -0.0449816 
-0.0130094 -0.0449816 9.51042 
9.49884 -0.0285591 0.0446712 
-0.0285591 9.51175 -0.024357 
0.0446712 -0.024357 9.52991 
9.47126 0.0111418 0.0764316 
0.0111418 9.60566 -0.0284125 
0.0764316 -0.0284125 9.46357 
9.21297 0.355918 0.856351 
0.355918 9.41062 0.738658 
0.856351 0.738658 8.33262 
8.8993 -0.0248648 0.823299 
-0.0248648 8.99176 0.597592 
0.823299 0.597592 9.06515 
9.16974 -0.191043 0.573963 
-0.191043 8.95872 0.631575 
0.573963 0.631575 8.82775 
9.03272 -0.106289 0.466728 
-0.106289 9.25137 0.481517 
0.466728 0.481517 8.67212 
9.97721 -0.00178129 0.386655 
-0.00178129 9.99607 -0.488306 
0.386655 -0.488306 9.89232 
9.90751 -0.013469 0.291368 
-0.013469 9.88022 -0.524835 
0.291368 -0.524835 10.0779 
9.9485 -0.0200568 0.348847 
-0.0200568 9.99002 -0.467737 
0.348847 -0.467737 9.92708 
9.96141 -0.0416456 0.337315 
-0.0416456 9.96339 -0.483349 
0.337315 -0.483349 9.94079 
8.29181 -1.42607 -2.888 
-1.42607 7.28584 -1.34232 
-2.888 -1.34232 -2.89007 
9.73721 -0.246756 -1.70633 
-0.246756 8.0912 1.11254 
-1.70633 1.11254 -5.14084 
1.71685 0.0695254 0.289116 
0.0695254 0.269626 1.46688 
0.289116 1.46688 10.7011 
2.5674 0.21381 -9.60298 
0.21381 7.75644 3.20406 
-9.60298 3.20406 2.36373 
9.76191 0.0291422 0.463619 
0.0291422 9.75039 -0.0997616 
0.463619 -0.0997616 9.83098 
9.78208 0.0218673 0.432805 
0.0218673 9.74761 -0.0602364 
0.432805 -0.0602364 9.81359 
9.7737 0.0207557 0.457462 
0.0207557 9.74365 -0.0414429 
0.457462 -0.0414429 9.82592 
9.80333 0.0209402 0.426167 
0.0209402 9.72139 -0.0874004 
0.426167 -0.0874004 9.81856 
9.39448 0.0481195 1.24375 
0.0481195 9.33165 0.993133 
1.24375 0.993133 6.79897 
10.2331 0.657556 0.827254 
0.657556 8.76056 1.13462 
0.827254 1.13462 6.53144 
9.73616 0.539427 0.843948 
0.539427 9.35852 0.539659 
0.843948 0.539659 6.43043 
9.69771 -0.488845 1.18296 
-0.488845 9.99186 1.45135 
1.18296 1.45135 5.83554 
8.53356 -0.501434 -0.323273 
-0.501434 9.56598 -0.61114 
-0.323273 -0.61114 8.89167 
7.94697 0.585204 -1.13594 
0.585204 10.0884 -0.107498 
-1.13594 -0.107498 8.95584 
8.03732 -0.508237 -0.650271 
-0.508237 9.12957 -0.0585753 
-0.650271 -0.0585753 9.82432 
8.31049 0.462381 -1.07704 
0.462381 9.29858 -0.451175 
-1.07704 -0.451175 9.38215 
9.426 0.0900916 -0.0339674 
0.0900916 9.73957 0.141997 
-0.0339674 0.141997 9.7643 
9.38712 0.134666 -0.0784874 
0.134666 9.72634 0.0303844 
-0.0784874 0.0303844 9.81641 
9.33726 -0.176736 -0.144491 
-0.176736 9.90817 0.0548958 
-0.144491 0.0548958 9.68444 
9.43816 -0.0868896 -0.11865 
-0.0868896 9.67924 0.0471792 
-0.11865 0.0471792 9.81246 
9.99741 -0.0151794 0.362221 
-0.0151794 10.0173 0.319902 
0.362221 0.319902 9.92596 
10.0127 0.0174724 0.349964 
0.0174724 10.0363 0.304323 
0.349964 0.304323 9.89163 
9.88596 0.0162646 0.340252 
0.0162646 9.89316 0.304531 
0.340252 0.304531 10.1615 
10.011 0.0247258 0.331972 
0.0247258 10.0247 0.382906 
0.331972 0.382906 9.90502 
9.93055 -0.00539298 0.0719145 
-0.00539298 9.86832 0.44241 
0.0719145 0.44241 10.0917 
9.98624 0.0182453 0.0955862 
0.0182453 10.0134 0.40888 
0.0955862 0.40888 9.89091 
9.95632 0.0234336 0.118965 
0.0234336 9.94386 0.441956 
0.118965 0.441956 9.99036 
9.9525 0.00925813 0.108731 
0.00925813 10.0434 0.461182 
0.108731 0.461182 9.89462 
9.71917 0.0337267 0.00486548 
0.0337267 9.86424 0.011953 
0.00486548 0.011953 9.8513 
9.86864 -0.128506 0.0543155 
-0.128506 9.77199 -0.0324488 
0.0543155 -0.0324488 9.79409 
9.75056 0.0230755 -0.0183688 
0.0230755 9.9004 0.0128177 
-0.0183688 0.0128177 9.78376 
9.81681 -0.00706904 0.00922795 
-0.00706904 9.82147 0.05355 
0.00922795 0.05355 9.79643 
9.84391 0.0117507 0.0292074 
0.0117507 9.77689 0.0320745 
0.0292074 0.0320745 9.90331 
9.8976 -0.0171748 -0.0839966 
-0.0171748 9.84372 -0.0605548 
-0.0839966 -0.0605548 9.78279 
9.81707 0.0677448 0.116591 
0.0677448 9.84826 0.0116461 
0.116591 0.0116461 9.85879 
9.78172 -0.0101795 0.0312921 
-0.0101795 9.81754 0.0320817 
0.0312921 0.0320817 9.92485 
9.81293 -0.162031 0.137994 
-0.162031 10.1466 0.0740822 
0.137994 0.0740822 10.1245 
9.85941 -0.0689314 -0.078923 
-0.0689314 9.82946 -0.121856 
-0.078923 -0.121856 10.3951 
10.1814 -0.0406976 0.0570432 
-0.0406976 9.42528 0.134999 
0.0570432 0.134999 10.4774 
10.3026 -0.153409 -0.103271 
-0.153409 9.59349 -0.213448 
-0.103271 -0.213448 10.1879 
9.96551 0.00243828 0.0581228 
0.00243828 9.97364 -0.169224 
0.0581228 -0.169224 9.97443 
9.94958 0.0534754 0.0113933 
0.0534754 9.91521 -0.194824 
0.0113933 -0.194824 10.0488 
9.97205 0.0143166 0.0492918 
0.0143166 10.0301 -0.198233 
0.0492918 -0.198233 9.91141 
9.99427 -0.00644334 0.0445616 
-0.00644334 10.0126 -0.169634 
0.0445616 -0.169634 9.90668 
9.90879 0.0230676 -0.27495 
0.0230676 9.92521 0.131539 
-0.27495 0.131539 10.0159 
9.94369 0.00561241 -0.28888 
0.00561241 9.91394 0.109093 
-0.28888 0.109093 9.99231 
9.96168 -0.00655042 -0.278541 
-0.00655042 9.93171 0.114681 
-0.278541 0.114681 9.95654 
9.96182 -0.0193979 -0.284576 
-0.0193979 9.9495 0.112615 
-0.284576 0.112615 9.93861 
9.89102 0.0389623 -0.552222 
0.0389623 9.90472 -0.210818 
-0.552222 -0.210818 9.90961 
9.86906 -0.0253718 -0.526434 
-0.0253718 9.89806 -0.215001 
-0.526434 -0.215001 9.93823 
9.89699 0.0159873 -0.555489 
0.0159873 9.88398 -0.195799 
-0.555489 -0.195799 9.92439 
9.87045 -0.0447222 -0.509036 
-0.0447222 9.93697 -0.198695 
-0.509036 -0.198695 9.89794 
9.78884 0.0665924 -0.0322838 
0.0665924 9.73491 -0.0314716 
-0.0322838 -0.0314716 9.88683 
9.76403 0.0225057 0.115209 
0.0225057 9.83778 -0.0185251 
0.115209 -0.0185251 9.80877 
9.80428 0.0796545 -0.110893 
0.0796545 9.79324 0.032395 
-0.110893 0.032395 9.81306 
9.70569 0.0850997 -0.0205597 
0.0850997 9.73032 -0.0470977 
-0.0205597 -0.0470977 9.97457 
9.76127 0.0325185 -0.502896 
0.0325185 9.71968 -0.0443907 
-0.502896 -0.0443907 9.76016 
9.58486 -0.0341668 -0.517345 
-0.0341668 9.74295 -0.05984 
-0.517345 -0.05984 9.91329 
9.7929 0.0625489 -0.524781 
0.0625489 9.74954 -0.0396261 
-0.524781 -0.0396261 9.69866 
9.69843 0.0685624 -0.440042 
0.0685624 9.77224 0.0411668 
-0.440042 0.0411668 9.77044 
4.67081 0.861199 -0.0836961 
0.861199 3.75232 0.644093 
-0.0836961 0.644093 0.619418 
2.74732 -1.12999 0.708585 
-1.12999 4.69983 0.905405 
0.708585 0.905405 1.5954 
3.25789 0.427578 0.226376 
0.427578 4.10219 1.63286 
0.226376 1.63286 1.68247 
2.95047 0.445595 0.113727 
0.445595 3.79884 1.60077 
0.113727 1.60077 2.29324 
6.54049 0.371131 0.93052 
0.371131 8.51703 -0.230605 
0.93052 -0.230605 9.83967 
8.29992 0.521462 0.67017 
0.521462 8.55741 0.349837 
0.67017 0.349837 8.03985 
7.90469 0.435886 1.10325 
0.435886 8.7814 -0.11464 
1.10325 -0.11464 8.2111 
7.87915 0.206433 1.51858 
0.206433 8.90579 -0.1213 
1.51858 -0.1213 8.11224 
9.93762 -0.00746529 0.451838 
-0.00746529 9.94331 -0.317881 
0.451838 -0.317881 10.0402 
9.97017 -0.0272351 0.443848 
-0.0272351 9.97575 -0.344385 
0.443848 -0.344385 9.97523 
9.976 -0.01537 0.40785 
-0.01537 10.0187 -0.337425 
0.40785 -0.337425 9.92642 
9.9599 -0.0164117 0.433194 
-0.0164117 10.0129 -0.379824 
0.433194 -0.379824 9.94832 
9.92924 -0.00494696 -0.348889 
-0.00494696 9.95122 -0.451446 
-0.348889 -0.451446 10.0276 
9.98034 0.00124017 -0.350927 
0.00124017 9.9989 -0.480845 
-0.350927 -0.480845 9.92885 
9.96507 -0.0307763 -0.325482 
-0.0307763 9.93668 -0.475743 
-0.325482 -0.475743 10.0063 
9.98409 0.019127 -0.332905 
0.019127 10.0027 -0.467677 
-0.332905 -0.467677 9.92127 
9.1909 -0.22099 0.612194 
-0.22099 9.6157 -0.595121 
0.612194 -0.595121 8.83207 
8.92867 0.156782 0.542116 
0.156782 9.33544 -0.572659 
0.542116 -0.572659 9.37455 
8.97611 0.136383 0.562184 
0.136383 9.49934 -0.39498 
0.562184 -0.39498 9.16322 
9.11075 0.085127 0.458122 
0.085127 9.44127 -0.325878 
0.458122 -0.325878 9.08664 
9.84121 0.0938258 0.0451865 
0.0938258 9.72849 -0.017583 
0.0451865 -0.017583 9.87006 
9.84072 -0.00827021 0.0105672 
-0.00827021 9.76695 0.040434 
0.0105672 0.040434 9.83209 
9.83728 0.0301424 0.0879552 
0.0301424 9.9243 0.0745761 
0.0879552 0.0745761 9.67817 
9.82217 -0.0179564 -0.0483785 
-0.0179564 9.6316 0.0811078 
-0.0483785 0.0811078 9.98598 
9.40628 -0.0861129 0.129653 
-0.0861129 9.10343 -0.776607 
0.129653 -0.776607 9.49796 
9.9228 0.432151 0.632777 
0.432151 8.4956 -0.985987 
0.632777 -0.985987 9.58927 
9.52098 0.347808 0.530493 
0.347808 8.8767 -0.757112 
0.530493 -0.757112 9.60999 
9.21774 0.70529 0.652203 
0.70529 9.30379 -0.486041 
0.652203 -0.486041 9.48613 
9.82472 0.00249944 -0.500595 
0.00249944 9.81218 -0.0274051 
-0.500595 -0.0274051 9.85167 
9.80406 0.00102301 -0.504231 
0.00102301 9.80364 -0.010503 
-0.504231 -0.010503 9.88087 
9.8149 -0.00382566 -0.499394 
-0.00382566 9.83339 -0.0122309 
-0.499394 -0.0122309 9.84028 
9.83409 -0.00929374 -0.520133 
-0.00929374 9.83348 -0.0317223 
-0.520133 -0.0317223 9.821 
8.5136 1.26653 -0.163965 
1.26653 6.45747 1.50295 
-0.163965 1.50295 8.5223 
7.85402 0.101825 -0.150254 
0.101825 7.10626 1.57778 
-0.150254 1.57778 8.53309 
7.25923 -0.914234 0.124033 
-0.914234 9.56715 1.04692 
0.124033 1.04692 6.667 
9.08984 0.0837469 -0.493703 
0.0837469 6.94447 2.47725 
-0.493703 2.47725 7.45906 
10.1295 -0.066478 0.0948712 
-0.066478 10.2837 -0.128392 
0.0948712 -0.128392 9.57444 
10.1465 -0.149078 -0.00969418 
-0.149078 9.98994 -0.132019 
-0.00969418 -0.132019 9.8512 
9.67905 0.0482576 -0.120401 
0.0482576 9.71289 0.208 
-0.120401 0.208 10.5957 
10.1221 0.136523 0.0561148 
0.136523 9.60062 -0.376635 
0.0561148 -0.376635 10.2649 
5.20189 -0.304583 2.29151 
-0.304583 9.4499 -1.01868 
2.29151 -1.01868 3.32276 
8.54335 0.24551 1.59747 
0.24551 7.96428 -0.380737 
1.59747 -0.380737 1.46691 
8.63519 -0.131713 2.96939 
-0.131713 5.44327 -1.8521 
2.96939 -1.8521 3.89609 
7.01612 -0.127438 2.7799 
-0.127438 8.27788 -0.685224 
2.7799 -0.685224 2.68055 
9.74739 2.24009 1.1719 
2.24009 9.76576 -0.24971 
1.1719 -0.24971 13.1801 
10.3206 0.249952 -0.527654 
0.249952 9.83558 0.0659737 
-0.527654 0.0659737 12.537 
10.9534 -1.08068 0.724017 
-1.08068 10.5807 -0.164926 
0.724017 -0.164926 11.1592 
9.8769 0.723078 -0.676877 
0.723078 10.7771 0.00728922 
-0.676877 0.00728922 12.0392 
9.08412 0.366325 0.218133 
0.366325 9.50234 0.0433291 
0.218133 0.0433291 9.58801 
9.33553 0.568761 0.322675 
0.568761 9.22414 0.264298 
0.322675 0.264298 9.6148 
9.18324 0.337875 0.0954467 
0.337875 9.34821 0.0769345 
0.0954467 0.0769345 9.64303 
9.37552 0.177996 0.303151 
0.177996 9.21914 0.0685245 
0.303151 0.0685245 9.57981 
9.92431 -0.0150433 -0.118034 
-0.0150433 9.96181 0.102506 
-0.118034 0.102506 9.95982 
9.9669 -0.0125265 -0.108057 
-0.0125265 9.95985 0.114518 
-0.108057 0.114518 9.91918 
9.89838 -0.0155794 -0.139407 
-0.0155794 9.88904 0.138296 
-0.139407 0.138296 10.0585 
9.98534 -0.00775233 -0.119006 
-0.00775233 9.95368 0.0893067 
-0.119006 0.0893067 9.90691 
8.75086 -0.0969558 0.623894 
-0.0969558 9.46808 -0.337278 
0.623894 -0.337278 9.11031 
8.82351 0.0326907 0.523987 
0.0326907 9.38673 -0.391032 
0.523987 -0.391032 9.11901 
8.74333 0.0248614 0.47555 
0.0248614 9.30203 -0.322734 
0.47555 -0.322734 9.28389 
8.79211 -0.059328 0.606665 
-0.059328 9.3578 -0.407844 
0.606665 -0.407844 9.17934 
9.5585 0.104296 -0.164358 
0.104296 9.77333 -0.754079 
-0.164358 -0.754079 9.33672 
9.55735 -0.0296919 -0.244602 
-0.0296919 9.46862 -0.710407 
-0.244602 -0.710407 9.64258 
9.57334 0.00605048 -0.146431 
0.00605048 9.55252 -0.680479 
-0.146431 -0.680479 9.54269 
9.5158 -0.024292 -0.0855011 
-0.024292 9.62076 -0.612183 
-0.0855011 -0.612183 9.53199 
9.91787 -0.0107927 0.353214 
-0.0107927 9.93643 -0.303455 
0.353214 -0.303455 10.0581 
9.99125 -0.00494558 0.353483 
-0.00494558 10.0039 -0.345951 
0.353483 -0.345951 9.91731 
9.98323 -0.0280686 0.369125 
-0.0280686 9.96396 -0.337911 
0.369125 -0.337911 9.96523 
9.99402 0.0128713 0.381004 
0.0128713 10.0103 -0.336761 
0.381004 -0.336761 9.90811 
9.9361 -0.0109044 -0.428683 
-0.0109044 9.95542 0.326695 
-0.428683 0.326695 10.0256 
9.97239 -0.0232323 -0.419757 
-0.0232323 9.96783 0.342807 
-0.419757 0.342807 9.97693 
9.97464 -0.0151392 -0.394478 
-0.0151392 9.9968 0.341284 
-0.394478 0.341284 9.9457 
9.97132 -0.0145688 -0.408779 
-0.0145688 9.99627 0.369851 
-0.408779 0.369851 9.94957 
8.7908 0.00912917 -0.270416 
0.00912917 9.56147 -0.0603714 
-0.270416 -0.0603714 9.89094 
9.33118 0.112305 -0.236913 
0.112305 9.73761 -0.38711 
-0.236913 -0.38711 9.17441 
9.39835 0.403262 -0.445559 
0.403262 9.45379 -0.0287734 
-0.445559 -0.0287734 9.39107 
9.31636 0.0686164 -0.559516 
0.0686164 9.31194 -0.0841092 
-0.559516 -0.0841092 9.61491 
9.95253 -0.00119824 -0.483202 
-0.00119824 9.95705 -0.113643 
-0.483202 -0.113643 9.93939 
9.94202 0.0159986 -0.472753 
0.0159986 9.91025 -0.105547 
-0.472753 -0.105547 9.99671 
9.92882 -0.00339256 -0.504292 
-0.00339256 9.90669 -0.111041 
-0.504292 -0.111041 10.0135 
9.94725 -0.00413795 -0.47784 
-0.00413795 9.97614 -0.103176 
-0.47784 -0.103176 9.92558 
9.96843 -0.0336182 -0.302618 
-0.0336182 9.99592 0.331521 
-0.302618 0.331521 9.93156 
9.91951 -0.0132183 -0.310596 
-0.0132183 9.95973 0.372798 
-0.310596 0.372798 10.0167 
9.90717 0.00644378 -0.311149 
0.00644378 10.0085 0.33057 
-0.311149 0.33057 9.98024 
9.98515 -0.0126621 -0.306184 
-0.0126621 9.99541 0.319704 
-0.306184 0.319704 9.91535 
9.91837 0.334399 0.24902 
0.334399 9.3103 0.0566725 
0.24902 0.0566725 9.91636 
9.75182 0.265831 -0.0972555 
0.265831 9.32055 0.178314 
-0.0972555 0.178314 10.0727 
9.54626 0.288845 -0.0987731 
0.288845 9.73327 0.105291 
-0.0987731 0.105291 9.8655 
9.4465 0.276355 -0.0928093 
0.276355 9.5999 -0.0209501 
-0.0928093 -0.0209501 10.0986 
9.9068 -0.00467287 0.42119 
-0.00467287 9.92334 -0.18565 
0.42119 -0.18565 10.0222 
9.93063 -0.02742 0.41172 
-0.02742 9.9435 -0.167452 
0.41172 -0.167452 9.97816 
9.94481 -0.0058348 0.429727 
-0.0058348 9.95981 -0.159563 
0.429727 -0.159563 9.94767 
9.94293 -0.00285439 0.434987 
-0.00285439 9.96406 -0.146642 
0.434987 -0.146642 9.94531 
9.90076 -0.00050936 -0.508598 
-0.00050936 9.9578 0.011685 
-0.508598 0.011685 9.99127 
9.9301 0.00643936 -0.510089 
0.00643936 9.94076 0.0306394 
-0.510089 0.0306394 9.97898 
9.93792 0.0236983 -0.498175 
0.0236983 9.94185 0.0148171 
-0.498175 0.0148171 9.97006 
9.95431 0.00626868 -0.510088 
0.00626868 9.95339 0.0150026 
-0.510088 0.0150026 9.94213 
9.96262 0.00926926 -0.40864 
0.00926926 9.91421 -0.0297317 
-0.40864 -0.0297317 9.99085 
9.94737 0.0186271 -0.423232 
0.0186271 9.94011 -0.0163217 
-0.423232 -0.0163217 9.98019 
9.95295 0.0180002 -0.413273 
0.0180002 9.93865 -0.00494679 
-0.413273 -0.00494679 9.97608 
9.95784 0.0235608 -0.43201 
0.0235608 9.9483 -0.0063416 
-0.43201 -0.0063416 9.96154 
9.82226 0.01738 -0.348146 
0.01738 9.88042 0.462753 
-0.348146 0.462753 9.81937 
9.82801 0.0264963 -0.366918 
0.0264963 9.86917 0.46193 
-0.366918 0.46193 9.82488 
9.81175 -0.00827375 -0.321212 
-0.00827375 9.82877 0.438387 
-0.321212 0.438387 9.88154 
9.82828 0.0212927 -0.384318 
0.0212927 9.92872 0.454349 
-0.384318 0.454349 9.76506 
9.64074 0.0613537 -0.530231 
0.0613537 9.72016 -0.366989 
-0.530231 -0.366989 9.60584 
9.57372 -0.0174097 -0.48665 
-0.0174097 9.7544 -0.378444 
-0.48665 -0.378444 9.63862 
9.56127 -0.0237169 -0.505959 
-0.0237169 9.72669 -0.37962 
-0.505959 -0.37962 9.67878 
9.63718 -0.0125639 -0.495464 
-0.0125639 9.70823 -0.320469 
-0.495464 -0.320469 9.62133 
-2.46295 -0.228461 -1.82808 
-0.228461 -0.911015 -2.74825 
-1.82808 -2.74825 20.2925 
12.9147 2.08261 -0.887657 
2.08261 13.9869 3.40559 
-0.887657 3.40559 -9.98308 
9.15839 0.257453 3.39884 
0.257453 13.1483 1.57258 
3.39884 1.57258 -5.38808 
8.70936 -5.07108 8.21256 
-5.07108 1.10115 16.2193 
8.21256 16.2193 7.10805 
11.3073 0.325554 0.0345825 
0.325554 10.9788 -0.0932929 
0.0345825 -0.0932929 10.9701 
11.0578 0.328161 0.495075 
0.328161 10.2683 -0.400299 
0.495075 -0.400299 11.9302 
11.2525 0.251592 0.204453 
0.251592 11.02 -0.11981 
0.204453 -0.11981 10.9839 
11.5108 0.325651 0.363728 
0.325651 11.2406 0.180936 
0.363728 0.180936 10.5049 
7.72563 0.313673 0.957034 
0.313673 9.01559 0.545021 
0.957034 0.545021 8.26212 
8.13934 0.477964 0.86271 
0.477964 8.75323 0.210526 
0.86271 0.210526 8.11076 
7.33265 -0.343851 1.38537 
-0.343851 9.16749 0.600858 
1.38537 0.600858 8.50319 
7.49734 0.660196 1.21789 
0.660196 9.17706 -0.0401996 
1.21789 -0.0401996 8.32893 
8.36179 1.07549 2.40394 
1.07549 8.43676 -2.28133 
2.40394 -2.28133 8.28863 
9.16045 0.322451 1.71308 
0.322451 8.57877 -0.539972 
1.71308 -0.539972 7.34796 
9.51366 -0.136035 1.30954 
-0.136035 7.98938 -1.16002 
1.30954 -1.16002 7.58413 
7.223 0.395858 0.797975 
0.395858 7.65724 -0.796193 
0.797975 -0.796193 10.2069 
9.47249 0.040572 0.367657 
0.040572 9.4408 -0.0862059 
0.367657 -0.0862059 9.71253 
9.55295 0.0919101 0.409248 
0.0919101 9.30886 -0.0186449 
0.409248 -0.0186449 9.76402 
9.49816 0.124964 0.224023 
0.124964 9.4145 -0.0465234 
0.224023 -0.0465234 9.71316 
9.48935 0.0428857 0.235103 
0.0428857 9.37566 -0.0758879 
0.235103 -0.0758879 9.76082 
3.79159 0.303942 -0.647793 
0.303942 4.43016 1.37564 
-0.647793 1.37564 1.61193 
4.26972 0.572831 -0.468386 
0.572831 5.23217 0.634931 
-0.468386 0.634931 0.331793 
4.24855 0.0776545 0.0906344 
0.0776545 4.747 1.7251 
0.0906344 1.7251 0.838126 
2.92513 0.194868 -1.10773 
0.194868 4.56934 2.20272 
-1.10773 2.20272 2.33921 
9.83851 0.0163364 -0.525949 
0.0163364 9.89351 -0.0180566 
-0.525949 -0.0180566 9.9354 
9.87226 0.0169945 -0.533865 
0.0169945 9.92994 -0.0179175 
-0.533865 -0.0179175 9.86523 
9.88028 -0.00470329 -0.536124 
-0.00470329 9.88236 -0.0226845 
-0.536124 -0.0226845 9.90478 
9.92114 0.00454917 -0.553285 
0.00454917 9.86343 -0.0388819 
-0.553285 -0.0388819 9.88285 
9.89169 -0.0143697 0.38027 
-0.0143697 9.92803 -0.485898 
0.38027 -0.485898 9.9329 
9.93727 0.0508487 0.33829 
0.0508487 9.89212 -0.466617 
0.33829 -0.466617 9.92323 
9.92949 0.0360538 0.331351 
0.0360538 9.86099 -0.495602 
0.331351 -0.495602 9.96213 
9.87179 -0.0050231 0.383281 
-0.0050231 9.96471 -0.508106 
0.383281 -0.508106 9.91612 
9.70365 -0.00116286 0.486112 
-0.00116286 9.82534 -0.0470134 
0.486112 -0.0470134 9.87173 
9.834 0.019536 0.470543 
0.019536 9.75726 -0.0573576 
0.470543 -0.0573576 9.80945 
9.79046 0.000674326 0.468319 
0.000674326 9.78813 -0.0478729 
0.468319 -0.0478729 9.82213 
9.81587 -0.0285222 0.433094 
-0.0285222 9.75028 -0.0450724 
0.433094 -0.0450724 9.83456 
9.92948 0.012895 0.233927 
0.012895 9.89104 0.617426 
0.233927 0.617426 9.85031 
9.97482 -0.0279668 0.251962 
-0.0279668 9.71632 0.582078 
0.251962 0.582078 9.97969 
9.87868 -0.00029123 0.26724 
-0.00029123 9.92685 0.604207 
0.26724 0.604207 9.8653 
9.85764 0.0214219 0.241912 
0.0214219 9.93308 0.568734 
0.241912 0.568734 9.8801 
9.90954 0.00639432 0.46354 
0.00639432 9.91058 -0.0814968 
0.46354 -0.0814968 9.92462 
9.88576 -0.00934375 0.458659 
-0.00934375 9.90849 -0.0759164 
0.458659 -0.0759164 9.95049 
9.91665 -0.00677512 0.475984 
-0.00677512 9.8798 -0.099285 
0.475984 -0.099285 9.9483 
9.9298 -0.00112414 0.480612 
-0.00112414 9.90126 -0.100409 
0.480612 -0.100409 9.91369 
5.64701 -0.422721 -1.26912 
-0.422721 8.38343 -0.368261 
-1.26912 -0.368261 13.6036 
7.91968 -0.640298 -0.415428 
-0.640298 10.2813 0.770204 
-0.415428 0.770204 9.43305 
8.34364 -0.326186 -0.748473 
-0.326186 10.9012 0.62569 
-0.748473 0.62569 8.38918 
7.19754 -0.30451 -0.0924839 
-0.30451 10.6727 -0.310898 
-0.0924839 -0.310898 9.76371 
8.33666 -0.628598 0.0925913 
-0.628598 8.58047 -0.890181 
0.0925913 -0.890181 7.88949 
8.51486 0.0863987 0.0396074 
0.0863987 7.87882 -1.43051 
0.0396074 -1.43051 8.41294 
8.59693 0.394214 -0.0490984 
0.394214 6.91852 -1.19579 
-0.0490984 -1.19579 9.29117 
8.38581 0.0928903 0.251373 
0.0928903 8.21301 -1.88203 
0.251373 -1.88203 8.2078 
9.95918 0.00941619 0.537967 
0.00941619 9.98295 0.178721 
0.537967 0.178721 9.90304 
9.97036 0.0333647 0.512847 
0.0333647 9.89498 0.216438 
0.512847 0.216438 9.97984 
9.95493 0.012247 0.509075 
0.012247 9.9581 0.175773 
0.509075 0.175773 9.93214 
9.91043 0.00306874 0.496296 
0.00306874 9.91131 0.225922 
0.496296 0.225922 10.0234 
12.5372 -0.409254 0.1431 
-0.409254 11.0367 -0.27178 
0.1431 -0.27178 10.6335 
11.2078 -0.263241 -0.368407 
-0.263241 11.2562 -0.291004 
-0.368407 -0.291004 11.7434 
10.6154 -0.304682 0.194047 
-0.304682 10.5654 -0.660336 
0.194047 -0.660336 13.0266 
11.2771 -0.288918 -0.577312 
-0.288918 11.1585 -0.0101729 
-0.577312 -0.0101729 11.7719 
9.75158 0.0154051 -0.418528 
0.0154051 9.79787 -0.433719 
-0.418528 -0.433719 9.70295 
9.73476 0.0429109 -0.425585 
0.0429109 9.82813 -0.452313 
-0.425585 -0.452313 9.6895 
9.74651 -0.0287195 -0.370984 
-0.0287195 9.7664 -0.41234 
-0.370984 -0.41234 9.73948 
9.77089 0.0139595 -0.458665 
0.0139595 9.8289 -0.428983 
-0.458665 -0.428983 9.65261 
9.20618 0.0141682 -0.0878383 
0.0141682 9.40742 0.0485993 
-0.0878383 0.0485993 9.91222 
9.31727 0.456853 -0.110556 
0.456853 9.58129 0.316562 
-0.110556 0.316562 9.62727 
9.15348 0.809401 0.336178 
0.809401 9.16505 -0.0180131 
0.336178 -0.0180131 10.2073 
9.00018 -1.26066 0.925902 
-1.26066 10.2612 -0.316098 
0.925902 -0.316098 9.26447 
9.96964 0.0220848 -0.219374 
0.0220848 9.9944 -0.542654 
-0.219374 -0.542654 9.88602 
9.88642 -0.0015314 -0.213944 
-0.0015314 10.0174 -0.563696 
-0.213944 -0.563696 9.94619 
9.98484 0.02652 -0.277269 
0.02652 9.9784 -0.610728 
-0.277269 -0.610728 9.88681 
9.86738 0.0228293 -0.155389 
0.0228293 9.84755 -0.617149 
-0.155389 -0.617149 10.1351 
9.5292 0.065146 -0.329304 
0.065146 9.63215 0.545519 
-0.329304 0.545519 9.49764 
9.53745 -0.0683818 -0.294898 
-0.0683818 9.86239 0.690906 
-0.294898 0.690906 9.25915 
9.52937 0.146298 -0.317393 
0.146298 9.43511 0.651166 
-0.317393 0.651166 9.69451 
9.56146 0.062542 -0.291533 
0.062542 9.61717 0.406729 
-0.291533 0.406729 9.48037 
9.91471 -0.0333985 -0.506453 
-0.0333985 9.88356 -0.0389506 
-0.506453 -0.0389506 9.88315 
9.87682 -0.000644793 -0.506481 
-0.000644793 9.88729 0.000155211 
-0.506481 0.000155211 9.91731 
9.87752 -0.0331324 -0.532705 
-0.0331324 9.84661 0.0871111 
-0.532705 0.0871111 9.95729 
9.88765 0.00734974 -0.516045 
0.00734974 9.87391 0.0485986 
-0.516045 0.0485986 9.91986 
9.21688 0.00663062 0.242569 
0.00663062 9.32054 0.686277 
0.242569 0.686277 9.28679 
9.22464 0.0318261 0.224777 
0.0318261 9.34215 0.692635 
0.224777 0.692635 9.25743 
9.21013 0.015065 0.23161 
0.015065 9.31613 0.681373 
0.23161 0.681373 9.29795 
9.19013 -0.015821 0.222799 
-0.015821 9.32971 0.68472 
0.222799 0.68472 9.30437 
3.00921 0.445832 -0.12868 
0.445832 3.96203 0.427747 
-0.12868 0.427747 1.38441 
2.44519 0.254127 -0.819713 
0.254127 3.3667 0.155906 
-0.819713 0.155906 2.54376 
4.07037 1.36671 0.131371 
1.36671 5.18049 -0.85955 
0.131371 -0.85955 -0.895215 
2.55996 0.149724 -1.49175 
0.149724 3.58355 0.996189 
-1.49175 0.996189 2.21213 
9.91069 -0.00298319 -0.139203 
-0.00298319 9.92886 0.0372571 
-0.139203 0.0372571 10.0126 
9.98802 0.00172746 -0.142622 
0.00172746 9.95247 0.0247282 
-0.142622 0.0247282 9.91165 
9.92034 -0.0306554 -0.126843 
-0.0306554 9.91137 -0.0115299 
-0.126843 -0.0115299 10.0204 
10.0046 0.00143765 -0.103487 
0.00143765 9.92129 0.0353608 
-0.103487 0.0353608 9.92621 
8.8901 0.138875 0.362392 
0.138875 9.80295 -0.214371 
0.362392 -0.214371 9.6848 
9.45786 -0.580801 0.0358365 
-0.580801 9.5929 -0.125887 
0.0358365 -0.125887 9.32708 
8.71809 0.365532 0.157034 
0.365532 9.8034 -0.249639 
0.157034 -0.249639 9.85635 
8.49034 -0.356621 0.531719 
-0.356621 10.1651 -0.0779514 
0.531719 -0.0779514 9.72236 
6.11775 2.55185 -3.93886 
2.55185 10.5091 2.48405 
-3.93886 2.48405 8.49687 
6.06646 0.869949 -3.75883 
0.869949 9.60183 2.03711 
-3.75883 2.03711 9.45543 
5.8158 1.47861 -2.75705 
1.47861 9.50503 1.02571 
-2.75705 1.02571 9.80289 
10.1241 -1.33723 -0.658488 
-1.33723 7.60296 0.263699 
-0.658488 0.263699 7.39666 
7.27636 -0.692615 0.202055 
-0.692615 8.00308 -2.27048 
0.202055 -2.27048 -3.01404 
2.19845 -0.291147 -0.523232 
-0.291147 1.17075 1.09122 
-0.523232 1.09122 8.89621 
6.13009 -3.44077 2.63385 
-3.44077 14.14 -1.13056 
2.63385 -1.13056 -8.00471 
5.00896 2.3677 2.37594 
2.3677 3.94883 -7.904 
2.37594 -7.904 3.30761 
9.82146 0.0228132 -0.0115811 
0.0228132 9.94423 0.0485227 
-0.0115811 0.0485227 10.2145 
10.0071 -0.0157046 0.0523171 
-0.0157046 9.93338 0.0743078 
0.0523171 0.0743078 10.0397 
9.98663 0.00958004 0.0566391 
0.00958004 10.0241 0.0717994 
0.0566391 0.0717994 9.96941 
9.87724 -0.0611137 0.112186 
-0.0611137 9.98323 0.147116 
0.112186 0.147116 10.1197 
9.5562 0.0619691 -0.148171 
0.0619691 9.47677 0.682652 
-0.148171 0.682652 9.55691 
9.37015 -0.0251371 -0.262171 
-0.0251371 9.71789 0.625634 
-0.262171 0.625634 9.50183 
9.54209 0.0512226 -0.212264 
0.0512226 9.63615 0.709923 
-0.212264 0.709923 9.41163 
9.51338 0.135158 -0.17839 
0.135158 9.59983 0.698626 
-0.17839 0.698626 9.47667 
9.93809 0.00682284 0.280958 
0.00682284 9.87719 -0.0623724 
0.280958 -0.0623724 9.98455 
9.8668 -0.010199 0.291654 
-0.010199 9.92726 -0.0318007 
0.291654 -0.0318007 10.0058 
9.95244 -0.0436933 0.273793 
-0.0436933 9.88907 -0.0267204 
0.273793 -0.0267204 9.95833 
9.95362 -0.00993841 0.27427 
-0.00993841 9.90329 -0.0365584 
0.27427 -0.0365584 9.94293 
9.85491 0.00697681 -0.272769 
0.00697681 9.91599 -0.600271 
-0.272769 -0.600271 9.87647 
9.90231 -0.00970852 -0.259218 
-0.00970852 9.87483 -0.611602 
-0.259218 -0.611602 9.87023 
9.87728 -0.00962864 -0.288498 
-0.00962864 9.908 -0.624792 
-0.288498 -0.624792 9.86209 
9.92721 -0.0221028 -0.250269 
-0.0221028 9.78657 -0.609287 
-0.250269 -0.609287 9.93359 
9.97334 -0.0143697 -0.142015 
-0.0143697 10.009 -0.644638 
-0.142015 -0.644638 9.8746 
9.95214 0.0133796 -0.111477 
0.0133796 9.964 -0.62106 
-0.111477 -0.62106 9.94079 
9.95119 0.0145796 -0.117687 
0.0145796 9.99387 -0.586375 
-0.117687 -0.586375 9.91187 
9.88976 0.0175357 -0.0735408 
0.0175357 9.88213 -0.62619 
-0.0735408 -0.62619 10.085 
9.64267 -0.0301342 0.00797243 
-0.0301342 9.43764 0.691923 
0.00797243 0.691923 9.7176 
9.67285 0.0340774 -0.00123631 
0.0340774 9.5273 0.665399 
-0.00123631 0.665399 9.59776 
9.58676 0.0153924 -0.0354882 
0.0153924 9.75408 0.796066 
-0.0354882 0.796066 9.45708 
9.62854 -0.0357957 -0.0822111 
-0.0357957 9.67307 0.681232 
-0.0822111 0.681232 9.49631 
9.99419 0.0218099 0.307154 
0.0218099 10.0344 0.295254 
0.307154 0.295254 9.93371 
10.0061 0.03549 0.301001 
0.03549 10.0155 0.300936 
0.301001 0.300936 9.94065 
9.91572 0.013295 0.300679 
0.013295 9.93645 0.285619 
0.300679 0.285619 10.1101 
10.0158 0.00929197 0.324507 
0.00929197 10.0271 0.341259 
0.324507 0.341259 9.91935 
9.20795 0.712376 0.328328 
0.712376 8.89525 0.0549013 
0.328328 0.0549013 9.08783 
8.59952 0.298168 0.644728 
0.298168 9.19641 -0.0479994 
0.644728 -0.0479994 9.3951 
8.75877 0.462762 0.423879 
0.462762 9.25275 0.0268798 
0.423879 0.0268798 9.17951 
8.59364 0.616808 0.582545 
0.616808 9.30859 -0.153429 
0.582545 -0.153429 9.28879 
9.78699 0.00799555 -0.527717 
0.00799555 9.83813 -0.0924222 
-0.527717 -0.0924222 9.85265 
9.79854 0.0150625 -0.51965 
0.0150625 9.84557 -0.0951266 
-0.51965 -0.0951266 9.83367 
9.80145 0.0151826 -0.510525 
0.0151826 9.84062 -0.111969 
-0.510525 -0.111969 9.83571 
9.80592 0.0179179 -0.539824 
0.0179179 9.85343 -0.108006 
-0.539824 -0.108006 9.81843 
10.1248 -0.407818 -0.081346 
-0.407818 9.77922 0.0385386 
-0.081346 0.0385386 10.2621 
9.98987 0.0913856 0.076665 
0.0913856 10.218 -0.0396013 
0.076665 -0.0396013 9.95829 
10.0481 0.240042 -0.082941 
0.240042 10.1734 -0.0949618 
-0.082941 -0.0949618 9.94465 
10.1328 -0.0348828 -0.021232 
-0.0348828 10.1413 -0.0607169 
-0.021232 -0.0607169 9.89208 
7.39114 1.12303 5.28651 
1.12303 8.90059 -2.08125 
5.28651 -2.08125 7.10551 
6.45706 0.662963 4.64044 
0.662963 9.85398 -1.29512 
4.64044 -1.29512 7.08619 
4.93881 1.66244 3.25503 
1.66244 9.51563 -0.846805 
3.25503 -0.846805 8.9428 
10.711 -1.69775 1.12727 
-1.69775 7.04282 -0.254119 
1.12727 -0.254119 5.64344 
9.987 0.00220472 -0.260278 
0.00220472 9.9997 -0.447357 
-0.260278 -0.447357 9.95009 
9.93681 0.0079371 -0.267157 
0.0079371 10.0021 -0.43925 
-0.267157 -0.43925 9.99784 
9.93094 0.0244624 -0.274176 
0.0244624 9.97586 -0.458607 
-0.274176 -0.458607 10.03 
10.0072 -0.00364375 -0.271275 
-0.00364375 9.99028 -0.43437 
-0.271275 -0.43437 9.93933 
9.91585 -0.00954121 -0.443793 
-0.00954121 9.94417 -0.345212 
-0.443793 -0.345212 10.0115 
9.95329 0.00178629 -0.441874 
0.00178629 10.0083 -0.383594 
-0.441874 -0.383594 9.90993 
9.93375 -0.0365878 -0.406948 
-0.0365878 9.8964 -0.363386 
-0.406948 -0.363386 10.0414 
9.9641 0.0258897 -0.423283 
0.0258897 9.9958 -0.349692 
-0.423283 -0.349692 9.91164 
9.32946 0.0649289 0.556672 
0.0649289 9.55148 0.0208861 
0.556672 0.0208861 9.69771 
9.65243 0.205463 0.428674 
0.205463 9.51751 0.0272963 
0.428674 0.0272963 9.40871 
9.63161 0.145995 0.401599 
0.145995 9.44452 0.0254914 
0.401599 0.0254914 9.50251 
9.4158 0.167207 0.400972 
0.167207 9.52187 -0.0841569 
0.400972 -0.0841569 9.64099 
9.98335 -0.16582 -0.436436 
-0.16582 10.7539 -0.593803 
-0.436436 -0.593803 9.77296 
9.94351 0.0852582 -0.521817 
0.0852582 10.6164 -0.410116 
-0.521817 -0.410116 9.95036 
9.14914 -0.196354 0.421035 
-0.196354 9.46284 0.265098 
0.421035 0.265098 11.8982 
9.35223 -0.546821 -1.01631 
-0.546821 10.4545 -0.351079 
-1.01631 -0.351079 10.7035 
8.50867 -0.259786 1.7236 
-0.259786 8.70891 -0.245667 
1.7236 -0.245667 9.06894 
7.75923 -0.758235 2.0627 
-0.758235 10.0554 0.809315 
2.0627 0.809315 8.47191 
9.1617 -0.47578 -0.0934096 
-0.47578 8.77993 0.880939 
-0.0934096 0.880939 8.34488 
8.03674 -0.704598 0.845698 
-0.704598 9.15188 -0.648602 
0.845698 -0.648602 9.09789 
8.91885 0.00995 0.194953 
0.00995 7.88276 -1.10215 
0.194953 -1.10215 8.78562 
8.92393 -0.0931733 0.245955 
-0.0931733 7.93044 -0.835068 
0.245955 -0.835068 8.73286 
8.57784 -0.217784 0.0132956 
-0.217784 8.6048 -0.817293 
0.0132956 -0.817293 8.40459 
8.72991 -0.443228 0.103509 
-0.443228 8.18308 -1.04116 
0.103509 -1.04116 8.67424 
3.39789 -2.69139 1.17483 
-2.69139 8.23424 0.474629 
1.17483 0.474629 -1.80554 
2.3881 1.56447 -1.65573 
1.56447 2.78095 1.60123 
-1.65573 1.60123 4.65754 
6.8459 -0.365499 0.430028 
-0.365499 6.00029 0.631752 
0.430028 0.631752 -3.0196 
6.37735 -1.33878 -0.641447 
-1.33878 3.52678 4.20746 
-0.641447 4.20746 -0.0775438 
9.79361 -0.0888289 -0.0404471 
-0.0888289 9.85037 -0.0172853 
-0.0404471 -0.0172853 9.78704 
9.70407 0.0953111 0.0315748 
0.0953111 9.83012 0.00570123 
0.0315748 0.00570123 9.89683 
9.82188 -0.0933898 0.0363637 
-0.0933898 9.82494 -0.040119 
0.0363637 -0.040119 9.7842 
9.79052 -0.0055799 0.00364703 
-0.0055799 9.8552 -0.0145247 
0.00364703 -0.0145247 9.7853 
9.76101 -0.429624 -0.588629 
-0.429624 10.0923 0.278252 
-0.588629 0.278252 6.7601 
8.86262 -0.239247 0.0621952 
-0.239247 9.05691 0.0613993 
0.0621952 0.0613993 8.69385 
9.25523 0.318566 0.106987 
0.318566 9.399 0.694216 
0.106987 0.694216 7.95916 
9.42037 0.340827 -0.245632 
0.340827 9.1621 0.704216 
-0.245632 0.704216 8.03092 
9.80587 0.00573023 -0.486826 
0.00573023 9.81566 0.0519923 
-0.486826 0.0519923 9.90063 
9.83529 0.0134526 -0.497641 
0.0134526 9.80562 0.0534436 
-0.497641 0.0534436 9.88125 
9.81412 0.0394849 -0.489482 
0.0394849 9.879 0.0239823 
-0.489482 0.0239823 9.82904 
9.85611 0.024829 -0.509125 
0.024829 9.86861 0.0413154 
-0.509125 0.0413154 9.79744 
9.32653 -0.0757762 -0.35636 
-0.0757762 9.29509 -0.830042 
-0.35636 -0.830042 9.17238 
9.31273 0.117623 -0.428554 
0.117623 9.46172 -0.77308 
-0.428554 -0.77308 9.01955 
9.24268 0.107864 -0.373414 
0.107864 9.3715 -0.75476 
-0.373414 -0.75476 9.17982 
9.27361 -0.0305284 -0.417877 
-0.0305284 9.36944 -0.796962 
-0.417877 -0.796962 9.15095 
7.42716 -0.148371 1.88026 
-0.148371 8.39346 0.372707 
1.88026 0.372707 7.58046 
6.77394 -0.326532 1.70172 
-0.326532 8.1773 0.451543 
1.70172 0.451543 8.44985 
7.57875 0.362264 1.02228 
0.362264 8.66434 0.741595 
1.02228 0.741595 7.158 
7.37788 -0.0783254 1.9974 
-0.0783254 8.56995 0.81831 
1.9974 0.81831 7.45326 
9.54805 0.125018 0.387423 
0.125018 9.56418 -0.0553759 
0.387423 -0.0553759 9.67348 
9.44832 0.149972 0.340355 
0.149972 9.65685 -0.0132094 
0.340355 -0.0132094 9.68054 
9.67881 0.025184 0.368267 
0.025184 9.50126 -0.0790823 
0.368267 -0.0790823 9.60564 
9.61843 0.142181 0.402907 
0.142181 9.47749 -0.0493778 
0.402907 -0.0493778 9.6898 
8.35775 -0.407025 -0.594705 
-0.407025 9.07182 0.0198966 
-0.594705 0.0198966 12.6243 
10.1151 0.553241 0.473844 
0.553241 10.3272 -0.395897 
0.473844 -0.395897 9.61148 
10.9132 0.520482 0.422042 
0.520482 9.83915 -0.791436 
0.422042 -0.791436 9.30143 
8.85971 1.16954 1.66121 
1.16954 10.227 -0.737985 
1.66121 -0.737985 10.9671 
9.6843 0.00464033 0.0945804 
0.00464033 9.67803 0.677398 
0.0945804 0.677398 9.79928 
9.73112 0.0121451 0.0434887 
0.0121451 9.71694 0.646225 
0.0434887 0.646225 9.71355 
9.70573 0.0054806 0.0680584 
0.0054806 9.84746 0.690517 
0.0680584 0.690517 9.60842 
9.72508 -0.00562654 0.0415188 
-0.00562654 9.73778 0.587547 
0.0415188 0.587547 9.69875 
9.92757 -0.0226922 0.113172 
-0.0226922 9.88485 0.623584 
0.113172 0.623584 9.85347 
9.83633 0.0310755 0.0524014 
0.0310755 9.87609 0.545626 
0.0524014 0.545626 9.95346 
9.912 -0.0190687 0.108726 
-0.0190687 9.89036 0.57299 
0.108726 0.57299 9.86352 
9.84386 0.044043 0.186213 
0.044043 10.039 0.581746 
0.186213 0.581746 9.78298 
7.99977 0.287637 -0.536909 
0.287637 7.58899 -1.76906 
-0.536909 -1.76906 7.36605 
8.26687 -0.469312 -0.765591 
-0.469312 6.77442 -1.78992 
-0.765591 -1.78992 7.91352 
7.68697 0.658478 -0.297977 
0.658478 8.53801 -1.15029 
-0.297977 -1.15029 6.72982 
8.55646 0.565747 -0.347597 
0.565747 7.36067 -2.21875 
-0.347597 -2.21875 7.03768 
9.9676 0.0680602 -0.050441 
0.0680602 9.74214 0.0248068 
-0.050441 0.0248068 9.81912 
9.9362 0.0155295 0.0522254 
0.0155295 9.78176 0.0789609 
0.0522254 0.0789609 9.8109 
9.76896 0.0134697 0.023602 
0.0134697 9.84688 0.0194677 
0.023602 0.0194677 9.91302 
9.77798 0.0313634 0.052247 
0.0313634 9.87234 -0.0518176 
0.052247 -0.0518176 9.87854 
8.57331 0.197569 0.380719 
0.197569 9.45649 -0.147215 
0.380719 -0.147215 9.85221 
8.75758 -0.17165 0.613228 
-0.17165 9.81431 0.0114573 
0.613228 0.0114573 9.31012 
8.82315 0.248393 0.0753102 
0.248393 9.73095 -0.412999 
0.0753102 -0.412999 9.3279 
8.77317 -0.0400583 0.441213 
-0.0400583 9.54045 -0.197515 
0.441213 -0.197515 9.56838 
9.7299 -0.153336 0.484223 
-0.153336 9.85571 -0.309574 
0.484223 -0.309574 9.54898 
9.54791 0.114464 0.503159 
0.114464 9.66977 -0.333636 
0.503159 -0.333636 9.91691 
9.66434 -0.0321219 0.455962 
-0.0321219 9.76025 -0.275667 
0.455962 -0.275667 9.71 
9.5873 -0.0153192 0.383484 
-0.0153192 9.79982 -0.0992173 
0.383484 -0.0992173 9.74747 
9.98061 -0.0238093 0.170474 
-0.0238093 10.0285 -0.436418 
0.170474 -0.436418 9.93311 
9.98194 -0.00312745 0.182367 
-0.00312745 10.0647 -0.412117 
0.182367 -0.412117 9.89562 
9.92098 -0.0362497 0.114338 
-0.0362497 9.91511 -0.431033 
0.114338 -0.431033 10.1061 
10.0225 0.0133818 0.178528 
0.0133818 10.0358 -0.470246 
0.178528 -0.470246 9.88396 
9.8552 -0.0284398 0.0171021 
-0.0284398 9.87981 0.0375316 
0.0171021 0.0375316 9.92847 
9.86168 -0.0397332 0.00129997 
-0.0397332 9.89033 0.0159684 
0.00129997 0.0159684 9.91148 
9.94483 0.0594661 -0.0617162 
0.0594661 9.93416 0.0147261 
-0.0617162 0.0147261 9.7845 
9.91937 -0.0627697 0.0227217 
-0.0627697 9.81369 0.0581827 
0.0227217 0.0581827 9.93043 
9.95346 0.0116483 0.531714 
0.0116483 9.85106 0.0377523 
0.531714 0.0377523 9.88787 
9.83877 0.0210512 0.503357 
0.0210512 9.90233 0.0071644 
0.503357 0.0071644 9.9513 
9.89827 -0.0182013 0.503063 
-0.0182013 9.87838 0.00488778 
0.503063 0.00488778 9.91574 
9.87349 0.023002 0.502829 
0.023002 9.94824 0.00122794 
0.502829 0.00122794 9.87066 
9.58247 0.0884981 0.385031 
0.0884981 9.66883 -0.451081 
0.385031 -0.451081 9.83838 
9.61286 0.0373637 0.410366 
0.0373637 9.79229 -0.406549 
0.410366 -0.406549 9.68453 
9.66633 -0.0511667 0.475521 
-0.0511667 9.82767 -0.47312 
0.475521 -0.47312 9.59569 
9.674 -0.0119177 0.435628 
-0.0119177 9.78518 -0.386497 
0.435628 -0.386497 9.6305 
9.82844 -0.00354813 -0.515056 
-0.00354813 9.92814 0.0340898 
-0.515056 0.0340898 9.97087 
9.91373 0.00488395 -0.527863 
0.00488395 9.90445 0.0403045 
-0.527863 0.0403045 9.90928 
9.90975 0.00943551 -0.521099 
0.00943551 9.90309 0.0524435 
-0.521099 0.0524435 9.91461 
9.91896 0.0107829 -0.538459 
0.0107829 9.91914 0.041684 
-0.538459 0.041684 9.88935 
9.79791 -0.00479113 -0.0688694 
-0.00479113 9.81714 0.66331 
-0.0688694 0.66331 9.77467 
9.83923 -0.000979346 -0.0470691 
-0.000979346 9.79618 0.659659 
-0.0470691 0.659659 9.75432 
9.76521 0.0202409 -0.0605311 
0.0202409 9.77389 0.564807 
-0.0605311 0.564807 9.85064 
9.92943 0.0506198 -0.00781531 
0.0506198 9.92166 0.634719 
-0.00781531 0.634719 9.53864 
9.97842 -0.00819812 -0.324391 
-0.00819812 9.93702 0.171322 
-0.324391 0.171322 9.96695 
9.94327 0.000352938 -0.3089 
0.000352938 9.94884 0.167627 
-0.3089 0.167627 9.99027 
9.96153 -0.0152286 -0.325872 
-0.0152286 9.94186 0.154612 
-0.325872 0.154612 9.97899 
9.9727 -0.00982382 -0.3277 
-0.00982382 9.95443 0.173005 
-0.3277 0.173005 9.95526 
9.23046 0.302311 0.0638895 
0.302311 9.60854 -0.158377 
0.0638895 -0.158377 9.76199 
9.08408 0.0775671 0.220412 
0.0775671 9.77169 -0.291393 
0.220412 -0.291393 9.74523 
9.03088 0.232737 -0.133267 
0.232737 9.6932 -0.406566 
-0.133267 -0.406566 9.87692 
9.29864 0.290453 0.148978 
0.290453 9.7105 -0.18147 
0.148978 -0.18147 9.59185 
9.7962 -0.0339075 -0.466441 
-0.0339075 9.89349 -0.406724 
-0.466441 -0.406724 9.85138 
9.81873 -0.00332793 -0.480574 
-0.00332793 9.91693 -0.421331 
-0.480574 -0.421331 9.8054 
9.81073 -0.0225503 -0.425996 
-0.0225503 9.88632 -0.452057 
-0.425996 -0.452057 9.84402 
9.82478 -0.00134428 -0.401841 
-0.00134428 9.91705 -0.477391 
-0.401841 -0.477391 9.79923 
9.88157 0.0203904 -0.383293 
0.0203904 9.90703 -0.515836 
-0.383293 -0.515836 9.86043 
9.89244 -0.0097142 -0.338473 
-0.0097142 9.85795 -0.511071 
-0.338473 -0.511071 9.89864 
9.85959 -0.000239741 -0.422429 
-0.000239741 9.90134 -0.480941 
-0.422429 -0.480941 9.88809 
9.90476 0.0335211 -0.445592 
0.0335211 9.89354 -0.459428 
-0.445592 -0.459428 9.85072 
7.82197 -0.187885 0.284815 
-0.187885 10.3038 -0.409357 
0.284815 -0.409357 7.36425 
8.5888 -0.182034 0.0807352 
-0.182034 7.9009 -0.852058 
0.0807352 -0.852058 9.00032 
9.19407 -0.333175 -0.178305 
-0.333175 5.89995 -0.39605 
-0.178305 -0.39605 10.396 
9.06603 0.523493 -0.730233 
0.523493 7.63287 -2.36748 
-0.730233 -2.36748 8.79112 
9.94858 -0.00251549 0.0609748 
-0.00251549 9.98971 0.171252 
0.0609748 0.171252 9.95202 
9.95178 0.0237077 0.0621654 
0.0237077 9.99927 0.158699 
0.0621654 0.158699 9.93925 
9.89688 -0.0151399 0.0754928 
-0.0151399 9.92307 0.143238 
0.0754928 0.143238 10.0704 
9.98929 4.96241e-05 0.0663814 
4.96241e-05 9.98882 0.194128 
0.0663814 0.194128 9.91219 
9.87961 -0.00488265 -0.360265 
-0.00488265 9.94719 0.494572 
-0.360265 0.494572 9.9057 
9.91773 0.0316273 -0.338295 
0.0316273 9.86015 0.481808 
-0.338295 0.481808 9.95461 
9.93518 0.042494 -0.319833 
0.042494 9.89167 0.469473 
-0.319833 0.469473 9.90565 
9.89184 -0.0178679 -0.357624 
-0.0178679 9.91666 0.478222 
-0.357624 0.478222 9.92399 
7.76646 -1.67569 0.706674 
-1.67569 7.26548 1.08076 
0.706674 1.08076 8.39502 
7.85831 -0.698937 1.29996 
-0.698937 7.46854 2.00263 
1.29996 2.00263 8.1001 
8.27777 -0.0516974 1.31205 
-0.0516974 7.13043 1.65106 
1.31205 1.65106 8.01876 
7.44053 -0.768025 0.957691 
-0.768025 8.39705 2.03428 
0.957691 2.03428 7.58938 
9.91529 -0.0478385 0.505864 
-0.0478385 9.9662 0.208071 
0.505864 0.208071 9.88725 
9.92378 0.0598913 0.532428 
0.0598913 9.93165 0.216259 
0.532428 0.216259 9.91331 
9.93979 0.0346057 0.528873 
0.0346057 9.90411 0.187458 
0.528873 0.187458 9.92484 
9.87457 -0.0580636 0.527091 
-0.0580636 9.91755 0.191499 
0.527091 0.191499 9.97662 
9.92747 -0.00621837 -0.224555 
-0.00621837 10.9127 0.273428 
-0.224555 0.273428 9.82276 
10.7332 -0.470732 0.0692277 
-0.470732 9.4123 0.783288 
0.0692277 0.783288 10.5174 
10.1907 -0.36592 0.383037 
-0.36592 9.60008 -0.348096 
0.383037 -0.348096 10.8721 
11.0349 -0.101848 0.236918 
-0.101848 9.12244 -0.456983 
0.236918 -0.456983 10.5056 
10.9302 0.284807 0.0124012 
0.284807 10.0291 -0.0796145 
0.0124012 -0.0796145 13.1994 
12.0259 -1.03711 0.495851 
-1.03711 10.9376 -0.0844479 
0.495851 -0.0844479 11.1953 
8.95322 -0.425063 -0.0525794 
-0.425063 13.3834 -0.594498 
-0.0525794 -0.594498 11.8221 
11.2484 -0.415218 0.253504 
-0.415218 11.3937 -0.0500871 
0.253504 -0.0500871 11.5167 
9.89802 -0.0195553 0.101623 
-0.0195553 9.88405 -0.547799 
0.101623 -0.547799 9.88901 
9.9419 0.0132826 0.119801 
0.0132826 9.87892 -0.648221 
0.119801 -0.648221 9.85026 
9.86188 0.00554021 0.135683 
0.00554021 9.91764 -0.55037 
0.135683 -0.55037 9.89156 
9.82375 -0.0243986 0.142617 
-0.0243986 10.0971 -0.586142 
0.142617 -0.586142 9.75019 
9.67259 0.0637183 -0.151728 
0.0637183 9.58672 0.689287 
-0.151728 0.689287 9.80826 
9.70914 0.0686637 -0.164955 
0.0686637 9.70173 0.631922 
-0.164955 0.631922 9.6567 
9.66171 -0.0486845 -0.145207 
-0.0486845 9.86295 0.710346 
-0.145207 0.710346 9.54291 
9.70249 0.0393674 -0.126734 
0.0393674 9.73914 0.552753 
-0.126734 0.552753 9.62594 
9.03311 -0.0532659 0.118161 
-0.0532659 8.9115 0.90947 
0.118161 0.90947 9.19758 
8.91641 0.0253975 0.12962 
0.0253975 9.48768 0.935642 
0.12962 0.935642 8.7381 
9.0759 -0.0923745 0.181711 
-0.0923745 9.03953 0.798713 
0.181711 0.798713 9.02676 
9.04823 -0.0409073 0.160961 
-0.0409073 9.08816 0.685426 
0.160961 0.685426 9.0058 
9.92433 -0.00695947 -0.300628 
-0.00695947 9.91685 0.492291 
-0.300628 0.492291 10.0229 
9.96067 0.00199583 -0.348051 
0.00199583 9.9822 0.47275 
-0.348051 0.47275 9.92123 
9.9399 -0.0411775 -0.322801 
-0.0411775 9.94483 0.490138 
-0.322801 0.490138 9.97937 
9.95831 -0.00496876 -0.335034 
-0.00496876 9.96139 0.468914 
-0.335034 0.468914 9.9444 
9.93418 -0.0250145 0.432221 
-0.0250145 9.90285 -0.109059 
0.432221 -0.109059 10.0243 
9.97089 0.00027534 0.407648 
0.00027534 9.95442 -0.108793 
0.407648 -0.108793 9.93603 
9.93513 -0.0126054 0.424069 
-0.0126054 9.9395 -0.0840901 
0.424069 -0.0840901 9.9867 
9.95494 -0.0120945 0.385095 
-0.0120945 9.9437 -0.0870448 
0.385095 -0.0870448 9.9627 
9.93302 -0.00439644 -0.0346961 
-0.00439644 9.9122 0.680901 
-0.0346961 0.680901 9.82936 
9.89155 -0.00330061 -0.0599751 
-0.00330061 9.912 0.650863 
-0.0599751 0.650863 9.87103 
9.90924 -0.0186757 -0.0183657 
-0.0186757 9.81133 0.639148 
-0.0183657 0.639148 9.95401 
9.8963 0.00552116 -0.0525857 
0.00552116 9.89252 0.646671 
-0.0525857 0.646671 9.88576 
9.91317 0.0124746 0.301639 
0.0124746 9.87311 -0.0710101 
0.301639 -0.0710101 10.0693 
9.95381 -0.00468916 0.342193 
-0.00468916 9.98803 -0.0621371 
0.342193 -0.0621371 9.91375 
9.94249 0.000902701 0.342166 
0.000902701 9.95456 -0.0448488 
0.342166 -0.0448488 9.95854 
9.96901 -0.0291229 0.338624 
-0.0291229 9.97023 -0.0183313 
0.338624 -0.0183313 9.91635 
9.96663 -0.00856655 -0.37964 
-0.00856655 9.91673 0.067407 
-0.37964 0.067407 9.97538 
9.96915 0.00308944 -0.366563 
0.00308944 9.92507 0.078989 
-0.366563 0.078989 9.96453 
9.95606 -7.29962e-05 -0.347557 
-7.29962e-05 9.9126 0.0578812 
-0.347557 0.0578812 9.99009 
9.98134 0.00253524 -0.382079 
0.00253524 9.94302 0.0628047 
-0.382079 0.0628047 9.93438 
7.80434 -1.67373 4.19646 
-1.67373 8.85345 2.27713 
4.19646 2.27713 9.51396 
7.02441 -1.78163 2.96396 
-1.78163 9.14981 1.61173 
2.96396 1.61173 9.99753 
6.88647 -1.54239 4.82647 
-1.54239 10.1821 2.15877 
4.82647 2.15877 9.10319 
9.89616 1.65424 1.30587 
1.65424 8.56914 1.08345 
1.30587 1.08345 7.70645 
9.52433 -0.514753 0.516234 
-0.514753 10.881 -1.09669 
0.516234 -1.09669 17.7092 
12.1298 0.822518 1.04079 
0.822518 13.0319 -0.346164 
1.04079 -0.346164 12.9529 
12.0564 0.0786055 0.58548 
0.0786055 13.6161 -0.787018 
0.58548 -0.787018 12.4421 
11.8607 -0.376873 2.99694 
-0.376873 13.8852 -1.84863 
2.99694 -1.84863 12.3687 
9.6155 -0.097818 0.259882 
-0.097818 9.52309 -0.0314868 
0.259882 -0.0314868 9.59888 
9.48687 -0.00915415 0.258829 
-0.00915415 9.57786 -0.100936 
0.258829 -0.100936 9.67274 
9.50362 -0.0760775 0.318944 
-0.0760775 9.51239 -0.0538575 
0.318944 -0.0538575 9.72148 
9.51405 -0.0935826 0.312695 
-0.0935826 9.56475 -0.0700755 
0.312695 -0.0700755 9.65868 
9.92269 0.00298238 0.429614 
0.00298238 9.89722 -0.314345 
0.429614 -0.314345 10.035 
9.96289 -0.000129655 0.47207 
-0.000129655 9.97513 -0.270221 
0.47207 -0.270221 9.91687 
9.96021 -0.0346489 0.447361 
-0.0346489 9.91974 -0.29452 
0.447361 -0.29452 9.97494 
9.94248 -0.0202365 0.443996 
-0.0202365 9.96568 -0.268712 
0.443996 -0.268712 9.94673 
9.97441 -0.014852 0.482972 
-0.014852 9.95875 -0.143087 
0.482972 -0.143087 9.98433 
9.98284 -0.00229153 0.463849 
-0.00229153 9.95723 -0.147463 
0.463849 -0.147463 9.97742 
9.9733 -0.0202263 0.466375 
-0.0202263 9.96966 -0.153016 
0.466375 -0.153016 9.97453 
9.97631 -0.0214923 0.476858 
-0.0214923 9.96123 -0.152307 
0.476858 -0.152307 9.97995 
9.81901 0.00768081 -0.49074 
0.00768081 9.91117 0.208991 
-0.49074 0.208991 9.93902 
9.88419 -0.0155792 -0.494117 
-0.0155792 9.87669 0.209117 
-0.494117 0.209117 9.90832 
9.88061 -0.000112943 -0.49494 
-0.000112943 9.89862 0.220693 
-0.49494 0.220693 9.88997 
9.87397 -0.00307092 -0.497489 
-0.00307092 9.90355 0.193029 
-0.497489 0.193029 9.89168 
9.11112 0.098163 0.210879 
0.098163 9.27684 0.691456 
0.210879 0.691456 9.25334 
9.17238 0.00638746 0.195246 
0.00638746 9.36901 0.702447 
0.195246 0.702447 9.09991 
9.23246 -0.0785081 0.316725 
-0.0785081 9.22365 0.637655 
0.316725 0.637655 9.18519 
9.17768 -0.0227503 0.277311 
-0.0227503 9.22866 0.723833 
0.277311 0.723833 9.23495 
9.97291 -0.117917 -0.291641 
-0.117917 8.36497 0.280631 
-0.291641 0.280631 10.3336 
9.11372 -0.0674791 -0.225836 
-0.0674791 9.6526 0.430374 
-0.225836 0.430374 9.9052 
10.3928 -0.188636 1.53275 
-0.188636 8.16062 0.625601 
1.53275 0.625601 10.1181 
7.86631 -0.58849 -0.293851 
-0.58849 10.0267 0.337578 
-0.293851 0.337578 10.7785 
9.117 -0.0944874 0.722058 
-0.0944874 9.45742 0.532397 
0.722058 0.532397 9.29348 
9.35412 0.136757 0.735457 
0.136757 9.43166 0.395522 
0.735457 0.395522 9.08213 
9.32053 0.144507 0.66452 
0.144507 9.36915 0.35249 
0.66452 0.35249 9.17823 
9.18303 0.0884761 0.753555 
0.0884761 9.52545 0.387634 
0.753555 0.387634 9.15942 
9.13547 0.0101243 0.208043 
0.0101243 8.91787 -0.781936 
0.208043 -0.781936 8.97933 
9.00716 0.0574795 0.297326 
0.0574795 8.83323 -0.810394 
0.297326 -0.810394 9.19229 
9.04109 -0.104838 0.246261 
-0.104838 9.21841 -0.925879 
0.246261 -0.925879 8.77317 
9.08321 0.016033 0.139289 
0.016033 9.0589 -0.74861 
0.139289 -0.74861 8.89057 
10.0205 -0.0500663 0.0873389 
-0.0500663 10.0048 -0.0222769 
0.0873389 -0.0222769 10.0131 
9.97893 -0.0373219 0.116309 
-0.0373219 10.0927 -0.0655683 
0.116309 -0.0655683 9.96671 
9.86345 0.0369597 -0.0426301 
0.0369597 9.76954 -0.0624657 
-0.0426301 -0.0624657 10.4053 
10.0204 -0.0638923 0.130792 
-0.0638923 10 0.0593029 
0.130792 0.0593029 10.0179 
11.155 -0.350592 0.311613 
-0.350592 11.3666 -0.302958 
0.311613 -0.302958 9.92058 
9.76069 -0.133246 0.649634 
-0.133246 9.95703 0.137085 
0.649634 0.137085 12.7244 
10.9761 -0.247364 -0.0326162 
-0.247364 11.1209 -0.0914198 
-0.0326162 -0.0914198 10.3451 
10.9737 -0.314125 -0.133926 
-0.314125 11.148 0.283349 
-0.133926 0.283349 10.3204 
9.92503 0.000731356 0.130962 
0.000731356 9.90131 0.0166616 
0.130962 0.0166616 10.0136 
9.92171 -0.00335243 0.093221 
-0.00335243 9.92351 0.0283426 
0.093221 0.0283426 9.99476 
9.94161 -0.0086278 0.113632 
-0.0086278 9.95961 0.0260177 
0.113632 0.0260177 9.93877 
9.94368 0.00714198 0.110976 
0.00714198 9.9668 0.0416863 
0.110976 0.0416863 9.9295 
9.2164 1.12725 -1.1539 
1.12725 10.8194 0.0227925 
-1.1539 0.0227925 16.6941 
9.31292 0.723911 -0.0013987 
0.723911 12.3645 0.508861 
-0.0013987 0.508861 15.0525 
10.0484 2.48021 -0.376312 
2.48021 12.0675 1.00696 
-0.376312 1.00696 14.614 
10.7057 0.105521 1.60832 
0.105521 11.7062 -0.226232 
1.60832 -0.226232 14.3179 
9.97808 -0.000768701 0.432052 
-0.000768701 10.0057 0.196428 
0.432052 0.196428 9.93154 
9.97828 -0.00620739 0.434591 
-0.00620739 10.0312 0.211456 
0.434591 0.211456 9.90582 
9.89703 0.00620407 0.415852 
0.00620407 9.90642 0.225559 
0.415852 0.225559 10.1118 
9.97618 0.0183006 0.453697 
0.0183006 10.0149 0.144967 
0.453697 0.144967 9.92422 
0.203333 -0.141795 1.05267 
-0.141795 1.25305 0.567167 
1.05267 0.567167 9.72453 
6.3393 0.546402 -0.792774 
0.546402 7.30407 2.22757 
-0.792774 2.22757 -2.46245 
6.90446 -0.043338 1.59856 
-0.043338 8.12295 1.02562 
1.59856 1.02562 -3.8465 
6.34622 -0.632884 2.97955 
-0.632884 4.16653 8.44893 
2.97955 8.44893 0.668163 
12.127 0.189854 -0.36278 
0.189854 10.8433 0.625657 
-0.36278 0.625657 14.3219 
12.2271 -1.19317 -0.672518 
-1.19317 11.2333 -0.205828 
-0.672518 -0.205828 13.8319 
11.5721 -0.63936 -0.315769 
-0.63936 13.6901 -0.232679 
-0.315769 -0.232679 12.0301 
12.3123 -0.721821 0.332501 
-0.721821 11.9002 -0.897999 
0.332501 -0.897999 13.0798 
9.35093 0.249439 0.015731 
0.249439 9.78058 0.0636391 
0.015731 0.0636391 9.98077 
9.47374 0.00324472 -0.110189 
0.00324472 9.798 0.0929313 
-0.110189 0.0929313 9.84055 
9.82521 -0.341976 -0.0763006 
-0.341976 9.74383 -0.0213881 
-0.0763006 -0.0213881 9.54324 
9.18201 -0.186598 -0.238813 
-0.186598 10.036 0.142405 
-0.238813 0.142405 9.89431 
10.8109 -1.32562 -0.564685 
-1.32562 12.0829 -0.890459 
-0.564685 -0.890459 13.0477 
8.57365 -1.92364 -2.0816 
-1.92364 9.63956 -1.73758 
-2.0816 -1.73758 17.7283 
12.1096 -0.719211 -0.846114 
-0.719211 14.1072 -1.9324 
-0.846114 -1.9324 9.72475 
10.698 -1.51141 0.44123 
-1.51141 11.6747 0.827493 
0.44123 0.827493 13.5688 
9.85394 0.000747851 -0.371208 
0.000747851 9.89091 -0.546604 
-0.371208 -0.546604 9.82839 
9.84689 -0.0227592 -0.31884 
-0.0227592 9.88511 -0.561601 
-0.31884 -0.561601 9.84124 
9.83352 -0.0246234 -0.35925 
-0.0246234 9.88458 -0.516601 
-0.35925 -0.516601 9.85514 
9.85683 -0.0129815 -0.316759 
-0.0129815 9.92975 -0.581999 
-0.316759 -0.581999 9.78665 
9.92752 -0.00710102 0.414246 
-0.00710102 9.94923 -0.13906 
0.414246 -0.13906 9.95628 
9.93307 -0.0105975 0.422541 
-0.0105975 9.9439 -0.14684 
0.422541 -0.14684 9.95606 
9.9133 -0.00368642 0.405518 
-0.00368642 9.88588 -0.178393 
0.405518 -0.178393 10.0338 
9.94586 -0.0213729 0.42768 
-0.0213729 9.95345 -0.126631 
0.42768 -0.126631 9.93372 
8.85523 -0.0677978 0.818745 
-0.0677978 9.23281 0.430341 
0.818745 0.430341 8.78221 
9.4029 0.3775 1.13675 
0.3775 9.11094 0.739832 
1.13675 0.739832 8.35642 
7.99768 -0.453236 0.77722 
-0.453236 9.37083 0.397634 
0.77722 0.397634 9.50175 
9.07764 0.26397 0.448628 
0.26397 9.46244 0.647077 
0.448628 0.647077 8.33017 
9.77573 0.562736 -0.209075 
0.562736 10.1614 0.210782 
-0.209075 0.210782 10.8896 
10.4664 0.0876071 0.527107 
0.0876071 9.78431 -0.136298 
0.527107 -0.136298 10.576 
10.5155 0.0669399 -0.143592 
0.0669399 9.64344 -0.224397 
-0.143592 -0.224397 10.6678 
10.9589 -0.19152 -0.214109 
-0.19152 9.61837 0.236278 
-0.214109 0.236278 10.2494 
9.97391 -0.00368023 0.475174 
-0.00368023 9.96128 -0.0870849 
0.475174 -0.0870849 9.9667 
9.94296 -0.0017415 0.479898 
-0.0017415 9.94594 -0.0725815 
0.479898 -0.0725815 10.013 
9.97695 0.00411031 0.487501 
0.00411031 9.97726 -0.09345 
0.487501 -0.09345 9.94768 
9.96875 -0.0220881 0.484606 
-0.0220881 9.94852 -0.0814671 
0.484606 -0.0814671 9.98462 
9.52505 -0.034296 -0.400132 
-0.034296 9.73633 0.469419 
-0.400132 0.469419 9.61012 
9.53678 0.0315324 -0.372351 
0.0315324 9.67765 0.466004 
-0.372351 0.466004 9.65707 
9.5461 0.0580707 -0.369511 
0.0580707 9.68993 0.426582 
-0.369511 0.426582 9.63548 
9.55442 -0.00406665 -0.386423 
-0.00406665 9.66088 0.457476 
-0.386423 0.457476 9.6562 
6.86072 -0.751261 0.613791 
-0.751261 7.33927 1.6966 
0.613791 1.6966 9.65861 
8.36125 0.0371433 -0.241178 
0.0371433 6.63979 2.77655 
-0.241178 2.77655 8.85756 
9.59044 -0.40938 -0.111421 
-0.40938 6.02525 1.6627 
-0.111421 1.6627 8.24291 
9.41237 0.719837 -0.0794642 
0.719837 7.03876 1.68292 
-0.0794642 1.68292 7.40747 
11.3766 -0.326088 -0.188379 
-0.326088 9.55553 -0.385038 
-0.188379 -0.385038 10.8676 
10.975 -0.354485 -0.195597 
-0.354485 10.4569 -0.362871 
-0.195597 -0.362871 10.3678 
10.2338 -0.404495 -0.605602 
-0.404495 9.52593 -0.823908 
-0.605602 -0.823908 12.04 
10.2642 -0.0863758 -0.0736471 
-0.0863758 9.51172 0.42425 
-0.0736471 0.42425 12.0238 
9.89464 0.00103787 -0.34061 
0.00103787 9.91978 -0.0292234 
-0.34061 -0.0292234 10.0247 
9.95633 -0.00143549 -0.337621 
-0.00143549 9.94829 -0.00681823 
-0.337621 -0.00681823 9.93449 
9.9149 -0.0213683 -0.349853 
-0.0213683 9.93254 0.00917283 
-0.349853 0.00917283 9.99168 
9.97395 0.00805346 -0.353802 
0.00805346 9.94492 -0.00154995 
-0.353802 -0.00154995 9.92025 
9.7109 -0.00207357 0.0686349 
-0.00207357 9.7928 -0.63871 
0.0686349 -0.63871 9.70933 
9.70658 -0.00338772 0.0485152 
-0.00338772 9.78383 -0.616136 
0.0485152 -0.616136 9.72262 
9.71731 -0.00451567 0.0407086 
-0.00451567 9.76891 -0.644634 
0.0407086 -0.644634 9.72682 
9.73259 0.0137609 0.0721518 
0.0137609 9.75616 -0.609069 
0.0721518 -0.609069 9.72429 
9.95658 -0.00289138 0.297604 
-0.00289138 9.91903 -0.0470597 
0.297604 -0.0470597 9.97819 
9.93147 -0.00732017 0.268333 
-0.00732017 9.90042 -0.0504679 
0.268333 -0.0504679 10.0219 
9.9626 -0.00419268 0.289673 
-0.00419268 9.9389 -0.0371247 
0.289673 -0.0371247 9.95229 
9.95807 -0.00154577 0.301061 
-0.00154577 9.94153 -0.0256275 
0.301061 -0.0256275 9.95419 
9.93833 0.0349289 0.205074 
0.0349289 9.97659 0.561857 
0.205074 0.561857 9.92864 
9.96793 0.0111944 0.246668 
0.0111944 9.97941 0.584816 
0.246668 0.584816 9.89621 
9.88677 0.00020886 0.165523 
0.00020886 9.9097 0.579869 
0.165523 0.579869 10.0471 
9.92974 0.0122779 0.213897 
0.0122779 9.983 0.56223 
0.213897 0.56223 9.93081 
9.89557 -0.0106545 0.375197 
-0.0106545 9.9301 0.538344 
0.375197 0.538344 9.84448 
9.90159 0.0166011 0.355809 
0.0166011 9.89994 0.538713 
0.355809 0.538713 9.86861 
9.83569 -0.109109 0.341951 
-0.109109 9.87182 0.536465 
0.341951 0.536465 9.96263 
9.88053 0.0268655 0.346802 
0.0268655 9.91105 0.520887 
0.346802 0.520887 9.87856 
9.5824 0.113053 -0.464552 
0.113053 9.55776 -0.109094 
-0.464552 -0.109094 9.54724 
9.3996 0.0554151 -0.447589 
0.0554151 9.64637 -0.0878848 
-0.447589 -0.0878848 9.64143 
9.49421 0.0571507 -0.472464 
0.0571507 9.57511 -0.0955466 
-0.472464 -0.0955466 9.61808 
9.48521 0.034533 -0.502825 
0.034533 9.58243 -0.091964 
-0.502825 -0.091964 9.61976 
9.92863 -0.0100782 -0.485806 
-0.0100782 9.91217 -0.0283257 
-0.485806 -0.0283257 10.0001 
9.92146 -0.00145098 -0.460388 
-0.00145098 9.93158 -0.0456765 
-0.460388 -0.0456765 9.98786 
9.9321 -0.00197227 -0.476187 
-0.00197227 9.94613 -0.0366308 
-0.476187 -0.0366308 9.96267 
9.94409 0.00269324 -0.468868 
0.00269324 9.9563 -0.0330794 
-0.468868 -0.0330794 9.94051 
9.90736 0.000899595 -0.404902 
0.000899595 9.8268 -0.407578 
-0.404902 -0.407578 9.94247 
9.86028 0.000721998 -0.504934 
0.000721998 9.93566 -0.369617 
-0.504934 -0.369617 9.88069 
9.88075 0.0224275 -0.468373 
0.0224275 9.91554 -0.393578 
-0.468373 -0.393578 9.88035 
9.89195 0.0237323 -0.50619 
0.0237323 9.93482 -0.340789 
-0.50619 -0.340789 9.84986 
9.80068 -0.298751 -0.12415 
-0.298751 8.89687 -0.469795 
-0.12415 -0.469795 12.2575 
9.09062 0.344699 -0.802305 
0.344699 10.2681 0.0892646 
-0.802305 0.0892646 11.5963 
10.6482 1.07424 0.240762 
1.07424 11.0797 1.20305 
0.240762 1.20305 9.22715 
9.73216 0.787516 -0.354582 
0.787516 11.8631 -0.253589 
-0.354582 -0.253589 9.35977 
9.9389 0.0207481 0.365184 
0.0207481 10.0007 0.482348 
0.365184 0.482348 9.93423 
9.90739 0.00642007 0.406233 
0.00642007 9.91857 0.454694 
0.406233 0.454694 10.0478 
9.97299 0.00627076 0.357663 
0.00627076 9.9972 0.529494 
0.357663 0.529494 9.90361 
9.95699 0.0208786 0.362591 
0.0208786 9.98045 0.489106 
0.362591 0.489106 9.93636 
9.99233 -0.0139357 0.384696 
-0.0139357 9.93018 -0.247563 
0.384696 -0.247563 10.0107 
10.0122 -0.0164732 0.360416 
-0.0164732 9.99489 -0.21862 
0.360416 -0.21862 9.9261 
9.98205 0.0181377 0.348631 
0.0181377 9.94045 -0.251252 
0.348631 -0.251252 10.0107 
9.99252 -0.00386408 0.374358 
-0.00386408 10.0226 -0.241269 
0.374358 -0.241269 9.91802 
9.66456 -0.012458 0.0627346 
-0.012458 9.83388 -0.708984 
0.0627346 -0.708984 9.60297 
9.71271 -0.00854502 0.0494748 
-0.00854502 9.69502 -0.653802 
0.0494748 -0.653802 9.69368 
9.66759 -0.00107478 0.097929 
-0.00107478 9.61132 -0.6833 
0.097929 -0.6833 9.82249 
9.70037 -0.0093818 0.0344355 
-0.0093818 9.73192 -0.584639 
0.0344355 -0.584639 9.66911 
9.02807 -0.163197 0.458959 
-0.163197 9.52126 -0.554312 
0.458959 -0.554312 8.9851 
9.00812 0.0312897 0.523516 
0.0312897 9.42426 -0.647279 
0.523516 -0.647279 9.10206 
9.08137 0.169768 0.551748 
0.169768 9.22652 -0.607389 
0.551748 -0.607389 9.22655 
8.94749 0.129366 0.537937 
0.129366 9.49504 -0.657538 
0.537937 -0.657538 9.0919 
7.62064 0.466409 1.79706 
0.466409 8.4849 0.667243 
1.79706 0.667243 10.5996 
7.8767 -0.898441 0.479956 
-0.898441 8.35189 -0.12354 
0.479956 -0.12354 10.4766 
7.97867 2.00018 -0.563385 
2.00018 10.1568 1.29233 
-0.563385 1.29233 8.56972 
8.23107 -2.39775 2.58983 
-2.39775 9.43837 -0.0571841 
2.58983 -0.0571841 9.03571 
9.88743 -0.0446073 0.466944 
-0.0446073 9.94442 -0.301017 
0.466944 -0.301017 9.92729 
9.90335 0.0248567 0.450131 
0.0248567 9.90769 -0.290001 
0.450131 -0.290001 9.9481 
9.91739 0.0637377 0.435371 
0.0637377 9.93172 -0.268798 
0.435371 -0.268798 9.91003 
9.90872 -0.0183753 0.488065 
-0.0183753 9.90851 -0.279954 
0.488065 -0.279954 9.94192 
9.95984 0.0331989 0.108793 
0.0331989 9.96117 0.61329 
0.108793 0.61329 9.95114 
9.96593 0.0136021 0.124049 
0.0136021 9.98627 0.584978 
0.124049 0.584978 9.91995 
9.9795 -0.0165438 0.144483 
-0.0165438 10.0047 0.635796 
0.144483 0.635796 9.88797 
9.91103 0.0192353 0.0748804 
0.0192353 9.88624 0.621946 
0.0748804 0.621946 10.0749 
9.93345 0.00408949 -0.374889 
0.00408949 9.90716 -0.251192 
-0.374889 -0.251192 10.0588 
9.98626 0.0194992 -0.408222 
0.0194992 9.99258 -0.235854 
-0.408222 -0.235854 9.92061 
9.98306 0.0291104 -0.417978 
0.0291104 9.95286 -0.251967 
-0.417978 -0.251967 9.96354 
9.99279 -0.00494431 -0.427106 
-0.00494431 9.99927 -0.268157 
-0.427106 -0.268157 9.90739 
10.6292 1.04374 -0.379352 
1.04374 10.0044 0.673271 
-0.379352 0.673271 11.0685 
10.2941 -0.0336471 0.0506448 
-0.0336471 9.55513 0.3805 
0.0506448 0.3805 11.8528 
9.02449 0.072424 0.0093319 
0.072424 12.4584 -0.127649 
0.0093319 -0.127649 10.2192 
10.3121 0.650796 0.273445 
0.650796 10.8126 0.683666 
0.273445 0.683666 10.5774 
8.85584 -0.894752 -0.262403 
-0.894752 5.16478 -1.72619 
-0.262403 -1.72619 7.67341 
7.50483 1.1973 -0.651595 
1.1973 8.62336 -2.74703 
-0.651595 -2.74703 5.56584 
7.21434 0.553613 -0.595958 
0.553613 7.52246 -1.76976 
-0.595958 -1.76976 6.95723 
7.30424 -1.00688 0.50363 
-1.00688 8.37492 -1.47969 
0.50363 -1.47969 6.01486 
9.95874 -0.00538242 -0.124605 
-0.00538242 9.70087 -0.632236 
-0.124605 -0.632236 9.9619 
9.83488 0.00422656 -0.122057 
0.00422656 9.93574 -0.595092 
-0.122057 -0.595092 9.8509 
9.89213 -0.00174077 -0.152635 
-0.00174077 9.91164 -0.654307 
-0.152635 -0.654307 9.81775 
9.85254 0.0222914 -0.126414 
0.0222914 9.93136 -0.661971 
-0.126414 -0.661971 9.83761 
9.87193 -0.00929407 0.485607 
-0.00929407 9.9136 -0.205778 
0.485607 -0.205778 9.88777 
9.86774 -0.0167985 0.492914 
-0.0167985 9.91859 -0.179534 
0.492914 -0.179534 9.88698 
9.82884 -0.00985743 0.481836 
-0.00985743 9.917 -0.203642 
0.481836 -0.203642 9.92746 
9.87553 -0.0260234 0.487214 
-0.0260234 9.88865 -0.199911 
0.487214 -0.199911 9.90913 
9.64766 -0.243319 1.67456 
-0.243319 8.92329 0.841137 
1.67456 0.841137 9.55691 
9.20922 -0.439973 1.60195 
-0.439973 9.57707 0.57774 
1.60195 0.57774 9.34157 
8.8194 -0.318813 1.56489 
-0.318813 9.06698 1.14127 
1.56489 1.14127 10.2415 
9.30862 -0.512549 0.698446 
-0.512549 9.49126 0.0775384 
0.698446 0.0775384 9.32798 
9.854 0.0426071 0.167276 
0.0426071 9.85546 -0.617196 
0.167276 -0.617196 9.75507 
9.81382 0.0251016 0.150286 
0.0251016 9.86556 -0.637435 
0.150286 -0.637435 9.78515 
9.79967 -0.0076866 0.101941 
-0.0076866 9.81515 -0.566436 
0.101941 -0.566436 9.84971 
9.88353 0.0171232 0.230751 
0.0171232 9.94506 -0.614109 
0.230751 -0.614109 9.63593 
9.88301 0.0027726 0.0383008 
0.0027726 9.9104 -0.658169 
0.0383008 -0.658169 9.89032 
9.91671 9.48273e-05 0.0333296 
9.48273e-05 9.91411 -0.675579 
0.0333296 -0.675579 9.85291 
9.90936 -0.0180322 0.0245467 
-0.0180322 9.80886 -0.645376 
0.0245467 -0.645376 9.96551 
9.87195 0.0153457 0.0524436 
0.0153457 9.92652 -0.645673 
0.0524436 -0.645673 9.88526 
9.66456 0.0383836 -0.511688 
0.0383836 9.77068 0.0551959 
-0.511688 0.0551959 9.8666 
9.82204 0.00110025 -0.499319 
0.00110025 9.71823 0.0455341 
-0.499319 0.0455341 9.76156 
9.76569 -0.00103194 -0.501329 
-0.00103194 9.76944 0.0466603 
-0.501329 0.0466603 9.76671 
9.7262 -0.0305864 -0.460537 
-0.0305864 9.76931 0.00981272 
-0.460537 0.00981272 9.80633 
9.72207 0.327135 0.73305 
0.327135 10.6605 0.212463 
0.73305 0.212463 12.5652 
10.4081 0.044935 0.439639 
0.044935 11.355 -0.056141 
0.439639 -0.056141 11.1846 
10.4272 0.294704 -0.11145 
0.294704 11.6192 -0.446921 
-0.11145 -0.446921 10.9014 
11.1824 0.146882 0.0534518 
0.146882 12.0605 0.619218 
0.0534518 0.619218 9.7049 
10.3884 0.831455 0.681377 
0.831455 10.3711 -1.21905 
0.681377 -1.21905 13.5758 
12.5746 0.317788 -0.0639285 
0.317788 11.6877 -0.162805 
-0.0639285 -0.162805 10.073 
10.6543 0.232757 0.137835 
0.232757 10.8746 -0.348906 
0.137835 -0.348906 12.8065 
11.7223 0.624216 1.63915 
0.624216 10.2424 0.682344 
1.63915 0.682344 12.3707 
9.48989 0.0215859 -0.384668 
0.0215859 9.59403 0.193763 
-0.384668 0.193763 9.60701 
9.44622 0.06308 -0.358736 
0.06308 9.58137 0.17532 
-0.358736 0.17532 9.66333 
9.56226 -0.102293 -0.360794 
-0.102293 9.57156 0.150636 
-0.360794 0.150636 9.55711 
9.57412 -0.0280123 -0.385332 
-0.0280123 9.51618 0.203046 
-0.385332 0.203046 9.60062 
10.0326 -0.0706107 -0.0553933 
-0.0706107 10.3715 -0.0508905 
-0.0553933 -0.0508905 10.1256 
10.0133 -0.0473776 0.0386556 
-0.0473776 10.2753 -0.00976973 
0.0386556 -0.00976973 10.2411 
9.98591 0.0635533 -0.00197744 
0.0635533 10.314 -0.0689447 
-0.00197744 -0.0689447 10.2298 
10.0265 -0.0356634 0.00825075 
-0.0356634 10.3917 -0.0851958 
0.00825075 -0.0851958 10.1115 
9.91293 0.0109077 0.373665 
0.0109077 9.8863 -0.0572061 
0.373665 -0.0572061 10.0227 
9.94874 -0.001024 0.367558 
-0.001024 9.92111 -0.0891382 
0.367558 -0.0891382 9.95213 
9.95576 -0.0129838 0.366137 
-0.0129838 9.89728 -0.073046 
0.366137 -0.073046 9.96894 
9.94857 -0.0041201 0.363379 
-0.0041201 9.92345 -0.0894315 
0.363379 -0.0894315 9.94996 
11.972 -0.393698 -1.0586 
-0.393698 13.4976 -0.105986 
-1.0586 -0.105986 12.6251 
10.3018 -0.669296 -1.53295 
-0.669296 13.0256 -0.0445859 
-1.53295 -0.0445859 14.7673 
11.0169 -0.909098 -1.09363 
-0.909098 12.5694 -0.653878 
-1.09363 -0.653878 14.5084 
11.4392 -0.326842 0.732208 
-0.326842 12.2622 0.07719 
0.732208 0.07719 14.3933 
9.97668 -0.0233431 0.103269 
-0.0233431 9.95596 0.190162 
0.103269 0.190162 9.95954 
9.96357 -0.0038495 0.108953 
-0.0038495 9.98739 0.194026 
0.108953 0.194026 9.9412 
9.90656 -4.43416e-05 0.120315 
-4.43416e-05 9.93121 0.17571 
0.120315 0.17571 10.0544 
9.96868 0.00518593 0.0931421 
0.00518593 9.99541 0.217456 
0.0931421 0.217456 9.92808 
9.75982 -0.00947084 -0.0336149 
-0.00947084 9.81699 -0.574002 
-0.0336149 -0.574002 9.84589 
9.84045 0.00595185 -0.0398542 
0.00595185 9.80605 -0.682175 
-0.0398542 -0.682175 9.7762 
9.80418 0.00634393 -0.0533136 
0.00634393 9.8299 -0.678179 
-0.0533136 -0.678179 9.78863 
9.90577 -0.0374293 -0.0202733 
-0.0374293 9.92242 -0.693019 
-0.0202733 -0.693019 9.59451 
11.3795 0.263 -0.0899763 
0.263 11.5472 -0.323571 
-0.0899763 -0.323571 12.9212 
15.0791 -0.230374 -0.497787 
-0.230374 9.5501 -0.346309 
-0.497787 -0.346309 11.2186 
10.8747 -0.860212 0.686975 
-0.860212 11.1007 0.4732 
0.686975 0.4732 13.8724 
12.6813 -0.734664 0.876695 
-0.734664 10.9211 -1.45012 
0.876695 -1.45012 12.2454 
9.8834 0.5357 0.248944 
0.5357 12.2772 0.125179 
0.248944 0.125179 15.0943 
10.5329 1.3992 0.487966 
1.3992 12.71 -0.306407 
0.487966 -0.306407 14.0119 
9.13199 0.924037 1.5615 
0.924037 11.9268 0.166159 
1.5615 0.166159 16.1961 
10.2912 0.0716218 -0.832958 
0.0716218 12.3536 0.220912 
-0.832958 0.220912 14.6101 
9.76702 0.00714997 -0.0433898 
0.00714997 9.74528 0.00898023 
-0.0433898 0.00898023 9.82986 
9.68439 0.0579871 -0.0719433 
0.0579871 9.76807 0.00329045 
-0.0719433 0.00329045 9.8897 
9.69628 0.0489187 -0.0275932 
0.0489187 9.77599 0.00427148 
-0.0275932 0.00427148 9.86989 
9.76966 0.0358859 -0.0357176 
0.0358859 9.7214 0.00242014 
-0.0357176 0.00242014 9.85109 
9.7609 -0.00621274 -0.463365 
-0.00621274 9.82204 -0.459812 
-0.463365 -0.459812 9.77138 
9.75444 -0.00257447 -0.479443 
-0.00257447 9.80373 -0.44653 
-0.479443 -0.44653 9.79615 
9.7699 0.0529623 -0.483845 
0.0529623 9.88007 -0.438689 
-0.483845 -0.438689 9.70435 
9.76199 -0.000811752 -0.478386 
-0.000811752 9.79523 -0.441261 
-0.478386 -0.441261 9.79709 
9.93316 0.00983782 0.500117 
0.00983782 9.91365 -0.0496855 
0.500117 -0.0496855 9.92306 
9.86982 -0.00919368 0.490516 
-0.00919368 9.92756 -0.0275923 
0.490516 -0.0275923 9.97249 
9.91951 0.00671149 0.498365 
0.00671149 9.92264 -0.037546 
0.498365 -0.037546 9.92772 
9.93391 0.0043696 0.519274 
0.0043696 9.9385 -0.0355996 
0.519274 -0.0355996 9.89746 
9.64488 0.0588518 0.478012 
0.0588518 9.7157 -0.0443581 
0.478012 -0.0443581 9.82257 
9.70843 0.0537406 0.457671 
0.0537406 9.73872 -0.0284639 
0.457671 -0.0284639 9.736 
9.77455 -0.000892939 0.452095 
-0.000892939 9.67254 -0.0549417 
0.452095 -0.0549417 9.73605 
9.74544 0.0639727 0.437955 
0.0639727 9.66095 -0.0511247 
0.437955 -0.0511247 9.77676 
9.92119 -0.0065891 -0.442734 
-0.0065891 9.93332 0.049669 
-0.442734 0.049669 9.98645 
9.933 -0.00275129 -0.457504 
-0.00275129 9.94066 0.050798 
-0.457504 0.050798 9.96731 
9.92321 -0.0137811 -0.462168 
-0.0137811 9.92063 0.0651017 
-0.462168 0.0651017 9.99712 
9.94612 0.00229174 -0.44933 
0.00229174 9.95118 0.0545585 
-0.44933 0.0545585 9.94366 
9.85984 -0.0426437 -0.267031 
-0.0426437 9.7734 0.158269 
-0.267031 0.158269 8.32218 
9.81332 -0.0633051 -0.203898 
-0.0633051 9.53406 -0.237631 
-0.203898 -0.237631 8.60804 
9.65424 -0.138089 0.00450418 
-0.138089 9.63349 -0.200255 
0.00450418 -0.200255 8.66769 
9.2809 0.07085 -0.12602 
0.07085 9.32868 0.18141 
-0.12602 0.18141 9.34585 
9.08191 0.17061 -0.312345 
0.17061 9.33839 -0.835098 
-0.312345 -0.835098 8.90035 
9.17852 0.140699 -0.424818 
0.140699 9.36656 -0.992256 
-0.424818 -0.992256 8.77558 
9.26609 -0.24331 -0.332771 
-0.24331 8.91973 -0.914862 
-0.332771 -0.914862 9.13484 
9.40508 0.174859 -0.433255 
0.174859 9.03434 -0.833355 
-0.433255 -0.833355 8.88123 
10.3451 -0.397034 -0.0900555 
-0.397034 9.96403 -0.604192 
-0.0900555 -0.604192 11.4202 
9.81153 -1.37156 1.29011 
-1.37156 11.7027 -0.187842 
1.29011 -0.187842 10.2151 
10.4243 -1.05416 -0.712068 
-1.05416 10.3389 -0.443678 
-0.712068 -0.443678 10.9661 
10.2896 -0.267252 -0.192994 
-0.267252 10.5529 -0.271795 
-0.192994 -0.271795 10.8869 
9.74141 -0.0341305 0.469235 
-0.0341305 9.73857 -0.115485 
0.469235 -0.115485 9.72046 
9.62559 0.0515549 0.449609 
0.0515549 9.7409 -0.135643 
0.449609 -0.135643 9.83395 
9.71887 -0.0139015 0.445852 
-0.0139015 9.7236 -0.123755 
0.445852 -0.123755 9.75797 
9.73602 -0.0235258 0.427524 
-0.0235258 9.70653 -0.0893491 
0.427524 -0.0893491 9.75789 
9.83946 0.00980671 0.484312 
0.00980671 9.86582 -0.102592 
0.484312 -0.102592 9.89346 
9.87567 0.00226831 0.44095 
0.00226831 9.84118 -0.104694 
0.44095 -0.104694 9.88189 
9.84608 0.0157991 0.44802 
0.0157991 9.89818 -0.100631 
0.44802 -0.100631 9.85448 
9.84806 0.00879669 0.483119 
0.00879669 9.8732 -0.108517 
0.483119 -0.108517 9.87748 
9.22086 -0.157593 0.308451 
-0.157593 9.31328 -0.0859496 
0.308451 -0.0859496 10.2952 
9.20397 -0.108023 0.60798 
-0.108023 9.31783 3.15754e-05 
0.60798 3.15754e-05 10.3075 
9.1436 -0.198234 0.569209 
-0.198234 9.06126 0.0676558 
0.569209 0.0676558 10.6245 
9.36185 -0.0535395 0.708968 
-0.0535395 9.24635 0.164652 
0.708968 0.164652 10.2211 
9.52575 0.159088 -0.0859882 
0.159088 10.1106 -0.0406258 
-0.0859882 -0.0406258 10.1305 
9.55873 -0.0569591 0.322703 
-0.0569591 9.94367 -0.0897368 
0.322703 -0.0897368 10.2645 
9.99219 0.0822693 -0.00781398 
0.0822693 10.0202 -0.0909834 
-0.00781398 -0.0909834 9.75454 
9.90656 0.0769872 -0.0292308 
0.0769872 10.124 -0.178835 
-0.0292308 -0.178835 9.73631 
9.96719 -0.0141517 -0.487789 
-0.0141517 9.96976 0.177254 
-0.487789 0.177254 9.95162 
9.96732 -0.0115716 -0.494092 
-0.0115716 9.94984 0.157723 
-0.494092 0.157723 9.9714 
9.94976 -0.00557677 -0.485851 
-0.00557677 9.94282 0.148906 
-0.485851 0.148906 9.99598 
9.96316 -0.0191819 -0.493031 
-0.0191819 9.95409 0.166201 
-0.493031 0.166201 9.97131 
9.54631 -0.116051 0.504034 
-0.116051 9.5729 0.42537 
0.504034 0.42537 9.80325 
9.69678 0.107918 0.624004 
0.107918 9.78552 0.446206 
0.624004 0.446206 9.44016 
9.58527 -0.0359198 0.505317 
-0.0359198 9.73136 0.379711 
0.505317 0.379711 9.60583 
9.69086 0.0427924 0.55306 
0.0427924 9.70945 0.308539 
0.55306 0.308539 9.52215 
10.6684 0.642035 0.640626 
0.642035 10.436 -0.903179 
0.640626 -0.903179 12.8555 
9.60531 0.641226 0.411174 
0.641226 10.0809 0.437179 
0.411174 0.437179 14.2737 
11.5895 0.223267 0.469531 
0.223267 12.7687 -0.762275 
0.469531 -0.762275 9.6017 
11.1782 0.372703 0.259066 
0.372703 10.8559 -1.39104 
0.259066 -1.39104 11.9258 
10.3395 0.0175256 0.00940833 
0.0175256 9.22217 0.139669 
0.00940833 0.139669 10.5881 
9.66566 0.122987 -0.133434 
0.122987 10.3723 0.216619 
-0.133434 0.216619 10.1119 
10.2012 0.00609885 0.115343 
0.00609885 10.0244 0.0198845 
0.115343 0.0198845 9.9242 
9.47128 -0.130469 0.126506 
-0.130469 10.5537 -0.0155726 
0.126506 -0.0155726 10.1248 
9.98024 0.00597247 -0.0454873 
0.00597247 9.99351 -0.519743 
-0.0454873 -0.519743 9.96515 
9.94935 0.0103208 -0.0521701 
0.0103208 10.0011 -0.523869 
-0.0521701 -0.523869 9.98849 
9.95528 0.00901025 -0.0451248 
0.00901025 9.97504 -0.508491 
-0.0451248 -0.508491 10.0086 
9.99383 -0.000445857 -0.0451304 
-0.000445857 9.99561 -0.525005 
-0.0451304 -0.525005 9.94946 
10.2461 0.0301319 0.0849752 
0.0301319 10.0508 -0.0912901 
0.0849752 -0.0912901 10.1257 
10.5093 0.0933182 -0.0512122 
0.0933182 10.1879 -0.165561 
-0.0512122 -0.165561 9.7254 
9.65882 -0.126658 -0.193417 
-0.126658 9.69271 -0.0705982 
-0.193417 -0.0705982 11.071 
10.2021 0.133523 0.376517 
0.133523 10.2167 -0.110435 
0.376517 -0.110435 10.0038 
9.46366 0.00725248 -0.0125948 
0.00725248 9.90964 0.0595997 
-0.0125948 0.0595997 9.55757 
9.73434 0.189101 0.112292 
0.189101 9.50827 0.0418634 
0.112292 0.0418634 9.68826 
9.60473 0.0627174 0.0271417 
0.0627174 9.70036 0.0251335 
0.0271417 0.0251335 9.62577 
9.60951 0.075949 0.0209722 
0.075949 9.70005 -0.036989 
0.0209722 -0.036989 9.6213 
9.99072 0.000160155 0.249877 
0.000160155 9.92103 0.0444732 
0.249877 0.0444732 9.99003 
9.93475 -0.0234356 0.293174 
-0.0234356 9.91344 0.022833 
0.293174 0.022833 10.0536 
9.9924 0.000457211 0.265689 
0.000457211 9.99789 0.0709057 
0.265689 0.0709057 9.91149 
9.97208 0.0158522 0.240614 
0.0158522 10.0163 0.0406071 
0.240614 0.0406071 9.91344 
9.84262 -0.014628 0.154327 
-0.014628 9.86014 0.610703 
0.154327 0.610703 9.79064 
9.83832 -0.0177356 0.148459 
-0.0177356 9.85955 0.624062 
0.148459 0.624062 9.79553 
9.80465 -0.0129992 0.107425 
-0.0129992 9.81408 0.582499 
0.107425 0.582499 9.87467 
9.90359 -0.0144078 0.188764 
-0.0144078 9.93329 0.579322 
0.188764 0.579322 9.65652 
9.74647 -0.22041 -0.0360989 
-0.22041 11.4923 0.302747 
-0.0360989 0.302747 10.9591 
10.2579 -0.0650392 0.0344629 
-0.0650392 10.5529 0.0560781 
0.0344629 0.0560781 11.387 
11.1394 -0.395658 -0.31887 
-0.395658 10.6626 0.138811 
-0.31887 0.138811 10.3959 
10.4104 -0.114132 0.0723591 
-0.114132 10.6803 0.341853 
0.0723591 0.341853 11.1072 
12.3363 -0.307693 1.80705 
-0.307693 7.50663 -0.760673 
1.80705 -0.760673 8.62871 
9.28978 0.370086 -1.27034 
0.370086 8.46585 -0.346011 
-1.27034 -0.346011 10.716 
7.37446 0.94585 0.699344 
0.94585 10.0054 -0.575413 
0.699344 -0.575413 11.0917 
9.1846 0.0737127 -0.0909501 
0.0737127 9.06047 -0.172429 
-0.0909501 -0.172429 10.2265 
1.02726 -1.3064 1.42979 
-1.3064 3.35292 1.76395 
1.42979 1.76395 9.05757 
10.1671 -0.415669 0.488534 
-0.415669 9.99072 -0.676963 
0.488534 -0.676963 -6.72007 
9.58077 -0.401392 0.549356 
-0.401392 5.85396 -2.79766 
0.549356 -2.79766 -1.99699 
6.29776 1.65734 5.59814 
1.65734 5.8886 -4.21272 
5.59814 -4.21272 1.25139 
9.94424 0.0715105 -0.0660143 
0.0715105 9.77845 -0.123133 
-0.0660143 -0.123133 9.9444 
9.86034 -0.087274 -0.0851652 
-0.087274 10.0037 -0.095216 
-0.0851652 -0.095216 9.80308 
9.83832 0.00205561 0.0813004 
0.00205561 9.93184 0.027051 
0.0813004 0.027051 9.89694 
10.0662 0.0545814 -0.0272186 
0.0545814 9.80245 0.0266834 
-0.0272186 0.0266834 9.7984 
9.40409 0.106201 -0.410155 
0.106201 9.49071 -0.197203 
-0.410155 -0.197203 9.61362 
9.42142 0.0814646 -0.475915 
0.0814646 9.59283 -0.0930863 
-0.475915 -0.0930863 9.49417 
9.36083 0.101123 -0.434998 
0.101123 9.53886 -0.0656887 
-0.434998 -0.0656887 9.60873 
9.41483 0.0897912 -0.433808 
0.0897912 9.53214 -0.0998098 
-0.433808 -0.0998098 9.56145 
9.19512 -0.13674 0.457296 
-0.13674 9.59875 -0.256404 
0.457296 -0.256404 9.37851 
9.2884 -0.149424 0.431974 
-0.149424 9.51161 -0.206066 
0.431974 -0.206066 9.37237 
8.96952 0.0528853 0.451083 
0.0528853 9.64476 -0.245106 
0.451083 -0.245106 9.5581 
9.2066 -0.0905964 0.561966 
-0.0905964 9.58385 -0.245579 
0.561966 -0.245579 9.38193 
8.76797 0.147817 -0.38193 
0.147817 9.65498 -0.204215 
-0.38193 -0.204215 9.45025 
8.9217 0.437392 -0.389834 
0.437392 9.64121 0.0250411 
-0.389834 0.0250411 9.3103 
8.45172 0.0503804 -0.383201 
0.0503804 9.58432 -0.228579 
-0.383201 -0.228579 9.83717 
8.70632 0.204528 -0.351722 
0.204528 9.67972 -0.141864 
-0.351722 -0.141864 9.48717 
5.35174 -0.928711 0.713238 
-0.928711 4.36659 0.0289411 
0.713238 0.0289411 -0.174223 
4.12596 0.00815036 -0.576979 
0.00815036 4.02183 0.433206 
-0.576979 0.433206 1.3963 
3.94464 -0.260539 -0.0543789 
-0.260539 2.55326 -0.335391 
-0.0543789 -0.335391 3.0462 
4.58252 -0.217567 -1.75831 
-0.217567 2.42966 -1.06971 
-1.75831 -1.06971 2.53191 
9.7594 0.257115 0.820193 
0.257115 10.9855 0.421304 
0.820193 0.421304 10.5822 
9.54033 1.0028 -0.776808 
1.0028 10.6057 -1.13154 
-0.776808 -1.13154 11.1811 
9.11693 0.0353399 -0.101269 
0.0353399 10.6572 -0.370065 
-0.101269 -0.370065 11.5531 
9.41356 0.28741 -0.235477 
0.28741 10.408 0.140089 
-0.235477 0.140089 11.5057 
9.8529 0.0427148 0.0284856 
0.0427148 9.75737 -0.0278116 
0.0284856 -0.0278116 9.81229 
9.77396 0.00302432 -0.0029493 
0.00302432 9.82294 -0.00986238 
-0.0029493 -0.00986238 9.82567 
9.75295 -0.00373495 -0.0203626 
-0.00373495 9.86542 0.0454885 
-0.0203626 0.0454885 9.80419 
9.83433 0.0190362 -0.00510469 
0.0190362 9.80184 -0.032373 
-0.00510469 -0.032373 9.7864 
8.56424 0.232519 0.100157 
0.232519 9.80385 -0.0960727 
0.100157 -0.0960727 9.76063 
9.18439 0.376724 -0.331133 
0.376724 9.31322 -0.225475 
-0.331133 -0.225475 9.63112 
8.82107 -0.133578 0.0562507 
-0.133578 9.78862 -0.455669 
0.0562507 -0.455669 9.51904 
8.4886 0.249925 0.0722713 
0.249925 9.75197 -0.219463 
0.0722713 -0.219463 9.88816 
9.76978 0.00691872 -0.393966 
0.00691872 9.84213 -0.570367 
-0.393966 -0.570367 9.74949 
9.80433 -0.0023221 -0.370812 
-0.0023221 9.83977 -0.587852 
-0.370812 -0.587852 9.71731 
9.77052 0.000393141 -0.395309 
0.000393141 9.80765 -0.559609 
-0.395309 -0.559609 9.78323 
9.76357 -0.00906584 -0.378476 
-0.00906584 9.8051 -0.573688 
-0.378476 -0.573688 9.79273 
9.95099 0.0173552 0.358935 
0.0173552 9.93528 -0.0695346 
0.358935 -0.0695346 9.99024 
9.96848 -0.0110623 0.326414 
-0.0110623 9.92657 -0.0835409 
0.326414 -0.0835409 9.98145 
9.98849 -0.00872139 0.340858 
-0.00872139 9.95097 -0.054363 
0.340858 -0.054363 9.93705 
9.98503 -0.0111579 0.327658 
-0.0111579 9.93418 -0.0529255 
0.327658 -0.0529255 9.95729 
8.89779 0.107784 -0.313449 
0.107784 9.12026 0.878121 
-0.313449 0.878121 8.81526 
8.91412 0.211587 -0.348472 
0.211587 9.02148 0.971238 
-0.348472 0.971238 8.8977 
8.90375 0.19181 -0.318615 
0.19181 9.05 0.979692 
-0.318615 0.979692 8.87954 
8.93228 0.109677 -0.407584 
0.109677 9.07169 1.01973 
-0.407584 1.01973 8.82933 
9.97309 -0.00367452 -0.49092 
-0.00367452 9.95852 0.0850166 
-0.49092 0.0850166 9.96302 
9.93626 0.00495809 -0.495761 
0.00495809 9.93524 0.0659751 
-0.495761 0.0659751 10.0231 
9.97958 -0.000894653 -0.513104 
-0.000894653 9.9838 0.10194 
-0.513104 0.10194 9.93125 
9.97552 -0.0260977 -0.4943 
-0.0260977 9.94445 0.074216 
-0.4943 0.074216 9.97466 
9.94816 -0.00907958 0.122828 
-0.00907958 9.98547 -0.594174 
0.122828 -0.594174 9.91944 
9.98754 0.000296285 0.146975 
0.000296285 9.99363 -0.643676 
0.146975 -0.643676 9.87191 
9.8803 -0.00956417 0.0723998 
-0.00956417 9.87652 -0.618963 
0.0723998 -0.618963 10.0962 
9.94344 -0.0344803 0.105883 
-0.0344803 9.97861 -0.60231 
0.105883 -0.60231 9.93102 
9.87989 -0.0070594 -0.0459779 
-0.0070594 9.90952 -0.66151 
-0.0459779 -0.66151 9.87608 
9.93876 0.0169307 -0.0286753 
0.0169307 9.89464 -0.688923 
-0.0286753 -0.688923 9.83209 
9.90239 0.0286573 -0.0138952 
0.0286573 9.80978 -0.650876 
-0.0138952 -0.650876 9.95333 
9.87822 0.000643566 -0.0510709 
0.000643566 9.90787 -0.671343 
-0.0510709 -0.671343 9.87941 
10.6722 -0.248737 -0.295035 
-0.248737 9.68012 -0.859561 
-0.295035 -0.859561 14.6876 
9.32501 0.173633 -1.06598 
0.173633 12.3406 -0.306054 
-1.06598 -0.306054 13.3744 
11.6072 1.46752 -0.146276 
1.46752 12.5408 0.758515 
-0.146276 0.758515 10.8919 
10.4293 0.681265 -1.18075 
0.681265 13.1831 -0.752525 
-1.18075 -0.752525 11.4275 
5.01161 -1.33529 0.349663 
-1.33529 4.40039 0.868995 
0.349663 0.868995 -1.52616 
0.450723 0.0984688 0.686654 
0.0984688 3.23267 1.60586 
0.686654 1.60586 4.20244 
6.65203 0.9044 -1.55944 
0.9044 4.73066 1.23271 
-1.55944 1.23271 -3.49686 
5.69893 0.0632528 2.71721 
0.0632528 2.74239 1.28516 
2.71721 1.28516 -0.55549 
9.68104 0.0536712 -0.0383988 
0.0536712 9.7823 0.0112652 
-0.0383988 0.0112652 9.76574 
9.43096 0.0375826 0.00660474 
0.0375826 9.86174 0.012746 
0.00660474 0.012746 9.93637 
9.87641 -0.00459571 -0.0212622 
-0.00459571 9.65303 -0.0426557 
-0.0212622 -0.0426557 9.69964 
9.75628 0.154114 -0.111959 
0.154114 9.67166 0.000663033 
-0.111959 0.000663033 9.80114 
8.40855 0.256176 -0.627205 
0.256176 8.67317 1.18067 
-0.627205 1.18067 8.0097 
8.46104 0.256845 -0.414899 
0.256845 8.36525 1.0618 
-0.414899 1.0618 8.26513 
8.1485 0.248553 -0.397895 
0.248553 8.28212 1.02661 
-0.397895 1.02661 8.6608 
8.31171 0.36645 -0.424219 
0.36645 8.62938 1.14506 
-0.424219 1.14506 8.15033 
9.70316 0.0629837 0.420259 
0.0629837 9.75293 0.579529 
0.420259 0.579529 9.54173 
9.59599 0.028673 0.430543 
0.028673 9.62807 0.546768 
0.430543 0.546768 9.77376 
9.68509 -0.0192719 0.349417 
-0.0192719 9.65684 0.565862 
0.349417 0.565862 9.6559 
9.67159 0.00068741 0.337923 
0.00068741 9.67516 0.514461 
0.337923 0.514461 9.65108 
8.94633 -0.0951561 -0.0381673 
-0.0951561 8.97774 1.05008 
-0.0381673 1.05008 8.51275 
9.0812 -0.125997 -0.173548 
-0.125997 8.81098 0.836822 
-0.173548 0.836822 8.54464 
8.86173 0.0327333 -0.162705 
0.0327333 8.9455 0.704745 
-0.162705 0.704745 8.62959 
9.11633 0.0508076 0.0145974 
0.0508076 8.92202 1.15899 
0.0145974 1.15899 8.39847 
9.83792 -0.0772774 0.042068 
-0.0772774 9.6305 -0.0197109 
0.042068 -0.0197109 9.68885 
9.62635 0.0091913 0.0564148 
0.0091913 9.72971 -0.0243954 
0.0564148 -0.0243954 9.80122 
9.66715 0.00197324 0.023595 
0.00197324 9.68508 -0.0150331 
0.023595 -0.0150331 9.80505 
9.71136 0.0465233 0.0209657 
0.0465233 9.66022 -0.00930857 
0.0209657 -0.00930857 9.7857 
9.94059 0.00110217 -0.478335 
0.00110217 9.93665 -0.0740124 
-0.478335 -0.0740124 9.97802 
9.93068 0.0163176 -0.498775 
0.0163176 9.93159 -0.0576203 
-0.498775 -0.0576203 9.99299 
9.92371 0.00502698 -0.475885 
0.00502698 9.95592 -0.056134 
-0.475885 -0.056134 9.97562 
9.94669 0.00819506 -0.478654 
0.00819506 9.96139 -0.0590277 
-0.478654 -0.0590277 9.94718 
10.1456 -0.0572398 0.0660037 
-0.0572398 10.073 -0.129053 
0.0660037 -0.129053 10.7211 
10.3593 -0.197148 0.138813 
-0.197148 10.3094 -0.183244 
0.138813 -0.183244 10.271 
10.0825 -0.103018 0.0605191 
-0.103018 10.2413 -0.0314849 
0.0605191 -0.0314849 10.616 
10.2426 -0.0468691 0.255063 
-0.0468691 10.2197 -0.102353 
0.255063 -0.102353 10.4775 
9.6581 0.798977 0.129121 
0.798977 9.69969 -0.41988 
0.129121 -0.41988 10.6538 
10.0879 0.947275 -0.350533 
0.947275 9.92374 0.109274 
-0.350533 0.109274 9.99997 
9.18479 -0.268129 -0.581201 
-0.268129 9.9981 0.0110787 
-0.581201 0.0110787 10.8287 
9.48168 -0.325817 0.266988 
-0.325817 10.6464 0.224081 
0.266988 0.224081 9.88356 
9.35249 0.0941292 -0.34725 
0.0941292 9.61677 0.324457 
-0.34725 0.324457 9.67286 
9.44515 -0.0726192 -0.393076 
-0.0726192 9.65515 0.346039 
-0.393076 0.346039 9.54183 
9.4783 -0.0274462 -0.370974 
-0.0274462 9.62077 0.348286 
-0.370974 0.348286 9.54306 
9.45621 -0.00110756 -0.445369 
-0.00110756 9.58698 0.361262 
-0.445369 0.361262 9.59894 
9.95862 -0.0708241 -0.20103 
-0.0708241 10.1539 -0.0516997 
-0.20103 -0.0516997 9.50257 
9.74412 0.213628 -0.00743784 
0.213628 9.84304 -0.0503775 
-0.00743784 -0.0503775 10.028 
9.8887 0.0597044 0.00251729 
0.0597044 9.81608 -0.101146 
0.00251729 -0.101146 9.91036 
9.94174 0.103866 0.118948 
0.103866 9.59312 -0.220133 
0.118948 -0.220133 10.0803 
9.25201 0.0865028 -0.244625 
0.0865028 9.55571 0.00564175 
-0.244625 0.00564175 9.74784 
9.75186 -0.128568 -0.37187 
-0.128568 9.47256 0.126219 
-0.37187 0.126219 9.33115 
9.44224 0.00466772 -0.357055 
0.00466772 9.4845 0.105155 
-0.357055 0.105155 9.62881 
9.41036 0.057545 -0.493468 
0.057545 9.41519 0.132393 
-0.493468 0.132393 9.73 
9.40395 0.0440741 -0.417906 
0.0440741 9.58555 0.142002 
-0.417906 0.142002 9.67447 
9.59023 -0.0127139 -0.359893 
-0.0127139 9.4983 0.124383 
-0.359893 0.124383 9.57545 
9.54309 -0.00462091 -0.361507 
-0.00462091 9.56196 0.108385 
-0.361507 0.108385 9.55893 
9.53297 0.0152035 -0.314197 
0.0152035 9.50833 0.103635 
-0.314197 0.103635 9.62267 
9.87665 -0.0169662 0.0507453 
-0.0169662 9.92075 0.647855 
0.0507453 0.647855 9.89382 
9.89802 0.0182651 0.0277224 
0.0182651 9.84094 0.641015 
0.0277224 0.641015 9.95227 
9.88849 -0.00315153 0.0379405 
-0.00315153 9.90373 0.652702 
0.0379405 0.652702 9.89901 
9.91324 0.00295254 0.0352845 
0.00295254 9.90895 0.669177 
0.0352845 0.669177 9.86903 
4.69404 0.0946987 0.318512 
0.0946987 4.8135 -1.45079 
0.318512 -1.45079 1.96553 
6.72189 -0.598614 -1.00149 
-0.598614 6.90883 -0.942161 
-1.00149 -0.942161 -2.15765 
5.96837 1.01077 -0.267675 
1.01077 4.03647 -1.57157 
-0.267675 -1.57157 1.46824 
3.4304 -1.13959 1.50227 
-1.13959 4.241 -2.433 
1.50227 -2.433 3.80168 
9.94498 -0.000831467 0.122923 
-0.000831467 9.78484 0.618197 
0.122923 0.618197 9.95591 
9.86396 0.0283901 0.166906 
0.0283901 9.94209 0.595352 
0.166906 0.595352 9.87968 
9.88633 -0.00798276 0.166829 
-0.00798276 9.95139 0.650863 
0.166829 0.650863 9.848 
9.91307 -0.00415133 0.133873 
-0.00415133 9.88174 0.613351 
0.133873 0.613351 9.89092 
10.404 -0.0728349 0.0383414 
-0.0728349 10.5951 -0.112554 
0.0383414 -0.112554 10.1449 
9.96553 -0.0942884 -0.206873 
-0.0942884 10.5337 -0.159932 
-0.206873 -0.159932 10.6448 
10.3724 -0.103859 -0.0441809 
-0.103859 10.5439 -0.0560579 
-0.0441809 -0.0560579 10.2277 
10.3417 -0.146456 -0.0407099 
-0.146456 10.5035 -0.112451 
-0.0407099 -0.112451 10.2988 
9.91971 -0.00544162 0.079395 
-0.00544162 9.92376 0.508995 
0.079395 0.508995 10.0725 
10.0187 0.0072059 0.0991977 
0.0072059 9.95865 0.503202 
0.0991977 0.503202 9.93859 
9.98751 0.00769437 0.107274 
0.00769437 9.98516 0.504815 
0.107274 0.504815 9.94331 
9.98639 0.0110484 0.140837 
0.0110484 9.99437 0.503789 
0.140837 0.503789 9.93522 
9.78888 -0.0692971 0.0876508 
-0.0692971 9.79246 0.0247542 
0.0876508 0.0247542 10.1687 
9.96754 -0.0135809 0.0731413 
-0.0135809 9.95201 -0.0484547 
0.0731413 -0.0484547 9.83051 
9.98665 -0.033492 0.0266609 
-0.033492 9.85321 -0.0728634 
0.0266609 -0.0728634 9.91021 
9.94467 -0.0477879 0.0524058 
-0.0477879 9.88389 -0.0961199 
0.0524058 -0.0961199 9.92151 
9.90104 0.0873125 0.0242105 
0.0873125 9.78313 -0.0657645 
0.0242105 -0.0657645 9.92392 
9.90466 0.056991 0.0160259 
0.056991 9.83419 -0.0345312 
0.0160259 -0.0345312 9.86924 
9.85063 0.0469038 0.0160516 
0.0469038 9.88631 -0.0285636 
0.0160516 -0.0285636 9.87115 
9.97685 0.0365884 -0.0341396 
0.0365884 9.84338 -0.00900091 
-0.0341396 -0.00900091 9.78786 
9.71678 -0.0267278 0.180061 
-0.0267278 9.9344 -0.0805698 
0.180061 -0.0805698 9.79606 
9.70591 0.0108437 0.136662 
0.0108437 9.94852 -0.118623 
0.136662 -0.118623 9.79281 
9.83647 0.234666 0.0804181 
0.234666 9.85399 0.131023 
0.0804181 0.131023 9.75678 
9.72118 -0.0179721 0.0799955 
-0.0179721 10.0219 -0.0462561 
0.0799955 -0.0462561 9.70416 
9.8933 0.00202071 0.471202 
0.00202071 9.93202 -0.101786 
0.471202 -0.101786 9.92729 
9.92997 -0.0113622 0.482584 
-0.0113622 9.89832 -0.122043 
0.482584 -0.122043 9.92431 
9.87212 -0.00712445 0.479981 
-0.00712445 9.93036 -0.0974278 
0.479981 -0.0974278 9.95013 
9.9302 0.00354024 0.499652 
0.00354024 9.92154 -0.127174 
0.499652 -0.127174 9.90087 
8.66819 0.284818 1.04246 
0.284818 7.8839 0.895041 
1.04246 0.895041 6.97778 
7.7987 -0.146669 1.21378 
-0.146669 7.61675 1.2006 
1.21378 1.2006 8.11442 
7.97505 -0.422407 0.861737 
-0.422407 7.75086 1.38025 
0.861737 1.38025 7.80395 
8.12613 -0.0934319 0.933229 
-0.0934319 7.73409 1.14306 
0.933229 1.14306 7.66965 
8.7512 0.0693909 0.185366 
0.0693909 7.81272 1.58938 
0.185366 1.58938 8.05253 
9.33813 -0.219214 0.575569 
-0.219214 6.38336 1.51159 
0.575569 1.51159 8.89497 
7.62981 -0.557863 0.115859 
-0.557863 9.34244 1.01466 
0.115859 1.01466 7.64421 
8.88087 0.617492 0.0711806 
0.617492 7.83914 1.8481 
0.0711806 1.8481 7.89645 
9.94048 0.00223344 -0.528014 
0.00223344 9.93193 -0.0606114 
-0.528014 -0.0606114 10.0234 
9.98033 0.0136741 -0.539774 
0.0136741 9.97145 -0.0885339 
-0.539774 -0.0885339 9.94408 
9.98255 0.0173188 -0.519792 
0.0173188 9.95879 -0.0737367 
-0.519792 -0.0737367 9.95451 
9.98172 0.00403418 -0.530528 
0.00403418 9.94141 -0.0713211 
-0.530528 -0.0713211 9.97273 
5.76978 -0.115299 -1.99308 
-0.115299 7.30895 -0.564254 
-1.99308 -0.564254 -5.46001 
-1.85523 0.259615 0.323836 
0.259615 -2.85528 -0.98143 
0.323836 -0.98143 12.3292 
6.179 -0.121633 -0.663448 
-0.121633 6.02009 2.13634 
-0.663448 2.13634 -4.58037 
6.11466 -0.500509 5.83239 
-0.500509 6.05066 -1.89815 
5.83239 -1.89815 -4.5466 
8.92552 0.328715 0.0740464 
0.328715 10.0069 0.136501 
0.0740464 0.136501 9.65365 
9.87685 0.1831 0.179295 
0.1831 9.18971 -0.151709 
0.179295 -0.151709 9.51954 
9.16345 0.354885 0.238033 
0.354885 9.56133 0.0232406 
0.238033 0.0232406 9.86133 
9.48996 0.634095 0.270485 
0.634095 9.2773 0.0275475 
0.270485 0.0275475 9.81884 
8.4242 0.106426 -0.09118 
0.106426 9.01259 1.2163 
-0.09118 1.2163 7.93954 
8.86339 -0.143565 0.0427709 
-0.143565 8.16163 1.06992 
0.0427709 1.06992 8.3513 
8.23378 0.0960281 -0.237718 
0.0960281 8.72847 1.08978 
-0.237718 1.08978 8.41408 
8.81751 0.158478 -0.0844601 
0.158478 8.41304 1.05286 
-0.0844601 1.05286 8.14577 
9.8523 -0.0012283 -0.502178 
-0.0012283 9.92712 0.1053 
-0.502178 0.1053 9.95352 
9.93014 0.00644754 -0.520313 
0.00644754 9.90657 0.132859 
-0.520313 0.132859 9.89623 
9.89316 0.00497409 -0.496628 
0.00497409 9.9181 0.109797 
-0.496628 0.109797 9.92168 
9.92848 -0.0115669 -0.497648 
-0.0115669 9.88668 0.129859 
-0.497648 0.129859 9.91778 
9.4155 0.0313378 0.191154 
0.0313378 9.72729 -0.128051 
0.191154 -0.128051 9.6943 
9.47564 0.0308403 0.289986 
0.0308403 9.64163 -0.0577158 
0.289986 -0.0577158 9.71982 
9.80343 0.0934596 0.251859 
0.0934596 9.43418 -0.0193275 
0.251859 -0.0193275 9.59948 
9.61863 -0.0528757 0.29733 
-0.0528757 9.49714 -0.0821541 
0.29733 -0.0821541 9.72132 
9.9082 0.00275411 -0.378571 
0.00275411 9.91723 -0.299699 
-0.378571 -0.299699 10.0815 
9.9933 0.00573241 -0.411889 
0.00573241 9.99901 -0.286427 
-0.411889 -0.286427 9.9146 
9.98944 -0.0234365 -0.418851 
-0.0234365 9.95966 -0.287271 
-0.418851 -0.287271 9.95781 
9.97645 0.0177691 -0.45809 
0.0177691 10.0015 -0.289598 
-0.45809 -0.289598 9.92895 
9.67627 -0.0357947 0.490876 
-0.0357947 9.72867 0.44894 
0.490876 0.44894 9.66301 
9.63574 0.0460494 0.474954 
0.0460494 9.66376 0.489889 
0.474954 0.489889 9.76845 
9.74471 0.0651903 0.478244 
0.0651903 9.77084 0.528327 
0.478244 0.528327 9.5524 
9.68128 -0.00786189 0.450242 
-0.00786189 9.72653 0.430294 
0.450242 0.430294 9.66014 
9.94474 0.000336965 -0.361974 
0.000336965 9.92641 0.0733854 
-0.361974 0.0733854 9.98527 
9.94541 -0.00317563 -0.366802 
-0.00317563 9.94047 0.105374 
-0.366802 0.105374 9.97053 
9.94669 -0.00255455 -0.337093 
-0.00255455 9.93541 0.0960272 
-0.337093 0.0960272 9.97431 
9.96728 -0.00566499 -0.355105 
-0.00566499 9.95397 0.100001 
-0.355105 0.100001 9.93517 
9.8594 -0.134992 -0.128363 
-0.134992 10.1355 -0.25802 
-0.128363 -0.25802 9.9859 
9.79843 -0.257726 0.152641 
-0.257726 9.81677 -0.0737278 
0.152641 -0.0737278 10.3656 
9.66711 0.190141 0.134726 
0.190141 10.2994 0.139324 
0.134726 0.139324 10.0142 
9.55812 0.215241 -0.137171 
0.215241 10.1462 0.104475 
-0.137171 0.104475 10.2764 
9.82513 0.0485372 -0.0598209 
0.0485372 9.65264 -0.0142311 
-0.0598209 -0.0142311 9.76933 
9.54081 0.0766429 -0.0131934 
0.0766429 9.82131 0.0119933 
-0.0131934 0.0119933 9.88498 
9.64668 0.0529903 -0.0860827 
0.0529903 9.74318 0.00365754 
-0.0860827 0.00365754 9.85724 
9.71546 -0.0646897 -0.110458 
-0.0646897 9.68484 0.0202399 
-0.110458 0.0202399 9.8468 
9.87038 0.0109934 0.16921 
0.0109934 9.95604 -0.664572 
0.16921 -0.664572 9.85423 
9.95292 -0.00391144 0.12919 
-0.00391144 9.76591 -0.621912 
0.12919 -0.621912 9.96181 
9.93152 0.00408846 0.134704 
0.00408846 9.87197 -0.619865 
0.134704 -0.619865 9.87715 
9.86084 -0.0274434 0.175547 
-0.0274434 9.94003 -0.608245 
0.175547 -0.608245 9.87977 
9.70268 -0.0460368 0.443113 
-0.0460368 9.77484 -0.392016 
0.443113 -0.392016 9.83207 
9.74117 -0.018479 0.470351 
-0.018479 9.85803 -0.393046 
0.470351 -0.393046 9.71039 
9.70025 0.0505937 0.435043 
0.0505937 9.81682 -0.409852 
0.435043 -0.409852 9.79252 
9.69939 0.00134886 0.434268 
0.00134886 9.84881 -0.399873 
0.434268 -0.399873 9.76139 
9.86375 0.0277375 0.0513942 
0.0277375 9.77906 -0.00703093 
0.0513942 -0.00703093 9.74779 
9.64007 0.0837331 -0.0185667 
0.0837331 9.85617 -0.0512863 
-0.0185667 -0.0512863 9.89435 
9.83996 0.00143789 0.0342044 
0.00143789 9.78886 -0.00809853 
0.0342044 -0.00809853 9.76178 
9.88397 -0.0809342 -0.0543382 
-0.0809342 9.77006 -0.00380718 
-0.0543382 -0.00380718 9.73656 
10.5269 0.23154 0.0753543 
0.23154 9.5612 -0.839309 
0.0753543 -0.839309 11.2972 
11.5878 -0.480553 0.816962 
-0.480553 9.16269 0.584128 
0.816962 0.584128 10.6347 
10.9339 0.207203 -0.136636 
0.207203 9.69296 -0.586821 
-0.136636 -0.586821 10.7584 
10.2892 -0.0496703 0.543688 
-0.0496703 8.93596 -0.406213 
0.543688 -0.406213 12.1601 
9.73374 0.0302299 -0.525339 
0.0302299 9.77024 -0.105205 
-0.525339 -0.105205 9.77136 
9.7402 0.0288812 -0.532553 
0.0288812 9.78707 -0.0809813 
-0.532553 -0.0809813 9.74807 
9.69734 0.0285635 -0.530672 
0.0285635 9.74365 -0.098857 
-0.530672 -0.098857 9.83436 
9.72892 0.0218532 -0.514793 
0.0218532 9.77308 -0.108318 
-0.514793 -0.108318 9.77335 
9.98937 0.0215062 -0.104174 
0.0215062 9.97734 0.197833 
-0.104174 0.197833 9.97376 
9.99771 0.00610315 -0.10096 
0.00610315 9.99461 0.206724 
-0.10096 0.206724 9.94816 
9.95042 0.0100094 -0.0757121 
0.0100094 9.96185 0.222441 
-0.0757121 0.222441 10.0282 
9.99268 -0.0031355 -0.120022 
-0.0031355 10.0086 0.203011 
-0.120022 0.203011 9.93924 
10.2548 -2.7314 0.990543 
-2.7314 11.1664 0.082808 
0.990543 0.082808 14.696 
0.527593 -3.44073 -0.38764 
-3.44073 11.4455 -1.49141 
-0.38764 -1.49141 24.1441 
8.04456 -2.84283 -0.18839 
-2.84283 11.0911 0.376358 
-0.18839 0.376358 16.9815 
11.2803 -0.660245 -2.01264 
-0.660245 11.1151 -0.390151 
-2.01264 -0.390151 13.7217 
9.97883 -0.0106081 0.14412 
-0.0106081 9.98933 -0.460478 
0.14412 -0.460478 10.0169 
10.02 -0.022202 0.122858 
-0.022202 10.038 -0.459355 
0.122858 -0.459355 9.92705 
9.97978 0.0139461 0.105743 
0.0139461 9.97465 -0.465719 
0.105743 -0.465719 10.0306 
9.98687 -0.0170291 0.138672 
-0.0170291 10.0457 -0.497177 
0.138672 -0.497177 9.95248 
6.42856 0.308411 1.03656 
0.308411 7.32432 0.709049 
1.03656 0.709049 -2.88559 
1.01749 -0.340679 0.491596 
-0.340679 2.64123 0.569509 
0.491596 0.569509 7.20858 
6.03482 1.25494 -1.26726 
1.25494 6.9674 1.75021 
-1.26726 1.75021 -2.13492 
5.63123 -0.168526 1.46325 
-0.168526 4.32445 4.83835 
1.46325 4.83835 0.911615 
12.8429 0.812373 0.531443 
0.812373 9.70161 0.53632 
0.531443 0.53632 9.63657 
9.90277 -0.219856 0.177745 
-0.219856 10.3301 0.2662 
0.177745 0.2662 11.9482 
9.93258 0.713809 -0.386805 
0.713809 10.4084 0.732632 
-0.386805 0.732632 11.8401 
10.9421 0.915441 -0.648999 
0.915441 10.6335 -0.488913 
-0.648999 -0.488913 10.6054 
9.87392 -0.000728673 -0.0854074 
-0.000728673 9.88376 0.613129 
-0.0854074 0.613129 10.0848 
9.90937 -0.0235891 -0.111479 
-0.0235891 9.99221 0.595624 
-0.111479 0.595624 9.94092 
9.94084 0.00676312 -0.135564 
0.00676312 9.98263 0.588042 
-0.135564 0.588042 9.91903 
9.97317 0.00613912 -0.145186 
0.00613912 9.98652 0.634394 
-0.145186 0.634394 9.88282 
9.83869 -0.0140544 0.0348191 
-0.0140544 9.79867 -0.021323 
0.0348191 -0.021323 9.89253 
9.85794 -0.0107935 0.0193072 
-0.0107935 9.83166 -0.00534223 
0.0193072 -0.00534223 9.84029 
9.89459 0.0314458 0.0275042 
0.0314458 9.83795 0.00966984 
0.0275042 0.00966984 9.79736 
9.84467 -0.0206539 -0.00387707 
-0.0206539 9.8226 -0.0121518 
-0.00387707 -0.0121518 9.86262 
8.98256 -0.0956712 0.444703 
-0.0956712 9.49603 -0.241549 
0.444703 -0.241549 9.19827 
9.01728 -0.233966 0.543275 
-0.233966 9.61522 -0.294421 
0.543275 -0.294421 9.04437 
8.7656 0.201938 0.486041 
0.201938 9.33928 -0.321893 
0.486041 -0.321893 9.57199 
8.87872 -0.132074 0.382406 
-0.132074 9.57259 -0.0824121 
0.382406 -0.0824121 9.22556 
9.10107 0.0298792 0.748731 
0.0298792 9.20074 0.490824 
0.748731 0.490824 9.05473 
9.18997 0.320813 0.865621 
0.320813 9.27179 0.555931 
0.865621 0.555931 8.89477 
8.8705 -0.117374 0.687967 
-0.117374 9.30617 0.579184 
0.687967 0.579184 9.17987 
9.21224 -0.00312296 0.715883 
-0.00312296 9.14654 0.416595 
0.715883 0.416595 8.99776 
9.58432 0.118514 0.00320645 
0.118514 9.70898 0.0860715 
0.00320645 0.0860715 9.74123 
9.60119 0.140931 0.0646373 
0.140931 9.8022 0.11318 
0.0646373 0.11318 9.63115 
9.9548 0.0493401 -0.144247 
0.0493401 9.4682 -0.0596218 
-0.144247 -0.0596218 9.61154 
9.71104 -0.0206607 0.0535438 
-0.0206607 9.63795 0.115448 
0.0535438 0.115448 9.68554 
10.4769 0.321419 -0.429071 
0.321419 10.5737 -0.26008 
-0.429071 -0.26008 10.6923 
10.6123 0.077751 -0.38146 
0.077751 10.9104 -0.270064 
-0.38146 -0.270064 10.2202 
11.0048 0.481889 -0.202571 
0.481889 10.5095 -0.0359708 
-0.202571 -0.0359708 10.2286 
10.3564 0.258672 -0.396062 
0.258672 10.7309 0.00852131 
-0.396062 0.00852131 10.6556 
8.60519 -0.0345985 0.369348 
-0.0345985 7.86105 1.13673 
0.369348 1.13673 8.3041 
8.65685 -0.19178 0.654837 
-0.19178 7.64287 1.00259 
0.654837 1.00259 8.47062 
8.57657 0.303274 0.443728 
0.303274 8.00671 0.921381 
0.443728 0.921381 8.18706 
8.55056 -0.0193882 0.672237 
-0.0193882 7.77653 1.20506 
0.672237 1.20506 8.44325 
9.98075 0.0134282 0.0181025 
0.0134282 9.97188 -0.136896 
0.0181025 -0.136896 9.9764 
9.97777 0.00624228 0.0242565 
0.00624228 9.97433 -0.154952 
0.0242565 -0.154952 9.97693 
9.97173 -0.00321194 -0.00146776 
-0.00321194 9.96126 -0.153978 
-0.00146776 -0.153978 9.99603 
9.98695 0.00599876 0.0208201 
0.00599876 9.99283 -0.140267 
0.0208201 -0.140267 9.94924 
9.85641 0.00614574 0.0425723 
0.00614574 9.78379 -0.0255904 
0.0425723 -0.0255904 9.78712 
9.65799 -0.0350927 0.0207228 
-0.0350927 9.89075 -0.0385995 
0.0207228 -0.0385995 9.87859 
9.80428 -0.0082562 -0.0313494 
-0.0082562 9.88297 0.05856 
-0.0313494 0.05856 9.74008 
9.88452 -0.0260065 -0.0383043 
-0.0260065 9.74421 0.0094763 
-0.0383043 0.0094763 9.79859 
9.95451 0.0340147 0.373982 
0.0340147 9.98775 -0.274458 
0.373982 -0.274458 9.99477 
9.96767 -0.0244471 0.383092 
-0.0244471 10.0075 -0.282562 
0.383092 -0.282562 9.9619 
9.97232 -0.0144225 0.366637 
-0.0144225 9.96569 -0.297859 
0.366637 -0.297859 9.99902 
9.98256 -0.0154318 0.392566 
-0.0154318 9.99406 -0.285904 
0.392566 -0.285904 9.9604 
0.595413 0.285718 1.08985 
0.285718 0.962388 0.978743 
1.08985 0.978743 10.8692 
8.5841 1.84589 1.58213 
1.84589 9.45997 -1.80851 
1.58213 -1.80851 -5.61705 
7.11889 0.501247 -1.7413 
0.501247 10.1668 -0.564086 
-1.7413 -0.564086 -4.85862 
7.34473 -1.439 -3.04745 
-1.439 4.39964 -7.47653 
-3.04745 -7.47653 0.682658 
9.86212 0.0195856 -0.556674 
0.0195856 9.87917 -0.118595 
-0.556674 -0.118595 9.89422 
9.82745 0.0195137 -0.542308 
0.0195137 9.89912 -0.107545 
-0.542308 -0.107545 9.90894 
9.85355 0.0148416 -0.557901 
0.0148416 9.92034 -0.141708 
-0.557901 -0.141708 9.86163 
9.86697 0.012408 -0.542273 
0.012408 9.88375 -0.108253 
-0.542273 -0.108253 9.88479 
5.05268 2.42331 1.06658 
2.42331 7.86945 0.62431 
1.06658 0.62431 18.9981 
2.97426 2.43885 0.608891 
2.43885 11.1604 -0.502174 
0.608891 -0.502174 17.7855 
9.54482 2.76049 -0.840721 
2.76049 9.57961 0.410028 
-0.840721 0.410028 12.7958 
8.54927 0.7892 1.03158 
0.7892 10.027 -1.08541 
1.03158 -1.08541 13.344 
3.00034 -0.589468 -0.191123 
-0.589468 5.77451 -1.9114 
-0.191123 -1.9114 1.35899 
6.97181 1.42399 -0.315009 
1.42399 3.79582 -1.7897 
-0.315009 -1.7897 -0.633796 
5.33282 0.183793 -1.07986 
0.183793 2.95101 -0.544814 
-1.07986 -0.544814 1.85 
5.13282 0.384123 -1.66409 
0.384123 2.49664 0.174446 
-1.66409 0.174446 2.50437 
10.7497 1.78778 0.924606 
1.78778 1.52521 -1.61551 
0.924606 -1.61551 24.2467 
10.6906 4.07612 -1.24755 
4.07612 5.01491 -1.95483 
-1.24755 -1.95483 20.8161 
18.3334 0.0994203 -0.977222 
0.0994203 9.62271 3.70575 
-0.977222 3.70575 8.56546 
11.2506 0.0710456 0.983179 
0.0710456 12.9131 -4.66771 
0.983179 -4.66771 12.3578 
5.5198 0.138144 0.310344 
0.138144 2.20676 -2.2812 
0.310344 -2.2812 6.64098 
4.50919 -1.98534 2.06749 
-1.98534 9.69757 -1.35287 
2.06749 -1.35287 0.160793 
8.30772 0.0700911 0.318472 
0.0700911 8.75925 -1.94116 
0.318472 -1.94116 -2.69941 
4.71248 1.99656 3.21179 
1.99656 5.59559 -4.53764 
3.21179 -4.53764 4.05948 
9.66311 0.0137349 0.18949 
0.0137349 9.70127 0.670963 
0.18949 0.670963 9.53831 
9.64963 -0.0754662 0.224672 
-0.0754662 9.56394 0.647045 
0.224672 0.647045 9.68912 
9.63115 -0.00683791 0.195989 
-0.00683791 9.66747 0.639555 
0.195989 0.639555 9.60407 
9.61438 0.00294443 0.160191 
0.00294443 9.6822 0.611687 
0.160191 0.611687 9.60611 
9.95284 -0.0197366 -0.173927 
-0.0197366 9.94386 0.0836009 
-0.173927 0.0836009 9.99528 
9.94524 -0.0114801 -0.183392 
-0.0114801 9.9528 0.120882 
-0.183392 0.120882 9.99394 
9.98487 -0.0191239 -0.167328 
-0.0191239 9.95731 0.11188 
-0.167328 0.11188 9.9498 
9.99456 -0.00942971 -0.159435 
-0.00942971 9.96078 0.113004 
-0.159435 0.113004 9.93664 
9.98875 0.00834635 -0.135259 
0.00834635 10.0315 0.266366 
-0.135259 0.266366 9.91018 
9.96471 0.0155668 -0.140733 
0.0155668 9.98071 0.239819 
-0.140733 0.239819 9.98496 
9.95587 0.0349531 -0.0996656 
0.0349531 9.9265 0.274696 
-0.0996656 0.274696 10.048 
10.007 -0.0125946 -0.122468 
-0.0125946 10.0096 0.229172 
-0.122468 0.229172 9.91379 
2.63669 -0.414859 0.340418 
-0.414859 3.99568 -0.285058 
0.340418 -0.285058 0.615254 
3.77347 0.722005 -0.803385 
0.722005 4.51899 -0.468813 
-0.803385 -0.468813 -1.04485 
2.25058 -0.203177 0.138134 
-0.203177 2.02454 -1.24636 
0.138134 -1.24636 2.9725 
2.57569 -0.00349571 0.927311 
-0.00349571 3.06519 -1.7967 
0.927311 -1.7967 1.60673 
9.45609 -1.51408 -0.961682 
-1.51408 6.08725 -0.342734 
-0.961682 -0.342734 10.7382 
7.21002 1.96718 -0.461054 
1.96718 11.022 0.46719 
-0.461054 0.46719 8.04953 
8.71791 -0.157502 1.08228 
-0.157502 7.78129 0.59825 
1.08228 0.59825 9.78231 
8.7123 -1.05555 1.30434 
-1.05555 8.05794 1.25812 
1.30434 1.25812 9.51127 
12.4289 -2.80498 -1.16884 
-2.80498 13.0709 -2.50236 
-1.16884 -2.50236 11.9584 
10.8429 -2.26583 -0.963783 
-2.26583 7.87789 0.50749 
-0.963783 0.50749 18.7374 
11.7091 -3.98113 1.72342 
-3.98113 -0.391835 0.532294 
1.72342 0.532294 26.1409 
11.7597 0.165913 0.479356 
0.165913 11.9307 3.3895 
0.479356 3.3895 13.7678 
14.6055 -0.218407 0.416986 
-0.218407 11.533 -0.872268 
0.416986 -0.872268 14.1803 
11.8571 0.51849 0.180338 
0.51849 9.66319 -2.17874 
0.180338 -2.17874 18.7985 
14.1298 1.91232 0.350886 
1.91232 11.424 -1.11099 
0.350886 -1.11099 14.7649 
14.5519 -0.038785 1.53903 
-0.038785 11.2964 0.420622 
1.53903 0.420622 14.4706 
9.91633 -0.00764269 -0.397147 
-0.00764269 9.92398 -0.0500038 
-0.397147 -0.0500038 10.0189 
9.93331 0.0032251 -0.404496 
0.0032251 9.94808 -0.0125266 
-0.404496 -0.0125266 9.97781 
9.95291 0.0123948 -0.391324 
0.0123948 9.95897 -0.0277978 
-0.391324 -0.0277978 9.9473 
9.97229 0.00548238 -0.383766 
0.00548238 9.95424 -0.0158316 
-0.383766 -0.0158316 9.93267 
9.91412 0.0186692 -0.0188365 
0.0186692 9.8437 -0.0374898 
-0.0188365 -0.0374898 9.88446 
9.87279 0.0491965 -0.00477925 
0.0491965 9.8786 -0.0323271 
-0.00477925 -0.0323271 9.8909 
9.89236 0.0247705 -0.0248115 
0.0247705 9.85476 -0.0364076 
-0.0248115 -0.0364076 9.89517 
9.9157 -0.0340942 -0.0350571 
-0.0340942 9.89026 -0.0230703 
-0.0350571 -0.0230703 9.83633 
9.91749 -0.00426166 0.162404 
-0.00426166 9.90438 0.0134516 
0.162404 0.0134516 10.0031 
9.93693 -0.0061696 0.158566 
-0.0061696 9.94151 -0.0180761 
0.158566 -0.0180761 9.94657 
9.93146 -0.00591824 0.138677 
-0.00591824 9.92102 -0.0205439 
0.138677 -0.0205439 9.97252 
9.95317 -0.0110652 0.155603 
-0.0110652 9.93438 -0.0280465 
0.155603 -0.0280465 9.93746 
9.18639 0.814164 0.918826 
0.814164 8.72211 -0.77466 
0.918826 -0.77466 10.2537 
9.49997 0.790349 -0.626126 
0.790349 8.371 0.447459 
-0.626126 0.447459 10.2912 
7.73103 0.996715 -1.14288 
0.996715 7.07579 1.38991 
-1.14288 1.38991 13.3554 
10.0009 1.11986 -1.00803 
1.11986 8.53266 -0.0309323 
-1.00803 -0.0309323 9.6287 
9.08374 0.223286 -0.154839 
0.223286 9.61162 0.164891 
-0.154839 0.164891 9.64636 
9.12001 0.081441 -0.271869 
0.081441 9.67713 0.178622 
-0.271869 0.178622 9.54458 
9.25469 -0.125399 -0.299331 
-0.125399 9.61495 0.14259 
-0.299331 0.14259 9.47208 
8.96165 -0.0280582 -0.276924 
-0.0280582 9.71771 0.253452 
-0.276924 0.253452 9.66237 
10.006 0.0277904 0.472459 
0.0277904 9.97114 0.030469 
0.472459 0.030469 9.92425 
9.98927 0.0110924 0.514813 
0.0110924 9.93424 0.0331706 
0.514813 0.0331706 9.97787 
9.94779 -0.0239762 0.498084 
-0.0239762 9.91696 0.0211012 
0.498084 0.0211012 10.0366 
9.98887 0.0387621 0.529332 
0.0387621 9.97744 0.066214 
0.529332 0.066214 9.93506 
9.96335 -0.0044783 -0.346047 
-0.0044783 9.98574 0.361586 
-0.346047 0.361586 9.96033 
9.93386 0.0074785 -0.318879 
0.0074785 9.95667 0.351113 
-0.318879 0.351113 10.0189 
9.96214 0.00258029 -0.349193 
0.00258029 9.96983 0.345059 
-0.349193 0.345059 9.97745 
9.95965 -0.0022653 -0.36086 
-0.0022653 10.0032 0.361415 
-0.36086 0.361415 9.94662 
10.0444 0.304618 -0.182543 
0.304618 9.34061 -0.0856067 
-0.182543 -0.0856067 10.3336 
9.71806 0.0137479 0.0254396 
0.0137479 10.1021 0.0708868 
0.0254396 0.0708868 9.89847 
9.80316 -0.0126248 -0.00176499 
-0.0126248 10.1049 -0.0401864 
-0.00176499 -0.0401864 9.8106 
9.87509 0.152464 -0.0866034 
0.152464 10.0458 0.10152 
-0.0866034 0.10152 9.79777 
9.59769 0.0149292 0.564084 
0.0149292 9.72506 0.0571213 
0.564084 0.0571213 9.87244 
9.84398 0.104273 0.48953 
0.104273 9.72794 0.0483011 
0.48953 0.0483011 9.62327 
9.74548 0.0536048 0.484616 
0.0536048 9.71215 0.0306526 
0.484616 0.0306526 9.73756 
9.65947 0.0756698 0.449608 
0.0756698 9.73915 -0.0393177 
0.449608 -0.0393177 9.79657 
8.97606 0.181149 0.393619 
0.181149 9.26961 1.32682 
0.393619 1.32682 11.3049 
11.5012 1.51871 0.676669 
1.51871 8.06907 1.61471 
0.676669 1.61471 9.9803 
9.8409 0.921973 0.62312 
0.921973 8.55213 -0.147735 
0.62312 -0.147735 11.1575 
8.73538 -1.87453 -0.990965 
-1.87453 11.408 -0.213306 
-0.990965 -0.213306 9.40716 
9.94322 -0.0101584 -0.434725 
-0.0101584 9.99806 -0.494507 
-0.434725 -0.494507 9.94497 
9.96227 0.00302559 -0.442194 
0.00302559 9.99251 -0.499336 
-0.442194 -0.499336 9.93147 
9.95778 -0.0361201 -0.440266 
-0.0361201 9.93041 -0.486856 
-0.440266 -0.486856 9.99805 
9.93139 0.00180844 -0.410353 
0.00180844 9.94899 -0.510958 
-0.410353 -0.510958 10.0059 
10.7299 0.217114 0.183121 
0.217114 11.5848 1.37113 
0.183121 1.37113 10.843 
9.12908 0.483284 -0.980167 
0.483284 10.1624 -0.346097 
-0.980167 -0.346097 13.8662 
10.2885 -0.43673 -0.36025 
-0.43673 11.6262 0.00116559 
-0.36025 0.00116559 11.243 
11.65 0.180536 0.13644 
0.180536 12.409 -0.534975 
0.13644 -0.534975 9.09865 
2.04893 -1.69845 -0.263552 
-1.69845 1.86 -2.19815 
-0.263552 -2.19815 4.9985 
5.9381 -0.194121 0.609834 
-0.194121 6.82508 0.752779 
0.609834 0.752779 -3.85575 
7.86909 2.2354 0.668871 
2.2354 3.11514 1.35989 
0.668871 1.35989 -2.0768 
3.21267 0.832505 -3.38629 
0.832505 6.24557 -0.142386 
-3.38629 -0.142386 -0.550822 
11.2014 1.08374 -0.66544 
1.08374 8.82578 -1.20879 
-0.66544 -1.20879 10.0722 
9.7815 -0.931497 0.953269 
-0.931497 10.3996 0.231514 
0.953269 0.231514 9.91832 
9.84699 0.364549 -0.217129 
0.364549 9.27828 0.0217211 
-0.217129 0.0217211 10.9741 
9.04884 -0.547502 -0.216706 
-0.547502 9.63737 -0.927091 
-0.216706 -0.927091 11.4132 
11.0046 0.149215 0.09878 
0.149215 10.6676 0.0340731 
0.09878 0.0340731 10.8878 
10.9662 0.0503679 0.0694017 
0.0503679 10.6716 0.0269573 
0.0694017 0.0269573 10.9222 
10.6867 -0.0135879 0.0569251 
-0.0135879 10.6313 0.110753 
0.0569251 0.110753 11.2419 
10.9535 0.01444 0.0517062 
0.01444 10.636 -0.12763 
0.0517062 -0.12763 10.9704 
9.91617 0.00676252 0.510997 
0.00676252 9.87496 0.0723417 
0.510997 0.0723417 9.88007 
9.73956 0.0326009 0.528838 
0.0326009 9.97416 0.0965405 
0.528838 0.0965405 9.95748 
9.86815 0.0211788 0.538728 
0.0211788 9.94911 0.123897 
0.538728 0.123897 9.85394 
9.93374 0.0413053 0.576353 
0.0413053 9.87794 0.0962308 
0.576353 0.0962308 9.85952 
9.48036 0.112412 0.686999 
0.112412 9.31361 -0.281064 
0.686999 -0.281064 10.6865 
9.49984 -1.22725 -0.0460688 
-1.22725 10.805 -0.149394 
-0.0460688 -0.149394 9.17559 
9.27123 1.46888 -0.203214 
1.46888 9.24097 0.645272 
-0.203214 0.645272 10.9682 
9.47772 0.79635 0.41069 
0.79635 9.82003 -0.282162 
0.41069 -0.282162 10.1827 
9.66742 -0.0715513 -0.484902 
-0.0715513 9.73202 -0.451157 
-0.484902 -0.451157 9.7341 
9.67902 0.0212696 -0.510509 
0.0212696 9.8152 -0.458178 
-0.510509 -0.458178 9.63931 
9.67302 0.0870808 -0.467046 
0.0870808 9.7384 -0.450167 
-0.467046 -0.450167 9.72211 
9.64682 -0.00790804 -0.465486 
-0.00790804 9.81722 -0.450609 
-0.465486 -0.450609 9.6695 
10.516 0.0920994 0.0916733 
0.0920994 9.19503 0.940639 
0.0916733 0.940639 11.3899 
11.0735 0.260949 0.313755 
0.260949 9.51012 0.553045 
0.313755 0.553045 10.5173 
10.1624 0.241596 -0.289455 
0.241596 8.87397 0.485415 
-0.289455 0.485415 12.0646 
11.1549 -0.541043 -0.682286 
-0.541043 9.04774 -0.524308 
-0.682286 -0.524308 10.8983 
9.63309 0.0673275 -0.362065 
0.0673275 9.62577 0.532813 
-0.362065 0.532813 9.95662 
9.70105 0.0224369 -0.364528 
0.0224369 9.8002 0.459892 
-0.364528 0.459892 9.71423 
9.72233 -0.0352262 -0.313551 
-0.0352262 9.92753 0.556056 
-0.313551 0.556056 9.56562 
9.66717 0.0450113 -0.340308 
0.0450113 9.82704 0.376295 
-0.340308 0.376295 9.72127 
9.97248 0.00421717 0.266769 
0.00421717 9.9629 -0.0202918 
0.266769 -0.0202918 9.99474 
9.97097 0.000530902 0.243389 
0.000530902 9.96725 -0.0130938 
0.243389 -0.0130938 9.99191 
9.97945 0.00479406 0.256815 
0.00479406 9.97932 -0.00531217 
0.256815 -0.00531217 9.97136 
9.98265 0.00661532 0.256089 
0.00661532 9.98878 -0.0047874 
0.256089 -0.0047874 9.95869 
1.48609 0.479446 -0.31307 
0.479446 1.53124 -0.911085 
-0.31307 -0.911085 9.24431 
7.85152 2.19183 -0.659904 
2.19183 9.26443 1.80159 
-0.659904 1.80159 -4.85431 
6.26786 0.615073 2.8768 
0.615073 9.53929 0.513822 
2.8768 0.513822 -3.54552 
5.78201 -1.45225 2.89723 
-1.45225 3.53177 5.46493 
2.89723 5.46493 2.94785 
9.68025 -0.0263698 -0.377089 
-0.0263698 9.76164 -0.577431 
-0.377089 -0.577431 9.69181 
9.6615 -0.0550246 -0.412237 
-0.0550246 9.63488 -0.564385 
-0.412237 -0.564385 9.83732 
9.71067 0.065686 -0.385786 
0.065686 9.83822 -0.654606 
-0.385786 -0.654606 9.58482 
9.67717 -0.0112232 -0.368453 
-0.0112232 9.83657 -0.504593 
-0.368453 -0.504593 9.61997 
9.63124 0.0408021 -0.0517394 
0.0408021 9.76941 -0.0092098 
-0.0517394 -0.0092098 9.9179 
9.79228 0.126688 -0.00942703 
0.126688 9.70652 -0.00177237 
-0.00942703 -0.00177237 9.81975 
9.74371 0.0543319 -0.0120386 
0.0543319 9.83544 -0.00862408 
-0.0120386 -0.00862408 9.7394 
9.75164 0.0474281 0.0398358 
0.0474281 9.67053 0.00895908 
0.0398358 0.00895908 9.89638 
8.86975 -0.0343158 0.0802961 
-0.0343158 9.12863 0.923824 
0.0802961 0.923824 8.98469 
9.17284 0.0455127 -0.102077 
0.0455127 8.88936 0.914565 
-0.102077 0.914565 8.92087 
9.10968 -0.0370533 0.0158957 
-0.0370533 9.22824 0.998584 
0.0158957 0.998584 8.64516 
9.16355 -0.106196 -0.0334287 
-0.106196 9.0112 0.916491 
-0.0334287 0.916491 8.80834 
10.4672 0.0430949 0.000732759 
0.0430949 9.93406 -0.310102 
0.000732759 -0.310102 10.4514 
9.79046 -0.147213 0.217858 
-0.147213 9.89789 0.100371 
0.217858 0.100371 11.1643 
10.5706 0.224599 0.153208 
0.224599 10.4931 -0.208312 
0.153208 -0.208312 9.78897 
10.4121 0.0492648 -0.155565 
0.0492648 10.0729 -0.366069 
-0.155565 -0.366069 10.3677 
9.85369 0.00655033 -0.00371047 
0.00655033 9.83795 -0.00688976 
-0.00371047 -0.00688976 9.83247 
9.9197 0.0183057 -0.0506853 
0.0183057 9.78341 0.000689414 
-0.0506853 0.000689414 9.821 
9.88737 0.0224012 0.0225854 
0.0224012 9.82264 -0.0333873 
0.0225854 -0.0333873 9.8141 
9.72924 -0.00220769 -0.0249718 
-0.00220769 9.88412 0.0402063 
-0.0249718 0.0402063 9.91075 
9.65073 0.0512628 0.496178 
0.0512628 9.68245 0.0178723 
0.496178 0.0178723 9.69933 
9.75635 0.104327 0.509015 
0.104327 9.61229 -0.0171775 
0.509015 -0.0171775 9.66387 
9.58416 0.0551409 0.453915 
0.0551409 9.70735 -0.00849837 
0.453915 -0.00849837 9.741 
9.67282 0.0245701 0.509484 
0.0245701 9.63137 -0.00847475 
0.509484 -0.00847475 9.72831 
9.85058 -0.00709577 -0.15687 
-0.00709577 9.95384 0.605569 
-0.15687 0.605569 9.8799 
9.9217 -0.00669462 -0.131247 
-0.00669462 9.90072 0.634401 
-0.131247 0.634401 9.8619 
9.97599 -0.0185784 -0.121162 
-0.0185784 9.72758 0.611851 
-0.121162 0.611851 9.98075 
9.8902 0.015573 -0.174599 
0.015573 9.94693 0.661132 
-0.174599 0.661132 9.84719 
9.9514 0.00153308 0.446987 
0.00153308 9.95072 -0.0869519 
0.446987 -0.0869519 9.96685 
9.93036 -0.00279731 0.424405 
-0.00279731 9.9393 -0.0963382 
0.424405 -0.0963382 9.99931 
9.9442 -0.0115412 0.436312 
-0.0115412 9.94195 -0.0692847 
0.436312 -0.0692847 9.98282 
9.95681 -0.00488983 0.441799 
-0.00488983 9.96472 -0.079012 
0.441799 -0.079012 9.94744 
8.95554 0.501575 -0.16142 
0.501575 9.28581 0.112842 
-0.16142 0.112842 9.80468 
8.90418 -0.0430269 -0.29223 
-0.0430269 9.76995 0.37041 
-0.29223 0.37041 9.37191 
9.14288 -0.220226 -0.186931 
-0.220226 9.8473 0.271445 
-0.186931 0.271445 9.05586 
8.96353 0.0562492 -0.516511 
0.0562492 9.49223 0.488677 
-0.516511 0.488677 9.59028 
-0.13109 0.0887404 0.12694 
0.0887404 1.1721 -0.336572 
0.12694 -0.336572 10.9902 
7.80155 1.28427 1.52419 
1.28427 8.68476 -2.91124 
1.52419 -2.91124 -4.45506 
6.65898 0.395733 -1.59596 
0.395733 8.69537 -1.76583 
-1.59596 -1.76583 -3.32311 
6.8394 -1.07315 -3.60086 
-1.07315 3.53379 -9.41509 
-3.60086 -9.41509 1.65805 
9.80594 -0.00518428 0.46527 
-0.00518428 9.80974 -0.101009 
0.46527 -0.101009 9.81095 
9.74988 -0.000545665 0.485128 
-0.000545665 9.76597 -0.103094 
0.485128 -0.103094 9.91078 
9.81629 -0.000904607 0.481455 
-0.000904607 9.81623 -0.0752924 
0.481455 -0.0752924 9.79411 
9.80199 0.0185431 0.44565 
0.0185431 9.80561 -0.102984 
0.44565 -0.102984 9.81903 
8.6323 0.137668 0.176429 
0.137668 8.79876 1.19588 
0.176429 1.19588 11.1116 
9.06616 0.695098 0.532263 
0.695098 10.6876 -0.186103 
0.532263 -0.186103 8.78883 
9.71817 -1.41542 -0.344697 
-1.41542 8.20755 -0.668455 
-0.344697 -0.668455 10.6169 
10.7499 -0.42959 -1.1873 
-0.42959 7.35813 1.47167 
-1.1873 1.47167 10.4346 
9.95604 0.0241844 -0.195342 
0.0241844 10.0286 -0.664168 
-0.195342 -0.664168 9.90774 
9.97226 -0.00735535 -0.22227 
-0.00735535 9.88806 -0.626232 
-0.22227 -0.626232 10.0321 
9.99172 -0.00131838 -0.182879 
-0.00131838 9.99728 -0.601596 
-0.182879 -0.601596 9.90339 
9.96088 -0.0321585 -0.17483 
-0.0321585 9.92613 -0.639923 
-0.17483 -0.639923 10.0054 
9.96307 -0.00191482 -0.0228868 
-0.00191482 10.0003 -0.534066 
-0.0228868 -0.534066 9.97953 
9.96066 0.00230774 -0.00290846 
0.00230774 9.96031 -0.522131 
-0.00290846 -0.522131 10.0219 
9.96991 0.027836 -0.00939369 
0.027836 10.0115 -0.533175 
-0.00939369 -0.533175 9.9615 
9.97855 0.00342489 -0.0182378 
0.00342489 10.0089 -0.552361 
-0.0182378 -0.552361 9.95541 
9.76621 -0.167236 0.235044 
-0.167236 9.5298 -0.0683393 
0.235044 -0.0683393 9.67423 
9.55428 0.0236294 0.231822 
0.0236294 9.63303 -0.109073 
0.231822 -0.109073 9.78293 
9.53591 0.0209727 0.183916 
0.0209727 9.64761 -0.0438132 
0.183916 -0.0438132 9.78673 
9.68164 0.0347169 0.205913 
0.0347169 9.48202 -0.0516036 
0.205913 -0.0516036 9.80658 
9.84976 0.0119112 -0.00554648 
0.0119112 9.83623 -0.0198267 
-0.00554648 -0.0198267 9.80045 
9.82625 0.00899593 -0.0162632 
0.00899593 9.84538 -0.0222771 
-0.0162632 -0.0222771 9.81481 
9.82592 0.0240565 -0.0194269 
0.0240565 9.81399 0.0105911 
-0.0194269 0.0105911 9.84654 
9.81575 -0.000545323 0.0261984 
-0.000545323 9.78084 -0.0136032 
0.0261984 -0.0136032 9.88985 
10.1034 -0.0644971 -0.0159706 
-0.0644971 9.8292 0.0659197 
-0.0159706 0.0659197 9.72107 
9.6063 0.0783542 -0.044436 
0.0783542 9.77638 -0.0460403 
-0.044436 -0.0460403 10.271 
9.84497 -0.0884752 0.2296 
-0.0884752 10.0261 0.0773457 
0.2296 0.0773457 9.78266 
9.956 0.0136224 0.0193156 
0.0136224 9.95569 0.0188502 
0.0193156 0.0188502 9.74201 
9.57783 0.11975 0.404157 
0.11975 9.49503 0.0179811 
0.404157 0.0179811 9.52607 
9.6662 0.215873 0.439709 
0.215873 9.40952 -0.00442714 
0.439709 -0.00442714 9.52322 
9.29787 0.133395 0.34744 
0.133395 9.60694 -0.0265827 
0.34744 -0.0265827 9.69413 
9.51556 0.0733277 0.476688 
0.0733277 9.44494 -0.0299188 
0.476688 -0.0299188 9.63844 
9.94837 -0.00411803 0.187796 
-0.00411803 9.97094 -0.618131 
0.187796 -0.618131 9.99964 
9.97115 0.006084 0.211375 
0.006084 9.99434 -0.619586 
0.211375 -0.619586 9.95347 
9.984 0.0122348 0.214689 
0.0122348 9.93017 -0.610614 
0.214689 -0.610614 10.0048 
9.96979 0.017557 0.204967 
0.017557 9.99013 -0.612126 
0.204967 -0.612126 9.95903 
2.54748 -0.535258 -0.0378232 
-0.535258 2.10809 -0.875271 
-0.0378232 -0.875271 7.04881 
7.40505 0.208867 -2.05678 
0.208867 5.72696 -2.10946 
-2.05678 -2.10946 -1.42763 
11.9764 3.48758 -2.43472 
3.48758 5.76735 0.627849 
-2.43472 0.627849 -6.03939 
2.51764 -0.291279 -6.46988 
-0.291279 6.6215 -3.09239 
-6.46988 -3.09239 2.56525 
9.81736 0.0312208 -0.00217556 
0.0312208 9.95991 0.0253271 
-0.00217556 0.0253271 9.78086 
10.005 0.0862811 0.0668149 
0.0862811 9.72977 0.0101729 
0.0668149 0.0101729 9.82336 
9.63556 0.0294849 -0.00803217 
0.0294849 9.96017 -0.0750577 
-0.00803217 -0.0750577 9.9624 
9.90439 9.28515e-05 -0.0310443 
9.28515e-05 9.8255 -0.0686938 
-0.0310443 -0.0686938 9.82824 
10.5654 0.00826271 0.063773 
0.00826271 10.7794 -0.0568112 
0.063773 -0.0568112 10.9314 
10.7258 0.130356 0.0471653 
0.130356 10.8201 -0.0355195 
0.0471653 -0.0355195 10.7303 
10.7407 0.0269708 0.0647933 
0.0269708 10.6341 0.0723689 
0.0647933 0.0723689 10.9014 
10.805 0.0740248 0.137567 
0.0740248 10.7532 -0.00805567 
0.137567 -0.00805567 10.7179 
0.385052 0.882675 -0.861408 
0.882675 -0.00228141 -0.261572 
-0.861408 -0.261572 12.5433 
8.71237 1.18201 0.210678 
1.18201 9.57073 2.19182 
0.210678 2.19182 -5.35701 
6.35864 0.406345 3.56325 
0.406345 10.2421 0.932664 
3.56325 0.932664 -3.67466 
6.16118 -2.66705 5.16451 
-2.66705 4.40488 9.30921 
5.16451 9.30921 2.36004 
2.83785 -1.36455 0.30966 
-1.36455 5.4818 1.38012 
0.30966 1.38012 1.92949 
6.29817 0.306451 -0.814764 
0.306451 4.34528 1.23179 
-0.814764 1.23179 -0.394311 
4.27438 -0.0824191 0.712598 
-0.0824191 3.05976 0.657917 
0.712598 0.657917 2.91501 
5.04251 0.114545 2.12258 
0.114545 1.81009 0.417676 
2.12258 0.417676 3.39654 
9.6407 0.00132915 -0.108154 
0.00132915 9.65893 -0.68288 
-0.108154 -0.68288 9.82105 
9.75777 0.0033068 -0.045366 
0.0033068 9.64468 -0.679393 
-0.045366 -0.679393 9.71823 
9.7134 0.0371 -0.0825904 
0.0371 9.82661 -0.732099 
-0.0825904 -0.732099 9.58067 
9.7232 -0.0064924 -0.028508 
-0.0064924 9.72637 -0.646582 
-0.028508 -0.646582 9.6711 
9.9559 -0.00381659 -0.322199 
-0.00381659 9.97054 -0.421972 
-0.322199 -0.421972 9.9996 
9.97298 -0.00221282 -0.312134 
-0.00221282 9.97458 -0.436891 
-0.312134 -0.436891 9.97848 
9.95112 -0.00576396 -0.324926 
-0.00576396 9.98461 -0.438056 
-0.324926 -0.438056 9.99032 
9.98039 -0.00855453 -0.315585 
-0.00855453 9.98662 -0.433606 
-0.315585 -0.433606 9.95903 
9.72705 0.0179175 0.142261 
0.0179175 9.7001 -0.65835 
0.142261 -0.65835 9.70448 
9.68969 -0.0231679 0.144211 
-0.0231679 9.8348 -0.706245 
0.144211 -0.706245 9.60714 
9.67892 -0.00135794 0.148331 
-0.00135794 9.67855 -0.667743 
0.148331 -0.667743 9.77416 
9.73151 0.00864107 0.157321 
0.00864107 9.73127 -0.603194 
0.157321 -0.603194 9.66885 
10.3332 0.0102223 0.00879662 
0.0102223 10.1815 -0.00285243 
0.00879662 -0.00285243 10.2146 
10.2739 -0.0219212 0.000784478 
-0.0219212 10.3152 0.0340594 
0.000784478 0.0340594 10.1402 
10.1603 0.0134693 0.0595085 
0.0134693 10.1787 -0.0206337 
0.0595085 -0.0206337 10.3902 
10.2345 0.0339548 -0.0513394 
0.0339548 10.3495 -0.0522983 
-0.0513394 -0.0522983 10.1453 
3.86853 0.1505 -0.614213 
0.1505 4.40363 0.457874 
-0.614213 0.457874 -0.942752 
3.59591 0.418977 0.204536 
0.418977 3.08904 -0.93066 
0.204536 -0.93066 0.644456 
2.03859 -0.0299217 0.501014 
-0.0299217 1.92303 -0.380574 
0.501014 -0.380574 3.36778 
2.56563 -0.163347 1.73463 
-0.163347 2.851 -0.454841 
1.73463 -0.454841 1.91277 
9.98503 0.179164 0.0356225 
0.179164 9.88296 0.0806736 
0.0356225 0.0806736 9.9953 
9.95804 0.108276 -0.0793603 
0.108276 9.81343 0.197879 
-0.0793603 0.197879 10.0918 
10.0236 0.0411138 0.0387667 
0.0411138 9.90139 0.107743 
0.0387667 0.107743 9.9383 
10.0566 0.0484545 0.160749 
0.0484545 10.1372 0.120327 
0.160749 0.120327 9.66944 
9.60033 -0.00126593 -0.132505 
-0.00126593 9.73181 0.668021 
-0.132505 0.668021 9.77754 
9.70884 -0.00736195 -0.0917188 
-0.00736195 9.83988 0.72427 
-0.0917188 0.72427 9.56096 
9.79523 0.0127099 -0.0448408 
0.0127099 9.59101 0.676 
-0.0448408 0.676 9.72344 
9.73116 0.075457 -0.0533 
0.075457 9.73393 0.658691 
-0.0533 0.658691 9.64458 
9.926 0.00375743 -0.466143 
0.00375743 9.94694 0.031416 
-0.466143 0.031416 9.97492 
9.93441 -0.00389895 -0.467925 
-0.00389895 9.93696 0.0126788 
-0.467925 0.0126788 9.97649 
9.9146 0.0029579 -0.491123 
0.0029579 9.93377 0.0312501 
-0.491123 0.0312501 9.99949 
9.93727 0.00759699 -0.460943 
0.00759699 9.96397 0.0202262 
-0.460943 0.0202262 9.94662 
9.14322 -1.7793 -1.62512 
-1.7793 10.5652 1.19345 
-1.62512 1.19345 9.22754 
8.63895 -0.187706 0.797294 
-0.187706 9.90314 -1.34975 
0.797294 -1.34975 10.3939 
8.68492 0.654605 -0.442372 
0.654605 10.1229 -0.184666 
-0.442372 -0.184666 10.1281 
8.4802 1.367 -0.535025 
1.367 9.30877 -0.157014 
-0.535025 -0.157014 11.147 
9.96356 0.00446976 0.479075 
0.00446976 9.97555 0.401007 
0.479075 0.401007 9.98643 
9.97404 0.00653444 0.494667 
0.00653444 9.99517 0.394994 
0.494667 0.394994 9.95633 
9.9685 -0.000100145 0.487457 
-0.000100145 9.99377 0.391972 
0.487457 0.391972 9.96326 
9.95362 -0.0203707 0.497479 
-0.0203707 9.95839 0.37993 
0.497479 0.37993 10.0135 
9.73853 0.107416 0.547287 
0.107416 9.70532 0.313944 
0.547287 0.313944 9.81217 
9.69483 -0.0490653 0.532596 
-0.0490653 9.81624 0.359177 
0.532596 0.359177 9.74496 
9.79508 0.0711335 0.597698 
0.0711335 9.84622 0.317942 
0.597698 0.317942 9.61473 
9.67568 0.0302611 0.521151 
0.0302611 9.8858 0.318151 
0.521151 0.318151 9.69455 
9.95056 0.00194727 -0.492696 
0.00194727 9.9647 0.262836 
-0.492696 0.262836 9.97133 
9.92998 0.00649737 -0.475987 
0.00649737 9.96018 0.271874 
-0.475987 0.271874 9.99643 
9.94326 0.00621048 -0.489445 
0.00621048 9.95486 0.246254 
-0.489445 0.246254 9.98847 
9.96491 -0.000248925 -0.486411 
-0.000248925 9.97369 0.259565 
-0.486411 0.259565 9.94799 
8.43732 0.220693 0.0671069 
0.220693 9.82713 -0.0421337 
0.0671069 -0.0421337 9.75914 
9.14357 0.373623 0.236901 
0.373623 9.31308 0.0453039 
0.236901 0.0453039 9.56694 
9.57331 0.782641 0.318946 
0.782641 9.05424 0.128173 
0.318946 0.128173 9.39603 
9.31871 0.0786516 0.514658 
0.0786516 9.02424 -0.115611 
0.514658 -0.115611 9.68064 
9.94543 0.00202865 -0.315422 
0.00202865 9.95794 0.135872 
-0.315422 0.135872 9.97228 
9.95675 -0.00317692 -0.335558 
-0.00317692 9.93777 0.136413 
-0.335558 0.136413 9.98111 
9.95019 0.00593024 -0.316296 
0.00593024 9.93185 0.159978 
-0.316296 0.159978 9.9936 
9.97153 -0.000890171 -0.322616 
-0.000890171 9.95537 0.13381 
-0.322616 0.13381 9.94875 
14.7225 0.489996 0.328626 
0.489996 11.3674 -0.756837 
0.328626 -0.756837 9.82853 
9.06183 0.135953 -0.849755 
0.135953 10.9632 0.207308 
-0.849755 0.207308 15.8933 
10.6364 1.95554 0.559741 
1.95554 10.5905 -0.982761 
0.559741 -0.982761 14.6915 
11.6522 1.69883 2.45215 
1.69883 11.4638 0.607856 
2.45215 0.607856 12.8024 
9.70599 0.0174032 0.117486 
0.0174032 9.88537 0.686492 
0.117486 0.686492 9.61623 
9.76275 -0.0151768 0.140913 
-0.0151768 9.72937 0.643005 
0.140913 0.643005 9.71547 
9.70829 0.0010421 0.147865 
0.0010421 9.67277 0.671164 
0.147865 0.671164 9.82653 
9.76638 -0.0196682 0.148262 
-0.0196682 9.74245 0.580632 
0.148262 0.580632 9.69877 
9.95604 0.00692877 -0.554482 
0.00692877 9.96097 -0.175613 
-0.554482 -0.175613 9.95774 
9.92808 0.0196285 -0.569612 
0.0196285 9.96602 -0.172417 
-0.569612 -0.172417 9.98067 
9.91073 -0.00293528 -0.562556 
-0.00293528 9.94543 -0.153514 
-0.562556 -0.153514 10.0186 
9.9474 0.0060729 -0.552827 
0.0060729 9.97455 -0.175057 
-0.552827 -0.175057 9.95281 
10.3265 0.0970809 -0.045637 
0.0970809 10.5182 -0.181523 
-0.045637 -0.181523 9.86423 
9.66431 0.00889601 0.0156421 
0.00889601 9.99466 -0.395525 
0.0156421 -0.395525 11.05 
10.4013 0.216011 -0.0925891 
0.216011 10.3207 -0.101954 
-0.0925891 -0.101954 9.98697 
10.321 -0.0938984 0.221892 
-0.0938984 10.3819 0.247929 
0.221892 0.247929 10.006 
8.50344 -0.324497 -0.128188 
-0.324497 9.87043 -0.186817 
-0.128188 -0.186817 9.48729 
9.24728 0.572509 -0.373626 
0.572509 9.4958 -0.0462034 
-0.373626 -0.0462034 9.11809 
8.43811 0.15105 -0.263888 
0.15105 9.76713 -0.244543 
-0.263888 -0.244543 9.65593 
8.26872 0.26515 -0.354819 
0.26515 10.0196 -0.318035 
-0.354819 -0.318035 9.57279 
10.0162 -0.218911 0.140923 
-0.218911 9.62231 -0.00576229 
0.140923 -0.00576229 10.2104 
9.86894 0.0590907 0.0341019 
0.0590907 10.1095 -0.00588375 
0.0341019 -0.00588375 9.8705 
9.96658 -0.0829381 0.024276 
-0.0829381 10.0383 0.103027 
0.024276 0.103027 9.84406 
9.88494 -0.105086 0.0118004 
-0.105086 10.1208 0.161454 
0.0118004 0.161454 9.8432 
9.97392 0.00476355 0.325073 
0.00476355 9.99663 0.580111 
0.325073 0.580111 9.94646 
9.94686 0.00648932 0.295179 
0.00648932 9.95722 0.581734 
0.295179 0.581734 10.0129 
9.97769 -0.0123469 0.325148 
-0.0123469 9.93757 0.565891 
0.325148 0.565891 10.0018 
9.9772 -0.00493773 0.31072 
-0.00493773 9.99211 0.567773 
0.31072 0.567773 9.94771 
9.82315 -0.00880288 0.0104565 
-0.00880288 9.85059 0.00138814 
0.0104565 0.00138814 9.86128 
9.83494 0.00529891 -0.00613589 
0.00529891 9.85472 0.00679786 
-0.00613589 0.00679786 9.84536 
9.84508 -0.00179809 0.000372245 
-0.00179809 9.85375 0.00166706 
0.000372245 0.00166706 9.83619 
9.85513 0.00287351 -0.00222066 
0.00287351 9.82662 -0.00740918 
-0.00222066 -0.00740918 9.85327 
9.95535 -0.00210937 -0.532814 
-0.00210937 9.94643 0.0391156 
-0.532814 0.0391156 10.0158 
9.93772 -0.000957912 -0.530687 
-0.000957912 10.0046 0.0571943 
-0.530687 0.0571943 9.97533 
9.99677 0.00504178 -0.53847 
0.00504178 9.98111 0.0818681 
-0.53847 0.0818681 9.93974 
9.97993 0.00812851 -0.520949 
0.00812851 9.98758 0.0562088 
-0.520949 0.0562088 9.95011 
9.95493 -0.0104958 -0.373128 
-0.0104958 9.9703 0.458941 
-0.373128 0.458941 9.97311 
9.95325 0.00664527 -0.387689 
0.00664527 9.99157 0.451696 
-0.387689 0.451696 9.95352 
9.94845 0.0328813 -0.394712 
0.0328813 9.93891 0.44298 
-0.394712 0.44298 10.011 
9.92892 0.0113519 -0.392553 
0.0113519 9.99708 0.455518 
-0.392553 0.455518 9.97235 
9.96435 -0.00897827 0.383384 
-0.00897827 9.97605 -0.475247 
0.383384 -0.475247 9.95906 
9.92788 0.0132709 0.399196 
0.0132709 9.98198 -0.482794 
0.399196 -0.482794 9.98961 
9.95283 0.0140448 0.383185 
0.0140448 9.98274 -0.470989 
0.383185 -0.470989 9.9639 
9.93994 0.0233863 0.400693 
0.0233863 9.94546 -0.463019 
0.400693 -0.463019 10.0141 
2.58783 -1.74187 0.781984 
-1.74187 2.25786 1.81551 
0.781984 1.81551 6.39722 
6.27568 0.634324 0.6923 
0.634324 6.54808 1.11458 
0.6923 1.11458 -1.58085 
9.22021 3.05427 0.517794 
3.05427 4.44274 -1.24145 
0.517794 -1.24145 -2.42005 
3.8371 1.26786 4.42945 
1.26786 6.66897 1.55561 
4.42945 1.55561 0.736825 
9.7633 -0.00741769 -0.00827597 
-0.00741769 9.82232 -0.0245817 
-0.00827597 -0.0245817 9.8376 
9.82341 -0.0181229 -0.00152679 
-0.0181229 9.7998 -0.00633653 
-0.00152679 -0.00633653 9.80001 
9.76871 -0.0431038 -0.0166263 
-0.0431038 9.83491 -0.0176909 
-0.0166263 -0.0176909 9.81959 
9.78797 -0.0226429 -0.00448173 
-0.0226429 9.83661 -0.0218043 
-0.00448173 -0.0218043 9.79864 
10.4989 0.305451 0.227361 
0.305451 9.51202 0.0609415 
0.227361 0.0609415 9.96228 
9.29613 1.43393 0.715462 
1.43393 10.0246 -0.202047 
0.715462 -0.202047 10.6525 
9.80309 0.44488 0.36012 
0.44488 10.0298 0.198773 
0.36012 0.198773 10.1404 
8.86495 -0.0493004 -0.149234 
-0.0493004 9.93996 -0.0645846 
-0.149234 -0.0645846 11.1683 
9.6426 -0.0350125 0.0371716 
-0.0350125 9.79512 -0.0679276 
0.0371716 -0.0679276 9.71072 
9.58328 0.0663773 -0.0174685 
0.0663773 9.65433 0.0392247 
-0.0174685 0.0392247 9.91083 
9.67173 0.0553531 0.0452002 
0.0553531 9.82297 -0.0274946 
0.0452002 -0.0274946 9.65374 
9.6112 0.0362259 0.0724513 
0.0362259 9.76466 -0.0297464 
0.0724513 -0.0297464 9.77258 
2.55405 0.255831 0.00723865 
0.255831 1.05209 0.914291 
0.00723865 0.914291 7.96288 
7.21914 -1.03331 -1.35862 
-1.03331 6.30497 -0.899288 
-1.35862 -0.899288 -1.9551 
7.5185 -0.328118 -0.328083 
-0.328118 6.24078 1.59808 
-0.328083 1.59808 -2.19028 
4.80084 0.155611 -4.06131 
0.155611 5.68028 1.81691 
-4.06131 1.81691 1.08789 
10.4309 -0.482255 -0.268248 
-0.482255 10.9357 0.119735 
-0.268248 0.119735 10.4069 
10.273 -0.227432 -0.0627017 
-0.227432 10.2812 -0.00724769 
-0.0627017 -0.00724769 11.2192 
11.1116 0.0712069 -0.0983282 
0.0712069 9.70452 -0.00705806 
-0.0983282 -0.00705806 10.9573 
10.5969 -0.222517 -0.29387 
-0.222517 10.5087 0.161998 
-0.29387 0.161998 10.6678 
9.93835 0.00245584 -0.173644 
0.00245584 9.95103 0.632217 
-0.173644 0.632217 10.0154 
9.96665 -0.00131138 -0.207176 
-0.00131138 9.99932 0.639686 
-0.207176 0.639686 9.93878 
9.96805 0.00418125 -0.212389 
0.00418125 9.93608 0.620429 
-0.212389 0.620429 10.0006 
9.97732 0.00740291 -0.192348 
0.00740291 9.99063 0.618171 
-0.192348 0.618171 9.93681 
9.95832 0.13004 -0.156853 
0.13004 9.46115 -0.0982651 
-0.156853 -0.0982651 9.76505 
9.53322 0.178442 -0.1346 
0.178442 9.93752 0.0532149 
-0.1346 0.0532149 9.71377 
9.54625 0.185476 -0.00276864 
0.185476 9.89538 0.172056 
-0.00276864 0.172056 9.7429 
9.50962 0.224943 -0.000197003 
0.224943 10.0237 -0.00487459 
-0.000197003 -0.00487459 9.65118 
10.1401 0.00865828 0.00388396 
0.00865828 10.0313 -0.0465864 
0.00388396 -0.0465864 9.78984 
10.1604 0.109266 -0.0212092 
0.109266 9.93846 -0.152666 
-0.0212092 -0.152666 9.86226 
9.80256 0.0702466 -0.133174 
0.0702466 9.79212 -0.0563369 
-0.133174 -0.0563369 10.3665 
9.90613 0.15297 0.192558 
0.15297 10.0324 -0.248306 
0.192558 -0.248306 10.0226 
9.95829 0.00259506 0.513684 
0.00259506 9.98709 0.277118 
0.513684 0.277118 9.9986 
10.0017 0.0243339 0.544016 
0.0243339 10.0059 0.254825 
0.544016 0.254825 9.93642 
9.98419 0.00671151 0.506325 
0.00671151 10.0259 0.244072 
0.506325 0.244072 9.93391 
9.95363 -0.0342952 0.530768 
-0.0342952 9.99226 0.246373 
0.530768 0.246373 9.9981 
9.02754 0.369867 0.189962 
0.369867 9.77613 0.196577 
0.189962 0.196577 11.8316 
10.1786 -0.133653 -0.0750897 
-0.133653 10.7008 -0.0745756 
-0.0750897 -0.0745756 9.75589 
9.88221 -0.315375 -0.864911 
-0.315375 10.8074 0.0645628 
-0.864911 0.0645628 9.94563 
10.7784 -0.42757 0.00125939 
-0.42757 10.0723 -0.18004 
0.00125939 -0.18004 9.7845 
8.5031 -0.404681 1.44243 
-0.404681 6.76378 -1.2735 
1.44243 -1.2735 -2.5377 
2.40271 0.286381 0.203361 
0.286381 0.861839 -0.277102 
0.203361 -0.277102 9.46463 
7.41038 -1.81451 2.64382 
-1.81451 6.53868 1.3208 
2.64382 1.3208 -1.21988 
3.43122 0.535751 6.42442 
0.535751 6.22782 -1.70931 
6.42442 -1.70931 3.07014 
9.9687 0.029175 0.536613 
0.029175 10.0046 0.155082 
0.536613 0.155082 9.95284 
9.97643 0.0161721 0.537323 
0.0161721 9.97172 0.171864 
0.537323 0.171864 9.97803 
9.98551 0.0224895 0.552218 
0.0224895 9.98804 0.167975 
0.552218 0.167975 9.95263 
9.92527 -0.0151366 0.547052 
-0.0151366 9.9682 0.14498 
0.547052 0.14498 10.0327 
9.94471 0.00289494 -0.522695 
0.00289494 9.97685 -0.294062 
-0.522695 -0.294062 9.98988 
9.98534 0.0177926 -0.546594 
0.0177926 9.99632 -0.281237 
-0.546594 -0.281237 9.92977 
9.96425 0.0100268 -0.529356 
0.0100268 10.0133 -0.265529 
-0.529356 -0.265529 9.93385 
9.93711 -0.0289246 -0.545025 
-0.0289246 9.96595 -0.254075 
-0.545025 -0.254075 10.0084 
9.79462 -0.060568 0.43966 
-0.060568 10.3827 -0.00891486 
0.43966 -0.00891486 9.82323 
10.0647 0.0224545 0.100365 
0.0224545 10.2293 0.0604247 
0.100365 0.0604247 9.70656 
10.3009 -0.284286 0.0547472 
-0.284286 9.92411 0.080383 
0.0547472 0.080383 9.77563 
9.4029 0.287972 -0.176594 
0.287972 9.66789 -0.117013 
-0.176594 -0.117013 10.9298 
9.95548 0.011846 0.518181 
0.011846 9.98999 0.0489587 
0.518181 0.0489587 9.95862 
9.98021 0.025067 0.494098 
0.025067 9.9967 0.035279 
0.494098 0.035279 9.92718 
9.90104 -0.0106471 0.522384 
-0.0106471 9.9615 0.0257867 
0.522384 0.0257867 10.0415 
10.0081 0.0131533 0.535781 
0.0131533 9.97545 0.0685253 
0.535781 0.0685253 9.92058 
8.17494 -0.776266 0.817762 
-0.776266 6.92125 1.15832 
0.817762 1.15832 8.43826 
8.08183 -0.209338 1.07802 
-0.209338 7.44459 1.27566 
1.07802 1.27566 8.00803 
8.42393 0.571795 0.88915 
0.571795 8.02012 0.811563 
0.88915 0.811563 7.0904 
8.33101 -0.308111 1.28776 
-0.308111 7.48348 1.9387 
1.28776 1.9387 7.71996 
9.96139 0.00501443 0.320322 
0.00501443 9.95265 -0.0650037 
0.320322 -0.0650037 9.94647 
9.93771 -0.0104262 0.33538 
-0.0104262 9.9217 -0.0376111 
0.33538 -0.0376111 10.0011 
9.94839 -0.00815104 0.335019 
-0.00815104 9.94581 -0.0758154 
0.335019 -0.0758154 9.9663 
9.97672 -0.0134296 0.31729 
-0.0134296 9.94332 -0.0804742 
0.31729 -0.0804742 9.94048 
9.86339 -0.0104995 -0.000731834 
-0.0104995 9.87694 -0.00280991 
-0.000731834 -0.00280991 9.91802 
9.87909 -0.0106907 0.00804658 
-0.0106907 9.89289 0.01991 
0.00804658 0.01991 9.88636 
9.88221 -0.0154685 -0.000489025 
-0.0154685 9.90273 0.0190462 
-0.000489025 0.0190462 9.8734 
9.88284 0.00556576 0.00416729 
0.00556576 9.89216 0.00769359 
0.00416729 0.00769359 9.88335 
8.56235 0.0588258 -0.358219 
0.0588258 9.11779 1.20523 
-0.358219 1.20523 8.21465 
8.51827 0.0728437 -0.251296 
0.0728437 8.70353 1.08467 
-0.251296 1.08467 8.67299 
8.71956 0.343644 -0.346594 
0.343644 8.4704 1.04221 
-0.346594 1.04221 8.70484 
8.70232 0.0388421 -0.377401 
0.0388421 8.65649 0.990603 
-0.377401 0.990603 8.53599 
9.99018 -0.00135925 -0.0679839 
-0.00135925 9.98128 0.641553 
-0.0679839 0.641553 9.94218 
9.93545 0.00267691 -0.0481095 
0.00267691 9.93887 0.656307 
-0.0481095 0.656307 10.0393 
10.0067 -0.00352334 -0.0701288 
-0.00352334 9.94083 0.653093 
-0.0701288 0.653093 9.96613 
9.98381 0.00742679 -0.104288 
0.00742679 10.0031 0.663755 
-0.104288 0.663755 9.92675 
9.97329 -0.010235 0.47946 
-0.010235 9.98062 -0.255308 
0.47946 -0.255308 9.95629 
9.95551 -0.00236289 0.473472 
-0.00236289 9.99083 -0.26097 
0.473472 -0.26097 9.96385 
9.9243 0.00882224 0.489235 
0.00882224 9.95818 -0.240344 
0.489235 -0.240344 10.0277 
9.92301 -0.0190815 0.490144 
-0.0190815 10.0007 -0.255248 
0.490144 -0.255248 9.98644 
9.83044 -0.0319048 -0.0388339 
-0.0319048 9.88405 -0.0573333 
-0.0388339 -0.0573333 9.84137 
9.78555 -0.0253017 -0.000283468 
-0.0253017 9.82442 0.00386005 
-0.000283468 0.00386005 9.9459 
9.8594 -0.00444334 -0.00730506 
-0.00444334 9.91252 -0.0167225 
-0.00730506 -0.0167225 9.78395 
9.86034 -0.00498429 -0.0132817 
-0.00498429 9.86039 -0.0400138 
-0.0132817 -0.0400138 9.83514 
9.88926 -0.0247527 -0.000849482 
-0.0247527 9.78161 -0.0103992 
-0.000849482 -0.0103992 9.88027 
9.82096 0.0041793 -0.000354969 
0.0041793 9.8872 -0.000525921 
-0.000354969 -0.000525921 9.84297 
9.8563 0.0154111 0.00420163 
0.0154111 9.85634 0.0126554 
0.00420163 0.0126554 9.8385 
9.88555 0.0125812 -0.0134071 
0.0125812 9.84953 0.0372531 
-0.0134071 0.0372531 9.81606 
10.287 -0.812023 -0.0976314 
-0.812023 6.54025 -0.569311 
-0.0976314 -0.569311 11.1031 
9.16005 -0.390072 0.103426 
-0.390072 8.74048 -0.151928 
0.103426 -0.151928 10.0297 
9.45568 -0.295305 -0.000411641 
-0.295305 8.66999 -0.016901 
-0.000411641 -0.016901 9.80461 
9.32825 -0.370856 0.0597224 
-0.370856 8.89683 0.371769 
0.0597224 0.371769 9.7052 
9.97494 0.00430739 0.195493 
0.00430739 10.0045 0.62676 
0.195493 0.62676 9.93633 
9.97759 -0.0116897 0.219152 
-0.0116897 9.91966 0.605598 
0.219152 0.605598 10.0185 
9.98733 -0.0119872 0.193351 
-0.0119872 9.99193 0.598109 
0.193351 0.598109 9.93648 
9.97045 -0.010192 0.184094 
-0.010192 9.96665 0.614898 
0.184094 0.614898 9.97863 
10.5954 -0.348186 0.173352 
-0.348186 10.5202 0.00237266 
0.173352 0.00237266 10.4744 
10.2064 -0.0856714 -0.109169 
-0.0856714 10.4018 -0.0249106 
-0.109169 -0.0249106 10.9816 
11.0186 0.606565 -0.0908345 
0.606565 9.93833 -0.0134885 
-0.0908345 -0.0134885 10.6329 
10.5395 -0.101343 0.120536 
-0.101343 10.5019 0.0165731 
0.120536 0.0165731 10.5485 
9.98319 0.0032661 0.0995342 
0.0032661 10.0044 -0.675977 
0.0995342 -0.675977 9.92047 
10.0002 -0.00703299 0.0718127 
-0.00703299 9.93724 -0.663947 
0.0718127 -0.663947 9.97056 
9.93898 0.00363666 0.0428074 
0.00363666 9.93249 -0.6678 
0.0428074 -0.6678 10.0365 
9.99054 -0.00757058 0.0608899 
-0.00757058 9.97995 -0.653834 
0.0608899 -0.653834 9.93753 
9.96126 0.0373037 -0.44445 
0.0373037 9.96432 0.335194 
-0.44445 0.335194 9.98568 
9.9752 0.00499584 -0.425379 
0.00499584 10.0037 0.329445 
-0.425379 0.329445 9.93232 
9.94605 0.00434062 -0.421867 
0.00434062 9.96718 0.36238 
-0.421867 0.36238 9.99803 
9.97945 -0.0188313 -0.45991 
-0.0188313 9.99977 0.340883 
-0.45991 0.340883 9.93204 
8.94361 1.32181 -0.456575 
1.32181 9.91067 0.403028 
-0.456575 0.403028 11.2167 
10.4462 0.437585 -0.144335 
0.437585 9.67748 -0.070438 
-0.144335 -0.070438 9.9473 
9.09294 -0.759885 0.196549 
-0.759885 10.4642 0.101035 
0.196549 0.101035 10.5138 
9.8031 0.404403 -0.196576 
0.404403 10.0856 -0.199109 
-0.196576 -0.199109 10.1823 
9.94876 -0.0195155 -0.32842 
-0.0195155 9.98033 -0.606368 
-0.32842 -0.606368 9.95556 
9.97218 -0.00540601 -0.309823 
-0.00540601 9.97678 -0.615963 
-0.309823 -0.615963 9.93568 
9.92367 -0.013341 -0.351822 
-0.013341 9.92042 -0.587979 
-0.351822 -0.587979 10.0406 
9.96341 -0.0107235 -0.318749 
-0.0107235 9.97057 -0.603628 
-0.318749 -0.603628 9.95067 
9.98932 0.00550904 -0.559283 
0.00550904 9.97512 -0.0675089 
-0.559283 -0.0675089 9.93435 
9.97047 0.0157337 -0.540242 
0.0157337 9.98246 -0.0483043 
-0.540242 -0.0483043 9.94585 
9.94856 0.0102718 -0.546537 
0.0102718 9.98644 -0.0563238 
-0.546537 -0.0563238 9.96378 
9.91753 -0.00669911 -0.549964 
-0.00669911 9.95621 -0.0347923 
-0.549964 -0.0347923 10.0251 
9.98944 -0.0205599 0.458248 
-0.0205599 10.0053 -0.363987 
0.458248 -0.363987 9.92639 
9.97072 0.00215356 0.434291 
0.00215356 10.024 -0.33511 
0.434291 -0.33511 9.92642 
9.95616 0.0435123 0.459713 
0.0435123 9.95719 -0.335038 
0.459713 -0.335038 10.0078 
9.95484 0.00436355 0.432161 
0.00436355 9.98156 -0.366668 
0.432161 -0.366668 9.9847 
9.97761 -0.0257295 0.425309 
-0.0257295 9.94781 0.47419 
0.425309 0.47419 10.0051 
9.95854 -0.0244 0.390184 
-0.0244 9.97615 0.502567 
0.390184 0.502567 9.99579 
10.0005 -0.00642929 0.393136 
-0.00642929 10.007 0.472025 
0.393136 0.472025 9.92291 
9.99491 0.0204304 0.416689 
0.0204304 10.0103 0.505642 
0.416689 0.505642 9.92523 
8.47132 1.22124 0.490285 
1.22124 12.7846 1.48067 
0.490285 1.48067 9.17017 
6.80363 -0.600718 -0.368028 
-0.600718 8.29262 0.832514 
-0.368028 0.832514 15.3299 
9.60745 -0.241638 0.767817 
-0.241638 11.6349 -1.36079 
0.767817 -1.36079 9.18379 
8.80362 -0.0391597 1.2641 
-0.0391597 9.82751 -0.44181 
1.2641 -0.44181 11.795 
9.93727 0.00579628 -0.501721 
0.00579628 9.96813 0.175847 
-0.501721 0.175847 10.0043 
9.98325 -0.00165379 -0.516205 
-0.00165379 9.97715 0.153871 
-0.516205 0.153871 9.9493 
9.96016 0.00775219 -0.509276 
0.00775219 9.97187 0.148466 
-0.509276 0.148466 9.97767 
9.97285 0.00675512 -0.506532 
0.00675512 9.97969 0.157803 
-0.506532 0.157803 9.95716 
9.80855 -0.00580601 0.0198381 
-0.00580601 9.90096 0.0325736 
0.0198381 0.0325736 9.80849 
9.78665 -0.0206567 -0.00647537 
-0.0206567 9.82479 -0.00990328 
-0.00647537 -0.00990328 9.90655 
9.83859 -0.0352302 0.0350748 
-0.0352302 9.88625 -0.00336623 
0.0350748 -0.00336623 9.79317 
9.81615 0.0461816 0.0261232 
0.0461816 9.84333 0.0299988 
0.0261232 0.0299988 9.85852 
9.97567 0.0243639 -0.316819 
0.0243639 9.95325 0.532078 
-0.316819 0.532078 10.0203 
9.99087 0.00972199 -0.28573 
0.00972199 10.0046 0.551908 
-0.28573 0.551908 9.95372 
9.99061 0.0165456 -0.290362 
0.0165456 10.0051 0.539877 
-0.290362 0.539877 9.95353 
9.99182 -0.00767459 -0.287083 
-0.00767459 10.0041 0.54525 
-0.287083 0.54525 9.95333 
9.98983 0.00667883 0.516204 
0.00667883 9.99106 -0.0744507 
0.516204 -0.0744507 9.94844 
9.95816 -0.00470191 0.513843 
-0.00470191 9.95347 -0.0341142 
0.513843 -0.0341142 10.0177 
9.95661 -0.00536902 0.511299 
-0.00536902 10.0016 -0.0530696 
0.511299 -0.0530696 9.97109 
9.97739 -0.00197239 0.51089 
-0.00197239 9.98912 -0.0525668 
0.51089 -0.0525668 9.96283 
9.76573 -0.123248 -0.00670776 
-0.123248 10.2111 0.0173251 
-0.00670776 0.0173251 9.8319 
9.60966 0.41434 -0.103648 
0.41434 10.1906 0.185563 
-0.103648 0.185563 10.0084 
10.0374 0.118816 -0.010765 
0.118816 9.82781 0.0424954 
-0.010765 0.0424954 9.94356 
9.74536 0.204441 -0.0405343 
0.204441 10.1341 0.270067 
-0.0405343 0.270067 9.9293 
7.76018 0.78971 -1.27064 
0.78971 12.2821 -0.460376 
-1.27064 -0.460376 14.4761 
11.3252 0.750839 -0.373646 
0.750839 10.4132 -0.494427 
-0.373646 -0.494427 12.78 
10.8988 -1.14899 -0.368462 
-1.14899 12.9749 -0.647554 
-0.368462 -0.647554 10.6447 
9.84027 -0.046714 -0.242727 
-0.046714 12.4904 0.721057 
-0.242727 0.721057 12.1877 
9.98952 -0.0122693 0.291907 
-0.0122693 10.027 -0.577363 
0.291907 -0.577363 9.93632 
9.98794 0.0224042 0.323639 
0.0224042 9.93083 -0.542651 
0.323639 -0.542651 10.0341 
9.97932 0.00821521 0.283112 
0.00821521 9.99614 -0.561977 
0.283112 -0.561977 9.97743 
10.0011 0.00951578 0.28703 
0.00951578 10.0224 -0.536917 
0.28703 -0.536917 9.92935 
3.94646 0.890548 -4.1915 
0.890548 11.7491 -6.30697 
-4.1915 -6.30697 -4.5271 
4.77897 -1.76893 -2.08081 
-1.76893 1.87024 -5.48112 
-2.08081 -5.48112 4.51927 
2.29813 0.771888 -0.0943454 
0.771888 2.50085 0.182643 
-0.0943454 0.182643 6.3695 
6.20574 2.77371 -1.72866 
2.77371 8.05122 -6.6632 
-1.72866 -6.6632 -3.08848 
9.82806 -0.00107911 0.0158658 
-0.00107911 9.87783 -0.049938 
0.0158658 -0.049938 9.87633 
9.78963 0.0411798 0.000568847 
0.0411798 9.83058 0.00585574 
0.000568847 0.00585574 9.96202 
9.88733 0.0585274 0.0350233 
0.0585274 9.871 -0.0497876 
0.0350233 -0.0497876 9.8239 
9.87563 0.05251 -0.0163733 
0.05251 9.90772 -0.062051 
-0.0163733 -0.062051 9.79888 
9.96441 -0.0723612 -0.105711 
-0.0723612 10.0628 -0.0235425 
-0.105711 -0.0235425 9.85237 
9.82123 -0.0121492 0.0279457 
-0.0121492 9.93022 0.0400497 
0.0279457 0.0400497 10.1281 
9.95871 0.0910499 -0.0335807 
0.0910499 9.9604 -0.0387594 
-0.0335807 -0.0387594 9.96048 
10.0415 0.00544405 -0.00672449 
0.00544405 9.94945 -0.0215292 
-0.00672449 -0.0215292 9.88862 
10.3131 0.0275164 0.47451 
0.0275164 9.54423 -0.210996 
0.47451 -0.210996 10.1935 
11.2252 0.197344 0.536162 
0.197344 8.70246 -0.496432 
0.536162 -0.496432 10.1232 
9.79781 -0.0391142 -0.0858447 
-0.0391142 8.73638 0.0235755 
-0.0858447 0.0235755 11.5167 
10.1138 -0.289076 0.24342 
-0.289076 9.85573 -0.207713 
0.24342 -0.207713 10.0813 
9.96922 0.00417117 0.491126 
0.00417117 9.98196 -0.155364 
0.491126 -0.155364 9.96904 
9.96216 0.00282785 0.488835 
0.00282785 9.97407 -0.142943 
0.488835 -0.142943 9.98398 
9.97798 0.00108667 0.489827 
0.00108667 9.98485 -0.151689 
0.489827 -0.151689 9.95739 
9.95278 0.00384987 0.481426 
0.00384987 9.97284 -0.16842 
0.481426 -0.16842 9.9946 
9.9415 0.00868827 -0.479407 
0.00868827 9.95197 -0.408005 
-0.479407 -0.408005 10.0107 
9.96549 0.011035 -0.519792 
0.011035 10.0016 -0.378222 
-0.519792 -0.378222 9.937 
9.94193 0.00158137 -0.503874 
0.00158137 10.0127 -0.379457 
-0.503874 -0.379457 9.94955 
9.96125 -0.0484593 -0.502811 
-0.0484593 9.95659 -0.379917 
-0.502811 -0.379917 9.9863 
9.98231 -0.00426554 -0.0983536 
-0.00426554 9.99832 -0.682676 
-0.0983536 -0.682676 9.92743 
9.99474 0.0086396 -0.0718201 
0.0086396 9.94642 -0.670988 
-0.0718201 -0.670988 9.9669 
9.98394 0.00480751 -0.066072 
0.00480751 9.9797 -0.665024 
-0.066072 -0.665024 9.94442 
9.93456 -0.00416193 -0.0471546 
-0.00416193 9.92887 -0.674646 
-0.0471546 -0.674646 10.0446 
10.1821 0.372299 -0.198797 
0.372299 9.95184 0.0558149 
-0.198797 0.0558149 10.1577 
10.3797 -0.0584064 -0.0664558 
-0.0584064 10.0549 0.00397128 
-0.0664558 0.00397128 9.857 
9.97733 0.0888502 0.0291636 
0.0888502 10.1058 -0.00169625 
0.0291636 -0.00169625 10.2085 
10.1221 0.201606 -0.263426 
0.201606 10.1026 0.049304 
-0.263426 0.049304 10.067 
11.3131 1.10083 -0.026227 
1.10083 11.6676 -0.864754 
-0.026227 -0.864754 11.1153 
10.0293 -0.0070163 0.622992 
-0.0070163 11.9671 -0.423872 
0.622992 -0.423872 12.0997 
11.2117 0.487858 0.0581715 
0.487858 11.7098 -0.861967 
0.0581715 -0.861967 11.1746 
11.5411 0.146866 -0.16887 
0.146866 11.9177 -0.489851 
-0.16887 -0.489851 10.6373 
9.82898 0.0226411 -0.00499477 
0.0226411 9.83351 -0.0271243 
-0.00499477 -0.0271243 9.83119 
9.82367 0.0107259 -0.000312915 
0.0107259 9.8421 -0.00403019 
-0.000312915 -0.00403019 9.82791 
9.85727 -0.00608079 -0.00139592 
-0.00608079 9.80757 -0.0101316 
-0.00139592 -0.0101316 9.82884 
9.82922 0.0144569 0.00145053 
0.0144569 9.82522 -0.0144248 
0.00145053 -0.0144248 9.83924 
9.98637 0.00453849 0.0626184 
0.00453849 9.97998 0.663715 
0.0626184 0.663715 9.94586 
9.98268 -0.00256185 0.0895193 
-0.00256185 9.99781 0.679578 
0.0895193 0.679578 9.93171 
9.9904 0.0101526 0.0743332 
0.0101526 9.94851 0.667022 
0.0743332 0.667022 9.97329 
9.94933 -0.00394986 0.0430594 
-0.00394986 9.93867 0.671048 
0.0430594 0.671048 10.0242 
8.73187 -0.0256332 -0.053291 
-0.0256332 8.28885 0.0262733 
-0.053291 0.0262733 9.0775 
8.77434 -0.525996 -0.199072 
-0.525996 7.228 0.421525 
-0.199072 0.421525 10.0959 
8.73869 0.738696 -0.0641954 
0.738696 9.28352 -0.00128148 
-0.0641954 -0.00128148 8.07601 
9.05973 0.306886 -0.649129 
0.306886 7.9964 -0.294198 
-0.649129 -0.294198 9.04208 
10.3382 0.00720047 0.118107 
0.00720047 10.4217 0.0122323 
0.118107 0.0122323 10.0574 
10.3662 0.187127 0.118549 
0.187127 10.3736 -0.213393 
0.118549 -0.213393 10.0776 
10.3689 -0.0699433 0.0819036 
-0.0699433 10.2959 -0.0419579 
0.0819036 -0.0419579 10.1526 
10.2038 0.0357012 -0.116874 
0.0357012 9.88721 0.049198 
-0.116874 0.049198 10.7263 
9.60549 0.342648 -0.0711011 
0.342648 9.97931 0.125865 
-0.0711011 0.125865 10.2373 
9.50682 -0.479184 -0.0877901 
-0.479184 10.0229 0.135238 
-0.0877901 0.135238 10.2924 
8.72717 0.882559 -0.281064 
0.882559 11.0741 0.438906 
-0.281064 0.438906 10.0208 
9.67355 0.349287 -0.171696 
0.349287 10.1567 0.0365746 
-0.171696 0.0365746 9.99183 
10.1252 0.222732 0.32791 
0.222732 10.3368 -0.150815 
0.32791 -0.150815 9.87803 
10.1806 -0.0120981 0.0661148 
-0.0120981 10.1443 -0.0843954 
0.0661148 -0.0843954 10.0151 
9.69902 -0.141454 -0.0806869 
-0.141454 10.016 0.124153 
-0.0806869 0.124153 10.6249 
10.612 0.15457 -0.102285 
0.15457 9.93478 -0.127883 
-0.102285 -0.127883 9.79318 
9.8446 0.0686689 -0.045735 
0.0686689 9.7862 0.024893 
-0.045735 0.024893 9.68281 
9.6573 -0.00943722 -0.00985941 
-0.00943722 9.82017 0.0773414 
-0.00985941 0.0773414 9.83615 
9.73093 0.077697 -0.00268404 
0.077697 9.77517 0.0195005 
-0.00268404 0.0195005 9.80751 
9.82034 0.0322132 0.0252914 
0.0322132 9.81843 0.0699078 
0.0252914 0.0699078 9.67485 
9.85805 0.00723642 0.00326752 
0.00723642 9.8622 0.00713831 
0.00326752 0.00713831 9.83692 
9.83639 -0.0114804 0.000401652 
-0.0114804 9.88126 -0.00333527 
0.000401652 -0.00333527 9.83952 
9.86355 0.00387963 -0.000448414 
0.00387963 9.83733 0.00338524 
-0.000448414 0.00338524 9.8563 
9.83861 0.0520574 0.00291187 
0.0520574 9.86069 -0.0232292 
0.00291187 -0.0232292 9.85787 
10.1919 0.168366 0.114509 
0.168366 10.3345 -0.0249371 
0.114509 -0.0249371 9.88585 
10.1049 -0.133907 -0.134229 
-0.133907 9.8088 -0.00495024 
-0.134229 -0.00495024 10.4986 
10.3899 0.0772514 0.0672869 
0.0772514 10.2714 0.000288832 
0.0672869 0.000288832 9.751 
10.0376 -0.18158 0.323148 
-0.18158 10.3608 0.165564 
0.323148 0.165564 10.0139 
10.4584 -0.0593535 -0.00564665 
-0.0593535 10.4772 -0.00183839 
-0.00564665 -0.00183839 10.5007 
10.1406 0.0584386 0.270091 
0.0584386 10.5016 0.0227553 
0.270091 0.0227553 10.7941 
10.3338 -0.231252 -0.0324104 
-0.231252 10.3794 -0.102621 
-0.0324104 -0.102621 10.7231 
11.0728 0.642278 0.0817715 
0.642278 9.61096 -0.00762661 
0.0817715 -0.00762661 10.7526 
9.25399 -0.0108272 -0.733349 
-0.0108272 5.60356 -2.24501 
-0.733349 -2.24501 8.37804 
9.00383 -1.42298 0.192778 
-1.42298 3.95166 0.0174224 
0.192778 0.0174224 10.2801 
6.86209 2.73853 -0.570277 
2.73853 9.79994 -0.547257 
-0.570277 -0.547257 6.57356 
6.90386 -0.429803 -0.313042 
-0.429803 7.12466 -2.37932 
-0.313042 -2.37932 9.20707 
8.26999 0.150218 0.787971 
0.150218 8.46515 0.254337 
0.787971 0.254337 8.09078 
6.80691 1.36368 0.625519 
1.36368 8.59864 -0.509816 
0.625519 -0.509816 9.42036 
6.93792 -0.86119 0.196498 
-0.86119 10.0781 -0.164012 
0.196498 -0.164012 7.8099 
7.79603 -1.06626 0.232711 
-1.06626 7.49527 0.125839 
0.232711 0.125839 9.53462 
7.59816 -0.081562 -1.91772 
-0.081562 5.34159 -2.37149 
-1.91772 -2.37149 8.16637 
5.73587 2.70693 0.0624883 
2.70693 9.87846 -0.657558 
0.0624883 -0.657558 5.49179 
5.15326 -1.35138 -1.69552 
-1.35138 8.11911 -2.29207 
-1.69552 -2.29207 7.83374 
6.19347 -3.29248 -0.144684 
-3.29248 5.18526 0.241119 
-0.144684 0.241119 9.72738 
11.7988 3.60993 4.2763 
3.60993 8.66529 -1.54835 
4.2763 -1.54835 7.98214 
11.4771 -1.12362 -0.628334 
-1.12362 6.16741 1.18267 
-0.628334 1.18267 10.8017 
8.70087 2.1087 0.946114 
2.1087 7.46949 -0.510532 
0.946114 -0.510532 12.2759 
8.32744 -0.554869 -0.416134 
-0.554869 8.42197 0.875129 
-0.416134 0.875129 11.6969 
9.38692 0.214753 0.20288 
0.214753 5.68799 -0.0827078 
0.20288 -0.0827078 7.98122 
4.64784 1.75264 -1.02471 
1.75264 9.38138 0.53259 
-1.02471 0.53259 9.02691 
5.78353 -0.316755 -0.328276 
-0.316755 10.1959 1.58633 
-0.328276 1.58633 7.07667 
6.91735 -3.00842 0.866599 
-3.00842 7.25725 -0.12044 
0.866599 -0.12044 8.88153 
9.83743 -0.0198387 0.221766 
-0.0198387 9.84477 -0.0291507 
0.221766 -0.0291507 9.8549 
9.82334 -0.0507027 0.218276 
-0.0507027 9.86878 -0.0477042 
0.218276 -0.0477042 9.84499 
9.84161 0.0163245 0.184374 
0.0163245 9.75071 -0.0693104 
0.184374 -0.0693104 9.94478 
9.93233 0.0147566 0.20866 
0.0147566 9.80813 -0.00224269 
0.20866 -0.00224269 9.79664 
9.96631 -0.00895884 0.222069 
-0.00895884 9.94106 -0.0589189 
0.222069 -0.0589189 9.92592 
9.98423 -0.0088151 0.225904 
-0.0088151 9.90868 -0.0480368 
0.225904 -0.0480368 9.94038 
9.97457 0.0179167 0.226618 
0.0179167 9.916 -0.053556 
0.226618 -0.053556 9.94272 
9.93703 0.00698496 0.231182 
0.00698496 9.92614 -0.047491 
0.231182 -0.047491 9.97012 
8.96058 -0.658397 -0.0475596 
-0.658397 9.36986 -0.0119296 
-0.0475596 -0.0119296 11.3919 
9.28306 -0.363987 -0.107575 
-0.363987 9.44977 -0.136389 
-0.107575 -0.136389 10.9895 
9.44081 -0.560061 -0.547849 
-0.560061 9.2321 -0.536464 
-0.547849 -0.536464 11.0495 
9.33628 0.403606 0.56317 
0.403606 9.66927 -0.534133 
0.56317 -0.534133 10.7168 
10.1195 -0.478093 0.0985577 
-0.478093 9.6263 -0.123711 
0.0985577 -0.123711 11.7555 
9.9896 -0.201286 0.0352342 
-0.201286 10.2746 -0.420906 
0.0352342 -0.420906 11.237 
10.127 -0.151126 -0.0121957 
-0.151126 9.87597 -0.150149 
-0.0121957 -0.150149 11.4982 
9.70513 -0.391119 0.0199686 
-0.391119 10.0814 0.146186 
0.0199686 0.146186 11.7147 
9.85755 -0.296261 0.58759 
-0.296261 9.47455 0.96214 
0.58759 0.96214 9.35478 
9.69775 -0.252407 0.339492 
-0.252407 9.17643 0.696038 
0.339492 0.696038 9.81271 
9.98285 -0.140008 0.0393915 
-0.140008 9.03901 1.19746 
0.0393915 1.19746 9.66501 
10.016 -0.196223 -0.00389496 
-0.196223 9.22228 1.02745 
-0.00389496 1.02745 9.44863 
10.1445 -0.361649 0.40509 
-0.361649 9.10755 0.578726 
0.40509 0.578726 9.77705 
9.94731 -0.45168 0.459956 
-0.45168 9.27873 0.457661 
0.459956 0.457661 9.80307 
9.99025 -0.415291 0.470359 
-0.415291 9.10904 0.554175 
0.470359 0.554175 9.92982 
9.95179 -0.516578 0.488441 
-0.516578 9.18737 0.648184 
0.488441 0.648184 9.88994 
9.29436 0.105336 0.338206 
0.105336 8.79579 0.175112 
0.338206 0.175112 10.4193 
9.93703 -0.152326 0.522819 
-0.152326 8.9744 0.768908 
0.522819 0.768908 9.59806 
9.53373 -0.160529 0.270248 
-0.160529 9.28514 0.288314 
0.270248 0.288314 9.69063 
9.60962 -0.18658 0.141187 
-0.18658 9.30678 0.251667 
0.141187 0.251667 9.5931 
9.76651 -0.191236 -0.0302771 
-0.191236 8.45226 0.0804092 
-0.0302771 0.0804092 9.90472 
9.32742 -0.0760215 0.331342 
-0.0760215 9.21981 0.41092 
0.331342 0.41092 9.57627 
9.62063 -0.403446 0.569307 
-0.403446 8.87373 0.554289 
0.569307 0.554289 9.62914 
9.35491 -0.136119 0.412167 
-0.136119 8.96913 0.409734 
0.412167 0.409734 9.79946 
9.74747 0.0418589 0.272526 
0.0418589 9.58073 -0.110557 
0.272526 -0.110557 9.73097 
9.69058 -0.0356132 0.279546 
-0.0356132 9.5047 -0.201701 
0.279546 -0.201701 9.86389 
9.67769 -0.0839378 0.313043 
-0.0839378 9.42751 -0.0585124 
0.313043 -0.0585124 9.95397 
9.7278 -0.00692356 0.300533 
-0.00692356 9.48344 -0.131586 
0.300533 -0.131586 9.84793 
9.72041 0.00952897 0.365941 
0.00952897 9.56298 -0.0873445 
0.365941 -0.0873445 9.80948 
9.70361 0.0199248 0.41402 
0.0199248 9.47658 -0.0823362 
0.41402 -0.0823362 9.91269 
9.7107 0.0140223 0.366413 
0.0140223 9.5338 -0.131414 
0.366413 -0.131414 9.84837 
9.71545 -0.0120447 0.365389 
-0.0120447 9.5424 -0.0979106 
0.365389 -0.0979106 9.83502 
9.51615 -0.0362704 -0.188356 
-0.0362704 9.21141 -0.0133546 
-0.188356 -0.0133546 9.39986 
9.58913 -0.0436774 -0.155412 
-0.0436774 9.0878 0.0979328 
-0.155412 0.0979328 9.4505 
9.73502 0.0923344 -0.203805 
0.0923344 9.3351 0.185245 
-0.203805 0.185245 9.0573 
9.59902 0.0125074 -0.172254 
0.0125074 9.17556 0.0862088 
-0.172254 0.0862088 9.35284 
9.71603 -0.0299644 -0.0943628 
-0.0299644 9.36201 -0.0427978 
-0.0943628 -0.0427978 9.51402 
9.60534 0.136603 -0.149838 
0.136603 9.54967 0.205221 
-0.149838 0.205221 9.43704 
9.75073 -0.0417861 -0.0106599 
-0.0417861 9.24248 0.0440587 
-0.0106599 0.0440587 9.59885 
9.59796 0.0595038 -0.1428 
0.0595038 9.42198 0.107966 
-0.1428 0.107966 9.57212 
6.88086 0.0180934 0.300551 
0.0180934 5.4543 1.3393 
0.300551 1.3393 1.77337 
5.87994 -0.156991 0.511974 
-0.156991 5.28533 1.28269 
0.511974 1.28269 2.94326 
6.16824 -0.480464 0.45979 
-0.480464 6.38046 0.11902 
0.45979 0.11902 1.55984 
6.99432 -0.725518 -0.296467 
-0.725518 6.50527 0.134814 
-0.296467 0.134814 0.608943 
6.96842 -0.492573 0.209201 
-0.492573 7.80468 0.766353 
0.209201 0.766353 4.41849 
7.42696 0.164301 -0.599012 
0.164301 7.92382 1.49772 
-0.599012 1.49772 3.84081 
8.44247 -0.388525 0.169303 
-0.388525 7.90519 0.813609 
0.169303 0.813609 2.84393 
6.67361 -0.495559 1.38673 
-0.495559 6.42276 0.0480176 
1.38673 0.0480176 6.09521 
9.57909 0.0276646 0.38031 
0.0276646 9.68213 -0.0922693 
0.38031 -0.0922693 9.72481 
9.62094 0.0252145 0.441315 
0.0252145 9.61338 -0.114167 
0.441315 -0.114167 9.75171 
9.68379 -0.0456495 0.464304 
-0.0456495 9.63349 -0.132539 
0.464304 -0.132539 9.66875 
9.64125 0.0106069 0.452728 
0.0106069 9.70617 -0.127397 
0.452728 -0.127397 9.63861 
9.58202 -0.0400178 0.438723 
-0.0400178 9.64844 -0.0866419 
0.438723 -0.0866419 9.78453 
9.62107 -0.026924 0.4122 
-0.026924 9.6008 -0.0978739 
0.4122 -0.0978739 9.79312 
9.66557 -0.00888611 0.376612 
-0.00888611 9.60613 -0.109623 
0.376612 -0.109623 9.74329 
9.61637 -0.0825299 0.374142 
-0.0825299 9.61097 -0.106974 
0.374142 -0.106974 9.78765 
9.66578 0.0256052 0.415379 
0.0256052 9.5792 -0.111473 
0.415379 -0.111473 9.83446 
9.63008 0.0416992 0.410808 
0.0416992 9.61491 -0.0935397 
0.410808 -0.0935397 9.83445 
9.69588 0.0166521 0.416365 
0.0166521 9.6 -0.094714 
0.416365 -0.094714 9.78355 
9.67202 0.0426129 0.448377 
0.0426129 9.61843 -0.10456 
0.448377 -0.10456 9.78899 
9.70894 -0.0138811 0.359803 
-0.0138811 9.50896 -0.126013 
0.359803 -0.126013 9.82102 
9.71183 -0.00922778 0.379292 
-0.00922778 9.50239 -0.137888 
0.379292 -0.137888 9.8247 
9.65083 0.00349081 0.398389 
0.00349081 9.52964 -0.130068 
0.398389 -0.130068 9.85844 
9.7066 -0.0514767 0.33497 
-0.0514767 9.53544 -0.102779 
0.33497 -0.102779 9.79687 
9.63836 -0.0587789 0.386764 
-0.0587789 9.67019 -0.0473849 
0.386764 -0.0473849 9.74145 
9.74795 -0.00131636 0.334494 
-0.00131636 9.4896 -0.052926 
0.334494 -0.052926 9.81244 
9.63955 -0.0247796 0.402019 
-0.0247796 9.60406 -0.0664009 
0.402019 -0.0664009 9.80638 
9.7249 0.0566081 0.418974 
0.0566081 9.52735 -0.105534 
0.418974 -0.105534 9.79774 
9.6562 -0.0256586 0.375347 
-0.0256586 9.58688 -0.0586827 
0.375347 -0.0586827 9.82588 
9.58301 -0.0933373 0.517473 
-0.0933373 9.57344 -0.128813 
0.517473 -0.128813 9.91251 
9.73864 0.12902 0.356657 
0.12902 9.47951 -0.0176607 
0.356657 -0.0176607 9.85082 
9.66792 -0.123644 0.245061 
-0.123644 9.33722 -0.148027 
0.245061 -0.148027 10.0638 
9.73411 0.145236 -0.323216 
0.145236 9.58161 0.103973 
-0.323216 0.103973 9.91468 
9.54809 0.313927 -0.198247 
0.313927 9.68466 0.0264183 
-0.198247 0.0264183 9.99767 
9.62378 0.0836443 -0.191554 
0.0836443 9.60816 0.0044944 
-0.191554 0.0044944 9.99847 
9.61038 0.058609 -0.127311 
0.058609 9.72698 0.04969 
-0.127311 0.04969 9.89305 
9.3344 0.223206 -0.216556 
0.223206 9.57894 -0.0182299 
-0.216556 -0.0182299 9.64572 
9.38901 0.206889 -0.132923 
0.206889 9.57888 -0.141209 
-0.132923 -0.141209 9.59118 
9.15165 0.212552 -0.145163 
0.212552 9.46364 -0.0234739 
-0.145163 -0.0234739 9.94377 
9.18593 0.152338 -0.143705 
0.152338 9.64121 -0.0300755 
-0.143705 -0.0300755 9.73193 
9.28998 0.233615 -0.303546 
0.233615 9.58862 0.278241 
-0.303546 0.278241 9.8396 
9.26246 -0.0219163 -0.308959 
-0.0219163 9.56766 -0.201887 
-0.308959 -0.201887 9.88807 
9.30661 -0.0121363 -0.443204 
-0.0121363 9.4043 0.101564 
-0.443204 0.101564 10.0073 
9.72586 -0.0772043 -0.260487 
-0.0772043 9.52933 0.441418 
-0.260487 0.441418 9.463 
9.4673 -0.0292858 -0.389945 
-0.0292858 9.45737 0.0893828 
-0.389945 0.0893828 9.97109 
9.45833 0.00802622 -0.48135 
0.00802622 9.55834 0.257891 
-0.48135 0.257891 9.8791 
9.45299 -0.0771778 -0.233331 
-0.0771778 9.55266 0.0166743 
-0.233331 0.0166743 9.89012 
9.15395 0.34094 -0.171724 
0.34094 9.4928 0.0611501 
-0.171724 0.0611501 10.249 
9.65265 -0.242734 -0.533718 
-0.242734 9.34977 0.159633 
-0.533718 0.159633 9.19802 
8.9013 0.20756 -0.23454 
0.20756 9.12522 0.237834 
-0.23454 0.237834 10.1739 
9.04534 0.306036 0.104605 
0.306036 9.38717 -0.0483033 
0.104605 -0.0483033 9.76793 
9.5047 -0.205954 -0.405763 
-0.205954 9.46719 0.283544 
-0.405763 0.283544 9.22855 
9.34134 -0.0166516 -0.0816928 
-0.0166516 9.6449 0.136204 
-0.0816928 0.136204 9.7289 
9.40885 -0.107869 -0.178417 
-0.107869 9.55489 -0.0172026 
-0.178417 -0.0172026 9.75139 
9.5857 0.208586 -0.485983 
0.208586 9.57679 0.383423 
-0.485983 0.383423 9.55264 
9.20719 0.0663753 -0.343519 
0.0663753 9.26933 -0.205412 
-0.343519 -0.205412 10.2386 
9.37648 -0.147542 0.247858 
-0.147542 9.59083 -0.0611909 
0.247858 -0.0611909 9.73106 
9.36656 -0.0515814 0.381498 
-0.0515814 9.5616 0.0708485 
0.381498 0.0708485 9.77021 
9.35268 -0.155967 0.300837 
-0.155967 9.50714 -0.15803 
0.300837 -0.15803 9.83855 
9.413 -0.0881509 0.347324 
-0.0881509 9.49075 -0.0612933 
0.347324 -0.0612933 9.79463 
9.52649 -0.277857 0.514543 
-0.277857 9.54541 -0.0503772 
0.514543 -0.0503772 9.76271 
9.49616 0.0233194 0.223645 
0.0233194 9.38361 0.0838865 
0.223645 0.0838865 9.95484 
9.40541 -0.203298 0.260672 
-0.203298 9.70393 -0.00830733 
0.260672 -0.00830733 9.72527 
9.47124 -0.261049 0.316763 
-0.261049 9.4064 0.0450659 
0.316763 0.0450659 9.95697 
8.96448 -0.102392 0.718069 
-0.102392 9.47296 -0.098872 
0.718069 -0.098872 10.6571 
9.20098 -0.00560847 0.51527 
-0.00560847 9.27939 -0.0148473 
0.51527 -0.0148473 10.6141 
9.11355 0.0908737 0.614329 
0.0908737 9.17539 -0.192368 
0.614329 -0.192368 10.8056 
9.23686 -0.685378 -0.175205 
-0.685378 9.06867 0.463924 
-0.175205 0.463924 10.789 
9.32334 -0.0906721 1.77796 
-0.0906721 9.74969 0.00502229 
1.77796 0.00502229 10.7388 
9.86663 -0.0674338 0.51575 
-0.0674338 9.63426 0.389056 
0.51575 0.389056 10.3109 
9.11809 -0.322323 1.69217 
-0.322323 10.1608 0.322537 
1.69217 0.322537 10.5329 
9.80663 0.583218 1.50513 
0.583218 10.3929 -0.0650633 
1.50513 -0.0650633 9.61223 
9.62833 -0.238671 -0.286498 
-0.238671 9.98698 -0.699632 
-0.286498 -0.699632 7.34044 
9.34058 -0.0371974 -0.45306 
-0.0371974 9.72151 -0.957662 
-0.45306 -0.957662 7.89367 
9.49431 -0.0224487 -0.280497 
-0.0224487 8.83786 -0.64992 
-0.280497 -0.64992 8.62358 
9.31873 0.196498 0.362369 
0.196498 9.16712 -1.52468 
0.362369 -1.52468 8.4699 
9.78404 -0.0846248 -0.233551 
-0.0846248 8.63874 -0.135977 
-0.233551 -0.135977 6.89475 
8.15301 0.256802 -1.20104 
0.256802 9.62443 -0.0586355 
-1.20104 -0.0586355 7.54009 
9.39917 -0.00606604 0.349844 
-0.00606604 8.51881 -0.159448 
0.349844 -0.159448 7.39954 
9.60769 -0.115885 -0.238913 
-0.115885 9.01189 -0.4184 
-0.238913 -0.4184 6.69795 
9.40778 0.06005 -0.019795 
0.06005 9.37115 -0.0637038 
-0.019795 -0.0637038 10.2136 
9.37007 0.0182253 0.0877138 
0.0182253 9.53419 -0.0523693 
0.0877138 -0.0523693 10.0883 
8.899 0.0222155 0.199064 
0.0222155 9.76179 -0.129352 
0.199064 -0.129352 10.3318 
8.96696 -0.0485858 0.0145321 
-0.0485858 10.0831 -0.502456 
0.0145321 -0.502456 9.94255 
9.5094 0.195284 -0.744259 
0.195284 9.82587 2.32559 
-0.744259 2.32559 12.2126 
8.46286 -0.352873 0.283969 
-0.352873 9.82762 -0.4979 
0.283969 -0.4979 13.2573 
10.2455 0.0370975 -0.288753 
0.0370975 9.23641 -0.398246 
-0.288753 -0.398246 12.0659 
10.8506 0.630311 0.102166 
0.630311 11.6559 0.273048 
0.102166 0.273048 9.04134 
9.58812 0.0279311 -0.0850479 
0.0279311 9.47734 -0.0209515 
-0.0850479 -0.0209515 9.51053 
9.64652 0.0699814 -0.0166004 
0.0699814 9.54402 -0.0789081 
-0.0166004 -0.0789081 9.38545 
9.59659 -0.0246192 -0.175404 
-0.0246192 9.60496 0.0759117 
-0.175404 0.0759117 9.37445 
9.69679 0.0260742 -0.0518771 
0.0260742 9.39812 -0.0223015 
-0.0518771 -0.0223015 9.48108 
9.79763 -0.058045 -0.220559 
-0.058045 9.48564 0.15758 
-0.220559 0.15758 9.18029 
9.64408 -0.0346667 -0.0998214 
-0.0346667 9.54947 -0.0904682 
-0.0998214 -0.0904682 9.27001 
9.5909 -0.00539229 -0.143525 
-0.00539229 9.45919 -0.0180391 
-0.143525 -0.0180391 9.41347 
9.59563 -0.0254005 -0.148089 
-0.0254005 9.57495 -0.0765547 
-0.148089 -0.0765547 9.29298 
9.54285 0.0260538 0.562554 
0.0260538 9.26013 0.538881 
0.562554 0.538881 9.12445 
9.41422 0.158885 0.504081 
0.158885 9.66138 0.587576 
0.504081 0.587576 8.85183 
9.31643 0.0883281 0.519105 
0.0883281 9.43925 0.548814 
0.519105 0.548814 9.17175 
9.38568 -0.383009 0.702259 
-0.383009 9.17805 0.701921 
0.702259 0.701921 9.36369 
9.00905 0.0645964 0.607106 
0.0645964 9.28525 0.556879 
0.607106 0.556879 9.05117 
9.24366 0.0035558 0.469863 
0.0035558 9.28506 0.570484 
0.469863 0.570484 8.81677 
9.23192 0.0104149 0.540283 
0.0104149 9.24342 0.619473 
0.540283 0.619473 8.87014 
9.24165 -0.133844 0.544963 
-0.133844 9.28668 0.662263 
0.544963 0.662263 8.81715 
9.64636 -0.0621966 0.100829 
-0.0621966 9.61262 -0.137973 
0.100829 -0.137973 9.76315 
9.67301 -0.0521114 0.161514 
-0.0521114 9.49248 -0.126644 
0.161514 -0.126644 9.85664 
9.59834 -0.0295263 0.0403926 
-0.0295263 9.59315 -0.232449 
0.0403926 -0.232449 9.83065 
9.70826 -0.0798447 0.114297 
-0.0798447 9.32477 -0.0293957 
0.114297 -0.0293957 9.98911 
9.67174 -0.0619567 0.00866709 
-0.0619567 9.62648 -0.0885485 
0.00866709 -0.0885485 9.61839 
9.55386 -0.0828346 -0.0737104 
-0.0828346 9.51601 -0.161596 
-0.0737104 -0.161596 9.84674 
9.63546 -0.0118248 0.284527 
-0.0118248 9.29281 -0.111388 
0.284527 -0.111388 9.98835 
9.54138 0.136687 0.156931 
0.136687 9.63476 -0.176637 
0.156931 -0.176637 9.74047 
9.841 0.0575847 0.374462 
0.0575847 9.89135 0.0547335 
0.374462 0.0547335 9.78444 
9.83161 -0.00938778 0.358816 
-0.00938778 9.84854 0.0205185 
0.358816 0.0205185 9.83665 
9.82709 0.0166305 0.339312 
0.0166305 9.8745 0.0197917 
0.339312 0.0197917 9.81521 
9.78705 0.0712911 0.337794 
0.0712911 9.8431 0.0300375 
0.337794 0.0300375 9.88665 
9.78675 0.0161804 0.353773 
0.0161804 9.75352 0.0305754 
0.353773 0.0305754 9.70339 
9.83448 0.0522389 0.374336 
0.0522389 9.75869 -0.0107506 
0.374336 -0.0107506 9.65049 
9.74982 0.028104 0.386302 
0.028104 9.7638 0.0116984 
0.386302 0.0116984 9.73003 
9.80403 0.0300868 0.376236 
0.0300868 9.83198 0.00846615 
0.376236 0.00846615 9.60765 
8.29036 1.11257 -2.89237 
1.11257 10.6976 -0.664466 
-2.89237 -0.664466 15.1021 
3.83452 -3.90214 1.11879 
-3.90214 11.3645 -1.55658 
1.11879 -1.55658 18.891 
13.4815 -2.29629 -0.160559 
-2.29629 10.5337 1.76964 
-0.160559 1.76964 10.0748 
7.47093 -2.01972 0.461793 
-2.01972 8.67309 -0.594814 
0.461793 -0.594814 17.9461 
8.88586 -0.146987 -1.4512 
-0.146987 11.3203 -0.96928 
-1.4512 -0.96928 12.4718 
10.3235 -0.553741 -0.719375 
-0.553741 10.3345 -0.862056 
-0.719375 -0.862056 12.02 
7.3075 -0.996985 -0.229647 
-0.996985 11.8978 -0.846595 
-0.229647 -0.846595 13.4727 
9.23041 -0.643381 -1.32641 
-0.643381 10.7866 -1.12682 
-1.32641 -1.12682 12.661 
9.27792 0.213179 0.0467558 
0.213179 10.6132 0.0730406 
0.0467558 0.0730406 11.6472 
9.85532 -0.30125 0.524674 
-0.30125 10.7082 -0.122351 
0.524674 -0.122351 10.9748 
9.78764 0.243574 0.0191335 
0.243574 10.2273 0.0540152 
0.0191335 0.0540152 11.5234 
9.60328 0.000161702 0.0767066 
0.000161702 10.3015 -0.0892955 
0.0767066 -0.0892955 11.6335 
9.23103 -0.00380834 0.502162 
-0.00380834 9.18311 -0.117891 
0.502162 -0.117891 11.0842 
9.13964 -0.295378 0.415854 
-0.295378 9.20733 -0.0405326 
0.415854 -0.0405326 11.1513 
9.1229 -0.0926089 0.461418 
-0.0926089 9.38407 -0.0341689 
0.461418 -0.0341689 10.9914 
9.1825 -0.319869 0.139135 
-0.319869 9.20416 0.207899 
0.139135 0.207899 11.1117 
9.25875 0.350619 0.0232125 
0.350619 9.1566 -0.0271963 
0.0232125 -0.0271963 7.90248 
11.5378 -1.23102 -0.720722 
-1.23102 8.51848 0.766036 
-0.720722 0.766036 6.26154 
9.518 0.134573 0.882522 
0.134573 9.84321 -0.451171 
0.882522 -0.451171 6.95661 
9.20362 -0.00144612 0.288915 
-0.00144612 9.49033 0.228576 
0.288915 0.228576 7.62388 
9.16609 -0.618809 1.48862 
-0.618809 9.22013 0.198325 
1.48862 0.198325 6.61899 
10.73 -0.485575 -0.0145676 
-0.485575 9.70263 1.87588 
-0.0145676 1.87588 4.5726 
9.17235 0.131081 0.296235 
0.131081 9.06633 0.379371 
0.296235 0.379371 6.76653 
9.44695 -0.549648 0.906545 
-0.549648 9.19759 0.749388 
0.906545 0.749388 6.36068 
7.19706 -0.38412 1.68423 
-0.38412 9.16772 0.233792 
1.68423 0.233792 8.15768 
8.67323 -0.137704 1.76448 
-0.137704 7.49906 1.21412 
1.76448 1.21412 8.35018 
7.40405 -0.821478 2.02494 
-0.821478 8.75241 1.10416 
2.02494 1.10416 8.36599 
7.54612 -0.714865 1.75888 
-0.714865 8.77865 0.638111 
1.75888 0.638111 8.19769 
9.29956 -0.0310992 1.00931 
-0.0310992 10.5398 -1.23678 
1.00931 -1.23678 11.1348 
11.8202 -3.80635 1.70288 
-3.80635 6.3556 -1.46122 
1.70288 -1.46122 12.7984 
8.09536 0.139557 0.664019 
0.139557 10.994 1.64118 
0.664019 1.64118 11.8849 
11.3675 -1.54263 -0.842073 
-1.54263 9.0192 2.92284 
-0.842073 2.92284 10.5875 
9.56297 -0.249953 0.313899 
-0.249953 8.7666 0.0737027 
0.313899 0.0737027 10.1476 
9.24974 -0.140019 0.29622 
-0.140019 9.20349 0.0907768 
0.29622 0.0907768 10.0239 
9.65884 -0.224846 0.388925 
-0.224846 8.80823 0.209337 
0.388925 0.209337 10.0101 
9.13725 -0.737747 0.586633 
-0.737747 9.00422 0.372993 
0.586633 0.372993 10.3357 
9.79155 -0.166661 0.237381 
-0.166661 9.02725 -0.00379189 
0.237381 -0.00379189 10.2044 
9.59413 -0.211251 0.214228 
-0.211251 9.19514 0.0475454 
0.214228 0.0475454 10.2339 
9.75692 -0.237251 0.27682 
-0.237251 8.83704 0.049985 
0.27682 0.049985 10.4292 
9.59176 0.278756 0.242407 
0.278756 8.94942 -0.39204 
0.242407 -0.39204 10.482 
9.88573 -0.0148844 -0.381506 
-0.0148844 9.87545 0.328857 
-0.381506 0.328857 9.98736 
9.89355 0.0213111 -0.391397 
0.0213111 9.91012 0.324299 
-0.391397 0.324299 9.94487 
9.91419 0.00402227 -0.423286 
0.00402227 9.93249 0.361369 
-0.423286 0.361369 9.90186 
9.87313 0.00900138 -0.402003 
0.00900138 9.93214 0.343916 
-0.402003 0.343916 9.94327 
9.84226 0.012053 -0.427374 
0.012053 9.89049 0.38912 
-0.427374 0.38912 9.73785 
9.78391 0.0236943 -0.404991 
0.0236943 9.86589 0.383723 
-0.404991 0.383723 9.82079 
9.76919 -0.0309211 -0.344306 
-0.0309211 9.81916 0.341671 
-0.344306 0.341671 9.88225 
9.79054 0.0251177 -0.414885 
0.0251177 9.8501 0.382278 
-0.414885 0.382278 9.82996 
9.69435 0.0323939 0.297655 
0.0323939 9.84526 0.175399 
0.297655 0.175399 9.6221 
9.8193 0.0314134 0.290752 
0.0314134 9.88047 0.124954 
0.290752 0.124954 9.46193 
9.80645 0.0530841 0.345844 
0.0530841 9.90651 0.105936 
0.345844 0.105936 9.44874 
9.86245 -0.048125 0.198019 
-0.048125 9.8959 -0.126572 
0.198019 -0.126572 9.40336 
9.77386 0.0303782 0.316826 
0.0303782 9.73954 0.134133 
0.316826 0.134133 9.68155 
9.78439 0.0382348 0.302591 
0.0382348 9.76462 0.141008 
0.302591 0.141008 9.64594 
9.78945 0.0534097 0.321035 
0.0534097 9.81824 0.0967032 
0.321035 0.0967032 9.58727 
9.76368 -0.041738 0.336829 
-0.041738 9.73928 0.243595 
0.336829 0.243595 9.69199 
9.19089 0.389219 0.175288 
0.389219 9.85133 0.460656 
0.175288 0.460656 11.8754 
9.68005 -0.340385 -0.521659 
-0.340385 10.0189 -0.772139 
-0.521659 -0.772139 11.2187 
8.88634 0.264516 0.140879 
0.264516 10.496 -0.384996 
0.140879 -0.384996 11.5353 
7.70057 -1.33533 -0.850505 
-1.33533 10.8784 2.30377 
-0.850505 2.30377 12.3387 
8.24221 -0.45152 -0.47225 
-0.45152 10.3204 -0.129585 
-0.47225 -0.129585 10.8663 
9.16338 -0.225924 -1.23543 
-0.225924 9.75958 -0.712699 
-1.23543 -0.712699 10.5059 
9.21116 -0.313795 -0.69394 
-0.313795 9.99878 0.0816634 
-0.69394 0.0816634 10.219 
10.2632 0.12766 0.0440708 
0.12766 9.34993 0.0534403 
0.0440708 0.0534403 9.81579 
9.62409 -0.0488222 -0.375596 
-0.0488222 9.64466 0.0989687 
-0.375596 0.0989687 9.74759 
9.61511 -0.022499 -0.461126 
-0.022499 9.72885 0.223633 
-0.461126 0.223633 9.67238 
9.55367 0.0512361 -0.477584 
0.0512361 9.61656 0.244945 
-0.477584 0.244945 9.8461 
9.54865 0.0312575 -0.47687 
0.0312575 9.6681 0.18725 
-0.47687 0.18725 9.79958 
9.5796 0.0088555 -0.429432 
0.0088555 9.66447 0.0974244 
-0.429432 0.0974244 9.69915 
9.5212 0.0116729 -0.417065 
0.0116729 9.62247 0.254215 
-0.417065 0.254215 9.79955 
9.5545 0.0258137 -0.481534 
0.0258137 9.68884 0.157544 
-0.481534 0.157544 9.69988 
9.57366 -0.0151191 -0.400158 
-0.0151191 9.62562 0.197032 
-0.400158 0.197032 9.74395 
10.4915 0.257888 -0.323207 
0.257888 11.6274 -0.151007 
-0.323207 -0.151007 13.2774 
10.0876 -0.468257 0.390839 
-0.468257 11.7022 0.42366 
0.390839 0.42366 13.6065 
10.7509 0.648883 0.393565 
0.648883 9.95391 0.41853 
0.393565 0.41853 14.6916 
9.78742 1.27463 -0.312308 
1.27463 12.9737 -0.371306 
-0.312308 -0.371306 12.6352 
8.7689 0.778123 0.0528022 
0.778123 10.4292 1.21217 
0.0528022 1.21217 11.9542 
9.63777 3.45676 0.327939 
3.45676 7.23391 0.15646 
0.327939 0.15646 14.2807 
9.00528 -0.325534 0.613307 
-0.325534 10.7876 -0.135422 
0.613307 -0.135422 11.3594 
10.0632 1.28247 -0.0454844 
1.28247 9.89463 1.56674 
-0.0454844 1.56674 11.1946 
8.667 0.0573694 -0.529914 
0.0573694 10.0759 0.204641 
-0.529914 0.204641 9.38078 
8.80308 0.415542 -0.344988 
0.415542 9.65847 0.08245 
-0.344988 0.08245 9.66213 
8.67313 -0.11859 0.15443 
-0.11859 9.55466 0.133337 
0.15443 0.133337 9.89589 
7.44196 1.48434 -0.783697 
1.48434 10.7226 0.50204 
-0.783697 0.50204 9.95912 
8.65045 0.230755 -1.36378 
0.230755 11.0231 0.829869 
-1.36378 0.829869 7.8926 
7.80565 -0.184609 0.517478 
-0.184609 9.71484 0.35783 
0.517478 0.35783 10.0457 
8.09111 1.0885 -1.32597 
1.0885 9.65017 -1.10501 
-1.32597 -1.10501 9.82492 
10.0951 -0.132851 -1.56184 
-0.132851 8.85965 -1.10082 
-1.56184 -1.10082 8.6114 
9.89436 0.278745 -0.116601 
0.278745 9.73161 0.039003 
-0.116601 0.039003 10.0475 
10.0302 -0.14993 0.226497 
-0.14993 9.59903 0.31928 
0.226497 0.31928 10.0443 
10.0647 -0.140047 -0.211856 
-0.140047 9.32606 0.0686555 
-0.211856 0.0686555 10.2828 
9.75959 0.421515 0.197024 
0.421515 9.57691 0.294743 
0.197024 0.294743 10.337 
9.83956 -0.163329 0.25368 
-0.163329 8.99569 -0.0886084 
0.25368 -0.0886084 10.0771 
9.73476 -0.0766865 0.410767 
-0.0766865 9.3753 0.0495691 
0.410767 0.0495691 9.80229 
9.88523 0.416099 -0.0936451 
0.416099 8.78332 -0.222716 
-0.0936451 -0.222716 10.2438 
9.84455 0.204055 0.122559 
0.204055 9.04231 0.0124629 
0.122559 0.0124629 10.0255 
9.18454 -0.000330323 -0.635135 
-0.000330323 9.30254 0.159965 
-0.635135 0.159965 9.46774 
9.12229 -0.0532461 -0.639951 
-0.0532461 9.3059 0.137609 
-0.639951 0.137609 9.52663 
9.11497 -0.0570825 -0.66018 
-0.0570825 9.34262 0.132483 
-0.66018 0.132483 9.49723 
9.09216 -0.108794 -0.79018 
-0.108794 9.35904 0.100583 
-0.79018 0.100583 9.50361 
9.22318 0.00871505 -0.578584 
0.00871505 9.38805 0.0940935 
-0.578584 0.0940935 9.7833 
9.2089 -0.10934 -0.534341 
-0.10934 9.38823 0.114306 
-0.534341 0.114306 9.7974 
9.20003 -0.0544448 -0.528582 
-0.0544448 9.37861 0.111474 
-0.528582 0.111474 9.81589 
9.22208 -0.103516 -0.462114 
-0.103516 9.40407 0.185351 
-0.462114 0.185351 9.76837 
9.82189 -0.00228318 0.506416 
-0.00228318 9.72959 0.0472308 
0.506416 0.0472308 9.85769 
9.81116 0.058596 0.480164 
0.058596 9.78397 0.0160668 
0.480164 0.0160668 9.81404 
9.83689 -0.0236021 0.535846 
-0.0236021 9.77952 0.0574115 
0.535846 0.0574115 9.79276 
9.77874 0.0328521 0.450379 
0.0328521 9.82668 0.0948592 
0.450379 0.0948592 9.80374 
9.75545 0.0448846 0.526677 
0.0448846 9.76582 0.010797 
0.526677 0.010797 9.79547 
9.77301 0.0566314 0.514302 
0.0566314 9.74982 0.0383402 
0.514302 0.0383402 9.79391 
9.77096 0.0413386 0.473582 
0.0413386 9.81891 -0.00748378 
0.473582 -0.00748378 9.72687 
9.78469 0.0283736 0.525529 
0.0283736 9.82121 0.0191534 
0.525529 0.0191534 9.71084 
9.49653 0.130224 0.452306 
0.130224 9.43633 0.0445948 
0.452306 0.0445948 9.54141 
9.51821 0.236144 0.504424 
0.236144 9.51175 -0.0238567 
0.504424 -0.0238567 9.44431 
9.36049 0.0279062 0.540054 
0.0279062 9.60777 0.0801372 
0.540054 0.0801372 9.50601 
9.45597 0.120105 0.506551 
0.120105 9.53783 0.0320565 
0.506551 0.0320565 9.48047 
9.51953 0.107801 0.39411 
0.107801 9.38211 0.0238272 
0.39411 0.0238272 9.56688 
9.35675 0.0425281 0.529522 
0.0425281 9.59592 0.225423 
0.529522 0.225423 9.51585 
9.55681 0.218557 0.615 
0.218557 9.38837 -0.209144 
0.615 -0.209144 9.52335 
9.50361 0.0299139 0.478467 
0.0299139 9.41964 -0.0534976 
0.478467 -0.0534976 9.54528 
10.0141 -1.59942 -0.555402 
-1.59942 8.14458 1.27613 
-0.555402 1.27613 8.05077 
10.2152 1.19361 -2.06028 
1.19361 6.63305 4.14668 
-2.06028 4.14668 9.36116 
9.07277 2.3501 -0.115644 
2.3501 6.5314 2.0398 
-0.115644 2.0398 10.6052 
8.20063 -0.3925 -3.08219 
-0.3925 7.03966 5.01455 
-3.08219 5.01455 10.9691 
9.61375 -0.515569 -0.484628 
-0.515569 8.54297 1.22458 
-0.484628 1.22458 8.8312 
8.14674 0.42774 -1.07068 
0.42774 7.93392 -0.847898 
-1.07068 -0.847898 10.9073 
11.3357 0.783325 -1.45526 
0.783325 6.57547 2.68537 
-1.45526 2.68537 9.07681 
9.81602 0.155164 -0.622648 
0.155164 8.44348 1.36053 
-0.622648 1.36053 8.72842 
6.75811 0.691142 -2.00195 
0.691142 7.57848 1.77388 
-2.00195 1.77388 5.42344 
7.76686 -0.0384011 -1.77142 
-0.0384011 7.80754 0.695721 
-1.77142 0.695721 4.18564 
7.70914 0.160506 -2.06562 
0.160506 7.87114 1.20457 
-2.06562 1.20457 4.17975 
8.91818 0.725236 -2.95982 
0.725236 9.10845 1.81366 
-2.95982 1.81366 1.7334 
8.36346 0.540742 -3.63281 
0.540742 10.0327 0.310838 
-3.63281 0.310838 5.18989 
7.04729 0.996645 -0.456308 
0.996645 11.3905 0.423463 
-0.456308 0.423463 5.14826 
7.41361 3.66471 -1.22395 
3.66471 9.09312 1.57678 
-1.22395 1.57678 7.07932 
6.04472 -0.27031 -2.35603 
-0.27031 5.44155 0.937922 
-2.35603 0.937922 12.0998 
3.48625 4.32125 -2.21014 
4.32125 10.2009 -1.63044 
-2.21014 -1.63044 20.1341 
8.95212 -2.13203 3.5061 
-2.13203 19.15 0.494334 
3.5061 0.494334 5.71913 
13.2932 0.37396 -5.39031 
0.37396 9.15306 1.91158 
-5.39031 1.91158 11.375 
2.25557 0.881175 -2.04619 
0.881175 8.42852 -0.786037 
-2.04619 -0.786037 23.1372 
9.49503 0.885029 -2.35867 
0.885029 9.58522 1.47285 
-2.35867 1.47285 11.4038 
8.08498 -1.83889 -1.27666 
-1.83889 11.9908 -0.360918 
-1.27666 -0.360918 10.4083 
8.12768 2.86874 -1.69282 
2.86874 8.96848 -0.287076 
-1.69282 -0.287076 13.3879 
8.68949 1.36125 -2.4579 
1.36125 10.542 0.765431 
-2.4579 0.765431 11.2526 
9.49227 -0.150583 0.47035 
-0.150583 10.9114 0.478319 
0.47035 0.478319 11.541 
10.8645 -0.33308 -0.252891 
-0.33308 9.97952 0.0541353 
-0.252891 0.0541353 11.1007 
8.87576 -2.28904 -0.812026 
-2.28904 10.8335 -0.0903652 
-0.812026 -0.0903652 12.2355 
9.88358 -0.684212 0.299816 
-0.684212 10.4903 0.433157 
0.299816 0.433157 11.5709 
10.5884 -0.588629 -0.0761496 
-0.588629 10.1811 -1.3508 
-0.0761496 -1.3508 12.8933 
10.8053 -1.39714 -0.335881 
-1.39714 10.5452 -0.839084 
-0.335881 -0.839084 12.3123 
8.94266 -1.17906 -0.361317 
-1.17906 10.6952 0.691773 
-0.361317 0.691773 14.0249 
11.2676 -0.0147575 -0.478466 
-0.0147575 14.1055 -2.42938 
-0.478466 -2.42938 8.28973 
7.91863 0.653042 1.84867 
0.653042 8.22585 -2.75027 
1.84867 -2.75027 7.4611 
7.27291 -0.640461 1.08493 
-0.640461 9.8278 -0.611283 
1.08493 -0.611283 6.50487 
8.18809 1.86916 2.44966 
1.86916 6.21594 -1.86524 
2.44966 -1.86524 9.20155 
8.8477 0.666604 2.90718 
0.666604 8.38794 -5.02762 
2.90718 -5.02762 6.36994 
9.26 -0.509698 0.292334 
-0.509698 7.4256 -1.85313 
0.292334 -1.85313 8.48073 
9.70646 -0.791515 0.651069 
-0.791515 8.06062 -1.60225 
0.651069 -1.60225 7.39924 
9.53765 -0.0636191 1.93603 
-0.0636191 8.15289 -2.58267 
1.93603 -2.58267 7.47579 
10.2457 -0.0224022 0.399527 
-0.0224022 8.63129 -1.29785 
0.399527 -1.29785 6.28935 
9.00464 0.342909 -0.376055 
0.342909 9.42156 -0.00862059 
-0.376055 -0.00862059 9.78711 
9.09153 0.157821 -0.300265 
0.157821 9.43156 -0.0661537 
-0.300265 -0.0661537 9.69022 
9.11397 0.195885 -0.570254 
0.195885 9.5499 0.0185531 
-0.570254 0.0185531 9.54944 
9.24918 0.152287 -0.539288 
0.152287 9.38249 0.050417 
-0.539288 0.050417 9.58164 
9.08604 0.439989 -0.252741 
0.439989 9.63356 0.0357732 
-0.252741 0.0357732 9.72687 
8.79474 0.064921 -0.413468 
0.064921 10.0284 -0.0973717 
-0.413468 -0.0973717 9.62331 
9.471 0.303048 -0.134248 
0.303048 9.43853 -0.201159 
-0.134248 -0.201159 9.53694 
8.90055 0.162098 -0.255856 
0.162098 9.89112 -0.167072 
-0.255856 -0.167072 9.6548 
10.9281 -0.492559 0.354928 
-0.492559 11.1981 0.290248 
0.354928 0.290248 12.2209 
10.0917 -0.363199 1.5817 
-0.363199 11.7432 0.260909 
1.5817 0.260909 12.5121 
10.2008 -0.232674 -0.457947 
-0.232674 10.6262 0.422938 
-0.457947 0.422938 13.52 
12.6222 -0.465359 0.473355 
-0.465359 11.4392 0.118888 
0.473355 0.118888 10.2857 
10.6129 1.83798 1.55612 
1.83798 9.99599 0.170149 
1.55612 0.170149 11.8447 
11.336 -0.411309 -1.39489 
-0.411309 8.85541 -0.0207114 
-1.39489 -0.0207114 12.2622 
7.96668 -4.33201 1.12899 
-4.33201 8.84981 -0.821142 
1.12899 -0.821142 15.6372 
10.9852 -2.67793 -1.82481 
-2.67793 11.2182 -0.311702 
-1.82481 -0.311702 10.2502 
8.66921 -0.19505 0.48493 
-0.19505 7.01568 0.264343 
0.48493 0.264343 4.08203 
8.72755 0.0528162 -0.590594 
0.0528162 7.59219 0.566464 
-0.590594 0.566464 3.44718 
8.09242 -0.236003 -0.579527 
-0.236003 6.81221 0.568194 
-0.579527 0.568194 4.86228 
6.74139 -0.177225 -0.917384 
-0.177225 6.11662 -0.414018 
-0.917384 -0.414018 6.90891 
6.2302 0.419561 -0.90434 
0.419561 7.62557 0.696115 
-0.90434 0.696115 0.941824 
7.51205 -0.283787 -0.538819 
-0.283787 4.3637 1.24878 
-0.538819 1.24878 2.92185 
6.4307 0.0795142 -0.0400915 
0.0795142 7.03017 0.236396 
-0.0400915 0.236396 1.33673 
6.10046 0.261146 -0.335161 
0.261146 7.15206 -0.820456 
-0.335161 -0.820456 1.54509 
9.61472 0.0257757 -0.223586 
0.0257757 9.58421 -0.524752 
-0.223586 -0.524752 9.38181 
9.6735 0.000365645 -0.202906 
0.000365645 9.64953 -0.733272 
-0.202906 -0.733272 9.25771 
9.48303 0.0737129 -0.270271 
0.0737129 9.97162 -0.4742 
-0.270271 -0.4742 9.12609 
9.58648 -0.0133902 -0.272043 
-0.0133902 9.64817 -0.551441 
-0.272043 -0.551441 9.34609 
9.38056 0.0139948 -0.180136 
0.0139948 9.57849 -0.491719 
-0.180136 -0.491719 9.56141 
9.64855 -0.00296832 -0.328306 
-0.00296832 9.86359 -0.522862 
-0.328306 -0.522862 9.00831 
9.66386 -0.0386434 -0.353325 
-0.0386434 9.62135 -0.80181 
-0.353325 -0.80181 9.23523 
9.43251 0.105817 -0.423433 
0.105817 9.71132 -0.809932 
-0.423433 -0.809932 9.37662 
12.2747 2.80923 0.517239 
2.80923 10.655 1.19564 
0.517239 1.19564 13.4921 
10.5974 1.49413 -0.876222 
1.49413 12.6277 0.0880016 
-0.876222 0.0880016 13.1966 
10.4506 -1.05576 0.466471 
-1.05576 9.14682 -0.245789 
0.466471 -0.245789 16.8243 
8.91721 2.29221 0.752551 
2.29221 8.44928 -0.498775 
0.752551 -0.498775 19.0552 
9.44716 0.853974 0.82797 
0.853974 10.4527 -0.445758 
0.82797 -0.445758 11.8957 
9.57509 0.664091 0.278298 
0.664091 10.1956 -0.627557 
0.278298 -0.627557 12.0249 
9.29644 0.63016 0.173219 
0.63016 10.3673 -0.431468 
0.173219 -0.431468 12.1318 
11.7779 -0.184829 0.636491 
-0.184829 9.49796 -0.629822 
0.636491 -0.629822 10.5197 
7.31622 1.59248 -3.45638 
1.59248 6.89364 -0.444473 
-3.45638 -0.444473 4.79134 
8.66555 -2.09724 -1.33378 
-2.09724 6.24791 -0.585849 
-1.33378 -0.585849 4.08773 
8.06811 0.833983 -0.583916 
0.833983 8.69992 -0.588302 
-0.583916 -0.588302 2.23316 
8.0365 0.191024 -1.0779 
0.191024 6.84687 -0.841029 
-1.0779 -0.841029 4.11783 
4.62 0.648138 -2.59685 
0.648138 4.20072 0.0797896 
-2.59685 0.0797896 2.23622 
5.1187 -0.0631442 -0.456134 
-0.0631442 7.7944 0.703485 
-0.456134 0.703485 -1.85616 
4.55899 0.122202 -1.37954 
0.122202 5.52087 0.299116 
-1.37954 0.299116 0.977075 
4.41975 -1.35291 -1.43307 
-1.35291 7.12727 0.217199 
-1.43307 0.217199 -0.490085 
8.84962 -0.0747558 0.196375 
-0.0747558 9.26764 0.684982 
0.196375 0.684982 9.02442 
9.04227 -0.0618996 0.245621 
-0.0618996 9.24054 0.773001 
0.245621 0.773001 8.85887 
8.94769 -0.101108 0.199029 
-0.101108 9.20502 0.703119 
0.199029 0.703119 8.98896 
8.97228 0.0467577 0.205082 
0.0467577 8.93755 0.708417 
0.205082 0.708417 9.23184 
8.84219 -0.0159587 0.361508 
-0.0159587 8.8644 0.418475 
0.361508 0.418475 9.09032 
8.98771 -0.023274 0.355421 
-0.023274 9.14767 0.866172 
0.355421 0.866172 8.66153 
8.84877 -0.164486 0.380893 
-0.164486 9.06887 0.919359 
0.380893 0.919359 8.87927 
8.79121 0.025769 0.845132 
0.025769 9.64875 0.766829 
0.845132 0.766829 8.35695 
9.95037 -0.00474709 -0.456659 
-0.00474709 9.96141 0.285149 
-0.456659 0.285149 9.94791 
9.94696 -0.0163719 -0.466116 
-0.0163719 9.9406 0.264558 
-0.466116 0.264558 9.97214 
9.90577 -0.00464657 -0.465224 
-0.00464657 9.93594 0.254934 
-0.465224 0.254934 10.018 
9.95079 0.00584518 -0.453033 
0.00584518 9.95408 0.274512 
-0.453033 0.274512 9.95483 
9.87468 -0.00366392 -0.438435 
-0.00366392 9.89494 0.29836 
-0.438435 0.29836 9.90927 
9.8461 0.0152324 -0.44551 
0.0152324 9.8963 0.295904 
-0.44551 0.295904 9.93648 
9.89912 -0.00613018 -0.439407 
-0.00613018 9.87133 0.289265 
-0.439407 0.289265 9.90844 
9.89097 -0.0228635 -0.460657 
-0.0228635 9.89201 0.301042 
-0.460657 0.301042 9.89591 
9.98244 0.00407532 0.0655851 
0.00407532 10.0147 -0.454479 
0.0655851 -0.454479 9.87414 
9.98767 0.0345489 0.0238614 
0.0345489 10.0158 -0.477848 
0.0238614 -0.477848 9.86779 
9.95176 -0.0307636 0.0178551 
-0.0307636 9.9421 -0.483661 
0.0178551 -0.483661 9.97742 
9.88244 -0.0110298 0.0273713 
-0.0110298 9.92667 -0.521755 
0.0273713 -0.521755 10.0622 
9.96424 -0.00105314 0.0462885 
-0.00105314 9.80194 -0.452067 
0.0462885 -0.452067 9.90577 
9.86209 0.0236491 0.0572886 
0.0236491 9.9766 -0.501527 
0.0572886 -0.501527 9.83327 
9.84842 0.00435818 0.0788198 
0.00435818 10.0029 -0.465467 
0.0788198 -0.465467 9.82061 
9.99501 0.00648738 0.0334843 
0.00648738 9.8974 -0.481164 
0.0334843 -0.481164 9.77955 
9.9402 0.00126616 0.245053 
0.00126616 9.98723 -0.535636 
0.245053 -0.535636 9.91515 
9.95101 0.022171 0.243084 
0.022171 9.99177 -0.566103 
0.243084 -0.566103 9.89981 
9.90102 -0.0102422 0.207918 
-0.0102422 9.89675 -0.572514 
0.207918 -0.572514 10.0448 
9.90828 -0.0228396 0.240427 
-0.0228396 9.95191 -0.579387 
0.240427 -0.579387 9.98239 
9.86619 -0.00704632 0.253899 
-0.00704632 9.95834 -0.542892 
0.253899 -0.542892 9.87776 
9.96624 0.0312429 0.222939 
0.0312429 9.7608 -0.56128 
0.222939 -0.56128 9.97525 
9.86629 -0.00492761 0.259514 
-0.00492761 9.95953 -0.583237 
0.259514 -0.583237 9.87647 
9.91853 -0.00432163 0.224458 
-0.00432163 9.91279 -0.580957 
0.224458 -0.580957 9.87097 
9.87492 0.000538742 -0.295059 
0.000538742 9.99607 0.589292 
-0.295059 0.589292 9.88627 
9.89588 -0.010653 -0.291293 
-0.010653 9.95912 0.541343 
-0.291293 0.541343 9.90226 
9.97218 0.0432771 -0.214476 
0.0432771 9.78286 0.555275 
-0.214476 0.555275 10.0022 
9.94222 0.0329201 -0.245344 
0.0329201 9.89615 0.538779 
-0.245344 0.538779 9.91889 
9.96111 0.0225297 -0.270291 
0.0225297 9.99452 0.582412 
-0.270291 0.582412 9.88737 
9.89078 -0.000644235 -0.215211 
-0.000644235 9.88208 0.582373 
-0.215211 0.582373 10.0701 
9.97493 0.00773074 -0.267409 
0.00773074 9.96557 0.549123 
-0.267409 0.549123 9.9025 
9.92443 -0.0546057 -0.247184 
-0.0546057 9.93669 0.586692 
-0.247184 0.586692 9.98188 
9.77575 -0.0104495 0.0360548 
-0.0104495 9.81262 -0.00640709 
0.0360548 -0.00640709 9.95049 
9.81655 -0.0756126 -0.0850462 
-0.0756126 9.76952 0.129468 
-0.0850462 0.129468 9.95279 
9.71307 0.0830605 0.0590174 
0.0830605 9.79386 0.0668197 
0.0590174 0.0668197 10.0319 
9.8267 0.0164117 0.0985222 
0.0164117 9.81447 -0.043768 
0.0985222 -0.043768 9.89769 
9.65593 0.0268614 -0.0686475 
0.0268614 9.73913 -0.0250183 
-0.0686475 -0.0250183 10.0788 
9.8083 -0.0300242 -0.113896 
-0.0300242 9.74077 0.0856156 
-0.113896 0.0856156 9.92476 
9.689 0.0318659 0.14737 
0.0318659 9.90509 -0.0334082 
0.14737 -0.0334082 9.87974 
9.84904 0.00404604 -0.150007 
0.00404604 9.75052 0.0475526 
-0.150007 0.0475526 9.87427 
10.8508 -1.29788 2.8465 
-1.29788 11.3426 0.24897 
2.8465 0.24897 13.5979 
8.48022 -1.87403 -2.36489 
-1.87403 15.278 -0.359969 
-2.36489 -0.359969 12.0331 
6.16987 -2.59072 1.92527 
-2.59072 11.119 -0.747989 
1.92527 -0.747989 18.5024 
-3.70239 -4.77145 5.44754 
-4.77145 11.1604 -0.101845 
5.44754 -0.101845 28.3333 
9.21651 -0.182743 0.918931 
-0.182743 8.64087 1.75245 
0.918931 1.75245 11.695 
8.42382 -1.24425 2.05414 
-1.24425 9.17732 0.0331745 
2.05414 0.0331745 11.9513 
7.00071 0.250815 0.895464 
0.250815 11.1035 0.478945 
0.895464 0.478945 11.4482 
9.36068 -0.9853 1.47392 
-0.9853 9.24482 0.301619 
1.47392 0.301619 10.9469 
11.5452 2.13674 -0.775967 
2.13674 11.2325 -0.532963 
-0.775967 -0.532963 14.3203 
8.85829 -0.842204 0.601266 
-0.842204 11.1623 -0.387611 
0.601266 -0.387611 17.0773 
12.9116 1.65572 -0.499299 
1.65572 10.5805 0.403087 
-0.499299 0.403087 13.6059 
8.17953 3.77003 0.958491 
3.77003 9.15998 -0.728658 
0.958491 -0.728658 19.7584 
10.756 0.564011 0.573331 
0.564011 8.98472 -1.46138 
0.573331 -1.46138 12.2984 
9.8577 0.269648 0.19559 
0.269648 9.58683 -1.47755 
0.19559 -1.47755 12.5946 
10.908 1.00271 0.221738 
1.00271 8.92467 -1.18789 
0.221738 -1.18789 12.2065 
9.76584 -0.453614 -0.0753984 
-0.453614 10.9944 -0.873535 
-0.0753984 -0.873535 11.2788 
5.31596 -0.844453 0.912931 
-0.844453 3.78408 -1.05706 
0.912931 -1.05706 1.17539 
4.4408 -0.519469 0.782804 
-0.519469 4.26604 -2.6946 
0.782804 -2.6946 1.56859 
7.14739 -0.217441 0.769695 
-0.217441 4.14174 0.0140798 
0.769695 0.0140798 -1.0137 
5.90819 1.18388 0.606644 
1.18388 2.71372 -0.794384 
0.606644 -0.794384 1.65352 
7.45387 -0.534622 1.74627 
-0.534622 7.42463 -1.12916 
1.74627 -1.12916 2.62142 
7.18009 -0.998367 1.08051 
-0.998367 6.23845 -2.25385 
1.08051 -2.25385 4.08138 
5.8145 0.792189 1.807 
0.792189 7.94136 -1.02182 
1.807 -1.02182 3.74406 
6.57724 -0.741861 1.67476 
-0.741861 6.87905 -0.748929 
1.67476 -0.748929 4.04363 
9.67497 -0.00648728 -0.245994 
-0.00648728 9.76898 0.436287 
-0.245994 0.436287 9.69209 
9.6788 0.0272626 -0.266587 
0.0272626 9.76748 0.533611 
-0.266587 0.533611 9.68977 
9.64762 -0.023185 -0.306928 
-0.023185 9.87138 0.572034 
-0.306928 0.572034 9.61704 
9.67577 0.071034 -0.326925 
0.071034 9.60806 0.569803 
-0.326925 0.569803 9.85222 
9.73309 0.0782465 -0.132272 
0.0782465 9.69143 0.499868 
-0.132272 0.499868 9.57527 
9.59868 0.0198908 -0.221917 
0.0198908 9.86139 0.639195 
-0.221917 0.639195 9.53973 
9.63436 0.0775964 -0.432326 
0.0775964 9.74679 0.532539 
-0.432326 0.532539 9.61864 
9.56559 0.00947097 -0.412218 
0.00947097 9.85636 0.431517 
-0.412218 0.431517 9.57784 
3.60708 0.113123 -0.440968 
0.113123 3.98052 0.590758 
-0.440968 0.590758 1.2209 
4.48602 0.557394 0.767142 
0.557394 3.76195 1.90809 
0.767142 1.90809 0.560541 
3.66333 -0.533757 0.876014 
-0.533757 4.96662 1.26886 
0.876014 1.26886 0.178556 
3.30992 -0.164093 -0.0361495 
-0.164093 3.16125 1.03735 
-0.0361495 1.03735 2.33733 
8.01684 0.0991466 -1.33265 
0.0991466 5.8633 2.89398 
-1.33265 2.89398 2.09184 
7.32533 -0.583276 -0.00235446 
-0.583276 7.03166 1.8123 
-0.00235446 1.8123 1.61499 
7.44959 1.51427 -1.05468 
1.51427 5.88692 1.65054 
-1.05468 1.65054 2.63548 
6.84931 -0.349223 -0.501017 
-0.349223 6.37373 2.55556 
-0.501017 2.55556 2.74894 
METADATA
COMPONENT_NAMES
XX
XY
XZ
YX
YY
YZ
ZX
ZY
ZZ

