# vtk DataFile Version 3.0
vtk output
ASCII
DATASET UNSTRUCTURED_GRID
POINTS 2604 float
1	0.9	0	
0.950709	0.828324	0	
1	0.8	0	
0.111979	0.746263	0	
0.118067	0.687768	0	
0.161334	0.735964	0	
0.781831	0.71978	0	
0.761203	0.67215	0	
0.803439	0.663975	0	
0.852197	0.113951	0	
0.852274	0.0461711	0	
0.88612	0.0868987	0	
0.917105	0.914602	0	
0.960437	0.945635	0	
0.9	1	0	
0.834101	0.219751	0	
0.860383	0.26147	0	
0.815275	0.258842	0	
0.526212	0.916658	0	
0.548189	0.871027	0	
0.58937	0.917164	0	
0.484252	0.835851	0	
0.486639	0.77807	0	
0.522589	0.796949	0	
1	0.1	0	
0.965602	0.16304	0	
0.947246	0.135645	0	
0.218988	0.81846	0	
0.260208	0.789431	0	
0.254949	0.840559	0	
0.803439	0.663975	0	
0.83345	0.689157	0	
0.781831	0.71978	0	
0.58937	0.917164	0	
0.548189	0.871027	0	
0.592959	0.859667	0	
0.441951	0.923689	0	
0.471857	0.953877	0	
0.401562	0.939541	0	
0.0737024	0.110002	0	
0.05	0.0481822	0	
0.140463	0.0742084	0	
0.551347	0.216132	0	
0.522671	0.188087	0	
0.579535	0.184155	0	
0.860383	0.26147	0	
0.874252	0.222163	0	
0.902499	0.259705	0	
1	0.1	0	
0.961921	0.0500857	0	
1	0	0	
0.902499	0.259705	0	
0.874252	0.222163	0	
0.918428	0.217136	0	
0.70085	0.326561	0	
0.675433	0.29516	0	
0.726388	0.288719	0	
0.311062	0.243322	0	
0.349734	0.230805	0	
0.354119	0.262857	0	
0.402695	0.0809751	0	
0.454159	0.0636577	0	
0.437699	0.103249	0	
0.579535	0.184155	0	
0.522671	0.188087	0	
0.545613	0.157103	0	
0.0581957	0.228872	0	
0	0.2	0	
0.0581957	0.185484	0	
0.330222	0.208634	0	
0.349734	0.230805	0	
0.311062	0.243322	0	
0.883976	0.38138	0	
0.927299	0.436697	0	
0.867521	0.429192	0	
0.720508	0.43859	0	
0.680304	0.412931	0	
0.725095	0.395715	0	
0.4	0	0	
0.454159	0.0636577	0	
0.402695	0.0809751	0	
0	0.4	0	
0.077859	0.416391	0	
0.0651809	0.456841	0	
0.185845	0.577856	0	
0.189586	0.534922	0	
0.227441	0.556701	0	
0.154867	0.778868	0	
0.166796	0.832974	0	
0.11218	0.808811	0	
1	0.9	0	
0.960437	0.945635	0	
0.935931	0.875511	0	
1	0.7	0	
0.918249	0.70556	0	
0.927563	0.6319	0	
1	1	0	
0.960437	0.945635	0	
1	0.9	0	
0.675433	0.29516	0	
0.697399	0.260207	0	
0.726388	0.288719	0	
0.616498	0.540666	0	
0.571348	0.553541	0	
0.578699	0.518011	0	
0.651307	0.446797	0	
0.671115	0.482098	0	
0.631464	0.480162	0	
0.313972	0.780164	0	
0.260208	0.789431	0	
0.280867	0.749606	0	
0.484252	0.835851	0	
0.455939	0.797186	0	
0.486639	0.77807	0	
0.455285	0.326895	0	
0.477149	0.292832	0	
0.502768	0.330452	0	
0.185845	0.577856	0	
0.227441	0.556701	0	
0.226204	0.597274	0	
0.354119	0.262857	0	
0.320684	0.286268	0	
0.311062	0.243322	0	
0.12498	0.130997	0	
0.0737024	0.110002	0	
0.140463	0.0742084	0	
0.244616	0.190678	0	
0.234621	0.138607	0	
0.282926	0.153298	0	
0.807833	0.500766	0	
0.77047	0.49815	0	
0.79526	0.455465	0	
0.288871	0.813507	0	
0.260208	0.789431	0	
0.313972	0.780164	0	
0.2	1	0	
0.260177	0.944352	0	
0.3	1	0	
0.283073	0.0957724	0	
0.220822	0.0715816	0	
0.3	0	0	
0.154867	0.778868	0	
0.188648	0.796494	0	
0.166796	0.832974	0	
0.815275	0.258842	0	
0.860383	0.26147	0	
0.841676	0.293542	0	
0.954543	0.246173	0	
0.934317	0.298166	0	
0.902499	0.259705	0	
0.25631	0.240348	0	
0.292041	0.201664	0	
0.311062	0.243322	0	
0.781831	0.71978	0	
0.83345	0.689157	0	
0.824469	0.725291	0	
0.502768	0.330452	0	
0.473315	0.359656	0	
0.455285	0.326895	0	
0.189586	0.534922	0	
0.230611	0.517653	0	
0.227441	0.556701	0	
0.254949	0.840559	0	
0.260208	0.789431	0	
0.288871	0.813507	0	
0.659761	0.203629	0	
0.616945	0.205202	0	
0.621836	0.1745	0	
0.548953	0.685128	0	
0.594859	0.693003	0	
0.556511	0.726508	0	
0.260177	0.944352	0	
0.314533	0.952312	0	
0.3	1	0	
0.631464	0.480162	0	
0.671115	0.482098	0	
0.649411	0.513339	0	
0.526212	0.916658	0	
0.54958	0.961918	0	
0.471857	0.953877	0	
0.725095	0.395715	0	
0.680304	0.412931	0	
0.691308	0.368034	0	
0.736932	0.516832	0	
0.713367	0.480787	0	
0.754431	0.465642	0	
1	0.5	0	
0.928788	0.499945	0	
0.927299	0.436697	0	
0	0.4	0	
0.0651809	0.456841	0	
0	0.5	0	
0.665345	0.167611	0	
0.659761	0.203629	0	
0.621836	0.1745	0	
0.834101	0.219751	0	
0.874252	0.222163	0	
0.860383	0.26147	0	
0.867521	0.429192	0	
0.883575	0.477789	0	
0.839146	0.466385	0	
0.599529	0.573056	0	
0.571348	0.553541	0	
0.616498	0.540666	0	
0.807833	0.500766	0	
0.79526	0.455465	0	
0.839146	0.466385	0	
0.567905	0.629795	0	
0.524733	0.622099	0	
0.566367	0.591267	0	
0.139698	0.316985	0	
0.0919868	0.299946	0	
0.120138	0.279088	0	
0.839146	0.466385	0	
0.832013	0.42885	0	
0.867521	0.429192	0	
0.104749	0.588366	0	
0.0656914	0.640462	0	
0.0562459	0.561534	0	
0.946904	0.763056	0	
0.950709	0.828324	0	
0.904316	0.794958	0	
0.757078	0.0694782	0	
0.698365	0.0639875	0	
0.7	0	0	
0.754431	0.465642	0	
0.77047	0.49815	0	
0.736932	0.516832	0	
0.512074	0.421417	0	
0.464286	0.400562	0	
0.507373	0.377078	0	
0.814046	0.0912601	0	
0.852274	0.0461711	0	
0.852197	0.113951	0	
0.146428	0.558325	0	
0.104749	0.588366	0	
0.107348	0.532274	0	
0.3	1	0	
0.314533	0.952312	0	
0.4	1	0	
0.578699	0.518011	0	
0.612242	0.507186	0	
0.616498	0.540666	0	
0.9	1	0	
0.827711	0.948078	0	
0.874805	0.924257	0	
0.152814	0.507191	0	
0.189586	0.534922	0	
0.146428	0.558325	0	
0.772975	0.171004	0	
0.813701	0.137611	0	
0.815275	0.180659	0	
0.205991	0.917768	0	
0.260177	0.944352	0	
0.2	1	0	
0.579535	0.0866621	0	
0.572875	0.0404911	0	
0.635507	0.0543198	0	
0.140463	0.0742084	0	
0.05	0.0481822	0	
0.1	0	0	
0.4	1	0	
0.471857	0.953877	0	
0.5	1	0	
0.524733	0.622099	0	
0.53077	0.578787	0	
0.566367	0.591267	0	
0.218988	0.81846	0	
0.222172	0.783449	0	
0.260208	0.789431	0	
1	0.7	0	
0.927563	0.6319	0	
1	0.6	0	
0.720508	0.43859	0	
0.68931	0.453423	0	
0.680304	0.412931	0	
0.935931	0.875511	0	
0.950709	0.828324	0	
1	0.9	0	
0.522589	0.796949	0	
0.522924	0.840554	0	
0.484252	0.835851	0	
0.201179	0.183493	0	
0.234621	0.138607	0	
0.244616	0.190678	0	
0.175112	0.13682	0	
0.220822	0.0715816	0	
0.234621	0.138607	0	
0.152814	0.409698	0	
0.140066	0.362181	0	
0.179864	0.378412	0	
0.92842	0.0965535	0	
0.961921	0.0500857	0	
1	0.1	0	
0.556511	0.726508	0	
0.594859	0.693003	0	
0.598811	0.736163	0	
0.736932	0.516832	0	
0.704824	0.556164	0	
0.69183	0.518078	0	
0.474498	0.443111	0	
0.464286	0.400562	0	
0.512074	0.421417	0	
0.244616	0.190678	0	
0.292041	0.201664	0	
0.25631	0.240348	0	
0.73167	0.904283	0	
0.77349	0.868295	0	
0.794192	0.913311	0	
0.927563	0.6319	0	
0.918249	0.70556	0	
0.877784	0.669514	0	
1	0.5	0	
0.927299	0.436697	0	
1	0.4	0	
0.79526	0.455465	0	
0.77047	0.49815	0	
0.754431	0.465642	0	
0.650978	0.374884	0	
0.613573	0.378818	0	
0.617217	0.340713	0	
1	0.3	0	
0.954543	0.246173	0	
1	0.2	0	
0.662572	0.335151	0	
0.650978	0.374884	0	
0.617217	0.340713	0	
0.282926	0.153298	0	
0.292041	0.201664	0	
0.244616	0.190678	0	
0.726388	0.288719	0	
0.735524	0.320821	0	
0.70085	0.326561	0	
0.74308	0.560858	0	
0.704824	0.556164	0	
0.736932	0.516832	0	
0.883976	0.38138	0	
0.931319	0.378884	0	
0.927299	0.436697	0	
0.195115	0.497536	0	
0.230611	0.517653	0	
0.189586	0.534922	0	
0.407107	0.464245	0	
0.368395	0.45778	0	
0.390541	0.420609	0	
0.739531	0.710125	0	
0.761203	0.67215	0	
0.781831	0.71978	0	
0.5	0	0	
0.454159	0.0636577	0	
0.4	0	0	
0.814046	0.0912601	0	
0.757078	0.0694782	0	
0.8	0	0	
0.317221	0.358997	0	
0.27907	0.346049	0	
0.29845	0.316286	0	
0.166796	0.832974	0	
0.116905	0.870631	0	
0.11218	0.808811	0	
0.2	0	0	
0.140463	0.0742084	0	
0.1	0	0	
0.8	0	0	
0.757078	0.0694782	0	
0.7	0	0	
0.390541	0.420609	0	
0.434093	0.432539	0	
0.407107	0.464245	0	
0.360236	0.3052	0	
0.332334	0.325899	0	
0.320684	0.286268	0	
0.227441	0.556701	0	
0.230611	0.517653	0	
0.26736	0.537219	0	
0.29845	0.316286	0	
0.332334	0.325899	0	
0.317221	0.358997	0	
0.394159	0.278148	0	
0.426146	0.244251	0	
0.436459	0.287803	0	
0.874805	0.924257	0	
0.827711	0.948078	0	
0.840882	0.897205	0	
0.770214	0.122776	0	
0.813701	0.137611	0	
0.772975	0.171004	0	
0.401562	0.939541	0	
0.471857	0.953877	0	
0.4	1	0	
0.356892	0.792673	0	
0.382678	0.766856	0	
0.399305	0.809347	0	
0.399305	0.809347	0	
0.382678	0.766856	0	
0.418578	0.781053	0	
0.134419	0.24627	0	
0.181424	0.224627	0	
0.180087	0.257745	0	
0.8	1	0	
0.827711	0.948078	0	
0.9	1	0	
0.507373	0.377078	0	
0.473315	0.359656	0	
0.502768	0.330452	0	
0.201179	0.183493	0	
0.166563	0.179927	0	
0.175112	0.13682	0	
0.347894	0.749895	0	
0.315427	0.741824	0	
0.341915	0.7075	0	
0.152814	0.507191	0	
0.146428	0.558325	0	
0.107348	0.532274	0	
0.635165	0.301745	0	
0.675433	0.29516	0	
0.662572	0.335151	0	
0.502768	0.330452	0	
0.477149	0.292832	0	
0.517425	0.286573	0	
0.26736	0.537219	0	
0.230611	0.517653	0	
0.267586	0.49873	0	
0.0651809	0.456841	0	
0.0695334	0.506158	0	
0	0.5	0	
0.185845	0.577856	0	
0.226204	0.597274	0	
0.188247	0.621731	0	
0.175112	0.13682	0	
0.234621	0.138607	0	
0.201179	0.183493	0	
0.74308	0.604247	0	
0.740336	0.641329	0	
0.698689	0.629477	0	
0.927299	0.436697	0	
0.931319	0.378884	0	
1	0.4	0	
0.0581957	0.185484	0	
0.0410089	0.148014	0	
0.0921181	0.158432	0	
0.402695	0.0809751	0	
0.342842	0.0683224	0	
0.4	0	0	
0.8	0	0	
0.852274	0.0461711	0	
0.814046	0.0912601	0	
0.44181	0.721857	0	
0.43145	0.682581	0	
0.474425	0.696912	0	
0.721703	0.669471	0	
0.761203	0.67215	0	
0.739531	0.710125	0	
0.3	0	0	
0.220822	0.0715816	0	
0.2	0	0	
0.732582	0.355799	0	
0.735524	0.320821	0	
0.773099	0.34327	0	
0.640661	0.135409	0	
0.693053	0.138941	0	
0.665345	0.167611	0	
0.360236	0.3052	0	
0.320684	0.286268	0	
0.354119	0.262857	0	
0.153244	0.207178	0	
0.181424	0.224627	0	
0.134419	0.24627	0	
0	0.2	0	
0.0410089	0.148014	0	
0.0581957	0.185484	0	
0.68931	0.453423	0	
0.671115	0.482098	0	
0.651307	0.446797	0	
0.483989	0.632234	0	
0.524733	0.622099	0	
0.508226	0.665785	0	
0.9	1	0	
0.960437	0.945635	0	
1	1	0	
0.288871	0.911	0	
0.314533	0.952312	0	
0.260177	0.944352	0	
0.341915	0.7075	0	
0.315427	0.741824	0	
0.297706	0.711277	0	
0.111979	0.746263	0	
0.0716768	0.70865	0	
0.118067	0.687768	0	
0.773099	0.34327	0	
0.735524	0.320821	0	
0.767066	0.30918	0	
0.6	1	0	
0.58937	0.917164	0	
0.673197	0.932371	0	
0.794192	0.913311	0	
0.77349	0.868295	0	
0.811106	0.87464	0	
0.282926	0.153298	0	
0.234621	0.138607	0	
0.283073	0.0957724	0	
0.852274	0.0461711	0	
0.908571	0.0556992	0	
0.88612	0.0868987	0	
0.399305	0.809347	0	
0.418578	0.781053	0	
0.441951	0.826196	0	
0.635165	0.301745	0	
0.662572	0.335151	0	
0.617217	0.340713	0	
0.139698	0.316985	0	
0.0969033	0.345777	0	
0.0919868	0.299946	0	
0.3	0	0	
0.342842	0.0683224	0	
0.283073	0.0957724	0	
0.418578	0.781053	0	
0.455939	0.797186	0	
0.441951	0.826196	0	
0.54087	0.0649907	0	
0.504564	0.0848184	0	
0.5	0	0	
0.498825	0.151995	0	
0.512708	0.121231	0	
0.545613	0.157103	0	
0.9	0	0	
0.852274	0.0461711	0	
0.8	0	0	
0.5	1	0	
0.54958	0.961918	0	
0.6	1	0	
0.226204	0.597274	0	
0.228169	0.638265	0	
0.188247	0.621731	0	
0.698689	0.629477	0	
0.713907	0.588226	0	
0.74308	0.604247	0	
0.256383	0.71427	0	
0.297706	0.711277	0	
0.280867	0.749606	0	
0.5	0	0	
0.504564	0.0848184	0	
0.454159	0.0636577	0	
0.23609	0.422948	0	
0.260669	0.458969	0	
0.21394	0.458445	0	
0.434093	0.432539	0	
0.464286	0.400562	0	
0.474498	0.443111	0	
0.140463	0.0742084	0	
0.220822	0.0715816	0	
0.175112	0.13682	0	
0.662572	0.335151	0	
0.675433	0.29516	0	
0.70085	0.326561	0	
0.7	0	0	
0.635507	0.0543198	0	
0.6	0	0	
0.659435	0.775421	0	
0.674166	0.747497	0	
0.705609	0.780565	0	
0.517425	0.243184	0	
0.501431	0.215182	0	
0.551347	0.216132	0	
0.545613	0.157103	0	
0.522671	0.188087	0	
0.498825	0.151995	0	
0.2	1	0	
0.144626	0.935434	0	
0.205991	0.917768	0	
0.311062	0.243322	0	
0.292041	0.201664	0	
0.330222	0.208634	0	
0.538706	0.533643	0	
0.571348	0.553541	0	
0.53077	0.578787	0	
0.6	1	0	
0.673197	0.932371	0	
0.7	1	0	
0.593648	0.225787	0	
0.551347	0.216132	0	
0.579535	0.184155	0	
0.73167	0.904283	0	
0.756386	0.953695	0	
0.673197	0.932371	0	
0.261206	0.617714	0	
0.228169	0.638265	0	
0.226204	0.597274	0	
0.0672738	0.378636	0	
0.077859	0.416391	0	
0	0.4	0	
0.551347	0.216132	0	
0.501431	0.215182	0	
0.522671	0.188087	0	
0.671132	0.0990913	0	
0.693053	0.138941	0	
0.640661	0.135409	0	
0.43145	0.682581	0	
0.468537	0.662025	0	
0.474425	0.696912	0	
0	0.9	0	
0.0725222	0.927257	0	
0	1	0	
0.465957	0.229544	0	
0.501431	0.215182	0	
0.490937	0.259267	0	
0.666761	0.711635	0	
0.702693	0.699395	0	
0.705609	0.737177	0	
0.770214	0.122776	0	
0.814046	0.0912601	0	
0.813701	0.137611	0	
0.320684	0.286268	0	
0.332334	0.325899	0	
0.29845	0.316286	0	
1	0	0	
0.961921	0.0500857	0	
0.9	0	0	
0.502768	0.330452	0	
0.544147	0.352305	0	
0.507373	0.377078	0	
0.635628	0.23481	0	
0.616945	0.205202	0	
0.659761	0.203629	0	
0.179864	0.378412	0	
0.140066	0.362181	0	
0.174534	0.342331	0	
0.598811	0.736163	0	
0.639978	0.741801	0	
0.617637	0.775254	0	
0.772975	0.268497	0	
0.726388	0.288719	0	
0.739052	0.241445	0	
0.777003	0.533806	0	
0.807833	0.500766	0	
0.819303	0.543461	0	
0.516122	0.710656	0	
0.548953	0.685128	0	
0.556511	0.726508	0	
0.382666	0.500094	0	
0.423473	0.502505	0	
0.401491	0.539186	0	
0.195115	0.419353	0	
0.23609	0.422948	0	
0.21394	0.458445	0	
0.588297	0.40402	0	
0.631564	0.407262	0	
0.607122	0.443111	0	
0.74308	0.560858	0	
0.736932	0.516832	0	
0.777003	0.533806	0	
0.341915	0.7075	0	
0.316145	0.671777	0	
0.357692	0.661385	0	
0.698689	0.629477	0	
0.721703	0.669471	0	
0.679864	0.668569	0	
0.382666	0.578277	0	
0.412384	0.610638	0	
0.370394	0.619898	0	
0.603641	0.651171	0	
0.567905	0.629795	0	
0.603641	0.607783	0	
0.465957	0.229544	0	
0.426146	0.244251	0	
0.437699	0.200742	0	
0.382666	0.500094	0	
0.407107	0.464245	0	
0.423473	0.502505	0	
0.256383	0.71427	0	
0.280867	0.749606	0	
0.237557	0.753362	0	
0.394159	0.375641	0	
0.355184	0.389719	0	
0.360236	0.348589	0	
0.841676	0.391035	0	
0.800936	0.405993	0	
0.807753	0.363983	0	
0.551347	0.313625	0	
0.502768	0.330452	0	
0.517425	0.286573	0	
0.800936	0.405993	0	
0.760898	0.422738	0	
0.767839	0.381044	0	
0.340365	0.587932	0	
0.299976	0.603784	0	
0.306443	0.56088	0	
0.412384	0.610638	0	
0.454555	0.6007	0	
0.441224	0.639794	0	
0.545996	0.491858	0	
0.538706	0.533643	0	
0.504644	0.507873	0	
0.412384	0.610638	0	
0.399388	0.651544	0	
0.370394	0.619898	0	
0.637563	0.580731	0	
0.665954	0.549342	0	
0.679864	0.590385	0	
0.800936	0.405993	0	
0.767839	0.381044	0	
0.807753	0.363983	0	
0.760898	0.422738	0	
0.725095	0.395715	0	
0.767839	0.381044	0	
0.612473	0.264879	0	
0.635165	0.301745	0	
0.593648	0.30397	0	
0.593648	0.225787	0	
0.635628	0.23481	0	
0.612473	0.264879	0	
0.545996	0.394365	0	
0.579809	0.36721	0	
0.588297	0.40402	0	
0.567905	0.629795	0	
0.566367	0.591267	0	
0.603641	0.607783	0	
0.399388	0.651544	0	
0.357692	0.661385	0	
0.370394	0.619898	0	
0.481862	0.737285	0	
0.44181	0.721857	0	
0.474425	0.696912	0	
0.725095	0.395715	0	
0.691308	0.368034	0	
0.732582	0.355799	0	
0.275135	0.279439	0	
0.29845	0.316286	0	
0.25631	0.318531	0	
0.214009	0.328186	0	
0.174534	0.342331	0	
0.180087	0.301133	0	
0.760898	0.422738	0	
0.754431	0.465642	0	
0.720508	0.43859	0	
0.448277	0.764761	0	
0.407888	0.748909	0	
0.44181	0.721857	0	
0.512074	0.464805	0	
0.474498	0.443111	0	
0.512074	0.421417	0	
0.288871	0.813507	0	
0.313972	0.780164	0	
0.331172	0.823162	0	
0.725095	0.395715	0	
0.732582	0.355799	0	
0.767839	0.381044	0	
0.691308	0.368034	0	
0.70085	0.326561	0	
0.732582	0.355799	0	
0.385173	0.68968	0	
0.341915	0.7075	0	
0.357692	0.661385	0	
0.454555	0.6007	0	
0.466918	0.562724	0	
0.494467	0.590981	0	
0.631564	0.407262	0	
0.651307	0.446797	0	
0.607122	0.443111	0	
0.394159	0.375641	0	
0.390541	0.420609	0	
0.355184	0.389719	0	
0.355184	0.389719	0	
0.317221	0.358997	0	
0.360236	0.348589	0	
0.306443	0.517492	0	
0.267586	0.49873	0	
0.301597	0.47662	0	
0.317434	0.409671	0	
0.280755	0.380644	0	
0.317221	0.358997	0	
0.631564	0.407262	0	
0.680304	0.412931	0	
0.651307	0.446797	0	
0.481862	0.737285	0	
0.474425	0.696912	0	
0.516122	0.710656	0	
0.355184	0.389719	0	
0.317434	0.409671	0	
0.317221	0.358997	0	
0.479999	0.191087	0	
0.465957	0.229544	0	
0.437699	0.200742	0	
0.635165	0.301745	0	
0.617217	0.340713	0	
0.593648	0.30397	0	
0.313972	0.780164	0	
0.347894	0.749895	0	
0.356892	0.792673	0	
0.640661	0.135409	0	
0.665345	0.167611	0	
0.621836	0.1745	0	
0.195115	0.419353	0	
0.219085	0.384731	0	
0.23609	0.422948	0	
0.739052	0.241445	0	
0.703456	0.221651	0	
0.739052	0.198056	0	
0.301597	0.47662	0	
0.333898	0.447536	0	
0.340365	0.490439	0	
0.408029	0.853248	0	
0.399305	0.809347	0	
0.441951	0.826196	0	
0.637563	0.580731	0	
0.616498	0.540666	0	
0.665954	0.549342	0	
0.522589	0.75356	0	
0.516122	0.710656	0	
0.556511	0.726508	0	
0.313972	0.780164	0	
0.356892	0.792673	0	
0.331172	0.823162	0	
0.454555	0.6007	0	
0.494467	0.590981	0	
0.483989	0.632234	0	
0.412384	0.610638	0	
0.441224	0.639794	0	
0.399388	0.651544	0	
0.454555	0.6007	0	
0.483989	0.632234	0	
0.441224	0.639794	0	
0.399388	0.651544	0	
0.385173	0.68968	0	
0.357692	0.661385	0	
0.512074	0.421417	0	
0.507373	0.377078	0	
0.545996	0.394365	0	
0.382666	0.578277	0	
0.370394	0.619898	0	
0.340365	0.587932	0	
0.306443	0.517492	0	
0.301597	0.47662	0	
0.340365	0.490439	0	
0.760898	0.422738	0	
0.720508	0.43859	0	
0.725095	0.395715	0	
0.545996	0.491858	0	
0.504644	0.507873	0	
0.512074	0.464805	0	
0.474425	0.696912	0	
0.508226	0.665785	0	
0.516122	0.710656	0	
0.616498	0.540666	0	
0.649411	0.513339	0	
0.665954	0.549342	0	
0.481862	0.737285	0	
0.448277	0.764761	0	
0.44181	0.721857	0	
0.516122	0.710656	0	
0.508226	0.665785	0	
0.548953	0.685128	0	
0.522589	0.75356	0	
0.481862	0.737285	0	
0.516122	0.710656	0	
0.146428	0.558325	0	
0.189586	0.534922	0	
0.185845	0.577856	0	
0.6	0	0	
0.572875	0.0404911	0	
0.5	0	0	
0.299976	0.603784	0	
0.261206	0.617714	0	
0.266378	0.577593	0	
0.341915	0.7075	0	
0.297706	0.711277	0	
0.316145	0.671777	0	
0.360236	0.3052	0	
0.354119	0.262857	0	
0.394159	0.278148	0	
0.299976	0.603784	0	
0.266378	0.577593	0	
0.306443	0.56088	0	
0.841676	0.293542	0	
0.860383	0.26147	0	
0.883976	0.303197	0	
0.25631	0.240348	0	
0.311062	0.243322	0	
0.275135	0.279439	0	
0.368395	0.45778	0	
0.35579	0.423753	0	
0.390541	0.420609	0	
0.226204	0.597274	0	
0.227441	0.556701	0	
0.266378	0.577593	0	
0.800936	0.405993	0	
0.79526	0.455465	0	
0.760898	0.422738	0	
0.760898	0.422738	0	
0.79526	0.455465	0	
0.754431	0.465642	0	
0.726388	0.288719	0	
0.697399	0.260207	0	
0.739052	0.241445	0	
0.739052	0.241445	0	
0.697399	0.260207	0	
0.703456	0.221651	0	
1	0.3	0	
0.934317	0.298166	0	
0.954543	0.246173	0	
0.261206	0.617714	0	
0.226204	0.597274	0	
0.266378	0.577593	0	
0.705609	0.737177	0	
0.674166	0.747497	0	
0.666761	0.711635	0	
0.147289	0.605723	0	
0.185845	0.577856	0	
0.188247	0.621731	0	
0.545613	0.157103	0	
0.512708	0.121231	0	
0.545613	0.113714	0	
0.655026	0.266299	0	
0.697399	0.260207	0	
0.675433	0.29516	0	
0.722029	0.108204	0	
0.693053	0.138941	0	
0.671132	0.0990913	0	
0.490937	0.259267	0	
0.501431	0.215182	0	
0.517425	0.243184	0	
0.403776	0.17369	0	
0.367409	0.199291	0	
0.366287	0.152646	0	
0.154777	0.64956	0	
0.188247	0.621731	0	
0.195256	0.665524	0	
0.815275	0.180659	0	
0.813701	0.137611	0	
0.852197	0.157339	0	
0.754431	0.465642	0	
0.713367	0.480787	0	
0.720508	0.43859	0	
0.92842	0.174737	0	
0.918428	0.217136	0	
0.88612	0.184392	0	
0.4	0	0	
0.342842	0.0683224	0	
0.3	0	0	
0.174534	0.342331	0	
0.139698	0.316985	0	
0.180087	0.301133	0	
0.399388	0.651544	0	
0.43145	0.682581	0	
0.385173	0.68968	0	
0.883976	0.38138	0	
0.867521	0.429192	0	
0.841676	0.391035	0	
0.680304	0.412931	0	
0.68931	0.453423	0	
0.651307	0.446797	0	
0.637563	0.678223	0	
0.594859	0.693003	0	
0.603641	0.651171	0	
0.772975	0.268497	0	
0.767066	0.30918	0	
0.726388	0.288719	0	
0.267586	0.49873	0	
0.260669	0.458969	0	
0.301597	0.47662	0	
0.551347	0.313625	0	
0.577459	0.332727	0	
0.544147	0.352305	0	
0.234621	0.138607	0	
0.220822	0.0715816	0	
0.283073	0.0957724	0	
0.408029	0.853248	0	
0.370972	0.834602	0	
0.399305	0.809347	0	
0.705609	0.780565	0	
0.67409	0.805799	0	
0.659435	0.775421	0	
0.104749	0.588366	0	
0.0562459	0.561534	0	
0.107348	0.532274	0	
0.161334	0.692576	0	
0.154777	0.64956	0	
0.195256	0.665524	0	
0.617637	0.775254	0	
0.640544	0.808966	0	
0.598811	0.814346	0	
0.403776	0.17369	0	
0.366287	0.152646	0	
0.403776	0.130301	0	
0.961921	0.0500857	0	
0.908571	0.0556992	0	
0.9	0	0	
0.367409	0.199291	0	
0.327113	0.173707	0	
0.366287	0.152646	0	
0.739052	0.198056	0	
0.733252	0.154239	0	
0.772975	0.171004	0	
0.538706	0.533643	0	
0.505486	0.553099	0	
0.504644	0.507873	0	
0.807833	0.500766	0	
0.839146	0.466385	0	
0.849925	0.511138	0	
0.551347	0.313625	0	
0.544147	0.352305	0	
0.502768	0.330452	0	
0.691308	0.368034	0	
0.662572	0.335151	0	
0.70085	0.326561	0	
0.819303	0.621644	0	
0.803439	0.663975	0	
0.777003	0.631299	0	
0.840882	0.897205	0	
0.811106	0.87464	0	
0.840882	0.853816	0	
0.280867	0.749606	0	
0.315427	0.741824	0	
0.313972	0.780164	0	
0.464286	0.400562	0	
0.473315	0.359656	0	
0.507373	0.377078	0	
0.498825	0.151995	0	
0.522671	0.188087	0	
0.479999	0.191087	0	
0.617217	0.340713	0	
0.613573	0.378818	0	
0.579809	0.36721	0	
0.454555	0.6007	0	
0.42569	0.571792	0	
0.466918	0.562724	0	
0.370394	0.619898	0	
0.330683	0.630351	0	
0.340365	0.587932	0	
0.522589	0.75356	0	
0.486639	0.77807	0	
0.481862	0.737285	0	
0.522589	0.796949	0	
0.486639	0.77807	0	
0.522589	0.75356	0	
0.382666	0.578277	0	
0.42569	0.571792	0	
0.412384	0.610638	0	
0.316145	0.671777	0	
0.330683	0.630351	0	
0.357692	0.661385	0	
0.401491	0.539186	0	
0.42569	0.571792	0	
0.382666	0.578277	0	
0.340365	0.587932	0	
0.330683	0.630351	0	
0.299976	0.603784	0	
0.441224	0.639794	0	
0.43145	0.682581	0	
0.399388	0.651544	0	
0.852197	0.157339	0	
0.813701	0.137611	0	
0.852197	0.113951	0	
0.394159	0.278148	0	
0.385857	0.23992	0	
0.426146	0.244251	0	
1	0.8	0	
0.946904	0.763056	0	
1	0.7	0	
0.79526	0.455465	0	
0.832013	0.42885	0	
0.839146	0.466385	0	
0.331172	0.901345	0	
0.314533	0.952312	0	
0.288871	0.911	0	
0.548953	0.685128	0	
0.572946	0.660948	0	
0.594859	0.693003	0	
0.494467	0.590981	0	
0.524733	0.622099	0	
0.483989	0.632234	0	
0.154777	0.64956	0	
0.147289	0.605723	0	
0.188247	0.621731	0	
0.147289	0.605723	0	
0.146428	0.558325	0	
0.185845	0.577856	0	
0.2	0	0	
0.220822	0.0715816	0	
0.140463	0.0742084	0	
0.367409	0.199291	0	
0.403742	0.210363	0	
0.385857	0.23992	0	
0.739531	0.710125	0	
0.702693	0.699395	0	
0.721703	0.669471	0	
0.649411	0.513339	0	
0.69183	0.518078	0	
0.665954	0.549342	0	
0.317434	0.409671	0	
0.27463	0.41806	0	
0.280755	0.380644	0	
0.4	1	0	
0.362929	0.938666	0	
0.401562	0.939541	0	
0	1	0	
0.0725222	0.927257	0	
0.1	1	0	
0.446857	0.469793	0	
0.434093	0.432539	0	
0.474498	0.443111	0	
0.213851	0.863712	0	
0.218988	0.81846	0	
0.254949	0.840559	0	
0.579809	0.36721	0	
0.577459	0.332727	0	
0.617217	0.340713	0	
0.256383	0.71427	0	
0.276589	0.680461	0	
0.297706	0.711277	0	
0.811106	0.87464	0	
0.77349	0.868295	0	
0.804388	0.834273	0	
0.441951	0.826196	0	
0.455939	0.797186	0	
0.484252	0.835851	0	
0.592959	0.859667	0	
0.635981	0.881794	0	
0.58937	0.917164	0	
0.861795	0.789866	0	
0.844202	0.755976	0	
0.89057	0.754286	0	
0.736932	0.516832	0	
0.69183	0.518078	0	
0.713367	0.480787	0	
0.227441	0.556701	0	
0.26736	0.537219	0	
0.266378	0.577593	0	
0.739531	0.807617	0	
0.700647	0.824246	0	
0.705609	0.780565	0	
0.275135	0.279439	0	
0.320684	0.286268	0	
0.29845	0.316286	0	
0.214009	0.230693	0	
0.244616	0.190678	0	
0.25631	0.240348	0	
0.317434	0.409671	0	
0.35579	0.423753	0	
0.333898	0.447536	0	
0	0.3	0	
0.0477317	0.33515	0	
0	0.4	0	
0.311062	0.243322	0	
0.320684	0.286268	0	
0.275135	0.279439	0	
0.0562459	0.561534	0	
0.0656914	0.640462	0	
0	0.6	0	
0.877784	0.669514	0	
0.842469	0.652051	0	
0.865642	0.621985	0	
0.484252	0.835851	0	
0.522924	0.840554	0	
0.503077	0.874943	0	
0.53077	0.578787	0	
0.571348	0.553541	0	
0.566367	0.591267	0	
0.698689	0.629477	0	
0.740336	0.641329	0	
0.721703	0.669471	0	
0.5	0	0	
0.572875	0.0404911	0	
0.54087	0.0649907	0	
0	0.7	0	
0.0606469	0.768617	0	
0	0.8	0	
0.10754	0.392211	0	
0.140066	0.362181	0	
0.152814	0.409698	0	
0.800936	0.405993	0	
0.832013	0.42885	0	
0.79526	0.455465	0	
0.195115	0.497536	0	
0.189586	0.534922	0	
0.152814	0.507191	0	
0.804388	0.834273	0	
0.77349	0.868295	0	
0.76731	0.831834	0	
0.803439	0.663975	0	
0.761203	0.67215	0	
0.777003	0.631299	0	
0.436459	0.287803	0	
0.477149	0.292832	0	
0.455285	0.326895	0	
0.874805	0.826764	0	
0.861795	0.789866	0	
0.904316	0.794958	0	
0.401562	0.939541	0	
0.370661	0.899048	0	
0.408029	0.896637	0	
0.426146	0.244251	0	
0.459561	0.263597	0	
0.436459	0.287803	0	
0.732582	0.355799	0	
0.773099	0.34327	0	
0.767839	0.381044	0	
0.524733	0.622099	0	
0.542181	0.651917	0	
0.508226	0.665785	0	
0.927563	0.6319	0	
0.877784	0.669514	0	
0.865642	0.621985	0	
0.385857	0.23992	0	
0.349734	0.230805	0	
0.367409	0.199291	0	
0.918428	0.217136	0	
0.874252	0.222163	0	
0.88612	0.184392	0	
0.481862	0.737285	0	
0.486639	0.77807	0	
0.448277	0.764761	0	
0.357692	0.661385	0	
0.330683	0.630351	0	
0.370394	0.619898	0	
0.412384	0.610638	0	
0.42569	0.571792	0	
0.454555	0.6007	0	
0.679864	0.668569	0	
0.666761	0.711635	0	
0.637563	0.678223	0	
0.811106	0.87464	0	
0.804388	0.834273	0	
0.840882	0.853816	0	
0.280755	0.380644	0	
0.27907	0.346049	0	
0.317221	0.358997	0	
0.254949	0.883948	0	
0.213851	0.863712	0	
0.254949	0.840559	0	
0.705609	0.780565	0	
0.674166	0.747497	0	
0.705609	0.737177	0	
0.781831	0.71978	0	
0.824469	0.725291	0	
0.800657	0.758871	0	
0.807833	0.500766	0	
0.849925	0.511138	0	
0.819303	0.543461	0	
0.918428	0.217136	0	
0.954543	0.246173	0	
0.902499	0.259705	0	
0.436459	0.365986	0	
0.473315	0.359656	0	
0.464286	0.400562	0	
0.327113	0.173707	0	
0.292041	0.201664	0	
0.282926	0.153298	0	
0.214009	0.230693	0	
0.201179	0.183493	0	
0.244616	0.190678	0	
0.702216	0.18137	0	
0.659761	0.203629	0	
0.665345	0.167611	0	
0.367409	0.199291	0	
0.330222	0.208634	0	
0.327113	0.173707	0	
0.655026	0.266299	0	
0.67101	0.238158	0	
0.697399	0.260207	0	
0.867521	0.429192	0	
0.927299	0.436697	0	
0.883575	0.477789	0	
0.544147	0.352305	0	
0.577459	0.332727	0	
0.579809	0.36721	0	
1	0.4	0	
0.956086	0.342087	0	
1	0.3	0	
0.355184	0.389719	0	
0.35579	0.423753	0	
0.317434	0.409671	0	
0.407107	0.464245	0	
0.434093	0.432539	0	
0.446857	0.469793	0	
0.330222	0.208634	0	
0.292041	0.201664	0	
0.327113	0.173707	0	
0.69183	0.518078	0	
0.704824	0.556164	0	
0.665954	0.549342	0	
0.781831	0.797963	0	
0.821046	0.792934	0	
0.804388	0.834273	0	
0.297706	0.711277	0	
0.276589	0.680461	0	
0.316145	0.671777	0	
0.464286	0.400562	0	
0.423153	0.398451	0	
0.436459	0.365986	0	
0.180087	0.257745	0	
0.152963	0.279733	0	
0.134419	0.24627	0	
0.680304	0.412931	0	
0.650978	0.374884	0	
0.691308	0.368034	0	
0	0.5	0	
0.0562459	0.561534	0	
0	0.6	0	
0.462744	0.504026	0	
0.478389	0.532187	0	
0.443813	0.535234	0	
0.739531	0.807617	0	
0.732272	0.851432	0	
0.700647	0.824246	0	
0.152814	0.507191	0	
0.107348	0.532274	0	
0.118892	0.480139	0	
0.341915	0.7075	0	
0.376451	0.72785	0	
0.347894	0.749895	0	
0.242613	0.355789	0	
0.27907	0.346049	0	
0.280755	0.380644	0	
0.844202	0.755976	0	
0.865327	0.716052	0	
0.89057	0.754286	0	
0.260669	0.458969	0	
0.297646	0.442171	0	
0.301597	0.47662	0	
0.874805	0.826764	0	
0.904316	0.794958	0	
0.917105	0.836419	0	
0.399305	0.809347	0	
0.370972	0.834602	0	
0.356892	0.792673	0	
0.434093	0.432539	0	
0.423153	0.398451	0	
0.464286	0.400562	0	
0.316145	0.671777	0	
0.290857	0.642709	0	
0.330683	0.630351	0	
0.118067	0.687768	0	
0.0716768	0.70865	0	
0.0656914	0.640462	0	
0.280867	0.749606	0	
0.260208	0.789431	0	
0.237557	0.753362	0	
0.494467	0.590981	0	
0.53077	0.578787	0	
0.524733	0.622099	0	
0.21394	0.458445	0	
0.233584	0.486267	0	
0.195115	0.497536	0	
0.0656914	0.640462	0	
0.116327	0.634101	0	
0.118067	0.687768	0	
0.703456	0.221651	0	
0.659761	0.203629	0	
0.702216	0.18137	0	
0.237557	0.675179	0	
0.276589	0.680461	0	
0.256383	0.71427	0	
0.0716768	0.70865	0	
0.0606469	0.768617	0	
0	0.7	0	
0.280755	0.380644	0	
0.250096	0.392876	0	
0.242613	0.355789	0	
0.441224	0.639794	0	
0.468537	0.662025	0	
0.43145	0.682581	0	
0.471857	0.953877	0	
0.54958	0.961918	0	
0.5	1	0	
0.390541	0.420609	0	
0.423153	0.398451	0	
0.434093	0.432539	0	
0.733252	0.154239	0	
0.770214	0.122776	0	
0.772975	0.171004	0	
0.407107	0.464245	0	
0.446857	0.469793	0	
0.423473	0.502505	0	
0.621836	0.0963169	0	
0.671132	0.0990913	0	
0.640661	0.135409	0	
0.354119	0.262857	0	
0.385857	0.23992	0	
0.394159	0.278148	0	
0.616498	0.540666	0	
0.612242	0.507186	0	
0.649411	0.513339	0	
0.74308	0.604247	0	
0.713907	0.588226	0	
0.74308	0.560858	0	
0.840882	0.897205	0	
0.827711	0.948078	0	
0.794192	0.913311	0	
0.23609	0.422948	0	
0.27463	0.41806	0	
0.260669	0.458969	0	
0.58937	0.917164	0	
0.54958	0.961918	0	
0.526212	0.916658	0	
0.134419	0.24627	0	
0.120138	0.279088	0	
0.0921181	0.255924	0	
0.665954	0.549342	0	
0.704824	0.556164	0	
0.679864	0.590385	0	
0.188247	0.621731	0	
0.228169	0.638265	0	
0.195256	0.665524	0	
0.579535	0.184155	0	
0.616945	0.205202	0	
0.593648	0.225787	0	
0.860383	0.26147	0	
0.902499	0.259705	0	
0.883976	0.303197	0	
0.195256	0.763017	0	
0.154867	0.778868	0	
0.161334	0.735964	0	
0	0.6	0	
0.0656914	0.640462	0	
0	0.7	0	
0.917105	0.836419	0	
0.950709	0.828324	0	
0.935931	0.875511	0	
0.538706	0.533643	0	
0.53077	0.578787	0	
0.505486	0.553099	0	
0.408029	0.853248	0	
0.381538	0.869158	0	
0.370972	0.834602	0	
0.671132	0.0990913	0	
0.698365	0.0639875	0	
0.722029	0.108204	0	
0.800657	0.758871	0	
0.821046	0.792934	0	
0.781831	0.797963	0	
0.466918	0.562724	0	
0.505486	0.553099	0	
0.494467	0.590981	0	
0.693053	0.138941	0	
0.702216	0.18137	0	
0.665345	0.167611	0	
0.349997	0.862254	0	
0.370661	0.899048	0	
0.331172	0.901345	0	
0.503077	0.874943	0	
0.522924	0.840554	0	
0.548189	0.871027	0	
1	0.6	0	
0.941021	0.557051	0	
1	0.5	0	
0.607122	0.443111	0	
0.631464	0.480162	0	
0.588297	0.482203	0	
0.195115	0.419353	0	
0.179864	0.378412	0	
0.219085	0.384731	0	
0.612473	0.264879	0	
0.655026	0.266299	0	
0.635165	0.301745	0	
0.152814	0.409698	0	
0.179864	0.378412	0	
0.195115	0.419353	0	
0.651307	0.446797	0	
0.631464	0.480162	0	
0.607122	0.443111	0	
0.635628	0.23481	0	
0.655026	0.266299	0	
0.612473	0.264879	0	
0.566367	0.591267	0	
0.599529	0.573056	0	
0.603641	0.607783	0	
0.340365	0.490439	0	
0.368395	0.45778	0	
0.382666	0.500094	0	
0.333898	0.447536	0	
0.368395	0.45778	0	
0.340365	0.490439	0	
0.382666	0.500094	0	
0.368395	0.45778	0	
0.407107	0.464245	0	
0.603641	0.607783	0	
0.599529	0.573056	0	
0.637563	0.580731	0	
0.637563	0.580731	0	
0.599529	0.573056	0	
0.616498	0.540666	0	
0.588297	0.482203	0	
0.578699	0.518011	0	
0.545996	0.491858	0	
0.545996	0.491858	0	
0.578699	0.518011	0	
0.538706	0.533643	0	
0.195256	0.665524	0	
0.228169	0.638265	0	
0.237557	0.675179	0	
0.841676	0.293542	0	
0.799743	0.288284	0	
0.815275	0.258842	0	
0.306443	0.56088	0	
0.26736	0.537219	0	
0.306443	0.517492	0	
0.306443	0.517492	0	
0.26736	0.537219	0	
0.267586	0.49873	0	
0.266378	0.577593	0	
0.26736	0.537219	0	
0.306443	0.56088	0	
0.507373	0.377078	0	
0.544147	0.352305	0	
0.545996	0.394365	0	
0.705609	0.737177	0	
0.702693	0.699395	0	
0.739531	0.710125	0	
0.621836	0.1745	0	
0.616945	0.205202	0	
0.579535	0.184155	0	
0.213851	0.863712	0	
0.168375	0.886547	0	
0.166796	0.832974	0	
0.807753	0.320594	0	
0.799743	0.288284	0	
0.841676	0.293542	0	
0.1	1	0	
0.144626	0.935434	0	
0.2	1	0	
0.462744	0.504026	0	
0.443813	0.535234	0	
0.423473	0.502505	0	
0.508226	0.665785	0	
0.468537	0.662025	0	
0.483989	0.632234	0	
0.356892	0.792673	0	
0.370972	0.834602	0	
0.331172	0.823162	0	
0.545996	0.394365	0	
0.544147	0.352305	0	
0.579809	0.36721	0	
0.770214	0.122776	0	
0.757078	0.0694782	0	
0.814046	0.0912601	0	
0.721703	0.669471	0	
0.702693	0.699395	0	
0.679864	0.668569	0	
0.153244	0.207178	0	
0.166563	0.179927	0	
0.181424	0.224627	0	
0.839146	0.466385	0	
0.883575	0.477789	0	
0.849925	0.511138	0	
0.27463	0.41806	0	
0.297646	0.442171	0	
0.260669	0.458969	0	
0.639978	0.741801	0	
0.659435	0.775421	0	
0.617637	0.775254	0	
0.841676	0.391035	0	
0.832013	0.42885	0	
0.800936	0.405993	0	
0.213851	0.863712	0	
0.166796	0.832974	0	
0.218988	0.81846	0	
0.299976	0.603784	0	
0.290857	0.642709	0	
0.261206	0.617714	0	
0.403776	0.17369	0	
0.403742	0.210363	0	
0.367409	0.199291	0	
0.703456	0.221651	0	
0.702216	0.18137	0	
0.739052	0.198056	0	
0.104749	0.588366	0	
0.116327	0.634101	0	
0.0656914	0.640462	0	
0.794192	0.913311	0	
0.827711	0.948078	0	
0.756386	0.953695	0	
0.503077	0.874943	0	
0.548189	0.871027	0	
0.526212	0.916658	0	
0.116905	0.870631	0	
0.168375	0.886547	0	
0.144626	0.935434	0	
0.7	1	0	
0.756386	0.953695	0	
0.8	1	0	
0.474425	0.696912	0	
0.468537	0.662025	0	
0.508226	0.665785	0	
0.331172	0.823162	0	
0.370972	0.834602	0	
0.349997	0.862254	0	
0.579809	0.36721	0	
0.613573	0.378818	0	
0.588297	0.40402	0	
0.649411	0.513339	0	
0.612242	0.507186	0	
0.631464	0.480162	0	
0.27463	0.41806	0	
0.250096	0.392876	0	
0.280755	0.380644	0	
0.260669	0.458969	0	
0.233584	0.486267	0	
0.21394	0.458445	0	
0.276589	0.680461	0	
0.290857	0.642709	0	
0.316145	0.671777	0	
0.503077	0.874943	0	
0.526212	0.916658	0	
0.484252	0.914034	0	
0.736932	0.516832	0	
0.77047	0.49815	0	
0.777003	0.533806	0	
0.807753	0.363983	0	
0.773099	0.34327	0	
0.807753	0.320594	0	
0.874805	0.826764	0	
0.841592	0.819912	0	
0.861795	0.789866	0	
0.330683	0.630351	0	
0.290857	0.642709	0	
0.299976	0.603784	0	
0.116905	0.870631	0	
0.0725222	0.927257	0	
0.0565304	0.847174	0	
0.25631	0.318531	0	
0.242613	0.355789	0	
0.214009	0.328186	0	
0.327113	0.173707	0	
0.282926	0.153298	0	
0.327746	0.125682	0	
0.426146	0.244251	0	
0.403742	0.210363	0	
0.437699	0.200742	0	
0.317221	0.358997	0	
0.332334	0.325899	0	
0.360236	0.348589	0	
0.465957	0.229544	0	
0.459561	0.263597	0	
0.426146	0.244251	0	
0.733252	0.154239	0	
0.722029	0.108204	0	
0.770214	0.122776	0	
0.598811	0.814346	0	
0.592959	0.859667	0	
0.556511	0.824001	0	
0.867521	0.429192	0	
0.832013	0.42885	0	
0.841676	0.391035	0	
0.394159	0.375641	0	
0.423153	0.398451	0	
0.390541	0.420609	0	
0.455285	0.326895	0	
0.473315	0.359656	0	
0.436459	0.365986	0	
0.512708	0.121231	0	
0.504564	0.0848184	0	
0.545613	0.113714	0	
0.713367	0.480787	0	
0.68931	0.453423	0	
0.720508	0.43859	0	
0.631564	0.407262	0	
0.650978	0.374884	0	
0.680304	0.412931	0	
0.691308	0.368034	0	
0.650978	0.374884	0	
0.662572	0.335151	0	
0.617637	0.775254	0	
0.659435	0.775421	0	
0.640544	0.808966	0	
0.794192	0.913311	0	
0.756386	0.953695	0	
0.73167	0.904283	0	
0.446857	0.469793	0	
0.462744	0.504026	0	
0.423473	0.502505	0	
0.0919868	0.299946	0	
0.0477317	0.33515	0	
0.0483387	0.269982	0	
0.807753	0.320594	0	
0.773099	0.34327	0	
0.767066	0.30918	0	
0.504644	0.507873	0	
0.480584	0.476589	0	
0.512074	0.464805	0	
0.617217	0.340713	0	
0.577459	0.332727	0	
0.593648	0.30397	0	
0.407888	0.748909	0	
0.382678	0.766856	0	
0.376451	0.72785	0	
0.739052	0.198056	0	
0.702216	0.18137	0	
0.733252	0.154239	0	
0.631564	0.407262	0	
0.613573	0.378818	0	
0.650978	0.374884	0	
0.852197	0.157339	0	
0.852823	0.19135	0	
0.815275	0.180659	0	
0.333898	0.447536	0	
0.297646	0.442171	0	
0.317434	0.409671	0	
0.181424	0.224627	0	
0.166563	0.179927	0	
0.201179	0.183493	0	
0.679864	0.590385	0	
0.713907	0.588226	0	
0.698689	0.629477	0	
0.673197	0.932371	0	
0.756386	0.953695	0	
0.7	1	0	
0.588297	0.40402	0	
0.613573	0.378818	0	
0.631564	0.407262	0	
0.815275	0.180659	0	
0.852823	0.19135	0	
0.834101	0.219751	0	
0.443813	0.535234	0	
0.478389	0.532187	0	
0.466918	0.562724	0	
0.733252	0.154239	0	
0.702216	0.18137	0	
0.693053	0.138941	0	
0.376451	0.72785	0	
0.409594	0.716254	0	
0.407888	0.748909	0	
0.195115	0.497536	0	
0.233584	0.486267	0	
0.230611	0.517653	0	
0.505486	0.553099	0	
0.478389	0.532187	0	
0.504644	0.507873	0	
0.941021	0.557051	0	
0.928788	0.499945	0	
1	0.5	0	
0.772975	0.268497	0	
0.799743	0.288284	0	
0.767066	0.30918	0	
0.767066	0.30918	0	
0.799743	0.288284	0	
0.807753	0.320594	0	
0.838129	0.582552	0	
0.865642	0.621985	0	
0.819303	0.621644	0	
0.107348	0.532274	0	
0.0695334	0.506158	0	
0.118892	0.480139	0	
0.139698	0.316985	0	
0.152963	0.279733	0	
0.180087	0.301133	0	
0.556511	0.824001	0	
0.522924	0.840554	0	
0.522589	0.796949	0	
0.0921181	0.158432	0	
0.12498	0.130997	0	
0.134419	0.168086	0	
0.42569	0.571792	0	
0.443813	0.535234	0	
0.466918	0.562724	0	
0.594859	0.693003	0	
0.572946	0.660948	0	
0.603641	0.651171	0	
0.423473	0.502505	0	
0.443813	0.535234	0	
0.401491	0.539186	0	
0.861795	0.789866	0	
0.89057	0.754286	0	
0.904316	0.794958	0	
0.118892	0.436751	0	
0.10754	0.392211	0	
0.152814	0.409698	0	
0.43145	0.682581	0	
0.409594	0.716254	0	
0.385173	0.68968	0	
0.408029	0.896637	0	
0.381538	0.869158	0	
0.408029	0.853248	0	
0.777003	0.533806	0	
0.77047	0.49815	0	
0.807833	0.500766	0	
0.74308	0.560858	0	
0.713907	0.588226	0	
0.704824	0.556164	0	
0.767839	0.381044	0	
0.773099	0.34327	0	
0.807753	0.363983	0	
0.144626	0.935434	0	
0.168375	0.886547	0	
0.205991	0.917768	0	
0.313972	0.780164	0	
0.315427	0.741824	0	
0.347894	0.749895	0	
0.598811	0.736163	0	
0.627354	0.711483	0	
0.639978	0.741801	0	
0.144626	0.935434	0	
0.0725222	0.927257	0	
0.116905	0.870631	0	
0.327113	0.173707	0	
0.327746	0.125682	0	
0.366287	0.152646	0	
0.1	0	0	
0.05	0.0481822	0	
0	0	0	
0.821046	0.792934	0	
0.841592	0.819912	0	
0.804388	0.834273	0	
0	0	0	
0.05	0.0481822	0	
0	0.1	0	
0	0.8	0	
0.0565304	0.847174	0	
0	0.9	0	
0.214009	0.230693	0	
0.181424	0.224627	0	
0.201179	0.183493	0	
0.0565304	0.847174	0	
0.0606469	0.768617	0	
0.11218	0.808811	0	
0.679864	0.668569	0	
0.702693	0.699395	0	
0.666761	0.711635	0	
0.761203	0.67215	0	
0.740336	0.641329	0	
0.777003	0.631299	0	
0.721703	0.669471	0	
0.740336	0.641329	0	
0.761203	0.67215	0	
0.161334	0.692576	0	
0.118067	0.687768	0	
0.154777	0.64956	0	
0.92842	0.0965535	0	
0.908571	0.0556992	0	
0.961921	0.0500857	0	
0.781831	0.797963	0	
0.76731	0.831834	0	
0.739531	0.807617	0	
0.479999	0.191087	0	
0.501431	0.215182	0	
0.465957	0.229544	0	
0.733252	0.154239	0	
0.693053	0.138941	0	
0.722029	0.108204	0	
0.29845	0.316286	0	
0.27907	0.346049	0	
0.25631	0.318531	0	
0.437699	0.200742	0	
0.403742	0.210363	0	
0.403776	0.17369	0	
0.655026	0.266299	0	
0.675433	0.29516	0	
0.635165	0.301745	0	
0.666761	0.711635	0	
0.674166	0.747497	0	
0.639978	0.741801	0	
0.594859	0.693003	0	
0.627354	0.711483	0	
0.598811	0.736163	0	
0.174534	0.342331	0	
0.140066	0.362181	0	
0.139698	0.316985	0	
0.360236	0.348589	0	
0.332334	0.325899	0	
0.360236	0.3052	0	
1	0.8	0	
0.950709	0.828324	0	
0.946904	0.763056	0	
0.813701	0.137611	0	
0.814046	0.0912601	0	
0.852197	0.113951	0	
0.824469	0.725291	0	
0.865327	0.716052	0	
0.844202	0.755976	0	
0.418578	0.781053	0	
0.382678	0.766856	0	
0.407888	0.748909	0	
0.804388	0.834273	0	
0.841592	0.819912	0	
0.840882	0.853816	0	
0.44181	0.721857	0	
0.409594	0.716254	0	
0.43145	0.682581	0	
0.385173	0.68968	0	
0.376451	0.72785	0	
0.341915	0.7075	0	
0.116905	0.870631	0	
0.0565304	0.847174	0	
0.11218	0.808811	0	
0.0565304	0.847174	0	
0.0725222	0.927257	0	
0	0.9	0	
0.147289	0.605723	0	
0.104749	0.588366	0	
0.146428	0.558325	0	
0.732272	0.851432	0	
0.77349	0.868295	0	
0.73167	0.904283	0	
0.175112	0.13682	0	
0.166563	0.179927	0	
0.134419	0.168086	0	
0.333898	0.447536	0	
0.35579	0.423753	0	
0.368395	0.45778	0	
0.732272	0.851432	0	
0.68936	0.872515	0	
0.700647	0.824246	0	
0.401562	0.939541	0	
0.362929	0.938666	0	
0.370661	0.899048	0	
0.436459	0.365986	0	
0.423153	0.398451	0	
0.394159	0.375641	0	
0.739531	0.807617	0	
0.76731	0.831834	0	
0.732272	0.851432	0	
0.892045	0.528189	0	
0.928788	0.499945	0	
0.941021	0.557051	0	
0.12498	0.130997	0	
0.175112	0.13682	0	
0.134419	0.168086	0	
0.508226	0.665785	0	
0.542181	0.651917	0	
0.548953	0.685128	0	
0.0921181	0.158432	0	
0.0410089	0.148014	0	
0.0737024	0.110002	0	
0.70085	0.326561	0	
0.735524	0.320821	0	
0.732582	0.355799	0	
0.23609	0.422948	0	
0.250096	0.392876	0	
0.27463	0.41806	0	
0.88612	0.184392	0	
0.852823	0.19135	0	
0.852197	0.157339	0	
0.297706	0.711277	0	
0.315427	0.741824	0	
0.280867	0.749606	0	
0.777003	0.631299	0	
0.740336	0.641329	0	
0.74308	0.604247	0	
0.362929	0.938666	0	
0.314533	0.952312	0	
0.331172	0.901345	0	
0.666761	0.711635	0	
0.627354	0.711483	0	
0.637563	0.678223	0	
0.639978	0.741801	0	
0.627354	0.711483	0	
0.666761	0.711635	0	
0.462744	0.504026	0	
0.480584	0.476589	0	
0.504644	0.507873	0	
0.205991	0.917768	0	
0.168375	0.886547	0	
0.213851	0.863712	0	
0.448277	0.764761	0	
0.418578	0.781053	0	
0.407888	0.748909	0	
0.722029	0.108204	0	
0.698365	0.0639875	0	
0.757078	0.0694782	0	
0.283073	0.0957724	0	
0.342842	0.0683224	0	
0.327746	0.125682	0	
0.479999	0.112904	0	
0.512708	0.121231	0	
0.498825	0.151995	0	
0.635507	0.0543198	0	
0.572875	0.0404911	0	
0.6	0	0	
0.118892	0.480139	0	
0.0651809	0.456841	0	
0.118892	0.436751	0	
0.385857	0.23992	0	
0.403742	0.210363	0	
0.426146	0.244251	0	
0.180087	0.301133	0	
0.152963	0.279733	0	
0.180087	0.257745	0	
0.441951	0.923689	0	
0.401562	0.939541	0	
0.408029	0.896637	0	
0.483989	0.632234	0	
0.468537	0.662025	0	
0.441224	0.639794	0	
0.545613	0.113714	0	
0.54087	0.0649907	0	
0.579535	0.0866621	0	
0.804388	0.834273	0	
0.76731	0.831834	0	
0.781831	0.797963	0	
0.877784	0.669514	0	
0.83345	0.689157	0	
0.842469	0.652051	0	
0.517425	0.286573	0	
0.490937	0.259267	0	
0.517425	0.243184	0	
0.732272	0.851432	0	
0.73167	0.904283	0	
0.68936	0.872515	0	
0.58937	0.917164	0	
0.635981	0.881794	0	
0.673197	0.932371	0	
1	0.3	0	
0.956086	0.342087	0	
0.934317	0.298166	0	
0.261206	0.617714	0	
0.258876	0.650866	0	
0.228169	0.638265	0	
0.815275	0.258842	0	
0.799743	0.288284	0	
0.772975	0.268497	0	
0.448277	0.764761	0	
0.455939	0.797186	0	
0.418578	0.781053	0	
0.840882	0.853816	0	
0.841592	0.819912	0	
0.874805	0.826764	0	
0.437699	0.103249	0	
0.454159	0.0636577	0	
0.479999	0.112904	0	
0.401491	0.539186	0	
0.443813	0.535234	0	
0.42569	0.571792	0	
0.180087	0.257745	0	
0.181424	0.224627	0	
0.214009	0.230693	0	
0.139698	0.316985	0	
0.140066	0.362181	0	
0.0969033	0.345777	0	
0.347894	0.749895	0	
0.382678	0.766856	0	
0.356892	0.792673	0	
0.767066	0.30918	0	
0.735524	0.320821	0	
0.726388	0.288719	0	
0.947246	0.135645	0	
0.965602	0.16304	0	
0.92842	0.174737	0	
0.902802	0.342288	0	
0.931319	0.378884	0	
0.883976	0.38138	0	
0.819303	0.543461	0	
0.857319	0.548603	0	
0.838129	0.582552	0	
0.237557	0.753362	0	
0.222172	0.783449	0	
0.195256	0.763017	0	
0.484252	0.914034	0	
0.471857	0.953877	0	
0.441951	0.923689	0	
0.166796	0.832974	0	
0.168375	0.886547	0	
0.116905	0.870631	0	
0.512074	0.464805	0	
0.480584	0.476589	0	
0.474498	0.443111	0	
0.267586	0.49873	0	
0.233584	0.486267	0	
0.260669	0.458969	0	
0.407888	0.748909	0	
0.409594	0.716254	0	
0.44181	0.721857	0	
0.9	0	0	
0.908571	0.0556992	0	
0.852274	0.0461711	0	
0.548189	0.871027	0	
0.522924	0.840554	0	
0.556511	0.824001	0	
0.282926	0.153298	0	
0.283073	0.0957724	0	
0.327746	0.125682	0	
0.592959	0.859667	0	
0.548189	0.871027	0	
0.556511	0.824001	0	
0.390541	0.420609	0	
0.35579	0.423753	0	
0.355184	0.389719	0	
0.88612	0.0868987	0	
0.908571	0.0556992	0	
0.92842	0.0965535	0	
0.603641	0.651171	0	
0.572946	0.660948	0	
0.567905	0.629795	0	
0.883575	0.477789	0	
0.892045	0.528189	0	
0.849925	0.511138	0	
0.403776	0.130301	0	
0.402695	0.0809751	0	
0.437699	0.103249	0	
0.673197	0.932371	0	
0.635981	0.881794	0	
0.68936	0.872515	0	
0.219085	0.384731	0	
0.250096	0.392876	0	
0.23609	0.422948	0	
0.342842	0.0683224	0	
0.368669	0.111585	0	
0.327746	0.125682	0	
0.722029	0.108204	0	
0.757078	0.0694782	0	
0.770214	0.122776	0	
0.154777	0.64956	0	
0.116327	0.634101	0	
0.147289	0.605723	0	
0.593648	0.30397	0	
0.577459	0.332727	0	
0.551347	0.313625	0	
0.301597	0.47662	0	
0.297646	0.442171	0	
0.333898	0.447536	0	
0.214009	0.328186	0	
0.204118	0.357608	0	
0.174534	0.342331	0	
0.637563	0.678223	0	
0.627354	0.711483	0	
0.594859	0.693003	0	
0.154867	0.778868	0	
0.11218	0.808811	0	
0.111979	0.746263	0	
0.593648	0.225787	0	
0.616945	0.205202	0	
0.635628	0.23481	0	
0.934317	0.298166	0	
0.956086	0.342087	0	
0.902802	0.342288	0	
0.260208	0.789431	0	
0.222172	0.783449	0	
0.237557	0.753362	0	
0.154867	0.778868	0	
0.111979	0.746263	0	
0.161334	0.735964	0	
0.89057	0.754286	0	
0.865327	0.716052	0	
0.918249	0.70556	0	
0.120138	0.279088	0	
0.152963	0.279733	0	
0.139698	0.316985	0	
0.838129	0.582552	0	
0.887191	0.577676	0	
0.865642	0.621985	0	
0.25631	0.318531	0	
0.27907	0.346049	0	
0.242613	0.355789	0	
0.588297	0.482203	0	
0.612242	0.507186	0	
0.578699	0.518011	0	
0.927563	0.6319	0	
0.941021	0.557051	0	
1	0.6	0	
0.902802	0.342288	0	
0.956086	0.342087	0	
0.931319	0.378884	0	
0.370661	0.899048	0	
0.381538	0.869158	0	
0.408029	0.896637	0	
0.73167	0.904283	0	
0.673197	0.932371	0	
0.68936	0.872515	0	
0.840882	0.897205	0	
0.794192	0.913311	0	
0.811106	0.87464	0	
0.567905	0.629795	0	
0.542181	0.651917	0	
0.524733	0.622099	0	
0.254949	0.883948	0	
0.205991	0.917768	0	
0.213851	0.863712	0	
0.874252	0.222163	0	
0.852823	0.19135	0	
0.88612	0.184392	0	
0.834101	0.219751	0	
0.852823	0.19135	0	
0.874252	0.222163	0	
0.134419	0.24627	0	
0.152963	0.279733	0	
0.120138	0.279088	0	
0.918249	0.70556	0	
0.865327	0.716052	0	
0.877784	0.669514	0	
0.166796	0.832974	0	
0.188648	0.796494	0	
0.218988	0.81846	0	
0.931319	0.378884	0	
0.956086	0.342087	0	
1	0.4	0	
0.649411	0.513339	0	
0.671115	0.482098	0	
0.69183	0.518078	0	
0.242613	0.355789	0	
0.250096	0.392876	0	
0.219085	0.384731	0	
0.946904	0.763056	0	
0.918249	0.70556	0	
1	0.7	0	
0.697399	0.260207	0	
0.67101	0.238158	0	
0.703456	0.221651	0	
0.134419	0.168086	0	
0.166563	0.179927	0	
0.153244	0.207178	0	
0.228169	0.638265	0	
0.258876	0.650866	0	
0.237557	0.675179	0	
0.640544	0.808966	0	
0.626757	0.841137	0	
0.598811	0.814346	0	
0.69183	0.518078	0	
0.671115	0.482098	0	
0.713367	0.480787	0	
0.276589	0.680461	0	
0.258876	0.650866	0	
0.290857	0.642709	0	
0.819303	0.621644	0	
0.842469	0.652051	0	
0.803439	0.663975	0	
0.12498	0.130997	0	
0.140463	0.0742084	0	
0.175112	0.13682	0	
0.505486	0.553099	0	
0.53077	0.578787	0	
0.494467	0.590981	0	
0.883976	0.303197	0	
0.934317	0.298166	0	
0.902802	0.342288	0	
0.118892	0.480139	0	
0.0695334	0.506158	0	
0.0651809	0.456841	0	
0.10754	0.392211	0	
0.0672738	0.378636	0	
0.0969033	0.345777	0	
0.242613	0.355789	0	
0.204118	0.357608	0	
0.214009	0.328186	0	
0.219085	0.384731	0	
0.204118	0.357608	0	
0.242613	0.355789	0	
0.640544	0.808966	0	
0.67409	0.805799	0	
0.664216	0.839796	0	
0.367409	0.199291	0	
0.349734	0.230805	0	
0.330222	0.208634	0	
0.0483387	0.269982	0	
0.0477317	0.33515	0	
0	0.3	0	
0.861795	0.789866	0	
0.841592	0.819912	0	
0.821046	0.792934	0	
0.887191	0.577676	0	
0.927563	0.6319	0	
0.865642	0.621985	0	
0.635628	0.23481	0	
0.67101	0.238158	0	
0.655026	0.266299	0	
0.370661	0.899048	0	
0.362929	0.938666	0	
0.331172	0.901345	0	
0.370972	0.834602	0	
0.381538	0.869158	0	
0.349997	0.862254	0	
0.486639	0.77807	0	
0.455939	0.797186	0	
0.448277	0.764761	0	
0.800657	0.758871	0	
0.844202	0.755976	0	
0.821046	0.792934	0	
0.592959	0.859667	0	
0.626757	0.841137	0	
0.635981	0.881794	0	
0.477149	0.292832	0	
0.490937	0.259267	0	
0.517425	0.286573	0	
0.317434	0.409671	0	
0.297646	0.442171	0	
0.27463	0.41806	0	
0.120138	0.279088	0	
0.0919868	0.299946	0	
0.0921181	0.255924	0	
0.446857	0.469793	0	
0.480584	0.476589	0	
0.462744	0.504026	0	
0.635981	0.881794	0	
0.664216	0.839796	0	
0.68936	0.872515	0	
0.877784	0.669514	0	
0.865327	0.716052	0	
0.83345	0.689157	0	
0.578699	0.518011	0	
0.571348	0.553541	0	
0.538706	0.533643	0	
0.0656914	0.640462	0	
0.0716768	0.70865	0	
0	0.7	0	
0.849925	0.511138	0	
0.857319	0.548603	0	
0.819303	0.543461	0	
0.887191	0.577676	0	
0.941021	0.557051	0	
0.927563	0.6319	0	
0.436459	0.287803	0	
0.459561	0.263597	0	
0.477149	0.292832	0	
0.402695	0.0809751	0	
0.368669	0.111585	0	
0.342842	0.0683224	0	
0.89057	0.754286	0	
0.946904	0.763056	0	
0.904316	0.794958	0	
0.545613	0.113714	0	
0.504564	0.0848184	0	
0.54087	0.0649907	0	
0.92842	0.174737	0	
0.953399	0.200217	0	
0.918428	0.217136	0	
0.7	0	0	
0.698365	0.0639875	0	
0.635507	0.0543198	0	
0.824469	0.725291	0	
0.844202	0.755976	0	
0.800657	0.758871	0	
0.621836	0.0963169	0	
0.635507	0.0543198	0	
0.671132	0.0990913	0	
0.376451	0.72785	0	
0.382678	0.766856	0	
0.347894	0.749895	0	
0.474498	0.443111	0	
0.480584	0.476589	0	
0.446857	0.469793	0	
0.0921181	0.255924	0	
0.0483387	0.269982	0	
0.0581957	0.228872	0	
0.522671	0.188087	0	
0.501431	0.215182	0	
0.479999	0.191087	0	
0.892045	0.528189	0	
0.941021	0.557051	0	
0.887191	0.577676	0	
0.700647	0.824246	0	
0.67409	0.805799	0	
0.705609	0.780565	0	
0.631464	0.480162	0	
0.612242	0.507186	0	
0.588297	0.482203	0	
0.659761	0.203629	0	
0.67101	0.238158	0	
0.635628	0.23481	0	
0	0.1	0	
0.05	0.0481822	0	
0.0737024	0.110002	0	
0.366287	0.152646	0	
0.368669	0.111585	0	
0.403776	0.130301	0	
0.566367	0.591267	0	
0.571348	0.553541	0	
0.599529	0.573056	0	
0	0.4	0	
0.0477317	0.33515	0	
0.0672738	0.378636	0	
0.174534	0.342331	0	
0.204118	0.357608	0	
0.179864	0.378412	0	
0.892045	0.528189	0	
0.857319	0.548603	0	
0.849925	0.511138	0	
0	0.5	0	
0.0695334	0.506158	0	
0.0562459	0.561534	0	
0.385173	0.68968	0	
0.409594	0.716254	0	
0.376451	0.72785	0	
0.465957	0.229544	0	
0.490937	0.259267	0	
0.459561	0.263597	0	
0	0.8	0	
0.0606469	0.768617	0	
0.0565304	0.847174	0	
0.821046	0.792934	0	
0.844202	0.755976	0	
0.861795	0.789866	0	
0.659435	0.775421	0	
0.67409	0.805799	0	
0.640544	0.808966	0	
0.504644	0.507873	0	
0.478389	0.532187	0	
0.462744	0.504026	0	
0.0969033	0.345777	0	
0.140066	0.362181	0	
0.10754	0.392211	0	
0.288871	0.911	0	
0.260177	0.944352	0	
0.254949	0.883948	0	
0.954543	0.246173	0	
0.953399	0.200217	0	
1	0.2	0	
0.838129	0.582552	0	
0.857319	0.548603	0	
0.887191	0.577676	0	
0.230611	0.517653	0	
0.233584	0.486267	0	
0.267586	0.49873	0	
0.237557	0.675179	0	
0.258876	0.650866	0	
0.276589	0.680461	0	
0.704824	0.556164	0	
0.713907	0.588226	0	
0.679864	0.590385	0	
0.111979	0.746263	0	
0.0606469	0.768617	0	
0.0716768	0.70865	0	
0.626757	0.841137	0	
0.664216	0.839796	0	
0.635981	0.881794	0	
0.195256	0.763017	0	
0.188648	0.796494	0	
0.154867	0.778868	0	
0.713367	0.480787	0	
0.671115	0.482098	0	
0.68931	0.453423	0	
0.639978	0.741801	0	
0.674166	0.747497	0	
0.659435	0.775421	0	
0.703456	0.221651	0	
0.67101	0.238158	0	
0.659761	0.203629	0	
0.0921181	0.158432	0	
0.0737024	0.110002	0	
0.12498	0.130997	0	
0.179864	0.378412	0	
0.204118	0.357608	0	
0.219085	0.384731	0	
0.664216	0.839796	0	
0.67409	0.805799	0	
0.700647	0.824246	0	
0.635507	0.0543198	0	
0.698365	0.0639875	0	
0.671132	0.0990913	0	
0.118067	0.687768	0	
0.116327	0.634101	0	
0.154777	0.64956	0	
0.11218	0.808811	0	
0.0606469	0.768617	0	
0.111979	0.746263	0	
0.0737024	0.110002	0	
0.0410089	0.148014	0	
0	0.1	0	
0.147289	0.605723	0	
0.116327	0.634101	0	
0.104749	0.588366	0	
0.222172	0.783449	0	
0.188648	0.796494	0	
0.195256	0.763017	0	
0.290857	0.642709	0	
0.258876	0.650866	0	
0.261206	0.617714	0	
0.902499	0.259705	0	
0.934317	0.298166	0	
0.883976	0.303197	0	
0.466918	0.562724	0	
0.478389	0.532187	0	
0.505486	0.553099	0	
0.354119	0.262857	0	
0.349734	0.230805	0	
0.385857	0.23992	0	
0.756386	0.953695	0	
0.827711	0.948078	0	
0.8	1	0	
0.1	1	0	
0.0725222	0.927257	0	
0.144626	0.935434	0	
0.598811	0.814346	0	
0.626757	0.841137	0	
0.592959	0.859667	0	
0.327746	0.125682	0	
0.368669	0.111585	0	
0.366287	0.152646	0	
0.0562459	0.561534	0	
0.0695334	0.506158	0	
0.107348	0.532274	0	
0.918428	0.217136	0	
0.953399	0.200217	0	
0.954543	0.246173	0	
0.640544	0.808966	0	
0.664216	0.839796	0	
0.626757	0.841137	0	
0.865642	0.621985	0	
0.842469	0.652051	0	
0.819303	0.621644	0	
0.218988	0.81846	0	
0.188648	0.796494	0	
0.222172	0.783449	0	
0.349997	0.862254	0	
0.381538	0.869158	0	
0.370661	0.899048	0	
0.76731	0.831834	0	
0.77349	0.868295	0	
0.732272	0.851432	0	
0.54087	0.0649907	0	
0.572875	0.0404911	0	
0.579535	0.0866621	0	
0.68936	0.872515	0	
0.664216	0.839796	0	
0.700647	0.824246	0	
0.83345	0.689157	0	
0.865327	0.716052	0	
0.824469	0.725291	0	
0.0969033	0.345777	0	
0.0477317	0.33515	0	
0.0919868	0.299946	0	
0.887191	0.577676	0	
0.857319	0.548603	0	
0.892045	0.528189	0	
0.479999	0.112904	0	
0.504564	0.0848184	0	
0.512708	0.121231	0	
0.542181	0.651917	0	
0.572946	0.660948	0	
0.548953	0.685128	0	
0.567905	0.629795	0	
0.572946	0.660948	0	
0.542181	0.651917	0	
0.89057	0.754286	0	
0.918249	0.70556	0	
0.946904	0.763056	0	
0.883575	0.477789	0	
0.928788	0.499945	0	
0.892045	0.528189	0	
0.6	1	0	
0.54958	0.961918	0	
0.58937	0.917164	0	
0.454159	0.0636577	0	
0.504564	0.0848184	0	
0.479999	0.112904	0	
0.459561	0.263597	0	
0.490937	0.259267	0	
0.477149	0.292832	0	
0.927299	0.436697	0	
0.928788	0.499945	0	
0.883575	0.477789	0	
0.842469	0.652051	0	
0.83345	0.689157	0	
0.803439	0.663975	0	
0.965602	0.16304	0	
0.953399	0.200217	0	
0.92842	0.174737	0	
0.0672738	0.378636	0	
0.0477317	0.33515	0	
0.0969033	0.345777	0	
0.10754	0.392211	0	
0.077859	0.416391	0	
0.0672738	0.378636	0	
0.0919868	0.299946	0	
0.0483387	0.269982	0	
0.0921181	0.255924	0	
0.403776	0.130301	0	
0.368669	0.111585	0	
0.402695	0.0809751	0	
0.254949	0.883948	0	
0.260177	0.944352	0	
0.205991	0.917768	0	
0.118892	0.436751	0	
0.077859	0.416391	0	
0.10754	0.392211	0	
0.0651809	0.456841	0	
0.077859	0.416391	0	
0.118892	0.436751	0	
1	0.2	0	
0.953399	0.200217	0	
0.965602	0.16304	0	
0	0.1	0	
0.0410089	0.148014	0	
0	0.2	0	
1	0.2	0	
0.965602	0.16304	0	
1	0.1	0	
0.92842	0.0965535	0	
1	0.1	0	
0.947246	0.135645	0	
0.935931	0.875511	0	
0.960437	0.945635	0	
0.917105	0.914602	0	
0	0.2	0	
0.0483387	0.269982	0	
0	0.3	0	
0.0581957	0.228872	0	
0.0483387	0.269982	0	
0	0.2	0	
0.917105	0.914602	0	
0.9	1	0	
0.874805	0.924257	0	
0.4	1	0	
0.314533	0.952312	0	
0.362929	0.938666	0	
0.579535	0.0866621	0	
0.635507	0.0543198	0	
0.621836	0.0963169	0	
0.161334	0.735964	0	
0.118067	0.687768	0	
0.161334	0.692576	0	
0.526212	0.916658	0	
0.471857	0.953877	0	
0.484252	0.914034	0	
0.904316	0.794958	0	
0.950709	0.828324	0	
0.917105	0.836419	0	
CELLS 868 3472
3	0	1	2	
3	3	4	5	
3	6	7	8	
3	9	10	11	
3	12	13	14	
3	15	16	17	
3	18	19	20	
3	21	22	23	
3	24	25	26	
3	27	28	29	
3	30	31	32	
3	33	34	35	
3	36	37	38	
3	39	40	41	
3	42	43	44	
3	45	46	47	
3	48	49	50	
3	51	52	53	
3	54	55	56	
3	57	58	59	
3	60	61	62	
3	63	64	65	
3	66	67	68	
3	69	70	71	
3	72	73	74	
3	75	76	77	
3	78	79	80	
3	81	82	83	
3	84	85	86	
3	87	88	89	
3	90	91	92	
3	93	94	95	
3	96	97	98	
3	99	100	101	
3	102	103	104	
3	105	106	107	
3	108	109	110	
3	111	112	113	
3	114	115	116	
3	117	118	119	
3	120	121	122	
3	123	124	125	
3	126	127	128	
3	129	130	131	
3	132	133	134	
3	135	136	137	
3	138	139	140	
3	141	142	143	
3	144	145	146	
3	147	148	149	
3	150	151	152	
3	153	154	155	
3	156	157	158	
3	159	160	161	
3	162	163	164	
3	165	166	167	
3	168	169	170	
3	171	172	173	
3	174	175	176	
3	177	178	179	
3	180	181	182	
3	183	184	185	
3	186	187	188	
3	189	190	191	
3	192	193	194	
3	195	196	197	
3	198	199	200	
3	201	202	203	
3	204	205	206	
3	207	208	209	
3	210	211	212	
3	213	214	215	
3	216	217	218	
3	219	220	221	
3	222	223	224	
3	225	226	227	
3	228	229	230	
3	231	232	233	
3	234	235	236	
3	237	238	239	
3	240	241	242	
3	243	244	245	
3	246	247	248	
3	249	250	251	
3	252	253	254	
3	255	256	257	
3	258	259	260	
3	261	262	263	
3	264	265	266	
3	267	268	269	
3	270	271	272	
3	273	274	275	
3	276	277	278	
3	279	280	281	
3	282	283	284	
3	285	286	287	
3	288	289	290	
3	291	292	293	
3	294	295	296	
3	297	298	299	
3	300	301	302	
3	303	304	305	
3	306	307	308	
3	309	310	311	
3	312	313	314	
3	315	316	317	
3	318	319	320	
3	321	322	323	
3	324	325	326	
3	327	328	329	
3	330	331	332	
3	333	334	335	
3	336	337	338	
3	339	340	341	
3	342	343	344	
3	345	346	347	
3	348	349	350	
3	351	352	353	
3	354	355	356	
3	357	358	359	
3	360	361	362	
3	363	364	365	
3	366	367	368	
3	369	370	371	
3	372	373	374	
3	375	376	377	
3	378	379	380	
3	381	382	383	
3	384	385	386	
3	387	388	389	
3	390	391	392	
3	393	394	395	
3	396	397	398	
3	399	400	401	
3	402	403	404	
3	405	406	407	
3	408	409	410	
3	411	412	413	
3	414	415	416	
3	417	418	419	
3	420	421	422	
3	423	424	425	
3	426	427	428	
3	429	430	431	
3	432	433	434	
3	435	436	437	
3	438	439	440	
3	441	442	443	
3	444	445	446	
3	447	448	449	
3	450	451	452	
3	453	454	455	
3	456	457	458	
3	459	460	461	
3	462	463	464	
3	465	466	467	
3	468	469	470	
3	471	472	473	
3	474	475	476	
3	477	478	479	
3	480	481	482	
3	483	484	485	
3	486	487	488	
3	489	490	491	
3	492	493	494	
3	495	496	497	
3	498	499	500	
3	501	502	503	
3	504	505	506	
3	507	508	509	
3	510	511	512	
3	513	514	515	
3	516	517	518	
3	519	520	521	
3	522	523	524	
3	525	526	527	
3	528	529	530	
3	531	532	533	
3	534	535	536	
3	537	538	539	
3	540	541	542	
3	543	544	545	
3	546	547	548	
3	549	550	551	
3	552	553	554	
3	555	556	557	
3	558	559	560	
3	561	562	563	
3	564	565	566	
3	567	568	569	
3	570	571	572	
3	573	574	575	
3	576	577	578	
3	579	580	581	
3	582	583	584	
3	585	586	587	
3	588	589	590	
3	591	592	593	
3	594	595	596	
3	597	598	599	
3	600	601	602	
3	603	604	605	
3	606	607	608	
3	609	610	611	
3	612	613	614	
3	615	616	617	
3	618	619	620	
3	621	622	623	
3	624	625	626	
3	627	628	629	
3	630	631	632	
3	633	634	635	
3	636	637	638	
3	639	640	641	
3	642	643	644	
3	645	646	647	
3	648	649	650	
3	651	652	653	
3	654	655	656	
3	657	658	659	
3	660	661	662	
3	663	664	665	
3	666	667	668	
3	669	670	671	
3	672	673	674	
3	675	676	677	
3	678	679	680	
3	681	682	683	
3	684	685	686	
3	687	688	689	
3	690	691	692	
3	693	694	695	
3	696	697	698	
3	699	700	701	
3	702	703	704	
3	705	706	707	
3	708	709	710	
3	711	712	713	
3	714	715	716	
3	717	718	719	
3	720	721	722	
3	723	724	725	
3	726	727	728	
3	729	730	731	
3	732	733	734	
3	735	736	737	
3	738	739	740	
3	741	742	743	
3	744	745	746	
3	747	748	749	
3	750	751	752	
3	753	754	755	
3	756	757	758	
3	759	760	761	
3	762	763	764	
3	765	766	767	
3	768	769	770	
3	771	772	773	
3	774	775	776	
3	777	778	779	
3	780	781	782	
3	783	784	785	
3	786	787	788	
3	789	790	791	
3	792	793	794	
3	795	796	797	
3	798	799	800	
3	801	802	803	
3	804	805	806	
3	807	808	809	
3	810	811	812	
3	813	814	815	
3	816	817	818	
3	819	820	821	
3	822	823	824	
3	825	826	827	
3	828	829	830	
3	831	832	833	
3	834	835	836	
3	837	838	839	
3	840	841	842	
3	843	844	845	
3	846	847	848	
3	849	850	851	
3	852	853	854	
3	855	856	857	
3	858	859	860	
3	861	862	863	
3	864	865	866	
3	867	868	869	
3	870	871	872	
3	873	874	875	
3	876	877	878	
3	879	880	881	
3	882	883	884	
3	885	886	887	
3	888	889	890	
3	891	892	893	
3	894	895	896	
3	897	898	899	
3	900	901	902	
3	903	904	905	
3	906	907	908	
3	909	910	911	
3	912	913	914	
3	915	916	917	
3	918	919	920	
3	921	922	923	
3	924	925	926	
3	927	928	929	
3	930	931	932	
3	933	934	935	
3	936	937	938	
3	939	940	941	
3	942	943	944	
3	945	946	947	
3	948	949	950	
3	951	952	953	
3	954	955	956	
3	957	958	959	
3	960	961	962	
3	963	964	965	
3	966	967	968	
3	969	970	971	
3	972	973	974	
3	975	976	977	
3	978	979	980	
3	981	982	983	
3	984	985	986	
3	987	988	989	
3	990	991	992	
3	993	994	995	
3	996	997	998	
3	999	1000	1001	
3	1002	1003	1004	
3	1005	1006	1007	
3	1008	1009	1010	
3	1011	1012	1013	
3	1014	1015	1016	
3	1017	1018	1019	
3	1020	1021	1022	
3	1023	1024	1025	
3	1026	1027	1028	
3	1029	1030	1031	
3	1032	1033	1034	
3	1035	1036	1037	
3	1038	1039	1040	
3	1041	1042	1043	
3	1044	1045	1046	
3	1047	1048	1049	
3	1050	1051	1052	
3	1053	1054	1055	
3	1056	1057	1058	
3	1059	1060	1061	
3	1062	1063	1064	
3	1065	1066	1067	
3	1068	1069	1070	
3	1071	1072	1073	
3	1074	1075	1076	
3	1077	1078	1079	
3	1080	1081	1082	
3	1083	1084	1085	
3	1086	1087	1088	
3	1089	1090	1091	
3	1092	1093	1094	
3	1095	1096	1097	
3	1098	1099	1100	
3	1101	1102	1103	
3	1104	1105	1106	
3	1107	1108	1109	
3	1110	1111	1112	
3	1113	1114	1115	
3	1116	1117	1118	
3	1119	1120	1121	
3	1122	1123	1124	
3	1125	1126	1127	
3	1128	1129	1130	
3	1131	1132	1133	
3	1134	1135	1136	
3	1137	1138	1139	
3	1140	1141	1142	
3	1143	1144	1145	
3	1146	1147	1148	
3	1149	1150	1151	
3	1152	1153	1154	
3	1155	1156	1157	
3	1158	1159	1160	
3	1161	1162	1163	
3	1164	1165	1166	
3	1167	1168	1169	
3	1170	1171	1172	
3	1173	1174	1175	
3	1176	1177	1178	
3	1179	1180	1181	
3	1182	1183	1184	
3	1185	1186	1187	
3	1188	1189	1190	
3	1191	1192	1193	
3	1194	1195	1196	
3	1197	1198	1199	
3	1200	1201	1202	
3	1203	1204	1205	
3	1206	1207	1208	
3	1209	1210	1211	
3	1212	1213	1214	
3	1215	1216	1217	
3	1218	1219	1220	
3	1221	1222	1223	
3	1224	1225	1226	
3	1227	1228	1229	
3	1230	1231	1232	
3	1233	1234	1235	
3	1236	1237	1238	
3	1239	1240	1241	
3	1242	1243	1244	
3	1245	1246	1247	
3	1248	1249	1250	
3	1251	1252	1253	
3	1254	1255	1256	
3	1257	1258	1259	
3	1260	1261	1262	
3	1263	1264	1265	
3	1266	1267	1268	
3	1269	1270	1271	
3	1272	1273	1274	
3	1275	1276	1277	
3	1278	1279	1280	
3	1281	1282	1283	
3	1284	1285	1286	
3	1287	1288	1289	
3	1290	1291	1292	
3	1293	1294	1295	
3	1296	1297	1298	
3	1299	1300	1301	
3	1302	1303	1304	
3	1305	1306	1307	
3	1308	1309	1310	
3	1311	1312	1313	
3	1314	1315	1316	
3	1317	1318	1319	
3	1320	1321	1322	
3	1323	1324	1325	
3	1326	1327	1328	
3	1329	1330	1331	
3	1332	1333	1334	
3	1335	1336	1337	
3	1338	1339	1340	
3	1341	1342	1343	
3	1344	1345	1346	
3	1347	1348	1349	
3	1350	1351	1352	
3	1353	1354	1355	
3	1356	1357	1358	
3	1359	1360	1361	
3	1362	1363	1364	
3	1365	1366	1367	
3	1368	1369	1370	
3	1371	1372	1373	
3	1374	1375	1376	
3	1377	1378	1379	
3	1380	1381	1382	
3	1383	1384	1385	
3	1386	1387	1388	
3	1389	1390	1391	
3	1392	1393	1394	
3	1395	1396	1397	
3	1398	1399	1400	
3	1401	1402	1403	
3	1404	1405	1406	
3	1407	1408	1409	
3	1410	1411	1412	
3	1413	1414	1415	
3	1416	1417	1418	
3	1419	1420	1421	
3	1422	1423	1424	
3	1425	1426	1427	
3	1428	1429	1430	
3	1431	1432	1433	
3	1434	1435	1436	
3	1437	1438	1439	
3	1440	1441	1442	
3	1443	1444	1445	
3	1446	1447	1448	
3	1449	1450	1451	
3	1452	1453	1454	
3	1455	1456	1457	
3	1458	1459	1460	
3	1461	1462	1463	
3	1464	1465	1466	
3	1467	1468	1469	
3	1470	1471	1472	
3	1473	1474	1475	
3	1476	1477	1478	
3	1479	1480	1481	
3	1482	1483	1484	
3	1485	1486	1487	
3	1488	1489	1490	
3	1491	1492	1493	
3	1494	1495	1496	
3	1497	1498	1499	
3	1500	1501	1502	
3	1503	1504	1505	
3	1506	1507	1508	
3	1509	1510	1511	
3	1512	1513	1514	
3	1515	1516	1517	
3	1518	1519	1520	
3	1521	1522	1523	
3	1524	1525	1526	
3	1527	1528	1529	
3	1530	1531	1532	
3	1533	1534	1535	
3	1536	1537	1538	
3	1539	1540	1541	
3	1542	1543	1544	
3	1545	1546	1547	
3	1548	1549	1550	
3	1551	1552	1553	
3	1554	1555	1556	
3	1557	1558	1559	
3	1560	1561	1562	
3	1563	1564	1565	
3	1566	1567	1568	
3	1569	1570	1571	
3	1572	1573	1574	
3	1575	1576	1577	
3	1578	1579	1580	
3	1581	1582	1583	
3	1584	1585	1586	
3	1587	1588	1589	
3	1590	1591	1592	
3	1593	1594	1595	
3	1596	1597	1598	
3	1599	1600	1601	
3	1602	1603	1604	
3	1605	1606	1607	
3	1608	1609	1610	
3	1611	1612	1613	
3	1614	1615	1616	
3	1617	1618	1619	
3	1620	1621	1622	
3	1623	1624	1625	
3	1626	1627	1628	
3	1629	1630	1631	
3	1632	1633	1634	
3	1635	1636	1637	
3	1638	1639	1640	
3	1641	1642	1643	
3	1644	1645	1646	
3	1647	1648	1649	
3	1650	1651	1652	
3	1653	1654	1655	
3	1656	1657	1658	
3	1659	1660	1661	
3	1662	1663	1664	
3	1665	1666	1667	
3	1668	1669	1670	
3	1671	1672	1673	
3	1674	1675	1676	
3	1677	1678	1679	
3	1680	1681	1682	
3	1683	1684	1685	
3	1686	1687	1688	
3	1689	1690	1691	
3	1692	1693	1694	
3	1695	1696	1697	
3	1698	1699	1700	
3	1701	1702	1703	
3	1704	1705	1706	
3	1707	1708	1709	
3	1710	1711	1712	
3	1713	1714	1715	
3	1716	1717	1718	
3	1719	1720	1721	
3	1722	1723	1724	
3	1725	1726	1727	
3	1728	1729	1730	
3	1731	1732	1733	
3	1734	1735	1736	
3	1737	1738	1739	
3	1740	1741	1742	
3	1743	1744	1745	
3	1746	1747	1748	
3	1749	1750	1751	
3	1752	1753	1754	
3	1755	1756	1757	
3	1758	1759	1760	
3	1761	1762	1763	
3	1764	1765	1766	
3	1767	1768	1769	
3	1770	1771	1772	
3	1773	1774	1775	
3	1776	1777	1778	
3	1779	1780	1781	
3	1782	1783	1784	
3	1785	1786	1787	
3	1788	1789	1790	
3	1791	1792	1793	
3	1794	1795	1796	
3	1797	1798	1799	
3	1800	1801	1802	
3	1803	1804	1805	
3	1806	1807	1808	
3	1809	1810	1811	
3	1812	1813	1814	
3	1815	1816	1817	
3	1818	1819	1820	
3	1821	1822	1823	
3	1824	1825	1826	
3	1827	1828	1829	
3	1830	1831	1832	
3	1833	1834	1835	
3	1836	1837	1838	
3	1839	1840	1841	
3	1842	1843	1844	
3	1845	1846	1847	
3	1848	1849	1850	
3	1851	1852	1853	
3	1854	1855	1856	
3	1857	1858	1859	
3	1860	1861	1862	
3	1863	1864	1865	
3	1866	1867	1868	
3	1869	1870	1871	
3	1872	1873	1874	
3	1875	1876	1877	
3	1878	1879	1880	
3	1881	1882	1883	
3	1884	1885	1886	
3	1887	1888	1889	
3	1890	1891	1892	
3	1893	1894	1895	
3	1896	1897	1898	
3	1899	1900	1901	
3	1902	1903	1904	
3	1905	1906	1907	
3	1908	1909	1910	
3	1911	1912	1913	
3	1914	1915	1916	
3	1917	1918	1919	
3	1920	1921	1922	
3	1923	1924	1925	
3	1926	1927	1928	
3	1929	1930	1931	
3	1932	1933	1934	
3	1935	1936	1937	
3	1938	1939	1940	
3	1941	1942	1943	
3	1944	1945	1946	
3	1947	1948	1949	
3	1950	1951	1952	
3	1953	1954	1955	
3	1956	1957	1958	
3	1959	1960	1961	
3	1962	1963	1964	
3	1965	1966	1967	
3	1968	1969	1970	
3	1971	1972	1973	
3	1974	1975	1976	
3	1977	1978	1979	
3	1980	1981	1982	
3	1983	1984	1985	
3	1986	1987	1988	
3	1989	1990	1991	
3	1992	1993	1994	
3	1995	1996	1997	
3	1998	1999	2000	
3	2001	2002	2003	
3	2004	2005	2006	
3	2007	2008	2009	
3	2010	2011	2012	
3	2013	2014	2015	
3	2016	2017	2018	
3	2019	2020	2021	
3	2022	2023	2024	
3	2025	2026	2027	
3	2028	2029	2030	
3	2031	2032	2033	
3	2034	2035	2036	
3	2037	2038	2039	
3	2040	2041	2042	
3	2043	2044	2045	
3	2046	2047	2048	
3	2049	2050	2051	
3	2052	2053	2054	
3	2055	2056	2057	
3	2058	2059	2060	
3	2061	2062	2063	
3	2064	2065	2066	
3	2067	2068	2069	
3	2070	2071	2072	
3	2073	2074	2075	
3	2076	2077	2078	
3	2079	2080	2081	
3	2082	2083	2084	
3	2085	2086	2087	
3	2088	2089	2090	
3	2091	2092	2093	
3	2094	2095	2096	
3	2097	2098	2099	
3	2100	2101	2102	
3	2103	2104	2105	
3	2106	2107	2108	
3	2109	2110	2111	
3	2112	2113	2114	
3	2115	2116	2117	
3	2118	2119	2120	
3	2121	2122	2123	
3	2124	2125	2126	
3	2127	2128	2129	
3	2130	2131	2132	
3	2133	2134	2135	
3	2136	2137	2138	
3	2139	2140	2141	
3	2142	2143	2144	
3	2145	2146	2147	
3	2148	2149	2150	
3	2151	2152	2153	
3	2154	2155	2156	
3	2157	2158	2159	
3	2160	2161	2162	
3	2163	2164	2165	
3	2166	2167	2168	
3	2169	2170	2171	
3	2172	2173	2174	
3	2175	2176	2177	
3	2178	2179	2180	
3	2181	2182	2183	
3	2184	2185	2186	
3	2187	2188	2189	
3	2190	2191	2192	
3	2193	2194	2195	
3	2196	2197	2198	
3	2199	2200	2201	
3	2202	2203	2204	
3	2205	2206	2207	
3	2208	2209	2210	
3	2211	2212	2213	
3	2214	2215	2216	
3	2217	2218	2219	
3	2220	2221	2222	
3	2223	2224	2225	
3	2226	2227	2228	
3	2229	2230	2231	
3	2232	2233	2234	
3	2235	2236	2237	
3	2238	2239	2240	
3	2241	2242	2243	
3	2244	2245	2246	
3	2247	2248	2249	
3	2250	2251	2252	
3	2253	2254	2255	
3	2256	2257	2258	
3	2259	2260	2261	
3	2262	2263	2264	
3	2265	2266	2267	
3	2268	2269	2270	
3	2271	2272	2273	
3	2274	2275	2276	
3	2277	2278	2279	
3	2280	2281	2282	
3	2283	2284	2285	
3	2286	2287	2288	
3	2289	2290	2291	
3	2292	2293	2294	
3	2295	2296	2297	
3	2298	2299	2300	
3	2301	2302	2303	
3	2304	2305	2306	
3	2307	2308	2309	
3	2310	2311	2312	
3	2313	2314	2315	
3	2316	2317	2318	
3	2319	2320	2321	
3	2322	2323	2324	
3	2325	2326	2327	
3	2328	2329	2330	
3	2331	2332	2333	
3	2334	2335	2336	
3	2337	2338	2339	
3	2340	2341	2342	
3	2343	2344	2345	
3	2346	2347	2348	
3	2349	2350	2351	
3	2352	2353	2354	
3	2355	2356	2357	
3	2358	2359	2360	
3	2361	2362	2363	
3	2364	2365	2366	
3	2367	2368	2369	
3	2370	2371	2372	
3	2373	2374	2375	
3	2376	2377	2378	
3	2379	2380	2381	
3	2382	2383	2384	
3	2385	2386	2387	
3	2388	2389	2390	
3	2391	2392	2393	
3	2394	2395	2396	
3	2397	2398	2399	
3	2400	2401	2402	
3	2403	2404	2405	
3	2406	2407	2408	
3	2409	2410	2411	
3	2412	2413	2414	
3	2415	2416	2417	
3	2418	2419	2420	
3	2421	2422	2423	
3	2424	2425	2426	
3	2427	2428	2429	
3	2430	2431	2432	
3	2433	2434	2435	
3	2436	2437	2438	
3	2439	2440	2441	
3	2442	2443	2444	
3	2445	2446	2447	
3	2448	2449	2450	
3	2451	2452	2453	
3	2454	2455	2456	
3	2457	2458	2459	
3	2460	2461	2462	
3	2463	2464	2465	
3	2466	2467	2468	
3	2469	2470	2471	
3	2472	2473	2474	
3	2475	2476	2477	
3	2478	2479	2480	
3	2481	2482	2483	
3	2484	2485	2486	
3	2487	2488	2489	
3	2490	2491	2492	
3	2493	2494	2495	
3	2496	2497	2498	
3	2499	2500	2501	
3	2502	2503	2504	
3	2505	2506	2507	
3	2508	2509	2510	
3	2511	2512	2513	
3	2514	2515	2516	
3	2517	2518	2519	
3	2520	2521	2522	
3	2523	2524	2525	
3	2526	2527	2528	
3	2529	2530	2531	
3	2532	2533	2534	
3	2535	2536	2537	
3	2538	2539	2540	
3	2541	2542	2543	
3	2544	2545	2546	
3	2547	2548	2549	
3	2550	2551	2552	
3	2553	2554	2555	
3	2556	2557	2558	
3	2559	2560	2561	
3	2562	2563	2564	
3	2565	2566	2567	
3	2568	2569	2570	
3	2571	2572	2573	
3	2574	2575	2576	
3	2577	2578	2579	
3	2580	2581	2582	
3	2583	2584	2585	
3	2586	2587	2588	
3	2589	2590	2591	
3	2592	2593	2594	
3	2595	2596	2597	
3	2598	2599	2600	
3	2601	2602	2603	
CELL_TYPES 868
5
5
5
5
5
5
5
5
5
5
5
5
5
5
5
5
5
5
5
5
5
5
5
5
5
5
5
5
5
5
5
5
5
5
5
5
5
5
5
5
5
5
5
5
5
5
5
5
5
5
5
5
5
5
5
5
5
5
5
5
5
5
5
5
5
5
5
5
5
5
5
5
5
5
5
5
5
5
5
5
5
5
5
5
5
5
5
5
5
5
5
5
5
5
5
5
5
5
5
5
5
5
5
5
5
5
5
5
5
5
5
5
5
5
5
5
5
5
5
5
5
5
5
5
5
5
5
5
5
5
5
5
5
5
5
5
5
5
5
5
5
5
5
5
5
5
5
5
5
5
5
5
5
5
5
5
5
5
5
5
5
5
5
5
5
5
5
5
5
5
5
5
5
5
5
5
5
5
5
5
5
5
5
5
5
5
5
5
5
5
5
5
5
5
5
5
5
5
5
5
5
5
5
5
5
5
5
5
5
5
5
5
5
5
5
5
5
5
5
5
5
5
5
5
5
5
5
5
5
5
5
5
5
5
5
5
5
5
5
5
5
5
5
5
5
5
5
5
5
5
5
5
5
5
5
5
5
5
5
5
5
5
5
5
5
5
5
5
5
5
5
5
5
5
5
5
5
5
5
5
5
5
5
5
5
5
5
5
5
5
5
5
5
5
5
5
5
5
5
5
5
5
5
5
5
5
5
5
5
5
5
5
5
5
5
5
5
5
5
5
5
5
5
5
5
5
5
5
5
5
5
5
5
5
5
5
5
5
5
5
5
5
5
5
5
5
5
5
5
5
5
5
5
5
5
5
5
5
5
5
5
5
5
5
5
5
5
5
5
5
5
5
5
5
5
5
5
5
5
5
5
5
5
5
5
5
5
5
5
5
5
5
5
5
5
5
5
5
5
5
5
5
5
5
5
5
5
5
5
5
5
5
5
5
5
5
5
5
5
5
5
5
5
5
5
5
5
5
5
5
5
5
5
5
5
5
5
5
5
5
5
5
5
5
5
5
5
5
5
5
5
5
5
5
5
5
5
5
5
5
5
5
5
5
5
5
5
5
5
5
5
5
5
5
5
5
5
5
5
5
5
5
5
5
5
5
5
5
5
5
5
5
5
5
5
5
5
5
5
5
5
5
5
5
5
5
5
5
5
5
5
5
5
5
5
5
5
5
5
5
5
5
5
5
5
5
5
5
5
5
5
5
5
5
5
5
5
5
5
5
5
5
5
5
5
5
5
5
5
5
5
5
5
5
5
5
5
5
5
5
5
5
5
5
5
5
5
5
5
5
5
5
5
5
5
5
5
5
5
5
5
5
5
5
5
5
5
5
5
5
5
5
5
5
5
5
5
5
5
5
5
5
5
5
5
5
5
5
5
5
5
5
5
5
5
5
5
5
5
5
5
5
5
5
5
5
5
5
5
5
5
5
5
5
5
5
5
5
5
5
5
5
5
5
5
5
5
5
5
5
5
5
5
5
5
5
5
5
5
5
5
5
5
5
5
5
5
5
5
5
5
5
5
5
5
5
5
5
5
5
5
5
5
5
5
5
5
5
5
5
5
5
5
5
5
5
5
5
5
5
5
5
5
5
5
5
5
5
5
5
5
5
5
5
5
5
5
5
5
5
5
5
5
5
5
5
5
5
5
5
5
5
5
5
5
5
5
5
5
5
5
5
5
5
5
5
5
5
5
5
5
5
5
5
5
5
5
5
5
5
5
5
5
5
5
5
5
5
5
5
5
5
5
5
5
5
5
5
5
5
5
5
5
5
5
5
5
5
5
5
5
5
5
5
5
5
5
5
5
5
5
5
5
5
5
5
5
5
5
5
5
5
5
5
5
5
5
5
5
5
5
5
5
5
5
5
5
5
5
5
5
5
5
5
5
5
5
5
5
5
5
5
5
5
5
5
5
5
5
5
5
5
5
5
5
5
5
5
5
5
5
5
5
5
5
5
5
5
CELL_DATA 868
POINT_DATA 2604
SCALARS Pressure float 
LOOKUP_TABLE default
7.61929 7.61929 7.61929 8.83174 8.83174 8.83174 6.71808 6.71808 6.71808 -0.124 -0.124 -0.124 9.82032 9.82032 9.82032 3.87983 3.87983 3.87983 9.96664 9.96664 9.96664 7.65549 7.65549 7.65549 1.84405 1.84405 1.84405 8.98439 8.98439 8.98439 6.62801 6.62801 6.62801 9.9617 9.9617 9.9617 10.075 10.075 10.075 -0.0154888 -0.0154888 -0.0154888 1.94823 1.94823 1.94823 3.77066 3.77066 3.77066 0.357035 0.357035 0.357035 3.85291 3.85291 3.85291 4.03614 4.03614 4.03614 1.30394 1.30394 1.30394 -0.130877 -0.130877 -0.130877 1.76626 1.76626 1.76626 2.47547 2.47547 2.47547 0.999581 0.999581 0.999581 5.40502 5.40502 5.40502 4.65399 4.65399 4.65399 -0.0792805 -0.0792805 -0.0792805 6.05713 6.05713 6.05713 6.98346 6.98346 6.98346 9.35514 9.35514 9.35514 9.03233 9.03233 9.03233 6.56044 6.56044 6.56044 9.5321 9.5321 9.5321 4.03142 4.03142 4.03142 5.79528 5.79528 5.79528 4.90799 4.90799 4.90799 7.40158 7.40158 7.40158 7.18325 7.18325 7.18325 3.87016 3.87016 3.87016 7.09297 7.09297 7.09297 1.36189 1.36189 1.36189 0.0309181 0.0309181 0.0309181 0.268019 0.268019 0.268019 4.86635 4.86635 4.86635 7.50072 7.50072 7.50072 9.96111 9.96111 9.96111 0.0383778 0.0383778 0.0383778 9.59532 9.59532 9.59532 3.90032 3.90032 3.90032 3.9179 3.9179 3.9179 0.544358 0.544358 0.544358 6.55417 6.55417 6.55417 4.19689 4.19689 4.19689 6.97553 6.97553 6.97553 8.17727 8.17727 8.17727 2.76454 2.76454 2.76454 6.82387 6.82387 6.82387 10.1339 10.1339 10.1339 5.02734 5.02734 5.02734 10.0373 10.0373 10.0373 4.53626 4.53626 4.53626 4.80862 4.80862 4.80862 5.418 5.418 5.418 6.43081 6.43081 6.43081 2.4035 2.4035 2.4035 3.66217 3.66217 3.66217 5.27732 5.27732 5.27732 5.88647 5.88647 5.88647 5.11052 5.11052 5.11052 6.51051 6.51051 6.51051 5.38682 5.38682 5.38682 5.29516 5.29516 5.29516 7.55899 7.55899 7.55899 6.78342 6.78342 6.78342 0.136572 0.136572 0.136572 4.76505 4.76505 4.76505 4.96516 4.96516 4.96516 -0.00588459 -0.00588459 -0.00588459 7.48946 7.48946 7.48946 9.99428 9.99428 9.99428 5.69938 5.69938 5.69938 10.0699 10.0699 10.0699 7.47649 7.47649 7.47649 0.0946453 0.0946453 0.0946453 10.0079 10.0079 10.0079 -0.14106 -0.14106 -0.14106 0.0195579 0.0195579 0.0195579 9.97992 9.97992 9.97992 6.42041 6.42041 6.42041 8.75981 8.75981 8.75981 6.30409 6.30409 6.30409 4.67125 4.67125 4.67125 8.29243 8.29243 8.29243 8.31436 8.31436 8.31436 0.0998608 0.0998608 0.0998608 0.0820572 0.0820572 0.0820572 5.34415 5.34415 5.34415 0.464085 0.464085 0.464085 7.11764 7.11764 7.11764 4.84876 4.84876 4.84876 5.20577 5.20577 5.20577 0.257368 0.257368 0.257368 9.85943 9.85943 9.85943 6.46291 6.46291 6.46291 5.28744 5.28744 5.28744 4.89343 4.89343 4.89343 4.39922 4.39922 4.39922 3.89338 3.89338 3.89338 4.31691 4.31691 4.31691 0.190049 0.190049 0.190049 4.243 4.243 4.243 4.90077 4.90077 4.90077 5.27669 5.27669 5.27669 6.82481 6.82481 6.82481 5.32532 5.32532 5.32532 6.69201 6.69201 6.69201 0.0103997 0.0103997 0.0103997 0.0624893 0.0624893 0.0624893 4.35415 4.35415 4.35415 9.56996 9.56996 9.56996 0.0346764 0.0346764 0.0346764 0.000545751 0.000545751 0.000545751 5.5735 5.5735 5.5735 2.71495 2.71495 2.71495 6.65769 6.65769 6.65769 3.95285 3.95285 3.95285 1.38271 1.38271 1.38271 10.2009 10.2009 10.2009 0.14988 0.14988 0.14988 10.0415 10.0415 10.0415 7.05046 7.05046 7.05046 6.92018 6.92018 6.92018 2.85334 2.85334 2.85334 9.99067 9.99067 9.99067 4.52822 4.52822 4.52822 0.22094 0.22094 0.22094 6.95649 6.95649 6.95649 7.54095 7.54095 7.54095 4.0622 4.0622 4.0622 3.56907 3.56907 3.56907 6.41431 6.41431 6.41431 6.85447 6.85447 6.85447 7.04664 7.04664 7.04664 0.116682 0.116682 0.116682 6.4836 6.4836 6.4836 5.12383 5.12383 5.12383 0.487011 0.487011 0.487011 0.022544 0.022544 0.022544 0.00442083 0.00442083 0.00442083 6.79777 6.79777 6.79777 6.98437 6.98437 6.98437 0.0158858 0.0158858 0.0158858 4.45767 4.45767 4.45767 1.07942 1.07942 1.07942 1.84638 1.84638 1.84638 1.67981 1.67981 1.67981 1.4783 1.4783 1.4783 4.80211 4.80211 4.80211 6.63227 6.63227 6.63227 9.96855 9.96855 9.96855 10.1306 10.1306 10.1306 7.06407 7.06407 7.06407 8.49466 8.49466 8.49466 4.32585 4.32585 4.32585 9.97931 9.97931 9.97931 9.68821 9.68821 9.68821 0.126318 0.126318 0.126318 -0.0782369 -0.0782369 -0.0782369 6.88425 6.88425 6.88425 4.29793 4.29793 4.29793 5.35525 5.35525 5.35525 0.10867 0.10867 0.10867 6.8301 6.8301 6.8301 -0.0129714 -0.0129714 -0.0129714 0.937791 0.937791 0.937791 0.0563876 0.0563876 0.0563876 10.0112 10.0112 10.0112 6.99175 6.99175 6.99175 5.97847 5.97847 5.97847 6.95059 6.95059 6.95059 -0.0666279 -0.0666279 -0.0666279 5.37803 5.37803 5.37803 5.52109 5.52109 5.52109 0.0450523 0.0450523 0.0450523 4.24655 4.24655 4.24655 0.0131279 0.0131279 0.0131279 9.07262 9.07262 9.07262 1.79118 1.79118 1.79118 1.43881 1.43881 1.43881 9.88854 9.88854 9.88854 0.703424 0.703424 0.703424 6.23678 6.23678 6.23678 9.98216 9.98216 9.98216 2.23363 2.23363 2.23363 9.94348 9.94348 9.94348 6.98099 6.98099 6.98099 5.82027 5.82027 5.82027 1.81307 1.81307 1.81307 0.71289 0.71289 0.71289 6.77158 6.77158 6.77158 9.8079 9.8079 9.8079 2.12193 2.12193 2.12193 8.03965 8.03965 8.03965 0.0757651 0.0757651 0.0757651 3.31387 3.31387 3.31387 0.0151037 0.0151037 0.0151037 4.47364 4.47364 4.47364 2.84657 2.84657 2.84657 5.30903 5.30903 5.30903 8.43614 8.43614 8.43614 4.40885 4.40885 4.40885 4.83536 4.83536 4.83536 6.64769 6.64769 6.64769 5.78337 5.78337 5.78337 4.99505 4.99505 4.99505 4.37673 4.37673 4.37673 4.66471 4.66471 4.66471 6.95931 6.95931 6.95931 7.12635 7.12635 7.12635 6.83477 6.83477 6.83477 6.6464 6.6464 6.6464 1.9156 1.9156 1.9156 5.52667 5.52667 5.52667 7.21138 7.21138 7.21138 5.58968 5.58968 5.58968 4.97508 4.97508 4.97508 4.17759 4.17759 4.17759 4.78465 4.78465 4.78465 7.19619 7.19619 7.19619 6.66017 6.66017 6.66017 6.41832 6.41832 6.41832 6.88261 6.88261 6.88261 4.85114 4.85114 4.85114 4.69411 4.69411 4.69411 4.67306 4.67306 4.67306 4.24958 4.24958 4.24958 2.83479 2.83479 2.83479 4.23215 4.23215 4.23215 6.37861 6.37861 6.37861 6.87964 6.87964 6.87964 6.81543 6.81543 6.81543 4.4604 4.4604 4.4604 3.72472 3.72472 3.72472 5.50666 5.50666 5.50666 4.79464 4.79464 4.79464 6.89699 6.89699 6.89699 5.6173 5.6173 5.6173 6.92849 6.92849 6.92849 4.56072 4.56072 4.56072 4.41523 4.41523 4.41523 6.89615 6.89615 6.89615 6.4835 6.4835 6.4835 4.6597 4.6597 4.6597 5.5681 5.5681 5.5681 4.94587 4.94587 4.94587 5.81652 5.81652 5.81652 5.03029 5.03029 5.03029 4.53282 4.53282 4.53282 6.69965 6.69965 6.69965 5.16183 5.16183 5.16183 2.13431 2.13431 2.13431 4.50139 4.50139 4.50139 6.91633 6.91633 6.91633 1.93838 1.93838 1.93838 4.98695 4.98695 4.98695 2.78121 2.78121 2.78121 5.11681 5.11681 5.11681 6.88664 6.88664 6.88664 5.21645 5.21645 5.21645 6.55068 6.55068 6.55068 6.89728 6.89728 6.89728 6.54345 6.54345 6.54345 6.75751 6.75751 6.75751 6.62754 6.62754 6.62754 6.92122 6.92122 6.92122 4.56212 4.56212 4.56212 7.02371 7.02371 7.02371 5.3297 5.3297 5.3297 4.67191 4.67191 4.67191 6.45228 6.45228 6.45228 6.74536 6.74536 6.74536 5.16298 5.16298 5.16298 6.91737 6.91737 6.91737 6.63433 6.63433 6.63433 6.73393 6.73393 6.73393 7.32354 7.32354 7.32354 0.00772093 0.00772093 0.00772093 7.08353 7.08353 7.08353 6.93206 6.93206 6.93206 0.965464 0.965464 0.965464 7.01975 7.01975 7.01975 3.71014 3.71014 3.71014 0.991241 0.991241 0.991241 5.42378 5.42378 5.42378 6.89983 6.89983 6.89983 4.87442 4.87442 4.87442 4.83635 4.83635 4.83635 3.84076 3.84076 3.84076 3.52283 3.52283 3.52283 4.10621 4.10621 4.10621 6.94568 6.94568 6.94568 8.16392 8.16392 8.16392 7.28444 7.28444 7.28444 0.528052 0.528052 0.528052 3.6283 3.6283 3.6283 0.370969 0.370969 0.370969 1.95874 1.95874 1.95874 0.695242 0.695242 0.695242 7.09629 7.09629 7.09629 0.934576 0.934576 0.934576 4.78189 4.78189 4.78189 3.96603 3.96603 3.96603 -0.0253731 -0.0253731 -0.0253731 5.4305 5.4305 5.4305 6.83588 6.83588 6.83588 5.48082 5.48082 5.48082 4.72564 4.72564 4.72564 7.41203 7.41203 7.41203 4.45626 4.45626 4.45626 5.63341 5.63341 5.63341 4.5194 4.5194 4.5194 0.137572 0.137572 0.137572 7.38012 7.38012 7.38012 9.46911 9.46911 9.46911 7.36514 7.36514 7.36514 7.28431 7.28431 7.28431 9.73334 9.73334 9.73334 0.326189 0.326189 0.326189 0.0646063 0.0646063 0.0646063 0.591599 0.591599 0.591599 0.426973 0.426973 0.426973 6.37497 6.37497 6.37497 5.07644 5.07644 5.07644 4.49961 4.49961 4.49961 4.23485 4.23485 4.23485 6.87734 6.87734 6.87734 9.7828 9.7828 9.7828 7.22992 7.22992 7.22992 4.80953 4.80953 4.80953 1.77467 1.77467 1.77467 4.39214 4.39214 4.39214 6.45211 6.45211 6.45211 7.07442 7.07442 7.07442 6.85814 6.85814 6.85814 7.05192 7.05192 7.05192 6.74401 6.74401 6.74401 6.94122 6.94122 6.94122 6.53618 6.53618 6.53618 7.05791 7.05791 7.05791 6.79585 6.79585 6.79585 0.326664 0.326664 0.326664 1.14484 1.14484 1.14484 6.78724 6.78724 6.78724 5.03175 5.03175 5.03175 10.2088 10.2088 10.2088 6.90654 6.90654 6.90654 6.51538 6.51538 6.51538 7.30897 7.30897 7.30897 7.28471 7.28471 7.28471 0.0109678 0.0109678 0.0109678 1.20083 1.20083 1.20083 7.18566 7.18566 7.18566 5.0589 5.0589 5.0589 5.08736 5.08736 5.08736 9.87253 9.87253 9.87253 9.96981 9.96981 9.96981 5.56544 5.56544 5.56544 9.21037 9.21037 9.21037 4.48906 4.48906 4.48906 6.86694 6.86694 6.86694 9.55851 9.55851 9.55851 6.86669 6.86669 6.86669 9.9196 9.9196 9.9196 6.98561 6.98561 6.98561 4.88243 4.88243 4.88243 6.82782 6.82782 6.82782 10.0779 10.0779 10.0779 2.66893 2.66893 2.66893 -0.16363 -0.16363 -0.16363 5.3036 5.3036 5.3036 5.56275 5.56275 5.56275 1.91184 1.91184 1.91184 7.51226 7.51226 7.51226 6.50902 6.50902 6.50902 9.09625 9.09625 9.09625 6.23293 6.23293 6.23293 6.70217 6.70217 6.70217 -0.0469234 -0.0469234 -0.0469234 8.88217 8.88217 8.88217 5.36431 5.36431 5.36431 5.04079 5.04079 5.04079 7.34897 7.34897 7.34897 9.506 9.506 9.506 6.83258 6.83258 6.83258 3.05162 3.05162 3.05162 6.87095 6.87095 6.87095 9.66384 9.66384 9.66384 2.06594 2.06594 2.06594 4.45328 4.45328 4.45328 6.59934 6.59934 6.59934 6.34845 6.34845 6.34845 1.05399 1.05399 1.05399 3.72202 3.72202 3.72202 6.91294 6.91294 6.91294 6.95548 6.95548 6.95548 6.58704 6.58704 6.58704 8.16321 8.16321 8.16321 9.14696 9.14696 9.14696 4.6103 4.6103 4.6103 9.67561 9.67561 9.67561 8.73633 8.73633 8.73633 6.49419 6.49419 6.49419 5.19279 5.19279 5.19279 3.84087 3.84087 3.84087 5.10799 5.10799 5.10799 0.463216 0.463216 0.463216 0.102641 0.102641 0.102641 2.00275 2.00275 2.00275 0.651028 0.651028 0.651028 3.36293 3.36293 3.36293 5.31787 5.31787 5.31787 4.434 4.434 4.434 4.61626 4.61626 4.61626 5.19363 5.19363 5.19363 5.58897 5.58897 5.58897 0.680418 0.680418 0.680418 4.95164 4.95164 4.95164 8.51881 8.51881 8.51881 6.86883 6.86883 6.86883 5.42213 5.42213 5.42213 4.22783 4.22783 4.22783 4.44631 4.44631 4.44631 7.30416 7.30416 7.30416 6.17388 6.17388 6.17388 9.9951 9.9951 9.9951 7.58916 7.58916 7.58916 6.96885 6.96885 6.96885 5.14042 5.14042 5.14042 6.77398 6.77398 6.77398 5.51846 5.51846 5.51846 6.50228 6.50228 6.50228 6.99043 6.99043 6.99043 5.46989 5.46989 5.46989 6.92756 6.92756 6.92756 8.12677 8.12677 8.12677 7.85267 7.85267 7.85267 6.45871 6.45871 6.45871 6.07483 6.07483 6.07483 7.85563 7.85563 7.85563 2.37035 2.37035 2.37035 6.74697 6.74697 6.74697 8.59082 8.59082 8.59082 5.0457 5.0457 5.0457 6.72502 6.72502 6.72502 10.0387 10.0387 10.0387 5.48556 5.48556 5.48556 0.100039 0.100039 0.100039 5.701 5.701 5.701 0.0445298 0.0445298 0.0445298 0.831793 0.831793 0.831793 5.32493 5.32493 5.32493 5.42852 5.42852 5.42852 9.99928 9.99928 9.99928 5.23254 5.23254 5.23254 9.9754 9.9754 9.9754 5.45081 5.45081 5.45081 4.93121 4.93121 4.93121 7.0015 7.0015 7.0015 2.60669 2.60669 2.60669 3.78471 3.78471 3.78471 9.72829 9.72829 9.72829 7.91098 7.91098 7.91098 7.2036 7.2036 7.2036 6.28745 6.28745 6.28745 7.67649 7.67649 7.67649 0.410992 0.410992 0.410992 7.68339 7.68339 7.68339 6.37641 6.37641 6.37641 1.45027 1.45027 1.45027 9.32754 9.32754 9.32754 9.68362 9.68362 9.68362 5.80421 5.80421 5.80421 5.04174 5.04174 5.04174 5.14991 5.14991 5.14991 3.73991 3.73991 3.73991 5.10715 5.10715 5.10715 4.75608 4.75608 4.75608 3.26777 3.26777 3.26777 6.25595 6.25595 6.25595 5.09517 5.09517 5.09517 5.15454 5.15454 5.15454 5.43595 5.43595 5.43595 5.84953 5.84953 5.84953 5.51487 5.51487 5.51487 6.06544 6.06544 6.06544 6.32984 6.32984 6.32984 6.80164 6.80164 6.80164 4.0731 4.0731 4.0731 6.70597 6.70597 6.70597 6.25167 6.25167 6.25167 7.00856 7.00856 7.00856 4.31827 4.31827 4.31827 7.45036 7.45036 7.45036 2.78814 2.78814 2.78814 9.57312 9.57312 9.57312 4.1498 4.1498 4.1498 9.99084 9.99084 9.99084 5.95583 5.95583 5.95583 6.64859 6.64859 6.64859 6.93302 6.93302 6.93302 4.40083 4.40083 4.40083 0.212036 0.212036 0.212036 7.46597 7.46597 7.46597 0.643156 0.643156 0.643156 5.32182 5.32182 5.32182 5.31836 5.31836 5.31836 8.88278 8.88278 8.88278 5.1687 5.1687 5.1687 9.55388 9.55388 9.55388 6.91256 6.91256 6.91256 0.924526 0.924526 0.924526 1.87457 1.87457 1.87457 7.6771 7.6771 7.6771 10.0356 10.0356 10.0356 9.84342 9.84342 9.84342 9.71906 9.71906 9.71906 10.0336 10.0336 10.0336 6.66932 6.66932 6.66932 7.27885 7.27885 7.27885 4.30227 4.30227 4.30227 5.15717 5.15717 5.15717 5.14936 5.14936 5.14936 5.61304 5.61304 5.61304 6.94519 6.94519 6.94519 10.1031 10.1031 10.1031 4.67078 4.67078 4.67078 4.36044 4.36044 4.36044 7.09205 7.09205 7.09205 7.05062 7.05062 7.05062 9.61167 9.61167 9.61167 5.36866 5.36866 5.36866 0.302982 0.302982 0.302982 1.64727 1.64727 1.64727 4.68005 4.68005 4.68005 1.92554 1.92554 1.92554 0.347803 0.347803 0.347803 10.1359 10.1359 10.1359 5.29685 5.29685 5.29685 5.66912 5.66912 5.66912 4.83572 4.83572 4.83572 0.147774 0.147774 0.147774 4.80168 4.80168 4.80168 4.541 4.541 4.541 4.41738 4.41738 4.41738 9.3129 9.3129 9.3129 9.88625 9.88625 9.88625 5.88769 5.88769 5.88769 5.4076 5.4076 5.4076 4.2919 4.2919 4.2919 6.15553 6.15553 6.15553 4.49362 4.49362 4.49362 6.95763 6.95763 6.95763 1.26352 1.26352 1.26352 4.4084 4.4084 4.4084 1.75456 1.75456 1.75456 5.29875 5.29875 5.29875 0.325944 0.325944 0.325944 5.47372 5.47372 5.47372 9.9496 9.9496 9.9496 4.30009 4.30009 4.30009 2.67998 2.67998 2.67998 6.22974 6.22974 6.22974 0.974147 0.974147 0.974147 6.93758 6.93758 6.93758 6.5484 6.5484 6.5484 6.2355 6.2355 6.2355 5.56506 5.56506 5.56506 4.40506 4.40506 4.40506 4.36223 4.36223 4.36223 6.44369 6.44369 6.44369 7.20103 7.20103 7.20103 5.35619 5.35619 5.35619 9.0866 9.0866 9.0866 -0.216864 -0.216864 -0.216864 6.39922 6.39922 6.39922 6.97308 6.97308 6.97308 6.11585 6.11585 6.11585 6.73898 6.73898 6.73898 5.50875 5.50875 5.50875 6.88025 6.88025 6.88025 8.5624 8.5624 8.5624 4.7612 4.7612 4.7612 5.00503 5.00503 5.00503 4.55326 4.55326 4.55326 9.78107 9.78107 9.78107 7.12122 7.12122 7.12122 7.88986 7.88986 7.88986 9.76613 9.76613 9.76613 0.382965 0.382965 0.382965 -0.00842736 -0.00842736 -0.00842736 8.1204 8.1204 8.1204 0.0127789 0.0127789 0.0127789 9.46456 9.46456 9.46456 0.250683 0.250683 0.250683 9.30948 9.30948 9.30948 7.83371 7.83371 7.83371 6.9432 6.9432 6.9432 6.89032 6.89032 6.89032 7.82963 7.82963 7.82963 0.100184 0.100184 0.100184 9.79677 9.79677 9.79677 2.16561 2.16561 2.16561 0.726426 0.726426 0.726426 4.58346 4.58346 4.58346 1.33137 1.33137 1.33137 3.92377 3.92377 3.92377 8.38993 8.38993 8.38993 7.68324 7.68324 7.68324 5.4043 5.4043 5.4043 3.73269 3.73269 3.73269 6.98931 6.98931 6.98931 0.17582 0.17582 0.17582 6.70079 6.70079 6.70079 6.99562 6.99562 6.99562 8.61112 8.61112 8.61112 6.8606 6.8606 6.8606 6.95028 6.95028 6.95028 9.44919 9.44919 9.44919 9.70176 9.70176 9.70176 7.41177 7.41177 7.41177 9.83281 9.83281 9.83281 -0.0540156 -0.0540156 -0.0540156 5.18604 5.18604 5.18604 9.96933 9.96933 9.96933 9.8914 9.8914 9.8914 5.66563 5.66563 5.66563 10.0265 10.0265 10.0265 5.67479 5.67479 5.67479 -0.070546 -0.070546 -0.070546 6.71754 6.71754 6.71754 0.215194 0.215194 0.215194 4.28939 4.28939 4.28939 5.16567 5.16567 5.16567 2.77805 2.77805 2.77805 7.03796 7.03796 7.03796 6.77018 6.77018 6.77018 9.9451 9.9451 9.9451 8.17672 8.17672 8.17672 8.30647 8.30647 8.30647 6.15362 6.15362 6.15362 9.74106 9.74106 9.74106 6.91017 6.91017 6.91017 0.153603 0.153603 0.153603 0.076173 0.076173 0.076173 0.36952 0.36952 0.36952 -0.117798 -0.117798 -0.117798 6.49877 6.49877 6.49877 1.16296 1.16296 1.16296 4.98149 4.98149 4.98149 10.0757 10.0757 10.0757 6.66991 6.66991 6.66991 -0.0816705 -0.0816705 -0.0816705 9.15205 9.15205 9.15205 6.5764 6.5764 6.5764 2.38456 2.38456 2.38456 9.84708 9.84708 9.84708 9.94286 9.94286 9.94286 4.24727 4.24727 4.24727 6.89539 6.89539 6.89539 4.37289 4.37289 4.37289 6.90616 6.90616 6.90616 7.77048 7.77048 7.77048 -0.137386 -0.137386 -0.137386 6.23977 6.23977 6.23977 1.0737 1.0737 1.0737 5.4874 5.4874 5.4874 7.00638 7.00638 7.00638 4.36336 4.36336 4.36336 3.00487 3.00487 3.00487 5.09887 5.09887 5.09887 5.56892 5.56892 5.56892 9.12364 9.12364 9.12364 10.1038 10.1038 10.1038 9.56422 9.56422 9.56422 5.89139 5.89139 5.89139 5.90121 5.90121 5.90121 6.89807 6.89807 6.89807 -0.0536682 -0.0536682 -0.0536682 9.65184 9.65184 9.65184 0.253224 0.253224 0.253224 9.85535 9.85535 9.85535 5.39347 5.39347 5.39347 -0.114872 -0.114872 -0.114872 6.84033 6.84033 6.84033 5.41592 5.41592 5.41592 -0.20167 -0.20167 -0.20167 9.89807 9.89807 9.89807 5.15797 5.15797 5.15797 0.16765 0.16765 0.16765 0.257815 0.257815 0.257815 7.53205 7.53205 7.53205 4.69067 4.69067 4.69067 5.26748 5.26748 5.26748 5.41357 5.41357 5.41357 7.71708 7.71708 7.71708 9.35818 9.35818 9.35818 2.42568 2.42568 2.42568 4.47196 4.47196 4.47196 8.40602 8.40602 8.40602 9.18677 9.18677 9.18677 6.72919 6.72919 6.72919 5.24024 5.24024 5.24024 6.06035 6.06035 6.06035 4.92718 4.92718 4.92718 5.59642 5.59642 5.59642 6.07072 6.07072 6.07072 4.67809 4.67809 4.67809 9.2976 9.2976 9.2976 9.92341 9.92341 9.92341 10.0068 10.0068 10.0068 6.60836 6.60836 6.60836 9.85064 9.85064 9.85064 3.52178 3.52178 3.52178 3.44071 3.44071 3.44071 4.86508 4.86508 4.86508 6.59885 6.59885 6.59885 9.34044 9.34044 9.34044 4.93901 4.93901 4.93901 4.94589 4.94589 4.94589 5.14263 5.14263 5.14263 6.65943 6.65943 6.65943 3.15909 3.15909 3.15909 0.0204843 0.0204843 0.0204843 6.79708 6.79708 6.79708 9.95288 9.95288 9.95288 4.86507 4.86507 4.86507 6.84099 6.84099 6.84099 6.70693 6.70693 6.70693 -0.00893155 -0.00893155 -0.00893155 6.39223 6.39223 6.39223 4.09852 4.09852 4.09852 6.88391 6.88391 6.88391 5.63231 5.63231 5.63231 5.41113 5.41113 5.41113 5.29261 5.29261 5.29261 9.6404 9.6404 9.6404 0.920352 0.920352 0.920352 5.26463 5.26463 5.26463 7.547 7.547 7.547 6.2307 6.2307 6.2307 3.11947 3.11947 3.11947 9.85411 9.85411 9.85411 7.99651 7.99651 7.99651 7.02496 7.02496 7.02496 6.98767 6.98767 6.98767 9.99697 9.99697 9.99697 2.94059 2.94059 2.94059 5.23397 5.23397 5.23397 5.49538 5.49538 5.49538 5.83666 5.83666 5.83666 9.92776 9.92776 9.92776 6.63196 6.63196 6.63196 6.14017 6.14017 6.14017 8.1749 8.1749 8.1749 5.28778 5.28778 5.28778 6.01355 6.01355 6.01355 2.38864 2.38864 2.38864 -0.0455001 -0.0455001 -0.0455001 6.90036 6.90036 6.90036 0.042913 0.042913 0.042913 3.74408 3.74408 3.74408 0.0559407 0.0559407 0.0559407 6.80091 6.80091 6.80091 -0.100943 -0.100943 -0.100943 6.94084 6.94084 6.94084 5.77774 5.77774 5.77774 5.15938 5.15938 5.15938 1.90676 1.90676 1.90676 5.77448 5.77448 5.77448 9.70854 9.70854 9.70854 5.36088 5.36088 5.36088 2.93375 2.93375 2.93375 0.100701 0.100701 0.100701 0.0540761 0.0540761 0.0540761 6.03188 6.03188 6.03188 5.72232 5.72232 5.72232 5.39801 5.39801 5.39801 5.54534 5.54534 5.54534 7.04823 7.04823 7.04823 6.89137 6.89137 6.89137 2.25446 2.25446 2.25446 9.28114 9.28114 9.28114 7.21256 7.21256 7.21256 9.55061 9.55061 9.55061 6.1595 6.1595 6.1595 5.46554 5.46554 5.46554 10.2184 10.2184 10.2184 3.65336 3.65336 3.65336 5.88964 5.88964 5.88964 6.1691 6.1691 6.1691 6.80494 6.80494 6.80494 5.10685 5.10685 5.10685 8.78242 8.78242 8.78242 9.80503 9.80503 9.80503 9.64687 9.64687 9.64687 4.82314 4.82314 4.82314 8.67011 8.67011 8.67011 2.68204 2.68204 2.68204 -0.00240944 -0.00240944 -0.00240944 5.15753 5.15753 5.15753 9.8763 9.8763 9.8763 0.0312234 0.0312234 0.0312234 7.71139 7.71139 7.71139 9.10024 9.10024 9.10024 0.175563 0.175563 0.175563 7.48925 7.48925 7.48925 9.59282 9.59282 9.59282 6.98704 6.98704 6.98704 3.91369 3.91369 3.91369 6.34481 6.34481 6.34481 1.01086 1.01086 1.01086 9.9738 9.9738 9.9738 9.8147 9.8147 9.8147 9.99616 9.99616 9.99616 0.218662 0.218662 0.218662 7.36927 7.36927 7.36927 3.87463 3.87463 3.87463 9.83551 9.83551 9.83551 6.61466 6.61466 6.61466 9.31376 9.31376 9.31376 8.66738 8.66738 8.66738 9.72072 9.72072 9.72072 -0.06768 -0.06768 -0.06768 9.7767 9.7767 9.7767 6.68892 6.68892 6.68892 5.41715 5.41715 5.41715 5.6645 5.6645 5.6645 0.0603084 0.0603084 0.0603084 6.77724 6.77724 6.77724 6.61788 6.61788 6.61788 6.73686 6.73686 6.73686 5.43662 5.43662 5.43662 9.97516 9.97516 9.97516 0.000729219 0.000729219 0.000729219 2.6213 2.6213 2.6213 5.42777 5.42777 5.42777 6.68659 6.68659 6.68659 3.47312 3.47312 3.47312 5.49107 5.49107 5.49107 5.66143 5.66143 5.66143 5.38019 5.38019 5.38019 -0.00175521 -0.00175521 -0.00175521 9.97985 9.97985 9.97985 5.80307 5.80307 5.80307 6.12554 6.12554 6.12554 3.47644 3.47644 3.47644 0.953199 0.953199 0.953199 2.52635 2.52635 2.52635 0.927464 0.927464 0.927464 9.59132 9.59132 9.59132 4.4355 4.4355 4.4355 3.76918 3.76918 3.76918 10.0854 10.0854 10.0854 10.0563 10.0563 10.0563 -0.210559 -0.210559 -0.210559 8.20878 8.20878 8.20878 10.0819 10.0819 10.0819 6.83207 6.83207 6.83207 
VECTORS Velocity float 
8.90082e-11 -0.00723916 0 
-0.00441266 -0.0143899 0 
6.55449e-11 0.00171316 0 
-0.00675997 -0.0326727 0 
0.00704267 -0.0320304 0 
-0.00637381 -0.00782943 0 
0.000247688 0.000822128 0 
0.00513744 -0.000977039 0 
0.00409252 -0.00164365 0 
0.00161802 -0.00129032 0 
0.002377 -0.00612318 0 
-0.000499728 0.00039852 0 
0.00255343 -0.000822053 0 
0.00739081 -0.0113784 0 
0.00236265 -0.00632499 0 
0.000803549 -0.00166859 0 
-7.02043e-05 -0.00332677 0 
0.000124671 -0.000258882 0 
0.00188314 -0.00588076 0 
-0.00433428 -0.00826295 0 
0.000360931 -0.00942287 0 
-0.00883151 -0.009301 0 
-0.00337428 -0.010893 0 
-0.0062628 -0.0081085 0 
0.00245137 -0.0109988 0 
0.00240855 -0.0126876 0 
-0.000450386 -0.00831523 0 
0.0134946 -0.01603 0 
0.0217504 -0.0111718 0 
0.00144781 -0.00773395 0 
0.00421521 -0.0019605 0 
0.00365909 -0.00956176 0 
0.000132234 0.0011203 0 
0.000311715 -0.00947801 0 
-0.00436265 -0.00829473 0 
-0.0010568 -0.00458794 0 
0.000603439 0.000320102 0 
0.00105739 0.000587616 0 
-0.00424369 -0.00517462 0 
0.00389571 -0.00654989 0 
-0.000422036 -0.00671677 0 
5.85306e-05 -0.00956749 0 
-0.00196828 0.000408092 0 
0.000602439 -0.00471905 0 
-0.00422125 0.000377983 0 
0.000133715 -0.00306034 0 
-0.00466849 -0.00689094 0 
-0.00303351 -0.00632745 0 
4.87502e-12 -0.00741625 0 
-0.0043745 -0.00611025 0 
-7.5905e-13 0.00407163 0 
-0.00359594 -0.00707495 0 
-0.0042581 -0.00634551 0 
-0.00217893 -0.00460507 0 
-0.00725674 -0.0274705 0 
-0.00640274 -0.0348145 0 
-0.00893042 -0.023431 0 
-0.00345472 -0.0359106 0 
-0.00580175 -0.027331 0 
0.00311683 -0.0272996 0 
0.00351049 -0.00563776 0 
-0.000709566 -0.000623818 0 
-0.000159342 0.000833814 0 
9.93323e-05 7.92149e-05 0 
-0.000487638 -0.00464367 0 
-0.00282949 -0.00225645 0 
2.86561e-11 -0.00762533 0 
-0.000986821 -0.0172231 0 
2.3471e-11 -0.0068896 0 
-0.00938999 -0.0303419 0 
-0.0049926 -0.0275929 0 
-0.00468456 -0.0355125 0 
0.00279252 -0.000634288 0 
1.44471e-06 -0.0121453 0 
-0.00666992 -0.00526412 0 
-0.00550482 -0.0195621 0 
-0.00399387 -0.022146 0 
-0.00796166 -0.0224466 0 
0.000110869 -0.00791817 0 
0.000430587 -0.00100747 0 
0.00246454 -0.0052858 0 
-0.00278217 -0.00454356 0 
0.00575696 -0.0208827 0 
0.000934604 -0.0236736 0 
0.0157972 -0.00939722 0 
0.0143348 -0.00949024 0 
0.0154232 -0.0144091 0 
-0.00501922 -0.0173676 0 
0.000874245 -0.0210997 0 
-0.00711999 -0.0283343 0 
0.00101254 -0.00884117 0 
0.0056337 -0.0109102 0 
-0.00168122 -0.0119451 0 
-0.00204452 -0.00191359 0 
0.00349459 -0.0182411 0 
0.00328837 -0.0213579 0 
9.99065e-11 0.00360816 0 
0.00446321 -0.00955999 0 
9.3417e-11 -0.00767322 0 
-0.00359205 -0.0351698 0 
-0.00776843 -0.0356558 0 
-0.012751 -0.0229481 0 
0.0198088 -0.0100812 0 
0.0154387 -0.011787 0 
0.0152987 -0.00803032 0 
0.00134277 -0.0182744 0 
0.00640053 -0.0164065 0 
0.00934349 -0.0144063 0 
0.0140003 -0.00429021 0 
0.0207928 -0.0125108 0 
0.0121318 -0.0128905 0 
-0.00895647 -0.00627593 0 
-0.00254928 -0.00511946 0 
-0.00333779 -0.0117762 0 
0.0022943 -0.00893124 0 
-0.00932852 -0.0201108 0 
-0.00544307 -0.0192647 0 
0.0174432 -0.0102343 0 
0.0133941 -0.0133772 0 
0.0110926 -0.00816374 0 
0.00803649 -0.0250676 0 
0.00901743 -0.0435012 0 
-0.00815393 -0.0380427 0 
-0.000311044 -0.00300005 0 
0.00560431 -0.00746594 0 
-0.00154483 -0.00870786 0 
-0.00685285 -0.0126846 0 
-0.00621628 -0.0161995 0 
-0.0108514 -0.0224243 0 
-0.0112067 -0.00560314 0 
-0.00684533 -0.00451811 0 
-0.0131373 -0.0106611 0 
0.00662194 -0.00057337 0 
0.0225704 -0.0128172 0 
0.0119418 -0.00393539 0 
-0.00173804 -0.0192974 0 
-0.00303484 -0.00772526 0 
0.00187878 -0.00341185 0 
-0.00391066 -0.0207032 0 
-0.00402505 -0.0173719 0 
0.000622675 -0.0196714 0 
-0.00432026 -0.0141974 0 
0.00443238 -0.00931822 0 
0.000205722 -0.0241319 0 
0.00204111 -0.000147215 0 
-0.000259394 -0.00333779 0 
0.00236855 -0.000225817 0 
-0.000450913 -0.00922171 0 
-0.00294329 -0.011531 0 
-0.0042992 -0.00693867 0 
-0.00830696 -0.00132714 0 
-0.0144171 -0.0249946 0 
-0.00761613 -0.0378323 0 
-0.00124847 0.00193939 0 
0.00425766 -0.00991685 0 
0.00157971 -0.0101197 0 
-0.000643393 -0.0189051 0 
0.00685438 -0.0134639 0 
-0.00241316 -0.00928392 0 
0.0165029 -0.00824294 0 
0.0133923 -0.0190362 0 
0.0137294 -0.0153836 0 
0.000710593 -0.000566679 0 
0.0219714 -0.0133204 0 
0.00374703 -0.00298816 0 
0.0113149 -0.0362495 0 
-0.000659217 -0.00758532 0 
0.00538022 -0.00249521 0 
-0.00364183 -0.00715246 0 
-0.0131044 -0.00700044 0 
-0.00151663 0.00176672 0 
-0.00146943 -0.00553778 0 
0.000870523 -0.00304268 0 
0.000117553 -0.00587296 0 
0.00901535 -0.0144223 0 
0.006485 -0.0164024 0 
0.0131055 -0.0130016 0 
0.00112486 -0.00511318 0 
0.000873452 -0.00696235 0 
0.00117356 -0.000317138 0 
-0.00788528 -0.0224759 0 
-0.00438965 -0.0219939 0 
-0.00598179 -0.0250042 0 
0.00190915 -0.00651 0 
0.000536857 -0.0141977 0 
-0.00722452 -0.0117909 0 
0.000317833 -0.00167679 0 
-0.00430916 -0.0171513 0 
-0.000973768 -0.0133628 0 
-5.69675e-11 -0.00211739 0 
0.000187047 -0.0243255 0 
-7.07133e-11 -0.00240435 0 
0.0128595 -0.0373637 0 
0.00983826 -0.0373837 0 
0.00669483 -0.00148551 0 
-0.000763969 -0.00415687 0 
-0.00425824 -0.00805359 0 
0.000120762 -0.00302363 0 
-0.0069335 -0.00581479 0 
-0.00885154 -0.0135151 0 
-0.0139133 -0.00888983 0 
0.0132258 -0.0107466 0 
0.0165111 -0.0120928 0 
0.0188597 -0.00981052 0 
-0.0115512 -0.00684465 0 
-0.0127239 -0.00917165 0 
-0.014606 -0.00884889 0 
0.0011064 -0.0133687 0 
0.00527129 -0.0182091 0 
0.00908711 -0.0158355 0 
0.00382014 -0.00933759 0 
0.00334525 -0.00866374 0 
0.0063495 -0.00778084 0 
-0.0132227 -0.00979512 0 
-0.0114704 -0.00586737 0 
-0.00759583 -0.00494662 0 
0.00762788 -0.0200326 0 
0.00537943 -0.0271236 0 
0.000167453 -0.0173429 0 
0.000907127 -0.0128516 0 
-0.00421403 -0.0103325 0 
0.000423909 -0.00639861 0 
0.00423751 -0.0239001 0 
0.000519457 -0.025254 0 
-0.000240135 -0.0212352 0 
-0.00713589 -0.0120502 0 
-0.00567113 -0.00482174 0 
0.00186245 -0.00637341 0 
0.00254441 -0.00609336 0 
0.00939769 -0.0152881 0 
0.00710156 -0.0113678 0 
0.00455887 -0.0121173 0 
0.00237741 -0.00648665 0 
0.00161852 -0.00173512 0 
0.00956443 -0.00913157 0 
0.00811412 -0.0206384 0 
-0.000342617 -0.0118734 0 
-0.000247747 -0.00467426 0 
0.00135144 -0.00462076 0 
8.59648e-05 -0.00540114 0 
0.0168387 -0.00710732 0 
0.0156065 -0.0109877 0 
0.0181547 -0.0110726 0 
0.00315609 -0.00247623 0 
-0.00255438 -0.00489326 0 
0.000106721 0.000474425 0 
0.00151582 0.00231442 0 
0.015298 -0.00822371 0 
0.0105199 -0.0082304 0 
0.00371687 0.000848351 0 
-0.00262859 -0.0123832 0 
-0.00795925 -0.00181665 0 
-0.00528453 -0.0197607 0 
-0.00437117 -0.00648951 0 
-0.000623951 -0.0203276 0 
0.000562236 0.00139934 0 
0.00102882 -0.000630985 0 
-0.00270098 -0.00642571 0 
-0.000560884 -0.0097457 0 
0.0012958 -0.00622255 0 
0.000225998 -0.00946652 0 
-0.00170443 -0.0038668 0 
0.000568289 -0.000998699 0 
0.00121201 -0.0017474 0 
0.00548827 -0.0183697 0 
0.0090654 -0.0170068 0 
0.00898056 -0.0157566 0 
0.0120537 -0.0150152 0 
0.0156594 -0.00804739 0 
0.0229758 -0.0120348 0 
6.73213e-11 8.4983e-06 0 
0.00183422 -0.0227249 0 
6.08342e-11 -0.00252365 0 
-0.00487641 -0.0191611 0 
-0.000314348 -0.0187987 0 
-0.00464006 -0.0225584 0 
0.000427014 -0.0111392 0 
-0.00441557 -0.0143941 0 
-0.00185558 -0.00993747 0 
-0.00391713 -0.0104888 0 
-0.01081 -0.0116275 0 
-0.0110413 -0.00705858 0 
-0.000612849 -0.0112166 0 
-0.00644767 -0.017405 0 
-0.00638597 -0.0102524 0 
-0.00425186 -0.0108441 0 
-0.0037137 -0.0176595 0 
-0.00637661 -0.0167056 0 
0.00184229 -0.000861905 0 
0.00608608 -0.00409208 0 
0.0032373 0.000776777 0 
-0.00305268 -0.00267863 0 
-0.0044994 -0.00627396 0 
-0.00260572 -0.0108318 0 
0.000400762 9.14713e-05 0 
-0.0125768 -0.0074614 0 
-0.00419473 -0.000957421 0 
0.00319275 -0.0072325 0 
0.00259655 -0.00713978 0 
0.00656436 -0.0112556 0 
-0.000989489 -0.0153928 0 
0.00708452 -0.0162976 0 
0.00479573 -0.00511085 0 
-0.00702921 -0.00998828 0 
-0.0156472 -0.0236629 0 
-0.00579376 -0.00404793 0 
0.00447414 -0.0143609 0 
0.00998513 -0.0155776 0 
0.000700832 -0.0141227 0 
0.00335035 -0.0218481 0 
0.00339786 -0.0174761 0 
0.00584448 -0.0180148 0 
5.45422e-11 -0.00195354 0 
-0.000118428 -0.012618 0 
5.13458e-11 -0.00179064 0 
-0.0137867 -0.00954294 0 
-0.00612947 -0.00575072 0 
-0.00701726 -0.0118097 0 
-0.00341775 -0.0197541 0 
-0.00198047 -0.00861398 0 
0.00150468 -0.01153 0 
4.11687e-11 -0.00196379 0 
-0.000799368 -0.00899722 0 
3.61266e-11 -0.000205263 0 
-0.00208179 -0.0261814 0 
-0.0031206 -0.0194533 0 
0.00125213 -0.0117857 0 
-0.00937506 -0.0238648 0 
-0.0131182 -0.0230771 0 
-0.00911986 -0.0104726 0 
-0.00939764 -0.0227386 0 
-0.00744988 -0.0204657 0 
-0.00682297 -0.0281133 0 
0.00161868 -0.00269849 0 
0.00381471 -0.00863202 0 
0.002268 -0.00609968 0 
0.00289209 -0.000507155 0 
0.00301116 -0.0131257 0 
7.99873e-05 -0.0120451 0 
0.0050594 -0.00444107 0 
0.0157283 -0.0200195 0 
0.0150073 -0.00761341 0 
-0.00656004 -0.00907548 0 
-0.00622283 -0.00442081 0 
-0.00503221 -0.0072086 0 
0.00252891 0.000577208 0 
0.00487866 -0.00157453 0 
-0.000120266 -2.74498e-05 0 
-0.000774562 -0.00064126 0 
-0.00045464 -0.00204795 0 
0.00127258 -0.00655273 0 
0.00473608 -0.0118149 0 
0.00516106 -0.0226039 0 
0.00121302 -0.0165029 0 
0.00243069 -0.0340221 0 
0.0141159 -0.0260952 0 
0.012182 -0.0398943 0 
-0.00185487 -0.0223071 0 
-0.00307954 -0.0296509 0 
-0.00498591 -0.0273901 0 
-0.000859282 -0.0158593 0 
-0.00102305 -0.0105933 0 
0.00058292 -0.00881194 0 
0.00160919 -0.0171442 0 
0.00522175 -0.0227021 0 
-0.00230797 -0.0237523 0 
-0.00410197 -0.00475825 0 
-0.00179745 -0.0118743 0 
-0.00714126 -0.0106065 0 
0.00846407 -0.0142305 0 
0.00498447 -0.036689 0 
0.0111365 -0.0456884 0 
0.013649 -0.0143937 0 
0.0135158 -0.0205576 0 
0.0076398 -0.0188137 0 
0.0121118 -0.040054 0 
0.00701061 -0.0358836 0 
0.00241166 -0.0340654 0 
-0.000762161 -0.000173958 0 
-0.0162159 -0.00686114 0 
-0.00400664 -0.00091449 0 
0.00040544 0.000323327 0 
-0.00233898 -0.00500222 0 
-0.00132832 -0.0010593 0 
0.0084143 -0.0133817 0 
-0.00538021 -0.0101271 0 
0.00399879 0.000617193 0 
-0.00175419 -0.0046669 0 
-0.00118926 0.000129428 0 
-6.99923e-05 -0.00491591 0 
0.00439895 -0.00716454 0 
0.00633539 -0.00899358 0 
0.00359386 -0.010619 0 
0.00439151 -0.00858053 0 
0.00590604 -0.0100908 0 
0.0048548 -0.00822315 0 
0.0125091 -0.0103062 0 
0.00964115 -0.0184259 0 
0.00822784 -0.0155236 0 
-0.00126677 -0.00774826 0 
-0.00184509 -0.00438381 0 
0.00260905 -0.00286915 0 
0.00659346 -0.0117019 0 
0.00743015 -0.0140348 0 
-0.00200094 -0.017559 0 
-0.000971612 -0.0127743 0 
-0.00173569 -0.0100682 0 
-0.00435734 -0.0100551 0 
0.00911306 -0.00812731 0 
0.00978215 -0.00942216 0 
0.00815161 -0.00947846 0 
0.00150561 0.00239621 0 
0.0105503 -0.00847436 0 
-0.00181808 -0.012857 0 
0.00196197 -0.0229855 0 
-0.00399729 -0.0344686 0 
-0.0024165 -0.0251415 0 
-0.00465383 -0.0181057 0 
-0.00954685 -0.0204314 0 
-0.0046548 -0.00839581 0 
0.00673586 -0.019295 0 
0.0135511 -0.0205388 0 
0.0108528 -0.0242334 0 
-9.19318e-05 -0.0241408 0 
-0.00437897 -0.0213192 0 
0.00170424 -0.00353281 0 
0.0160436 -0.0109078 0 
0.0120529 -0.00770171 0 
0.0143558 -0.00719067 0 
-0.00480727 -0.0108608 0 
-0.00695579 -0.016723 0 
-0.000320655 -0.0116088 0 
-0.00324669 -0.00691554 0 
-0.000247612 -0.00690482 0 
-0.00119922 -0.00683567 0 
0.000128496 -0.0127427 0 
0.00303776 -0.0135082 0 
0.000260045 -0.0019219 0 
0.00434794 -0.00346737 0 
0.00763251 -0.0130483 0 
-0.000266619 0.000212622 0 
0.00242738 -0.00640216 0 
0.00212644 -0.0172299 0 
0.000142576 -0.00696564 0 
0.00128556 -0.0160316 0 
0.00231126 -0.00640862 0 
0.00466945 -0.0122477 0 
0.00689613 -0.0126493 0 
0.00936738 -0.0139814 0 
0.00722258 -0.0131686 0 
0.00818586 -0.00710391 0 
0.00474829 -0.00134609 0 
0.00358826 -0.00127902 0 
0.000621648 -0.0196705 0 
-0.00358228 -0.0177722 0 
-0.000176577 -0.0165514 0 
-0.00708483 -0.0227216 0 
-0.00719096 -0.0198769 0 
-0.00465702 -0.0128608 0 
-0.00313413 -0.0134891 0 
0.0141848 -0.0404556 0 
0.0137352 -0.0357015 0 
0.00829509 -0.0143114 0 
0.0117332 -0.0454027 0 
0.00621884 -0.0237949 0 
0.00142332 -0.00295556 0 
0.0121255 -0.0195698 0 
0.00281337 -0.00584202 0 
0.00424029 -0.018527 0 
0.00758174 -0.013159 0 
0.00249298 -0.00751144 0 
-0.000137127 -0.0192228 0 
0.00635313 -0.016491 0 
0.00136104 -0.0182418 0 
0.00784971 -0.0179332 0 
0.00507262 -0.017675 0 
0.00430869 -0.014612 0 
0.00445645 -0.00820842 0 
0.00482166 -0.00906742 0 
-0.00405915 -0.00196973 0 
-0.000234902 0.000955171 0 
0.0030823 -0.00271879 0 
-0.00440929 -0.00596829 0 
0.00750302 -0.00863802 0 
0.0105453 -0.010411 0 
0.00534054 -0.00836119 0 
-0.00671159 -0.0331375 0 
0.00120206 -0.0344015 0 
0.00700145 -0.0316345 0 
-0.00376742 -0.0123293 0 
-0.00835218 -0.0205707 0 
-0.00365211 -0.00942402 0 
4.18422e-05 -0.010565 0 
0.000845051 -0.0090236 0 
0.0017004 -0.0133642 0 
0.00101108 -0.0134481 0 
0.00951286 -0.0166046 0 
0.00583359 -0.0162638 0 
-0.00913137 -0.0219012 0 
-0.00753519 -0.0166006 0 
-0.00406039 -0.0222761 0 
0.00287193 -0.00552761 0 
-0.00405536 -0.00232818 0 
-7.5953e-05 0.00090847 0 
0.00524264 -0.00983004 0 
0.00457172 -0.00780756 0 
0.00110347 0.00130837 0 
0.00253665 -0.022285 0 
-0.00316115 -0.0260491 0 
0.00236965 -0.0119227 0 
0.0054173 -0.00876721 0 
0.00408095 -0.0116968 0 
0.00194375 -0.00916425 0 
0.000177779 -0.0171542 0 
1.2001e-05 -0.0174191 0 
-0.00356656 -0.0226502 0 
0.00456406 -0.00782236 0 
-0.00354823 -0.0059337 0 
0.00134242 0.00176987 0 
0.0011011 -0.00180768 0 
-0.000637388 -0.00407602 0 
-1.18609e-05 -0.000641336 0 
4.28078e-06 -0.00639829 0 
-0.000706062 -0.00741411 0 
-0.00219574 -0.00468527 0 
-0.0026376 -0.00390808 0 
0.00171784 -0.00693276 0 
0.00236115 -0.0150816 0 
0.000448937 -0.00281375 0 
0.000898685 -0.00674994 0 
-0.00029395 -0.0101822 0 
0.011411 -0.0072881 0 
0.00661138 -0.00085364 0 
0.0145056 -0.00728717 0 
0.00031482 -0.0076962 0 
-0.00302995 -0.00944294 0 
-0.00407166 -0.00644666 0 
-0.0024507 -0.00198977 0 
0.00433689 -0.00853649 0 
0.0126345 -0.0127655 0 
-6.48809e-05 -0.00162678 0 
-0.000580241 -0.00301386 0 
-0.0011705 -0.00105385 0 
0.0004687 -0.0118607 0 
0.00458077 -0.0240963 0 
-1.89554e-05 -0.00748758 0 
-0.000481045 -0.0124462 0 
0.00769848 -0.0137394 0 
-0.00120184 -0.0162776 0 
-0.0010137 -0.0094164 0 
-0.00396357 -0.0173029 0 
-0.00456124 -0.0104025 0 
-0.0020046 -0.0264222 0 
-0.00460165 -0.0325894 0 
-0.00788044 -0.0282411 0 
0.000176209 -0.0218915 0 
-0.00324273 -0.00900282 0 
0.000744032 -0.00238517 0 
-0.00191077 -0.0216808 0 
0.000523563 -0.0177045 0 
-0.00392997 -0.00624031 0 
0.00118403 -0.000944236 0 
0.00192463 -0.00383462 0 
-0.000730117 0.000582249 0 
-0.00111819 -0.00456765 0 
-1.84385e-05 -0.00527735 0 
-0.0009394 -0.0065013 0 
-0.000635446 -0.0201699 0 
-0.00352732 -0.0277885 0 
-0.00523678 -0.0204162 0 
-0.00570963 -0.0336567 0 
-0.0149805 -0.0262285 0 
-0.00890243 -0.0312246 0 
0.0089289 -0.00899751 0 
0.0157173 -0.0120871 0 
0.0091663 -0.01749 0 
1.42567e-05 -0.0105395 0 
0.00171873 -0.0133811 0 
-1.40536e-06 -0.0144072 0 
-0.000339181 -7.74158e-05 0 
-0.00133912 -0.000305644 0 
-0.00390315 1.71248e-05 0 
0.00399787 -0.0140672 0 
0.000401326 -0.0141015 0 
0.0021898 -0.0135135 0 
0.00428261 -0.00290374 0 
0.006574 -0.00163352 0 
0.0114053 -0.00740649 0 
0.00406878 -0.0163108 0 
0.0044107 -0.0211661 0 
-0.000983941 -0.00416499 0 
-0.00181125 0.000561669 0 
0.00340688 -0.0038064 0 
0.000482973 -0.00483589 0 
-0.0026318 -0.0240238 0 
0.00959419 -0.0407652 0 
0.00168345 -0.0131643 0 
0.00988606 -0.0138084 0 
0.00824996 -0.0154674 0 
0.00671135 -0.013339 0 
-9.69799e-11 -0.00104408 0 
-0.000287836 -0.0233501 0 
-1.00283e-10 -0.000647191 0 
-0.00665678 -0.00584439 0 
0.00237924 -0.0031604 0 
-0.00366081 -0.0127382 0 
0.00623753 -0.0116344 0 
0.0093974 -0.00698031 0 
0.00130308 -0.00716798 0 
0.00497453 -0.0145551 0 
0.00501277 -0.0140851 0 
-0.0021067 -0.00901034 0 
0.0110303 -0.0460496 0 
0.00505843 -0.0364374 0 
0.0138034 -0.0395741 0 
0.00300008 0.000125619 0 
-0.00518553 -0.0050435 0 
-0.00212731 -0.00670495 0 
-0.00186767 -0.0162097 0 
-0.000364335 -0.00316012 0 
0.00656419 -0.0119982 0 
-0.000536104 -0.0254305 0 
0.000881641 -0.00764195 0 
0.00868998 -0.036153 0 
0.00378506 0.00100017 0 
0.004763 -0.00463168 0 
0.00216388 -0.00130177 0 
-0.00051534 -0.00107011 0 
-0.00573472 -0.0167674 0 
-0.001661 -0.0034491 0 
0.00231696 0.00184771 0 
-0.0108968 -0.0224744 0 
-0.00583314 -0.00465177 0 
0.000541477 0.000123589 0 
-0.0118951 -0.00587174 0 
-0.00279043 -0.000636898 0 
0.0037619 -0.00716157 0 
-0.00355506 -0.00667742 0 
-0.00162785 0.00115779 0 
-0.000480405 -0.000997571 0 
-0.00613852 -0.0144297 0 
-0.00086523 -0.00179667 0 
0.00117079 0.00243118 0 
0.000762197 -0.012331 0 
-0.00204343 -0.00424323 0 
0.000314577 0.000653227 0 
-0.00342143 -0.0137044 0 
-0.00112005 -0.00232582 0 
0.00179556 -0.00143191 0 
0.00222104 -0.00643597 0 
-0.00143844 0.00114712 0 
0.00796326 -0.00934358 0 
0.00443462 -0.00470168 0 
0.00753257 -0.00646801 0 
0.00057971 -0.00120378 0 
0.00649055 -0.00936202 0 
0.00146236 -0.00303663 0 
0.00272481 -0.00232289 0 
0.0105628 -0.0117695 0 
0.00757219 -0.00412096 0 
6.35984e-11 -0.000689538 0 
0.00124427 -0.0134584 0 
7.14326e-11 -0.00220027 0 
-0.00749331 -0.00542658 0 
-0.0159208 -0.00550688 0 
-0.00538032 -0.000166871 0 
-0.00427421 -0.00122167 0 
-0.00740105 -0.0106062 0 
-0.00575675 -0.0144071 0 
-0.000439545 0.000912725 0 
0.0127014 -0.012669 0 
0.0025544 -0.00530428 0 
0.00108552 0.000865671 0 
-0.00637235 -0.0116361 0 
-0.00383796 -0.00306067 0 
-0.000729434 -0.000581704 0 
-0.0115073 -0.0106816 0 
-0.00180531 -0.00143968 0 
0.00203807 0.00162531 0 
-0.00502501 -0.0169945 0 
-0.00589021 -0.00469728 0 
-0.0116045 -0.0104377 0 
-0.0105364 -0.0165463 0 
-0.00846841 -0.0174644 0 
0.000901049 0.000718562 0 
0.00166216 -0.00155357 0 
-0.00113108 -0.00090201 0 
0.0095849 -0.0122151 0 
0.00822499 -0.0183987 0 
0.0101077 -0.0156269 0 
0.00176453 0.00208016 0 
0.00884368 -0.00784057 0 
-0.00314445 -0.0105038 0 
0.00957775 -0.0115523 0 
0.0102934 -0.0109668 0 
0.00801045 -0.00421761 0 
0.00478505 0.00109216 0 
0.0085641 -0.00529647 0 
-0.00331468 -0.000756554 0 
-0.0115531 -0.0103989 0 
-0.00871645 -0.0176514 0 
-0.00126776 -0.00475229 0 
-0.0105029 -0.0167477 0 
-0.00774491 -0.0225444 0 
-0.0084927 -0.0173185 0 
0.00281925 -0.00585424 0 
0.00330821 -0.0230093 0 
-0.000798468 0.00165803 0 
0.00159277 0.00330742 0 
-0.00248317 -0.0249261 0 
-0.00316951 -0.00658155 0 
0.000701236 0.000160053 0 
0.00038319 -0.00131136 0 
-0.000995562 -0.000227231 0 
0.00110621 -0.0133734 0 
0.00905529 -0.0166324 0 
0.00299733 -0.0040465 0 
0.0106473 -0.0105805 0 
0.0077298 -0.00659962 0 
0.00743938 -0.00484093 0 
0.0043144 -0.0110786 0 
0.0068606 -0.0126221 0 
0.0069122 -0.0129312 0 
-0.00778209 -0.0223914 0 
-0.00645097 -0.0253886 0 
-0.00724488 -0.0228597 0 
0.00350532 -0.00727887 0 
0.0137296 -0.0409753 0 
0.00075294 -0.0015635 0 
0.000783096 0.000624498 0 
0.00199152 -0.000695461 0 
-0.000914774 -0.000729508 0 
-0.010625 -0.0163511 0 
-0.00739737 -0.0122132 0 
-0.00511393 -0.0191586 0 
0.00222356 -0.00967261 0 
0.00687009 -0.0106609 0 
0.00704153 -0.0128758 0 
5.34196e-11 -0.00214501 0 
0.000170631 -0.0160626 0 
5.89602e-11 -0.00234204 0 
0.00528265 0.00120573 0 
0.0123345 -0.00445705 0 
-0.00259058 -0.000591282 0 
-0.00775399 -0.0225412 0 
-0.00736913 -0.0221973 0 
-0.00820544 -0.0174171 0 
-0.00555967 -0.0256528 0 
-0.00683504 -0.0270858 0 
-0.00806035 -0.0226179 0 
0.00953897 -0.0103374 0 
0.00764525 -0.00841403 0 
0.00776447 -0.00714584 0 
0.00816411 -0.0184083 0 
0.00428842 -0.0188164 0 
0.00700902 -0.0192244 0 
-0.00373878 -0.0132389 0 
-2.34335e-05 -0.018886 0 
0.000443594 -0.00461927 0 
-0.00136808 0.00175192 0 
-0.00504696 -0.00448998 0 
-0.0068671 -0.0114574 0 
-0.00658636 -0.0098938 0 
-0.00236735 -0.0340582 0 
-0.0031716 -0.00848558 0 
0.00386648 -0.00776897 0 
0.0113084 -0.0242253 0 
0.00940019 -0.0149771 0 
-0.000841613 -0.0207299 0 
0.00791881 -0.0233901 0 
0.00115027 -0.0312721 0 
-0.00424064 -0.0142439 0 
-0.00367416 -0.0224898 0 
0.000683263 -0.0174709 0 
0.00440822 -0.0105692 0 
0.00680606 -0.0135074 0 
0.00407093 -0.00744975 0 
-0.00837904 -0.0113445 0 
-0.000838511 -0.0199897 0 
0.00115052 -0.0312114 0 
0.0031465 -0.000718168 0 
-0.00672166 -0.00464006 0 
-0.00426218 0.000972815 0 
0.00285915 -0.0229853 0 
0.0022779 -0.0117235 0 
0.00358253 0.00142328 0 
0.0102536 -0.0046306 0 
0.00938068 -0.00938455 0 
0.00467516 -0.00534601 0 
0.00278023 -0.00577321 0 
0.0125042 -0.0373075 0 
0.000221803 -0.000460579 0 
-0.000952519 0.0022449 0 
0.00315955 -0.00424216 0 
0.00101902 -0.0123085 0 
2.51546e-11 -0.00332189 0 
0.00210172 -0.0409528 0 
3.30731e-11 -0.00588371 0 
0.00906471 -0.0154446 0 
0.000852897 -0.00920335 0 
0.00149181 0.00237803 0 
0.00332961 -0.00265527 0 
0.00487404 -0.00997566 0 
-0.000731549 0.000583391 0 
0.00638236 -0.00067384 0 
0.0196131 -0.00950069 0 
0.00824703 -0.00494592 0 
0.00177215 -0.00141325 0 
0.00335146 -0.00732265 0 
-0.00150989 0.00120409 0 
0.0125305 -0.00396698 0 
0.00265364 -0.00593519 0 
-0.00199145 0.000906444 0 
0.00804976 -0.0183804 0 
0.00711166 -0.0192494 0 
0.00762891 -0.0181776 0 
0.00973888 -0.0120594 0 
0.0101557 -0.0155784 0 
0.0101822 -0.0106167 0 
0.00817355 -0.0182478 0 
0.00773569 -0.0180632 0 
0.0101204 -0.0156641 0 
0.0100258 -0.0104338 0 
0.00923022 -0.0106553 0 
0.00818959 -0.00670814 0 
0.00294169 -0.00234592 0 
0.00711719 -0.0112204 0 
-0.000969608 0.000773236 0 
0.00218712 -0.000499197 0 
0.00762763 -0.00430902 0 
-0.000611212 0.000139505 0 
0.00437401 -0.00348816 0 
0.00935713 -0.0153403 0 
-0.00159999 0.00127595 0 
-0.010199 -0.0165183 0 
-0.00556702 -0.0189808 0 
-0.00793579 -0.0226884 0 
0.00233257 0.00186016 0 
-0.00298555 -0.0105654 0 
-0.00333431 -0.00265903 0 
0.00749709 -0.0132796 0 
0.00403795 -0.013541 0 
0.00279913 -0.00786899 0 
0.0185002 -0.00969592 0 
0.0133165 -0.0124918 0 
0.00917025 -0.00478396 0 
0.00365421 -0.0113329 0 
0.00208626 -0.0105835 0 
0.00709327 -0.0125325 0 
0.00302452 -0.00658819 0 
0.00385409 -0.0145858 0 
-0.00251331 -0.00748745 0 
0.00162452 -0.00239273 0 
0.00527986 -0.0112467 0 
0.00340976 -0.00693587 0 
0.0119574 -0.00900993 0 
0.0141713 -0.0076127 0 
0.0159271 -0.0108883 0 
-0.00104224 -0.00297729 0 
0.000392151 -0.00159059 0 
0.000783735 -0.000590736 0 
0.000270867 -0.00152801 0 
0.00486652 -0.00367438 0 
0.00428298 -0.00793417 0 
0.00841597 -0.00871602 0 
0.00441062 -0.00828173 0 
0.00430925 -0.00487546 0 
0.00929217 -0.00741026 0 
0.00606474 -0.0248614 0 
-0.00509307 0.00406158 0 
0.00151243 -0.000560177 0 
0.00243837 -0.0093721 0 
-0.000968527 -0.00198051 0 
0.00197403 0.00045056 0 
-0.000245186 -0.00336215 0 
-0.0018743 -0.000427797 0 
-0.000433104 -0.000899349 0 
-0.00674121 -0.0377847 0 
-0.00447749 -0.0092976 0 
-0.00513494 -0.00624666 0 
-0.00458308 -0.00954588 0 
-0.00626769 -0.00513503 0 
0.0110717 -0.00747787 0 
0.0134424 -0.0149615 0 
0.00487813 -0.00965761 0 
-0.0110987 -0.0106492 0 
-0.0133319 -0.00995155 0 
-0.0106172 -0.0165125 0 
-0.0106027 -0.0164987 0 
-0.0130862 -0.00971754 0 
-0.00747539 -0.0116956 0 
-0.011183 -0.0214059 0 
-0.00975744 -0.037612 0 
-0.00440467 -0.00998417 0 
-0.00859038 -0.00809869 0 
-0.0071685 -0.0387782 0 
0.00323803 -0.0403209 0 
-0.000923713 -0.00305759 0 
-0.00235552 -0.0130419 0 
-0.000620595 -0.00878552 0 
0.00473325 -0.00264058 0 
0.0111866 -0.00753418 0 
0.00448001 -0.00946257 0 
0.00563313 -0.00432104 0 
-0.000828258 -0.0176183 0 
0.00211325 -0.014346 0 
0.0156272 -0.0162039 0 
0.0161207 -0.00949866 0 
0.0142939 -0.00832212 0 
1.04633e-11 -0.00229152 0 
-0.00086817 -0.00759083 0 
2.33112e-12 -0.00114675 0 
-0.00204035 -0.0360864 0 
-0.00645559 -0.0377447 0 
-0.00463877 -0.0335043 0 
0.0112 -0.0305861 0 
0.0117098 -0.0369194 0 
-0.00373465 -0.0260286 0 
-0.00351376 -0.0133559 0 
0.00235878 -0.00307446 0 
0.00165506 -0.000119523 0 
-0.00352412 -0.00538589 0 
-0.00973523 -0.0242568 0 
-0.00271263 -0.0218163 0 
0.0140943 -0.0155408 0 
0.0150994 -0.00798076 0 
0.00417553 0.00137017 0 
-0.00818745 -0.00805796 0 
-0.00254572 -0.0101166 0 
-0.00692461 -0.00881416 0 
-0.00698068 -0.0118809 0 
0.000470992 -0.0141734 0 
-0.00529705 -0.0193046 0 
0.00321014 -0.000732694 0 
-0.0012639 -0.0056342 0 
-0.00303465 0.00069264 0 
0.00103347 -0.00803056 0 
0.000985658 -0.0158663 0 
-0.00109911 -0.0191905 0 
0.00196757 -0.000517758 0 
0.00200546 -0.00881414 0 
-0.000840161 -0.00128315 0 
0.0102143 -0.0109395 0 
0.00976132 -0.0136692 0 
0.00908992 -0.0102789 0 
0.00279368 -0.000637639 0 
-0.00680276 -0.00487813 0 
-0.00338093 0.000771676 0 
-0.00442876 -0.0216084 0 
-0.000419626 -0.019272 0 
0.00134565 -0.0182445 0 
-0.00216729 -0.00172836 0 
-0.0119278 -0.00802772 0 
-0.00113618 -0.000906076 0 
-0.000668598 0.00314368 0 
-0.00338364 -0.00819627 0 
-0.0113093 -0.0222953 0 
0.0106716 -0.0238113 0 
0.00628161 -0.0235734 0 
0.0099129 -0.0153104 0 
-0.000856376 -3.40005e-05 0 
0.000888918 -0.000762051 0 
4.81616e-05 -0.00175688 0 
-0.00653673 -0.0174834 0 
-0.00362226 -0.0172154 0 
-0.00525055 -0.0212239 0 
0.00225575 -0.00805894 0 
0.00242638 -0.01503 0 
0.00518115 -0.00843027 0 
-0.00371555 -0.00621642 0 
-0.00253022 -0.0159411 0 
-0.00237168 -0.0217322 0 
0.00807458 -0.0197854 0 
-0.00072004 -0.0178339 0 
-0.000229534 -0.0143133 0 
0.00272865 -0.00217603 0 
0.0147238 -0.0152926 0 
0.000232023 -0.000185032 0 
0.00191962 -0.00398613 0 
0.00249668 -0.014682 0 
-0.000280155 0.000581748 0 
-9.90179e-13 -0.00340771 0 
-0.00258018 -0.021742 0 
3.90213e-12 -0.0004215 0 
-0.00596684 -0.00567548 0 
-0.00279878 -0.00258832 0 
-0.000776932 -0.00561267 0 
-0.00974607 -0.0247074 0 
-0.00882393 -0.0287943 0 
-0.00270302 -0.0214169 0 
0.00671223 -0.00535282 0 
0.0184174 -0.0259858 0 
-0.00119963 0.000956673 0 
0.00762119 -0.00876544 0 
0.00538976 -0.0167213 0 
-0.0019396 -0.00959231 0 
-0.0128126 -0.00545977 0 
-0.0135311 -0.0100291 0 
-0.0118125 -0.012462 0 
-0.00138604 0.00281136 0 
0.00024907 -0.00283616 0 
-0.00401566 -0.0173441 0 
-0.00581255 -0.0245538 0 
-0.00321888 -0.0261498 0 
-0.00649784 -0.0285513 0 
0.00153318 -0.000349939 0 
0.00435962 -0.00232688 0 
7.78325e-05 -1.77648e-05 0 
9.68025e-11 0.00166307 0 
0.00506056 -0.0158127 0 
1.0677e-10 -0.00571093 0 
0.0139122 -0.0112471 0 
0.0103652 -0.00944345 0 
0.0121602 -0.00598869 0 
0.00897872 -0.0150598 0 
0.00635987 -0.0145823 0 
0.00717175 -0.0114061 0 
0.00141488 -0.00293804 0 
-0.000227227 -0.00559336 0 
8.11382e-05 -0.000168485 0 
0.00138695 -0.010299 0 
-0.00201168 -0.00828768 0 
0.000119297 -0.00110903 0 
0.00811717 -0.0182641 0 
0.00522275 -0.0147517 0 
0.00452858 -0.0195541 0 
0.0073788 -0.0045739 0 
0.00454816 -0.00169487 0 
0.000778761 0.0016191 0 
0.00286347 -0.00189763 0 
-0.00325379 -0.011777 0 
0.0046129 -0.0115132 0 
6.43706e-11 -0.0048197 0 
-0.00403868 -0.0112419 0 
7.23586e-11 5.46585e-05 0 
0.0038059 -0.00114567 0 
0.00523325 -0.0147245 0 
0.00987906 -0.0125141 0 
0.00434266 -0.00467868 0 
0.00440755 -0.00178165 0 
0.00792703 -0.00656667 0 
0.000990845 -0.00205751 0 
0.00565067 -0.0147874 0 
0.000297034 -0.000616798 0 
0.000992495 0.000682672 0 
0.00439457 -0.00102192 0 
0.00110093 -0.00133331 0 
0.0100099 -0.0155375 0 
0.00959998 -0.0138254 0 
0.0104655 -0.0106963 0 
-1.57831e-12 -0.00526545 0 
-0.00447051 -0.011103 0 
4.69995e-12 -0.000226792 0 
-0.00249196 0.00165913 0 
-0.00744332 -0.00936032 0 
-0.0176282 -0.00536452 0 
6.99157e-11 -7.38702e-05 0 
0.000786719 -0.0110974 0 
6.6214e-11 -0.00155557 0 
-0.0144595 -0.00960353 0 
-0.0116922 -0.00703484 0 
-0.0129653 -0.00844064 0 
0.00191138 -0.00043626 0 
0.0025791 -0.00352889 0 
-0.000725379 0.000165563 0 
-0.00467479 -0.00732965 0 
-0.00489922 -0.0106026 0 
-0.0114275 -0.00671278 0 
0.0071586 -0.0194342 0 
0.00590137 -0.0178811 0 
0.00754777 -0.0178581 0 
0.014119 -0.0155614 0 
0.0148165 -0.0165207 0 
0.0151211 -0.00799882 0 
0.0147084 -0.0155398 0 
0.0106297 -0.0096678 0 
0.0171827 -0.0102662 0 
-0.000210502 -0.016668 0 
-0.00345066 -0.0173197 0 
-0.00199295 -0.00938439 0 
-0.00947115 -0.0232904 0 
-0.0121219 -0.0091263 0 
-0.00838238 -0.0128027 0 
0.00435462 0.000468529 0 
0.00973573 -0.00845888 0 
0.00739612 -0.00890477 0 
0.0134792 -0.0121378 0 
0.00633303 -0.0108905 0 
0.00854855 -0.00613698 0 
-0.00010769 -0.0201491 0 
0.00348973 -0.0204272 0 
0.00689595 -0.0241996 0 
-0.000109726 -0.00337827 0 
0.000322714 -0.00974762 0 
-0.00170787 -0.00645926 0 
0.00163326 -0.00228542 0 
-0.0015643 -0.0220697 0 
-0.000906345 -0.0270184 0 
-0.00543722 -0.0165233 0 
-0.00161142 -0.012742 0 
0.000329978 -0.0158768 0 
-0.000336086 -0.0187117 0 
0.010981 -0.0175747 0 
0.00499306 -0.00555524 0 
0.000328531 -0.00125723 0 
0.00102175 -0.000141846 0 
0.00145183 -0.010345 0 
-0.000149404 -0.00215646 0 
0.000759918 -0.0022034 0 
0.00365736 -0.00848727 0 
0.00383205 -0.0166014 0 
0.0106026 -0.0164208 0 
0.0184923 -0.021362 0 
0.00197811 0.000451491 0 
-0.00338834 -0.0062653 0 
-0.00523597 -0.00119508 0 
-0.000970108 -0.00597657 0 
0.0021564 -0.0107395 0 
0.000288756 -0.00911024 0 
0.0143884 -0.0156007 0 
0.00735069 -0.0181222 0 
0.00519154 -0.01496 0 
0.00146797 -0.00718482 0 
0.00726633 -0.011275 0 
0.000708705 -0.0139348 0 
0.014095 -0.0146113 0 
0.00724811 -0.0186226 0 
0.00411221 -0.0100686 0 
0.00182437 0.00145489 0 
-0.00198579 -0.00935328 0 
-0.00370838 -0.00295734 0 
-0.00240072 -0.0166129 0 
0.0111074 -0.0461536 0 
0.0142418 -0.0401659 0 
0.00360084 0.000821869 0 
-0.0073529 -0.0113632 0 
-0.00511567 -0.00116762 0 
-0.000564431 -0.0193599 0 
-0.00554458 -0.00943178 0 
0.000394446 -0.00982994 0 
-5.24868e-11 0.00145848 0 
0.00220002 -0.0118009 0 
-5.77616e-11 -0.00315065 0 
-0.00784707 -0.036673 0 
0.00832989 -0.04657 0 
0.00212442 -0.0159344 0 
1.36754e-05 -0.0186279 0 
0.00537048 -0.0271985 0 
-0.00124408 8.2661e-05 0 
0.00565719 -0.01825 0 
0.00648253 -0.0104728 0 
0.00493063 -0.0170462 0 
-0.00292383 -0.00607139 0 
-0.0115825 -0.0117214 0 
0.000146506 0.000304224 0 
0.00863321 -0.0171584 0 
0.0156346 -0.0120357 0 
0.00972352 -0.0154962 0 
-0.00294731 -0.00733314 0 
0.000588713 -0.00666682 0 
0.00765152 -0.00734445 0 
-0.000390237 -0.00124302 0 
0.00131265 -0.00107914 0 
0.00106876 -0.00185911 0 
-8.33383e-11 -0.00370105 0 
-0.00210141 -0.0301984 0 
-9.39609e-11 -0.000236065 0 
0.00700999 -0.0118587 0 
0.00568029 -0.00560464 0 
0.00252918 0.00169846 0 
-0.0111049 -0.0105954 0 
-0.0126808 -0.00631897 0 
-0.0132733 -0.0104626 0 
0.00455641 -0.00103997 0 
0.0151176 -0.00835975 0 
-0.00119231 0.000272137 0 
0.0188101 -0.0217119 0 
0.0103254 -0.0161155 0 
0.0138298 -0.00884266 0 
0.00480138 -0.00178085 0 
0.00383136 -0.000724252 0 
0.00047162 0.000468977 0 
-0.00107797 -0.00223843 0 
-0.00907221 -0.0205101 0 
-0.00147395 -0.00306068 0 
0.00615517 -0.000626285 0 
0.0160161 -0.0134185 0 
0.00255974 -0.00591336 0 
-0.00237668 -0.0050386 0 
-0.000129073 -0.0167466 0 
-0.0019939 -0.00520748 0 
-0.0157374 -0.0048401 0 
-0.0125928 -0.0128691 0 
-0.00502485 -0.00521448 0 
-0.00779468 -0.022502 0 
-0.00330496 -0.0132789 0 
-0.00794169 -0.0172282 0 
0.00535783 -0.0184298 0 
0.00092451 -0.0140907 0 
0.00399088 -0.0137709 0 
0.00377638 -0.02217 0 
0.00573786 -0.0179342 0 
0.00469131 -0.0179831 0 
-0.00782396 -0.0115728 0 
-0.00494262 -0.0281084 0 
-0.00966771 -0.0237233 0 
-0.000443338 -0.00480256 0 
-0.00690523 -0.0060443 0 
-0.00420446 -0.000492958 0 
0.00454833 -0.0120644 0 
-0.00309673 -0.0104362 0 
0.00101493 -0.00970707 0 
0.00777367 -0.00674289 0 
0.00449521 -0.00168093 0 
0.00735576 -0.00456784 0 
0.00979349 -0.0122643 0 
0.00523751 -0.0147369 0 
0.00802892 -0.0183524 0 
0.00523382 -0.00119459 0 
0.00365317 -0.0103848 0 
-0.00484731 0.00110637 0 
0.0040777 -0.0151253 0 
0.0179753 -0.0244684 0 
0.00530459 -0.0094207 0 
0.00608269 -0.0223002 0 
0.0120726 -0.0267886 0 
0.00456353 -0.0332983 0 
9.36356e-11 -0.00150875 0 
0.00116857 -0.0195593 0 
1.01049e-10 -0.00274243 0 
8.79496e-11 -0.0021071 0 
0.00026449 -0.0179769 0 
8.90294e-11 -0.00247208 0 
0.00107885 0.00224025 0 
0.00116998 -0.0101727 0 
-0.00177858 -0.00369327 0 
-0.0117115 -0.00518845 0 
-0.0135425 -0.0128883 0 
-0.00353681 -0.0034151 0 
-0.00159909 -0.00615472 0 
-0.00103249 -0.00907049 0 
-0.00357663 -0.00712655 0 
0.00476487 -0.00190182 0 
0.00647523 -0.015105 0 
0.00878127 -0.0141651 0 
-0.00940509 -0.0286774 0 
-0.0135369 -0.0252988 0 
-0.00907608 -0.0222785 0 
0.00408943 0.000183112 0 
0.00169085 -0.0108356 0 
-0.00799854 -0.0105191 0 
0.0152054 -0.042221 0 
0.0100363 -0.0386607 0 
0.0126671 -0.0361231 0 
-0.00843673 -0.0238761 0 
-0.0100964 -0.030308 0 
-0.00974074 -0.0293764 0 
-0.00155422 -0.0361563 0 
-8.38966e-05 -0.0405591 0 
-0.00700842 -0.0376652 0 
-0.00675512 -0.00527482 0 
0.000640505 -0.0120651 0 
-0.00880295 -0.013368 0 
0.000473423 -0.00200681 0 
0.000975988 -0.000813223 0 
0.00035399 -0.000883693 0 
5.19203e-11 -0.000175842 0 
0.000531672 -0.0143638 0 
4.13718e-11 -0.00138655 0 
-0.00597372 -0.0126158 0 
-0.00465179 -0.009104 0 
-0.0014293 -0.0196774 0 
-0.00742427 -0.010274 0 
-0.00145285 -0.0122792 0 
-0.00550236 -0.0167134 0 
-0.0101991 -0.0314613 0 
-0.0128569 -0.0258409 0 
-0.0096604 -0.0284739 0 
0.00658505 -0.011195 0 
0.00251026 -0.00739267 0 
0.00784094 -0.00528204 0 
0.00970039 -0.00627038 0 
0.0157487 -0.0229007 0 
0.0201646 -0.0227784 0 
0.00416248 -0.00775016 0 
0.000473863 -0.00262084 0 
0.00437579 -0.00501798 0 
0.00884047 -0.0140916 0 
0.0021869 -0.00478462 0 
0.00433686 -0.00243364 0 
0.00878413 -0.0153838 0 
0.00570411 -0.0129592 0 
0.00995536 -0.0109479 0 
-0.00444296 -0.0217764 0 
-0.00372561 -0.0199547 0 
-0.00587942 -0.0254219 0 
-6.97964e-11 -0.00204674 0 
-0.000719152 -0.0181268 0 
-7.5747e-11 -0.000768153 0 
-0.00536536 -0.0173027 0 
-0.000641891 -0.0175897 0 
-0.000765632 -0.0180983 0 
0.00103821 0.00179108 0 
0.00628529 -0.00681956 0 
-0.00282534 -0.00899426 0 
0.00239173 0.00190734 0 
-0.00149455 -0.0130355 0 
-0.00415797 -0.00331587 0 
0.00824721 -0.00880058 0 
0.00842037 -0.0101585 0 
0.00901912 -0.00879341 0 
0.0100218 -0.00714802 0 
0.0122353 -0.0234496 0 
0.00596918 -0.0246298 0 
0.00618929 -0.0180799 0 
0.00473333 -0.0164854 0 
0.0063511 -0.0150023 0 
0.00783528 -0.0229033 0 
0.00441492 -0.018182 0 
0.00801794 -0.0161277 0 
0.0045999 0.0010499 0 
0.00299279 -0.00638008 0 
-0.0031521 -0.000719447 0 
0.00639932 -0.00951609 0 
0.0005986 -0.0134008 0 
0.00208677 -0.00807354 0 
-0.00082192 -0.0120852 0 
0.002449 -0.00477117 0 
0.00806839 -0.0141312 0 
0.00427723 -0.00449225 0 
0.00190435 -0.00179671 0 
0.0044634 -0.00194079 0 
0.00708396 -0.0316716 0 
0.00110176 -0.0343564 0 
0.00548295 -0.0278818 0 
0.0119846 -0.0126069 0 
0.021327 -0.0135407 0 
0.00832117 -0.0058043 0 
0.00738631 -0.0192001 0 
0.00908634 -0.0171571 0 
0.00548048 -0.0183139 0 
0.00126303 -0.0026227 0 
0.008789 -0.0204533 0 
0.000658661 -0.00136772 0 
0.0054178 -0.0279407 0 
0.0123585 -0.0254994 0 
0.00665871 -0.0320557 0 
0.00112006 -0.0411786 0 
0.00930817 -0.038279 0 
0.0158608 -0.0425646 0 
0.000411051 0.000853556 0 
0.000881521 -0.00240687 0 
-0.000641766 -0.00133264 0 
0.000326711 -0.0341012 0 
-0.0026868 -0.0308608 0 
-0.000792171 -0.00459733 0 
0.00838497 -0.0230556 0 
0.00508894 -0.0139412 0 
0.00759491 -0.00872947 0 
0.0100309 -0.0156297 0 
0.00849733 -0.0156045 0 
0.00955407 -0.0136244 0 
0.000971389 -0.000338056 0 
0.00113941 -0.00693483 0 
0.000525484 -0.00287254 0 
-0.00545252 -0.00512818 0 
0.00224912 -0.00539397 0 
-0.00065369 -0.011561 0 
0.0184067 -0.0259903 0 
0.00835881 -0.0143513 0 
0.00414738 0.00321339 0 
-0.00724844 -0.0102494 0 
-0.00551759 -0.0167156 0 
-0.00573959 -0.014367 0 
0.000814389 0.0016911 0 
-0.00146641 -0.0254129 0 
-0.00341384 -0.0070889 0 
0.00567554 -0.02501 0 
-0.00763347 -0.0102359 0 
-0.00168785 0.00536198 0 
0.018346 -0.0095679 0 
0.0154981 -0.01184 0 
0.0134067 -0.0125666 0 
5.1769e-11 -0.00421069 0 
-0.0030725 -0.0094663 0 
5.28831e-11 0.000358992 0 
-0.000988689 -0.00237108 0 
-0.00243092 -0.0046471 0 
-0.000616877 -0.013639 0 
-5.44892e-05 -0.0126274 0 
0.00383629 -0.0207547 0 
0.00587521 -0.0221992 0 
0.000399189 -0.00942257 0 
0.000872987 -0.00696325 0 
0.000723766 -0.00589005 0 
0.00681211 -0.00155482 0 
0.00701862 -0.0086634 0 
-0.00329308 0.000751625 0 
0.00861503 -0.00514618 0 
0.00128056 -0.0076085 0 
-0.00317774 -0.000352493 0 
0.0152605 -0.00697454 0 
0.0062274 -0.00101268 0 
0.00383612 -0.000750395 0 
-0.00330074 0.00179427 0 
-0.0024889 -0.00760818 0 
-0.000721376 -0.00120493 0 
-6.97075e-05 -0.00305181 0 
-0.00379738 -0.00629543 0 
-0.00224566 -0.00108456 0 
0.00295218 0.00235428 0 
-0.00552846 -0.0157026 0 
-0.00501926 -0.00400272 0 
-7.35848e-11 0.000848932 0 
0.00381222 -0.0281583 0 
-8.3016e-11 -0.0049543 0 
-0.000719395 -0.00149384 0 
-0.0045155 -0.0140751 0 
-0.00185521 -0.00385239 0 
0.00903352 -0.00959265 0 
0.00909329 -0.0170747 0 
0.00473989 -0.0163407 0 
0.00516113 -0.00659698 0 
0.000627365 -0.0185339 0 
-0.000682313 -0.0165943 0 
0.000637023 -0.0252459 0 
0.000640487 -0.023543 0 
0.00773007 -0.0312073 0 
0.000247211 -0.000513339 0 
0.0155769 -0.0228787 0 
0.00257993 -0.00535728 0 
0.00384386 -0.0192724 0 
0.00514664 -0.016315 0 
0.00726003 -0.018967 0 
0.0127285 -0.0389488 0 
0.0160631 -0.0419009 0 
0.0137515 -0.0357184 0 
0.002414 -0.00501271 0 
0.00292862 -0.0165196 0 
-5.15188e-05 0.00010698 0 
0.00271183 -0.00414086 0 
-0.0112652 -0.0122713 0 
-0.00611192 -0.0100901 0 
6.07655e-11 -0.00207909 0 
-0.00136674 -0.0205338 0 
5.39937e-11 0.000238251 0 
0.000514351 -0.00106806 0 
0.00904536 -0.0151179 0 
0.00130198 -0.0027036 0 
0.000298543 0.00043792 0 
0.00407038 0.00102102 0 
0.00246171 -0.00323423 0 
0.000121701 -0.010237 0 
-0.00133374 -0.036345 0 
0.0034449 -0.0227872 0 
0.000916278 0.000209134 0 
0.00375594 0.0001769 0 
0.000148002 3.37806e-05 0 
0.00162474 -0.0187485 0 
0.00942397 -0.0145417 0 
-0.00194995 -0.00481892 0 
-0.00196654 -0.025597 0 
-0.00187441 -0.0363631 0 
-0.000342649 -0.0102525 0 
0.0107123 -0.0158982 0 
0.0138954 -0.0098106 0 
0.000620864 -0.0050995 0 
0.00152457 0.000347974 0 
-0.00556746 -0.00519187 0 
-0.00272215 -0.000621314 0 
0.000953666 -0.0085348 0 
-0.00583926 -0.00487518 0 
0.00123644 0.000683707 0 
-0.00337128 -0.00254603 0 
-0.00525278 -0.00425879 0 
-0.00825201 -0.00935806 0 
0.00111897 -0.000892345 0 
0.0138223 -0.0104277 0 
0.00165024 -0.00131602 0 
0.00656629 -0.000324025 0 
0.0131318 -0.010567 0 
0.0191544 -0.010373 0 
0.00369053 -0.00084234 0 
0.0161751 -0.00726844 0 
-0.000809881 0.00018485 0 
0.0017395 0.00222366 0 
0.0159702 -0.00743226 0 
0.00888728 -0.00809044 0 
0.00229705 0.000524286 0 
0.0064389 -0.00118785 0 
-0.000935923 -0.000213618 0 
0.00225934 -0.000369356 0 
0.00223648 -0.00109588 0 
0.00146245 -0.000907772 0 
7.0327e-11 0.0014187 0 
0.00652355 -0.0194933 0 
7.17956e-11 -0.0058236 0 
0.00386006 -0.00777207 0 
0.00673766 -0.0196013 0 
0.010854 -0.0244447 0 
0.00411225 -0.0100704 0 
0.00725847 -0.0190484 0 
-0.00371935 -0.000832993 0 
0.00609118 -0.0116796 0 
0.000892248 -0.00400661 0 
0.00153345 0.00189358 0 
0.00174857 -0.00139443 0 
0.00927291 -0.00859368 0 
0.000734626 -0.000585845 0 
0.00517074 -0.00118019 0 
-0.000806368 -0.00666158 0 
-0.00461692 0.00105378 0 
0.00142827 -0.0192042 0 
-0.00270161 -0.0264925 0 
0.000168192 -0.0233213 0 
0.00017252 -0.00013758 0 
0.00215228 -0.00110644 0 
0.000707195 -0.000563969 0 
0.00141585 -0.0272562 0 
-0.00277666 -0.0269132 0 
-0.00191754 -0.0216648 0 
-0.0049168 -0.0180421 0 
-0.00106073 -0.0176118 0 
-0.00676978 -0.0144047 0 
0.00456204 -0.0142613 0 
0.00842161 -0.0157284 0 
0.00771389 -0.0181213 0 
0.00276179 -0.00606339 0 
2.96825e-05 -0.015095 0 
-0.00230132 0.00127377 0 
0.00143145 -0.00042637 0 
0.000989663 -0.00179104 0 
2.29453e-05 -0.00102206 0 
0.00802094 -0.0167455 0 
0.00549829 -0.0224749 0 
0.00285539 -0.012534 0 
0.00767042 -0.00933658 0 
0.00963755 -0.00830432 0 
0.00500387 -0.00296028 0 
3.57055e-05 -0.00381478 0 
-0.00319913 -0.00675613 0 
0.00801077 -0.0221177 0 
-0.0132134 -0.00871017 0 
-0.00922786 -0.0136117 0 
-0.0120929 -0.0136262 0 
0.00375423 -0.0205143 0 
0.00509307 -0.0184901 0 
0.00579995 -0.0219787 0 
-0.0055318 -0.0170712 0 
-0.00167954 -0.0216693 0 
0.000905294 -0.00729191 0 
-0.00383831 0.000559797 0 
-0.0122265 -0.00598485 0 
-0.0113171 -0.0107514 0 
-0.000162211 -0.0202431 0 
0.00128776 -0.02259 0 
0.010614 -0.0143419 0 
0.0019509 -0.00213165 0 
0.00259316 -0.00101706 0 
0.00354067 -0.003198 0 
-0.00190244 -0.00652752 0 
-0.0111381 -0.00882652 0 
-0.0106136 -0.0236385 0 
0.00114651 -0.0403196 0 
0.0158512 -0.0428763 0 
0.00838948 -0.0114447 0 
0.0076401 -0.0200489 0 
0.0120773 -0.0254641 0 
0.00605169 -0.0280203 0 
0.000604512 -0.0123721 0 
-0.00325658 -0.00550349 0 
0.00173133 -0.0142984 0 
-0.000659687 -0.00384822 0 
-0.00333834 -0.0103308 0 
0.00139843 -0.00487435 0 
-0.00345735 -0.0284019 0 
-0.00296291 -0.0264489 0 
-0.00300156 -0.0278316 0 
0.00133681 -0.014885 0 
0.000571728 -0.0131351 0 
-0.00173086 -0.0092624 0 
0.00682573 -0.0126614 0 
0.00820241 -0.0157492 0 
0.00479607 -0.0142391 0 
0.00108168 0.00224614 0 
-0.000278876 -0.0151837 0 
-0.00277948 -0.00577165 0 
0.000456582 -0.000993077 0 
-0.00238391 -0.00841565 0 
-0.00100415 -0.000264473 0 
0.0133344 -0.0125785 0 
0.0157045 -0.0118058 0 
0.00865079 -0.0150963 0 
0.00355941 -0.0208528 0 
0.00546877 -0.0140927 0 
0.00659152 -0.0223401 0 
0.00716912 -0.0240672 0 
0.00916853 -0.0199158 0 
-0.00218911 -0.00751195 0 
0.00131275 -0.002805 0 
0.00232681 -0.00131111 0 
0.003909 -0.00491551 0 
0.000685288 -0.00142302 0 
0.000930265 -0.00571853 0 
-0.000108969 0.000226277 0 
0.00208115 -0.00649523 0 
-0.00601051 -0.00463269 0 
-0.000786901 0.00142312 0 
3.87053e-11 -0.00296243 0 
-0.00350774 -0.0129642 0 
4.38507e-11 0.00142935 0 
0.00683918 0.00131376 0 
0.0166727 -0.018006 0 
0.0153063 -0.0154317 0 
0.00363105 -0.00168251 0 
0.00284411 -0.00208832 0 
0.00165216 -0.000856386 0 
-0.00342526 -0.0286857 0 
-0.00121323 -0.0224915 0 
-0.0023533 -0.0227964 0 
0.00506385 -0.00115579 0 
0.0079512 -0.00758477 0 
-0.00208701 0.000476347 0 
-0.00887145 -0.028431 0 
-0.0102812 -0.0228351 0 
-0.00383329 -0.024652 0 
-0.0156819 -0.0064068 0 
-0.0103673 -0.0100713 0 
-0.00555277 0.000482632 0 
0.00300157 -0.0353574 0 
0.00684151 -0.0355133 0 
-0.00889583 -0.00710044 0 
-0.00685631 -0.0056619 0 
-0.0114042 -0.0121809 0 
-0.0165119 -0.00528853 0 
0.0170232 -0.0248127 0 
0.00932178 -0.030462 0 
0.00953091 -0.0153491 0 
0.00240108 -0.000548032 0 
-0.000752646 -0.00555496 0 
-0.00310631 0.000708994 0 
-0.00684425 -0.00493938 0 
-0.0122546 -0.00587492 0 
-0.00375234 0.000223351 0 
-0.00134671 0.00148619 0 
0.00182236 -0.005104 0 
-0.0049692 -0.00545657 0 
0.00125823 -0.00261275 0 
0.0059965 -0.0150228 0 
0.000568798 -0.00118112 0 
-0.0010644 -0.00754601 0 
-0.00138413 -0.00517191 0 
0.00232749 -0.00167841 0 
0.000530113 -0.0145227 0 
-2.98386e-05 -0.018934 0 
-0.00536027 -0.018931 0 
-0.00253159 -0.0140451 0 
-0.00320177 -0.0192751 0 
-0.00512266 -0.0226582 0 
-0.00648175 -0.0253196 0 
-0.00293511 -0.020089 0 
-0.00237337 -0.0251822 0 
-0.000330029 -0.00729684 0 
-0.00125762 -0.0216676 0 
0.0026797 -0.0144126 0 
0.00205963 -0.0139265 0 
0.000800306 -0.0133039 0 
0.00380249 -0.0144578 0 
-0.00562544 -0.0165647 0 
-0.0057361 -0.0180738 0 
-0.00574111 -0.0143649 0 
-0.000128161 -0.00822723 0 
0.00241416 -0.0137889 0 
-0.00553514 -0.0111329 0 
0.0024753 -0.000190307 0 
-0.00384116 -0.0127461 0 
-0.00355978 -0.00890227 0 
-0.00299965 -0.0104836 0 
-0.0059736 -0.0148984 0 
-0.00311266 -0.00394389 0 
0.00341514 -0.00995063 0 
8.47611e-05 -0.00033005 0 
0.00169805 -0.00151448 0 
0.00697594 -0.0106293 0 
0.00671059 -0.00948213 0 
0.00853673 -0.0100882 0 
0.00574746 -0.0126414 0 
0.0174837 -0.0421368 0 
0.0184848 -0.0254763 0 
-0.00291621 -0.0134036 0 
-0.00221149 -0.00858968 0 
-0.0028807 -0.0198106 0 
-0.00473085 -0.0101997 0 
-0.00908512 -0.011955 0 
-0.00956657 -0.00718691 0 
0.000411388 -0.00979098 0 
0.00522675 -0.0189333 0 
-0.000451538 -0.0191003 0 
0.00983212 -0.0166394 0 
-0.00439125 -0.0103418 0 
0.000874932 -0.0125841 0 
-0.000323522 -0.0006718 0 
-0.00279421 -0.0100819 0 
-0.00142943 -0.00296824 0 
0.00160704 -0.0136629 0 
0.00142804 -0.0138383 0 
0.000184312 -0.0139386 0 
-0.00176803 0.000497157 0 
-0.00221067 -0.00858838 0 
-0.00309075 -0.0136796 0 
-0.00249081 -0.00517222 0 
-0.00992089 -0.012193 0 
-0.000138102 -0.000286771 0 
-0.00100018 -0.0180776 0 
-7.73623e-05 -0.0176395 0 
0.00411526 -0.0189694 0 
0.0189363 -0.0258709 0 
0.0162459 -0.0410547 0 
0.0127584 -0.0388106 0 
0.00860363 -0.0100434 0 
0.00826465 -0.0117011 0 
0.00677831 -0.0107617 0 
0.00713478 -0.00326488 0 
0.00776042 -0.020152 0 
0.0137835 -0.0211217 0 
0.00541266 -0.0154919 0 
-0.000582007 -0.0172922 0 
-0.0019703 -0.0112406 0 
-0.0022284 -0.0197003 0 
-0.0045175 -0.0171515 0 
0.00197844 -0.00167551 0 
-0.000244365 0.000222512 0 
0.00311124 -0.00100911 0 
-0.00355022 -0.00704922 0 
-0.00153896 -0.00833534 0 
0.00230433 -0.000493131 0 
-1.36696e-05 -0.000888576 0 
0.0013786 -0.00286269 0 
0.00553381 -0.0176704 0 
0.000173924 -0.000361158 0 
-0.00162114 -0.0124638 0 
-0.0053855 -0.0201272 0 
-0.00351065 -0.00623956 0 
0.003218 -0.00929003 0 
0.00673591 -0.0140753 0 
-0.0037282 -0.000149672 0 
-0.000877527 -0.000699804 0 
-0.0108162 -0.0124362 0 
-0.00386019 -0.0030784 0 
0.00216565 0.000494296 0 
-0.000159665 -0.00330633 0 
-0.00179363 -0.000409384 0 
0.00624762 -0.0149771 0 
-0.000606355 -0.017609 0 
0.00376495 -0.0193862 0 
-0.0120215 -0.00758162 0 
-0.00488235 -0.0105779 0 
-0.000625433 -0.00333893 0 
-0.00645603 -0.0138999 0 
-0.00170014 -0.0186407 0 
0.00113606 -0.00513622 0 
0.0129232 -0.013789 0 
0.00621716 -0.0162282 0 
0.00441856 -0.00569073 0 
0.00304537 -0.0024286 0 
0.00742751 -0.0116975 0 
-0.000609559 0.000486107 0 
0.00943271 -0.0136188 0 
0.00831673 -0.0119118 0 
0.00940713 -0.0103276 0 
9.12884e-11 -0.000903015 0 
0.00158411 -0.0191084 0 
8.3878e-11 -0.00349751 0 
-0.0007679 0.00152682 0 
-0.0059784 -0.00445741 0 
-0.0120881 -0.00566485 0 
0.00306937 -0.00252048 0 
-0.00328006 -0.00927158 0 
0.00153427 -0.00891185 0 
-0.00783001 -0.0180303 0 
-0.00336099 -0.0128765 0 
-0.00227458 -0.00432194 0 
-0.00294045 -0.0279574 0 
-0.00282026 -0.0267426 0 
-0.00500275 -0.0204836 0 
0.0121737 -0.00634387 0 
0.010359 -0.00927877 0 
0.00822037 -0.00834923 0 
-0.00692478 -0.0019479 0 
-0.00942132 -0.0104363 0 
-0.00369688 -0.0164883 0 
-0.00318946 -0.0282709 0 
-0.000712289 -0.0231306 0 
-0.00352455 -0.028559 0 
-0.00886697 -0.0287711 0 
-0.00383796 -0.0242979 0 
-0.00311252 -0.0211968 0 
0.000525889 -0.00975551 0 
0.000426713 -0.00538506 0 
-0.000386501 -0.000135385 0 
0.0154592 -0.0221825 0 
0.0174691 -0.0173181 0 
0.0204845 -0.0235721 0 
-1.52146e-13 0.000237065 0 
0.000309947 -0.00549758 0 
1.06147e-13 -0.00038283 0 
-9.27844e-11 -0.00202924 0 
-0.0013568 -0.0225003 0 
-9.76059e-11 0.000370878 0 
0.00485571 0.00300203 0 
0.0100068 -0.0170032 0 
0.00109243 -0.013037 0 
-0.00186529 -0.0231839 0 
-0.00289231 -0.0291199 0 
-0.00628102 -0.0287344 0 
0.00554764 -0.00222603 0 
0.0103722 -0.00731236 0 
0.00377852 -0.0107967 0 
0.00434763 -0.00205909 0 
0.000656764 -0.00680716 0 
-0.000160366 0.00210301 0 
0.00752206 -0.00714893 0 
0.000669337 -0.00678859 0 
0.00483431 -0.00134026 0 
0.00219242 -0.00569381 0 
0.00844959 -0.0337285 0 
0.0148047 -0.014762 0 
-0.00291248 -0.0028731 0 
-0.00363346 -0.00250049 0 
-0.00484584 -0.00579343 0 
0.00657829 -0.00150145 0 
0.0137971 -0.00972357 0 
-0.00252294 0.000575844 0 
0.00257662 0.000842527 0 
0.00235036 -0.00314871 0 
-0.00621687 -0.00602249 0 
0.0165432 -0.0267816 0 
0.0132987 -0.038605 0 
0.00968367 -0.0289776 0 
0.0128556 -0.0409288 0 
0.0139115 -0.0257812 0 
0.00903696 -0.00200476 0 
-0.00100912 -0.000804748 0 
-0.0111372 -0.00985317 0 
-0.00190714 -0.0015209 0 
-0.00172698 -0.0356432 0 
-0.00518349 -0.0342746 0 
0.0037168 -0.0232725 0 
0.00247364 -0.0126009 0 
-0.000866619 -0.017804 0 
-0.00497103 -0.0162285 0 
-0.0125399 -0.00705834 0 
-0.0114896 -0.00864792 0 
-0.00447912 -0.00406254 0 
0.00145281 -0.000892287 0 
0.00495752 -0.0047437 0 
0.00287534 -0.00818123 0 
3.96929e-11 0.000133785 0 
0.00519956 -0.0368485 0 
4.307e-11 -0.00795171 0 
0.00140663 0.000904864 0 
-0.00444935 -0.0143688 0 
0.00101881 -0.0109359 0 
-0.00208018 -0.0125722 0 
0.00499618 -0.0118572 0 
0.00204318 -0.00148255 0 
0.000498367 -0.0102177 0 
0.00475328 -0.0165231 0 
0.0059882 -0.0176999 0 
0.00391913 -0.00859319 0 
0.00697295 -0.0096689 0 
0.006804 -0.0105069 0 
0.0199989 -0.0233847 0 
0.0178589 -0.0174686 0 
0.0038241 -0.0102135 0 
0.00688264 -0.0127004 0 
0.00826077 -0.0118256 0 
0.00945426 -0.013652 0 
0.0090224 -0.0101246 0 
0.00842378 -0.0101565 0 
0.00838562 -0.00871903 0 
-0.00299291 -0.0285177 0 
-0.00240069 -0.0228148 0 
-0.00514835 -0.0295152 0 
-0.00214676 -0.0217621 0 
-0.00147368 -0.0237958 0 
0.00107986 -0.000638225 0 
0.0146952 -0.0162687 0 
0.00741542 -0.0201348 0 
0.0106255 -0.00989636 0 
0.00635926 -0.00836665 0 
0.0102752 -0.0158272 0 
0.00422934 -0.0141502 0 
-0.00419199 -0.0108888 0 
-0.00208948 -0.00828433 0 
-0.00229037 -0.000390857 0 
-0.000421778 -0.00894325 0 
-0.00482884 -0.0102093 0 
-0.00447706 -0.00447067 0 
0.00462877 -0.00824357 0 
0.00283277 -0.0129487 0 
-0.00128328 -0.00766865 0 
-0.00349165 -0.00649963 0 
0.00205454 -0.00970842 0 
0.00137999 -0.0147692 0 
0.00368402 -0.000840854 0 
0.002197 -0.00480927 0 
-0.00250814 0.000572466 0 
0.000764729 0.00344182 0 
0.0135691 -0.00992231 0 
0.0065212 -0.00824352 0 
-0.00678347 -0.0206499 0 
-0.00441522 -0.016674 0 
-0.00241448 -0.0205689 0 
-4.02442e-05 -0.00283706 0 
-0.00507488 -0.0102105 0 
-0.00187093 -0.000713128 0 
0.00483979 -0.0141176 0 
0.000692233 -0.0139959 0 
-0.00377927 -0.00808871 0 
0.00363227 0.00100732 0 
0.00910805 -0.0127475 0 
0.00606949 -0.00864077 0 
-0.00777849 -0.0279551 0 
-0.0071371 -0.0205175 0 
-0.00716307 -0.0217912 0 
0.00130591 -0.0127999 0 
0.00523463 -0.0143331 0 
0.00367494 -0.0207342 0 
0.000412324 0.000328818 0 
-0.00908983 -0.0122113 0 
-0.00461091 -0.00367708 0 
0.00472559 -0.00942125 0 
0.0110209 -0.00959111 0 
0.0117539 -0.0107611 0 
0.00192262 0.00153324 0 
-0.000273679 -0.00655265 0 
-0.00354908 -0.00283029 0 
0.0038064 -0.0078966 0 
0.0022791 -0.00260999 0 
0.00273091 -0.00294654 0 
0.00295744 -0.0111809 0 
-0.00965132 -0.00888329 0 
-0.00478097 0.00118228 0 
-0.00403 -0.0172883 0 
-0.00877328 -0.0088799 0 
0.00121887 -0.0111876 0 
-0.00479984 -0.0179196 0 
-0.00551694 -0.0143046 0 
-0.0035491 -0.011198 0 
-0.00536151 -0.0207814 0 
-0.00258782 -0.0265497 0 
0.00046924 -0.0187226 0 
0.00227897 -0.00965086 0 
0.00414937 -0.00790084 0 
0.00673519 -0.0107138 0 
0.00913151 -0.0285887 0 
-0.000317027 -0.0253322 0 
0.00603683 -0.0237319 0 
-0.00520684 -0.0218969 0 
0.00156788 -0.0181336 0 
-0.00357916 -0.0232219 0 
0.000351699 0.000730311 0 
-0.000734711 -0.00735063 0 
-0.00148839 -0.00309067 0 
-0.00136541 -0.00613083 0 
-8.58166e-05 -0.00087709 0 
-0.000334049 -0.00403446 0 
6.43364e-11 -0.00360607 0 
0.000117704 -0.0244612 0 
6.61451e-11 -0.00370115 0 
-0.0102808 -0.00966533 0 
-0.0109849 -0.0110053 0 
-0.0147912 -0.00505956 0 
5.30862e-11 0.00279194 0 
0.00691074 -0.0139374 0 
5.73499e-11 -0.00826293 0 
0.000468034 0.000373245 0 
-0.00223751 -0.00596198 0 
-0.00248063 -0.00197824 0 
0.00767854 -0.0180531 0 
0.00839891 -0.0156847 0 
0.0100122 -0.0156449 0 
0.000897444 -0.000715688 0 
0.00093973 -0.00234672 0 
-0.000134522 0.000107277 0 
0.0209131 -0.0215736 0 
0.0134307 -0.00886891 0 
0.00906283 -0.00729669 0 
0.00612989 -0.0180162 0 
0.00415784 -0.00950925 0 
0.00632645 -0.01055 0 
2.16971e-11 -0.00465734 0 
-0.00338372 -0.0134348 0 
2.01477e-11 0.000885358 0 
0.00636759 -0.00909788 0 
0.00422722 -0.0139638 0 
0.00159987 -0.012343 0 
0.000303938 -0.00912176 0 
0.00187752 -0.0105279 0 
0.00184987 -0.0133371 0 
0.00166808 -0.00298524 0 
-0.000134098 -0.0137258 0 
-0.00446105 -0.0131006 0 
0.00471843 -0.00317486 0 
0.00243886 -0.000104792 0 
0.00624184 -0.00142689 0 
0.00111821 -0.000255223 0 
0.00244897 -0.00149867 0 
-0.000416712 9.51118e-05 0 
0.00203658 -0.00951789 0 
-0.00202275 -0.00527499 0 
0.00425196 -0.00795712 0 
0.00367159 -0.00292799 0 
0.017865 -0.01776 0 
9.69591e-05 -7.73222e-05 0 
0.000171095 3.90513e-05 0 
-0.000516011 -0.00108935 0 
-0.000776999 -0.000177345 0 
-0.0011365 -0.00492404 0 
-1.70163e-05 -0.0187979 0 
0.00595216 -0.0143811 0 
0.0078539 -0.00626328 0 
0.00958686 -0.0170814 0 
-0.00213309 0.00170108 0 
0.00288445 -0.00706311 0 
0.00494901 -0.00578804 0 
0.00536221 -0.0125588 0 
0.00967289 -0.00799526 0 
0.00654586 -0.0092043 0 
0.00431115 -0.00707663 0 
-0.00490515 -0.00896157 0 
-0.00756267 -0.0208621 0 
-0.00893106 -0.0210991 0 
0.00214156 -0.004447 0 
0.00244479 -0.0126335 0 
-2.99624e-05 6.22176e-05 0 
0.00135095 -0.00280528 0 
0.00345054 -0.0131488 0 
0.000175248 -0.000363906 0 
-0.000483805 -0.00100463 0 
-0.00659795 -0.0156818 0 
-0.000989157 -0.00205401 0 
0.00524839 -0.00119791 0 
0.0165779 -0.00816727 0 
-0.00172877 0.000394581 0 
2.15504e-05 -4.91883e-06 0 
0.000537478 6.28028e-05 0 
0.000233523 -5.33002e-05 0 
0.000153414 -0.0238229 0 
-0.00269792 -0.026367 0 
-0.00436322 -0.028682 0 
-0.00311454 -0.00394319 0 
-0.00578519 -0.0149689 0 
-0.000277639 -0.0163214 0 
0.0106191 -0.0241134 0 
0.00924211 -0.0199899 0 
0.00634092 -0.0232325 0 
0.00676882 -0.0105801 0 
0.00827106 -0.0118238 0 
0.00683261 -0.0127091 0 
-0.000789719 -0.00569577 0 
-0.00272407 -0.00210286 0 
0.000653496 -0.00590308 0 
-0.0060695 -0.0100389 0 
-0.011232 -0.0122312 0 
-0.00514717 0.00140445 0 
-0.00912714 -0.0235462 0 
-0.00406333 -0.0211313 0 
-0.0048133 -0.0240482 0 
-3.05292e-05 -0.00484834 0 
-0.0064729 -0.00775928 0 
-0.00474103 -0.000890642 0 
-0.00583055 -0.00517458 0 
-0.00465953 -0.00953896 0 
-0.00593865 -0.0106462 0 
0.000496279 0.000113272 0 
-0.00375353 -0.00274761 0 
-0.00170574 -0.000389324 0 
-0.00310743 -0.00254836 0 
-0.00424923 -0.0107796 0 
0.0020474 -0.012978 0 
-0.0088483 -0.0139879 0 
-0.00744037 -0.0204879 0 
-0.0121811 -0.0135388 0 
0.00176573 -0.00140812 0 
0.00299496 -0.00596581 0 
-0.000652255 0.000520156 0 
0.00197083 -0.0131727 0 
0.00149683 -0.0110453 0 
0.00260297 -0.0124751 0 
0.00335666 -0.00379919 0 
0.00513023 -0.0141089 0 
0.00104736 -0.0122448 0 
0.00110288 -0.0163669 0 
0.00152708 -0.016044 0 
-0.00319216 -0.0246923 0 
0.0105035 -0.0301046 0 
0.00537006 -0.0229952 0 
0.00827124 -0.01573 0 
0.0140052 -0.0162273 0 
0.0127461 -0.0253532 0 
0.0148675 -0.0162223 0 
0.000970127 -0.000221425 0 
0.000491591 -0.00105272 0 
-0.000617305 0.000140896 0 
0.00818695 -0.0146542 0 
0.00431324 -0.0190685 0 
0.00135109 -0.00965193 0 
0.000285208 0.000802918 0 
0.00316014 0.000643999 0 
0.00195337 -0.000681789 0 
-0.00409204 -0.00106223 0 
-0.00998602 -0.00779284 0 
-0.013368 -0.00752928 0 
-0.0070752 -0.0159255 0 
-0.0057609 -0.0292876 0 
-0.00658403 -0.0306988 0 
-0.00437633 0.00202447 0 
-0.000311202 -0.00953232 0 
0.000137661 -0.0243628 0 
-0.0040832 -0.0123383 0 
-0.00049728 -0.0144585 0 
0.00113189 -0.006015 0 
0.0221956 -0.0121575 0 
0.0164528 -0.00792261 0 
0.00792578 -0.00643392 0 
-0.00565733 -0.0148476 0 
-0.00865915 -0.0322764 0 
-0.00437976 -0.00824551 0 
0.00575329 -0.0159077 0 
0.00476505 -0.0164373 0 
0.00307522 -0.0174757 0 
0.0068719 -0.0067687 0 
0.0063739 -0.0130587 0 
0.00347385 -0.0100085 0 
-0.000937604 -0.00618229 0 
-0.000473224 -0.0239848 0 
0.0058524 -0.0172138 0 
0.00650247 -0.00506914 0 
0.0151876 -0.0242384 0 
0.00754766 -0.00648706 0 
0.00452855 -0.0039688 0 
0.016465 -0.0112648 0 
0.016065 -0.00685765 0 
0.00292792 -0.0232066 0 
-0.00164571 -0.020737 0 
-0.00038042 -0.00235612 0 
-0.00114355 -0.00600639 0 
0.00179713 -0.0144672 0 
0.00389905 -0.0125733 0 
0.00271385 -0.01693 0 
0.00186775 -0.0188142 0 
-0.00402351 -0.00507654 0 
0.00405373 -0.0140941 0 
0.00204396 -0.0134435 0 
0.0024042 -0.011739 0 
-0.0039675 -0.0013435 0 
0.00139869 -0.0143342 0 
0.00549295 -0.015485 0 
0.0017264 -0.0132582 0 
0.000731842 -0.01442 0 
0.00551212 -0.0181661 0 
-0.00342557 -0.00319542 0 
-0.00538324 -0.0206319 0 
0.000629489 -0.0198248 0 
-0.00624259 -0.00815334 0 
-0.0092357 -0.0121809 0 
-0.00480522 0.00141917 0 
0.00229207 -0.00397328 0 
-0.00959158 -0.0126926 0 
-0.00625671 -0.00817364 0 
0.0104842 -0.00999365 0 
0.00564098 -0.0130731 0 
0.0061999 -0.00678189 0 
0.00333948 -0.0175281 0 
0.00463115 -0.0164108 0 
0.00581196 -0.0180437 0 
-0.00111876 -0.0219207 0 
0.00538516 -0.0109089 0 
0.0130974 -0.0150325 0 
0.00427278 -0.0131285 0 
0.00116521 -0.0135283 0 
-0.00180556 -0.00255698 0 
0.0125755 -0.0122387 0 
0.00646564 -0.0163746 0 
0.00690579 -0.0108265 0 
0.0075758 -0.00882417 0 
0.00505089 -0.0141297 0 
0.00324761 -0.00382783 0 
0.000659261 -0.010946 0 
0.00252226 -0.018175 0 
0.00044399 -0.00208285 0 
-0.00730448 -0.0379126 0 
0.000253984 -0.0402768 0 
0.00313857 -0.0396878 0 
0.000265104 0.000550495 0 
-0.00239689 -0.00839757 0 
-0.000907613 -0.00188468 0 
0.00639399 -0.00136446 0 
0.00217489 -0.000213111 0 
-0.000576641 0.0011991 0 
0.00222226 -0.0146466 0 
0.00355997 -0.00913958 0 
0.00325918 0.000125485 0 
0.00695646 -0.0107385 0 
0.00645033 -0.0164011 0 
0.000955845 -0.0143627 0 
0.00102832 -0.00205246 0 
0.00172068 -0.0005432 0 
0.00261944 -0.00208535 0 
0.00207355 -0.0017918 0 
0.0067616 -0.0100487 0 
0.00420294 -0.0019088 0 
-0.000345804 -0.00287255 0 
-0.0012401 -0.00982553 0 
-0.00441239 -0.0101335 0 
0.00505961 -0.0160159 0 
0.00903063 -0.0171384 0 
0.00732152 -0.0191783 0 
-0.000365945 -0.000759892 0 
-0.0036726 -0.0129131 0 
-0.00127435 -0.00264622 0 
-0.00466649 -0.00563027 0 
-0.00432319 -0.0206872 0 
-0.000129675 -0.0245685 0 
0.00663821 -0.0122671 0 
0.00503857 -0.0162322 0 
0.00442483 -0.012216 0 
0.00785122 -0.00768126 0 
0.00314813 0.000679729 0 
-0.000212979 0.00228483 0 
0.00366204 -0.00433764 0 
0.00406918 0.000636215 0 
0.00659859 -0.00762208 0 
0.00142769 -0.0146367 0 
-0.00174323 -0.0162488 0 
0.00110175 -0.0128293 0 
-0.00976985 -0.0235411 0 
-0.00513867 -0.0277588 0 
-0.00949346 -0.0304595 0 
-0.005484 -0.0166236 0 
0.00239431 -0.0116579 0 
0.00164856 0.00267249 0 
0.0153075 -0.0154334 0 
0.0168004 -0.018196 0 
0.0158799 -0.0216302 0 
-0.000915077 -0.0230762 0 
0.00249923 -0.0223745 0 
0.00611561 -0.017755 0 
-0.00196723 -0.0255981 0 
0.000211005 -0.0410783 0 
-0.00164671 -0.0359934 0 
0.00170771 -0.0164486 0 
0.00209374 -0.0099093 0 
0.00507539 -0.000191315 0 
-0.00025902 -0.0152098 0 
0.000492368 -0.0189754 0 
-0.000126848 -0.00926873 0 
-0.0046336 -0.0109694 0 
-0.00205825 -0.00542521 0 
0.00207912 -0.00933786 0 
-0.00320581 -0.0062821 0 
0.00723768 -0.0192596 0 
0.0162112 -0.021819 0 
0.000268102 -0.00533974 0 
0.00291422 -0.00810997 0 
0.00131493 -0.0111723 0 
-0.00836883 -0.0206144 0 
-0.00336606 -0.0134166 0 
-0.00376115 -0.00853469 0 
0.000226995 -0.0202147 0 
0.0050099 -0.0185772 0 
0.00378256 -0.0204846 0 
0.00726535 -0.00845942 0 
0.00219764 -0.00781345 0 
-0.00110831 0.00255778 0 
-0.00590251 -0.0171617 0 
-0.00490935 -0.0152391 0 
-0.00530438 -0.0171436 0 
0.00254794 -0.011228 0 
0.000831264 -0.0122249 0 
0.00162588 -0.0123053 0 
0.00576084 -0.0178527 0 
0.00464097 -0.0164475 0 
0.00442516 -0.00962769 0 
0.015105 -0.00709408 0 
0.015525 -0.0122043 0 
0.00981928 -0.00845473 0 
0.00533736 -0.0295405 0 
0.0011327 -0.0340039 0 
-0.000440667 -0.00455491 0 
-0.0120896 -0.0144219 0 
-0.0059346 -0.0155921 0 
-0.00521417 -0.00164453 0 
-0.00116912 -0.0234174 0 
-0.00171257 -0.0203652 0 
0.00272401 -0.0220726 0 
-0.00714903 -0.00298875 0 
-0.0116541 -0.0138527 0 
-0.00789212 -0.0203642 0 
0.00398955 -0.00607192 0 
0.00223977 -0.0148502 0 
0.000365392 -0.0176022 0 
0.00674758 -0.0146588 0 
-0.00116609 -0.0112986 0 
0.0034206 -0.00864339 0 
0.000691637 -0.00282993 0 
-0.000181216 -0.00432514 0 
0.000997698 -0.00175121 0 
0.00340677 -0.00156701 0 
0.00402627 -0.0085942 0 
-0.00146572 -0.00477783 0 
-0.000232157 -0.0215476 0 
0.000520796 -0.0253064 0 
-0.00371203 -0.00860754 0 
0.000832932 -0.00969741 0 
0.00507754 -0.019116 0 
0.000218708 -0.0065098 0 
-0.00280027 0.00148766 0 
-0.0039152 -0.00649645 0 
-0.00330788 -0.0255165 0 
0.00851397 -0.0102308 0 
0.0067726 -0.00909374 0 
0.00863855 -0.00849961 0 
-0.000118178 -0.0154442 0 
-0.00586947 -0.0154326 0 
-0.00497044 -0.0169739 0 
0.00109215 0.000870963 0 
-0.00565841 -0.0137511 0 
-0.00530754 -0.00423262 0 
0.00115279 -0.00569037 0 
0.00263791 -0.00282544 0 
0.00158341 -0.000274095 0 
-0.00730006 -0.0209543 0 
-0.00192838 -0.0202825 0 
-0.00176729 -0.0231882 0 
-0.00208984 -0.00843726 0 
-0.00293354 -0.0156182 0 
-0.00330042 -0.00654877 0 
0.00865298 -0.0150994 0 
0.0158076 -0.0119507 0 
0.00554874 -0.0029044 0 
0.00835777 -0.0357238 0 
-0.00093965 -0.0411872 0 
-0.000512934 -0.0254605 0 
-0.00027457 -9.82783e-05 0 
0.000120641 -0.00530139 0 
0.00235395 -0.010571 0 
-0.00310684 -0.0214281 0 
0.00225632 -0.0161879 0 
0.00349834 -0.00250665 0 
0.00970345 -0.0153442 0 
0.015715 -0.0126441 0 
0.0142758 -0.0100195 0 
0.00127447 -0.0048822 0 
0.00145133 -0.0107837 0 
0.00348623 -0.0161258 0 
0.00228041 -0.000512919 0 
0.00267844 0.000395261 0 
0.00361588 -0.000145152 0 
-0.00766841 -0.0205802 0 
-0.00602718 -0.0160612 0 
-0.0118923 -0.0134219 0 
-0.0016281 -0.00382791 0 
-0.00277559 -0.0211772 0 
0.000634322 -0.016646 0 
0.00913616 -0.0106224 0 
0.00845059 -0.0117661 0 
0.00838005 -0.00996514 0 
-0.00679185 -0.00600511 0 
-0.00409258 -0.0132519 0 
-0.0112297 -0.0131097 0 
0.00132636 -0.000922415 0 
-0.00285626 -0.0298078 0 
-0.0018783 -0.0229355 0 
0.0161035 -0.021647 0 
0.00697658 -0.0188429 0 
0.0145066 -0.0153731 0 
-0.00184087 -0.0206319 0 
-0.00263792 -0.0161643 0 
0.00288326 -0.0147741 0 
-0.00215456 -0.01107 0 
-0.000512417 -0.0173566 0 
-0.00575692 -0.0180075 0 
0.00424944 -0.0129817 0 
0.00560777 -0.00553768 0 
0.00678032 -0.0116467 0 
0.000348064 0.000277572 0 
-0.00375654 -0.006727 0 
-0.00190273 -0.00151737 0 
-0.00147605 -0.00830987 0 
0.00209348 -0.00983448 0 
0.000784306 -0.00100192 0 
0.00148019 -0.00642259 0 
-0.00690747 -0.0151342 0 
-0.00250114 -0.0237832 0 
0.0137373 -0.0206341 0 
0.00779531 -0.0205202 0 
0.0106186 -0.0241136 0 
-0.000201031 0.000770727 0 
0.00202236 -3.91531e-05 0 
0.000810443 -0.00241649 0 
0.00172924 -0.00822367 0 
-0.00349701 -0.0100374 0 
-0.00307199 -0.000497482 0 
-0.0058667 -0.032349 0 
-0.0029326 -0.0295244 0 
0.000502114 -0.0350548 0 
0.00257655 -0.00959835 0 
0.0018826 -0.0137887 0 
0.00161659 -0.00984264 0 
0.00177054 0.00281804 0 
0.00583206 -0.00858791 0 
-0.00648536 -0.0153271 0 
0.000678304 -0.0143541 0 
0.00629301 -0.0163963 0 
-0.000198582 -0.0191259 0 
-0.00505188 -0.0162419 0 
0.000459515 -0.0175831 0 
-0.00180368 -0.0218838 0 
0.0038532 -0.0400513 0 
-0.000515524 -0.0398853 0 
0.00724859 -0.0391285 0 
0.0031308 -0.000311447 0 
0.00668438 -0.00702372 0 
-0.000455628 -0.00305925 0 
0.0025432 0.000774956 0 
0.00353215 -0.000337023 0 
0.00444745 -0.00291428 0 
0.00141944 -0.0139231 0 
-0.00209545 -0.015036 0 
-0.00282565 -0.00894836 0 
-0.00585757 -0.00893753 0 
0.00184992 -0.025102 0 
-0.00120418 -0.0228727 0 
0.0066647 -0.0318708 0 
0.0123582 -0.0255092 0 
0.0155975 -0.0155872 0 
-0.00575782 -0.0283263 0 
-0.00323956 -0.0293907 0 
-0.00658832 -0.0320347 0 
0.00716781 -0.00991778 0 
0.00877928 -0.0123653 0 
-0.00580206 -0.000848384 0 
0.0148494 -0.0162057 0 
0.012226 -0.0248766 0 
0.00764172 -0.0200425 0 
0.0163092 -0.00837123 0 
0.00593737 -0.00912141 0 
0.00173054 0.00302065 0 
0.00162634 -0.00183208 0 
0.00248335 -0.000737703 0 
0.00465408 -0.00225941 0 
-0.00378708 -0.00631961 0 
-0.0040551 -0.0128749 0 
-0.00247364 -0.000549273 0 
0.00426893 -0.0193785 0 
-0.000291918 -0.0170683 0 
0.00454173 -0.0161641 0 
0.00363208 -0.0235332 0 
-0.00594262 -0.0283607 0 
-0.00631164 -0.0111912 0 
-0.000368213 -0.0141331 0 
-0.00115937 -0.00566865 0 
-0.000918809 -0.00840024 0 
-0.000143784 -0.0249997 0 
-0.0020211 -0.023279 0 
-0.00193647 -0.0281288 0 
0.00241822 -0.000680725 0 
0.00400827 -0.0087098 0 
-0.000860322 -0.00472108 0 
-0.00400263 -0.0244131 0 
0.00226268 -0.0162974 0 
-0.00311996 -0.021202 0 
0.00118046 -0.0189221 0 
-0.00336276 -0.0187302 0 
-0.00245454 -0.0130393 0 
-0.000479808 -0.00525482 0 
0.00214702 -0.00768503 0 
-0.00150445 -0.00944995 0 
0.00193491 -0.0139761 0 
0.000405674 -0.0137358 0 
0.00377496 -0.00964124 0 
0.0054124 -0.0176713 0 
0.00646039 -0.0104441 0 
0.0031803 -0.000339035 0 
0.0121196 -0.0157404 0 
0.00718401 -0.00960649 0 
0.0156661 -0.008121 0 
4.49674e-05 -0.00923113 0 
0.00182059 -0.0186847 0 
0.00270766 -0.016913 0 
0.0136401 -0.00996199 0 
0.0103816 -0.0157837 0 
0.00657993 -0.00827637 0 
0.00138196 -0.00209885 0 
0.000998827 -0.000838907 0 
0.00042075 0.000418501 0 
0.00243587 -0.0112513 0 
-6.15413e-06 -0.0133146 0 
-0.000779864 -0.00982161 0 
0.00422729 -0.00979464 0 
0.00459404 -0.0164871 0 
0.00166989 -0.0104826 0 
0.00398537 -0.0125877 0 
0.000555365 -0.0123103 0 
0.00187346 -0.00981946 0 
-0.00177797 -0.0230794 0 
-0.0071698 -0.0153895 0 
-0.00731646 -0.0207871 0 
-0.00203804 0.000121943 0 
-0.00123015 -0.0044835 0 
-0.00103796 -0.00742783 0 
0.00069435 -0.0139855 0 
-0.00514146 -0.0103585 0 
-0.00380353 -0.0082077 0 
0.00196839 -0.0134663 0 
-0.00413321 -0.0100625 0 
0.000345611 -0.0140878 0 
0.00518227 -0.0149025 0 
0.00296632 -0.017284 0 
0.000622304 -0.0110202 0 
-0.00893653 -0.0145128 0 
-0.00363294 -0.0172753 0 
-0.00738933 -0.0201842 0 
0.000132267 -0.00986032 0 
0.000769849 -0.00684725 0 
0.000744073 -0.00981048 0 
-0.000307218 -0.000691431 0 
-0.00199577 -0.00360813 0 
-0.0011517 -0.000891453 0 
-0.0112089 -0.0131126 0 
-0.00339413 -0.0133483 0 
-0.00823648 -0.0209366 0 
-0.000908933 -0.0106089 0 
-0.00432 -0.017612 0 
-0.00804807 -0.0140775 0 
0.00615995 -0.00986494 0 
0.00408396 -0.00920526 0 
0.00425711 -0.00192535 0 
0.00355943 -0.0129842 0 
0.00373094 -0.00889546 0 
0.00381744 -0.00114808 0 
0.00397063 -0.0150478 0 
0.000787875 -0.0122601 0 
0.00463364 -0.0124476 0 
0.00807147 -0.0117839 0 
0.00507924 -0.0187816 0 
0.00399188 -0.0165851 0 
0.00219412 -0.006633 0 
-0.0081728 -0.0129437 0 
-0.00110538 0.0015766 0 
0.0017209 -0.00345422 0 
0.00317964 -0.0156957 0 
0.00301191 -0.00519243 0 
-0.00212569 -0.00409338 0 
-0.00370781 -0.00616406 0 
-0.00607961 -0.0201508 0 
0.00221467 -0.00568791 0 
0.0062596 -0.0197432 0 
0.00751999 -0.0113346 0 
0.00132271 -0.0249119 0 
0.00551552 -0.0201124 0 
0.00354582 -0.00502744 0 
-0.00294353 -0.000984555 0 
0.00404216 -0.00984356 0 
0.00359567 -0.0130945 0 
3.41156e-12 0.00594479 0 
0.00783125 -0.0134753 0 
-1.89653e-11 -0.0131517 0 
4.07647e-11 0.0021782 0 
0.00298729 -0.0137482 0 
7.70241e-12 -0.00650627 0 
-0.00124812 -0.00259174 0 
0.00188427 -0.0106156 0 
-0.00313187 -0.0065034 0 
0.00144481 -0.00300017 0 
0.00482883 -0.0132132 0 
0.000949166 -0.00197096 0 
-2.62192e-11 -0.0123329 0 
-0.00774829 -0.0152175 0 
-5.97309e-11 0.00369623 0 
-0.0040163 -0.00961791 0 
-0.00593593 -0.0125936 0 
-0.00462435 -0.0190278 0 
0.00250321 -0.000571342 0 
0.00217968 -0.00541153 0 
-4.74881e-05 1.08387e-05 0 
-0.00205409 -0.00659523 0 
0.00405683 -0.00311123 0 
0.00178583 -0.00732688 0 
0.00213902 0.000488217 0 
-0.00422486 -0.00554516 0 
-0.00215583 -0.000492055 0 
8.39362e-11 -0.000729415 0 
0.00519342 -0.0340904 0 
8.91103e-11 -0.00593744 0 
0.00191867 -0.00565672 0 
0.000515498 0.000133457 0 
-5.14913e-05 0.000229871 0 
0.0037178 -0.00402966 0 
-0.00818785 -0.0131904 0 
-0.00320619 -0.00089479 0 
TENSORS Stress float 
-7.33143 0.433486 0 
0.433486 -7.90715 0 
0 0 0 
-7.37047 0.129644 0 
0.129644 -7.8681 0 
0 0 0 
-7.91752 0.549512 0 
0.549512 -7.32105 0 
0 0 0 
-8.53345 0.232625 0 
0.232625 -9.13002 0 
0 0 0 
-8.91041 0.280073 0 
0.280073 -8.75306 0 
0 0 0 
-8.85022 0.181722 0 
0.181722 -8.81326 0 
0 0 0 
-6.80216 -0.137493 0 
-0.137493 -6.634 0 
0 0 0 
-6.88568 -0.0343231 0 
-0.0343231 -6.55048 0 
0 0 0 
-6.55833 -0.0490436 0 
-0.0490436 -6.87783 0 
0 0 0 
-0.175264 0.219912 0 
0.219912 0.423265 0 
0 0 0 
0.0237498 0.146844 0 
0.146844 0.224251 0 
0 0 0 
0.0245766 -0.114193 0 
-0.114193 0.223424 0 
0 0 0 
-9.78842 -0.332876 0 
-0.332876 -9.85221 0 
0 0 0 
-9.61418 -0.0826321 0 
-0.0826321 -10.0265 0 
0 0 0 
-9.64145 -0.143723 0 
-0.143723 -9.99919 0 
0 0 0 
-3.92428 -0.421027 0 
-0.421027 -3.83538 0 
0 0 0 
-4.12421 0.0440961 0 
0.0440961 -3.63546 0 
0 0 0 
-3.59257 0.0760126 0 
0.0760126 -4.1671 0 
0 0 0 
-10.1447 0.00503432 0 
0.00503432 -9.78859 0 
0 0 0 
-9.97609 0.20967 0 
0.20967 -9.9572 0 
0 0 0 
-9.9092 -0.0266478 0 
-0.0266478 -10.0241 0 
0 0 0 
-7.65031 -0.0951162 0 
-0.0951162 -7.66066 0 
0 0 0 
-7.54755 0.063309 0 
0.063309 -7.76342 0 
0 0 0 
-7.82163 -0.365716 0 
-0.365716 -7.48934 0 
0 0 0 
-1.59076 -0.0704297 0 
-0.0704297 -2.09734 0 
0 0 0 
-1.67162 -0.0669108 0 
-0.0669108 -2.01647 0 
0 0 0 
-1.79977 0.253276 0 
0.253276 -1.88832 0 
0 0 0 
-9.13225 0.143769 0 
0.143769 -8.83653 0 
0 0 0 
-9.12413 -0.245371 0 
-0.245371 -8.84464 0 
0 0 0 
-9.00969 -0.116103 0 
-0.116103 -8.95909 0 
0 0 0 
-6.48099 -0.137262 0 
-0.137262 -6.77502 0 
0 0 0 
-6.5538 -0.344694 0 
-0.344694 -6.70222 0 
0 0 0 
-6.63441 -0.274859 0 
-0.274859 -6.62161 0 
0 0 0 
-9.89245 -0.0273007 0 
-0.0273007 -10.031 0 
0 0 0 
-9.89124 0.227209 0 
0.227209 -10.0322 0 
0 0 0 
-9.60433 0.0543359 0 
0.0543359 -10.3191 0 
0 0 0 
-9.82331 -0.13365 0 
-0.13365 -10.3268 0 
0 0 0 
-10.0297 0.114679 0 
0.114679 -10.1204 0 
0 0 0 
-9.89649 0.00982357 0 
0.00982357 -10.2536 0 
0 0 0 
-0.140528 0.182049 0 
0.182049 0.171506 0 
0 0 0 
0.0926938 0.0304021 0 
0.0304021 -0.0617161 0 
0 0 0 
-0.0365239 -0.0473442 0 
-0.0473442 0.0675016 0 
0 0 0 
-2.13225 -0.0941953 0 
-0.0941953 -1.76421 0 
0 0 0 
-2.07094 0.0350271 0 
0.0350271 -1.82552 0 
0 0 0 
-2.08273 0.118329 0 
0.118329 -1.81374 0 
0 0 0 
-4.09477 -0.0332399 0 
-0.0332399 -3.44655 0 
0 0 0 
-3.8689 0.161925 0 
0.161925 -3.67242 0 
0 0 0 
-3.77288 -0.0923854 0 
-0.0923854 -3.76844 0 
0 0 0 
-0.0438105 0.225694 0 
0.225694 -0.670259 0 
0 0 0 
-0.127968 -0.301884 0 
-0.301884 -0.586102 0 
0 0 0 
-0.278537 0.315238 0 
0.315238 -0.435533 0 
0 0 0 
-3.82597 -0.197151 0 
-0.197151 -3.87985 0 
0 0 0 
-3.88778 0.136558 0 
0.136558 -3.81804 0 
0 0 0 
-3.5834 0.0626131 0 
0.0626131 -4.12242 0 
0 0 0 
-4.15718 -0.0437127 0 
-0.0437127 -3.9151 0 
0 0 0 
-4.30301 0.419112 0 
0.419112 -3.76927 0 
0 0 0 
-4.09154 0.261881 0 
0.261881 -3.98075 0 
0 0 0 
-1.23968 0.416528 0 
0.416528 -1.36821 0 
0 0 0 
-1.58164 0.648055 0 
0.648055 -1.02625 0 
0 0 0 
-0.932472 0.58121 0 
0.58121 -1.67541 0 
0 0 0 
-0.044236 0.0852102 0 
0.0852102 0.305991 0 
0 0 0 
0.105488 0.114935 0 
0.114935 0.156266 0 
0 0 0 
-0.121008 0.00107515 0 
0.00107515 0.382763 0 
0 0 0 
-1.53569 -0.116926 0 
-0.116926 -1.99684 0 
0 0 0 
-1.9957 0.00219428 0 
0.00219428 -1.53683 0 
0 0 0 
-1.53055 0.931754 0 
0.931754 -2.00198 0 
0 0 0 
-0.720115 1.02738 0 
1.02738 -4.23083 0 
0 0 0 
-2.29664 -0.486815 0 
-0.486815 -2.6543 0 
0 0 0 
-4.59516 0.710523 0 
0.710523 -0.355789 0 
0 0 0 
-0.976394 0.058638 0 
0.058638 -1.02277 0 
0 0 0 
-0.983897 0.471383 0 
0.471383 -1.01526 0 
0 0 0 
-0.730028 0.385759 0 
0.385759 -1.26913 0 
0 0 0 
-5.17349 -0.33856 0 
-0.33856 -5.63654 0 
0 0 0 
-5.23646 -0.195878 0 
-0.195878 -5.57358 0 
0 0 0 
-5.07422 -0.217612 0 
-0.217612 -5.73582 0 
0 0 0 
-4.7715 0.0868986 0 
0.0868986 -4.53649 0 
0 0 0 
-4.79835 0.0969861 0 
0.0969861 -4.50963 0 
0 0 0 
-4.8478 0.0844952 0 
0.0844952 -4.46018 0 
0 0 0 
0.0500316 0.15558 0 
0.15558 0.108529 0 
0 0 0 
0.0560403 0.0638809 0 
0.0638809 0.102521 0 
0 0 0 
-0.077837 0.159834 0 
0.159834 0.236398 0 
0 0 0 
-5.75327 -0.301294 0 
-0.301294 -6.361 0 
0 0 0 
-5.99163 -0.367933 0 
-0.367933 -6.12264 0 
0 0 0 
-5.74979 -0.173956 0 
-0.173956 -6.36447 0 
0 0 0 
-7.10173 -0.0353358 0 
-0.0353358 -6.86519 0 
0 0 0 
-6.93978 -0.0717981 0 
-0.0717981 -7.02714 0 
0 0 0 
-6.96059 -0.195446 0 
-0.195446 -7.00633 0 
0 0 0 
-9.24467 0.382353 0 
0.382353 -9.4656 0 
0 0 0 
-9.05725 0.281768 0 
0.281768 -9.65302 0 
0 0 0 
-9.15549 0.17478 0 
0.17478 -9.55478 0 
0 0 0 
-9.12957 -0.038203 0 
-0.038203 -8.93508 0 
0 0 0 
-8.98782 0.0534052 0 
0.0534052 -9.07683 0 
0 0 0 
-9.30132 0.144923 0 
0.144923 -8.76333 0 
0 0 0 
-6.69099 0.191519 0 
0.191519 -6.42989 0 
0 0 0 
-6.51393 0.20913 0 
0.20913 -6.60695 0 
0 0 0 
-6.73649 0.150424 0 
0.150424 -6.38438 0 
0 0 0 
-9.59919 0.395684 0 
0.395684 -9.46502 0 
0 0 0 
-9.71811 -0.286302 0 
-0.286302 -9.34609 0 
0 0 0 
-9.8634 0.299705 0 
0.299705 -9.20081 0 
0 0 0 
-4.26763 0.326053 0 
0.326053 -3.79521 0 
0 0 0 
-4.36141 0.386536 0 
0.386536 -3.70143 0 
0 0 0 
-4.31038 0.16626 0 
0.16626 -3.75246 0 
0 0 0 
-5.58527 0.0264702 0 
0.0264702 -6.0053 0 
0 0 0 
-5.63902 0.0374094 0 
0.0374094 -5.95155 0 
0 0 0 
-5.70326 -0.0732666 0 
-0.0732666 -5.8873 0 
0 0 0 
-5.07215 0.0224649 0 
0.0224649 -4.74383 0 
0 0 0 
-5.04766 0.121975 0 
0.121975 -4.76832 0 
0 0 0 
-4.99279 0.190099 0 
0.190099 -4.82319 0 
0 0 0 
-7.46807 0.137913 0 
0.137913 -7.33509 0 
0 0 0 
-7.67009 0.313257 0 
0.313257 -7.13306 0 
0 0 0 
-7.65161 0.18476 0 
0.18476 -7.15154 0 
0 0 0 
-7.4515 -0.39865 0 
-0.39865 -6.91499 0 
0 0 0 
-7.51638 0.126168 0 
0.126168 -6.85012 0 
0 0 0 
-7.36837 -0.258028 0 
-0.258028 -6.99812 0 
0 0 0 
-3.89785 0.244693 0 
0.244693 -3.84246 0 
0 0 0 
-4.23051 -0.0284254 0 
-0.0284254 -3.5098 0 
0 0 0 
-3.98478 -0.146672 0 
-0.146672 -3.75553 0 
0 0 0 
-7.34845 -0.0311201 0 
-0.0311201 -6.83749 0 
0 0 0 
-7.25475 -0.115525 0 
-0.115525 -6.93118 0 
0 0 0 
-7.34459 -0.0685406 0 
-0.0685406 -6.84134 0 
0 0 0 
-0.959598 0.585304 0 
0.585304 -1.76418 0 
0 0 0 
-0.777519 0.585309 0 
0.585309 -1.94626 0 
0 0 0 
-1.3318 0.666886 0 
0.666886 -1.39198 0 
0 0 0 
-0.446044 -0.114512 0 
-0.114512 0.384208 0 
0 0 0 
-0.244905 0.124662 0 
0.124662 0.183069 0 
0 0 0 
-0.0975287 -0.0035039 0 
-0.0035039 0.0356926 0 
0 0 0 
-0.483328 -0.124213 0 
-0.124213 -0.0527105 0 
0 0 0 
-0.360621 -0.14113 0 
-0.14113 -0.175417 0 
0 0 0 
-0.515095 -0.250863 0 
-0.250863 -0.0209433 0 
0 0 0 
-5.11682 0.0401968 0 
0.0401968 -4.61589 0 
0 0 0 
-5.11155 0.0382151 0 
0.0382151 -4.62115 0 
0 0 0 
-5.12648 0.100041 0 
0.100041 -4.60622 0 
0 0 0 
-7.99443 -0.0412887 0 
-0.0412887 -7.00702 0 
0 0 0 
-8.00421 -0.168641 0 
-0.168641 -6.99724 0 
0 0 0 
-7.82872 -0.0471648 0 
-0.0471648 -7.17273 0 
0 0 0 
-9.90344 0.205413 0 
0.205413 -10.0188 0 
0 0 0 
-9.88895 0.22215 0 
0.22215 -10.0333 0 
0 0 0 
-9.91166 0.237648 0 
0.237648 -10.0106 0 
0 0 0 
0.0877452 -0.0365694 0 
-0.0365694 -0.164501 0 
0 0 0 
-0.0171261 -0.133693 0 
-0.133693 -0.0596296 0 
0 0 0 
-0.0407603 -0.0649075 0 
-0.0649075 -0.0359954 0 
0 0 0 
-9.2262 0.269607 0 
0.269607 -9.96443 0 
0 0 0 
-9.01575 0.45246 0 
0.45246 -10.1749 0 
0 0 0 
-9.08515 0.231952 0 
0.231952 -10.1055 0 
0 0 0 
-3.95534 -0.0589651 0 
-0.0589651 -3.84531 0 
0 0 0 
-4.0422 -0.0459726 0 
-0.0459726 -3.75845 0 
0 0 0 
-3.98198 0.189834 0 
0.189834 -3.81866 0 
0 0 0 
-3.84745 -0.0907539 0 
-0.0907539 -3.98834 0 
0 0 0 
-3.78229 -0.0865781 0 
-0.0865781 -4.0535 0 
0 0 0 
-3.80897 -0.0443676 0 
-0.0443676 -4.02682 0 
0 0 0 
-0.558207 -0.527194 0 
-0.527194 -0.53051 0 
0 0 0 
-0.777118 0.226819 0 
0.226819 -0.311599 0 
0 0 0 
-0.377453 -0.567517 0 
-0.567517 -0.711264 0 
0 0 0 
-6.39908 -0.310603 0 
-0.310603 -6.70926 0 
0 0 0 
-6.49858 -0.301663 0 
-0.301663 -6.60976 0 
0 0 0 
-6.43819 -0.341296 0 
-0.341296 -6.67015 0 
0 0 0 
-4.25483 -0.03494 0 
-0.03494 -4.13894 0 
0 0 0 
-4.11779 -0.0823346 0 
-0.0823346 -4.27598 0 
0 0 0 
-4.45061 0.203445 0 
0.203445 -3.94316 0 
0 0 0 
-7.13389 -0.157607 0 
-0.157607 -6.81717 0 
0 0 0 
-7.04958 -0.253844 0 
-0.253844 -6.90148 0 
0 0 0 
-7.0144 -0.152889 0 
-0.152889 -6.93666 0 
0 0 0 
-9.21136 0.021204 0 
0.021204 -7.14318 0 
0 0 0 
-8.4034 0.00695862 0 
0.00695862 -7.95114 0 
0 0 0 
-8.67615 -1.42807 0 
-1.42807 -7.67839 0 
0 0 0 
-2.22207 -0.824708 0 
-0.824708 -3.30701 0 
0 0 0 
-2.43268 -0.858953 0 
-0.858953 -3.0964 0 
0 0 0 
-2.20888 -0.82461 0 
-0.82461 -3.3202 0 
0 0 0 
-7.00585 0.0543145 0 
0.0543145 -6.6419 0 
0 0 0 
-7.24276 0.0979055 0 
0.0979055 -6.40498 0 
0 0 0 
-7.19869 -0.0295505 0 
-0.0295505 -6.44905 0 
0 0 0 
-10.0552 0.0538818 0 
0.0538818 -10.2126 0 
0 0 0 
-9.99462 0.0744617 0 
0.0744617 -10.2732 0 
0 0 0 
-10.0537 0.0300013 0 
0.0300013 -10.2141 0 
0 0 0 
-5.15589 0.101496 0 
0.101496 -4.89879 0 
0 0 0 
-5.26412 0.0368206 0 
0.0368206 -4.79056 0 
0 0 0 
-5.18628 0.247094 0 
0.247094 -4.8684 0 
0 0 0 
-10.012 -0.149505 0 
-0.149505 -10.0626 0 
0 0 0 
-10.065 -0.0814598 0 
-0.0814598 -10.0095 0 
0 0 0 
-10.0353 -0.0731149 0 
-0.0731149 -10.0393 0 
0 0 0 
-4.68281 0.0476775 0 
0.0476775 -4.38971 0 
0 0 0 
-4.5979 0.0243474 0 
0.0243474 -4.47462 0 
0 0 0 
-4.70665 -0.00291076 0 
-0.00291076 -4.36587 0 
0 0 0 
-5.08293 0.270801 0 
0.270801 -4.53432 0 
0 0 0 
-5.05577 0.193948 0 
0.193948 -4.56147 0 
0 0 0 
-5.10895 0.241279 0 
0.241279 -4.50829 0 
0 0 0 
-5.34363 0.226907 0 
0.226907 -5.49238 0 
0 0 0 
-4.9167 0.154631 0 
0.154631 -5.91931 0 
0 0 0 
-5.44102 0.0360303 0 
0.0360303 -5.39499 0 
0 0 0 
-6.57897 -0.472417 0 
-0.472417 -6.28265 0 
0 0 0 
-6.42109 -0.368164 0 
-0.368164 -6.44054 0 
0 0 0 
-6.20887 -0.481373 0 
-0.481373 -6.65276 0 
0 0 0 
-2.04637 -0.909231 0 
-0.909231 -2.76063 0 
0 0 0 
-1.81145 -0.56441 0 
-0.56441 -2.99554 0 
0 0 0 
-2.23306 -0.738154 0 
-0.738154 -2.57393 0 
0 0 0 
-3.9154 0.0147178 0 
0.0147178 -3.40895 0 
0 0 0 
-3.87161 -0.0344657 0 
-0.0344657 -3.45273 0 
0 0 0 
-3.84371 -0.0146528 0 
-0.0146528 -3.48064 0 
0 0 0 
-5.02274 -0.105713 0 
-0.105713 -5.5319 0 
0 0 0 
-5.05338 -0.150354 0 
-0.150354 -5.50126 0 
0 0 0 
-4.98924 -0.132032 0 
-0.132032 -5.56541 0 
0 0 0 
-5.83471 -0.034755 0 
-0.034755 -5.93823 0 
0 0 0 
-5.91119 -0.0333164 0 
-0.0333164 -5.86175 0 
0 0 0 
-5.87102 -0.120685 0 
-0.120685 -5.90192 0 
0 0 0 
-5.18419 -0.0291392 0 
-0.0291392 -5.03685 0 
0 0 0 
-5.17978 0.0337764 0 
0.0337764 -5.04127 0 
0 0 0 
-5.21496 0.0370618 0 
0.0370618 -5.00608 0 
0 0 0 
-6.68818 -0.111247 0 
-0.111247 -6.33284 0 
0 0 0 
-6.57934 -0.000405007 0 
-0.000405007 -6.44168 0 
0 0 0 
-6.61645 -0.114594 0 
-0.114594 -6.40457 0 
0 0 0 
-5.40562 -0.0738067 0 
-0.0738067 -5.36802 0 
0 0 0 
-5.23306 0.146179 0 
0.146179 -5.54058 0 
0 0 0 
-5.15563 -0.389397 0 
-0.389397 -5.61801 0 
0 0 0 
-5.05863 -0.0745288 0 
-0.0745288 -5.5317 0 
0 0 0 
-5.04063 -0.0468549 0 
-0.0468549 -5.54969 0 
0 0 0 
-5.09137 -0.0528037 0 
-0.0528037 -5.49896 0 
0 0 0 
-7.23731 0.221957 0 
0.221957 -7.88067 0 
0 0 0 
-7.2454 -0.042883 0 
-0.042883 -7.87258 0 
0 0 0 
-7.49422 -0.0107702 0 
-0.0107702 -7.62376 0 
0 0 0 
-7.03377 -0.0586741 0 
-0.0586741 -6.53308 0 
0 0 0 
-6.82339 -0.160993 0 
-0.160993 -6.74345 0 
0 0 0 
-6.87599 -0.279412 0 
-0.279412 -6.69086 0 
0 0 0 
-0.109571 0.107989 0 
0.107989 -0.163573 0 
0 0 0 
0.312854 0.081142 0 
0.081142 -0.585998 0 
0 0 0 
-0.0877399 -0.0542703 0 
-0.0542703 -0.185404 0 
0 0 0 
-5.08554 0.198171 0 
0.198171 -4.44455 0 
0 0 0 
-5.13408 0.336846 0 
0.336846 -4.39601 0 
0 0 0 
-5.05685 0.251893 0 
0.251893 -4.47324 0 
0 0 0 
-4.85595 0.155242 0 
0.155242 -5.07436 0 
0 0 0 
-5.17087 0.0665309 0 
0.0665309 -4.75945 0 
0 0 0 
-5.27268 0.125167 0 
0.125167 -4.65764 0 
0 0 0 
-0.129501 0.23456 0 
0.23456 0.14127 0 
0 0 0 
-0.112346 0.192533 0 
0.192533 0.124115 0 
0 0 0 
-0.115022 0.230829 0 
0.230829 0.126791 0 
0 0 0 
-7.19214 0.339542 0 
0.339542 -7.78678 0 
0 0 0 
-7.1881 0.323805 0 
0.323805 -7.79082 0 
0 0 0 
-7.21372 0.311217 0 
0.311217 -7.7652 0 
0 0 0 
-9.9742 -0.0356989 0 
-0.0356989 -10.0144 0 
0 0 0 
-9.99699 -0.0495386 0 
-0.0495386 -9.99157 0 
0 0 0 
-9.99114 -0.0334476 0 
-0.0334476 -9.99742 0 
0 0 0 
-5.73784 0.0307155 0 
0.0307155 -5.66092 0 
0 0 0 
-5.64553 -0.0705452 0 
-0.0705452 -5.75324 0 
0 0 0 
-5.60119 0.0190358 0 
0.0190358 -5.79758 0 
0 0 0 
-10.0073 0.077596 0 
0.077596 -10.1325 0 
0 0 0 
-9.93458 0.0753584 0 
0.0753584 -10.2052 0 
0 0 0 
-9.83119 -0.00887903 0 
-0.00887903 -10.3086 0 
0 0 0 
-7.06122 0.0576391 0 
0.0576391 -7.89177 0 
0 0 0 
-7.04966 0.187198 0 
0.187198 -7.90333 0 
0 0 0 
-7.26597 0.174554 0 
0.174554 -7.68702 0 
0 0 0 
-0.369346 0.216702 0 
0.216702 0.180056 0 
0 0 0 
-0.433719 -0.37655 0 
-0.37655 0.244428 0 
0 0 0 
-1.33617 -0.375741 0 
-0.375741 1.14688 0 
0 0 0 
-10.0127 0.305157 0 
0.305157 -10.003 0 
0 0 0 
-10.0321 0.285465 0 
0.285465 -9.98371 0 
0 0 0 
-9.99293 0.266824 0 
0.266824 -10.0228 0 
0 0 0 
-0.111319 -0.00162622 0 
-0.00162622 0.393438 0 
0 0 0 
0.202729 -0.0937996 0 
-0.0937996 0.0793908 0 
0 0 0 
0.00978514 -0.147781 0 
-0.147781 0.272334 0 
0 0 0 
-0.0743508 -0.0412406 0 
-0.0412406 0.035235 0 
0 0 0 
-0.0355312 0.00392712 0 
0.00392712 -0.00358452 0 
0 0 0 
-0.0377142 -0.118274 0 
-0.118274 -0.0014015 0 
0 0 0 
-9.90267 0.0468453 0 
0.0468453 -10.0572 0 
0 0 0 
-9.88239 -0.0633386 0 
-0.0633386 -10.0775 0 
0 0 0 
-10.0095 0.0710127 0 
0.0710127 -9.95031 0 
0 0 0 
-6.43414 3.63276e-05 0 
3.63276e-05 -6.40669 0 
0 0 0 
-6.26836 0.0171737 0 
0.0171737 -6.57247 0 
0 0 0 
-6.4134 -0.176046 0 
-0.176046 -6.42743 0 
0 0 0 
-8.59077 -0.0171933 0 
-0.0171933 -8.92885 0 
0 0 0 
-8.42847 -0.176904 0 
-0.176904 -9.09115 0 
0 0 0 
-8.36111 -0.182214 0 
-0.182214 -9.15852 0 
0 0 0 
-6.28145 0.358925 0 
0.358925 -6.32673 0 
0 0 0 
-6.36096 0.307642 0 
0.307642 -6.24722 0 
0 0 0 
-6.51326 0.359844 0 
0.359844 -6.09492 0 
0 0 0 
-4.83624 0.0943524 0 
0.0943524 -4.50626 0 
0 0 0 
-4.82682 0.142144 0 
0.142144 -4.51568 0 
0 0 0 
-4.85422 0.151674 0 
0.151674 -4.48828 0 
0 0 0 
-7.99053 0.419026 0 
0.419026 -8.59434 0 
0 0 0 
-8.52054 -0.231507 0 
-0.231507 -8.06432 0 
0 0 0 
-8.42757 0.0752413 0 
0.0752413 -8.15729 0 
0 0 0 
-8.5178 -0.0117015 0 
-0.0117015 -8.11091 0 
0 0 0 
-8.36148 -0.284452 0 
-0.284452 -8.26723 0 
0 0 0 
-7.91003 0.171756 0 
0.171756 -8.71869 0 
0 0 0 
-0.222828 0.184838 0 
0.184838 0.0231059 0 
0 0 0 
-0.297929 -0.131813 0 
-0.131813 0.0982075 0 
0 0 0 
-0.635758 0.0337457 0 
0.0337457 0.436036 0 
0 0 0 
-0.110109 -0.10122 0 
-0.10122 -0.0540054 0 
0 0 0 
-0.14613 -0.144561 0 
-0.144561 -0.0179841 0 
0 0 0 
-0.181822 -0.126823 0 
-0.126823 0.0177076 0 
0 0 0 
-5.42081 0.0227864 0 
0.0227864 -5.26749 0 
0 0 0 
-5.498 0.0180986 0 
0.0180986 -5.1903 0 
0 0 0 
-5.36285 0.145933 0 
0.145933 -5.32544 0 
0 0 0 
-0.337528 0.0142841 0 
0.0142841 -0.590643 0 
0 0 0 
-0.445685 0.26172 0 
0.26172 -0.482486 0 
0 0 0 
-0.371186 -0.136966 0 
-0.136966 -0.556985 0 
0 0 0 
-7.217 0.54405 0 
0.54405 -7.01827 0 
0 0 0 
-7.29066 0.00175369 0 
0.00175369 -6.94462 0 
0 0 0 
-8.10461 0.057776 0 
0.057776 -6.13067 0 
0 0 0 
-4.89915 0.0931567 0 
0.0931567 -4.79837 0 
0 0 0 
-4.96775 -0.080342 0 
-0.080342 -4.72977 0 
0 0 0 
-5.24248 0.102709 0 
0.102709 -4.45505 0 
0 0 0 
-5.05589 -0.0162 0 
-0.0162 -5.35565 0 
0 0 0 
-5.41637 0.000688317 0 
0.000688317 -4.99518 0 
0 0 0 
-5.13501 -0.0123543 0 
-0.0123543 -5.27653 0 
0 0 0 
-0.510092 -0.263236 0 
-0.263236 -0.00464478 0 
0 0 0 
-0.644197 -0.248376 0 
-0.248376 0.12946 0 
0 0 0 
-0.612123 -0.336719 0 
-0.336719 0.0973866 0 
0 0 0 
-9.83252 -0.04705 0 
-0.04705 -9.88634 0 
0 0 0 
-9.83911 -0.379615 0 
-0.379615 -9.87975 0 
0 0 0 
-10.0287 -0.161408 0 
-0.161408 -9.69017 0 
0 0 0 
-6.6272 -0.0105059 0 
-0.0105059 -6.29863 0 
0 0 0 
-6.49044 0.052368 0 
0.052368 -6.43538 0 
0 0 0 
-6.56967 -0.0785228 0 
-0.0785228 -6.35616 0 
0 0 0 
-5.13428 0.27863 0 
0.27863 -5.4406 0 
0 0 0 
-5.25286 0.0249137 0 
0.0249137 -5.32202 0 
0 0 0 
-5.50425 0.259196 0 
0.259196 -5.07062 0 
0 0 0 
-5.16259 0.192028 0 
0.192028 -4.62428 0 
0 0 0 
-5.17123 0.109015 0 
0.109015 -4.61564 0 
0 0 0 
-5.19522 0.203745 0 
0.203745 -4.59165 0 
0 0 0 
-4.54308 -0.331734 0 
-0.331734 -4.25536 0 
0 0 0 
-4.34329 -0.390269 0 
-0.390269 -4.45515 0 
0 0 0 
-4.54055 -0.443118 0 
-0.443118 -4.25789 0 
0 0 0 
-3.78747 0.25932 0 
0.25932 -3.9993 0 
0 0 0 
-3.84551 0.00936095 0 
0.00936095 -3.94126 0 
0 0 0 
-3.94593 0.264651 0 
0.264651 -3.84084 0 
0 0 0 
-4.61625 -0.379906 0 
-0.379906 -4.01756 0 
0 0 0 
-4.40772 -0.230598 0 
-0.230598 -4.2261 0 
0 0 0 
-4.44957 -0.39044 0 
-0.39044 -4.18424 0 
0 0 0 
-0.398475 -0.24687 0 
-0.24687 0.0183761 0 
0 0 0 
-0.331382 -0.346269 0 
-0.346269 -0.0487168 0 
0 0 0 
-0.329604 -0.347372 0 
-0.347372 -0.0504947 0 
0 0 0 
-4.31175 0.447822 0 
0.447822 -4.17425 0 
0 0 0 
-3.97898 0.152715 0 
0.152715 -4.50702 0 
0 0 0 
-4.32973 0.251992 0 
0.251992 -4.15627 0 
0 0 0 
-4.79399 0.137645 0 
0.137645 -5.00755 0 
0 0 0 
-5.10097 0.050438 0 
0.050438 -4.70057 0 
0 0 0 
-5.02968 0.167304 0 
0.167304 -4.77185 0 
0 0 0 
-5.2998 -0.29736 0 
-0.29736 -5.25357 0 
0 0 0 
-5.36576 -0.318724 0 
-0.318724 -5.18761 0 
0 0 0 
-5.17899 -0.172413 0 
-0.172413 -5.37438 0 
0 0 0 
-6.55091 -0.0759563 0 
-0.0759563 -7.09871 0 
0 0 0 
-6.52548 -0.269171 0 
-0.269171 -7.12414 0 
0 0 0 
-6.76008 -0.0196445 0 
-0.0196445 -6.88955 0 
0 0 0 
-5.28587 -0.16371 0 
-0.16371 -5.36477 0 
0 0 0 
-5.39032 -0.204487 0 
-0.204487 -5.26032 0 
0 0 0 
-5.35339 -0.0300826 0 
-0.0300826 -5.29725 0 
0 0 0 
-7.14057 -0.44366 0 
-0.44366 -6.24345 0 
0 0 0 
-6.80184 0.10707 0 
0.10707 -6.58218 0 
0 0 0 
-6.50519 -0.161286 0 
-0.161286 -6.87882 0 
0 0 0 
-0.00229817 0.084716 0 
0.084716 -0.0185012 0 
0 0 0 
-0.0547432 0.0074327 0 
0.0074327 0.0339438 0 
0 0 0 
-0.0583632 0.055372 0 
0.055372 0.0375639 0 
0 0 0 
-0.0712088 0.230904 0 
0.230904 -0.0537698 0 
0 0 0 
-0.100521 0.234629 0 
0.234629 -0.0244574 0 
0 0 0 
-0.101693 0.203672 0 
0.203672 -0.0232857 0 
0 0 0 
-4.71137 -0.424896 0 
-0.424896 -3.99694 0 
0 0 0 
-4.69693 -0.161159 0 
-0.161159 -4.01138 0 
0 0 0 
-4.86671 -0.562737 0 
-0.562737 -3.8416 0 
0 0 0 
-9.48146 0.132206 0 
0.132206 -9.65846 0 
0 0 0 
-9.41364 0.0823263 0 
0.0823263 -9.72628 0 
0 0 0 
-9.52346 0.124903 0 
0.124903 -9.61647 0 
0 0 0 
-0.0788368 -0.0965396 0 
-0.0965396 0.00948392 0 
0 0 0 
-0.0659487 -0.0706716 0 
-0.0706716 -0.00340418 0 
0 0 0 
-0.05201 -0.0905277 0 
-0.0905277 -0.0173428 0 
0 0 0 
-0.0273124 0.0773416 0 
0.0773416 0.0262209 0 
0 0 0 
0.0858899 0.20215 0 
0.20215 -0.0869814 0 
0 0 0 
0.0717359 0.147255 0 
0.147255 -0.0728274 0 
0 0 0 
-5.37237 -0.245414 0 
-0.245414 -5.77464 0 
0 0 0 
-5.42827 -0.264224 0 
-0.264224 -5.71874 0 
0 0 0 
-5.42366 -0.211094 0 
-0.211094 -5.72335 0 
0 0 0 
-2.82476 -0.0046494 0 
-0.0046494 -2.60513 0 
0 0 0 
-2.92637 0.942406 0 
0.942406 -2.50352 0 
0 0 0 
-3.01498 0.590441 0 
0.590441 -2.41491 0 
0 0 0 
-6.89212 -0.0738302 0 
-0.0738302 -6.42325 0 
0 0 0 
-7.09102 -0.123328 0 
-0.123328 -6.22435 0 
0 0 0 
-6.96656 -0.0768698 0 
-0.0768698 -6.34881 0 
0 0 0 
-4.42412 -0.0506749 0 
-0.0506749 -3.48158 0 
0 0 0 
-4.27368 -0.194208 0 
-0.194208 -3.63202 0 
0 0 0 
-4.15032 -0.0398123 0 
-0.0398123 -3.75538 0 
0 0 0 
-1.32767 0.790582 0 
0.790582 -1.43776 0 
0 0 0 
-1.53842 0.0187645 0 
0.0187645 -1.22701 0 
0 0 0 
-2.44726 0.270322 0 
0.270322 -0.318165 0 
0 0 0 
-10.0638 -0.046336 0 
-0.046336 -10.338 0 
0 0 0 
-10.2137 0.106542 0 
0.106542 -10.1881 0 
0 0 0 
-9.94346 0.274473 0 
0.274473 -10.4583 0 
0 0 0 
-0.42331 -0.0132188 0 
-0.0132188 0.12355 0 
0 0 0 
-0.705313 -0.0249184 0 
-0.0249184 0.405552 0 
0 0 0 
-0.763551 -0.0716123 0 
-0.0716123 0.463791 0 
0 0 0 
-9.96453 0.113317 0 
0.113317 -10.1184 0 
0 0 0 
-10.0455 0.074201 0 
0.074201 -10.0375 0 
0 0 0 
-10.039 0.097961 0 
0.097961 -10.044 0 
0 0 0 
-7.07072 -0.226953 0 
-0.226953 -7.0302 0 
0 0 0 
-7.09862 -0.00113893 0 
-0.00113893 -7.00229 0 
0 0 0 
-6.94708 -0.145815 0 
-0.145815 -7.15384 0 
0 0 0 
-6.96468 0.0537662 0 
0.0537662 -6.87567 0 
0 0 0 
-6.93943 0.0163671 0 
0.0163671 -6.90092 0 
0 0 0 
-6.98551 -0.0270181 0 
-0.0270181 -6.85484 0 
0 0 0 
-3.01648 -0.174286 0 
-0.174286 -2.6902 0 
0 0 0 
-3.44417 -0.00503688 0 
-0.00503688 -2.26252 0 
0 0 0 
-1.76865 0.187145 0 
0.187145 -3.93804 0 
0 0 0 
-10.103 -0.0206971 0 
-0.0206971 -9.87836 0 
0 0 0 
-9.8306 0.248209 0 
0.248209 -10.1507 0 
0 0 0 
-9.86885 0.0189293 0 
0.0189293 -10.1125 0 
0 0 0 
-4.48363 0.317044 0 
0.317044 -4.57282 0 
0 0 0 
-4.81275 0.0938612 0 
0.0938612 -4.24369 0 
0 0 0 
-4.84172 0.27748 0 
0.27748 -4.21472 0 
0 0 0 
-0.25015 0.0132339 0 
0.0132339 -0.191731 0 
0 0 0 
0.0246169 0.0533204 0 
0.0533204 -0.466498 0 
0 0 0 
-0.218608 -0.101045 0 
-0.101045 -0.223273 0 
0 0 0 
-7.05265 0.0552942 0 
0.0552942 -6.86034 0 
0 0 0 
-6.96634 0.115879 0 
0.115879 -6.94664 0 
0 0 0 
-6.97857 0.00280688 0 
0.00280688 -6.93442 0 
0 0 0 
-7.14362 0.421877 0 
0.421877 -7.93828 0 
0 0 0 
-7.3306 0.299192 0 
0.299192 -7.7513 0 
0 0 0 
-7.16721 0.349638 0 
0.349638 -7.91469 0 
0 0 0 
-4.32768 -0.307073 0 
-0.307073 -3.79673 0 
0 0 0 
-4.52705 -0.294183 0 
-0.294183 -3.59735 0 
0 0 0 
-4.3031 -0.122659 0 
-0.122659 -3.8213 0 
0 0 0 
-3.31945 0.298319 0 
0.298319 -3.81869 0 
0 0 0 
-3.36745 0.372822 0 
0.372822 -3.7707 0 
0 0 0 
-3.74697 0.24802 0 
0.24802 -3.39117 0 
0 0 0 
-6.61929 -0.114412 0 
-0.114412 -6.20933 0 
0 0 0 
-6.67441 0.0975949 0 
0.0975949 -6.15422 0 
0 0 0 
-6.65546 -0.149669 0 
-0.149669 -6.17316 0 
0 0 0 
-7.18544 -0.207154 0 
-0.207154 -6.5235 0 
0 0 0 
-6.68649 -0.342651 0 
-0.342651 -7.02245 0 
0 0 0 
-7.02048 -0.352313 0 
-0.352313 -6.68845 0 
0 0 0 
-7.13824 0.0363037 0 
0.0363037 -6.95503 0 
0 0 0 
-7.22476 -0.0988708 0 
-0.0988708 -6.86851 0 
0 0 0 
-7.33794 0.0972314 0 
0.0972314 -6.75534 0 
0 0 0 
-0.0552797 -0.0545606 0 
-0.0545606 -0.178085 0 
0 0 0 
-0.330059 -0.087715 0 
-0.087715 0.0966944 0 
0 0 0 
-0.213713 0.153079 0 
0.153079 -0.0196515 0 
0 0 0 
-6.84993 0.252785 0 
0.252785 -6.11727 0 
0 0 0 
-6.10594 0.217619 0 
0.217619 -6.86126 0 
0 0 0 
-6.49543 0.0320467 0 
0.0320467 -6.47176 0 
0 0 0 
-4.91862 0.00231422 0 
0.00231422 -5.32903 0 
0 0 0 
-5.52487 -0.0264942 0 
-0.0264942 -4.72278 0 
0 0 0 
-5.15724 0.199804 0 
0.199804 -5.09041 0 
0 0 0 
-1.24003 1.1044 0 
1.1044 0.266007 0 
0 0 0 
-0.332028 0.103825 0 
0.103825 -0.641993 0 
0 0 0 
-1.06481 -0.33071 0 
-0.33071 0.0907841 0 
0 0 0 
-0.0375382 0.206636 0 
0.206636 -0.00754983 0 
0 0 0 
-0.022683 0.21118 0 
0.21118 -0.022405 0 
0 0 0 
-0.000609307 0.178474 0 
0.178474 -0.0444787 0 
0 0 0 
-0.0342064 0.210472 0 
0.210472 0.0253647 0 
0 0 0 
-0.0433447 0.151259 0 
0.151259 0.034503 0 
0 0 0 
-0.0624444 0.255105 0 
0.255105 0.0536027 0 
0 0 0 
-6.85686 -0.0518186 0 
-0.0518186 -6.73869 0 
0 0 0 
-6.91115 -0.0494163 0 
-0.0494163 -6.68439 0 
0 0 0 
-6.86445 -0.0556657 0 
-0.0556657 -6.73109 0 
0 0 0 
-7.29992 0.117708 0 
0.117708 -6.66881 0 
0 0 0 
-7.01657 0.150259 0 
0.150259 -6.95216 0 
0 0 0 
-7.14885 0.0715174 0 
0.0715174 -6.81989 0 
0 0 0 
0.0111534 -0.0688412 0 
-0.0688412 -0.042925 0 
0 0 0 
0.0241936 -0.120188 0 
-0.120188 -0.0559652 0 
0 0 0 
-0.0755383 -0.0590957 0 
-0.0590957 0.0437668 0 
0 0 0 
-4.32589 0.230849 0 
0.230849 -4.58944 0 
0 0 0 
-4.31978 0.241609 0 
0.241609 -4.59555 0 
0 0 0 
-4.32463 0.199169 0 
0.199169 -4.59071 0 
0 0 0 
-0.779799 0.0062388 0 
0.0062388 -1.37903 0 
0 0 0 
-0.692135 -0.468834 0 
-0.468834 -1.4667 0 
0 0 0 
-0.440987 -0.345715 0 
-0.345715 -1.71785 0 
0 0 0 
-1.77458 0.892054 0 
0.892054 -1.91818 0 
0 0 0 
-2.053 0.979743 0 
0.979743 -1.63976 0 
0 0 0 
-1.9822 0.700213 0 
0.700213 -1.71056 0 
0 0 0 
-2.31974 -2.1189 0 
-2.1189 -1.03988 0 
0 0 0 
-1.19421 0.280003 0 
0.280003 -2.16542 0 
0 0 0 
-0.284749 -0.23605 0 
-0.23605 -3.07487 0 
0 0 0 
-1.51687 0.128382 0 
0.128382 -1.43973 0 
0 0 0 
-1.52548 -0.184333 0 
-0.184333 -1.43112 0 
0 0 0 
-1.28135 -0.155103 0 
-0.155103 -1.67525 0 
0 0 0 
-5.02018 0.0739374 0 
0.0739374 -4.58404 0 
0 0 0 
-4.9477 0.208218 0 
0.208218 -4.65652 0 
0 0 0 
-4.93789 0.140861 0 
0.140861 -4.66633 0 
0 0 0 
-6.80762 -0.00338589 0 
-0.00338589 -6.45692 0 
0 0 0 
-6.81271 -0.0238872 0 
-0.0238872 -6.45183 0 
0 0 0 
-6.79122 -0.0173639 0 
-0.0173639 -6.47332 0 
0 0 0 
-10.1007 0.00346082 0 
0.00346082 -9.83643 0 
0 0 0 
-10.1631 0.0749941 0 
0.0749941 -9.77404 0 
0 0 0 
-9.92879 -0.191873 0 
-0.191873 -10.0083 0 
0 0 0 
-9.84776 0.0390327 0 
0.0390327 -10.4135 0 
0 0 0 
-9.99471 0.135796 0 
0.135796 -10.2665 0 
0 0 0 
-9.91284 0.00560348 0 
0.00560348 -10.3484 0 
0 0 0 
-7.01864 0.0752572 0 
0.0752572 -7.10951 0 
0 0 0 
-6.95679 0.227159 0 
0.227159 -7.17135 0 
0 0 0 
-6.89754 0.0919569 0 
0.0919569 -7.2306 0 
0 0 0 
-8.39075 -0.109446 0 
-0.109446 -8.59858 0 
0 0 0 
-8.52066 0.014749 0 
0.014749 -8.46866 0 
0 0 0 
-8.58349 -0.138981 0 
-0.138981 -8.40584 0 
0 0 0 
-4.11033 0.250736 0 
0.250736 -4.54136 0 
0 0 0 
-4.06431 0.359054 0 
0.359054 -4.58738 0 
0 0 0 
-3.98038 0.234506 0 
0.234506 -4.67131 0 
0 0 0 
-9.95723 -0.0579387 0 
-0.0579387 -10.0014 0 
0 0 0 
-9.97193 -0.0617142 0 
-0.0617142 -9.98669 0 
0 0 0 
-9.95618 -0.062974 0 
-0.062974 -10.0024 0 
0 0 0 
-9.82866 -0.0225064 0 
-0.0225064 -9.54776 0 
0 0 0 
-9.79994 -0.167434 0 
-0.167434 -9.57648 0 
0 0 0 
-10.0308 -0.289593 0 
-0.289593 -9.3456 0 
0 0 0 
-0.179924 -0.212425 0 
-0.212425 -0.0727127 0 
0 0 0 
-0.113119 -0.143656 0 
-0.143656 -0.139517 0 
0 0 0 
-0.139373 -0.199272 0 
-0.199272 -0.113264 0 
0 0 0 
-0.143411 0.0487615 0 
0.0487615 0.299885 0 
0 0 0 
-0.0794287 0.171192 0 
0.171192 0.235903 0 
0 0 0 
-0.181165 0.0477602 0 
0.0477602 0.337639 0 
0 0 0 
-6.98588 0.29195 0 
0.29195 -6.78262 0 
0 0 0 
-7.01419 -0.118048 0 
-0.118048 -6.7543 0 
0 0 0 
-7.11572 0.201133 0 
0.201133 -6.65278 0 
0 0 0 
-4.59202 -0.491672 0 
-0.491672 -4.00383 0 
0 0 0 
-4.56621 -0.350509 0 
-0.350509 -4.02964 0 
0 0 0 
-4.42536 -0.317335 0 
-0.317335 -4.17049 0 
0 0 0 
-5.27129 -0.0594022 0 
-0.0594022 -5.4392 0 
0 0 0 
-5.38569 0.193316 0 
0.193316 -5.32481 0 
0 0 0 
-5.13238 0.0950713 0 
0.0950713 -5.57811 0 
0 0 0 
-0.028967 0.00707541 0 
0.00707541 -0.188373 0 
0 0 0 
-0.0330413 0.0593571 0 
0.0593571 -0.184298 0 
0 0 0 
0.00672351 0.0292255 0 
0.0292255 -0.224063 0 
0 0 0 
-7.11879 -0.0136215 0 
-0.0136215 -6.5414 0 
0 0 0 
-7.40066 -0.104818 0 
-0.104818 -6.25953 0 
0 0 0 
-7.30938 0.0224303 0 
0.0224303 -6.35082 0 
0 0 0 
0.0537136 0.109119 0 
0.109119 -0.0277707 0 
0 0 0 
0.148725 -0.00169808 0 
-0.00169808 -0.122782 0 
0 0 0 
0.0756786 -0.00230246 0 
-0.00230246 -0.0497357 0 
0 0 0 
-0.673603 0.244638 0 
0.244638 -1.20198 0 
0 0 0 
-1.08042 -0.113007 0 
-0.113007 -0.79516 0 
0 0 0 
-0.99281 0.00429006 0 
0.00429006 -0.882771 0 
0 0 0 
-0.142343 0.168889 0 
0.168889 0.0295679 0 
0 0 0 
-0.154961 0.185276 0 
0.185276 0.0421856 0 
0 0 0 
-0.126514 0.120604 0 
0.120604 0.013739 0 
0 0 0 
-10.0303 -0.100742 0 
-0.100742 -9.99207 0 
0 0 0 
-10.0259 -0.0709457 0 
-0.0709457 -9.99655 0 
0 0 0 
-10.0188 -0.104839 0 
-0.104839 -10.0037 0 
0 0 0 
-7.20912 -0.0739664 0 
-0.0739664 -6.77437 0 
0 0 0 
-7.32989 -0.0237702 0 
-0.0237702 -6.6536 0 
0 0 0 
-7.29666 -0.0137396 0 
-0.0137396 -6.68684 0 
0 0 0 
-5.97408 0.0998142 0 
0.0998142 -5.98287 0 
0 0 0 
-6.09917 0.1372 0 
0.1372 -5.85777 0 
0 0 0 
-6.11825 -0.310364 0 
-0.310364 -5.83869 0 
0 0 0 
-6.50942 0.0702646 0 
0.0702646 -7.39176 0 
0 0 0 
-6.99579 -0.0219942 0 
-0.0219942 -6.9054 0 
0 0 0 
-6.56416 0.202057 0 
0.202057 -7.33703 0 
0 0 0 
0.0747104 -0.00672825 0 
-0.00672825 0.0585455 0 
0 0 0 
0.124485 -0.0293574 0 
-0.0293574 0.0087704 0 
0 0 0 
0.0624947 -0.0940543 0 
-0.0940543 0.0707612 0 
0 0 0 
-5.18258 -0.315767 0 
-0.315767 -5.57347 0 
0 0 0 
-5.19072 -0.301314 0 
-0.301314 -5.56534 0 
0 0 0 
-4.99298 -0.185914 0 
-0.185914 -5.76307 0 
0 0 0 
-5.36245 -0.175174 0 
-0.175174 -5.67973 0 
0 0 0 
-5.42412 -0.334909 0 
-0.334909 -5.61806 0 
0 0 0 
-5.43505 -0.303 0 
-0.303 -5.60713 0 
0 0 0 
-0.162459 -0.10774 0 
-0.10774 0.0723547 0 
0 0 0 
-0.0886879 -0.111631 0 
-0.111631 -0.00141666 0 
0 0 0 
-0.113633 -0.200177 0 
-0.200177 0.0235288 0 
0 0 0 
-4.45916 0.0107449 0 
0.0107449 -4.03395 0 
0 0 0 
-4.56406 -0.0437336 0 
-0.0437336 -3.92904 0 
0 0 0 
-4.54496 0.00151809 0 
0.00151809 -3.94815 0 
0 0 0 
0.00648149 -0.227981 0 
-0.227981 -0.0327374 0 
0 0 0 
0.0010044 -0.349582 0 
-0.349582 -0.0272603 0 
0 0 0 
-0.083123 -0.226416 0 
-0.226416 0.0568671 0 
0 0 0 
-8.91242 0.379073 0 
0.379073 -9.23282 0 
0 0 0 
-9.10952 0.32377 0 
0.32377 -9.03572 0 
0 0 0 
-9.06025 0.168531 0 
0.168531 -9.08499 0 
0 0 0 
-1.96232 0.253838 0 
0.253838 -1.62005 0 
0 0 0 
-1.82324 0.050773 0 
0.050773 -1.75913 0 
0 0 0 
-1.93088 0.0481795 0 
0.0481795 -1.65149 0 
0 0 0 
-1.60299 -0.0678168 0 
-0.0678168 -1.27463 0 
0 0 0 
-1.44992 0.0122665 0 
0.0122665 -1.4277 0 
0 0 0 
-1.60563 0.149264 0 
0.149264 -1.27199 0 
0 0 0 
-9.88118 0.221127 0 
0.221127 -9.89589 0 
0 0 0 
-9.8701 0.114124 0 
0.114124 -9.90698 0 
0 0 0 
-10.0645 0.210671 0 
0.210671 -9.71261 0 
0 0 0 
-0.442529 0.0275281 0 
0.0275281 -0.964319 0 
0 0 0 
-0.435626 0.0539471 0 
0.0539471 -0.971222 0 
0 0 0 
-0.613435 -0.081638 0 
-0.081638 -0.793413 0 
0 0 0 
-5.78786 0.125384 0 
0.125384 -6.68569 0 
0 0 0 
-5.86855 -0.125471 0 
-0.125471 -6.60501 0 
0 0 0 
-6.01099 0.113835 0 
0.113835 -6.46256 0 
0 0 0 
-9.98047 -0.0618765 0 
-0.0618765 -9.98386 0 
0 0 0 
-9.98813 -0.0522764 0 
-0.0522764 -9.9762 0 
0 0 0 
-9.95899 -0.0733575 0 
-0.0733575 -10.0053 0 
0 0 0 
-2.49223 0.118001 0 
0.118001 -1.97503 0 
0 0 0 
-2.10785 0.252912 0 
0.252912 -2.35942 0 
0 0 0 
-2.19858 0.0278783 0 
0.0278783 -2.26868 0 
0 0 0 
-9.91236 -0.127643 0 
-0.127643 -9.9746 0 
0 0 0 
-9.95794 -0.0773431 0 
-0.0773431 -9.92902 0 
0 0 0 
-9.94062 -0.032051 0 
-0.032051 -9.94633 0 
0 0 0 
-7.2557 0.0217189 0 
0.0217189 -6.70628 0 
0 0 0 
-7.19963 -0.103851 0 
-0.103851 -6.76235 0 
0 0 0 
-7.31158 -0.0913783 0 
-0.0913783 -6.6504 0 
0 0 0 
-6.02709 0.0154493 0 
0.0154493 -5.61345 0 
0 0 0 
-5.30476 -0.238852 0 
-0.238852 -6.33578 0 
0 0 0 
-5.69491 -0.392205 0 
-0.392205 -5.94563 0 
0 0 0 
-2.0048 0.09306 0 
0.09306 -1.62134 0 
0 0 0 
-1.94936 0.171213 0 
0.171213 -1.67677 0 
0 0 0 
-2.03928 -0.0109309 0 
-0.0109309 -1.58685 0 
0 0 0 
-0.480402 -0.0922694 0 
-0.0922694 -0.945378 0 
0 0 0 
-0.173578 -0.410373 0 
-0.410373 -1.2522 0 
0 0 0 
-0.351532 -0.19818 0 
-0.19818 -1.07425 0 
0 0 0 
-6.89728 -0.0451272 0 
-0.0451272 -6.64589 0 
0 0 0 
-6.91515 -0.0290102 0 
-0.0290102 -6.62802 0 
0 0 0 
-6.83598 -0.0339981 0 
-0.0339981 -6.70719 0 
0 0 0 
-9.94873 -0.359016 0 
-0.359016 -9.66706 0 
0 0 0 
-9.80732 -0.29038 0 
-0.29038 -9.80847 0 
0 0 0 
-9.76975 -0.355292 0 
-0.355292 -9.84605 0 
0 0 0 
-1.60479 -0.24186 0 
-0.24186 -2.63907 0 
0 0 0 
-1.89745 -0.0651895 0 
-0.0651895 -2.34641 0 
0 0 0 
-1.5998 0.0635079 0 
0.0635079 -2.64407 0 
0 0 0 
-8.05209 0.0698615 0 
0.0698615 -8.02722 0 
0 0 0 
-8.02045 -0.0865363 0 
-0.0865363 -8.05885 0 
0 0 0 
-7.78835 0.0318865 0 
0.0318865 -8.29096 0 
0 0 0 
-0.259146 0.0572191 0 
0.0572191 0.107616 0 
0 0 0 
-0.288857 -0.0696044 0 
-0.0696044 0.137327 0 
0 0 0 
-0.387019 -0.0962764 0 
-0.0962764 0.235489 0 
0 0 0 
-3.77574 -0.0774681 0 
-0.0774681 -2.85201 0 
0 0 0 
-3.35101 -0.0598173 0 
-0.0598173 -3.27673 0 
0 0 0 
-3.55691 0.238451 0 
0.238451 -3.07084 0 
0 0 0 
0.0229125 -0.105206 0 
-0.105206 -0.0531199 0 
0 0 0 
0.0776879 -0.0959039 0 
-0.0959039 -0.107895 0 
0 0 0 
0.0377709 0.00526713 0 
0.00526713 -0.0679783 0 
0 0 0 
-4.64023 0.452377 0 
0.452377 -4.30705 0 
0 0 0 
-4.60631 0.396676 0 
0.396676 -4.34097 0 
0 0 0 
-4.56222 0.439385 0 
0.439385 -4.38505 0 
0 0 0 
-2.51949 -0.561349 0 
-0.561349 -3.17364 0 
0 0 0 
-2.42415 -0.879091 0 
-0.879091 -3.26899 0 
0 0 0 
-2.6487 -0.94289 0 
-0.94289 -3.04443 0 
0 0 0 
-5.44929 0.162556 0 
0.162556 -5.16877 0 
0 0 0 
-5.39958 0.179998 0 
0.179998 -5.21847 0 
0 0 0 
-5.33355 0.121762 0 
0.121762 -5.2845 0 
0 0 0 
-9.37887 -0.145526 0 
-0.145526 -7.4934 0 
0 0 0 
-8.21595 0.0625741 0 
0.0625741 -8.65632 0 
0 0 0 
-8.58826 -1.15132 0 
-1.15132 -8.28402 0 
0 0 0 
-3.71873 -0.197969 0 
-0.197969 -5.09897 0 
0 0 0 
-4.33146 0.438756 0 
0.438756 -4.48624 0 
0 0 0 
-3.38957 1.02416 0 
1.02416 -5.42813 0 
0 0 0 
-4.94222 0.443753 0 
0.443753 -4.7285 0 
0 0 0 
-4.99441 -0.010955 0 
-0.010955 -4.67631 0 
0 0 0 
-5.51175 0.216173 0 
0.216173 -4.15897 0 
0 0 0 
-7.00272 0.122853 0 
0.122853 -6.29265 0 
0 0 0 
-6.9387 0.178114 0 
0.178114 -6.35667 0 
0 0 0 
-6.98541 0.216139 0 
0.216139 -6.30996 0 
0 0 0 
-6.51001 -0.097206 0 
-0.097206 -5.05672 0 
0 0 0 
-5.71285 -0.0368434 0 
-0.0368434 -5.85388 0 
0 0 0 
-6.02469 -0.748709 0 
-0.748709 -5.54204 0 
0 0 0 
-5.24562 -0.34885 0 
-0.34885 -4.74448 0 
0 0 0 
-4.71663 -0.227383 0 
-0.227383 -5.27347 0 
0 0 0 
-4.95976 -0.816182 0 
-0.816182 -5.03034 0 
0 0 0 
-4.78025 -0.242977 0 
-0.242977 -3.97321 0 
0 0 0 
-4.36589 -0.186299 0 
-0.186299 -4.38757 0 
0 0 0 
-4.50203 -0.65279 0 
-0.65279 -4.25144 0 
0 0 0 
-4.92395 0.23109 0 
0.23109 -4.40546 0 
0 0 0 
-4.85811 0.151112 0 
0.151112 -4.4713 0 
0 0 0 
-4.85167 0.147779 0 
0.147779 -4.47774 0 
0 0 0 
-6.78749 -0.0135146 0 
-0.0135146 -7.13114 0 
0 0 0 
-6.78435 -0.033465 0 
-0.033465 -7.13428 0 
0 0 0 
-6.82858 -0.0286131 0 
-0.0286131 -7.09005 0 
0 0 0 
-6.93578 -0.699766 0 
-0.699766 -7.31692 0 
0 0 0 
-7.32634 0.170025 0 
0.170025 -6.92636 0 
0 0 0 
-6.18318 0.290063 0 
0.290063 -8.06952 0 
0 0 0 
-6.64112 -0.0857851 0 
-0.0857851 -7.02842 0 
0 0 0 
-6.58763 -0.1149 0 
-0.1149 -7.08192 0 
0 0 0 
-6.71012 -0.0637513 0 
-0.0637513 -6.95942 0 
0 0 0 
-6.34261 0.559867 0 
0.559867 -6.95019 0 
0 0 0 
-6.72247 -0.158426 0 
-0.158426 -6.57034 0 
0 0 0 
-7.12834 0.590449 0 
0.590449 -6.16446 0 
0 0 0 
-1.61175 -0.323948 0 
-0.323948 -2.21945 0 
0 0 0 
-1.73035 -0.246209 0 
-0.246209 -2.10084 0 
0 0 0 
-1.49519 0.00890317 0 
0.00890317 -2.336 0 
0 0 0 
-5.53126 -0.207414 0 
-0.207414 -5.52208 0 
0 0 0 
-5.64267 -0.0811383 0 
-0.0811383 -5.41067 0 
0 0 0 
-5.66233 -0.245333 0 
-0.245333 -5.39102 0 
0 0 0 
-6.81965 -0.695472 0 
-0.695472 -7.60311 0 
0 0 0 
-7.12604 0.352123 0 
0.352123 -7.29672 0 
0 0 0 
-6.00163 0.273765 0 
0.273765 -8.42114 0 
0 0 0 
-5.0812 -0.239431 0 
-0.239431 -6.09815 0 
0 0 0 
-5.86683 0.361001 0 
0.361001 -5.31253 0 
0 0 0 
-4.78091 0.681052 0 
0.681052 -6.39844 0 
0 0 0 
-4.44464 -0.467274 0 
-0.467274 -5.50552 0 
0 0 0 
-5.01276 0.0590214 0 
0.0590214 -4.9374 0 
0 0 0 
-4.23635 0.370736 0 
0.370736 -5.7138 0 
0 0 0 
-3.62787 -0.180341 0 
-0.180341 -4.7273 0 
0 0 0 
-4.17729 0.404687 0 
0.404687 -4.17788 0 
0 0 0 
-3.37153 1.1131 0 
1.1131 -4.98365 0 
0 0 0 
-4.8638 0.0265019 0 
0.0265019 -4.7055 0 
0 0 0 
-4.84678 0.106429 0 
0.106429 -4.72253 0 
0 0 0 
-4.8106 0.195765 0 
0.195765 -4.7587 0 
0 0 0 
-7.17686 0.103195 0 
0.103195 -7.21552 0 
0 0 0 
-7.27693 0.14132 0 
0.14132 -7.11545 0 
0 0 0 
-7.11696 0.189668 0 
0.189668 -7.27543 0 
0 0 0 
-6.71667 -0.0832154 0 
-0.0832154 -6.60367 0 
0 0 0 
-6.72704 -0.102953 0 
-0.102953 -6.5933 0 
0 0 0 
-6.67651 -0.0408194 0 
-0.0408194 -6.64382 0 
0 0 0 
-5.98959 0.425011 0 
0.425011 -6.84704 0 
0 0 0 
-6.14565 0.30004 0 
0.30004 -6.69098 0 
0 0 0 
-5.99499 0.333762 0 
0.333762 -6.84165 0 
0 0 0 
-6.79241 -0.152732 0 
-0.152732 -6.9728 0 
0 0 0 
-6.75948 -0.0783358 0 
-0.0783358 -7.00574 0 
0 0 0 
-6.78502 -0.165717 0 
-0.165717 -6.98019 0 
0 0 0 
-5.29599 -0.564983 0 
-0.564983 -4.40628 0 
0 0 0 
-5.19644 -0.148461 0 
-0.148461 -4.50583 0 
0 0 0 
-4.96226 -0.33459 0 
-0.33459 -4.74001 0 
0 0 0 
-4.56511 0.00576842 0 
0.00576842 -4.82311 0 
0 0 0 
-4.56699 0.253638 0 
0.253638 -4.82123 0 
0 0 0 
-4.54055 0.0605879 0 
0.0605879 -4.84767 0 
0 0 0 
-4.78044 0.0433719 0 
0.0433719 -4.56567 0 
0 0 0 
-4.76831 0.150905 0 
0.150905 -4.57781 0 
0 0 0 
-4.75544 0.0821305 0 
0.0821305 -4.59068 0 
0 0 0 
-4.13219 -1.37624 0 
-1.37624 -4.36697 0 
0 0 0 
-4.54092 -0.310379 0 
-0.310379 -3.95824 0 
0 0 0 
-3.43186 -0.384725 0 
-0.384725 -5.0673 0 
0 0 0 
-3.40685 -0.673265 0 
-0.673265 -2.26273 0 
0 0 0 
-2.64642 -0.364197 0 
-0.364197 -3.02317 0 
0 0 0 
-2.84337 -1.48415 0 
-1.48415 -2.82621 0 
0 0 0 
-4.29555 -0.039878 0 
-0.039878 -4.16875 0 
0 0 0 
-4.24446 -0.115456 0 
-0.115456 -4.21985 0 
0 0 0 
-4.42281 -0.0462579 0 
-0.0462579 -4.04149 0 
0 0 0 
-6.4801 0.07305 0 
0.07305 -6.27712 0 
0 0 0 
-6.65321 0.0507219 0 
0.0507219 -6.10401 0 
0 0 0 
-6.53406 0.0234999 0 
0.0234999 -6.22316 0 
0 0 0 
-6.71691 -0.0953026 0 
-0.0953026 -7.04238 0 
0 0 0 
-6.75722 -0.0851499 0 
-0.0851499 -7.00206 0 
0 0 0 
-6.73216 -0.0975762 0 
-0.0975762 -7.02713 0 
0 0 0 
-6.81127 -0.0177419 0 
-0.0177419 -6.8196 0 
0 0 0 
-6.91619 -0.0930551 0 
-0.0930551 -6.71467 0 
0 0 0 
-6.9446 0.0162495 0 
0.0162495 -6.68626 0 
0 0 0 
-4.51853 0.0398508 0 
0.0398508 -4.40228 0 
0 0 0 
-4.53299 0.106122 0 
0.106122 -4.38782 0 
0 0 0 
-4.55602 0.055278 0 
0.055278 -4.36479 0 
0 0 0 
-3.26484 -2.29187 0 
-2.29187 -4.18461 0 
0 0 0 
-3.82506 -0.357428 0 
-0.357428 -3.62438 0 
0 0 0 
-1.77284 -0.317597 0 
-0.317597 -5.6766 0 
0 0 0 
-5.51614 0.100176 0 
0.100176 -5.49718 0 
0 0 0 
-5.6459 0.132542 0 
0.132542 -5.36742 0 
0 0 0 
-5.45871 0.167024 0 
0.167024 -5.55461 0 
0 0 0 
-5.02141 0.172093 0 
0.172093 -4.56788 0 
0 0 0 
-5.04978 0.142207 0 
0.142207 -4.53951 0 
0 0 0 
-5.03581 0.217184 0 
0.217184 -4.55348 0 
0 0 0 
-7.08381 -0.114269 0 
-0.114269 -6.71018 0 
0 0 0 
-7.02493 -0.0317474 0 
-0.0317474 -6.76905 0 
0 0 0 
-6.9963 -0.161632 0 
-0.161632 -6.79769 0 
0 0 0 
-5.02777 0.713375 0 
0.713375 -6.20682 0 
0 0 0 
-5.62638 -0.181369 0 
-0.181369 -5.60822 0 
0 0 0 
-6.21484 0.707515 0 
0.707515 -5.01976 0 
0 0 0 
-7.51477 -0.785173 0 
-0.785173 -6.3422 0 
0 0 0 
-7.24676 -0.0632893 0 
-0.0632893 -6.61022 0 
0 0 0 
-6.84789 -0.419108 0 
-0.419108 -7.00909 0 
0 0 0 
-4.63628 0.119261 0 
0.119261 -4.48517 0 
0 0 0 
-4.52934 0.176251 0 
0.176251 -4.5921 0 
0 0 0 
-4.5612 0.0150404 0 
0.0150404 -4.56025 0 
0 0 0 
-4.50475 0.106644 0 
0.106644 -4.32572 0 
0 0 0 
-4.50946 0.131694 0 
0.131694 -4.32101 0 
0 0 0 
-4.49452 0.0444074 0 
0.0444074 -4.33594 0 
0 0 0 
-6.78919 -0.0678431 0 
-0.0678431 -7.0031 0 
0 0 0 
-6.80943 -0.049742 0 
-0.049742 -6.98286 0 
0 0 0 
-6.79495 -0.0468004 0 
-0.0468004 -6.99734 0 
0 0 0 
-6.52978 0.0783993 0 
0.0783993 -6.43722 0 
0 0 0 
-6.47782 0.110794 0 
0.110794 -6.48918 0 
0 0 0 
-6.44691 0.00858439 0 
0.00858439 -6.52009 0 
0 0 0 
-4.69987 -0.208078 0 
-0.208078 -4.61954 0 
0 0 0 
-4.65729 -0.237226 0 
-0.237226 -4.66212 0 
0 0 0 
-4.6171 -0.155186 0 
-0.155186 -4.7023 0 
0 0 0 
-5.19637 0.186122 0 
0.186122 -5.93984 0 
0 0 0 
-5.56841 -0.0112459 0 
-0.0112459 -5.5678 0 
0 0 0 
-5.34324 0.237432 0 
0.237432 -5.79297 0 
0 0 0 
-5.18739 0.349029 0 
0.349029 -4.70436 0 
0 0 0 
-5.06478 0.598357 0 
0.598357 -4.82697 0 
0 0 0 
-5.15744 0.531472 0 
0.531472 -4.73431 0 
0 0 0 
-5.89852 0.303335 0 
0.303335 -5.73451 0 
0 0 0 
-6.0662 0.380277 0 
0.380277 -5.56683 0 
0 0 0 
-6.08984 0.24413 0 
0.24413 -5.54319 0 
0 0 0 
-5.21719 0.049563 0 
0.049563 -4.84338 0 
0 0 0 
-5.41354 -0.38058 0 
-0.38058 -4.64704 0 
0 0 0 
-5.73727 0.043012 0 
0.043012 -4.3233 0 
0 0 0 
-4.51022 -0.0538554 0 
-0.0538554 -4.55542 0 
0 0 0 
-4.63049 -0.142395 0 
-0.142395 -4.43515 0 
0 0 0 
-4.54992 0.000619266 0 
0.000619266 -4.51572 0 
0 0 0 
-6.76078 0.0374069 0 
0.0374069 -6.63853 0 
0 0 0 
-6.92001 0.0619823 0 
0.0619823 -6.4793 0 
0 0 0 
-6.77681 0.137222 0 
0.137222 -6.6225 0 
0 0 0 
-5.63675 0.484491 0 
0.484491 -4.68692 0 
0 0 0 
-5.26405 0.126607 0 
0.126607 -5.05962 0 
0 0 0 
-5.68974 0.236429 0 
0.236429 -4.63392 0 
0 0 0 
-1.99771 -0.294046 0 
-0.294046 -2.2709 0 
0 0 0 
-1.79795 -0.0983403 0 
-0.0983403 -2.47066 0 
0 0 0 
-1.74798 -0.48482 0 
-0.48482 -2.52063 0 
0 0 0 
-4.54419 -0.612597 0 
-0.612597 -4.45858 0 
0 0 0 
-4.48366 -0.215885 0 
-0.215885 -4.51911 0 
0 0 0 
-4.49761 -0.640055 0 
-0.640055 -4.50517 0 
0 0 0 
-7.15679 -0.20192 0 
-0.20192 -6.67587 0 
0 0 0 
-7.13204 -0.125494 0 
-0.125494 -6.70062 0 
0 0 0 
-7.06884 -0.13084 0 
-0.13084 -6.76382 0 
0 0 0 
-1.57934 -1.92094 0 
-1.92094 -2.29743 0 
0 0 0 
-1.79375 -0.349681 0 
-0.349681 -2.08301 0 
0 0 0 
-0.482047 -0.556607 0 
-0.556607 -3.39472 0 
0 0 0 
-4.92878 -0.474248 0 
-0.474248 -5.04511 0 
0 0 0 
-4.91603 -0.222312 0 
-0.222312 -5.05786 0 
0 0 0 
-4.91249 -0.418551 0 
-0.418551 -5.0614 0 
0 0 0 
-1.64856 1.71983 0 
1.71983 -3.91386 0 
0 0 0 
-2.98901 -0.125493 0 
-0.125493 -2.57341 0 
0 0 0 
-4.0217 1.76832 0 
1.76832 -1.54072 0 
0 0 0 
-5.56521 0.37193 0 
0.37193 -4.66841 0 
0 0 0 
-5.34243 0.189628 0 
0.189628 -4.89119 0 
0 0 0 
-5.5603 0.427203 0 
0.427203 -4.67331 0 
0 0 0 
-7.50614 0.618731 0 
0.618731 -6.26714 0 
0 0 0 
-6.78936 0.251523 0 
0.251523 -6.98391 0 
0 0 0 
-7.27338 -0.242807 0 
-0.242807 -6.4999 0 
0 0 0 
-5.64076 0.00584167 0 
0.00584167 -4.79215 0 
0 0 0 
-5.5697 -0.179963 0 
-0.179963 -4.8632 0 
0 0 0 
-5.55972 -0.126295 0 
-0.126295 -4.87319 0 
0 0 0 
-6.83419 0.209977 0 
0.209977 -6.26718 0 
0 0 0 
-6.77195 0.147976 0 
0.147976 -6.32941 0 
0 0 0 
-6.77669 0.144326 0 
0.144326 -6.32468 0 
0 0 0 
-7.17481 -0.369413 0 
-0.369413 -6.61974 0 
0 0 0 
-7.01779 -0.100073 0 
-0.100073 -6.77677 0 
0 0 0 
-7.16373 -0.462925 0 
-0.462925 -6.63083 0 
0 0 0 
-6.63661 0.0660265 0 
0.0660265 -6.45029 0 
0 0 0 
-6.56062 -0.00920237 0 
-0.00920237 -6.52628 0 
0 0 0 
-6.59775 -0.0289419 0 
-0.0289419 -6.48915 0 
0 0 0 
-6.79463 -0.190678 0 
-0.190678 -6.72039 0 
0 0 0 
-6.76997 -0.0764398 0 
-0.0764398 -6.74505 0 
0 0 0 
-6.71112 -0.106276 0 
-0.106276 -6.8039 0 
0 0 0 
-6.74078 -0.0440923 0 
-0.0440923 -6.5143 0 
0 0 0 
-6.70695 -0.041807 0 
-0.041807 -6.54813 0 
0 0 0 
-6.71293 -0.0122539 0 
-0.0122539 -6.54215 0 
0 0 0 
-6.83583 -0.104399 0 
-0.104399 -7.00662 0 
0 0 0 
-6.82244 -0.0747349 0 
-0.0747349 -7.02001 0 
0 0 0 
-6.83456 -0.105749 0 
-0.105749 -7.00789 0 
0 0 0 
-5.19434 0.433814 0 
0.433814 -3.92991 0 
0 0 0 
-4.68471 0.230916 0 
0.230916 -4.43954 0 
0 0 0 
-4.99938 -0.177658 0 
-0.177658 -4.12487 0 
0 0 0 
-6.5231 0.140862 0 
0.140862 -7.52431 0 
0 0 0 
-6.93259 -0.104777 0 
-0.104777 -7.11482 0 
0 0 0 
-6.94165 0.306443 0 
0.306443 -7.10576 0 
0 0 0 
-6.23623 0.65911 0 
0.65911 -4.42317 0 
0 0 0 
-5.44111 0.335847 0 
0.335847 -5.2183 0 
0 0 0 
-5.98144 -0.196184 0 
-0.196184 -4.67796 0 
0 0 0 
-4.85136 0.0913294 0 
0.0913294 -4.49246 0 
0 0 0 
-4.84582 0.138387 0 
0.138387 -4.498 0 
0 0 0 
-4.84127 0.167172 0 
0.167172 -4.50255 0 
0 0 0 
-6.13889 0.17921 0 
0.17921 -6.76567 0 
0 0 0 
-6.22133 0.288605 0 
0.288605 -6.68323 0 
0 0 0 
-6.00179 0.467366 0 
0.467366 -6.90277 0 
0 0 0 
-6.96144 0.0936683 0 
0.0936683 -6.52927 0 
0 0 0 
-6.95907 0.0771736 0 
0.0771736 -6.53164 0 
0 0 0 
-6.95395 0.0869008 0 
0.0869008 -6.53676 0 
0 0 0 
-5.51574 0.0601313 0 
0.0601313 -4.81022 0 
0 0 0 
-5.44044 -0.149355 0 
-0.149355 -4.88552 0 
0 0 0 
-5.52107 0.0340095 0 
0.0340095 -4.80488 0 
0 0 0 
-7.01186 -0.120097 0 
-0.120097 -6.82288 0 
0 0 0 
-6.99223 -0.110212 0 
-0.110212 -6.84252 0 
0 0 0 
-7.04213 -0.105332 0 
-0.105332 -6.79262 0 
0 0 0 
-6.97665 0.130055 0 
0.130055 -6.29202 0 
0 0 0 
-6.92177 0.117212 0 
0.117212 -6.3469 0 
0 0 0 
-6.96371 0.0744993 0 
0.0744993 -6.30496 0 
0 0 0 
-6.79653 0.178257 0 
0.178257 -6.67133 0 
0 0 0 
-6.90356 0.107826 0 
0.107826 -6.56431 0 
0 0 0 
-6.88197 0.148449 0 
0.148449 -6.58589 0 
0 0 0 
-7.1649 0.157574 0 
0.157574 -7.48218 0 
0 0 0 
-6.988 -0.0406263 0 
-0.0406263 -7.65908 0 
0 0 0 
-7.24095 -0.00545095 0 
-0.00545095 -7.40613 0 
0 0 0 
-0.0255529 0.0118458 0 
0.0118458 0.0101111 0 
0 0 0 
-0.0413803 0.00491041 0 
0.00491041 0.0259384 0 
0 0 0 
-0.0435391 -0.00193504 0 
-0.00193504 0.0280972 0 
0 0 0 
-7.33898 0.151585 0 
0.151585 -6.82807 0 
0 0 0 
-7.27195 0.0864466 0 
0.0864466 -6.8951 0 
0 0 0 
-7.32551 0.0928803 0 
0.0928803 -6.84154 0 
0 0 0 
-6.80713 0.0840664 0 
0.0840664 -7.05699 0 
0 0 0 
-6.65631 0.0605614 0 
0.0605614 -7.20781 0 
0 0 0 
-6.76192 -0.0712058 0 
-0.0712058 -7.10219 0 
0 0 0 
-2.24856 1.39365 0 
1.39365 0.317634 0 
0 0 0 
-1.05044 0.848701 0 
0.848701 -0.880492 0 
0 0 0 
-1.82412 0.0709636 0 
0.0709636 -0.106812 0 
0 0 0 
-7.25341 0.15037 0 
0.15037 -6.7861 0 
0 0 0 
-7.15324 0.272383 0 
0.272383 -6.88627 0 
0 0 0 
-7.12887 0.254402 0 
0.254402 -6.91063 0 
0 0 0 
-3.92253 -0.050448 0 
-0.050448 -3.49774 0 
0 0 0 
-3.89837 -0.044435 0 
-0.044435 -3.5219 0 
0 0 0 
-3.90022 -0.027546 0 
-0.027546 -3.52005 0 
0 0 0 
-2.63779 -0.137221 0 
-0.137221 0.655311 0 
0 0 0 
-0.666095 -0.118866 0 
-0.118866 -1.31639 0 
0 0 0 
-0.609225 -2.47881 0 
-2.47881 -1.37326 0 
0 0 0 
-5.48442 -0.0620248 0 
-0.0620248 -5.36314 0 
0 0 0 
-5.67046 0.204529 0 
0.204529 -5.1771 0 
0 0 0 
-5.42908 0.176784 0 
0.176784 -5.41848 0 
0 0 0 
-7.19586 -0.061434 0 
-0.061434 -6.6038 0 
0 0 0 
-7.35159 -0.0739201 0 
-0.0739201 -6.44807 0 
0 0 0 
-7.27177 -0.0057099 0 
-0.0057099 -6.52789 0 
0 0 0 
-4.88646 0.0958375 0 
0.0958375 -4.86238 0 
0 0 0 
-5.01864 0.0161517 0 
0.0161517 -4.7302 0 
0 0 0 
-4.98631 0.234102 0 
0.234102 -4.76252 0 
0 0 0 
-5.02577 0.208767 0 
0.208767 -4.64693 0 
0 0 0 
-5.05142 0.0759275 0 
0.0759275 -4.62127 0 
0 0 0 
-5.12621 0.13754 0 
0.13754 -4.54648 0 
0 0 0 
-3.81222 0.30809 0 
0.30809 -3.86929 0 
0 0 0 
-3.76789 0.702949 0 
0.702949 -3.91362 0 
0 0 0 
-3.78477 0.521199 0 
0.521199 -3.89674 0 
0 0 0 
-3.84789 0.396322 0 
0.396322 -3.19778 0 
0 0 0 
-3.21004 0.338287 0 
0.338287 -3.83563 0 
0 0 0 
-3.94024 0.45153 0 
0.45153 -3.10542 0 
0 0 0 
-4.07626 0.139992 0 
0.139992 -4.13617 0 
0 0 0 
-3.85447 0.215171 0 
0.215171 -4.35796 0 
0 0 0 
-4.09985 0.0154019 0 
0.0154019 -4.11258 0 
0 0 0 
-7.19105 0.101942 0 
0.101942 -6.70031 0 
0 0 0 
-7.28826 -0.0771521 0 
-0.0771521 -6.60311 0 
0 0 0 
-7.37556 0.0486365 0 
0.0486365 -6.51581 0 
0 0 0 
-7.77335 0.0443657 0 
0.0443657 -8.55449 0 
0 0 0 
-7.81359 0.24237 0 
0.24237 -8.51425 0 
0 0 0 
-8.05691 0.161135 0 
0.161135 -8.27094 0 
0 0 0 
-7.28911 0.255708 0 
0.255708 -7.27977 0 
0 0 0 
-7.16498 0.0215579 0 
0.0215579 -7.4039 0 
0 0 0 
-7.41817 0.112154 0 
0.112154 -7.15071 0 
0 0 0 
-0.255641 0.429263 0 
0.429263 -0.800463 0 
0 0 0 
-0.359639 0.0221986 0 
0.0221986 -0.696465 0 
0 0 0 
-1.15377 0.344799 0 
0.344799 0.0976694 0 
0 0 0 
-3.87191 -0.00938367 0 
-0.00938367 -3.38468 0 
0 0 0 
-3.98114 -0.101012 0 
-0.101012 -3.27545 0 
0 0 0 
-3.83778 0.019814 0 
0.019814 -3.41881 0 
0 0 0 
-0.0494557 -0.031048 0 
-0.031048 -0.692482 0 
0 0 0 
0.0925876 0.335288 0 
0.335288 -0.834526 0 
0 0 0 
0.114218 0.209808 0 
0.209808 -0.856156 0 
0 0 0 
-1.60833 0.29035 0 
0.29035 -2.30914 0 
0 0 0 
-1.80684 -0.07579 0 
-0.07579 -2.11064 0 
0 0 0 
-1.91682 0.723442 0 
0.723442 -2.00066 0 
0 0 0 
-0.582142 0.181639 0 
0.181639 -0.808343 0 
0 0 0 
-0.441769 0.228626 0 
0.228626 -0.948715 0 
0 0 0 
-0.557791 0.32726 0 
0.32726 -0.832693 0 
0 0 0 
-7.39912 0.162791 0 
0.162791 -6.79346 0 
0 0 0 
-7.19307 -0.115747 0 
-0.115747 -6.99951 0 
0 0 0 
-7.44613 0.123543 0 
0.123543 -6.74645 0 
0 0 0 
-0.728099 -0.325977 0 
-0.325977 -1.14105 0 
0 0 0 
-0.986777 -0.0998461 0 
-0.0998461 -0.882374 0 
0 0 0 
-1.04569 -0.299453 0 
-0.299453 -0.82346 0 
0 0 0 
-5.05674 0.206237 0 
0.206237 -4.50704 0 
0 0 0 
-5.03405 0.215268 0 
0.215268 -4.52973 0 
0 0 0 
-5.0722 0.208389 0 
0.208389 -4.49158 0 
0 0 0 
-3.63976 -0.137788 0 
-0.137788 -4.2923 0 
0 0 0 
-3.70729 -0.142176 0 
-0.142176 -4.22477 0 
0 0 0 
-3.699 -0.147482 0 
-0.147482 -4.23305 0 
0 0 0 
0.0569046 0.119437 0 
0.119437 -0.00615839 0 
0 0 0 
0.0679227 0.129481 0 
0.129481 -0.0171766 0 
0 0 0 
0.0574504 0.135371 0 
0.135371 -0.00670421 0 
0 0 0 
-5.5978 0.194799 0 
0.194799 -5.26321 0 
0 0 0 
-5.51535 0.237918 0 
0.237918 -5.34566 0 
0 0 0 
-5.52759 0.267678 0 
0.267678 -5.33342 0 
0 0 0 
-6.83682 -0.146809 0 
-0.146809 -6.83495 0 
0 0 0 
-6.81986 -0.0931444 0 
-0.0931444 -6.85191 0 
0 0 0 
-6.79338 -0.0959961 0 
-0.0959961 -6.87839 0 
0 0 0 
-5.29001 -0.224287 0 
-0.224287 -5.67163 0 
0 0 0 
-5.25063 -0.174081 0 
-0.174081 -5.71101 0 
0 0 0 
-5.14977 -0.343183 0 
-0.343183 -5.81187 0 
0 0 0 
-4.83256 0.0269786 0 
0.0269786 -4.61872 0 
0 0 0 
-4.91942 0.0779898 0 
0.0779898 -4.53186 0 
0 0 0 
-4.78738 0.160969 0 
0.160969 -4.6639 0 
0 0 0 
-6.92659 -0.654041 0 
-0.654041 -7.89746 0 
0 0 0 
-7.41077 -0.0929486 0 
-0.0929486 -7.41329 0 
0 0 0 
-6.68773 0.382021 0 
0.382021 -8.13632 0 
0 0 0 
-3.90343 0.383299 0 
0.383299 -5.00909 0 
0 0 0 
-4.39255 0.164693 0 
0.164693 -4.51997 0 
0 0 0 
-4.03074 0.421341 0 
0.421341 -4.88177 0 
0 0 0 
-5.53567 0.315507 0 
0.315507 -5.73115 0 
0 0 0 
-5.74973 0.274623 0 
0.274623 -5.51709 0 
0 0 0 
-5.56031 0.231393 0 
0.231393 -5.70651 0 
0 0 0 
-4.3776 0.0933194 0 
0.0933194 -4.66121 0 
0 0 0 
-4.43163 0.0333658 0 
0.0333658 -4.60718 0 
0 0 0 
-4.49349 0.0579796 0 
0.0579796 -4.54532 0 
0 0 0 
-0.136083 -0.13852 0 
-0.13852 -0.139061 0 
0 0 0 
-0.148938 -0.108232 0 
-0.108232 -0.126207 0 
0 0 0 
-0.168843 -0.139926 0 
-0.139926 -0.106302 0 
0 0 0 
-7.15917 0.17463 0 
0.17463 -7.60107 0 
0 0 0 
-7.29597 0.205407 0 
0.205407 -7.46426 0 
0 0 0 
-7.33198 0.152656 0 
0.152656 -7.42825 0 
0 0 0 
-9.5322 0.337568 0 
0.337568 -9.40603 0 
0 0 0 
-9.3839 0.0378216 0 
0.0378216 -9.55433 0 
0 0 0 
-9.70474 0.403734 0 
0.403734 -9.23349 0 
0 0 0 
-7.01355 0.262977 0 
0.262977 -7.71673 0 
0 0 0 
-7.17289 0.0553425 0 
0.0553425 -7.55739 0 
0 0 0 
-7.34953 0.25731 0 
0.25731 -7.38075 0 
0 0 0 
-8.26101 0.515948 0 
0.515948 -6.30762 0 
0 0 0 
-7.25018 0.158757 0 
0.158757 -7.31844 0 
0 0 0 
-7.97013 -0.48483 0 
-0.48483 -6.59849 0 
0 0 0 
-9.69793 -1.00995 0 
-1.00995 -9.76875 0 
0 0 0 
-9.96779 -0.0799947 0 
-0.0799947 -9.4989 0 
0 0 0 
-9.10777 -0.233985 0 
-0.233985 -10.3589 0 
0 0 0 
0.359265 0.835187 0 
0.835187 -1.01164 0 
0 0 0 
-0.200908 0.0521984 0 
0.0521984 -0.451471 0 
0 0 0 
-0.656649 0.806703 0 
0.806703 0.00426995 0 
0 0 0 
-0.179692 -0.0923996 0 
-0.0923996 0.0504799 0 
0 0 0 
-0.222854 -0.0691342 0 
-0.0691342 0.0936411 0 
0 0 0 
-0.121278 -0.0386058 0 
-0.0386058 -0.00793406 0 
0 0 0 
-0.387355 0.0294027 0 
0.0294027 -0.795843 0 
0 0 0 
-0.452834 0.126157 0 
0.126157 -0.730364 0 
0 0 0 
-0.537853 0.0494618 0 
0.0494618 -0.645345 0 
0 0 0 
-2.01186 1.10255 0 
1.10255 1.15792 0 
0 0 0 
-0.494505 0.497166 0 
0.497166 -0.359442 0 
0 0 0 
-1.50357 -0.66448 0 
-0.66448 0.649621 0 
0 0 0 
-6.05125 0.279068 0 
0.279068 -6.69868 0 
0 0 0 
-6.07189 0.31542 0 
0.31542 -6.67804 0 
0 0 0 
-6.02812 0.32369 0 
0.32369 -6.72181 0 
0 0 0 
-5.05246 -0.137448 0 
-0.137448 -5.10041 0 
0 0 0 
-5.10841 -0.0143558 0 
-0.0143558 -5.04447 0 
0 0 0 
-5.06018 -0.127946 0 
-0.127946 -5.09269 0 
0 0 0 
-4.14293 0.413834 0 
0.413834 -4.85629 0 
0 0 0 
-4.78051 0.106409 0 
0.106409 -4.2187 0 
0 0 0 
-4.37021 0.560136 0 
0.560136 -4.62901 0 
0 0 0 
-4.38936 -0.0125275 0 
-0.0125275 -4.08034 0 
0 0 0 
-4.42619 -0.0214159 0 
-0.0214159 -4.0435 0 
0 0 0 
-4.47861 -0.0470928 0 
-0.0470928 -3.99109 0 
0 0 0 
-6.4983 0.103379 0 
0.103379 -7.25639 0 
0 0 0 
-6.8447 -0.161019 0 
-0.161019 -6.90998 0 
0 0 0 
-6.91804 0.256776 0 
0.256776 -6.83665 0 
0 0 0 
-9.66751 0.80306 0 
0.80306 -9.89809 0 
0 0 0 
-10.0889 -0.426898 0 
-0.426898 -9.47671 0 
0 0 0 
-10.6902 0.855007 0 
0.855007 -8.87538 0 
0 0 0 
-7.51278 0.28444 0 
0.28444 -6.94707 0 
0 0 0 
-7.13842 0.0649246 0 
0.0649246 -7.32143 0 
0 0 0 
-7.45318 0.0790634 0 
0.0790634 -7.00667 0 
0 0 0 
-4.69932 0.114873 0 
0.114873 -4.91974 0 
0 0 0 
-5.10787 -0.0816229 0 
-0.0816229 -4.51119 0 
0 0 0 
-4.82562 0.148507 0 
0.148507 -4.79344 0 
0 0 0 
-1.86101 -0.654102 0 
-0.654102 -1.68832 0 
0 0 0 
-2.08029 0.0536797 0 
0.0536797 -1.46904 0 
0 0 0 
-1.29811 0.0321575 0 
0.0321575 -2.25122 0 
0 0 0 
-4.35141 -0.375043 0 
-0.375043 -4.43288 0 
0 0 0 
-4.64215 -0.400655 0 
-0.400655 -4.14213 0 
0 0 0 
-4.43729 -0.255254 0 
-0.255254 -4.347 0 
0 0 0 
-6.41238 0.039936 0 
0.039936 -6.49185 0 
0 0 0 
-6.45793 0.000823013 0 
0.000823013 -6.4463 0 
0 0 0 
-6.5031 -0.0274015 0 
-0.0274015 -6.40112 0 
0 0 0 
-6.88847 0.0375971 0 
0.0375971 -7.26037 0 
0 0 0 
-7.00934 0.0173386 0 
0.0173386 -7.1395 0 
0 0 0 
-6.86538 0.0258111 0 
0.0258111 -7.28347 0 
0 0 0 
-6.78104 0.0781154 0 
0.0781154 -6.93523 0 
0 0 0 
-6.72981 0.00407374 0 
0.00407374 -6.98647 0 
0 0 0 
-7.10804 -0.0334268 0 
-0.0334268 -6.60824 0 
0 0 0 
-6.14053 0.598248 0 
0.598248 -7.96331 0 
0 0 0 
-6.90519 -0.438082 0 
-0.438082 -7.19866 0 
0 0 0 
-7.40435 0.631105 0 
0.631105 -6.6995 0 
0 0 0 
-6.65877 -0.157448 0 
-0.157448 -6.82926 0 
0 0 0 
-6.62881 -0.184339 0 
-0.184339 -6.85922 0 
0 0 0 
-6.55753 -0.00643056 0 
-0.00643056 -6.9305 0 
0 0 0 
-6.78958 -0.0409144 0 
-0.0409144 -7.09285 0 
0 0 0 
-6.75048 -0.0313571 0 
-0.0313571 -7.13196 0 
0 0 0 
-6.75415 -0.0357631 0 
-0.0357631 -7.12828 0 
0 0 0 
-6.37003 -0.806003 0 
-0.806003 -6.70233 0 
0 0 0 
-6.58918 0.0135765 0 
0.0135765 -6.48318 0 
0 0 0 
-5.87245 -0.179937 0 
-0.179937 -7.1999 0 
0 0 0 
-6.97647 0.12218 0 
0.12218 -7.13935 0 
0 0 0 
-7.01963 0.0908966 0 
0.0908966 -7.09618 0 
0 0 0 
-6.9737 0.065536 0 
0.065536 -7.14211 0 
0 0 0 
-6.85199 -0.123201 0 
-0.123201 -6.73971 0 
0 0 0 
-6.7837 -0.0612998 0 
-0.0612998 -6.80799 0 
0 0 0 
-6.82035 -0.132916 0 
-0.132916 -6.77135 0 
0 0 0 
0.630827 0.582821 0 
0.582821 -1.28416 0 
0 0 0 
-0.142681 -0.410402 0 
-0.410402 -0.510647 0 
0 0 0 
-0.819389 0.656737 0 
0.656737 0.166061 0 
0 0 0 
-1.58932 0.089965 0 
0.089965 -0.700366 0 
0 0 0 
-1.45883 0.233764 0 
0.233764 -0.830856 0 
0 0 0 
-1.58095 0.387408 0 
0.387408 -0.70873 0 
0 0 0 
-6.73644 0.25327 0 
0.25327 -6.83803 0 
0 0 0 
-6.83529 0.128911 0 
0.128911 -6.73918 0 
0 0 0 
-6.86454 0.253923 0 
0.253923 -6.70993 0 
0 0 0 
-4.93912 0.00374466 0 
0.00374466 -5.12438 0 
0 0 0 
-4.97542 0.0300385 0 
0.0300385 -5.08808 0 
0 0 0 
-5.01494 -0.00886011 0 
-0.00886011 -5.04856 0 
0 0 0 
-9.86671 0.0241771 0 
0.0241771 -10.551 0 
0 0 0 
-10.0899 -0.0851342 0 
-0.0851342 -10.3277 0 
0 0 0 
-10.1786 0.115578 0 
0.115578 -10.2391 0 
0 0 0 
-7.16517 -0.131477 0 
-0.131477 -6.64791 0 
0 0 0 
-7.20398 0.11035 0 
0.11035 -6.6091 0 
0 0 0 
-7.12827 -0.140004 0 
-0.140004 -6.6848 0 
0 0 0 
-6.57844 0.0402356 0 
0.0402356 -6.45232 0 
0 0 0 
-6.54259 -0.0784282 0 
-0.0784282 -6.48818 0 
0 0 0 
-6.65136 0.00838752 0 
0.00838752 -6.3794 0 
0 0 0 
-7.41839 0.357391 0 
0.357391 -7.19954 0 
0 0 0 
-7.23349 0.204902 0 
0.204902 -7.38444 0 
0 0 0 
-7.33503 0.0290135 0 
0.0290135 -7.28291 0 
0 0 0 
-7.20021 0.254266 0 
0.254266 -7.36921 0 
0 0 0 
-6.94478 0.173203 0 
0.173203 -7.62464 0 
0 0 0 
-7.05824 -0.00701471 0 
-0.00701471 -7.51117 0 
0 0 0 
-0.0646647 -0.101967 0 
-0.101967 0.042729 0 
0 0 0 
-0.0310851 -0.143851 0 
-0.143851 0.00914943 0 
0 0 0 
-0.0495417 -0.137503 0 
-0.137503 0.027606 0 
0 0 0 
-1.27287 0.415452 0 
0.415452 -1.12879 0 
0 0 0 
-1.5436 0.258388 0 
0.258388 -0.858062 0 
0 0 0 
-1.38819 0.422711 0 
0.422711 -1.01348 0 
0 0 0 
-7.22928 0.156996 0 
0.156996 -7.14204 0 
0 0 0 
-7.54959 0.0987505 0 
0.0987505 -6.82173 0 
0 0 0 
-7.44125 -0.00245634 0 
-0.00245634 -6.93007 0 
0 0 0 
-5.50951 -0.00915893 0 
-0.00915893 -4.60828 0 
0 0 0 
-5.31969 0.0128973 0 
0.0128973 -4.79811 0 
0 0 0 
-5.36625 -0.109718 0 
-0.109718 -4.75155 0 
0 0 0 
-5.38067 0.0794665 0 
0.0794665 -4.79404 0 
0 0 0 
-4.86046 -0.0948224 0 
-0.0948224 -5.31426 0 
0 0 0 
-5.5182 -0.322892 0 
-0.322892 -4.65651 0 
0 0 0 
-9.97859 0.10931 0 
0.10931 -9.76646 0 
0 0 0 
-9.97276 0.10552 0 
0.10552 -9.77229 0 
0 0 0 
-9.9917 0.108349 0 
0.108349 -9.75336 0 
0 0 0 
-10.0297 -0.23777 0 
-0.23777 -9.90991 0 
0 0 0 
-10.0553 -0.151595 0 
-0.151595 -9.88434 0 
0 0 0 
-9.87442 -0.283911 0 
-0.283911 -10.0652 0 
0 0 0 
-5.40479 -0.179239 0 
-0.179239 -5.7261 0 
0 0 0 
-5.44878 -0.18338 0 
-0.18338 -5.6821 0 
0 0 0 
-5.43627 -0.250002 0 
-0.250002 -5.69461 0 
0 0 0 
-9.17318 0.0495603 0 
0.0495603 -9.24757 0 
0 0 0 
-9.4359 -0.0823327 0 
-0.0823327 -8.98485 0 
0 0 0 
-9.23248 0.0263042 0 
0.0263042 -9.18827 0 
0 0 0 
-4.62948 -0.135596 0 
-0.135596 -4.34865 0 
0 0 0 
-4.18373 -0.238704 0 
-0.238704 -4.7944 0 
0 0 0 
-4.50072 -0.368772 0 
-0.368772 -4.47741 0 
0 0 0 
-6.66409 -0.123369 0 
-0.123369 -7.06979 0 
0 0 0 
-6.67327 -0.0474178 0 
-0.0474178 -7.06062 0 
0 0 0 
-6.67665 -0.132015 0 
-0.132015 -7.05723 0 
0 0 0 
-9.92751 -0.368519 0 
-0.368519 -9.18951 0 
0 0 0 
-9.57568 -0.0793973 0 
-0.0793973 -9.54134 0 
0 0 0 
-9.71623 -0.50265 0 
-0.50265 -9.40079 0 
0 0 0 
-6.7674 0.395163 0 
0.395163 -6.96597 0 
0 0 0 
-7.30222 -0.272486 0 
-0.272486 -6.43115 0 
0 0 0 
-7.56423 0.14558 0 
0.14558 -6.16914 0 
0 0 0 
-9.73495 -0.0153827 0 
-0.0153827 -10.1042 0 
0 0 0 
-9.81777 -0.152115 0 
-0.152115 -10.0214 0 
0 0 0 
-9.85111 -0.0209098 0 
-0.0209098 -9.98809 0 
0 0 0 
-7.11864 0.573994 0 
0.573994 -6.85258 0 
0 0 0 
-6.90028 0.205457 0 
0.205457 -7.07094 0 
0 0 0 
-7.23223 0.169541 0 
0.169541 -6.73899 0 
0 0 0 
-5.08984 0.16688 0 
0.16688 -4.67501 0 
0 0 0 
-5.14932 0.189033 0 
0.189033 -4.61554 0 
0 0 0 
-5.13368 0.200262 0 
0.200262 -4.63117 0 
0 0 0 
-7.25336 -0.037036 0 
-0.037036 -6.40229 0 
0 0 0 
-7.32763 -0.0450896 0 
-0.0450896 -6.32801 0 
0 0 0 
-7.12825 -0.0097184 0 
-0.0097184 -6.52739 0 
0 0 0 
-9.75679 -0.00946187 0 
-0.00946187 -10.399 0 
0 0 0 
-10.0531 0.344372 0 
0.344372 -10.1027 0 
0 0 0 
-9.55204 0.564446 0 
0.564446 -10.6038 0 
0 0 0 
-2.51336 -0.164574 0 
-0.164574 -2.8245 0 
0 0 0 
-2.57121 -0.727671 0 
-0.727671 -2.76665 0 
0 0 0 
-2.16177 -0.339347 0 
-0.339347 -3.17609 0 
0 0 0 
-0.20092 0.111195 0 
0.111195 0.52818 0 
0 0 0 
-0.238911 -0.122288 0 
-0.122288 0.566172 0 
0 0 0 
-0.617173 0.00185489 0 
0.00185489 0.944433 0 
0 0 0 
-5.60201 0.293457 0 
0.293457 -5.00519 0 
0 0 0 
-5.64635 0.27278 0 
0.27278 -4.96085 0 
0 0 0 
-5.62769 0.275072 0 
0.275072 -4.9795 0 
0 0 0 
-5.57678 -0.322063 0 
-0.322063 -5.54872 0 
0 0 0 
-5.44509 -0.161928 0 
-0.161928 -5.68041 0 
0 0 0 
-5.43115 -0.297408 0 
-0.297408 -5.69435 0 
0 0 0 
-1.98277 0.0724304 0 
0.0724304 -1.84091 0 
0 0 0 
-0.935553 -0.360194 0 
-0.360194 -2.88813 0 
0 0 0 
-1.75048 -0.307022 0 
-0.307022 -2.0732 0 
0 0 0 
-7.63354 -0.0984454 0 
-0.0984454 -7.39097 0 
0 0 0 
-7.18741 -0.224497 0 
-0.224497 -7.83711 0 
0 0 0 
-7.39245 -0.469402 0 
-0.469402 -7.63206 0 
0 0 0 
-6.51167 -0.198933 0 
-0.198933 -6.50637 0 
0 0 0 
-6.5795 -0.212732 0 
-0.212732 -6.43854 0 
0 0 0 
-6.57961 -0.213879 0 
-0.213879 -6.43842 0 
0 0 0 
-10.4281 0.30593 0 
0.30593 -7.76445 0 
0 0 0 
-9.02304 0.44941 0 
0.44941 -9.16946 0 
0 0 0 
-9.5205 -0.937359 0 
-0.937359 -8.672 0 
0 0 0 
-6.04944 0.0188891 0 
0.0188891 -6.41641 0 
0 0 0 
-6.01469 -0.0952889 0 
-0.0952889 -6.45116 0 
0 0 0 
-6.11646 -0.0943532 0 
-0.0943532 -6.34939 0 
0 0 0 
-6.73227 0.290905 0 
0.290905 -6.67208 0 
0 0 0 
-6.82375 0.109423 0 
0.109423 -6.58059 0 
0 0 0 
-6.67165 0.153021 0 
0.153021 -6.73269 0 
0 0 0 
0.091816 0.0228529 0 
0.0228529 0.00203075 0 
0 0 0 
0.0770317 0.00051131 0 
0.00051131 0.0168151 0 
0 0 0 
0.0710864 0.0485456 0 
0.0485456 0.0227604 0 
0 0 0 
-9.05237 -0.590273 0 
-0.590273 -8.71197 0 
0 0 0 
-8.9705 -0.426973 0 
-0.426973 -8.79384 0 
0 0 0 
-8.70024 -0.606119 0 
-0.606119 -9.0641 0 
0 0 0 
-5.52663 0.226907 0 
0.226907 -5.202 0 
0 0 0 
-5.40689 0.0316735 0 
0.0316735 -5.32174 0 
0 0 0 
-5.5306 0.223199 0 
0.223199 -5.19803 0 
0 0 0 
-4.96757 0.178911 0 
0.178911 -5.114 0 
0 0 0 
-5.07389 -0.0520721 0 
-0.0520721 -5.00769 0 
0 0 0 
-5.06313 0.0726926 0 
0.0726926 -5.01845 0 
0 0 0 
-6.22744 0.179878 0 
0.179878 -8.4705 0 
0 0 0 
-7.25205 -0.0878804 0 
-0.0878804 -7.44588 0 
0 0 0 
-7.09637 0.596242 0 
0.596242 -7.60157 0 
0 0 0 
-9.33876 -0.579367 0 
-0.579367 -9.67324 0 
0 0 0 
-9.40804 -0.166634 0 
-0.166634 -9.60397 0 
0 0 0 
-9.04128 -0.476436 0 
-0.476436 -9.97072 0 
0 0 0 
-6.73304 0.0469596 0 
0.0469596 -6.93211 0 
0 0 0 
-6.9146 0.0354929 0 
0.0354929 -6.75055 0 
0 0 0 
-6.73179 0.117336 0 
0.117336 -6.93336 0 
0 0 0 
-4.25835 -0.117411 0 
-0.117411 -1.84489 0 
0 0 0 
-2.96022 0.0362833 0 
0.0362833 -3.14302 0 
0 0 0 
-3.35808 -1.27238 0 
-1.27238 -2.74517 0 
0 0 0 
-7.51349 0.0904046 0 
0.0904046 -6.2284 0 
0 0 0 
-7.42897 -0.0296325 0 
-0.0296325 -6.31293 0 
0 0 0 
-7.36039 0.101633 0 
0.101633 -6.38151 0 
0 0 0 
-9.80766 0.219243 0 
0.219243 -9.52002 0 
0 0 0 
-9.8087 0.332835 0 
0.332835 -9.51898 0 
0 0 0 
-9.84112 0.289046 0 
0.289046 -9.48656 0 
0 0 0 
-1.98816 0.0436239 0 
0.0436239 -2.14371 0 
0 0 0 
-2.30275 -0.441344 0 
-0.441344 -1.82912 0 
0 0 0 
-2.20271 0.02894 0 
0.02894 -1.92917 0 
0 0 0 
-4.34898 0.235971 0 
0.235971 -4.55757 0 
0 0 0 
-4.2275 0.0799662 0 
0.0799662 -4.67905 0 
0 0 0 
-4.3613 0.0346786 0 
0.0346786 -4.54525 0 
0 0 0 
-6.8385 -0.00965061 0 
-0.00965061 -6.36018 0 
0 0 0 
-6.82261 -0.0637867 0 
-0.0637867 -6.37607 0 
0 0 0 
-6.82077 -0.0375778 0 
-0.0375778 -6.37791 0 
0 0 0 
-6.38185 -0.0348228 0 
-0.0348228 -6.31504 0 
0 0 0 
-6.3416 -0.100171 0 
-0.100171 -6.35529 0 
0 0 0 
-6.55141 -0.0286878 0 
-0.0286878 -6.14549 0 
0 0 0 
-1.41884 0.55266 0 
0.55266 -0.689139 0 
0 0 0 
-0.97424 0.794635 0 
0.794635 -1.13374 0 
0 0 0 
-1.24071 0.297078 0 
0.297078 -0.867268 0 
0 0 0 
-3.44249 -0.00601154 0 
-0.00601154 -4.00155 0 
0 0 0 
-3.5819 -0.0430121 0 
-0.0430121 -3.86213 0 
0 0 0 
-3.34932 0.153162 0 
0.153162 -4.09471 0 
0 0 0 
-7.06797 -0.147077 0 
-0.147077 -6.75791 0 
0 0 0 
-6.9387 -0.202833 0 
-0.202833 -6.88718 0 
0 0 0 
-6.98758 -0.1805 0 
-0.1805 -6.83831 0 
0 0 0 
-6.79606 -0.0659763 0 
-0.0659763 -7.1149 0 
0 0 0 
-6.81015 -0.0339385 0 
-0.0339385 -7.10081 0 
0 0 0 
-6.74475 -0.0572177 0 
-0.0572177 -7.16621 0 
0 0 0 
-6.56824 -0.0238213 0 
-0.0238213 -6.60583 0 
0 0 0 
-6.64655 -0.0872599 0 
-0.0872599 -6.52753 0 
0 0 0 
-6.58974 -0.0742521 0 
-0.0742521 -6.58434 0 
0 0 0 
-7.58279 -0.06619 0 
-0.06619 -8.74362 0 
0 0 0 
-7.62389 0.0279166 0 
0.0279166 -8.70252 0 
0 0 0 
-7.65292 -0.0944434 0 
-0.0944434 -8.67349 0 
0 0 0 
-9.49804 -0.00423949 0 
-0.00423949 -8.79588 0 
0 0 0 
-9.64976 -0.0471616 0 
-0.0471616 -8.64416 0 
0 0 0 
-9.53668 -0.268046 0 
-0.268046 -8.75725 0 
0 0 0 
-4.81643 -0.433939 0 
-0.433939 -4.40417 0 
0 0 0 
-5.13079 -0.453121 0 
-0.453121 -4.08981 0 
0 0 0 
-4.89195 -0.388762 0 
-0.388762 -4.32866 0 
0 0 0 
-9.12671 0.723467 0 
0.723467 -10.2245 0 
0 0 0 
-9.7596 -0.0630238 0 
-0.0630238 -9.59162 0 
0 0 0 
-10.2912 0.739943 0 
0.739943 -9.06004 0 
0 0 0 
-8.40468 0.862381 0 
0.862381 -9.06798 0 
0 0 0 
-8.46046 -0.0483366 0 
-0.0483366 -9.0122 0 
0 0 0 
-9.65979 0.793469 0 
0.793469 -7.81287 0 
0 0 0 
-6.66263 -0.304515 0 
-0.304515 -6.32576 0 
0 0 0 
-6.21374 -0.132518 0 
-0.132518 -6.77465 0 
0 0 0 
-6.41167 -0.709359 0 
-0.709359 -6.57671 0 
0 0 0 
-5.29159 0.00870493 0 
0.00870493 -5.09399 0 
0 0 0 
-5.43977 -0.0714718 0 
-0.0714718 -4.94581 0 
0 0 0 
-5.34924 -0.0591109 0 
-0.0591109 -5.03634 0 
0 0 0 
-3.76158 -0.0829605 0 
-0.0829605 -3.92015 0 
0 0 0 
-3.74449 -0.112111 0 
-0.112111 -3.93724 0 
0 0 0 
-3.7103 -0.074053 0 
-0.074053 -3.97143 0 
0 0 0 
-5.08966 -0.187648 0 
-0.187648 -5.12631 0 
0 0 0 
-4.91621 -0.29547 0 
-0.29547 -5.29977 0 
0 0 0 
-4.87389 -0.0621183 0 
-0.0621183 -5.34209 0 
0 0 0 
-0.36421 -0.136757 0 
-0.136757 -0.562221 0 
0 0 0 
-0.260285 -0.37258 0 
-0.37258 -0.666146 0 
0 0 0 
-0.506353 -0.256733 0 
-0.256733 -0.420079 0 
0 0 0 
-0.652275 0.242888 0 
0.242888 0.446993 0 
0 0 0 
-0.301247 0.0547554 0 
0.0547554 0.0959641 0 
0 0 0 
-0.591639 0.079356 0 
0.079356 0.386356 0 
0 0 0 
-1.83947 -0.336085 0 
-0.336085 -2.16603 0 
0 0 0 
-1.66124 -0.245022 0 
-0.245022 -2.34427 0 
0 0 0 
-2.10413 -0.349145 0 
-0.349145 -1.90138 0 
0 0 0 
-0.569057 0.14978 0 
0.14978 -0.732999 0 
0 0 0 
-0.39563 0.0885285 0 
0.0885285 -0.906426 0 
0 0 0 
-0.641569 0.111138 0 
0.111138 -0.660487 0 
0 0 0 
-3.41468 -0.054724 0 
-0.054724 -3.31119 0 
0 0 0 
-3.72248 -0.318704 0 
-0.318704 -3.00339 0 
0 0 0 
-3.64669 -0.171717 0 
-0.171717 -3.07917 0 
0 0 0 
-4.99145 -0.194547 0 
-0.194547 -5.6443 0 
0 0 0 
-5.08309 -0.230525 0 
-0.230525 -5.55266 0 
0 0 0 
-5.10315 -0.0829652 0 
-0.0829652 -5.53259 0 
0 0 0 
-4.4114 0.117514 0 
0.117514 -4.4566 0 
0 0 0 
-4.25275 -0.10298 0 
-0.10298 -4.61525 0 
0 0 0 
-4.59617 -0.0431245 0 
-0.0431245 -4.27183 0 
0 0 0 
-4.60703 0.351228 0 
0.351228 -4.62549 0 
0 0 0 
-4.64346 0.325864 0 
0.325864 -4.58906 0 
0 0 0 
-4.69334 0.357781 0 
0.357781 -4.53919 0 
0 0 0 
-5.42304 0.297361 0 
0.297361 -4.96421 0 
0 0 0 
-5.39043 0.280304 0 
0.280304 -4.99682 0 
0 0 0 
-5.38637 0.31763 0 
0.31763 -5.00088 0 
0 0 0 
-5.39214 -0.212961 0 
-0.212961 -5.7858 0 
0 0 0 
-5.45931 -0.274698 0 
-0.274698 -5.71864 0 
0 0 0 
-5.51421 -0.272878 0 
-0.272878 -5.66374 0 
0 0 0 
-0.37836 -0.141499 0 
-0.141499 -0.982476 0 
0 0 0 
-0.532369 -0.154244 0 
-0.154244 -0.828467 0 
0 0 0 
-0.655537 -0.0390211 0 
-0.0390211 -0.7053 0 
0 0 0 
-5.26916 0.0328137 0 
0.0328137 -4.63411 0 
0 0 0 
-4.98642 -0.174355 0 
-0.174355 -4.91686 0 
0 0 0 
-5.32932 -0.288171 0 
-0.288171 -4.57396 0 
0 0 0 
-8.50223 0.00629515 0 
0.00629515 -8.53539 0 
0 0 0 
-8.0506 -0.23882 0 
-0.23882 -8.98702 0 
0 0 0 
-8.11272 0.0288142 0 
0.0288142 -8.9249 0 
0 0 0 
-6.65078 -0.0338485 0 
-0.0338485 -7.08688 0 
0 0 0 
-6.61595 -0.0771803 0 
-0.0771803 -7.12171 0 
0 0 0 
-6.70339 -0.0507527 0 
-0.0507527 -7.03428 0 
0 0 0 
-5.08656 -0.226622 0 
-0.226622 -5.7577 0 
0 0 0 
-5.14994 -0.242061 0 
-0.242061 -5.69432 0 
0 0 0 
-5.1303 -0.324548 0 
-0.324548 -5.71396 0 
0 0 0 
-4.52361 -0.894259 0 
-0.894259 -3.93205 0 
0 0 0 
-4.53056 0.55997 0 
0.55997 -3.9251 0 
0 0 0 
-4.26299 -0.213161 0 
-0.213161 -4.19267 0 
0 0 0 
-4.51904 -0.0454194 0 
-0.0454194 -4.37357 0 
0 0 0 
-4.51155 -0.145074 0 
-0.145074 -4.38107 0 
0 0 0 
-4.6866 -0.117463 0 
-0.117463 -4.20602 0 
0 0 0 
-7.41017 -0.387873 0 
-0.387873 -7.19816 0 
0 0 0 
-7.35795 -0.17959 0 
-0.17959 -7.25037 0 
0 0 0 
-7.15446 -0.419744 0 
-0.419744 -7.45386 0 
0 0 0 
-6.13962 0.19104 0 
0.19104 -6.20813 0 
0 0 0 
-6.11606 0.155734 0 
0.155734 -6.2317 0 
0 0 0 
-6.1027 0.188971 0 
0.188971 -6.24506 0 
0 0 0 
-9.61045 0.339864 0 
0.339864 -10.3798 0 
0 0 0 
-9.82533 0.170155 0 
0.170155 -10.1649 0 
0 0 0 
-9.64429 0.270147 0 
0.270147 -10.3459 0 
0 0 0 
-7.28558 0.0755517 0 
0.0755517 -7.89273 0 
0 0 0 
-7.42563 0.365071 0 
0.365071 -7.75269 0 
0 0 0 
-7.09468 0.62841 0 
0.62841 -8.08364 0 
0 0 0 
-6.93236 -0.00364917 0 
-0.00364917 -7.00533 0 
0 0 0 
-6.99353 -0.121178 0 
-0.121178 -6.94416 0 
0 0 0 
-7.04328 0.0395865 0 
0.0395865 -6.89442 0 
0 0 0 
-5.15126 -0.524695 0 
-0.524695 -5.12957 0 
0 0 0 
-4.97801 -0.676308 0 
-0.676308 -5.30282 0 
0 0 0 
-5.06646 -0.603124 0 
-0.603124 -5.21437 0 
0 0 0 
-6.53797 0.214595 0 
0.214595 -7.00998 0 
0 0 0 
-6.78994 -0.160191 0 
-0.160191 -6.75801 0 
0 0 0 
-6.91159 0.210509 0 
0.210509 -6.63637 0 
0 0 0 
-5.60319 0.297182 0 
0.297182 -5.43372 0 
0 0 0 
-5.60086 0.254737 0 
0.254737 -5.43605 0 
0 0 0 
-5.5089 0.285284 0 
0.285284 -5.52801 0 
0 0 0 
-7.01164 -0.452675 0 
-0.452675 -5.99293 0 
0 0 0 
-6.92959 0.0425732 0 
0.0425732 -6.07497 0 
0 0 0 
-6.6809 -0.187851 0 
-0.187851 -6.32367 0 
0 0 0 
-6.70714 -0.0162151 0 
-0.0162151 -7.27371 0 
0 0 0 
-6.62919 -0.227887 0 
-0.227887 -7.35166 0 
0 0 0 
-6.94379 -0.0729998 0 
-0.0729998 -7.03706 0 
0 0 0 
-5.25308 -0.213881 0 
-0.213881 -5.68671 0 
0 0 0 
-5.15154 -0.370408 0 
-0.370408 -5.78824 0 
0 0 0 
-5.21922 -0.401171 0 
-0.401171 -5.72057 0 
0 0 0 
-6.80198 -0.0442442 0 
-0.0442442 -7.05314 0 
0 0 0 
-6.7904 0.00109681 0 
0.00109681 -7.06472 0 
0 0 0 
-6.77038 -0.00465487 0 
-0.00465487 -7.08474 0 
0 0 0 
-7.90134 -0.160492 0 
-0.160492 -8.3522 0 
0 0 0 
-7.86625 -0.0962579 0 
-0.0962579 -8.38729 0 
0 0 0 
-7.99857 -0.10669 0 
-0.10669 -8.25497 0 
0 0 0 
-7.66742 0.110729 0 
0.110729 -8.03791 0 
0 0 0 
-7.61497 0.342911 0 
0.342911 -8.09036 0 
0 0 0 
-7.83227 0.275659 0 
0.275659 -7.87307 0 
0 0 0 
-6.50109 0.128427 0 
0.128427 -6.41633 0 
0 0 0 
-6.31818 -0.0498169 0 
-0.0498169 -6.59924 0 
0 0 0 
-6.45719 -0.0827341 0 
-0.0827341 -6.46023 0 
0 0 0 
-5.7214 -1.23105 0 
-1.23105 -6.42826 0 
0 0 0 
-6.09247 0.162604 0 
0.162604 -6.05719 0 
0 0 0 
-5.0197 -0.371348 0 
-0.371348 -7.12996 0 
0 0 0 
-7.67194 0.0124051 0 
0.0124051 -8.03931 0 
0 0 0 
-7.68568 -0.0653282 0 
-0.0653282 -8.02557 0 
0 0 0 
-7.55326 -0.030165 0 
-0.030165 -8.15799 0 
0 0 0 
-2.04068 -0.294322 0 
-0.294322 -2.70003 0 
0 0 0 
-2.42957 -0.287354 0 
-0.287354 -2.31113 0 
0 0 0 
-2.73108 -0.284552 0 
-0.284552 -2.00963 0 
0 0 0 
-6.76331 -0.100051 0 
-0.100051 -6.73064 0 
0 0 0 
-6.59516 -0.0219934 0 
-0.0219934 -6.89879 0 
0 0 0 
-6.70157 -0.247341 0 
-0.247341 -6.79237 0 
0 0 0 
-8.8184 -0.539528 0 
-0.539528 -8.36323 0 
0 0 0 
-8.49135 -0.36064 0 
-0.36064 -8.69028 0 
0 0 0 
-8.56833 -0.441683 0 
-0.441683 -8.61331 0 
0 0 0 
-4.87551 -0.514836 0 
-0.514836 -5.21589 0 
0 0 0 
-5.04929 -0.309879 0 
-0.309879 -5.04211 0 
0 0 0 
-4.88095 -0.403402 0 
-0.403402 -5.21045 0 
0 0 0 
-6.84462 -0.103078 0 
-0.103078 -6.60543 0 
0 0 0 
-6.80778 -0.0327912 0 
-0.0327912 -6.64226 0 
0 0 0 
-6.78413 -0.0574703 0 
-0.0574703 -6.66591 0 
0 0 0 
-10.0167 -0.103506 0 
-0.103506 -10.0606 0 
0 0 0 
-10.0389 -0.107506 0 
-0.107506 -10.0385 0 
0 0 0 
-10.0543 -0.0382089 0 
-0.0382089 -10.023 0 
0 0 0 
-5.17584 -0.190162 0 
-0.190162 -5.79528 0 
0 0 0 
-5.13945 -0.308001 0 
-0.308001 -5.83167 0 
0 0 0 
-5.27596 -0.236154 0 
-0.236154 -5.69516 0 
0 0 0 
-0.768593 0.500949 0 
0.500949 0.568515 0 
0 0 0 
-0.371218 0.155948 0 
0.155948 0.17114 0 
0 0 0 
-0.826017 0.504014 0 
0.504014 0.625939 0 
0 0 0 
-5.62503 -0.133551 0 
-0.133551 -5.77698 0 
0 0 0 
-5.70743 -0.217789 0 
-0.217789 -5.69457 0 
0 0 0 
-5.61602 -0.153435 0 
-0.153435 -5.78599 0 
0 0 0 
-0.895865 -0.322108 0 
-0.322108 0.806806 0 
0 0 0 
0.350965 -0.191179 0 
-0.191179 -0.440025 0 
0 0 0 
0.128369 -1.64406 0 
-1.64406 -0.217428 0 
0 0 0 
-1.35307 0.905235 0 
0.905235 -0.310515 0 
0 0 0 
-0.908677 0.364559 0 
0.364559 -0.75491 0 
0 0 0 
-1.61752 0.831561 0 
0.831561 -0.0460715 0 
0 0 0 
-5.54683 0.146427 0 
0.146427 -5.10304 0 
0 0 0 
-5.48132 0.0622766 0 
0.0622766 -5.16854 0 
0 0 0 
-5.49364 0.0200044 0 
0.0200044 -5.15622 0 
0 0 0 
-4.67238 0.537558 0 
0.537558 -6.18467 0 
0 0 0 
-5.36978 -0.353675 0 
-0.353675 -5.48727 0 
0 0 0 
-5.58438 0.58181 0 
0.58181 -5.27267 0 
0 0 0 
-10.0517 0.215721 0 
0.215721 -9.94686 0 
0 0 0 
-10.0985 0.107942 0 
0.107942 -9.90009 0 
0 0 0 
-10.0462 0.230318 0 
0.230318 -9.95233 0 
0 0 0 
-4.84556 -0.281143 0 
-0.281143 -5.61952 0 
0 0 0 
-5.38468 -0.214362 0 
-0.214362 -5.0804 0 
0 0 0 
-4.95542 0.0540698 0 
0.0540698 -5.50966 0 
0 0 0 
-9.9673 -0.0333063 0 
-0.0333063 -9.9835 0 
0 0 0 
-9.96874 -0.116671 0 
-0.116671 -9.98206 0 
0 0 0 
-10.0432 -0.0209523 0 
-0.0209523 -9.90764 0 
0 0 0 
-4.3129 0.120696 0 
0.120696 -6.58873 0 
0 0 0 
-5.24958 -0.648169 0 
-0.648169 -5.65204 0 
0 0 0 
-5.13193 0.433562 0 
0.433562 -5.7697 0 
0 0 0 
-5.24954 -0.3229 0 
-0.3229 -4.61288 0 
0 0 0 
-5.05403 -0.148998 0 
-0.148998 -4.80839 0 
0 0 0 
-5.18605 -0.451779 0 
-0.451779 -4.67637 0 
0 0 0 
-7.27507 -0.148554 0 
-0.148554 -6.72793 0 
0 0 0 
-7.23298 -0.0731354 0 
-0.0731354 -6.77003 0 
0 0 0 
-7.29723 -0.095291 0 
-0.095291 -6.70577 0 
0 0 0 
-2.41275 -0.150483 0 
-0.150483 -2.80064 0 
0 0 0 
-2.70273 -0.489348 0 
-0.489348 -2.51065 0 
0 0 0 
-2.75043 0.00110529 0 
0.00110529 -2.46295 0 
0 0 0 
-3.97359 -0.0680782 0 
-0.0680782 -3.59582 0 
0 0 0 
-3.89568 -0.0503754 0 
-0.0503754 -3.67373 0 
0 0 0 
-3.9692 -0.140359 0 
-0.140359 -3.60021 0 
0 0 0 
-9.20465 0.0997922 0 
0.0997922 -10.2519 0 
0 0 0 
-9.57032 0.446012 0 
0.446012 -9.88625 0 
0 0 0 
-8.95328 0.747323 0 
0.747323 -10.5033 0 
0 0 0 
-8.00829 -0.53725 0 
-0.53725 -7.81367 0 
0 0 0 
-7.78655 -0.360934 0 
-0.360934 -8.03541 0 
0 0 0 
-7.65169 -0.535635 0 
-0.535635 -8.17027 0 
0 0 0 
-8.38432 0.463481 0 
0.463481 -6.02288 0 
0 0 0 
-6.85646 -0.287994 0 
-0.287994 -7.55074 0 
0 0 0 
-7.50646 -0.926352 0 
-0.926352 -6.90075 0 
0 0 0 
-5.88588 0.103542 0 
0.103542 -6.68902 0 
0 0 0 
-6.06719 0.0439896 0 
0.0439896 -6.5077 0 
0 0 0 
-6.06147 0.381999 0 
0.381999 -6.51343 0 
0 0 0 
-7.38139 -0.0953043 0 
-0.0953043 -7.97159 0 
0 0 0 
-7.39216 0.388103 0 
0.388103 -7.96082 0 
0 0 0 
-7.60607 0.296012 0 
0.296012 -7.74691 0 
0 0 0 
-0.110144 0.0618246 0 
0.0618246 -0.711841 0 
0 0 0 
-0.165244 -0.00619107 0 
-0.00619107 -0.656741 0 
0 0 0 
-0.125012 -0.0137678 0 
-0.0137678 -0.696973 0 
0 0 0 
-7.04479 -1.18661 0 
-1.18661 -8.32199 0 
0 0 0 
-7.59415 0.239331 0 
0.239331 -7.77263 0 
0 0 0 
-6.02641 0.0514413 0 
0.0514413 -9.34036 0 
0 0 0 
-6.33763 0.238293 0 
0.238293 -6.41519 0 
0 0 0 
-6.20426 0.137264 0 
0.137264 -6.54855 0 
0 0 0 
-6.31529 0.0562438 0 
0.0562438 -6.43752 0 
0 0 0 
-1.46361 0.0549877 0 
0.0549877 -1.43694 0 
0 0 0 
-0.902431 -0.0142325 0 
-0.0142325 -1.99811 0 
0 0 0 
-1.41694 -0.165618 0 
-0.165618 -1.48361 0 
0 0 0 
-9.22705 -1.20309 0 
-1.20309 -9.42802 0 
0 0 0 
-9.63523 -0.161046 0 
-0.161046 -9.01985 0 
0 0 0 
-8.41404 -0.137462 0 
-0.137462 -10.241 0 
0 0 0 
-9.89417 0.251115 0 
0.251115 -9.47308 0 
0 0 0 
-10.0068 0.276236 0 
0.276236 -9.36047 0 
0 0 0 
-9.71221 -0.113112 0 
-0.113112 -9.65504 0 
0 0 0 
-5.67456 0.390445 0 
0.390445 -5.93386 0 
0 0 0 
-5.75614 0.342103 0 
0.342103 -5.85229 0 
0 0 0 
-5.81407 0.384146 0 
0.384146 -5.79436 0 
0 0 0 
-4.75579 -0.811013 0 
-0.811013 -5.3277 0 
0 0 0 
-5.13588 0.149387 0 
0.149387 -4.94761 0 
0 0 0 
-4.04917 0.0774618 0 
0.0774618 -6.03432 0 
0 0 0 
-5.2187 -0.143168 0 
-0.143168 -5.08111 0 
0 0 0 
-5.09077 -0.217632 0 
-0.217632 -5.20904 0 
0 0 0 
-5.15959 -0.15055 0 
-0.15055 -5.14022 0 
0 0 0 
-3.95025 -0.424646 0 
-0.424646 -3.52957 0 
0 0 0 
-4.00618 -0.616409 0 
-0.616409 -3.47365 0 
0 0 0 
-3.81291 -0.42851 0 
-0.42851 -3.66691 0 
0 0 0 
-5.22415 -0.257683 0 
-0.257683 -4.99015 0 
0 0 0 
-5.13883 0.00400027 0 
0.00400027 -5.07546 0 
0 0 0 
-4.98321 -0.108488 0 
-0.108488 -5.23108 0 
0 0 0 
-4.90678 -0.232844 0 
-0.232844 -4.60538 0 
0 0 0 
-4.63396 0.072466 0 
0.072466 -4.8782 0 
0 0 0 
-4.62326 -0.050427 0 
-0.050427 -4.8889 0 
0 0 0 
-3.32317 -0.76439 0 
-0.76439 -3.21237 0 
0 0 0 
-3.30636 -0.609246 0 
-0.609246 -3.22917 0 
0 0 0 
-3.07919 -0.372915 0 
-0.372915 -3.45634 0 
0 0 0 
-6.44941 0.112901 0 
0.112901 -6.06249 0 
0 0 0 
-6.43587 -0.151566 0 
-0.151566 -6.07602 0 
0 0 0 
-6.39632 -0.104581 0 
-0.104581 -6.11557 0 
0 0 0 
-5.2779 0.149958 0 
0.149958 -4.91245 0 
0 0 0 
-5.32757 0.0124688 0 
0.0124688 -4.86278 0 
0 0 0 
-5.56326 0.0799919 0 
0.0799919 -4.62709 0 
0 0 0 
-5.45609 0.0983075 0 
0.0983075 -4.85299 0 
0 0 0 
-5.50854 0.178944 0 
0.178944 -4.80054 0 
0 0 0 
-5.56415 0.0714103 0 
0.0714103 -4.74493 0 
0 0 0 
-5.59505 -0.146338 0 
-0.146338 -5.27686 0 
0 0 0 
-5.53546 -0.0849027 0 
-0.0849027 -5.33644 0 
0 0 0 
-5.63856 -0.0936593 0 
-0.0936593 -5.23334 0 
0 0 0 
-6.77724 0.280764 0 
0.280764 -4.92181 0 
0 0 0 
-5.71 -0.0948205 0 
-0.0948205 -5.98905 0 
0 0 0 
-6.57059 -0.569351 0 
-0.569351 -5.12847 0 
0 0 0 
-5.61116 -0.0486717 0 
-0.0486717 -5.41858 0 
0 0 0 
-5.84261 -0.0729502 0 
-0.0729502 -5.18713 0 
0 0 0 
-5.75956 -0.219893 0 
-0.219893 -5.27019 0 
0 0 0 
-5.13188 0.352407 0 
0.352407 -6.999 0 
0 0 0 
-5.86403 0.0675489 0 
0.0675489 -6.26685 0 
0 0 0 
-5.81845 0.640959 0 
0.640959 -6.31243 0 
0 0 0 
-5.86453 0.0648253 0 
0.0648253 -6.79516 0 
0 0 0 
-5.84382 0.251624 0 
0.251624 -6.81587 0 
0 0 0 
-6.04654 0.179549 0 
0.179549 -6.61315 0 
0 0 0 
-6.97439 -0.429018 0 
-0.429018 -6.62889 0 
0 0 0 
-7.03012 0.00718795 0 
0.00718795 -6.57316 0 
0 0 0 
-6.66754 -0.221296 0 
-0.221296 -6.93574 0 
0 0 0 
-4.01083 0.00281215 0 
0.00281215 -4.13537 0 
0 0 0 
-4.13453 0.00259009 0 
0.00259009 -4.01167 0 
0 0 0 
-4.08847 -0.0194217 0 
-0.0194217 -4.05773 0 
0 0 0 
-6.5384 0.737571 0 
0.737571 -6.87353 0 
0 0 0 
-7.00827 0.0248046 0 
0.0248046 -6.40367 0 
0 0 0 
-7.69191 0.76319 0 
0.76319 -5.72003 0 
0 0 0 
-6.51092 0.0749312 0 
0.0749312 -5.99243 0 
0 0 0 
-6.48949 0.250544 0 
0.250544 -6.01386 0 
0 0 0 
-6.68406 0.173127 0 
0.173127 -5.81928 0 
0 0 0 
-7.11633 0.105884 0 
0.105884 -6.9008 0 
0 0 0 
-7.47749 0.237811 0 
0.237811 -6.53963 0 
0 0 0 
-7.47034 0.25069 0 
0.25069 -6.54678 0 
0 0 0 
-4.5661 0.35466 0 
0.35466 -4.07044 0 
0 0 0 
-4.36345 0.160353 0 
0.160353 -4.27309 0 
0 0 0 
-4.623 0.295462 0 
0.295462 -4.01354 0 
0 0 0 
-8.17923 0.328098 0 
0.328098 -6.7215 0 
0 0 0 
-7.29618 0.0869015 0 
0.0869015 -7.60454 0 
0 0 0 
-7.97528 -0.432154 0 
-0.432154 -6.92544 0 
0 0 0 
-1.97843 -0.288924 0 
-0.288924 -3.59785 0 
0 0 0 
-2.94209 -0.690621 0 
-0.690621 -2.6342 0 
0 0 0 
-2.43671 -0.137438 0 
-0.137438 -3.13957 0 
0 0 0 
-9.43161 -0.0633697 0 
-0.0633697 -9.71463 0 
0 0 0 
-9.5152 0.109932 0 
0.109932 -9.63105 0 
0 0 0 
-9.41495 0.0929259 0 
0.0929259 -9.73129 0 
0 0 0 
-4.36045 0.1575 0 
0.1575 -3.93916 0 
0 0 0 
-3.99341 -0.0701066 0 
-0.0701066 -4.30619 0 
0 0 0 
-4.27152 -0.1537 0 
-0.1537 -4.02808 0 
0 0 0 
-9.97117 0.157484 0 
0.157484 -10.0105 0 
0 0 0 
-10.0627 0.0481114 0 
0.0481114 -9.91898 0 
0 0 0 
-10.0431 0.0854168 0 
0.0854168 -9.93862 0 
0 0 0 
-5.99382 -0.0221922 0 
-0.0221922 -5.91784 0 
0 0 0 
-5.87317 0.040295 0 
0.040295 -6.03849 0 
0 0 0 
-5.87274 0.057534 0 
0.057534 -6.03892 0 
0 0 0 
-6.84295 0.00530119 0 
0.00530119 -6.45423 0 
0 0 0 
-6.7862 0.0361302 0 
0.0361302 -6.51098 0 
0 0 0 
-6.84708 -0.0569473 0 
-0.0569473 -6.4501 0 
0 0 0 
-6.91117 -0.103375 0 
-0.103375 -6.95487 0 
0 0 0 
-6.78552 -0.479532 0 
-0.479532 -7.08053 0 
0 0 0 
-6.79891 -0.535817 0 
-0.535817 -7.06713 0 
0 0 0 
-4.57171 0.113759 0 
0.113759 -4.22995 0 
0 0 0 
-4.31836 0.0739206 0 
0.0739206 -4.4833 0 
0 0 0 
-4.47987 -0.0314924 0 
-0.0314924 -4.32179 0 
0 0 0 
-0.476669 0.355588 0 
0.355588 0.0525981 0 
0 0 0 
-0.236884 0.226755 0 
0.226755 -0.187187 0 
0 0 0 
-0.405142 0.0201266 0 
0.0201266 -0.0189288 0 
0 0 0 
-7.36349 -0.0599211 0 
-0.0599211 -7.56845 0 
0 0 0 
-7.32451 0.212157 0 
0.212157 -7.60743 0 
0 0 0 
-7.48036 0.050912 0 
0.050912 -7.45158 0 
0 0 0 
-0.343612 -0.387741 0 
-0.387741 -0.9427 0 
0 0 0 
-0.37461 0.0425024 0 
0.0425024 -0.911702 0 
0 0 0 
-0.333002 -0.355341 0 
-0.355341 -0.95331 0 
0 0 0 
-5.1549 -0.0840381 0 
-0.0840381 -5.48873 0 
0 0 0 
-5.1422 -0.0803197 0 
-0.0803197 -5.50143 0 
0 0 0 
-5.10394 -0.149158 0 
-0.149158 -5.53969 0 
0 0 0 
-5.40826 -0.0688678 0 
-0.0688678 -5.22847 0 
0 0 0 
-5.38604 0.333419 0 
0.333419 -5.25069 0 
0 0 0 
-5.13737 0.126996 0 
0.126996 -5.49935 0 
0 0 0 
-9.01064 -0.147189 0 
-0.147189 -8.75491 0 
0 0 0 
-8.72436 -0.355954 0 
-0.355954 -9.0412 0 
0 0 0 
-8.88539 -0.111144 0 
-0.111144 -8.88016 0 
0 0 0 
-4.95001 0.0439243 0 
0.0439243 -5.38739 0 
0 0 0 
-5.09561 -0.142638 0 
-0.142638 -5.24178 0 
0 0 0 
-4.93919 0.0290685 0 
0.0290685 -5.39821 0 
0 0 0 
-9.38381 -0.150721 0 
-0.150721 -9.72396 0 
0 0 0 
-9.37176 0.0587313 0 
0.0587313 -9.736 0 
0 0 0 
-9.21367 -0.116434 0 
-0.116434 -9.89409 0 
0 0 0 
-6.97772 0.0474741 0 
0.0474741 -6.8474 0 
0 0 0 
-7.00674 0.0251926 0 
0.0251926 -6.81838 0 
0 0 0 
-6.98755 0.0444488 0 
0.0444488 -6.83757 0 
0 0 0 
-0.842126 0.204515 0 
0.204515 -1.00693 0 
0 0 0 
-0.891955 0.146751 0 
0.146751 -0.957097 0 
0 0 0 
-0.729304 0.389796 0 
0.389796 -1.11975 0 
0 0 0 
-1.91102 0.444677 0 
0.444677 -1.83813 0 
0 0 0 
-2.49554 0.245157 0 
0.245157 -1.25361 0 
0 0 0 
-1.97884 0.293811 0 
0.293811 -1.77031 0 
0 0 0 
-7.43651 0.132148 0 
0.132148 -7.9177 0 
0 0 0 
-7.22496 0.0219339 0 
0.0219339 -8.12924 0 
0 0 0 
-7.46017 0.0780373 0 
0.0780373 -7.89404 0 
0 0 0 
-10.1819 0.0823329 0 
0.0823329 -9.88921 0 
0 0 0 
-10.1757 0.0816488 0 
0.0816488 -9.89539 0 
0 0 0 
-10.1586 0.107007 0 
0.107007 -9.91246 0 
0 0 0 
-10.049 0.00705251 0 
0.00705251 -9.63782 0 
0 0 0 
-9.93911 -0.0570699 0 
-0.0570699 -9.74774 0 
0 0 0 
-9.94788 -0.0489292 0 
-0.0489292 -9.73897 0 
0 0 0 
-9.72807 0.0466999 0 
0.0466999 -9.71005 0 
0 0 0 
-9.7353 0.0127449 0 
0.0127449 -9.70282 0 
0 0 0 
-9.7018 0.041226 0 
0.041226 -9.73632 0 
0 0 0 
-10.0726 0.0626312 0 
0.0626312 -9.99464 0 
0 0 0 
-10.0896 -0.00626479 0 
-0.00626479 -9.97762 0 
0 0 0 
-10.0934 0.0339398 0 
0.0339398 -9.97381 0 
0 0 0 
-6.85756 0.0323642 0 
0.0323642 -6.48109 0 
0 0 0 
-6.8217 0.00371044 0 
0.00371044 -6.51694 0 
0 0 0 
-6.84837 -0.0112915 0 
-0.0112915 -6.49028 0 
0 0 0 
-7.74097 -0.458883 0 
-0.458883 -6.81672 0 
0 0 0 
-6.98195 -0.12028 0 
-0.12028 -7.57575 0 
0 0 0 
-7.14737 -1.24985 0 
-1.24985 -7.41032 0 
0 0 0 
-4.27935 -0.249724 0 
-0.249724 -4.32519 0 
0 0 0 
-4.48546 -0.330018 0 
-0.330018 -4.11908 0 
0 0 0 
-4.52644 -0.154889 0 
-0.154889 -4.07809 0 
0 0 0 
-5.29435 0.137628 0 
0.137628 -5.01998 0 
0 0 0 
-5.25898 0.24535 0 
0.24535 -5.05535 0 
0 0 0 
-5.32863 -0.00577726 0 
-0.00577726 -4.9857 0 
0 0 0 
-5.07033 -0.251192 0 
-0.251192 -5.22838 0 
0 0 0 
-5.07864 -0.489325 0 
-0.489325 -5.22007 0 
0 0 0 
-5.29107 -0.317794 0 
-0.317794 -5.00764 0 
0 0 0 
-5.37264 -0.239471 0 
-0.239471 -5.85344 0 
0 0 0 
-5.20364 -0.171688 0 
-0.171688 -6.02244 0 
0 0 0 
-5.43573 0.0666072 0 
0.0666072 -5.79035 0 
0 0 0 
-6.82791 -0.0717989 0 
-0.0717989 -7.06247 0 
0 0 0 
-6.80476 -0.0425033 0 
-0.0425033 -7.08562 0 
0 0 0 
-6.8172 -0.0668108 0 
-0.0668108 -7.07318 0 
0 0 0 
-10.0644 -0.354946 0 
-0.354946 -10.1417 0 
0 0 0 
-10.2228 -0.0672736 0 
-0.0672736 -9.98336 0 
0 0 0 
-9.87082 -0.0463107 0 
-0.0463107 -10.3353 0 
0 0 0 
-4.97345 0.189676 0 
0.189676 -4.36812 0 
0 0 0 
-4.93481 0.288075 0 
0.288075 -4.40675 0 
0 0 0 
-4.92507 0.317193 0 
0.317193 -4.4165 0 
0 0 0 
-3.91729 0.492986 0 
0.492986 -4.80359 0 
0 0 0 
-4.1703 0.0469734 0 
0.0469734 -4.55058 0 
0 0 0 
-4.3408 0.468722 0 
0.468722 -4.38009 0 
0 0 0 
-7.34013 0.352141 0 
0.352141 -6.84396 0 
0 0 0 
-7.78233 0.234543 0 
0.234543 -6.40176 0 
0 0 0 
-7.543 0.0606161 0 
0.0606161 -6.64109 0 
0 0 0 
-6.98225 0.026382 0 
0.026382 -7.11899 0 
0 0 0 
-7.03572 0.0418292 0 
0.0418292 -7.06552 0 
0 0 0 
-6.95345 0.0853762 0 
0.0853762 -7.14779 0 
0 0 0 
-9.65399 -0.074312 0 
-0.074312 -9.56934 0 
0 0 0 
-9.62516 -0.161339 0 
-0.161339 -9.59818 0 
0 0 0 
-9.74883 -0.103266 0 
-0.103266 -9.4745 0 
0 0 0 
-4.39159 0.140537 0 
0.140537 -6.34573 0 
0 0 0 
-5.24493 -0.519126 0 
-0.519126 -5.49239 0 
0 0 0 
-5.17626 0.423868 0 
0.423868 -5.56106 0 
0 0 0 
-0.0825729 -0.164609 0 
-0.164609 -0.523392 0 
0 0 0 
-0.140602 -0.171645 0 
-0.171645 -0.465363 0 
0 0 0 
-0.256963 -0.125586 0 
-0.125586 -0.349002 0 
0 0 0 
-1.56264 -0.159252 0 
-0.159252 -1.73189 0 
0 0 0 
-1.48848 0.0825723 0 
0.0825723 -1.80605 0 
0 0 0 
-1.55221 0.0776797 0 
0.0776797 -1.74233 0 
0 0 0 
-4.88003 0.561124 0 
0.561124 -4.48006 0 
0 0 0 
-5.25845 0.68269 0 
0.68269 -4.10164 0 
0 0 0 
-5.18259 0.0851195 0 
0.0851195 -4.1775 0 
0 0 0 
-1.51388 -0.180031 0 
-0.180031 -2.3372 0 
0 0 0 
-1.75998 -0.395415 0 
-0.395415 -2.0911 0 
0 0 0 
-1.53412 -0.0428189 0 
-0.0428189 -2.31696 0 
0 0 0 
-0.626059 0.724511 0 
0.724511 -0.0695467 0 
0 0 0 
-0.353545 0.483146 0 
0.483146 -0.34206 0 
0 0 0 
-0.557743 0.225818 0 
0.225818 -0.137863 0 
0 0 0 
-9.96126 -0.105113 0 
-0.105113 -10.3106 0 
0 0 0 
-9.87082 -0.0735379 0 
-0.0735379 -10.401 0 
0 0 0 
-9.82784 -0.229189 0 
-0.229189 -10.444 0 
0 0 0 
-5.05021 -0.11671 0 
-0.11671 -5.5435 0 
0 0 0 
-5.02443 -0.167156 0 
-0.167156 -5.56928 0 
0 0 0 
-4.9696 -0.104946 0 
-0.104946 -5.6241 0 
0 0 0 
-5.31404 -0.13899 0 
-0.13899 -6.0242 0 
0 0 0 
-5.34711 -0.127168 0 
-0.127168 -5.99113 0 
0 0 0 
-5.45659 -0.103257 0 
-0.103257 -5.88164 0 
0 0 0 
-4.55788 -1.01893 0 
-1.01893 -5.11355 0 
0 0 0 
-5.13464 0.144696 0 
0.144696 -4.5368 0 
0 0 0 
-3.94029 -0.17825 0 
-0.17825 -5.73115 0 
0 0 0 
0.207298 0.0679956 0 
0.0679956 -0.502846 0 
0 0 0 
-0.136241 0.0637193 0 
0.0637193 -0.159307 0 
0 0 0 
0.0820345 0.0690304 0 
0.0690304 -0.377583 0 
0 0 0 
-5.02157 0.186414 0 
0.186414 -4.5818 0 
0 0 0 
-5.03165 0.180781 0 
0.180781 -4.57172 0 
0 0 0 
-5.05281 0.181246 0 
0.181246 -4.55055 0 
0 0 0 
-4.55168 -0.121469 0 
-0.121469 -4.53033 0 
0 0 0 
-4.65031 -0.239458 0 
-0.239458 -4.4317 0 
0 0 0 
-4.66476 -0.181271 0 
-0.181271 -4.41724 0 
0 0 0 
-4.62554 -0.133305 0 
-0.133305 -4.20923 0 
0 0 0 
-4.50111 -0.143064 0 
-0.143064 -4.33365 0 
0 0 0 
-4.63598 -0.216867 0 
-0.216867 -4.19878 0 
0 0 0 
-9.44375 -0.181582 0 
-0.181582 -9.18205 0 
0 0 0 
-9.57021 -0.35982 0 
-0.35982 -9.05559 0 
0 0 0 
-9.35062 -0.150101 0 
-0.150101 -9.27518 0 
0 0 0 
-9.99574 -0.130285 0 
-0.130285 -9.77676 0 
0 0 0 
-9.96391 0.0779354 0 
0.0779354 -9.80859 0 
0 0 0 
-9.87475 -0.0624155 0 
-0.0624155 -9.89776 0 
0 0 0 
-5.89848 -0.0377526 0 
-0.0377526 -5.8769 0 
0 0 0 
-5.85477 -0.111326 0 
-0.111326 -5.92061 0 
0 0 0 
-5.82177 -0.0470913 0 
-0.0470913 -5.95361 0 
0 0 0 
-5.33385 0.13107 0 
0.13107 -5.48136 0 
0 0 0 
-5.26406 0.166527 0 
0.166527 -5.55115 0 
0 0 0 
-5.32582 0.217719 0 
0.217719 -5.48939 0 
0 0 0 
-4.0046 0.128151 0 
0.128151 -4.5792 0 
0 0 0 
-4.12093 0.359606 0 
0.359606 -4.46286 0 
0 0 0 
-3.97737 0.22204 0 
0.22204 -4.60643 0 
0 0 0 
-5.972 0.30637 0 
0.30637 -6.33906 0 
0 0 0 
-5.92651 0.27824 0 
0.27824 -6.38455 0 
0 0 0 
-6.10707 0.358717 0 
0.358717 -6.20399 0 
0 0 0 
-4.34693 -0.22347 0 
-0.22347 -4.64032 0 
0 0 0 
-4.4014 -0.300495 0 
-0.300495 -4.58585 0 
0 0 0 
-4.32526 -0.274391 0 
-0.274391 -4.66199 0 
0 0 0 
-6.9989 -0.0857858 0 
-0.0857858 -6.91636 0 
0 0 0 
-7.00359 -0.0695558 0 
-0.0695558 -6.91167 0 
0 0 0 
-7.01606 -0.082533 0 
-0.082533 -6.8992 0 
0 0 0 
-1.42701 0.517115 0 
0.517115 -1.10002 0 
0 0 0 
-1.5661 0.761534 0 
0.761534 -0.960932 0 
0 0 0 
-1.56666 0.33864 0 
0.33864 -0.960368 0 
0 0 0 
-4.44548 -0.253664 0 
-0.253664 -4.37132 0 
0 0 0 
-4.41937 -0.33229 0 
-0.33229 -4.39743 0 
0 0 0 
-4.50629 -0.338234 0 
-0.338234 -4.31051 0 
0 0 0 
-2.18618 0.107171 0 
0.107171 -1.32293 0 
0 0 0 
-1.62774 -0.234472 0 
-0.234472 -1.88137 0 
0 0 0 
-1.5434 0.139433 0 
0.139433 -1.96572 0 
0 0 0 
-5.63761 0.329596 0 
0.329596 -4.95989 0 
0 0 0 
-5.52403 0.371501 0 
0.371501 -5.07347 0 
0 0 0 
-5.57771 0.228247 0 
0.228247 -5.01979 0 
0 0 0 
-0.0981449 0.377041 0 
0.377041 -0.553743 0 
0 0 0 
-0.0162373 0.211189 0 
0.211189 -0.635651 0 
0 0 0 
-0.515097 -0.0426772 0 
-0.0426772 -0.136791 0 
0 0 0 
-6.25263 0.0913654 0 
0.0913654 -4.69482 0 
0 0 0 
-5.33448 -0.180725 0 
-0.180725 -5.61296 0 
0 0 0 
-5.65872 -0.690532 0 
-0.690532 -5.28872 0 
0 0 0 
-9.94764 -0.0229838 0 
-0.0229838 -9.95156 0 
0 0 0 
-9.94918 -0.0382106 0 
-0.0382106 -9.95002 0 
0 0 0 
-9.9445 -0.0198292 0 
-0.0198292 -9.9547 0 
0 0 0 
-4.36073 -0.343609 0 
-0.343609 -4.23944 0 
0 0 0 
-4.38993 -0.207378 0 
-0.207378 -4.21024 0 
0 0 0 
-4.40677 -0.316845 0 
-0.316845 -4.1934 0 
0 0 0 
-3.86359 0.0408707 0 
0.0408707 -1.49637 0 
0 0 0 
-2.74604 0.42463 0 
0.42463 -2.61392 0 
0 0 0 
-3.04158 -1.0922 0 
-1.0922 -2.31838 0 
0 0 0 
-6.20691 0.219084 0 
0.219084 -6.25257 0 
0 0 0 
-6.15492 0.159992 0 
0.159992 -6.30455 0 
0 0 0 
-6.1622 0.125553 0 
0.125553 -6.29728 0 
0 0 0 
-0.73497 0.351663 0 
0.351663 -1.21332 0 
0 0 0 
-0.734597 0.462561 0 
0.462561 -1.2137 0 
0 0 0 
-1.05374 0.373362 0 
0.373362 -0.894558 0 
0 0 0 
-6.99677 -0.0647769 0 
-0.0647769 -6.87838 0 
0 0 0 
-6.97613 -0.0919082 0 
-0.0919082 -6.89903 0 
0 0 0 
-6.99044 -0.0872948 0 
-0.0872948 -6.88471 0 
0 0 0 
-6.4427 -0.0770399 0 
-0.0770399 -6.6541 0 
0 0 0 
-6.25169 -0.290316 0 
-0.290316 -6.84511 0 
0 0 0 
-6.23443 -0.146602 0 
-0.146602 -6.86237 0 
0 0 0 
-6.01908 0.319654 0 
0.319654 -6.45191 0 
0 0 0 
-6.04574 0.263478 0 
0.263478 -6.42525 0 
0 0 0 
-6.06427 0.323635 0 
0.323635 -6.40672 0 
0 0 0 
-5.40112 0.265466 0 
0.265466 -5.729 0 
0 0 0 
-5.44777 0.251838 0 
0.251838 -5.68235 0 
0 0 0 
-5.42249 0.196688 0 
0.196688 -5.70762 0 
0 0 0 
-4.14948 -0.0577549 0 
-0.0577549 -4.66065 0 
0 0 0 
-4.08419 0.227833 0 
0.227833 -4.72594 0 
0 0 0 
-4.10567 0.0368816 0 
0.0368816 -4.70446 0 
0 0 0 
-4.19786 0.24649 0 
0.24649 -4.52661 0 
0 0 0 
-4.02886 -0.107655 0 
-0.107655 -4.6956 0 
0 0 0 
-4.36967 0.109298 0 
0.109298 -4.35479 0 
0 0 0 
-6.30148 -0.896528 0 
-0.896528 -6.58589 0 
0 0 0 
-6.50292 -0.148562 0 
-0.148562 -6.38445 0 
0 0 0 
-5.73699 -0.114462 0 
-0.114462 -7.15038 0 
0 0 0 
-7.09444 0.273432 0 
0.273432 -7.30762 0 
0 0 0 
-7.07488 0.323806 0 
0.323806 -7.32719 0 
0 0 0 
-7.21005 0.335705 0 
0.335705 -7.19202 0 
0 0 0 
-5.42048 0.127254 0 
0.127254 -5.29189 0 
0 0 0 
-5.88795 0.0678484 0 
0.0678484 -4.82442 0 
0 0 0 
-5.83993 0.133203 0 
0.133203 -4.87244 0 
0 0 0 
-8.43295 -0.927756 0 
-0.927756 -9.74026 0 
0 0 0 
-9.11119 0.311432 0 
0.311432 -9.06201 0 
0 0 0 
-8.08817 0.525467 0 
0.525467 -10.085 0 
0 0 0 
-0.00289829 -0.146253 0 
-0.146253 0.436627 0 
0 0 0 
0.0182447 -0.0337277 0 
-0.0337277 0.415484 0 
0 0 0 
0.0372152 -0.063035 0 
-0.063035 0.396514 0 
0 0 0 
-6.41951 0.0802132 0 
0.0802132 -6.37893 0 
0 0 0 
-6.44514 0.0610272 0 
0.0610272 -6.3533 0 
0 0 0 
-6.37572 -0.0113335 0 
-0.0113335 -6.42272 0 
0 0 0 
-6.92726 -0.200617 0 
-0.200617 -7.0189 0 
0 0 0 
-7.13071 0.301832 0 
0.301832 -6.81546 0 
0 0 0 
-6.74371 -0.0546508 0 
-0.0546508 -7.20246 0 
0 0 0 
-6.21625 -0.0982562 0 
-0.0982562 -6.01545 0 
0 0 0 
-6.07367 -0.24635 0 
-0.24635 -6.15803 0 
0 0 0 
-6.14244 -0.102007 0 
-0.102007 -6.08926 0 
0 0 0 
-7.07839 0.258825 0 
0.258825 -6.39957 0 
0 0 0 
-7.07394 -0.00127007 0 
-0.00127007 -6.40403 0 
0 0 0 
-7.2512 0.21282 0 
0.21282 -6.22677 0 
0 0 0 
-6.1465 0.583937 0 
0.583937 -4.87099 0 
0 0 0 
-5.47255 0.191736 0 
0.191736 -5.54494 0 
0 0 0 
-5.94609 -0.256246 0 
-0.256246 -5.07141 0 
0 0 0 
-6.90838 -0.114899 0 
-0.114899 -6.85212 0 
0 0 0 
-6.88153 -0.0548174 0 
-0.0548174 -6.87897 0 
0 0 0 
-6.88645 -0.111583 0 
-0.111583 -6.87405 0 
0 0 0 
-8.33186 0.988376 0 
0.988376 -8.79293 0 
0 0 0 
-8.51753 0.0140512 0 
0.0140512 -8.60726 0 
0 0 0 
-9.32416 1.01084 0 
1.01084 -7.80063 0 
0 0 0 
-5.09897 0.111477 0 
0.111477 -4.42344 0 
0 0 0 
-4.95337 0.115873 0 
0.115873 -4.56904 0 
0 0 0 
-5.06549 0.184979 0 
0.184979 -4.45692 0 
0 0 0 
-4.9352 -0.0632464 0 
-0.0632464 -5.07486 0 
0 0 0 
-4.85906 -0.0338333 0 
-0.0338333 -5.151 0 
0 0 0 
-5.15567 0.04938 0 
0.04938 -4.85438 0 
0 0 0 
-4.34872 0.193602 0 
0.193602 -4.7578 0 
0 0 0 
-4.32793 0.227635 0 
0.227635 -4.7786 0 
0 0 0 
-4.34744 0.0698133 0 
0.0698133 -4.75908 0 
0 0 0 
-9.79388 0.123068 0 
0.123068 -9.76826 0 
0 0 0 
-9.87628 0.0774348 0 
0.0774348 -9.68586 0 
0 0 0 
-9.84742 0.0807146 0 
0.0807146 -9.71473 0 
0 0 0 
-7.33737 0.105428 0 
0.105428 -6.90508 0 
0 0 0 
-7.17406 0.0831364 0 
0.0831364 -7.06839 0 
0 0 0 
-7.33143 -0.0530997 0 
-0.0530997 -6.91102 0 
0 0 0 
-7.76574 -0.160511 0 
-0.160511 -8.01398 0 
0 0 0 
-7.96525 0.194052 0 
0.194052 -7.81447 0 
0 0 0 
-7.71273 -0.197325 0 
-0.197325 -8.06698 0 
0 0 0 
-9.75463 -0.080043 0 
-0.080043 -9.77763 0 
0 0 0 
-9.81985 -0.0351501 0 
-0.0351501 -9.71241 0 
0 0 0 
-9.85285 -0.00478968 0 
-0.00478968 -9.67941 0 
0 0 0 
-0.0997749 -0.0116589 0 
-0.0116589 -0.666154 0 
0 0 0 
-0.277388 -0.0145483 0 
-0.0145483 -0.488542 0 
0 0 0 
-0.200294 0.0392024 0 
0.0392024 -0.565635 0 
0 0 0 
0.0272671 -0.0881772 0 
-0.0881772 -0.0104124 0 
0 0 0 
0.0266752 -0.105411 0 
-0.105411 -0.00982044 0 
0 0 0 
0.0155899 -0.077288 0 
-0.077288 0.00126485 0 
0 0 0 
-8.29298 -0.0453932 0 
-0.0453932 -7.94783 0 
0 0 0 
-8.0654 0.0681986 0 
0.0681986 -8.17541 0 
0 0 0 
-8.16236 0.289548 0 
0.289548 -8.07845 0 
0 0 0 
-0.00872115 -0.116756 0 
-0.116756 -0.0168366 0 
0 0 0 
0.000446785 -0.0859661 0 
-0.0859661 -0.0260045 0 
0 0 0 
0.0051277 -0.114428 0 
-0.114428 -0.0306854 0 
0 0 0 
-9.58253 -0.440544 0 
-0.440544 -9.34658 0 
0 0 0 
-9.51063 -0.347802 0 
-0.347802 -9.41848 0 
0 0 0 
-9.45381 -0.437049 0 
-0.437049 -9.4753 0 
0 0 0 
-0.326958 0.685788 0 
0.685788 -0.174409 0 
0 0 0 
-0.711486 0.638641 0 
0.638641 0.21012 0 
0 0 0 
-0.560036 0.411321 0 
0.411321 0.0586693 0 
0 0 0 
-9.28445 -0.145294 0 
-0.145294 -9.33451 0 
0 0 0 
-9.55923 -0.130273 0 
-0.130273 -9.05972 0 
0 0 0 
-9.45996 0.036743 0 
0.036743 -9.159 0 
0 0 0 
-7.57715 -0.292621 0 
-0.292621 -8.09027 0 
0 0 0 
-7.6023 0.261282 0 
0.261282 -8.06512 0 
0 0 0 
-7.37161 0.0462441 0 
0.0462441 -8.29581 0 
0 0 0 
-6.9819 0.109341 0 
0.109341 -6.90451 0 
0 0 0 
-7.00049 0.441798 0 
0.441798 -6.88592 0 
0 0 0 
-6.84878 0.362213 0 
0.362213 -7.03762 0 
0 0 0 
-7.06032 0.325262 0 
0.325262 -6.72032 0 
0 0 0 
-7.05269 0.281314 0 
0.281314 -6.72795 0 
0 0 0 
-6.96297 0.279535 0 
0.279535 -6.81766 0 
0 0 0 
-7.99232 0.356812 0 
0.356812 -7.66694 0 
0 0 0 
-7.97927 0.453415 0 
0.453415 -7.67999 0 
0 0 0 
-7.89177 0.124315 0 
0.124315 -7.76749 0 
0 0 0 
-0.106539 -0.223898 0 
-0.223898 -0.0938288 0 
0 0 0 
-0.262642 0.0441229 0 
0.0441229 0.0622749 0 
0 0 0 
-0.108424 -0.0143329 0 
-0.0143329 -0.0919438 0 
0 0 0 
-8.53644 0.345995 0 
0.345995 -11.0571 0 
0 0 0 
-9.53966 -0.457865 0 
-0.457865 -10.0539 0 
0 0 0 
-9.47635 0.715285 0 
0.715285 -10.1172 0 
0 0 0 
-1.9156 -0.406035 0 
-0.406035 -2.41562 0 
0 0 0 
-1.95722 0.130905 0 
0.130905 -2.374 0 
0 0 0 
-1.76498 -0.156355 0 
-0.156355 -2.56624 0 
0 0 0 
-0.707805 0.442454 0 
0.442454 -0.745047 0 
0 0 0 
-0.549223 0.703211 0 
0.703211 -0.903629 0 
0 0 0 
-0.565217 0.25619 0 
0.25619 -0.887635 0 
0 0 0 
-4.473 -0.877833 0 
-0.877833 -4.69391 0 
0 0 0 
-4.29809 -0.0115361 0 
-0.0115361 -4.86882 0 
0 0 0 
-4.42893 -0.796707 0 
-0.796707 -4.73798 0 
0 0 0 
-0.664412 -0.557056 0 
-0.557056 -1.99833 0 
0 0 0 
-1.65914 0.171397 0 
0.171397 -1.0036 0 
0 0 0 
-0.421016 0.315291 0 
0.315291 -2.24172 0 
0 0 0 
-4.36108 -0.262078 0 
-0.262078 -3.48645 0 
0 0 0 
-4.22139 -0.336858 0 
-0.336858 -3.62615 0 
0 0 0 
-4.23395 -0.161178 0 
-0.161178 -3.61358 0 
0 0 0 
-8.08899 -0.179788 0 
-0.179788 -8.69087 0 
0 0 0 
-8.19096 -0.141671 0 
-0.141671 -8.58891 0 
0 0 0 
-7.94974 0.0524242 0 
0.0524242 -8.83012 0 
0 0 0 
-7.69194 0.16741 0 
0.16741 -7.67453 0 
0 0 0 
-7.88277 -0.119253 0 
-0.119253 -7.4837 0 
0 0 0 
-7.71875 -0.0243658 0 
-0.0243658 -7.64772 0 
0 0 0 
-5.5605 0.263276 0 
0.263276 -5.2481 0 
0 0 0 
-5.50248 0.171321 0 
0.171321 -5.30612 0 
0 0 0 
-5.56561 0.19311 0 
0.19311 -5.24299 0 
0 0 0 
-3.26056 1.86094 0 
1.86094 -4.20483 0 
0 0 0 
-4.04102 -0.271661 0 
-0.271661 -3.42436 0 
0 0 0 
-5.06644 1.88682 0 
1.88682 -2.39895 0 
0 0 0 
-6.86792 0.360181 0 
0.360181 -7.1107 0 
0 0 0 
-6.61512 0.0273189 0 
0.0273189 -7.3635 0 
0 0 0 
-7.14676 0.00257784 0 
0.00257784 -6.83186 0 
0 0 0 
-0.141985 0.122979 0 
0.122979 -0.209655 0 
0 0 0 
-0.39141 -0.0192447 0 
-0.0192447 0.0397702 0 
0 0 0 
-0.149157 0.126133 0 
0.126133 -0.202483 0 
0 0 0 
-6.30184 -0.234113 0 
-0.234113 -7.09973 0 
0 0 0 
-6.6548 -0.141027 0 
-0.141027 -6.74678 0 
0 0 0 
-6.43445 0.0777754 0 
0.0777754 -6.96712 0 
0 0 0 
-7.0962 -0.0626203 0 
-0.0626203 -6.89505 0 
0 0 0 
-7.10185 -0.031231 0 
-0.031231 -6.8894 0 
0 0 0 
-7.09278 -0.0866355 0 
-0.0866355 -6.89847 0 
0 0 0 
-9.06904 -0.0154308 0 
-0.0154308 -8.15319 0 
0 0 0 
-9.33984 -0.0697196 0 
-0.0697196 -7.8824 0 
0 0 0 
-8.53209 0.116111 0 
0.116111 -8.69015 0 
0 0 0 
-6.9269 -0.0896325 0 
-0.0896325 -6.79431 0 
0 0 0 
-6.9051 -0.0699177 0 
-0.0699177 -6.8161 0 
0 0 0 
-6.92128 -0.105247 0 
-0.105247 -6.79993 0 
0 0 0 
-6.87817 -0.0588804 0 
-0.0588804 -7.02239 0 
0 0 0 
-6.96381 -0.0798683 0 
-0.0798683 -6.93676 0 
0 0 0 
-6.93803 -0.00794443 0 
-0.00794443 -6.96254 0 
0 0 0 
-9.32376 -0.0144941 0 
-0.0144941 -9.57463 0 
0 0 0 
-9.50696 -0.107688 0 
-0.107688 -9.39142 0 
0 0 0 
-9.62304 0.0345158 0 
0.0345158 -9.27535 0 
0 0 0 
-9.83406 -0.249425 0 
-0.249425 -9.56945 0 
0 0 0 
-9.65647 -0.297204 0 
-0.297204 -9.74704 0 
0 0 0 
-9.78516 -0.319285 0 
-0.319285 -9.61835 0 
0 0 0 
-7.1549 0.223479 0 
0.223479 -7.66864 0 
0 0 0 
-7.12531 0.280837 0 
0.280837 -7.69823 0 
0 0 0 
-7.10308 0.204387 0 
0.204387 -7.72046 0 
0 0 0 
-9.43723 -0.101279 0 
-0.101279 -10.2284 0 
0 0 0 
-9.67578 -0.369087 0 
-0.369087 -9.98985 0 
0 0 0 
-9.75597 -0.0526112 0 
-0.0526112 -9.90965 0 
0 0 0 
0.0169641 -0.195455 0 
-0.195455 0.0910671 0 
0 0 0 
-0.107256 -0.288222 0 
-0.288222 0.215287 0 
0 0 0 
0.0707935 -0.0791029 0 
-0.0791029 0.0372377 0 
0 0 0 
-5.47424 0.121258 0 
0.121258 -4.89785 0 
0 0 0 
-5.46508 0.169366 0 
0.169366 -4.90701 0 
0 0 0 
-5.48468 0.151775 0 
0.151775 -4.8874 0 
0 0 0 
-9.75349 0.0678091 0 
0.0678091 -10.1852 0 
0 0 0 
-9.85099 0.186928 0 
0.186928 -10.0877 0 
0 0 0 
-9.71059 0.265674 0 
0.265674 -10.2281 0 
0 0 0 
-10.1321 0.0354155 0 
0.0354155 -9.65074 0 
0 0 0 
-10.0221 0.10299 0 
0.10299 -9.76074 0 
0 0 0 
-10.1955 0.0335679 0 
0.0335679 -9.58732 0 
0 0 0 
-5.11143 -0.00974467 0 
-0.00974467 -6.21983 0 
0 0 0 
-5.49911 -0.287574 0 
-0.287574 -5.83215 0 
0 0 0 
-5.41921 0.0610141 0 
0.0610141 -5.91205 0 
0 0 0 
-9.4427 -0.0617988 0 
-0.0617988 -10.6104 0 
0 0 0 
-9.43485 0.0294551 0 
0.0294551 -10.6182 0 
0 0 0 
-9.72767 0.0747374 0 
0.0747374 -10.3254 0 
0 0 0 
-5.51037 0.126735 0 
0.126735 -5.8392 0 
0 0 0 
-5.57149 0.129227 0 
0.129227 -5.77809 0 
0 0 0 
-5.48887 0.0757729 0 
0.0757729 -5.8607 0 
0 0 0 
-0.0560282 -0.192156 0 
-0.192156 0.19712 0 
0 0 0 
-0.0965675 -0.136103 0 
-0.136103 0.237659 0 
0 0 0 
-0.0990714 -0.215414 0 
-0.215414 0.240163 0 
0 0 0 
-7.04976 0.0621828 0 
0.0621828 -6.38531 0 
0 0 0 
-6.95636 -0.0898465 0 
-0.0898465 -6.47871 0 
0 0 0 
-7.09424 -0.0432001 0 
-0.0432001 -6.34083 0 
0 0 0 
-0.278061 0.213233 0 
0.213233 -0.152326 0 
0 0 0 
-0.454243 0.199909 0 
0.199909 0.023856 0 
0 0 0 
-0.328748 -0.0295263 0 
-0.0295263 -0.101639 0 
0 0 0 
-4.27782 0.251433 0 
0.251433 -4.30096 0 
0 0 0 
-4.23286 0.210697 0 
0.210697 -4.34591 0 
0 0 0 
-4.30137 0.158558 0 
0.158558 -4.2774 0 
0 0 0 
-4.93209 -0.276138 0 
-0.276138 -5.39924 0 
0 0 0 
-5.12529 -0.477788 0 
-0.477788 -5.20604 0 
0 0 0 
-5.11111 -0.268987 0 
-0.268987 -5.22022 0 
0 0 0 
-1.90994 -0.516014 0 
-0.516014 -3.64617 0 
0 0 0 
-3.0659 0.369475 0 
0.369475 -2.49021 0 
0 0 0 
-1.72035 0.604197 0 
0.604197 -3.83576 0 
0 0 0 
-6.99935 0.168797 0 
0.168797 -7.07657 0 
0 0 0 
-6.98353 0.212868 0 
0.212868 -7.09239 0 
0 0 0 
-6.92326 0.235657 0 
0.235657 -7.15266 0 
0 0 0 
-6.49417 0.0489572 0 
0.0489572 -7.0462 0 
0 0 0 
-6.91474 0.353558 0 
0.353558 -6.62562 0 
0 0 0 
-6.33962 0.531585 0 
0.531585 -7.20075 0 
0 0 0 
-9.90722 -0.0777287 0 
-0.0777287 -9.98298 0 
0 0 0 
-9.87717 -0.116516 0 
-0.116516 -10.013 0 
0 0 0 
-9.92865 -0.232545 0 
-0.232545 -9.96156 0 
0 0 0 
-7.53523 -0.106262 0 
-0.106262 -8.81821 0 
0 0 0 
-7.75087 -0.171969 0 
-0.171969 -8.60257 0 
0 0 0 
-7.46644 0.0513028 0 
0.0513028 -8.887 0 
0 0 0 
-7.77571 -0.0764143 0 
-0.0764143 -8.83723 0 
0 0 0 
-7.84776 0.0131527 0 
0.0131527 -8.76518 0 
0 0 0 
-7.88417 -0.082189 0 
-0.082189 -8.72876 0 
0 0 0 
-6.03102 0.26164 0 
0.26164 -6.27621 0 
0 0 0 
-6.096 0.279074 0 
0.279074 -6.21123 0 
0 0 0 
-6.09139 0.19919 0 
0.19919 -6.21584 0 
0 0 0 
-9.70977 0.0626746 0 
0.0626746 -9.77235 0 
0 0 0 
-9.72726 0.121357 0 
0.121357 -9.75486 0 
0 0 0 
-9.76634 0.0769944 0 
0.0769944 -9.71579 0 
0 0 0 
-7.09945 -0.12278 0 
-0.12278 -6.72088 0 
0 0 0 
-7.17999 0.0360016 0 
0.0360016 -6.64034 0 
0 0 0 
-7.02263 -0.0559129 0 
-0.0559129 -6.7977 0 
0 0 0 
-0.0051676 0.349738 0 
0.349738 -0.302039 0 
0 0 0 
0.0751589 0.18184 0 
0.18184 -0.382366 0 
0 0 0 
-0.0589465 0.100527 0 
0.100527 -0.24826 0 
0 0 0 
0.0865871 -0.0344637 0 
-0.0344637 -0.238933 0 
0 0 0 
0.0232274 -0.0315392 0 
-0.0315392 -0.175573 0 
0 0 0 
0.133475 0.00870072 0 
0.00870072 -0.285821 0 
0 0 0 
-0.802517 -0.210864 0 
-0.210864 0.0634771 0 
0 0 0 
-0.0506708 0.00423427 0 
0.00423427 -0.688369 0 
0 0 0 
-0.426385 -0.628963 0 
-0.628963 -0.312655 0 
0 0 0 
0.036076 -0.0780991 0 
-0.0780991 0.19952 0 
0 0 0 
0.090145 -0.0838874 0 
-0.0838874 0.145451 0 
0 0 0 
0.0807416 -0.174206 0 
-0.174206 0.154854 0 
0 0 0 
-5.5524 0.799747 0 
0.799747 -7.44514 0 
0 0 0 
-6.48235 -0.0175661 0 
-0.0175661 -6.5152 0 
0 0 0 
-7.5228 0.768725 0 
0.768725 -5.47475 0 
0 0 0 
-1.41472 0.0335331 0 
0.0335331 -0.911206 0 
0 0 0 
-1.36539 0.37648 0 
0.37648 -0.960537 0 
0 0 0 
-1.3604 0.0524287 0 
0.0524287 -0.965523 0 
0 0 0 
-4.87659 0.900585 0 
0.900585 -5.08639 0 
0 0 0 
-5.50574 -0.696245 0 
-0.696245 -4.45724 0 
0 0 0 
-6.12747 0.931652 0 
0.931652 -3.83551 0 
0 0 0 
-9.8231 -0.197254 0 
-0.197254 -10.3283 0 
0 0 0 
-10.2775 0.224385 0 
0.224385 -9.87389 0 
0 0 0 
-9.6263 0.470533 0 
0.470533 -10.5251 0 
0 0 0 
-6.80637 -0.0591175 0 
-0.0591175 -6.53346 0 
0 0 0 
-6.7594 -0.00202704 0 
-0.00202704 -6.58043 0 
0 0 0 
-6.78114 -0.0501928 0 
-0.0501928 -6.55869 0 
0 0 0 
-0.0810609 0.151078 0 
0.151078 0.244402 0 
0 0 0 
0.14693 0.103249 0 
0.103249 0.0164108 0 
0 0 0 
-0.00274101 -0.113596 0 
-0.113596 0.166082 0 
0 0 0 
-8.61522 -0.206526 0 
-0.206526 -9.68889 0 
0 0 0 
-8.7505 -0.107736 0 
-0.107736 -9.5536 0 
0 0 0 
-8.81924 -0.405027 0 
-0.405027 -9.48487 0 
0 0 0 
-6.53765 -0.18533 0 
-0.18533 -6.61514 0 
0 0 0 
-6.46901 -0.266368 0 
-0.266368 -6.68378 0 
0 0 0 
-6.6692 -0.367209 0 
-0.367209 -6.4836 0 
0 0 0 
-1.7918 0.81076 0 
0.81076 -2.97733 0 
0 0 0 
-1.96999 -0.147334 0 
-0.147334 -2.79914 0 
0 0 0 
-2.60992 0.755022 0 
0.755022 -2.15921 0 
0 0 0 
-9.53059 -0.0723965 0 
-0.0723965 -10.1636 0 
0 0 0 
-9.76335 -0.0855491 0 
-0.0855491 -9.93082 0 
0 0 0 
-9.69656 0.164728 0 
0.164728 -9.99761 0 
0 0 0 
-9.88667 -0.0363077 0 
-0.0363077 -9.99904 0 
0 0 0 
-9.88518 -0.11306 0 
-0.11306 -10.0005 0 
0 0 0 
-9.91697 -0.0544246 0 
-0.0544246 -9.96874 0 
0 0 0 
-4.12665 0.140001 0 
0.140001 -4.3679 0 
0 0 0 
-4.05336 0.181185 0 
0.181185 -4.44119 0 
0 0 0 
-4.21317 0.27857 0 
0.27857 -4.28137 0 
0 0 0 
-7.10962 -0.0554099 0 
-0.0554099 -6.68117 0 
0 0 0 
-7.01154 -0.0358593 0 
-0.0358593 -6.77924 0 
0 0 0 
-7.09496 -0.151358 0 
-0.151358 -6.69583 0 
0 0 0 
-4.18315 0.0751532 0 
0.0751532 -4.56263 0 
0 0 0 
-4.25057 0.0867369 0 
0.0867369 -4.49521 0 
0 0 0 
-4.29381 0.11427 0 
0.11427 -4.45197 0 
0 0 0 
-7.08853 -0.142481 0 
-0.142481 -6.72379 0 
0 0 0 
-7.22201 -0.0892294 0 
-0.0892294 -6.59031 0 
0 0 0 
-7.15613 -0.0390801 0 
-0.0390801 -6.6562 0 
0 0 0 
-9.23654 0.449698 0 
0.449698 -6.30442 0 
0 0 0 
-7.76266 0.217958 0 
0.217958 -7.7783 0 
0 0 0 
-8.95781 -0.566847 0 
-0.566847 -6.58315 0 
0 0 0 
0.154716 0.0433359 0 
0.0433359 0.120057 0 
0 0 0 
0.0873655 -0.0238904 0 
-0.0238904 0.187407 0 
0 0 0 
0.00761804 0.0183278 0 
0.0183278 0.267155 0 
0 0 0 
-6.19041 -0.112767 0 
-0.112767 -6.28913 0 
0 0 0 
-6.32255 -0.212409 0 
-0.212409 -6.15699 0 
0 0 0 
-6.14246 -0.0921406 0 
-0.0921406 -6.33708 0 
0 0 0 
-2.55774 1.02441 0 
1.02441 0.410337 0 
0 0 0 
-0.466475 0.742552 0 
0.742552 -1.68093 0 
0 0 0 
-2.25874 -0.475866 0 
-0.475866 0.111341 0 
0 0 0 
-5.55063 0.198793 0 
0.198793 -5.42417 0 
0 0 0 
-5.50391 0.20641 0 
0.20641 -5.47089 0 
0 0 0 
-5.55086 0.152078 0 
0.152078 -5.42394 0 
0 0 0 
-7.16535 -0.192837 0 
-0.192837 -6.8474 0 
0 0 0 
-7.02578 -0.0393459 0 
-0.0393459 -6.98697 0 
0 0 0 
-7.03677 -0.220802 0 
-0.220802 -6.97599 0 
0 0 0 
-4.18216 0.35865 0 
0.35865 -4.54456 0 
0 0 0 
-4.16364 0.347068 0 
0.347068 -4.56308 0 
0 0 0 
-4.15413 0.366168 0 
0.366168 -4.57259 0 
0 0 0 
-3.0009 -1.17133 0 
-1.17133 -3.00884 0 
0 0 0 
-3.35877 0.198528 0 
0.198528 -2.65097 0 
0 0 0 
-2.27836 -0.298754 0 
-0.298754 -3.73137 0 
0 0 0 
-5.07704 -0.810398 0 
-0.810398 -5.12069 0 
0 0 0 
-5.13484 -0.118812 0 
-0.118812 -5.06289 0 
0 0 0 
-4.52663 -0.089069 0 
-0.089069 -5.67111 0 
0 0 0 
-6.41345 -0.176162 0 
-0.176162 -4.72439 0 
0 0 0 
-5.37877 0.0623084 0 
0.0623084 -5.75907 0 
0 0 0 
-5.87421 -0.873029 0 
-0.873029 -5.26363 0 
0 0 0 
-8.00922 0.557824 0 
0.557824 -10.2381 0 
0 0 0 
-8.81872 -0.127119 0 
-0.127119 -9.42857 0 
0 0 0 
-8.73529 0.816511 0 
0.816511 -9.512 0 
0 0 0 
-10.0351 0.0195645 0 
0.0195645 -10.1725 0 
0 0 0 
-10.129 -0.0260098 0 
-0.0260098 -10.0786 0 
0 0 0 
-10.1146 0.0240048 0 
0.0240048 -10.093 0 
0 0 0 
-9.46711 0.00666956 0 
0.00666956 -9.66133 0 
0 0 0 
-9.49184 -0.00170914 0 
-0.00170914 -9.63661 0 
0 0 0 
-9.43195 0.0989555 0 
0.0989555 -9.69649 0 
0 0 0 
-5.84301 0.144552 0 
0.144552 -5.93976 0 
0 0 0 
-5.60209 0.0269075 0 
0.0269075 -6.18068 0 
0 0 0 
-5.87985 0.162064 0 
0.162064 -5.90292 0 
0 0 0 
-5.67478 0.0271261 0 
0.0271261 -6.12764 0 
0 0 0 
-5.88129 0.0242432 0 
0.0242432 -5.92112 0 
0 0 0 
-5.92241 0.0201628 0 
0.0201628 -5.88001 0 
0 0 0 
-6.98294 -0.0729493 0 
-0.0729493 -6.81321 0 
0 0 0 
-6.95358 -0.0777884 0 
-0.0777884 -6.84257 0 
0 0 0 
-6.98098 -0.100459 0 
-0.100459 -6.81516 0 
0 0 0 
0.00369328 -0.0486472 0 
-0.0486472 0.103643 0 
0 0 0 
-0.221306 0.0294667 0 
0.0294667 0.328643 0 
0 0 0 
0.000596997 0.116571 0 
0.116571 0.106739 0 
0 0 0 
-9.45664 0.00950832 0 
0.00950832 -9.84704 0 
0 0 0 
-9.29008 0.358328 0 
0.358328 -10.0136 0 
0 0 0 
-9.4726 0.384115 0 
0.384115 -9.83108 0 
0 0 0 
-0.117942 -0.156366 0 
-0.156366 -0.388506 0 
0 0 0 
-0.193294 -0.14135 0 
-0.14135 -0.313154 0 
0 0 0 
-0.168646 -0.136312 0 
-0.136312 -0.337802 0 
0 0 0 
-9.57825 0.0254124 0 
0.0254124 -10.1324 0 
0 0 0 
-9.65335 0.0232364 0 
0.0232364 -10.0573 0 
0 0 0 
-9.49185 0.131603 0 
0.131603 -10.2188 0 
0 0 0 
-5.38231 0.0677252 0 
0.0677252 -5.40463 0 
0 0 0 
-5.75358 0.198943 0 
0.198943 -5.03336 0 
0 0 0 
-5.28761 0.306643 0 
0.306643 -5.49932 0 
0 0 0 
0.0886548 0.188897 0 
0.188897 0.14109 0 
0 0 0 
-0.00271565 -0.0891154 0 
-0.0891154 0.23246 0 
0 0 0 
-0.207403 0.0982512 0 
0.0982512 0.437148 0 
0 0 0 
-6.90257 0.123341 0 
0.123341 -6.77809 0 
0 0 0 
-6.65375 -0.0422048 0 
-0.0422048 -7.02691 0 
0 0 0 
-6.92537 0.0651921 0 
0.0651921 -6.75529 0 
0 0 0 
-5.21961 -0.0821778 0 
-0.0821778 -5.61223 0 
0 0 0 
-5.23927 -0.120329 0 
-0.120329 -5.59257 0 
0 0 0 
-5.1634 -0.0270429 0 
-0.0270429 -5.66845 0 
0 0 0 
-0.149231 0.248542 0 
0.248542 0.55257 0 
0 0 0 
0.200808 0.213384 0 
0.213384 0.202532 0 
0 0 0 
-0.000902879 -0.113551 0 
-0.113551 0.404242 0 
0 0 0 
-9.85967 -0.0386045 0 
-0.0386045 -9.93648 0 
0 0 0 
-9.87795 -0.0150889 0 
-0.0150889 -9.91819 0 
0 0 0 
-9.8623 -0.0357971 0 
-0.0357971 -9.93384 0 
0 0 0 
-5.00758 -0.405506 0 
-0.405506 -5.30836 0 
0 0 0 
-4.97254 -0.391392 0 
-0.391392 -5.3434 0 
0 0 0 
-4.9925 -0.4083 0 
-0.4083 -5.32344 0 
0 0 0 
0.0165086 0.0842743 0 
0.0842743 -0.351809 0 
0 0 0 
0.0314513 0.125839 0 
0.125839 -0.366752 0 
0 0 0 
0.0453581 0.127246 0 
0.127246 -0.380659 0 
0 0 0 
-0.250921 0.586003 0 
0.586003 -0.264709 0 
0 0 0 
-0.265587 0.111403 0 
0.111403 -0.250044 0 
0 0 0 
-0.527569 0.341978 0 
0.341978 0.0119389 0 
0 0 0 
-7.4578 0.224946 0 
0.224946 -7.60629 0 
0 0 0 
-7.39352 0.364015 0 
0.364015 -7.67058 0 
0 0 0 
-7.36343 0.122952 0 
0.122952 -7.70067 0 
0 0 0 
-4.50373 0.0202346 0 
0.0202346 -4.8776 0 
0 0 0 
-4.69547 -0.193189 0 
-0.193189 -4.68586 0 
0 0 0 
-4.61946 0.00211264 0 
0.00211264 -4.76188 0 
0 0 0 
-5.51135 0.418434 0 
0.418434 -5.0236 0 
0 0 0 
-5.44083 0.369742 0 
0.369742 -5.09412 0 
0 0 0 
-5.50656 0.310144 0 
0.310144 -5.02839 0 
0 0 0 
-5.41442 0.135199 0 
0.135199 -5.41273 0 
0 0 0 
-5.43769 0.12762 0 
0.12762 -5.38946 0 
0 0 0 
-5.42321 0.0842401 0 
0.0842401 -5.40394 0 
0 0 0 
-7.53558 -0.0266803 0 
-0.0266803 -7.89858 0 
0 0 0 
-7.52564 -0.199556 0 
-0.199556 -7.90852 0 
0 0 0 
-7.36564 -0.0466727 0 
-0.0466727 -8.06852 0 
0 0 0 
-9.40628 0.473811 0 
0.473811 -9.31008 0 
0 0 0 
-9.17661 0.182726 0 
0.182726 -9.53974 0 
0 0 0 
-9.47415 0.286245 0 
0.286245 -9.24221 0 
0 0 0 
-2.20039 -0.692008 0 
-0.692008 -2.65096 0 
0 0 0 
-2.27076 -0.368054 0 
-0.368054 -2.5806 0 
0 0 0 
-2.25963 -0.636036 0 
-0.636036 -2.59173 0 
0 0 0 
-4.53717 -0.0320611 0 
-0.0320611 -4.40675 0 
0 0 0 
-4.37976 -0.138094 0 
-0.138094 -4.56416 0 
0 0 0 
-4.43628 0.00636717 0 
0.00636717 -4.50764 0 
0 0 0 
-8.1269 0.202734 0 
0.202734 -8.68515 0 
0 0 0 
-7.97194 0.410317 0 
0.410317 -8.84011 0 
0 0 0 
-8.25507 -0.283422 0 
-0.283422 -8.55698 0 
0 0 0 
-9.02333 0.449448 0 
0.449448 -9.3502 0 
0 0 0 
-9.01209 0.434528 0 
0.434528 -9.36144 0 
0 0 0 
-9.26952 0.466289 0 
0.466289 -9.10401 0 
0 0 0 
-6.76958 0.131396 0 
0.131396 -6.68881 0 
0 0 0 
-6.74303 -0.00658149 0 
-0.00658149 -6.71536 0 
0 0 0 
-6.88591 -0.00975555 0 
-0.00975555 -6.57248 0 
0 0 0 
-5.21188 -0.301821 0 
-0.301821 -5.2686 0 
0 0 0 
-5.51331 -0.367631 0 
-0.367631 -4.96716 0 
0 0 0 
-5.23079 -0.00424932 0 
-0.00424932 -5.24968 0 
0 0 0 
-6.08569 -0.1462 0 
-0.1462 -6.03502 0 
0 0 0 
-6.15567 -0.264007 0 
-0.264007 -5.96504 0 
0 0 0 
-6.00104 -0.149637 0 
-0.149637 -6.11967 0 
0 0 0 
-4.44814 -0.441335 0 
-0.441335 -5.40622 0 
0 0 0 
-4.34328 -0.578674 0 
-0.578674 -5.51108 0 
0 0 0 
-4.6838 -0.456451 0 
-0.456451 -5.17056 0 
0 0 0 
-5.40557 0.0693626 0 
0.0693626 -5.78726 0 
0 0 0 
-5.26785 0.0450541 0 
0.0450541 -5.92498 0 
0 0 0 
-5.38131 0.185797 0 
0.185797 -5.81152 0 
0 0 0 
-5.99896 0.327087 0 
0.327087 -6.14249 0 
0 0 0 
-6.18443 0.278027 0 
0.278027 -5.95701 0 
0 0 0 
-6.08995 0.255503 0 
0.255503 -6.05149 0 
0 0 0 
-4.67802 0.0227068 0 
0.0227068 -4.67815 0 
0 0 0 
-4.7098 -0.159822 0 
-0.159822 -4.64638 0 
0 0 0 
-4.5655 -0.0429691 0 
-0.0429691 -4.79068 0 
0 0 0 
-9.35386 0.381264 0 
0.381264 -9.24135 0 
0 0 0 
-9.62302 0.381063 0 
0.381063 -8.97219 0 
0 0 0 
-9.42607 0.0308059 0 
0.0308059 -9.16913 0 
0 0 0 
-9.8395 -0.0829534 0 
-0.0829534 -10.0073 0 
0 0 0 
-9.8989 -0.0158469 0 
-0.0158469 -9.94792 0 
0 0 0 
-9.82343 0.0106392 0 
0.0106392 -10.0234 0 
0 0 0 
-10.3399 0.0834342 0 
0.0834342 -9.67381 0 
0 0 0 
-10.1233 0.175163 0 
0.175163 -9.89033 0 
0 0 0 
-10.3577 0.166433 0 
0.166433 -9.65601 0 
0 0 0 
-6.75643 -0.0469733 0 
-0.0469733 -6.46029 0 
0 0 0 
-6.73422 -0.0376152 0 
-0.0376152 -6.4825 0 
0 0 0 
-6.78864 -0.00198874 0 
-0.00198874 -6.42808 0 
0 0 0 
-9.9426 0.199528 0 
0.199528 -9.75867 0 
0 0 0 
-9.77575 0.189542 0 
0.189542 -9.92552 0 
0 0 0 
-9.92014 0.275802 0 
0.275802 -9.78113 0 
0 0 0 
-3.36776 0.0208753 0 
0.0208753 -3.6758 0 
0 0 0 
-3.20987 0.337794 0 
0.337794 -3.83369 0 
0 0 0 
-3.49137 0.361042 0 
0.361042 -3.55219 0 
0 0 0 
-3.76477 0.249396 0 
0.249396 -3.11664 0 
0 0 0 
-3.89625 0.246245 0 
0.246245 -2.98516 0 
0 0 0 
-3.51771 -0.0832409 0 
-0.0832409 -3.3637 0 
0 0 0 
-4.9392 -0.802399 0 
-0.802399 -4.79096 0 
0 0 0 
-5.05061 -0.245783 0 
-0.245783 -4.67955 0 
0 0 0 
-4.22757 -0.0231551 0 
-0.0231551 -5.50258 0 
0 0 0 
-6.68523 -0.00752457 0 
-0.00752457 -6.51248 0 
0 0 0 
-6.521 -0.0394111 0 
-0.0394111 -6.67671 0 
0 0 0 
-6.73309 -0.158267 0 
-0.158267 -6.46461 0 
0 0 0 
-8.96926 -0.00548971 0 
-0.00548971 -9.71162 0 
0 0 0 
-8.70755 0.268945 0 
0.268945 -9.97333 0 
0 0 0 
-8.75714 -0.0915241 0 
-0.0915241 -9.92373 0 
0 0 0 
-5.0533 0.238588 0 
0.238588 -4.82471 0 
0 0 0 
-5.12805 0.15672 0 
0.15672 -4.74996 0 
0 0 0 
-5.09578 0.13335 0 
0.13335 -4.78223 0 
0 0 0 
-5.26968 0.0817351 0 
0.0817351 -4.6221 0 
0 0 0 
-5.23611 0.131349 0 
0.131349 -4.65566 0 
0 0 0 
-5.17027 0.0844775 0 
0.0844775 -4.72151 0 
0 0 0 
-4.97407 -0.41061 0 
-0.41061 -5.31118 0 
0 0 0 
-4.9844 -0.395534 0 
-0.395534 -5.30085 0 
0 0 0 
-4.96078 -0.366305 0 
-0.366305 -5.32447 0 
0 0 0 
-6.68559 0.0668744 0 
0.0668744 -6.63327 0 
0 0 0 
-6.8583 0.264837 0 
0.264837 -6.46056 0 
0 0 0 
-6.6826 0.201736 0 
0.201736 -6.63626 0 
0 0 0 
-3.14042 -0.0912407 0 
-0.0912407 -3.17777 0 
0 0 0 
-3.29389 -0.109653 0 
-0.109653 -3.0243 0 
0 0 0 
-3.46257 -0.169795 0 
-0.169795 -2.85561 0 
0 0 0 
-0.385584 -0.280169 0 
-0.280169 0.344615 0 
0 0 0 
0.14782 0.0598146 0 
0.0598146 -0.188788 0 
0 0 0 
-0.193271 -0.59028 0 
-0.59028 0.152302 0 
0 0 0 
-6.92048 -0.160311 0 
-0.160311 -6.67368 0 
0 0 0 
-6.8516 -0.00239881 0 
-0.00239881 -6.74256 0 
0 0 0 
-6.90459 -0.213394 0 
-0.213394 -6.68957 0 
0 0 0 
-9.9883 -0.316911 0 
-0.316911 -9.91745 0 
0 0 0 
-9.86932 -0.0246906 0 
-0.0246906 -10.0364 0 
0 0 0 
-9.98549 -0.330264 0 
-0.330264 -9.92026 0 
0 0 0 
-5.11971 0.126464 0 
0.126464 -4.61042 0 
0 0 0 
-5.17857 0.175921 0 
0.175921 -4.55156 0 
0 0 0 
-5.08059 0.160583 0 
0.160583 -4.64955 0 
0 0 0 
-6.80723 -0.11381 0 
-0.11381 -6.87476 0 
0 0 0 
-6.80182 -0.0887823 0 
-0.0887823 -6.88017 0 
0 0 0 
-6.79711 -0.0873929 0 
-0.0873929 -6.88488 0 
0 0 0 
-6.50651 -0.0933167 0 
-0.0933167 -6.90735 0 
0 0 0 
-6.44112 -0.267428 0 
-0.267428 -6.97274 0 
0 0 0 
-6.65632 -0.160139 0 
-0.160139 -6.75754 0 
0 0 0 
-0.251902 -0.200514 0 
-0.200514 0.269765 0 
0 0 0 
-0.134726 -0.0900695 0 
-0.0900695 0.152589 0 
0 0 0 
-0.0993067 -0.181944 0 
-0.181944 0.11717 0 
0 0 0 
-6.20455 0.18465 0 
0.18465 -6.5799 0 
0 0 0 
-6.17869 -0.0150934 0 
-0.0150934 -6.60576 0 
0 0 0 
-6.34472 0.116706 0 
0.116706 -6.43974 0 
0 0 0 
-4.7185 0.0725476 0 
0.0725476 -3.47853 0 
0 0 0 
-4.02527 -0.110513 0 
-0.110513 -4.17176 0 
0 0 0 
-4.13719 -0.753072 0 
-0.753072 -4.05984 0 
0 0 0 
-6.98762 0.187944 0 
0.187944 -6.78021 0 
0 0 0 
-6.63724 0.0273967 0 
0.0273967 -7.13058 0 
0 0 0 
-7.06467 0.223245 0 
0.223245 -6.70315 0 
0 0 0 
-5.54322 0.152704 0 
0.152704 -5.7214 0 
0 0 0 
-5.53518 0.230545 0 
0.230545 -5.72945 0 
0 0 0 
-5.54337 0.0813455 0 
0.0813455 -5.72125 0 
0 0 0 
-5.10172 -0.122642 0 
-0.122642 -5.72055 0 
0 0 0 
-5.57458 -0.185731 0 
-0.185731 -5.24768 0 
0 0 0 
-5.04028 0.149419 0 
0.149419 -5.78198 0 
0 0 0 
-5.14794 -0.367221 0 
-0.367221 -5.43729 0 
0 0 0 
-5.24779 -0.21713 0 
-0.21713 -5.33744 0 
0 0 0 
-5.06462 -0.192791 0 
-0.192791 -5.52061 0 
0 0 0 
-9.78148 -0.0162812 0 
-0.0162812 -9.49932 0 
0 0 0 
-9.9775 -0.0121625 0 
-0.0121625 -9.3033 0 
0 0 0 
-9.78489 0.104354 0 
0.104354 -9.49591 0 
0 0 0 
-1.02519 0.296543 0 
0.296543 -0.815518 0 
0 0 0 
-0.819589 0.493894 0 
0.493894 -1.02111 0 
0 0 0 
-0.779831 0.239244 0 
0.239244 -1.06087 0 
0 0 0 
-5.63056 -0.0998251 0 
-0.0998251 -4.89869 0 
0 0 0 
-5.03697 0.0467193 0 
0.0467193 -5.49228 0 
0 0 0 
-5.39523 -0.425682 0 
-0.425682 -5.13403 0 
0 0 0 
-7.68112 0.131395 0 
0.131395 -7.41288 0 
0 0 0 
-7.55389 0.446523 0 
0.446523 -7.5401 0 
0 0 0 
-7.6826 0.296389 0 
0.296389 -7.41139 0 
0 0 0 
-6.39488 -0.0119215 0 
-0.0119215 -6.06652 0 
0 0 0 
-6.31358 -0.00411926 0 
-0.00411926 -6.14781 0 
0 0 0 
-6.32595 0.0760485 0 
0.0760485 -6.13544 0 
0 0 0 
-2.93825 -0.486768 0 
-0.486768 -3.30069 0 
0 0 0 
-3.35678 -0.717194 0 
-0.717194 -2.88216 0 
0 0 0 
-2.98322 -0.248781 0 
-0.248781 -3.25572 0 
0 0 0 
-10.2282 -0.441137 0 
-0.441137 -9.48003 0 
0 0 0 
-9.81119 -0.0326549 0 
-0.0326549 -9.89702 0 
0 0 0 
-10.0474 -0.392754 0 
-0.392754 -9.66085 0 
0 0 0 
-7.95922 -0.302112 0 
-0.302112 -8.0338 0 
0 0 0 
-7.83733 -0.297759 0 
-0.297759 -8.15569 0 
0 0 0 
-7.70051 0.0221595 0 
0.0221595 -8.29251 0 
0 0 0 
-7.31415 -0.205326 0 
-0.205326 -6.73577 0 
0 0 0 
-7.3055 -0.190148 0 
-0.190148 -6.74442 0 
0 0 0 
-7.1653 -0.171109 0 
-0.171109 -6.88463 0 
0 0 0 
-6.49168 0.120846 0 
0.120846 -7.48365 0 
0 0 0 
-6.89582 -0.143465 0 
-0.143465 -7.07952 0 
0 0 0 
-6.4547 0.155609 0 
0.155609 -7.52063 0 
0 0 0 
-9.89515 -0.125943 0 
-0.125943 -10.0988 0 
0 0 0 
-9.84642 -0.204355 0 
-0.204355 -10.1475 0 
0 0 0 
-9.91993 -0.166548 0 
-0.166548 -10.074 0 
0 0 0 
-2.62349 0.205098 0 
0.205098 -3.25769 0 
0 0 0 
-2.66909 0.36725 0 
0.36725 -3.21209 0 
0 0 0 
-2.53421 -0.104454 0 
-0.104454 -3.34697 0 
0 0 0 
-5.53277 0.0632574 0 
0.0632574 -4.93517 0 
0 0 0 
-5.29404 0.416541 0 
0.416541 -5.1739 0 
0 0 0 
-5.2774 0.0152317 0 
0.0152317 -5.19054 0 
0 0 0 
-5.02076 -0.164533 0 
-0.164533 -5.97 0 
0 0 0 
-5.28985 0.0743372 0 
0.0743372 -5.70091 0 
0 0 0 
-4.99628 -0.0999017 0 
-0.0999017 -5.99448 0 
0 0 0 
-5.75511 0.0611205 0 
0.0611205 -5.91821 0 
0 0 0 
-5.86994 -0.0217095 0 
-0.0217095 -5.80339 0 
0 0 0 
-5.77881 0.0624129 0 
0.0624129 -5.89452 0 
0 0 0 
-9.95818 0.0116551 0 
0.0116551 -9.89734 0 
0 0 0 
-9.94886 0.0454585 0 
0.0454585 -9.90667 0 
0 0 0 
-9.91498 -0.0240004 0 
-0.0240004 -9.94055 0 
0 0 0 
-6.67555 -0.199702 0 
-0.199702 -6.58836 0 
0 0 0 
-6.50019 -0.0877101 0 
-0.0877101 -6.76372 0 
0 0 0 
-6.56622 -0.287401 0 
-0.287401 -6.69769 0 
0 0 0 
-5.72931 -0.000807746 0 
-0.000807746 -6.55104 0 
0 0 0 
-5.80656 0.0520722 0 
0.0520722 -6.47379 0 
0 0 0 
-5.8502 0.0618664 0 
0.0618664 -6.43015 0 
0 0 0 
-8.22904 -0.348901 0 
-0.348901 -8.12076 0 
0 0 0 
-7.80202 -0.461337 0 
-0.461337 -8.54777 0 
0 0 0 
-8.09695 -0.445376 0 
-0.445376 -8.25284 0 
0 0 0 
-5.47695 -0.0344967 0 
-0.0344967 -5.0986 0 
0 0 0 
-5.41768 -0.197242 0 
-0.197242 -5.15787 0 
0 0 0 
-5.30426 -0.115382 0 
-0.115382 -5.2713 0 
0 0 0 
-6.08152 0.263216 0 
0.263216 -5.94558 0 
0 0 0 
-5.99186 0.114248 0 
0.114248 -6.03524 0 
0 0 0 
-5.99609 0.0938628 0 
0.0938628 -6.03101 0 
0 0 0 
-2.40182 -0.206586 0 
-0.206586 -2.37546 0 
0 0 0 
-2.56398 0.172284 0 
0.172284 -2.2133 0 
0 0 0 
-2.41263 -0.30287 0 
-0.30287 -2.36465 0 
0 0 0 
0.130325 0.156562 0 
0.156562 -0.0393252 0 
0 0 0 
0.130983 0.31721 0 
0.31721 -0.0399828 0 
0 0 0 
0.166919 0.211993 0 
0.211993 -0.0759186 0 
0 0 0 
-7.21557 0.0103183 0 
0.0103183 -6.58515 0 
0 0 0 
-7.16415 0.0135002 0 
0.0135002 -6.63657 0 
0 0 0 
-7.13534 -0.0480645 0 
-0.0480645 -6.66537 0 
0 0 0 
0.062909 0.0756356 0 
0.0756356 -0.148735 0 
0 0 0 
0.0118072 0.0506344 0 
0.0506344 -0.0976332 0 
0 0 0 
-0.0248075 0.072044 0 
0.072044 -0.0610186 0 
0 0 0 
-3.5475 -0.306062 0 
-0.306062 -3.94067 0 
0 0 0 
-3.52096 -0.236078 0 
-0.236078 -3.96721 0 
0 0 0 
-3.61382 -0.230469 0 
-0.230469 -3.87435 0 
0 0 0 
-0.0778647 -0.120283 0 
-0.120283 -0.0340167 0 
0 0 0 
0.328927 -0.196392 0 
-0.196392 -0.440808 0 
0 0 0 
0.0236362 -0.325807 0 
-0.325807 -0.135518 0 
0 0 0 
-6.56975 -0.222429 0 
-0.222429 -7.03207 0 
0 0 0 
-6.57775 -0.227061 0 
-0.227061 -7.02407 0 
0 0 0 
-6.44648 -0.158009 0 
-0.158009 -7.15534 0 
0 0 0 
-0.0605941 -0.579491 0 
-0.579491 0.262481 0 
0 0 0 
0.233933 -0.107551 0 
-0.107551 -0.0320467 0 
0 0 0 
0.0682184 -0.518902 0 
-0.518902 0.133668 0 
0 0 0 
-6.99312 -0.0909714 0 
-0.0909714 -6.88856 0 
0 0 0 
-7.03744 -0.0814184 0 
-0.0814184 -6.84424 0 
0 0 0 
-7.00284 -0.038518 0 
-0.038518 -6.87884 0 
0 0 0 
-5.78545 -0.0922145 0 
-0.0922145 -5.77003 0 
0 0 0 
-5.72912 -0.12532 0 
-0.12532 -5.82635 0 
0 0 0 
-5.68841 -0.0120716 0 
-0.0120716 -5.86707 0 
0 0 0 
-4.57281 -0.369225 0 
-0.369225 -5.74596 0 
0 0 0 
-5.27208 0.345407 0 
0.345407 -5.04669 0 
0 0 0 
-4.30897 0.981871 0 
0.981871 -6.0098 0 
0 0 0 
-1.92769 -0.0820526 0 
-0.0820526 -1.88583 0 
0 0 0 
-1.90577 0.151382 0 
0.151382 -1.90775 0 
0 0 0 
-1.91614 -0.0807389 0 
-0.0807389 -1.89737 0 
0 0 0 
-5.7546 0.108068 0 
0.108068 -5.79435 0 
0 0 0 
-5.68528 0.115948 0 
0.115948 -5.86367 0 
0 0 0 
-5.56594 0.119437 0 
0.119437 -5.98301 0 
0 0 0 
-9.67718 0.314646 0 
0.314646 -9.7399 0 
0 0 0 
-9.68298 0.342092 0 
0.342092 -9.7341 0 
0 0 0 
-9.75451 0.351056 0 
0.351056 -9.66257 0 
0 0 0 
-5.27126 -0.0144208 0 
-0.0144208 -5.45051 0 
0 0 0 
-5.14054 0.35059 0 
0.35059 -5.58123 0 
0 0 0 
-5.18978 0.0440831 0 
0.0440831 -5.53199 0 
0 0 0 
-2.87884 -0.793004 0 
-0.793004 -2.98867 0 
0 0 0 
-2.96581 -0.70355 0 
-0.70355 -2.90169 0 
0 0 0 
-2.74477 -0.56578 0 
-0.56578 -3.12274 0 
0 0 0 
-0.0415258 -0.121257 0 
-0.121257 -0.159876 0 
0 0 0 
-0.101965 0.0418669 0 
0.0418669 -0.0994367 0 
0 0 0 
0.0378317 -0.131345 0 
-0.131345 -0.239233 0 
0 0 0 
0.149039 0.319616 0 
0.319616 -0.257191 0 
0 0 0 
-0.114788 0.157999 0 
0.157999 0.00663599 0 
0 0 0 
0.150003 0.32682 0 
0.32682 -0.258156 0 
0 0 0 
-5.9686 -0.00380899 0 
-0.00380899 -6.09517 0 
0 0 0 
-6.00215 -0.0930248 0 
-0.0930248 -6.06162 0 
0 0 0 
-5.91687 -0.083061 0 
-0.083061 -6.1469 0 
0 0 0 
-5.66611 -0.16165 0 
-0.16165 -5.77853 0 
0 0 0 
-5.64388 -0.128615 0 
-0.128615 -5.80075 0 
0 0 0 
-5.52694 -0.252424 0 
-0.252424 -5.9177 0 
0 0 0 
-5.40268 0.0680495 0 
0.0680495 -5.39333 0 
0 0 0 
-5.40367 0.0932879 0 
0.0932879 -5.39234 0 
0 0 0 
-5.40936 0.0644134 0 
0.0644134 -5.38666 0 
0 0 0 
-5.48027 -0.10755 0 
-0.10755 -5.61042 0 
0 0 0 
-5.4408 -0.0266806 0 
-0.0266806 -5.64989 0 
0 0 0 
-5.47093 -0.00619561 0 
-0.00619561 -5.61976 0 
0 0 0 
-7.02487 -0.245673 0 
-0.245673 -7.07159 0 
0 0 0 
-7.4249 -0.306989 0 
-0.306989 -6.67156 0 
0 0 0 
-7.01134 -0.0505037 0 
-0.0505037 -7.08512 0 
0 0 0 
-6.90256 -0.0748321 0 
-0.0748321 -6.88018 0 
0 0 0 
-6.88885 -0.0977515 0 
-0.0977515 -6.89389 0 
0 0 0 
-6.90518 -0.0731365 0 
-0.0731365 -6.87757 0 
0 0 0 
-1.8448 -0.160464 0 
-0.160464 -2.66411 0 
0 0 0 
-1.83863 -0.10831 0 
-0.10831 -2.67028 0 
0 0 0 
-1.63086 -0.114751 0 
-0.114751 -2.87806 0 
0 0 0 
-9.39503 -0.500117 0 
-0.500117 -9.16726 0 
0 0 0 
-9.57037 -0.36119 0 
-0.36119 -8.99191 0 
0 0 0 
-9.24314 -0.279494 0 
-0.279494 -9.31915 0 
0 0 0 
-7.09488 0.473707 0 
0.473707 -7.33025 0 
0 0 0 
-7.23302 0.10812 0 
0.10812 -7.1921 0 
0 0 0 
-7.23092 0.373623 0 
0.373623 -7.1942 0 
0 0 0 
-9.87038 0.0275022 0 
0.0275022 -9.23085 0 
0 0 0 
-9.72974 -0.0603886 0 
-0.0603886 -9.37149 0 
0 0 0 
-9.78474 0.0625216 0 
0.0625216 -9.31649 0 
0 0 0 
-6.00558 0.329558 0 
0.329558 -6.31342 0 
0 0 0 
-5.95838 0.147363 0 
0.147363 -6.36062 0 
0 0 0 
-6.10009 0.355984 0 
0.355984 -6.21891 0 
0 0 0 
-5.46214 0.225947 0 
0.225947 -5.46893 0 
0 0 0 
-5.47356 0.1502 0 
0.1502 -5.45751 0 
0 0 0 
-5.46183 0.257763 0 
0.257763 -5.46924 0 
0 0 0 
-10.0898 -0.259681 0 
-0.259681 -10.347 0 
0 0 0 
-10.1076 0.208615 0 
0.208615 -10.3292 0 
0 0 0 
-9.82146 0.2258 0 
0.2258 -10.6154 0 
0 0 0 
-3.59428 -0.0111365 0 
-0.0111365 -3.71245 0 
0 0 0 
-4.08241 0.123706 0 
0.123706 -3.22431 0 
0 0 0 
-3.64042 0.180824 0 
0.180824 -3.6663 0 
0 0 0 
-5.86387 -0.0704565 0 
-0.0704565 -5.9154 0 
0 0 0 
-6.02435 -0.185284 0 
-0.185284 -5.75493 0 
0 0 0 
-5.9183 -0.24926 0 
-0.24926 -5.86098 0 
0 0 0 
-6.13874 0.0881303 0 
0.0881303 -6.19945 0 
0 0 0 
-6.15478 0.0839615 0 
0.0839615 -6.18342 0 
0 0 0 
-6.16742 -0.112101 0 
-0.112101 -6.17078 0 
0 0 0 
-6.75203 -0.15631 0 
-0.15631 -6.85785 0 
0 0 0 
-6.74813 -0.0746747 0 
-0.0746747 -6.86175 0 
0 0 0 
-6.78133 -0.119244 0 
-0.119244 -6.82855 0 
0 0 0 
-5.2458 -0.180881 0 
-0.180881 -4.9679 0 
0 0 0 
-5.18674 -0.423079 0 
-0.423079 -5.02697 0 
0 0 0 
-5.01373 -0.347637 0 
-0.347637 -5.19998 0 
0 0 0 
-8.9312 -0.173817 0 
-0.173817 -8.63363 0 
0 0 0 
-8.78846 -0.130017 0 
-0.130017 -8.77638 0 
0 0 0 
-9.00818 -0.153596 0 
-0.153596 -8.55665 0 
0 0 0 
-9.8646 -0.12483 0 
-0.12483 -9.74545 0 
0 0 0 
-9.83914 -0.127746 0 
-0.127746 -9.77091 0 
0 0 0 
-9.85237 -0.107351 0 
-0.107351 -9.75768 0 
0 0 0 
-9.02829 0.504219 0 
0.504219 -10.2654 0 
0 0 0 
-9.3272 0.335523 0 
0.335523 -9.96653 0 
0 0 0 
-9.08719 0.393413 0 
0.393413 -10.2065 0 
0 0 0 
-5.06964 0.187613 0 
0.187613 -4.57664 0 
0 0 0 
-5.04469 0.218088 0 
0.218088 -4.60159 0 
0 0 0 
-5.08587 0.159317 0 
0.159317 -4.5604 0 
0 0 0 
-8.49649 0.0466728 0 
0.0466728 -8.84372 0 
0 0 0 
-8.50661 -0.128808 0 
-0.128808 -8.8336 0 
0 0 0 
-8.34754 0.0263268 0 
0.0263268 -8.99267 0 
0 0 0 
-2.6503 -0.282244 0 
-0.282244 -2.71377 0 
0 0 0 
-2.40643 -0.485404 0 
-0.485404 -2.95764 0 
0 0 0 
-2.9227 -0.265512 0 
-0.265512 -2.44138 0 
0 0 0 
-0.326424 0.125068 0 
0.125068 0.331243 0 
0 0 0 
-0.195776 0.00169051 0 
0.00169051 0.200595 0 
0 0 0 
-0.250484 0.0183856 0 
0.0183856 0.255303 0 
0 0 0 
-5.11106 -0.157525 0 
-0.157525 -5.20399 0 
0 0 0 
-5.06477 -0.0737693 0 
-0.0737693 -5.25029 0 
0 0 0 
-5.07644 -0.0739406 0 
-0.0739406 -5.23861 0 
0 0 0 
-9.92071 0.236545 0 
0.236545 -9.8319 0 
0 0 0 
-10.0627 0.225132 0 
0.225132 -9.68989 0 
0 0 0 
-10.0422 0.254294 0 
0.254294 -9.71039 0 
0 0 0 
0.135275 -0.187458 0 
-0.187458 -0.197722 0 
0 0 0 
0.220631 -0.221863 0 
-0.221863 -0.283078 0 
0 0 0 
0.209272 -0.434809 0 
-0.434809 -0.271719 0 
0 0 0 
-7.46519 0.211673 0 
0.211673 -7.95758 0 
0 0 0 
-7.71342 0.10492 0 
0.10492 -7.70935 0 
0 0 0 
-7.46655 0.172138 0 
0.172138 -7.95622 0 
0 0 0 
-9.09357 0.0849939 0 
0.0849939 -9.10692 0 
0 0 0 
-9.19353 -0.111191 0 
-0.111191 -9.00696 0 
0 0 0 
-9.49349 0.108406 0 
0.108406 -8.707 0 
0 0 0 
-0.140249 -0.232752 0 
-0.232752 -0.210877 0 
0 0 0 
0.129065 0.13959 0 
0.13959 -0.480191 0 
0 0 0 
0.0668809 0.111312 0 
0.111312 -0.418007 0 
0 0 0 
-7.2125 0.185795 0 
0.185795 -7.766 0 
0 0 0 
-7.21783 0.235858 0 
0.235858 -7.76068 0 
0 0 0 
-7.25093 0.205837 0 
0.205837 -7.72758 0 
0 0 0 
-8.88393 0.30922 0 
0.30922 -10.3017 0 
0 0 0 
-9.13593 0.130486 0 
0.130486 -10.0497 0 
0 0 0 
-8.93744 -0.0622809 0 
-0.0622809 -10.2482 0 
0 0 0 
-7.10012 -0.0409013 0 
-0.0409013 -6.87397 0 
0 0 0 
-7.0591 -0.0945141 0 
-0.0945141 -6.91498 0 
0 0 0 
-7.0646 -0.0808196 0 
-0.0808196 -6.90948 0 
0 0 0 
-3.89633 0.034031 0 
0.034031 -3.93104 0 
0 0 0 
-3.9398 -0.257872 0 
-0.257872 -3.88757 0 
0 0 0 
-3.99566 -0.231396 0 
-0.231396 -3.83171 0 
0 0 0 
-6.2683 0.236405 0 
0.236405 -6.42132 0 
0 0 0 
-6.19813 0.317767 0 
0.317767 -6.4915 0 
0 0 0 
-6.20751 0.148787 0 
0.148787 -6.48212 0 
0 0 0 
-1.32929 0.898392 0 
0.898392 -0.692424 0 
0 0 0 
-1.00751 0.783955 0 
0.783955 -1.0142 0 
0 0 0 
-1.24052 0.632167 0 
0.632167 -0.781194 0 
0 0 0 
-9.99773 0.119898 0 
0.119898 -9.94988 0 
0 0 0 
-10.0383 0.0998151 0 
0.0998151 -9.90927 0 
0 0 0 
-9.99554 0.120655 0 
0.120655 -9.95207 0 
0 0 0 
-9.80865 -0.0800337 0 
-0.0800337 -9.82074 0 
0 0 0 
-9.8782 -0.0258 0 
-0.0258 -9.75119 0 
0 0 0 
-9.82881 -0.0500929 0 
-0.0500929 -9.80058 0 
0 0 0 
-9.77756 -0.24499 0 
-0.24499 -10.2148 0 
0 0 0 
-9.78909 -0.171972 0 
-0.171972 -10.2032 0 
0 0 0 
-9.86781 -0.199737 0 
-0.199737 -10.1245 0 
0 0 0 
-0.00908884 0.073108 0 
0.073108 -0.428235 0 
0 0 0 
-0.114858 0.0683859 0 
0.0683859 -0.322467 0 
0 0 0 
0.0826559 0.0996626 0 
0.0996626 -0.51998 0 
0 0 0 
-7.23023 0.149434 0 
0.149434 -7.50831 0 
0 0 0 
-7.56717 0.0481965 0 
0.0481965 -7.17137 0 
0 0 0 
-7.43593 0.332304 0 
0.332304 -7.30261 0 
0 0 0 
-3.78655 -0.235075 0 
-0.235075 -3.9627 0 
0 0 0 
-3.91019 -0.111751 0 
-0.111751 -3.83906 0 
0 0 0 
-3.72486 -0.108349 0 
-0.108349 -4.02439 0 
0 0 0 
-10.0353 -0.170551 0 
-0.170551 -9.63569 0 
0 0 0 
-9.99644 -0.101726 0 
-0.101726 -9.67458 0 
0 0 0 
-9.89765 -0.0421488 0 
-0.0421488 -9.77337 0 
0 0 0 
-6.53814 -0.316789 0 
-0.316789 -6.69118 0 
0 0 0 
-6.52105 -0.00395301 0 
-0.00395301 -6.70827 0 
0 0 0 
-6.49872 -0.317604 0 
-0.317604 -6.7306 0 
0 0 0 
-8.79428 -0.0561759 0 
-0.0561759 -9.83325 0 
0 0 0 
-8.90602 0.0114328 0 
0.0114328 -9.7215 0 
0 0 0 
-8.69565 -0.173479 0 
-0.173479 -9.93187 0 
0 0 0 
-8.86969 -0.153274 0 
-0.153274 -8.46507 0 
0 0 0 
-8.73529 -0.344592 0 
-0.344592 -8.59946 0 
0 0 0 
-8.56887 -0.205062 0 
-0.205062 -8.76588 0 
0 0 0 
-9.22442 -0.415073 0 
-0.415073 -10.217 0 
0 0 0 
-9.52558 -0.256639 0 
-0.256639 -9.91585 0 
0 0 0 
-9.42123 -0.0526239 0 
-0.0526239 -10.0202 0 
0 0 0 
0.0266268 0.0289603 0 
0.0289603 0.108733 0 
0 0 0 
0.0689816 0.00347203 0 
0.00347203 0.0663784 0 
0 0 0 
0.0419398 0.0495443 0 
0.0495443 0.0934202 0 
0 0 0 
-9.77809 0.122603 0 
0.122603 -9.77531 0 
0 0 0 
-9.78915 0.211551 0 
0.211551 -9.76426 0 
0 0 0 
-9.74551 0.158289 0 
0.158289 -9.8079 0 
0 0 0 
-6.62708 -0.293681 0 
-0.293681 -6.75077 0 
0 0 0 
-6.59254 -0.175219 0 
-0.175219 -6.7853 0 
0 0 0 
-6.47006 -0.214273 0 
-0.214273 -6.90778 0 
0 0 0 
-5.24818 0.0520544 0 
0.0520544 -5.58613 0 
0 0 0 
-5.27909 0.0787254 0 
0.0787254 -5.55522 0 
0 0 0 
-5.34661 0.0983171 0 
0.0983171 -5.48769 0 
0 0 0 
-5.52531 -0.0654202 0 
-0.0654202 -5.80369 0 
0 0 0 
-5.53672 -0.0637164 0 
-0.0637164 -5.79228 0 
0 0 0 
-5.6598 -0.0171827 0 
-0.0171827 -5.66921 0 
0 0 0 
0.0558933 -0.145834 0 
-0.145834 -0.17651 0 
0 0 0 
-0.0836523 -0.0678365 0 
-0.0678365 -0.0369644 0 
0 0 0 
-0.042438 -0.22587 0 
-0.22587 -0.0781787 0 
0 0 0 
-6.99674 -0.0234242 0 
-0.0234242 -6.55774 0 
0 0 0 
-7.15718 -0.142475 0 
-0.142475 -6.3973 0 
0 0 0 
-7.10747 -0.0146472 0 
-0.0146472 -6.44701 0 
0 0 0 
-6.84283 -0.0297457 0 
-0.0297457 -6.39294 0 
0 0 0 
-6.72671 -0.0676221 0 
-0.0676221 -6.50906 0 
0 0 0 
-6.79546 -0.0608541 0 
-0.0608541 -6.44031 0 
0 0 0 
-6.91935 0.0393927 0 
0.0393927 -6.55438 0 
0 0 0 
-6.90116 0.102897 0 
0.102897 -6.57257 0 
0 0 0 
-6.84229 0.0379522 0 
0.0379522 -6.63144 0 
0 0 0 
-5.23874 -0.00195619 0 
-0.00195619 -5.6345 0 
0 0 0 
-5.22679 -0.0589645 0 
-0.0589645 -5.64645 0 
0 0 0 
-5.1933 -0.0165236 0 
-0.0165236 -5.67995 0 
0 0 0 
-9.9721 -0.0613578 0 
-0.0613578 -9.97822 0 
0 0 0 
-9.99231 -0.0795564 0 
-0.0795564 -9.95801 0 
0 0 0 
-9.9885 -0.0754443 0 
-0.0754443 -9.96183 0 
0 0 0 
-0.0557944 -0.0725422 0 
-0.0725422 0.054336 0 
0 0 0 
-0.0588793 -0.0524255 0 
-0.0524255 0.0574209 0 
0 0 0 
-0.0552813 -0.125308 0 
-0.125308 0.0538228 0 
0 0 0 
-2.37733 0.109592 0 
0.109592 -2.86527 0 
0 0 0 
-2.2938 -0.126395 0 
-0.126395 -2.9488 0 
0 0 0 
-2.14592 -0.154075 0 
-0.154075 -3.09668 0 
0 0 0 
-5.23734 -0.0512884 0 
-0.0512884 -5.6182 0 
0 0 0 
-5.18648 -0.0710441 0 
-0.0710441 -5.66907 0 
0 0 0 
-5.21014 -0.0894344 0 
-0.0894344 -5.6454 0 
0 0 0 
-6.52916 -0.266687 0 
-0.266687 -6.84403 0 
0 0 0 
-6.63315 -0.281843 0 
-0.281843 -6.74003 0 
0 0 0 
-6.62523 -0.244942 0 
-0.244942 -6.74796 0 
0 0 0 
-3.39323 -0.312658 0 
-0.312658 -3.55302 0 
0 0 0 
-3.3417 -0.0225846 0 
-0.0225846 -3.60454 0 
0 0 0 
-3.57113 -0.15322 0 
-0.15322 -3.37511 0 
0 0 0 
-5.30941 -0.0817511 0 
-0.0817511 -5.67274 0 
0 0 0 
-5.48203 0.0807204 0 
0.0807204 -5.50011 0 
0 0 0 
-5.3162 0.104157 0 
0.104157 -5.66594 0 
0 0 0 
-5.46739 0.131643 0 
0.131643 -5.85548 0 
0 0 0 
-5.47841 0.181197 0 
0.181197 -5.84445 0 
0 0 0 
-5.55963 0.148565 0 
0.148565 -5.76323 0 
0 0 0 
-5.28135 0.159277 0 
0.159277 -5.47904 0 
0 0 0 
-4.97408 0.231454 0 
0.231454 -5.78631 0 
0 0 0 
-5.02842 0.353778 0 
0.353778 -5.73196 0 
0 0 0 
-0.0442277 0.313229 0 
0.313229 0.0477381 0 
0 0 0 
-0.0455174 0.342868 0 
0.342868 0.0490278 0 
0 0 0 
0.00874743 0.24917 0 
0.24917 -0.00523701 0 
0 0 0 
-9.91594 0.300771 0 
0.300771 -10.0437 0 
0 0 0 
-9.90542 0.238833 0 
0.238833 -10.0543 0 
0 0 0 
-9.86005 0.266047 0 
0.266047 -10.0996 0 
0 0 0 
-5.86201 0.219255 0 
0.219255 -5.74413 0 
0 0 0 
-5.85001 0.40403 0 
0.40403 -5.75612 0 
0 0 0 
-5.81692 0.109213 0 
0.109213 -5.78922 0 
0 0 0 
-5.99505 0.259621 0 
0.259621 -6.25604 0 
0 0 0 
-6.39163 0.00559339 0 
0.00559339 -5.85946 0 
0 0 0 
-6.11262 0.198496 0 
0.198496 -6.13847 0 
0 0 0 
-3.71438 0.0951038 0 
0.0951038 -3.2385 0 
0 0 0 
-3.3677 0.285661 0 
0.285661 -3.58518 0 
0 0 0 
-3.82822 0.0416604 0 
0.0416604 -3.12465 0 
0 0 0 
-0.932006 -0.67233 0 
-0.67233 -0.974392 0 
0 0 0 
-0.547625 0.356507 0 
0.356507 -1.35877 0 
0 0 0 
-0.420167 -0.44152 0 
-0.44152 -1.48623 0 
0 0 0 
-2.39956 0.692543 0 
0.692543 -2.65313 0 
0 0 0 
-2.76 0.134878 0 
0.134878 -2.2927 0 
0 0 0 
-2.76838 0.494944 0 
0.494944 -2.28432 0 
0 0 0 
-2.11071 0.360463 0 
0.360463 0.255783 0 
0 0 0 
-0.578688 0.237899 0 
0.237899 -1.27624 0 
0 0 0 
-0.0862382 -1.46196 0 
-1.46196 -1.76869 0 
0 0 0 
-9.37395 -0.809747 0 
-0.809747 -9.80868 0 
0 0 0 
-9.68046 -0.253451 0 
-0.253451 -9.50218 0 
0 0 0 
-8.91455 0.784902 0 
0.784902 -10.2681 0 
0 0 0 
-4.93853 -0.555876 0 
-0.555876 -3.93246 0 
0 0 0 
-4.91211 0.0666681 0 
0.0666681 -3.95888 0 
0 0 0 
-3.96212 -0.784778 0 
-0.784778 -4.90888 0 
0 0 0 
-4.0215 -0.123827 0 
-0.123827 -3.51687 0 
0 0 0 
-3.7554 0.0174483 0 
0.0174483 -3.78297 0 
0 0 0 
-3.68206 0.133187 0 
0.133187 -3.85631 0 
0 0 0 
-9.60118 -0.0289041 0 
-0.0289041 -10.5697 0 
0 0 0 
-9.98234 -0.192349 0 
-0.192349 -10.1885 0 
0 0 0 
-10.2748 0.171247 0 
0.171247 -9.89608 0 
0 0 0 
-10.1204 -0.102417 0 
-0.102417 -9.99227 0 
0 0 0 
-10.1664 -0.101821 0 
-0.101821 -9.94621 0 
0 0 0 
-10.2369 -0.0258019 0 
-0.0258019 -9.87577 0 
0 0 0 
-0.0122386 -0.0736258 0 
-0.0736258 0.433357 0 
0 0 0 
0.157289 -0.0653153 0 
-0.0653153 0.26383 0 
0 0 0 
-0.158348 -0.127128 0 
-0.127128 0.579466 0 
0 0 0 
-8.01038 1.12576 0 
1.12576 -8.40717 0 
0 0 0 
-8.0696 0.366092 0 
0.366092 -8.34796 0 
0 0 0 
-9.98396 0.466756 0 
0.466756 -6.43359 0 
0 0 0 
-9.98965 -0.105951 0 
-0.105951 -10.1742 0 
0 0 0 
-10.086 -0.0800931 0 
-0.0800931 -10.0779 0 
0 0 0 
-9.89176 -0.071146 0 
-0.071146 -10.2721 0 
0 0 0 
-7.06864 -0.398093 0 
-0.398093 -6.5955 0 
0 0 0 
-7.32319 -0.0925037 0 
-0.0925037 -6.34095 0 
0 0 0 
-6.99874 -0.545836 0 
-0.545836 -6.6654 0 
0 0 0 
METADATA
COMPONENT_NAMES
XX
XY
XZ
YX
YY
YZ
ZX
ZY
ZZ

