# vtk DataFile Version 3.0
vtk output
ASCII
DATASET UNSTRUCTURED_GRID
POINTS 23076 float
0.373696	-0.332191	0.334057	
0.304682	-0.199557	0.252634	
0.224653	-0.281756	0.300179	
0.340228	-0.209884	0.396212	
0.0966642	-0.131711	0.5	
0.0733876	-0.0824124	0.5	
0.0936941	-0.0576924	0.420616	
0.00727488	-0.125574	0.43338	
0.259808	0.15	0.5	
0.199563	0.20121	0.405215	
0.259073	0.206972	0.5	
0.316151	0.221929	0.385283	
0.369217	0.203769	0.5	
0.439458	0.238488	0.424308	
0.364062	0.132817	0.5	
0.316151	0.221929	0.385283	
-0.0732624	-0.0235498	0.355778	
-0.115691	-0.0468978	0.268322	
-0.166197	0.012686	0.395566	
-0.12302	0.073304	0.350874	
0.00155464	-0.188347	0.5	
-0.0829946	-0.232421	0.403465	
-0.00915007	-0.159584	0.370443	
0.0645865	-0.210943	0.409687	
0.169238	0.138503	0.5	
0.118461	0.161044	0.5	
0.199563	0.20121	0.405215	
0.10136	0.102523	0.406019	
0.373696	-0.332191	0.334057	
0.224653	-0.281756	0.300179	
0.270471	-0.290437	0.402527	
0.340228	-0.209884	0.396212	
-0.162023	-0.339511	0.25028	
-0.285188	-0.256019	0.23904	
-0.188087	-0.23341	0.313651	
-0.183468	-0.187607	0.160733	
0.00155464	-0.188347	0.5	
-0.00915007	-0.159584	0.370443	
-0.0497612	-0.177788	0.5	
0.00727488	-0.125574	0.43338	
-0.188087	-0.23341	0.313651	
-0.162023	-0.339511	0.25028	
-0.183468	-0.187607	0.160733	
-0.10857	-0.188319	0.218241	
0.0966642	-0.131711	0.5	
0.035935	-0.11426	0.5	
0.0733876	-0.0824124	0.5	
0.00727488	-0.125574	0.43338	
-0.115841	0.288513	0.162892	
-0.213184	0.322526	0.106779	
-0.234922	0.307887	0.237464	
-0.0810467	0.370121	0.206864	
-0.15	0.259808	0.5	
-0.1997	0.206062	0.414424	
-0.192123	0.259903	0.5	
-0.173891	0.340446	0.398741	
-0.256554	0.429162	0.331268	
-0.222708	0.258636	0.344999	
-0.234922	0.307887	0.237464	
-0.173891	0.340446	0.398741	
0.236451	-0.193336	0.377474	
0.224653	-0.281756	0.300179	
0.304682	-0.199557	0.252634	
0.340228	-0.209884	0.396212	
0.259808	0.15	0.5	
0.199563	0.20121	0.405215	
0.316151	0.221929	0.385283	
0.228063	0.102246	0.400094	
0.450285	0.217356	0.355302	
0.324629	0.108316	0.364447	
0.316151	0.221929	0.385283	
0.329012	0.224405	0.280196	
-0.373696	0.332191	0.334057	
-0.222708	0.258636	0.344999	
-0.321766	0.212706	0.386222	
-0.304187	0.215745	0.266633	
-0.259032	0.225769	0.154918	
-0.304187	0.215745	0.266633	
-0.428104	0.258315	0.196896	
-0.364452	0.121056	0.219309	
-0.0732624	-0.0235498	0.355778	
-0.104233	0.0522254	0.274426	
-0.115691	-0.0468978	0.268322	
-0.12302	0.073304	0.350874	
0.254347	-0.100565	0.163493	
0.163856	-0.062131	0.265284	
0.092572	-0.0674004	0.167448	
0.113524	-0.1522	0.202868	
-0.132465	0.342544	0.286862	
-0.234922	0.307887	0.237464	
-0.222708	0.258636	0.344999	
-0.173891	0.340446	0.398741	
0.476114	0.152694	0.40246	
0.324629	0.108316	0.364447	
0.364062	0.132817	0.5	
0.316151	0.221929	0.385283	
-0.373696	0.332191	0.334057	
-0.321766	0.212706	0.386222	
-0.222708	0.258636	0.344999	
-0.281262	0.296575	0.411781	
0.0966642	-0.131711	0.5	
0.128497	-0.139894	0.387724	
0.0645865	-0.210943	0.409687	
0.0558806	-0.119121	0.374407	
-0.0509221	-0.120838	0.250106	
-0.0272885	-0.0825315	0.132744	
0.0255949	-0.0865848	0.221929	
-0.00830008	-0.198671	0.244345	
-0.0732624	-0.0235498	0.355778	
-0.056943	0.120887	0.354229	
-0.0790952	0.0620487	0.41859	
0.00171532	0.0670635	0.305226	
0.476114	0.152694	0.40246	
0.364062	0.132817	0.5	
0.439458	0.238488	0.424308	
0.316151	0.221929	0.385283	
-0.318983	0.261743	0	
-0.259032	0.225769	0.154918	
-0.385896	0.317937	0.065638	
-0.326028	0.142215	0.11299	
-0.166197	0.012686	0.395566	
-0.115691	-0.0468978	0.268322	
-0.0732624	-0.0235498	0.355778	
-0.143954	-0.0664954	0.366375	
0.096294	0.191774	0.363276	
0.199563	0.20121	0.405215	
0.118461	0.161044	0.5	
0.10136	0.102523	0.406019	
0.0966642	-0.131711	0.5	
0.0936941	-0.0576924	0.420616	
0.128497	-0.139894	0.387724	
0.0558806	-0.119121	0.374407	
-0.216377	0.228686	0.5	
-0.249565	0.273325	0.5	
-0.192123	0.259903	0.5	
-0.1997	0.206062	0.414424	
0.0420691	0.427134	0	
0.0704482	0.495012	0.0718447	
0.0214814	0.353326	0.153644	
0.145858	0.357927	0.135369	
-0.192123	0.259903	0.5	
-0.173891	0.340446	0.398741	
-0.1997	0.206062	0.414424	
-0.281262	0.296575	0.411781	
0.232997	-0.11062	0	
0.245477	-0.191651	0	
0.254347	-0.100565	0.163493	
0.164655	-0.11934	0.10185	
0.0966642	-0.131711	0.5	
0.0645865	-0.210943	0.409687	
0.00727488	-0.125574	0.43338	
0.0558806	-0.119121	0.374407	
-0.26105	0.203399	0	
-0.170195	0.225746	0.0963396	
-0.259032	0.225769	0.154918	
-0.215195	0.0857371	0.0917705	
-0.0732624	-0.0235498	0.355778	
-0.0790952	0.0620487	0.41859	
-0.056943	0.120887	0.354229	
-0.12302	0.073304	0.350874	
0.00155464	-0.188347	0.5	
-0.0497612	-0.177788	0.5	
-0.00915007	-0.159584	0.370443	
-0.0829946	-0.232421	0.403465	
-0.222708	0.258636	0.344999	
-0.173891	0.340446	0.398741	
-0.256554	0.429162	0.331268	
-0.281262	0.296575	0.411781	
0.165128	-0.182854	0.275544	
0.224653	-0.281756	0.300179	
0.155319	-0.32739	0.22804	
0.227664	-0.175808	0.20875	
-0.00915007	-0.159584	0.370443	
-0.0688906	-0.12049	0.417622	
-0.0497612	-0.177788	0.5	
0.00727488	-0.125574	0.43338	
-0.216377	0.228686	0.5	
-0.259808	0.2	0.5	
-0.249565	0.273325	0.5	
-0.1997	0.206062	0.414424	
-0.222708	0.258636	0.344999	
-0.304187	0.215745	0.266633	
-0.373696	0.332191	0.334057	
-0.234922	0.307887	0.237464	
0.0420691	0.427134	0	
0	0.5	0.1	
-0.0372406	0.417791	0	
-0.0809307	0.385403	0.109035	
-0.0983601	0.156434	0	
-0.0198097	0.25642	0.112647	
-0.128142	0.132022	0.124103	
-0.0250996	0.111886	0.106171	
-0.107964	-0.347419	0.364155	
-0.0741769	-0.222661	0.29905	
0.0093178	-0.302179	0.302179	
-0.0510822	-0.382345	0.237039	
-0.0732624	-0.0235498	0.355778	
0.00171532	0.0670635	0.305226	
-0.0790952	0.0620487	0.41859	
0.0015496	-0.0106233	0.342921	
-0.128142	0.132022	0.124103	
-0.0198097	0.25642	0.112647	
-0.0983601	0.156434	0	
-0.170195	0.225746	0.0963396	
0.0966642	-0.131711	0.5	
0.00727488	-0.125574	0.43338	
0.0936941	-0.0576924	0.420616	
0.0558806	-0.119121	0.374407	
0.450285	0.217356	0.355302	
0.324629	0.108316	0.364447	
0.476114	0.152694	0.40246	
0.316151	0.221929	0.385283	
0.0594834	0.18279	0.5	
0.0609049	0.128365	0.5	
0.0101256	0.127322	0.41346	
0.10136	0.102523	0.406019	
0.245477	-0.191651	0	
0.313473	-0.209952	0.12238	
0.254347	-0.100565	0.163493	
0.164655	-0.11934	0.10185	
0.0486433	-0.215998	0.178276	
0.0255949	-0.0865848	0.221929	
-0.0272885	-0.0825315	0.132744	
-0.00830008	-0.198671	0.244345	
0.374193	0.331632	0.334643	
0.316151	0.221929	0.385283	
0.24627	0.285293	0.404112	
0.329012	0.224405	0.280196	
0.155716	-0.12147	0.5	
0.0966642	-0.131711	0.5	
0.120744	-0.0747732	0.5	
0.182789	-0.109466	0.430518	
-0.230549	-0.284648	0.130866	
-0.183468	-0.187607	0.160733	
-0.0974804	-0.267818	0.168751	
-0.127253	-0.156126	0.0844713	
0.304682	-0.199557	0.252634	
0.340228	-0.209884	0.396212	
0.373696	-0.332191	0.334057	
0.373857	-0.180895	0.313411	
0.236451	-0.193336	0.377474	
0.270471	-0.290437	0.402527	
0.224653	-0.281756	0.300179	
0.340228	-0.209884	0.396212	
0.0884767	-0.000375704	0.258795	
0.125478	0.130999	0.17652	
0.07775	0.0966917	0.259619	
0.172939	0.0245765	0.250039	
-0.056943	0.120887	0.354229	
0.00171532	0.0670635	0.305226	
-0.0732624	-0.0235498	0.355778	
-0.12302	0.073304	0.350874	
0.0594834	0.18279	0.5	
0.0101256	0.127322	0.41346	
0.096294	0.191774	0.363276	
0.10136	0.102523	0.406019	
0.0420691	0.427134	0	
0.0214814	0.353326	0.153644	
0	0.5	0.1	
-0.0809307	0.385403	0.109035	
-0.261227	-0.0514885	0.117995	
-0.12546	0.0336645	0.0931586	
-0.152331	-0.0811942	0.14549	
-0.0957928	-0.0529556	0.0773873	
-0.2429	0.437035	0.152631	
-0.234922	0.307887	0.237464	
-0.213184	0.322526	0.106779	
-0.0810467	0.370121	0.206864	
-0.0974804	-0.267818	0.168751	
0.0390368	-0.27687	0.0931397	
0.0130711	-0.359241	0.13871	
-0.0562672	-0.401453	0.0877238	
-0.0509221	-0.120838	0.250106	
-0.0272885	-0.0825315	0.132744	
-0.10857	-0.188319	0.218241	
-0.0599463	-0.0498399	0.20415	
-0.0974804	-0.267818	0.168751	
-0.183468	-0.187607	0.160733	
-0.162023	-0.339511	0.25028	
-0.10857	-0.188319	0.218241	
-0.385896	0.317937	0.065638	
-0.259032	0.225769	0.154918	
-0.318983	0.261743	0	
-0.213184	0.322526	0.106779	
-0.0509221	-0.120838	0.250106	
-0.0369979	-0.193764	0.104577	
-0.0272885	-0.0825315	0.132744	
-0.00830008	-0.198671	0.244345	
0.07775	0.0966917	0.259619	
0.139502	0.248001	0.286243	
0.096294	0.191774	0.363276	
0.162344	0.134607	0.350934	
-0.364452	0.121056	0.219309	
-0.385327	0.0355064	0.11322	
-0.361082	-0.0385179	0.234803	
-0.406264	0.0467051	0.292816	
0.221044	-0.17499	0.5	
0.273873	-0.116111	0.41418	
0.165128	-0.182854	0.433186	
0.182789	-0.109466	0.430518	
0.450285	0.217356	0.355302	
0.476114	0.152694	0.40246	
0.439458	0.238488	0.424308	
0.316151	0.221929	0.385283	
0.0486433	-0.215998	0.178276	
0.162218	-0.333858	0.109166	
0.155319	-0.32739	0.22804	
0.0390368	-0.27687	0.0931397	
0.00155464	-0.188347	0.5	
-0.0829946	-0.232421	0.403465	
0.0645865	-0.210943	0.409687	
0.000597841	-0.287345	0.400747	
0.0594834	0.18279	0.5	
0.096294	0.191774	0.363276	
0.118461	0.161044	0.5	
0.10136	0.102523	0.406019	
0.259808	0.15	0.5	
0.316151	0.221929	0.385283	
0.308042	0.167631	0.5	
0.228063	0.102246	0.400094	
0.328092	0.270243	0	
0.337502	0.1652	0.112737	
0.386505	0.317197	0.0688254	
0.227449	0.293019	0.0951933	
0.0966642	-0.131711	0.5	
0.0645865	-0.210943	0.409687	
0.0583087	-0.173273	0.5	
0.00727488	-0.125574	0.43338	
0.092572	-0.0674004	0.167448	
0.163856	-0.062131	0.265284	
0.254347	-0.100565	0.163493	
0.189715	-0.00503075	0.168338	
0.07775	0.0966917	0.259619	
0.186062	0.10988	0.269638	
0.139502	0.248001	0.286243	
0.162344	0.134607	0.350934	
0.351628	0.0194463	0.154597	
0.340356	0.131144	0.231324	
0.493389	0.0810399	0.14715	
0.391187	0.0843667	0.0902296	
0.450285	0.217356	0.355302	
0.470916	0.168043	0.300126	
0.324629	0.108316	0.364447	
0.329012	0.224405	0.280196	
0.00365932	0.104584	0.5	
0.0535528	0.0702068	0.5	
-0.00654379	0.0500762	0.5	
0.0101256	0.127322	0.41346	
-0.0790952	0.0620487	0.41859	
0.00171532	0.0670635	0.305226	
0.0293798	0.0426018	0.391106	
0.0015496	-0.0106233	0.342921	
0.386505	0.317197	0.0688254	
0.337502	0.1652	0.112737	
0.266139	0.241799	0.177649	
0.227449	0.293019	0.0951933	
0.07775	0.0966917	0.259619	
0.0884767	-0.000375704	0.258795	
0.0694446	0.0614041	0.127763	
0.125478	0.130999	0.17652	
-0.0974804	-0.267818	0.168751	
-0.0638367	-0.295761	0	
0.0390368	-0.27687	0.0931397	
-0.0562672	-0.401453	0.0877238	
-0.257824	-0.4284	0.204976	
-0.162023	-0.339511	0.25028	
-0.230549	-0.284648	0.130866	
-0.285188	-0.256019	0.23904	
0.0594834	0.18279	0.5	
0.017794	0.149684	0.5	
-0.00447954	0.190881	0.5	
0.0101256	0.127322	0.41346	
-0.0507575	0.0878249	0.5	
0.00365932	0.104584	0.5	
-0.00654379	0.0500762	0.5	
0.0101256	0.127322	0.41346	
-0.385896	0.317937	0.065638	
-0.259032	0.225769	0.154918	
-0.436811	0.243302	0.0936268	
-0.326028	0.142215	0.11299	
-0.230549	-0.284648	0.130866	
-0.285188	-0.256019	0.23904	
-0.162023	-0.339511	0.25028	
-0.183468	-0.187607	0.160733	
-0.107964	-0.347419	0.364155	
-0.162023	-0.339511	0.25028	
-0.0741769	-0.222661	0.29905	
-0.0510822	-0.382345	0.237039	
0.264667	-0.00226535	0.295846	
0.163856	-0.062131	0.265284	
0.254347	-0.100565	0.163493	
0.249365	-0.119116	0.299613	
-0.317163	0.386533	0.299742	
-0.222708	0.258636	0.344999	
-0.256554	0.429162	0.331268	
-0.281262	0.296575	0.411781	
-0.15	0.259808	0.5	
-0.0948532	0.245573	0.374875	
-0.1997	0.206062	0.414424	
-0.173891	0.340446	0.398741	
-0.212951	-0.0278954	0.307934	
-0.166197	0.012686	0.395566	
-0.115691	-0.0468978	0.268322	
-0.12302	0.073304	0.350874	
-0.0426444	0.431636	0.5	
0.042537	0.432039	0.5	
2.23198e-17	0.373746	0.5	
0.0365945	0.375424	0.376008	
-0.192123	0.259903	0.5	
-0.1997	0.206062	0.414424	
-0.249565	0.273325	0.5	
-0.281262	0.296575	0.411781	
0.210156	-0.0147965	0	
0.189715	-0.00503075	0.168338	
0.165336	0.0617817	0.0970708	
0.0773506	-0.0233693	0.0836206	
-0.259032	0.225769	0.154918	
-0.364452	0.121056	0.219309	
-0.428104	0.258315	0.196896	
-0.326028	0.142215	0.11299	
0.0966642	-0.131711	0.5	
0.0936941	-0.0576924	0.420616	
0.120744	-0.0747732	0.5	
0.182789	-0.109466	0.430518	
-0.26105	0.203399	0	
-0.259032	0.225769	0.154918	
-0.326028	0.142215	0.11299	
-0.215195	0.0857371	0.0917705	
-0.5	0	0.2	
-0.385327	0.0355064	0.11322	
-0.364452	0.121056	0.219309	
-0.406264	0.0467051	0.292816	
-0.128142	0.132022	0.124103	
-0.159007	0.150563	0.248955	
-0.255792	0.140946	0.214728	
-0.107039	0.0995618	0.201757	
-0.212951	-0.0278954	0.307934	
-0.115691	-0.0468978	0.268322	
-0.104233	0.0522254	0.274426	
-0.12302	0.073304	0.350874	
0.210156	-0.0147965	0	
0.164655	-0.11934	0.10185	
0.189715	-0.00503075	0.168338	
0.0773506	-0.0233693	0.0836206	
0.254347	-0.100565	0.163493	
0.163856	-0.062131	0.265284	
0.264667	-0.00226535	0.295846	
0.27082	0.0310537	0.205694	
0.0694446	0.0614041	0.127763	
0.125478	0.130999	0.17652	
0.0884767	-0.000375704	0.258795	
0.172939	0.0245765	0.250039	
0.232997	-0.11062	0	
0.254347	-0.100565	0.163493	
0.245477	-0.191651	0	
0.313473	-0.209952	0.12238	
0.155716	-0.12147	0.5	
0.139746	-0.170777	0.5	
0.0966642	-0.131711	0.5	
0.165128	-0.182854	0.433186	
0.176544	-0.0644028	0.5	
0.0936941	-0.0576924	0.420616	
0.209772	-0.0539676	0.386967	
0.182789	-0.109466	0.430518	
0.254347	-0.100565	0.163493	
0.189715	-0.00503075	0.168338	
0.163856	-0.062131	0.265284	
0.27082	0.0310537	0.205694	
0.274666	-0.249265	0.5	
0.260383	-0.192244	0.5	
0.304695	-0.194694	0.5	
0.213897	-0.237657	0.431435	
0.165128	-0.182854	0.275544	
0.18433	-0.220573	0.141371	
0.0851242	-0.244368	0.268286	
0.113524	-0.1522	0.202868	
-0.128142	0.132022	0.124103	
-0.255792	0.140946	0.214728	
-0.169854	0.0238988	0.185748	
-0.107039	0.0995618	0.201757	
0.165128	-0.182854	0.275544	
0.155319	-0.32739	0.22804	
0.18433	-0.220573	0.141371	
0.227664	-0.175808	0.20875	
0.07775	0.0966917	0.259619	
0.139502	0.248001	0.286243	
0.186062	0.10988	0.269638	
0.0586412	0.17223	0.217492	
0.0486433	-0.215998	0.178276	
0.0544868	-0.141962	0.103859	
0.18433	-0.220573	0.141371	
0.0390368	-0.27687	0.0931397	
0.0694446	0.0614041	0.127763	
0.0884767	-0.000375704	0.258795	
0.189715	-0.00503075	0.168338	
0.172939	0.0245765	0.250039	
-0.0974804	-0.267818	0.168751	
-0.0741769	-0.222661	0.29905	
-0.162023	-0.339511	0.25028	
-0.00981402	-0.289236	0.206945	
-0.259032	0.225769	0.154918	
-0.255792	0.140946	0.214728	
-0.128142	0.132022	0.124103	
-0.114496	0.199368	0.185093	
-0.128142	0.132022	0.124103	
-0.255792	0.140946	0.214728	
-0.159007	0.150563	0.248955	
-0.114496	0.199368	0.185093	
-0.0741769	-0.222661	0.29905	
-0.0510822	-0.382345	0.237039	
-0.162023	-0.339511	0.25028	
-0.00981402	-0.289236	0.206945	
0.254347	-0.100565	0.163493	
0.092572	-0.0674004	0.167448	
0.164655	-0.11934	0.10185	
0.113524	-0.1522	0.202868	
-0.5	0	0.2	
-0.361082	-0.0385179	0.234803	
-0.385327	0.0355064	0.11322	
-0.406264	0.0467051	0.292816	
-0.0509221	-0.120838	0.250106	
-0.10857	-0.188319	0.218241	
-0.0369979	-0.193764	0.104577	
-0.00830008	-0.198671	0.244345	
-0.211369	-0.0761151	0	
-0.261227	-0.0514885	0.117995	
-0.152331	-0.0811942	0.14549	
-0.0957928	-0.0529556	0.0773873	
-0.285188	-0.256019	0.23904	
-0.352865	-0.168551	0.27433	
-0.288349	-0.269581	0.401233	
-0.253263	-0.173914	0.276528	
0.260383	-0.192244	0.5	
0.221044	-0.17499	0.5	
0.236451	-0.193336	0.377474	
0.213897	-0.237657	0.431435	
0.092572	-0.0674004	0.167448	
0.189715	-0.00503075	0.168338	
0.0694446	0.0614041	0.127763	
0.0884767	-0.000375704	0.258795	
0.07775	0.0966917	0.259619	
0.096294	0.191774	0.363276	
0.139502	0.248001	0.286243	
0.0586412	0.17223	0.217492	
-0.142648	-0.00714059	0	
-0.12546	0.0336645	0.0931586	
-0.261227	-0.0514885	0.117995	
-0.0957928	-0.0529556	0.0773873	
0.493378	-0.0811073	0.146993	
0.34942	-0.0723305	0.238193	
0.351628	0.0194463	0.154597	
0.369564	-0.0975027	0.118883	
-0.256554	0.429162	0.331268	
-0.234922	0.307887	0.237464	
-0.132465	0.342544	0.286862	
-0.173891	0.340446	0.398741	
-0.162023	-0.339511	0.25028	
-0.285188	-0.256019	0.23904	
-0.257824	-0.4284	0.204976	
-0.243234	-0.318297	0.307228	
0.0609049	0.128365	0.5	
0.0594834	0.18279	0.5	
0.118461	0.161044	0.5	
0.10136	0.102523	0.406019	
-0.0497612	-0.177788	0.5	
-0.00915007	-0.159584	0.370443	
-0.0829946	-0.232421	0.403465	
-0.0688906	-0.12049	0.417622	
-0.082983	0.493066	0.348347	
-0.073553	0.38985	0.391066	
-0.132465	0.342544	0.286862	
0.000988831	0.396472	0.255648	
0.18433	-0.220573	0.141371	
0.0544868	-0.141962	0.103859	
0.0943468	-0.245334	0	
0.0390368	-0.27687	0.0931397	
0.236451	-0.193336	0.377474	
0.304682	-0.199557	0.252634	
0.165128	-0.182854	0.275544	
0.249365	-0.119116	0.299613	
-0.317163	0.386533	0.299742	
-0.222708	0.258636	0.344999	
-0.373696	0.332191	0.334057	
-0.234922	0.307887	0.237464	
0.118461	0.161044	0.5	
0.199563	0.20121	0.405215	
0.096294	0.191774	0.363276	
0.130242	0.253849	0.414889	
-0.056943	0.120887	0.354229	
-0.0948532	0.245573	0.374875	
0.00464373	0.231373	0.403957	
0.0133811	0.178278	0.293393	
-0.0509221	-0.120838	0.250106	
-0.0272885	-0.0825315	0.132744	
-0.0369979	-0.193764	0.104577	
-0.10857	-0.188319	0.218241	
0.236451	-0.193336	0.377474	
0.165128	-0.182854	0.275544	
0.304682	-0.199557	0.252634	
0.224653	-0.281756	0.300179	
-0.2429	0.437035	0.152631	
-0.213184	0.322526	0.106779	
-0.0809307	0.385403	0.109035	
-0.0810467	0.370121	0.206864	
-0.169854	0.0238988	0.185748	
-0.255792	0.140946	0.214728	
-0.159007	0.150563	0.248955	
-0.107039	0.0995618	0.201757	
-0.386792	-0.316847	0.301384	
-0.288349	-0.269581	0.401233	
-0.285188	-0.256019	0.23904	
-0.352865	-0.168551	0.27433	
0.112799	-0.33356	0	
0.125573	-0.41396	0	
0.162218	-0.333858	0.109166	
0.104159	-0.395278	0.16544	
0.5	0	0.2	
0.351628	0.0194463	0.154597	
0.493378	-0.0811073	0.146993	
0.34942	-0.0723305	0.238193	
0.0293798	0.0426018	0.391106	
-0.0790952	0.0620487	0.41859	
-0.056943	0.120887	0.354229	
0.00171532	0.0670635	0.305226	
-0.00915007	-0.159584	0.370443	
0.0645865	-0.210943	0.409687	
-0.0829946	-0.232421	0.403465	
0.000597841	-0.287345	0.400747	
0.236451	-0.193336	0.377474	
0.165128	-0.182854	0.433186	
0.221044	-0.17499	0.5	
0.273873	-0.116111	0.41418	
0.493012	-0.0833019	0.344789	
0.34942	-0.0723305	0.238193	
0.347622	-0.102783	0.358549	
0.379606	0.0327687	0.28854	
0.165128	-0.182854	0.275544	
0.18433	-0.220573	0.141371	
0.155319	-0.32739	0.22804	
0.0851242	-0.244368	0.268286	
-0.194694	0.304695	0.5	
-0.173891	0.340446	0.398741	
-0.192123	0.259903	0.5	
-0.281262	0.296575	0.411781	
0.155319	-0.32739	0.22804	
0.0390368	-0.27687	0.0931397	
0.162218	-0.333858	0.109166	
0.104159	-0.395278	0.16544	
0.18433	-0.220573	0.141371	
0.164655	-0.11934	0.10185	
0.164797	-0.177585	0	
0.0544868	-0.141962	0.103859	
0.128497	-0.139894	0.387724	
0.0936941	-0.0576924	0.420616	
0.0966642	-0.131711	0.5	
0.182789	-0.109466	0.430518	
0.096294	0.191774	0.363276	
0.0101256	0.127322	0.41346	
0.0594834	0.18279	0.5	
0.00464373	0.231373	0.403957	
-0.115841	0.288513	0.162892	
-0.00455509	0.289048	0.289048	
-0.082138	0.218948	0.273339	
0.0266006	0.259074	0.200021	
-0.317163	0.386533	0.299742	
-0.256554	0.429162	0.331268	
-0.222708	0.258636	0.344999	
-0.234922	0.307887	0.237464	
-0.138674	0.323797	0	
-0.115841	0.288513	0.162892	
-0.0555676	0.325574	0	
-0.0809307	0.385403	0.109035	
-0.142736	-0.147946	0.384212	
-0.149626	-0.106257	0.5	
-0.0921341	-0.0472882	0.428822	
-0.143954	-0.0664954	0.366375	
0.0093178	-0.302179	0.302179	
-0.0510822	-0.382345	0.237039	
-0.0741769	-0.222661	0.29905	
-0.00981402	-0.289236	0.206945	
0.316151	0.221929	0.385283	
0.230141	0.201516	0.310453	
0.24627	0.285293	0.404112	
0.329012	0.224405	0.280196	
0.232997	-0.11062	0	
0.254347	-0.100565	0.163493	
0.313791	-0.154465	0	
0.268679	-0.0175832	0.0938256	
-0.149626	-0.106257	0.5	
-0.0688906	-0.12049	0.417622	
-0.142736	-0.147946	0.384212	
-0.0921341	-0.0472882	0.428822	
-0.212951	-0.0278954	0.307934	
-0.115691	-0.0468978	0.268322	
-0.166197	0.012686	0.395566	
-0.143954	-0.0664954	0.366375	
0.112799	-0.33356	0	
0.0404524	-0.41072	0	
0.125573	-0.41396	0	
0.104159	-0.395278	0.16544	
-0.0555676	0.325574	0	
-0.138674	0.323797	0	
-0.119993	0.246691	0	
-0.115841	0.288513	0.162892	
0.169238	0.138503	0.5	
0.10136	0.102523	0.406019	
0.199563	0.20121	0.405215	
0.162344	0.134607	0.350934	
-0.377032	0.3284	0.243217	
-0.304187	0.215745	0.266633	
-0.259032	0.225769	0.154918	
-0.234922	0.307887	0.237464	
-0.0510822	-0.382345	0.237039	
0.0676693	-0.388009	0.271914	
0.0093178	-0.302179	0.302179	
-0.0295129	-0.397696	0.405297	
0.0486433	-0.215998	0.178276	
0.18433	-0.220573	0.141371	
0.155319	-0.32739	0.22804	
0.162218	-0.333858	0.109166	
0.490343	0.0977967	0.241226	
0.493389	0.0810399	0.14715	
0.351628	0.0194463	0.154597	
0.340356	0.131144	0.231324	
0.254347	-0.100565	0.163493	
0.369564	-0.0975027	0.118883	
0.313791	-0.154465	0	
0.268679	-0.0175832	0.0938256	
-0.188087	-0.23341	0.313651	
-0.0741769	-0.222661	0.29905	
-0.162023	-0.339511	0.25028	
-0.10857	-0.188319	0.218241	
-0.468495	-0.174678	0.182891	
-0.372622	-0.0844629	0.11881	
-0.283975	-0.144274	0.184102	
-0.323408	-0.220518	0.107073	
0.0365945	0.375424	0.376008	
0.103925	0.350791	0.253756	
0.174678	0.468495	0.317109	
0.117226	0.368857	0.420345	
-0.0272885	-0.0825315	0.132744	
-0.0369979	-0.193764	0.104577	
0.0486433	-0.215998	0.178276	
-0.00830008	-0.198671	0.244345	
-0.257824	-0.4284	0.204976	
-0.230549	-0.284648	0.130866	
-0.331632	-0.374193	0.165357	
-0.285188	-0.256019	0.23904	
0.00155464	-0.188347	0.5	
0.0645865	-0.210943	0.409687	
-0.00915007	-0.159584	0.370443	
0.00727488	-0.125574	0.43338	
-0.056943	0.120887	0.354229	
-0.0948532	0.245573	0.374875	
0.0133811	0.178278	0.293393	
-0.082138	0.218948	0.273339	
-0.38078	0.324048	0.150149	
-0.259032	0.225769	0.154918	
-0.385896	0.317937	0.065638	
-0.213184	0.322526	0.106779	
-0.152331	-0.0811942	0.14549	
-0.10857	-0.188319	0.218241	
-0.0272885	-0.0825315	0.132744	
-0.0599463	-0.0498399	0.20415	
-0.259808	0.2	0.5	
-0.1997	0.206062	0.414424	
-0.321766	0.212706	0.386222	
-0.281262	0.296575	0.411781	
0.18433	-0.220573	0.141371	
0.162218	-0.333858	0.109166	
0.0486433	-0.215998	0.178276	
0.0390368	-0.27687	0.0931397	
-0.188087	-0.23341	0.313651	
-0.188087	-0.23341	0.408968	
-0.107964	-0.347419	0.364155	
-0.0829946	-0.232421	0.403465	
-0.3	7.34788e-17	0.5	
-0.246202	-0.043412	0.5	
-0.34365	-0.0208645	0.382522	
-0.259226	0.03952	0.402729	
0.0420691	0.427134	0	
0.0704482	0.495012	0.0718447	
0	0.5	0.1	
0.0214814	0.353326	0.153644	
-0.168688	-0.281701	0	
-0.230549	-0.284648	0.130866	
-0.0974804	-0.267818	0.168751	
-0.127253	-0.156126	0.0844713	
0.092572	-0.0674004	0.167448	
0.0884767	-0.000375704	0.258795	
0.0694446	0.0614041	0.127763	
0.0244504	-0.00702123	0.176751	
0.259808	0.15	0.5	
0.259073	0.206972	0.5	
0.308042	0.167631	0.5	
0.316151	0.221929	0.385283	
-0.493378	0.0811073	0.146993	
-0.364452	0.121056	0.219309	
-0.5	0	0.2	
-0.385327	0.0355064	0.11322	
-0.115841	0.288513	0.162892	
-0.0809307	0.385403	0.109035	
-0.213184	0.322526	0.106779	
-0.0810467	0.370121	0.206864	
0.470916	0.168043	0.300126	
0.340356	0.131144	0.231324	
0.324629	0.108316	0.364447	
0.329012	0.224405	0.280196	
0.0854359	-0.0267855	0.5	
0.0376566	-0.0505847	0.5	
0.0454237	0.00960241	0.5	
0.0936941	-0.0576924	0.420616	
0.0420691	0.427134	0	
0.0214814	0.353326	0.153644	
0.114055	0.374109	0	
0.145858	0.357927	0.135369	
-0.128142	0.132022	0.124103	
-0.255792	0.140946	0.214728	
-0.259032	0.225769	0.154918	
-0.215195	0.0857371	0.0917705	
-0.0507575	0.0878249	0.5	
0.0101256	0.127322	0.41346	
-0.00654379	0.0500762	0.5	
-0.0238699	0.0158197	0.434577	
0.0376566	-0.0505847	0.5	
0.00473146	-0.0477129	0.410326	
0.0454237	0.00960241	0.5	
0.0936941	-0.0576924	0.420616	
0.374193	0.331632	0.334643	
0.24627	0.285293	0.404112	
0.233262	0.310813	0.267062	
0.329012	0.224405	0.280196	
-0.0198097	0.25642	0.112647	
-0.170195	0.225746	0.0963396	
-0.128142	0.132022	0.124103	
-0.114496	0.199368	0.185093	
-0.436811	0.243302	0.0936268	
-0.259032	0.225769	0.154918	
-0.428104	0.258315	0.196896	
-0.326028	0.142215	0.11299	
0.0376566	-0.0505847	0.5	
0.0936941	-0.0576924	0.420616	
0.0733876	-0.0824124	0.5	
0.00727488	-0.125574	0.43338	
0.373696	-0.332191	0.334057	
0.304682	-0.199557	0.252634	
0.377032	-0.3284	0.243217	
0.224653	-0.281756	0.300179	
-0.0974804	-0.267818	0.168751	
-0.0369979	-0.193764	0.104577	
-0.0925337	-0.196451	0	
-0.127253	-0.156126	0.0844713	
-0.0810399	-0.493389	0.35285	
-0.0510822	-0.382345	0.237039	
-0.107964	-0.347419	0.364155	
-0.0295129	-0.397696	0.405297	
0.409478	-0.032947	0	
0.5	0	0.1	
0.351628	0.0194463	0.154597	
0.369564	-0.0975027	0.118883	
-0.386792	-0.316847	0.301384	
-0.288349	-0.269581	0.401233	
-0.352865	-0.168551	0.27433	
-0.354384	-0.194129	0.402587	
-0.281583	-0.139061	0.36108	
-0.288349	-0.269581	0.401233	
-0.352865	-0.168551	0.27433	
-0.253263	-0.173914	0.276528	
-0.00455509	0.289048	0.289048	
-0.132465	0.342544	0.286862	
-0.0948532	0.245573	0.374875	
-0.0433744	0.307825	0.417357	
-0.00915007	-0.159584	0.370443	
0.0565057	-0.147787	0.277794	
-0.0509221	-0.120838	0.250106	
-0.0145446	-0.0833015	0.323221	
-0.468495	-0.174678	0.182891	
-0.283975	-0.144274	0.184102	
-0.372622	-0.0844629	0.11881	
-0.352865	-0.168551	0.27433	
0.300884	0.198715	0	
0.337502	0.1652	0.112737	
0.328092	0.270243	0	
0.227449	0.293019	0.0951933	
-0.0732624	-0.0235498	0.355778	
0.00171532	0.0670635	0.305226	
-0.104233	0.0522254	0.274426	
-0.12302	0.073304	0.350874	
-0.429146	-0.25658	0.16876	
-0.352865	-0.168551	0.27433	
-0.285188	-0.256019	0.23904	
-0.323408	-0.220518	0.107073	
0.245477	-0.191651	0	
0.18433	-0.220573	0.141371	
0.313473	-0.209952	0.12238	
0.164655	-0.11934	0.10185	
0.493012	-0.0833019	0.344789	
0.379606	0.0327687	0.28854	
0.347622	-0.102783	0.358549	
0.392021	-0.0480463	0.41747	
-0.416747	0.276265	0.362548	
-0.373696	0.332191	0.334057	
-0.321766	0.212706	0.386222	
-0.373924	0.17948	0.316585	
0.0535528	0.0702068	0.5	
0.0293798	0.0426018	0.391106	
-0.00654379	0.0500762	0.5	
0.0101256	0.127322	0.41346	
-0.125	0.216506	0.5	
-0.1997	0.206062	0.414424	
-0.0948532	0.245573	0.374875	
-0.168013	0.159183	0.440667	
-0.0638367	-0.295761	0	
-0.0925337	-0.196451	0	
-0.0974804	-0.267818	0.168751	
-0.0369979	-0.193764	0.104577	
0.163856	-0.062131	0.265284	
0.113524	-0.1522	0.202868	
0.254347	-0.100565	0.163493	
0.227664	-0.175808	0.20875	
-0.211369	-0.0761151	0	
-0.142648	-0.00714059	0	
-0.261227	-0.0514885	0.117995	
-0.0957928	-0.0529556	0.0773873	
0.0454237	0.00960241	0.5	
0.0936941	-0.0576924	0.420616	
0.00473146	-0.0477129	0.410326	
0.102443	0.0227629	0.419717	
-0.119993	0.246691	0	
-0.0983601	0.156434	0	
-0.0198097	0.25642	0.112647	
-0.170195	0.225746	0.0963396	
-0.00455509	0.289048	0.289048	
-0.115841	0.288513	0.162892	
-0.082138	0.218948	0.273339	
-0.0810467	0.370121	0.206864	
-0.128142	0.132022	0.124103	
-0.170195	0.225746	0.0963396	
-0.259032	0.225769	0.154918	
-0.114496	0.199368	0.185093	
-0.318983	0.261743	0	
-0.385896	0.317937	0.065638	
-0.436811	0.243302	0.0936268	
-0.326028	0.142215	0.11299	
0.169426	0.205971	0.5	
0.169238	0.138503	0.5	
0.118461	0.161044	0.5	
0.199563	0.20121	0.405215	
-0.278498	0.0524484	0.16694	
-0.261227	-0.0514885	0.117995	
-0.237047	0.0201392	0	
-0.215195	0.0857371	0.0917705	
0.230141	0.201516	0.310453	
0.316151	0.221929	0.385283	
0.199563	0.20121	0.405215	
0.228063	0.102246	0.400094	
0.113524	-0.1522	0.202868	
0.0255949	-0.0865848	0.221929	
0.0565057	-0.147787	0.277794	
0.118937	-0.109877	0.313008	
-0.0790952	0.0620487	0.41859	
0.0015496	-0.0106233	0.342921	
0.0293798	0.0426018	0.391106	
-0.0238699	0.0158197	0.434577	
-0.259808	0.2	0.5	
-0.321766	0.212706	0.386222	
-0.303998	0.231686	0.5	
-0.281262	0.296575	0.411781	
0.163856	-0.062131	0.265284	
0.0255949	-0.0865848	0.221929	
0.113524	-0.1522	0.202868	
0.118937	-0.109877	0.313008	
-0.119993	0.246691	0	
-0.0555676	0.325574	0	
-0.115841	0.288513	0.162892	
-0.0198097	0.25642	0.112647	
-0.285188	-0.256019	0.23904	
-0.352865	-0.168551	0.27433	
-0.283975	-0.144274	0.184102	
-0.323408	-0.220518	0.107073	
0.313791	-0.154465	0	
0.254347	-0.100565	0.163493	
0.232997	-0.11062	0	
0.313473	-0.209952	0.12238	
-0.230549	-0.284648	0.130866	
-0.162023	-0.339511	0.25028	
-0.0974804	-0.267818	0.168751	
-0.183468	-0.187607	0.160733	
0.0694446	0.0614041	0.127763	
0.189715	-0.00503075	0.168338	
0.125478	0.130999	0.17652	
0.172939	0.0245765	0.250039	
-0.125	0.216506	0.5	
-0.0948532	0.245573	0.374875	
-0.112789	0.14207	0.41726	
-0.168013	0.159183	0.440667	
-0.0426444	0.431636	0.5	
0.0365945	0.375424	0.376008	
2.23198e-17	0.373746	0.5	
-0.073553	0.38985	0.391066	
0.409478	-0.032947	0	
0.351628	0.0194463	0.154597	
0.5	0	0.1	
0.391187	0.0843667	0.0902296	
-0.2429	0.437035	0.152631	
-0.16873	0.47067	0.201799	
-0.234922	0.307887	0.237464	
-0.0810467	0.370121	0.206864	
-0.373696	0.332191	0.334057	
-0.222708	0.258636	0.344999	
-0.317163	0.386533	0.299742	
-0.281262	0.296575	0.411781	
0.0486433	-0.215998	0.178276	
0.0544868	-0.141962	0.103859	
-0.0272885	-0.0825315	0.132744	
0.0255949	-0.0865848	0.221929	
-0.132465	0.342544	0.286862	
-0.234922	0.307887	0.237464	
-0.16873	0.47067	0.201799	
-0.0810467	0.370121	0.206864	
0.416563	-0.126305	0.5	
0.326126	-0.135086	0.5	
0.366186	-0.0790357	0.5	
0.392021	-0.0480463	0.41747	
0.0454237	0.00960241	0.5	
0.00473146	-0.0477129	0.410326	
0.0293798	0.0426018	0.391106	
0.102443	0.0227629	0.419717	
-0.0259622	0.175651	0.191483	
-0.0198097	0.25642	0.112647	
-0.128142	0.132022	0.124103	
-0.114496	0.199368	0.185093	
0.0807477	0.493437	0.154224	
0.0214814	0.353326	0.153644	
0.103925	0.350791	0.253756	
0.000988831	0.396472	0.255648	
-0.328716	-0.376757	0.253532	
-0.257824	-0.4284	0.204976	
-0.285188	-0.256019	0.23904	
-0.243234	-0.318297	0.307228	
-0.159007	0.150563	0.248955	
-0.259032	0.225769	0.154918	
-0.173354	0.242294	0.26617	
-0.114496	0.199368	0.185093	
-0.0974804	-0.267818	0.168751	
-0.0638367	-0.295761	0	
-0.0369979	-0.193764	0.104577	
0.0390368	-0.27687	0.0931397	
-0.192123	0.259903	0.5	
-0.249565	0.273325	0.5	
-0.194694	0.304695	0.5	
-0.281262	0.296575	0.411781	
-0.138674	0.323797	0	
-0.119993	0.246691	0	
-0.115841	0.288513	0.162892	
-0.170195	0.225746	0.0963396	
0.164757	0.31504	0.3626	
0.174678	0.468495	0.317109	
0.103925	0.350791	0.253756	
0.117226	0.368857	0.420345	
-0.0555676	0.325574	0	
-0.115841	0.288513	0.162892	
-0.0198097	0.25642	0.112647	
-0.0809307	0.385403	0.109035	
0.0682711	-0.052186	0.339077	
0.0255949	-0.0865848	0.221929	
0.0884767	-0.000375704	0.258795	
0.118937	-0.109877	0.313008	
0.308042	0.167631	0.5	
0.316151	0.221929	0.385283	
0.324629	0.108316	0.364447	
0.228063	0.102246	0.400094	
0.0884767	-0.000375704	0.258795	
0.0255949	-0.0865848	0.221929	
0.163856	-0.062131	0.265284	
0.118937	-0.109877	0.313008	
0.128689	-0.272515	0.368277	
0.155319	-0.32739	0.22804	
0.194286	-0.353827	0.369459	
0.0676693	-0.388009	0.271914	
0.0949827	-0.187358	0.5	
0.128497	-0.139894	0.387724	
0.0966642	-0.131711	0.5	
0.165128	-0.182854	0.433186	
0.0949827	-0.187358	0.5	
0.0966642	-0.131711	0.5	
0.139746	-0.170777	0.5	
0.165128	-0.182854	0.433186	
-0.5	0	0.4	
-0.34365	-0.0208645	0.382522	
-0.495012	-0.0704482	0.428155	
-0.387326	-0.108791	0.360005	
-0.289778	-0.0776457	0.5	
-0.34365	-0.0208645	0.382522	
-0.281583	-0.139061	0.36108	
-0.387326	-0.108791	0.360005	
-0.169854	0.0238988	0.185748	
-0.255792	0.140946	0.214728	
-0.128142	0.132022	0.124103	
-0.215195	0.0857371	0.0917705	
0.0420691	0.427134	0	
0.114055	0.374109	0	
0.0704482	0.495012	0.0718447	
0.145858	0.357927	0.135369	
0.0093178	-0.302179	0.302179	
0.0851242	-0.244368	0.268286	
0.128689	-0.272515	0.368277	
0.0676693	-0.388009	0.271914	
0.416563	-0.126305	0.5	
0.326126	-0.135086	0.5	
0.347622	-0.102783	0.358549	
0.340228	-0.209884	0.396212	
0.125573	-0.41396	0	
0.0404524	-0.41072	0	
0.0704474	-0.495012	0.0718449	
0.104159	-0.395278	0.16544	
0.07775	0.0966917	0.259619	
0.096294	0.191774	0.363276	
0.0133811	0.178278	0.293393	
0.0522467	0.122489	0.34166	
-0.259032	0.225769	0.154918	
-0.159007	0.150563	0.248955	
-0.255792	0.140946	0.214728	
-0.114496	0.199368	0.185093	
-0.26105	0.203399	0	
-0.18644	0.1823	0	
-0.170195	0.225746	0.0963396	
-0.215195	0.0857371	0.0917705	
0.092572	-0.0674004	0.167448	
0.189715	-0.00503075	0.168338	
0.254347	-0.100565	0.163493	
0.164655	-0.11934	0.10185	
0.0943468	-0.245334	0	
0.18433	-0.220573	0.141371	
0.164797	-0.177585	0	
0.0544868	-0.141962	0.103859	
-0.328716	-0.376757	0.253532	
-0.257824	-0.4284	0.204976	
-0.331632	-0.374193	0.165357	
-0.285188	-0.256019	0.23904	
0	-0.5	0.3	
0.0676693	-0.388009	0.271914	
-0.0510822	-0.382345	0.237039	
-0.0295129	-0.397696	0.405297	
-0.056943	0.120887	0.354229	
0.00464373	0.231373	0.403957	
-0.0948532	0.245573	0.374875	
-0.0473335	0.163087	0.434501	
0.247023	-0.434718	0.250558	
0.224653	-0.281756	0.300179	
0.155319	-0.32739	0.22804	
0.194286	-0.353827	0.369459	
0.470916	0.168043	0.300126	
0.324629	0.108316	0.364447	
0.340356	0.131144	0.231324	
0.379606	0.0327687	0.28854	
-0.281583	-0.139061	0.36108	
-0.352865	-0.168551	0.27433	
-0.288349	-0.269581	0.401233	
-0.354384	-0.194129	0.402587	
-0.259032	0.225769	0.154918	
-0.115841	0.288513	0.162892	
-0.173354	0.242294	0.26617	
-0.114496	0.199368	0.185093	
-0.26105	0.203399	0	
-0.259032	0.225769	0.154918	
-0.318983	0.261743	0	
-0.326028	0.142215	0.11299	
-0.476132	0.152637	0.402329	
-0.450312	0.217299	0.354112	
-0.321766	0.212706	0.386222	
-0.373924	0.17948	0.316585	
-0.259808	0.2	0.5	
-0.321766	0.212706	0.386222	
-0.1997	0.206062	0.414424	
-0.266336	0.143871	0.409139	
-0.00800179	-0.0152081	0.261913	
0.00171532	0.0670635	0.305226	
-0.0732624	-0.0235498	0.355778	
0.0015496	-0.0106233	0.342921	
-0.5	0	0.4	
-0.493437	-0.0807477	0.345776	
-0.34365	-0.0208645	0.382522	
-0.387326	-0.108791	0.360005	
-0.171353	-0.469721	0.338334	
-0.162023	-0.339511	0.25028	
-0.107964	-0.347419	0.364155	
-0.0510822	-0.382345	0.237039	
-0.056943	0.120887	0.354229	
0.00464373	0.231373	0.403957	
0.0101256	0.127322	0.41346	
0.0133811	0.178278	0.293393	
-0.188087	-0.23341	0.313651	
-0.0741769	-0.222661	0.29905	
-0.107964	-0.347419	0.364155	
-0.162023	-0.339511	0.25028	
-0.246202	-0.043412	0.5	
-0.34365	-0.0208645	0.382522	
-0.259226	0.03952	0.402729	
-0.214222	-0.0809482	0.409057	
-0.385896	0.317937	0.065638	
-0.38078	0.324048	0.150149	
-0.436811	0.243302	0.0936268	
-0.259032	0.225769	0.154918	
-0.188087	-0.23341	0.313651	
-0.107964	-0.347419	0.364155	
-0.0741769	-0.222661	0.29905	
-0.0829946	-0.232421	0.403465	
-0.0259622	0.175651	0.191483	
-0.128142	0.132022	0.124103	
-0.0198097	0.25642	0.112647	
-0.0250996	0.111886	0.106171	
0.0814864	0.493315	0.347681	
0.103925	0.350791	0.253756	
0.0365945	0.375424	0.376008	
0.000988831	0.396472	0.255648	
-0.0741769	-0.222661	0.29905	
-0.0829946	-0.232421	0.403465	
-0.107964	-0.347419	0.364155	
0.000597841	-0.287345	0.400747	
-0.186407	-0.169451	0	
-0.230549	-0.284648	0.130866	
-0.183468	-0.187607	0.160733	
-0.243673	-0.146253	0.0931104	
-0.0295403	0.225144	0	
-0.0198097	0.25642	0.112647	
-0.0983601	0.156434	0	
-0.0250996	0.111886	0.106171	
0.164757	0.31504	0.3626	
0.103925	0.350791	0.253756	
0.0365945	0.375424	0.376008	
0.117226	0.368857	0.420345	
-0.217356	-0.450285	0.144698	
-0.277785	-0.415735	0.134138	
-0.257824	-0.4284	0.204976	
-0.1449	-0.36257	0.121022	
-0.289778	-0.0776457	0.5	
-0.281583	-0.139061	0.36108	
-0.34365	-0.0208645	0.382522	
-0.214222	-0.0809482	0.409057	
-0.318983	0.261743	0	
-0.26105	0.203399	0	
-0.214341	0.273759	0	
-0.259032	0.225769	0.154918	
0.490343	0.0977967	0.241226	
0.340356	0.131144	0.231324	
0.351628	0.0194463	0.154597	
0.379606	0.0327687	0.28854	
0.242822	0.437078	0.152991	
0.233262	0.310813	0.267062	
0.145858	0.357927	0.135369	
0.227449	0.293019	0.0951933	
0.471122	-0.167464	0.300106	
0.347622	-0.102783	0.358549	
0.34942	-0.0723305	0.238193	
0.373857	-0.180895	0.313411	
0.300884	0.198715	0	
0.191109	0.195644	0.106001	
0.337502	0.1652	0.112737	
0.227449	0.293019	0.0951933	
0.0776457	0.289778	0.5	
5.51091e-17	0.3	0.5	
0.0365945	0.375424	0.376008	
0.0691737	0.285591	0.353708	
0.132817	-0.364062	0.5	
0.0776457	-0.289778	0.5	
0.128689	-0.272515	0.368277	
0.0667135	-0.376589	0.379415	
0.0949827	-0.187358	0.5	
0.0966642	-0.131711	0.5	
0.128497	-0.139894	0.387724	
0.0645865	-0.210943	0.409687	
-0.082138	0.218948	0.273339	
0.0266006	0.259074	0.200021	
-0.0259622	0.175651	0.191483	
-0.114496	0.199368	0.185093	
-0.0638367	-0.295761	0	
-0.0974804	-0.267818	0.168751	
-0.1449	-0.36257	0.121022	
-0.0562672	-0.401453	0.0877238	
0.0486433	-0.215998	0.178276	
0.0851242	-0.244368	0.268286	
0.18433	-0.220573	0.141371	
0.113524	-0.1522	0.202868	
0.00155464	-0.188347	0.5	
-0.043412	-0.246202	0.5	
-0.0829946	-0.232421	0.403465	
0.000597841	-0.287345	0.400747	
0.0093178	-0.302179	0.302179	
-0.107964	-0.347419	0.364155	
-0.0510822	-0.382345	0.237039	
-0.0295129	-0.397696	0.405297	
-0.00455509	0.289048	0.289048	
-0.073553	0.38985	0.391066	
-0.132465	0.342544	0.286862	
-0.0433744	0.307825	0.417357	
-0.0507575	0.0878249	0.5	
-0.0790952	0.0620487	0.41859	
0.0101256	0.127322	0.41346	
-0.0238699	0.0158197	0.434577	
-0.361082	-0.0385179	0.234803	
-0.372622	-0.0844629	0.11881	
-0.283975	-0.144274	0.184102	
-0.352865	-0.168551	0.27433	
0.0153159	0.363557	0	
0.114055	0.374109	0	
0.0420691	0.427134	0	
0.0214814	0.353326	0.153644	
-0.128142	0.132022	0.124103	
-0.259032	0.225769	0.154918	
-0.170195	0.225746	0.0963396	
-0.215195	0.0857371	0.0917705	
-0.00455509	0.289048	0.289048	
0.0266006	0.259074	0.200021	
-0.115841	0.288513	0.162892	
-0.0810467	0.370121	0.206864	
-0.132465	0.342544	0.286862	
-0.073553	0.38985	0.391066	
-0.00455509	0.289048	0.289048	
0.000988831	0.396472	0.255648	
0.346509	0.0237889	0	
0.369564	-0.0975027	0.118883	
0.351628	0.0194463	0.154597	
0.268679	-0.0175832	0.0938256	
0.189715	-0.00503075	0.168338	
0.164655	-0.11934	0.10185	
0.210156	-0.0147965	0	
0.268679	-0.0175832	0.0938256	
-0.278498	0.0524484	0.16694	
-0.385327	0.0355064	0.11322	
-0.337562	0.0547633	0	
-0.261227	-0.0514885	0.117995	
0.242822	0.437078	0.152991	
0.316847	0.386792	0.198616	
0.233262	0.310813	0.267062	
0.227449	0.293019	0.0951933	
0.112799	-0.33356	0	
0.0130711	-0.359241	0.13871	
0.0404524	-0.41072	0	
0.104159	-0.395278	0.16544	
-0.468495	-0.174678	0.182891	
-0.372622	-0.0844629	0.11881	
-0.361082	-0.0385179	0.234803	
-0.352865	-0.168551	0.27433	
-0.115841	0.288513	0.162892	
0.0266006	0.259074	0.200021	
-0.082138	0.218948	0.273339	
-0.114496	0.199368	0.185093	
0.416747	-0.276265	0.362548	
0.373696	-0.332191	0.334057	
0.340228	-0.209884	0.396212	
0.373857	-0.180895	0.313411	
0.0776457	0.289778	0.5	
0.00464373	0.231373	0.403957	
5.51091e-17	0.3	0.5	
0.0691737	0.285591	0.353708	
-0.0974804	-0.267818	0.168751	
-0.162023	-0.339511	0.25028	
-0.0741769	-0.222661	0.29905	
-0.10857	-0.188319	0.218241	
0.264667	-0.00226535	0.295846	
0.254347	-0.100565	0.163493	
0.34942	-0.0723305	0.238193	
0.249365	-0.119116	0.299613	
-0.152331	-0.0811942	0.14549	
-0.0272885	-0.0825315	0.132744	
-0.10857	-0.188319	0.218241	
-0.127253	-0.156126	0.0844713	
0.469721	0.171353	0.161666	
0.493389	0.0810399	0.14715	
0.340356	0.131144	0.231324	
0.391187	0.0843667	0.0902296	
-0.38078	0.324048	0.150149	
-0.259032	0.225769	0.154918	
-0.377032	0.3284	0.243217	
-0.304187	0.215745	0.266633	
-0.428104	0.258315	0.196896	
-0.259032	0.225769	0.154918	
-0.38078	0.324048	0.150149	
-0.304187	0.215745	0.266633	
-0.0810399	-0.493389	0.35285	
0	-0.5	0.3	
-0.0510822	-0.382345	0.237039	
-0.0295129	-0.397696	0.405297	
-0.277785	-0.415735	0.134138	
-0.230549	-0.284648	0.130866	
-0.257824	-0.4284	0.204976	
-0.1449	-0.36257	0.121022	
-0.0948532	0.245573	0.374875	
-0.082138	0.218948	0.273339	
-0.056943	0.120887	0.354229	
-0.125784	0.172859	0.335584	
0.0101256	0.127322	0.41346	
0.00464373	0.231373	0.403957	
-0.056943	0.120887	0.354229	
-0.0473335	0.163087	0.434501	
0.128689	-0.272515	0.368277	
0.0851242	-0.244368	0.268286	
0.155319	-0.32739	0.22804	
0.0676693	-0.388009	0.271914	
0.169238	0.138503	0.5	
0.199563	0.20121	0.405215	
0.228063	0.102246	0.400094	
0.162344	0.134607	0.350934	
0.169238	0.138503	0.5	
0.228063	0.102246	0.400094	
0.10136	0.102523	0.406019	
0.162344	0.134607	0.350934	
0.103925	0.350791	0.253756	
0.145858	0.357927	0.135369	
0.247057	0.434698	0.250499	
0.233262	0.310813	0.267062	
-0.0732624	-0.0235498	0.355778	
0.0015496	-0.0106233	0.342921	
-0.0790952	0.0620487	0.41859	
-0.0238699	0.0158197	0.434577	
0.409478	-0.032947	0	
0.351628	0.0194463	0.154597	
0.346509	0.0237889	0	
0.369564	-0.0975027	0.118883	
-0.0776457	0.289778	0.5	
-0.15	0.259808	0.5	
-0.135086	0.326126	0.5	
-0.0948532	0.245573	0.374875	
-0.188087	-0.23341	0.313651	
-0.183468	-0.187607	0.160733	
-0.285188	-0.256019	0.23904	
-0.253263	-0.173914	0.276528	
0.128689	-0.272515	0.368277	
0.194286	-0.353827	0.369459	
0.0667135	-0.376589	0.379415	
0.0676693	-0.388009	0.271914	
0.471122	-0.167464	0.300106	
0.347622	-0.102783	0.358549	
0.493012	-0.0833019	0.344789	
0.34942	-0.0723305	0.238193	
0.224653	-0.281756	0.300179	
0.262155	-0.286798	0.192405	
0.155319	-0.32739	0.22804	
0.227664	-0.175808	0.20875	
-0.110253	-0.0221958	0.5	
-0.13896	0.0197163	0.5	
-0.0790952	0.0620487	0.41859	
-0.0921341	-0.0472882	0.428822	
0.0454237	0.00960241	0.5	
0.0293798	0.0426018	0.391106	
0.00473146	-0.0477129	0.410326	
-0.0238699	0.0158197	0.434577	
0.0667135	-0.376589	0.379415	
0.0093178	-0.302179	0.302179	
0.0676693	-0.388009	0.271914	
-0.0295129	-0.397696	0.405297	
0.07775	0.0966917	0.259619	
0.0133811	0.178278	0.293393	
0.096294	0.191774	0.363276	
0.0586412	0.17223	0.217492	
-0.0509221	-0.120838	0.250106	
-0.171623	-0.128704	0.255156	
-0.115691	-0.0468978	0.268322	
-0.0599463	-0.0498399	0.20415	
-0.289778	-0.0776457	0.5	
-0.3	7.34788e-17	0.5	
-0.246202	-0.043412	0.5	
-0.34365	-0.0208645	0.382522	
-0.188087	-0.23341	0.313651	
-0.288349	-0.269581	0.401233	
-0.188087	-0.23341	0.408968	
-0.246996	-0.178452	0.424102	
-0.214222	-0.0809482	0.409057	
-0.0921341	-0.0472882	0.428822	
-0.149626	-0.106257	0.5	
-0.143954	-0.0664954	0.366375	
-0.138674	0.323797	0	
-0.213184	0.322526	0.106779	
-0.115841	0.288513	0.162892	
-0.0809307	0.385403	0.109035	
0.164757	0.31504	0.3626	
0.103925	0.350791	0.253756	
0.174678	0.468495	0.317109	
0.233262	0.310813	0.267062	
0.155319	-0.32739	0.22804	
0.18433	-0.220573	0.141371	
0.0486433	-0.215998	0.178276	
0.0851242	-0.244368	0.268286	
-0.428104	0.258315	0.196896	
-0.436811	0.243302	0.0936268	
-0.38078	0.324048	0.150149	
-0.259032	0.225769	0.154918	
0.254347	-0.100565	0.163493	
0.313473	-0.209952	0.12238	
0.313791	-0.154465	0	
0.369564	-0.0975027	0.118883	
-0.00800179	-0.0152081	0.261913	
-0.104233	0.0522254	0.274426	
-0.0732624	-0.0235498	0.355778	
0.00171532	0.0670635	0.305226	
-0.2429	0.437035	0.152631	
-0.0809307	0.385403	0.109035	
-0.16873	0.47067	0.201799	
-0.0810467	0.370121	0.206864	
0.428195	0.258165	0.201755	
0.340356	0.131144	0.231324	
0.266139	0.241799	0.177649	
0.337502	0.1652	0.112737	
0.0943468	-0.245334	0	
0.162218	-0.333858	0.109166	
0.18433	-0.220573	0.141371	
0.0390368	-0.27687	0.0931397	
-0.188087	-0.23341	0.313651	
-0.171623	-0.128704	0.255156	
-0.142736	-0.147946	0.384212	
-0.0795999	-0.137717	0.328283	
0.132817	-0.364062	0.5	
0.0667135	-0.376589	0.379415	
0.128689	-0.272515	0.368277	
0.194286	-0.353827	0.369459	
-0.495012	-0.0704482	0.428155	
-0.5	0	0.4	
-0.428192	0.000626804	0.5	
-0.34365	-0.0208645	0.382522	
-0.0509221	-0.120838	0.250106	
0.0565057	-0.147787	0.277794	
-0.00915007	-0.159584	0.370443	
-0.00830008	-0.198671	0.244345	
0.221044	-0.17499	0.5	
0.165128	-0.182854	0.433186	
0.236451	-0.193336	0.377474	
0.213897	-0.237657	0.431435	
0.316847	0.386792	0.198616	
0.266139	0.241799	0.177649	
0.233262	0.310813	0.267062	
0.227449	0.293019	0.0951933	
5.51091e-17	0.3	0.5	
0.0365945	0.375424	0.376008	
0.0691737	0.285591	0.353708	
-0.0433744	0.307825	0.417357	
-0.15	0.259808	0.5	
-0.135086	0.326126	0.5	
-0.0948532	0.245573	0.374875	
-0.173891	0.340446	0.398741	
-0.186407	-0.169451	0	
-0.183468	-0.187607	0.160733	
-0.230549	-0.284648	0.130866	
-0.127253	-0.156126	0.0844713	
0.0903521	0.10545	0	
0.158056	0.171884	0	
0.0596404	0.176022	0.113284	
0.165336	0.0617817	0.0970708	
5.51091e-17	0.3	0.5	
0.0691737	0.285591	0.353708	
0.00464373	0.231373	0.403957	
-0.0433744	0.307825	0.417357	
0.0093178	-0.302179	0.302179	
-0.0741769	-0.222661	0.29905	
-0.107964	-0.347419	0.364155	
0.000597841	-0.287345	0.400747	
-0.192742	-0.261282	0.5	
-0.194694	-0.304695	0.5	
-0.248409	-0.277977	0.5	
-0.188087	-0.23341	0.408968	
0.174678	0.468495	0.317109	
0.0365945	0.375424	0.376008	
0.0814864	0.493315	0.347681	
0.103925	0.350791	0.253756	
0.0376566	-0.0505847	0.5	
0.0733876	-0.0824124	0.5	
0.035935	-0.11426	0.5	
0.00727488	-0.125574	0.43338	
-0.476132	0.152637	0.402329	
-0.321766	0.212706	0.386222	
-0.37885	0.0751067	0.400181	
-0.373924	0.17948	0.316585	
-0.104233	0.0522254	0.274426	
0.00171532	0.0670635	0.305226	
-0.00800179	-0.0152081	0.261913	
0.00560742	0.0907829	0.203832	
0.18228	-0.160584	0.5	
0.221044	-0.17499	0.5	
0.165128	-0.182854	0.433186	
0.182789	-0.109466	0.430518	
0	0.5	0.4	
0.042537	0.432039	0.5	
-0.0426444	0.431636	0.5	
0.0365945	0.375424	0.376008	
-0.450312	0.217299	0.354112	
-0.439384	0.238625	0.423358	
-0.476132	0.152637	0.402329	
-0.321766	0.212706	0.386222	
0.254347	-0.100565	0.163493	
0.313473	-0.209952	0.12238	
0.18433	-0.220573	0.141371	
0.164655	-0.11934	0.10185	
-0.259808	0.2	0.5	
-0.249565	0.273325	0.5	
-0.1997	0.206062	0.414424	
-0.281262	0.296575	0.411781	
0.351628	0.0194463	0.154597	
0.34942	-0.0723305	0.238193	
0.5	0	0.2	
0.379606	0.0327687	0.28854	
0.0565057	-0.147787	0.277794	
0.0255949	-0.0865848	0.221929	
0.0682711	-0.052186	0.339077	
0.118937	-0.109877	0.313008	
0.158056	0.171884	0	
0.191109	0.195644	0.106001	
0.0596404	0.176022	0.113284	
0.165336	0.0617817	0.0970708	
0.450285	0.217356	0.355302	
0.316151	0.221929	0.385283	
0.415735	0.277785	0.365862	
0.329012	0.224405	0.280196	
-0.31037	0.174447	0.5	
-0.368394	0.141973	0.5	
-0.321766	0.212706	0.386222	
-0.266336	0.143871	0.409139	
0.266139	0.241799	0.177649	
0.340356	0.131144	0.231324	
0.428195	0.258165	0.201755	
0.329012	0.224405	0.280196	
0.386505	0.317197	0.0688254	
0.380873	0.323938	0.152261	
0.266139	0.241799	0.177649	
0.337502	0.1652	0.112737	
0.236451	-0.193336	0.377474	
0.304682	-0.199557	0.252634	
0.249365	-0.119116	0.299613	
0.373857	-0.180895	0.313411	
-0.188087	-0.23341	0.313651	
-0.281583	-0.139061	0.36108	
-0.288349	-0.269581	0.401233	
-0.246996	-0.178452	0.424102	
0.0776457	-0.289778	0.5	
0.128689	-0.272515	0.368277	
0.0667135	-0.376589	0.379415	
0.000597841	-0.287345	0.400747	
0.259808	0.15	0.5	
0.216156	0.175607	0.5	
0.259073	0.206972	0.5	
0.199563	0.20121	0.405215	
0.096294	0.191774	0.363276	
0.00464373	0.231373	0.403957	
0.0594834	0.18279	0.5	
0.130242	0.253849	0.414889	
0.209772	-0.0539676	0.386967	
0.102443	0.0227629	0.419717	
0.0936941	-0.0576924	0.420616	
0.202719	0.0237767	0.420412	
0.139502	0.248001	0.286243	
0.196123	0.185647	0.211614	
0.186062	0.10988	0.269638	
0.0586412	0.17223	0.217492	
-0.389036	0.207425	0	
-0.318983	0.261743	0	
-0.436811	0.243302	0.0936268	
-0.326028	0.142215	0.11299	
-0.138674	0.323797	0	
-0.115841	0.288513	0.162892	
-0.213184	0.322526	0.106779	
-0.170195	0.225746	0.0963396	
-0.0509221	-0.120838	0.250106	
-0.00915007	-0.159584	0.370443	
-0.0145446	-0.0833015	0.323221	
-0.0795999	-0.137717	0.328283	
-0.303998	0.231686	0.5	
-0.259808	0.2	0.5	
-0.31037	0.174447	0.5	
-0.321766	0.212706	0.386222	
0.164757	0.31504	0.3626	
0.233262	0.310813	0.267062	
0.25658	0.429146	0.33124	
0.24627	0.285293	0.404112	
-0.186407	-0.169451	0	
-0.243673	-0.146253	0.0931104	
-0.183468	-0.187607	0.160733	
-0.127253	-0.156126	0.0844713	
0.176544	-0.0644028	0.5	
0.136333	-0.0203798	0.5	
0.209772	-0.0539676	0.386967	
0.0936941	-0.0576924	0.420616	
-0.115841	0.288513	0.162892	
-0.119993	0.246691	0	
-0.0198097	0.25642	0.112647	
-0.170195	0.225746	0.0963396	
0.313791	-0.154465	0	
0.232997	-0.11062	0	
0.245477	-0.191651	0	
0.313473	-0.209952	0.12238	
0.0807477	0.493437	0.154224	
0.103925	0.350791	0.253756	
0.0214814	0.353326	0.153644	
0.145858	0.357927	0.135369	
0.493378	-0.0811073	0.146993	
0.351628	0.0194463	0.154597	
0.5	0	0.1	
0.369564	-0.0975027	0.118883	
0.0936941	-0.0576924	0.420616	
0.102443	0.0227629	0.419717	
0.209772	-0.0539676	0.386967	
0.14698	-0.0404502	0.339975	
0.017794	0.149684	0.5	
0.0594834	0.18279	0.5	
0.0609049	0.128365	0.5	
0.0101256	0.127322	0.41346	
-0.212951	-0.0278954	0.307934	
-0.169854	0.0238988	0.185748	
-0.104233	0.0522254	0.274426	
-0.115691	-0.0468978	0.268322	
0.233262	0.310813	0.267062	
0.24627	0.285293	0.404112	
0.230141	0.201516	0.310453	
0.329012	0.224405	0.280196	
-0.368394	0.141973	0.5	
-0.476132	0.152637	0.402329	
-0.439384	0.238625	0.423358	
-0.321766	0.212706	0.386222	
-0.222708	0.258636	0.344999	
-0.1997	0.206062	0.414424	
-0.0948532	0.245573	0.374875	
-0.173891	0.340446	0.398741	
-0.00455509	0.289048	0.289048	
-0.073553	0.38985	0.391066	
0.0365945	0.375424	0.376008	
0.000988831	0.396472	0.255648	
-0.142648	-0.00714059	0	
-0.237047	0.0201392	0	
-0.261227	-0.0514885	0.117995	
-0.12546	0.0336645	0.0931586	
-0.315029	-0.388274	0.0791933	
-0.263582	-0.319413	0	
-0.331361	-0.272953	0	
-0.323408	-0.220518	0.107073	
-0.082983	0.493066	0.348347	
-0.132465	0.342544	0.286862	
-0.0853821	0.492656	0.251348	
0.000988831	0.396472	0.255648	
-0.0925337	-0.196451	0	
-0.168688	-0.281701	0	
-0.0974804	-0.267818	0.168751	
-0.127253	-0.156126	0.0844713	
0.264667	-0.00226535	0.295846	
0.228063	0.102246	0.400094	
0.155785	0.045673	0.353105	
0.202719	0.0237767	0.420412	
-0.00455509	0.289048	0.289048	
0.00464373	0.231373	0.403957	
-0.0948532	0.245573	0.374875	
0.0133811	0.178278	0.293393	
0.166469	-0.308164	0.5	
0.231749	-0.30504	0.5	
0.194286	-0.353827	0.369459	
0.213897	-0.237657	0.431435	
-0.495012	-0.0704482	0.428155	
-0.34365	-0.0208645	0.382522	
-0.428192	0.000626804	0.5	
-0.387326	-0.108791	0.360005	
-0.00455509	0.289048	0.289048	
0.0133811	0.178278	0.293393	
-0.0948532	0.245573	0.374875	
-0.082138	0.218948	0.273339	
-0.373696	0.332191	0.334057	
-0.304187	0.215745	0.266633	
-0.321766	0.212706	0.386222	
-0.373924	0.17948	0.316585	
-0.237047	0.0201392	0	
-0.278498	0.0524484	0.16694	
-0.337562	0.0547633	0	
-0.261227	-0.0514885	0.117995	
-0.288349	-0.269581	0.401233	
-0.188087	-0.23341	0.313651	
-0.243234	-0.318297	0.307228	
-0.253263	-0.173914	0.276528	
0.0293798	0.0426018	0.391106	
0.0101256	0.127322	0.41346	
0.0535528	0.0702068	0.5	
0.10136	0.102523	0.406019	
0.0807477	0.493437	0.154224	
0.0214814	0.353326	0.153644	
0.0704482	0.495012	0.0718447	
0.145858	0.357927	0.135369	
-0.175601	0.220525	0.5	
-0.192123	0.259903	0.5	
-0.15	0.259808	0.5	
-0.1997	0.206062	0.414424	
0.0776457	-0.289778	0.5	
0.166469	-0.308164	0.5	
0.132817	-0.364062	0.5	
0.128689	-0.272515	0.368277	
0.0776457	-0.289778	0.5	
0.0645865	-0.210943	0.409687	
0.128689	-0.272515	0.368277	
0.000597841	-0.287345	0.400747	
0.377032	-0.3284	0.243217	
0.224653	-0.281756	0.300179	
0.304682	-0.199557	0.252634	
0.262155	-0.286798	0.192405	
-0.356684	-0.19351	0	
-0.41072	-0.12459	0	
-0.444481	-0.228991	0.0919014	
-0.372622	-0.0844629	0.11881	
-0.428192	0.000626804	0.5	
-0.34365	-0.0208645	0.382522	
-0.361276	-0.0455918	0.5	
-0.387326	-0.108791	0.360005	
0.264667	-0.00226535	0.295846	
0.307169	-0.0101791	0.393725	
0.228063	0.102246	0.400094	
0.202719	0.0237767	0.420412	
-0.0790357	-0.366186	0.5	
-0.107964	-0.347419	0.364155	
-0.0776457	-0.289778	0.5	
-0.0295129	-0.397696	0.405297	
0.416563	-0.126305	0.5	
0.375572	-0.195731	0.5	
0.326126	-0.135086	0.5	
0.340228	-0.209884	0.396212	
-0.289778	-0.0776457	0.5	
-0.361276	-0.0455918	0.5	
-0.34365	-0.0208645	0.382522	
-0.387326	-0.108791	0.360005	
0.174678	0.468495	0.317109	
0.0814864	0.493315	0.347681	
0.0365945	0.375424	0.376008	
0.117226	0.368857	0.420345	
-0.26105	0.203399	0	
-0.214341	0.273759	0	
-0.259032	0.225769	0.154918	
-0.170195	0.225746	0.0963396	
0.132817	-0.364062	0.5	
0.128689	-0.272515	0.368277	
0.166469	-0.308164	0.5	
0.194286	-0.353827	0.369459	
0.470916	0.168043	0.300126	
0.493012	0.0833019	0.344789	
0.324629	0.108316	0.364447	
0.379606	0.0327687	0.28854	
0.236451	-0.193336	0.377474	
0.249365	-0.119116	0.299613	
0.347622	-0.102783	0.358549	
0.373857	-0.180895	0.313411	
0.128689	-0.272515	0.368277	
0.165128	-0.182854	0.433186	
0.15	-0.259808	0.5	
0.213897	-0.237657	0.431435	
-0.222708	0.258636	0.344999	
-0.1997	0.206062	0.414424	
-0.321766	0.212706	0.386222	
-0.266336	0.143871	0.409139	
-0.0369979	-0.193764	0.104577	
-0.10857	-0.188319	0.218241	
-0.0272885	-0.0825315	0.132744	
-0.127253	-0.156126	0.0844713	
0.364062	0.132817	0.5	
0.324629	0.108316	0.364447	
0.308042	0.167631	0.5	
0.316151	0.221929	0.385283	
0.092572	-0.0674004	0.167448	
0.113524	-0.1522	0.202868	
0.163856	-0.062131	0.265284	
0.0255949	-0.0865848	0.221929	
0.374193	0.331632	0.334643	
0.317206	0.386498	0.299678	
0.233262	0.310813	0.267062	
0.24627	0.285293	0.404112	
-0.00455509	0.289048	0.289048	
0.139502	0.248001	0.286243	
0.0133811	0.178278	0.293393	
0.0266006	0.259074	0.200021	
-0.110253	-0.0221958	0.5	
-0.0790952	0.0620487	0.41859	
-0.0705177	0.0247142	0.5	
-0.0921341	-0.0472882	0.428822	
0.324629	0.108316	0.364447	
0.379606	0.0327687	0.28854	
0.493012	0.0833019	0.344789	
0.400259	0.0398147	0.391942	
0.155319	-0.32739	0.22804	
0.224653	-0.281756	0.300179	
0.247023	-0.434718	0.250558	
0.262155	-0.286798	0.192405	
-0.104233	0.0522254	0.274426	
-0.169854	0.0238988	0.185748	
-0.212951	-0.0278954	0.307934	
-0.221879	0.0747178	0.286107	
-0.238488	-0.439458	0.0756919	
-0.315029	-0.388274	0.0791933	
-0.277785	-0.415735	0.134138	
-0.230549	-0.284648	0.130866	
-0.289778	-0.0776457	0.5	
-0.34365	-0.0208645	0.382522	
-0.246202	-0.043412	0.5	
-0.214222	-0.0809482	0.409057	
0.25658	0.429146	0.33124	
0.164757	0.31504	0.3626	
0.174678	0.468495	0.317109	
0.233262	0.310813	0.267062	
0.128689	-0.272515	0.368277	
0.165128	-0.182854	0.275544	
0.224653	-0.281756	0.300179	
0.0851242	-0.244368	0.268286	
-0.194694	0.304695	0.5	
-0.15	0.259808	0.5	
-0.192123	0.259903	0.5	
-0.173891	0.340446	0.398741	
0.228991	0.444481	0.408099	
0.195731	0.375572	0.5	
0.164757	0.31504	0.3626	
0.24627	0.285293	0.404112	
-0.125	0.216506	0.5	
-0.15	0.259808	0.5	
-0.0948532	0.245573	0.374875	
-0.1997	0.206062	0.414424	
-0.212951	-0.0278954	0.307934	
-0.104233	0.0522254	0.274426	
-0.221879	0.0747178	0.286107	
-0.12302	0.073304	0.350874	
-0.188087	-0.23341	0.313651	
-0.0741769	-0.222661	0.29905	
-0.171623	-0.128704	0.255156	
-0.0795999	-0.137717	0.328283	
0	0.5	0.2	
-0.0809307	0.385403	0.109035	
0.0214814	0.353326	0.153644	
-0.0810467	0.370121	0.206864	
-0.159007	0.150563	0.248955	
-0.259032	0.225769	0.154918	
-0.255792	0.140946	0.214728	
-0.173354	0.242294	0.26617	
0.236451	-0.193336	0.377474	
0.340228	-0.209884	0.396212	
0.304682	-0.199557	0.252634	
0.373857	-0.180895	0.313411	
-0.308042	-0.167631	0.5	
-0.289778	-0.0776457	0.5	
-0.259808	-0.15	0.5	
-0.246996	-0.178452	0.424102	
0.228991	0.444481	0.408099	
0.270443	0.334367	0.5	
0.195731	0.375572	0.5	
0.24627	0.285293	0.404112	
-0.493378	0.0811073	0.146993	
-0.490316	0.0979281	0.24092	
-0.5	0	0.2	
-0.364452	0.121056	0.219309	
-0.361082	-0.0385179	0.234803	
-0.372622	-0.0844629	0.11881	
-0.5	0	0.2	
-0.385327	0.0355064	0.11322	
0.189715	-0.00503075	0.168338	
0.268679	-0.0175832	0.0938256	
0.210156	-0.0147965	0	
0.165336	0.0617817	0.0970708	
-0.00455509	0.289048	0.289048	
-0.082138	0.218948	0.273339	
-0.132465	0.342544	0.286862	
-0.0810467	0.370121	0.206864	
-0.00654379	0.0500762	0.5	
0.0101256	0.127322	0.41346	
0.0293798	0.0426018	0.391106	
-0.0238699	0.0158197	0.434577	
-0.0507575	0.0878249	0.5	
-0.0305981	0.141799	0.5	
0.00365932	0.104584	0.5	
0.0101256	0.127322	0.41346	
-0.337562	0.0547633	0	
-0.278498	0.0524484	0.16694	
-0.237047	0.0201392	0	
-0.215195	0.0857371	0.0917705	
-0.288349	-0.269581	0.401233	
-0.243234	-0.318297	0.307228	
-0.285188	-0.256019	0.23904	
-0.253263	-0.173914	0.276528	
0	0.5	0.3	
0.0365945	0.375424	0.376008	
-0.073553	0.38985	0.391066	
0.000988831	0.396472	0.255648	
-0.0638367	-0.295761	0	
-0.0925337	-0.196451	0	
-0.168688	-0.281701	0	
-0.0974804	-0.267818	0.168751	
-0.115841	0.288513	0.162892	
-0.234922	0.307887	0.237464	
-0.132465	0.342544	0.286862	
-0.0810467	0.370121	0.206864	
0.236451	-0.193336	0.377474	
0.347622	-0.102783	0.358549	
0.340228	-0.209884	0.396212	
0.373857	-0.180895	0.313411	
-0.125	0.216506	0.5	
-0.112789	0.14207	0.41726	
-0.0948532	0.245573	0.374875	
-0.0473335	0.163087	0.434501	
-0.476132	0.152637	0.402329	
-0.321766	0.212706	0.386222	
-0.368394	0.141973	0.5	
-0.37885	0.0751067	0.400181	
0.0776457	0.289778	0.5	
0.0691737	0.285591	0.353708	
0.0365945	0.375424	0.376008	
0.117226	0.368857	0.420345	
-0.0509221	-0.120838	0.250106	
-0.00915007	-0.159584	0.370443	
-0.0795999	-0.137717	0.328283	
-0.00830008	-0.198671	0.244345	
0.254347	-0.100565	0.163493	
0.264667	-0.00226535	0.295846	
0.34942	-0.0723305	0.238193	
0.27082	0.0310537	0.205694	
-0.0295403	0.225144	0	
-0.119993	0.246691	0	
-0.0983601	0.156434	0	
-0.0198097	0.25642	0.112647	
0.14072	-0.0839746	0	
0.164655	-0.11934	0.10185	
0.210156	-0.0147965	0	
0.0773506	-0.0233693	0.0836206	
0.0486433	-0.215998	0.178276	
0.155319	-0.32739	0.22804	
0.0851242	-0.244368	0.268286	
-0.00981402	-0.289236	0.206945	
-0.444481	-0.228991	0.0919014	
-0.41072	-0.12459	0	
-0.477948	-0.146853	0.0840084	
-0.372622	-0.0844629	0.11881	
-0.331632	-0.374193	0.165357	
-0.257824	-0.4284	0.204976	
-0.277785	-0.415735	0.134138	
-0.230549	-0.284648	0.130866	
0.346509	0.0237889	0	
0.351628	0.0194463	0.154597	
0.409478	-0.032947	0	
0.391187	0.0843667	0.0902296	
-0.0705177	0.0247142	0.5	
-0.110253	-0.0221958	0.5	
-0.13896	0.0197163	0.5	
-0.0790952	0.0620487	0.41859	
-0.0974804	-0.267818	0.168751	
-0.230549	-0.284648	0.130866	
-0.168688	-0.281701	0	
-0.1449	-0.36257	0.121022	
-0.043412	0.246202	0.5	
-0.067279	0.181403	0.5	
-0.125	0.216506	0.5	
-0.0473335	0.163087	0.434501	
0.0454237	0.00960241	0.5	
0.0854359	-0.0267855	0.5	
0.0936941	-0.0576924	0.420616	
0.102443	0.0227629	0.419717	
-0.142736	-0.147946	0.384212	
-0.214222	-0.0809482	0.409057	
-0.149626	-0.106257	0.5	
-0.143954	-0.0664954	0.366375	
-0.490316	0.0979281	0.24092	
-0.5	0	0.2	
-0.364452	0.121056	0.219309	
-0.406264	0.0467051	0.292816	
0.00155464	-0.188347	0.5	
-0.043412	-0.246202	0.5	
-0.0497612	-0.177788	0.5	
-0.0829946	-0.232421	0.403465	
0.416563	-0.126305	0.5	
0.347622	-0.102783	0.358549	
0.476132	-0.152637	0.402329	
0.340228	-0.209884	0.396212	
0.230141	0.201516	0.310453	
0.324629	0.108316	0.364447	
0.316151	0.221929	0.385283	
0.228063	0.102246	0.400094	
-0.159007	0.150563	0.248955	
-0.169854	0.0238988	0.185748	
-0.221879	0.0747178	0.286107	
-0.255792	0.140946	0.214728	
0.364062	0.132817	0.5	
0.324629	0.108316	0.364447	
0.476114	0.152694	0.40246	
0.400259	0.0398147	0.391942	
-0.318983	0.261743	0	
-0.259032	0.225769	0.154918	
-0.214341	0.273759	0	
-0.213184	0.322526	0.106779	
-0.115841	0.288513	0.162892	
-0.234922	0.307887	0.237464	
-0.259032	0.225769	0.154918	
-0.173354	0.242294	0.26617	
0.450285	0.217356	0.355302	
0.470916	0.168043	0.300126	
0.476114	0.152694	0.40246	
0.324629	0.108316	0.364447	
0.209772	-0.0539676	0.386967	
0.249365	-0.119116	0.299613	
0.264667	-0.00226535	0.295846	
0.307169	-0.0101791	0.393725	
-0.00654379	0.0500762	0.5	
0.0535528	0.0702068	0.5	
0.0454237	0.00960241	0.5	
0.0293798	0.0426018	0.391106	
-0.188087	-0.23341	0.313651	
-0.183468	-0.187607	0.160733	
-0.171623	-0.128704	0.255156	
-0.10857	-0.188319	0.218241	
0	0.5	0.1	
0.0214814	0.353326	0.153644	
0	0.5	0.2	
-0.0809307	0.385403	0.109035	
-0.16873	0.47067	0.201799	
-0.132465	0.342544	0.286862	
-0.247023	0.434718	0.250558	
-0.234922	0.307887	0.237464	
-0.317131	0.386559	0.0881616	
-0.38078	0.324048	0.150149	
-0.385896	0.317937	0.065638	
-0.213184	0.322526	0.106779	
0.096294	0.191774	0.363276	
0.0522467	0.122489	0.34166	
0.07775	0.0966917	0.259619	
0.162344	0.134607	0.350934	
0.209772	-0.0539676	0.386967	
0.249365	-0.119116	0.299613	
0.347622	-0.102783	0.358549	
0.273873	-0.116111	0.41418	
-0.168688	-0.281701	0	
-0.0638367	-0.295761	0	
-0.0974804	-0.267818	0.168751	
-0.1449	-0.36257	0.121022	
0.317206	0.386498	0.299678	
0.25658	0.429146	0.33124	
0.233262	0.310813	0.267062	
0.24627	0.285293	0.404112	
0.0293798	0.0426018	0.391106	
0.0101256	0.127322	0.41346	
-0.056943	0.120887	0.354229	
-0.0790952	0.0620487	0.41859	
-0.38078	0.324048	0.150149	
-0.377032	0.3284	0.243217	
-0.259032	0.225769	0.154918	
-0.234922	0.307887	0.237464	
-0.0555676	0.325574	0	
-0.0198097	0.25642	0.112647	
0.0214814	0.353326	0.153644	
-0.0809307	0.385403	0.109035	
0.0376566	-0.0505847	0.5	
0.00473146	-0.0477129	0.410326	
0.0936941	-0.0576924	0.420616	
0.00727488	-0.125574	0.43338	
0.194694	0.304695	0.5	
0.164757	0.31504	0.3626	
0.195731	0.375572	0.5	
0.24627	0.285293	0.404112	
-0.31037	0.174447	0.5	
-0.31598	0.119651	0.5	
-0.368394	0.141973	0.5	
-0.266336	0.143871	0.409139	
-0.132465	0.342544	0.286862	
-0.082138	0.218948	0.273339	
-0.115841	0.288513	0.162892	
-0.0810467	0.370121	0.206864	
-0.194694	-0.304695	0.5	
-0.188087	-0.23341	0.408968	
-0.15	-0.259808	0.5	
-0.206938	-0.33712	0.400053	
0.155319	-0.32739	0.22804	
0.262155	-0.286798	0.192405	
0.18433	-0.220573	0.141371	
0.227664	-0.175808	0.20875	
-0.152331	-0.0811942	0.14549	
-0.261227	-0.0514885	0.117995	
-0.169854	0.0238988	0.185748	
-0.12546	0.0336645	0.0931586	
-0.230549	-0.284648	0.130866	
-0.162023	-0.339511	0.25028	
-0.257824	-0.4284	0.204976	
-0.1449	-0.36257	0.121022	
0.259073	0.206972	0.5	
0.316151	0.221929	0.385283	
0.199563	0.20121	0.405215	
0.24627	0.285293	0.404112	
0.136333	-0.0203798	0.5	
0.209772	-0.0539676	0.386967	
0.0936941	-0.0576924	0.420616	
0.202719	0.0237767	0.420412	
0.0133811	0.178278	0.293393	
0.139502	0.248001	0.286243	
-0.00455509	0.289048	0.289048	
0.0691737	0.285591	0.353708	
0.0486433	-0.215998	0.178276	
-0.0369979	-0.193764	0.104577	
-0.0272885	-0.0825315	0.132744	
0.0544868	-0.141962	0.103859	
0.043412	0.246202	0.5	
0.0594834	0.18279	0.5	
0.00464373	0.231373	0.403957	
0.130242	0.253849	0.414889	
0.163856	-0.062131	0.265284	
0.0884767	-0.000375704	0.258795	
0.092572	-0.0674004	0.167448	
0.0255949	-0.0865848	0.221929	
0.5	0	0.1	
0.493378	-0.0811073	0.146993	
0.5	0	0.2	
0.351628	0.0194463	0.154597	
-0.259808	0.2	0.5	
-0.303998	0.231686	0.5	
-0.249565	0.273325	0.5	
-0.281262	0.296575	0.411781	
-0.331632	-0.374193	0.165357	
-0.285188	-0.256019	0.23904	
-0.230549	-0.284648	0.130866	
-0.323408	-0.220518	0.107073	
0.00155464	-0.188347	0.5	
0.0208735	-0.153224	0.5	
0.0645865	-0.210943	0.409687	
0.00727488	-0.125574	0.43338	
-0.493315	-0.0814864	0.152319	
-0.5	0	0.2	
-0.372622	-0.0844629	0.11881	
-0.385327	0.0355064	0.11322	
-0.0573721	0.0334812	0.170638	
-0.104233	0.0522254	0.274426	
-0.00800179	-0.0152081	0.261913	
0.00560742	0.0907829	0.203832	
-0.238488	-0.439458	0.0756919	
-0.230549	-0.284648	0.130866	
-0.277785	-0.415735	0.134138	
-0.1449	-0.36257	0.121022	
-0.259032	0.225769	0.154918	
-0.170195	0.225746	0.0963396	
-0.115841	0.288513	0.162892	
-0.114496	0.199368	0.185093	
-0.261227	-0.0514885	0.117995	
-0.12546	0.0336645	0.0931586	
-0.237047	0.0201392	0	
-0.215195	0.0857371	0.0917705	
0.191109	0.195644	0.106001	
0.125478	0.130999	0.17652	
0.0596404	0.176022	0.113284	
0.165336	0.0617817	0.0970708	
0.490343	0.0977967	0.241226	
0.493389	0.0810399	0.14715	
0.5	0	0.2	
0.351628	0.0194463	0.154597	
0.0404524	-0.41072	0	
0.0130711	-0.359241	0.13871	
0.0704474	-0.495012	0.0718449	
0.104159	-0.395278	0.16544	
-0.126305	-0.416563	0.5	
-0.135086	-0.326126	0.5	
-0.0790357	-0.366186	0.5	
-0.107964	-0.347419	0.364155	
0.270471	-0.290437	0.402527	
0.194286	-0.353827	0.369459	
0.231749	-0.30504	0.5	
0.213897	-0.237657	0.431435	
0.0093178	-0.302179	0.302179	
0.128689	-0.272515	0.368277	
0.0667135	-0.376589	0.379415	
0.0676693	-0.388009	0.271914	
-0.304187	0.215745	0.266633	
-0.364452	0.121056	0.219309	
-0.259032	0.225769	0.154918	
-0.255792	0.140946	0.214728	
-0.308042	-0.167631	0.5	
-0.281583	-0.139061	0.36108	
-0.289778	-0.0776457	0.5	
-0.246996	-0.178452	0.424102	
-0.372622	-0.0844629	0.11881	
-0.385327	0.0355064	0.11322	
-0.361082	-0.0385179	0.234803	
-0.261227	-0.0514885	0.117995	
0	0.5	0.4	
0.0365945	0.375424	0.376008	
-0.0426444	0.431636	0.5	
-0.073553	0.38985	0.391066	
0.165128	-0.182854	0.275544	
0.113524	-0.1522	0.202868	
0.163856	-0.062131	0.265284	
0.227664	-0.175808	0.20875	
0	-0.5	0.3	
0.0667135	-0.376589	0.379415	
0.0676693	-0.388009	0.271914	
-0.0295129	-0.397696	0.405297	
0.490343	0.0977967	0.241226	
0.351628	0.0194463	0.154597	
0.5	0	0.2	
0.379606	0.0327687	0.28854	
-0.248409	-0.277977	0.5	
-0.215641	-0.22714	0.5	
-0.192742	-0.261282	0.5	
-0.188087	-0.23341	0.408968	
-0.495012	-0.0704482	0.428155	
-0.428192	0.000626804	0.5	
-0.361276	-0.0455918	0.5	
-0.387326	-0.108791	0.360005	
-0.495012	-0.0704482	0.428155	
-0.361276	-0.0455918	0.5	
-0.419906	-0.0889586	0.5	
-0.387326	-0.108791	0.360005	
-0.331632	-0.374193	0.165357	
-0.386498	-0.317206	0.200322	
-0.285188	-0.256019	0.23904	
-0.323408	-0.220518	0.107073	
0.0609049	0.128365	0.5	
0.0535528	0.0702068	0.5	
0.0101256	0.127322	0.41346	
0.10136	0.102523	0.406019	
-0.468495	-0.174678	0.182891	
-0.493315	-0.0814864	0.152319	
-0.361082	-0.0385179	0.234803	
-0.372622	-0.0844629	0.11881	
-0.0732624	-0.0235498	0.355778	
0.00473146	-0.0477129	0.410326	
-0.0688906	-0.12049	0.417622	
-0.0145446	-0.0833015	0.323221	
-0.26105	0.203399	0	
-0.326028	0.142215	0.11299	
-0.257956	0.116321	0	
-0.215195	0.0857371	0.0917705	
0.0133811	0.178278	0.293393	
0.0266006	0.259074	0.200021	
0.139502	0.248001	0.286243	
0.0586412	0.17223	0.217492	
-0.192742	-0.261282	0.5	
-0.15	-0.259808	0.5	
-0.194694	-0.304695	0.5	
-0.188087	-0.23341	0.408968	
0.174738	-0.468473	0.317184	
0.247023	-0.434718	0.250558	
0.155319	-0.32739	0.22804	
0.194286	-0.353827	0.369459	
0.0807477	0.493437	0.154224	
0.103925	0.350791	0.253756	
0.0854243	0.492649	0.251403	
0.000988831	0.396472	0.255648	
-0.0328721	-0.370689	0	
0.0130711	-0.359241	0.13871	
0.0390368	-0.27687	0.0931397	
-0.0562672	-0.401453	0.0877238	
-0.188087	-0.23341	0.313651	
-0.288349	-0.269581	0.401233	
-0.281583	-0.139061	0.36108	
-0.253263	-0.173914	0.276528	
0.347622	-0.102783	0.358549	
0.307169	-0.0101791	0.393725	
0.209772	-0.0539676	0.386967	
0.273873	-0.116111	0.41418	
-0.169854	0.0238988	0.185748	
-0.12546	0.0336645	0.0931586	
-0.261227	-0.0514885	0.117995	
-0.215195	0.0857371	0.0917705	
0.0153159	0.363557	0	
0.0214814	0.353326	0.153644	
-0.0555676	0.325574	0	
-0.0198097	0.25642	0.112647	
-0.0807376	0.493438	0.154216	
-0.0809307	0.385403	0.109035	
0	0.5	0.2	
-0.0810467	0.370121	0.206864	
-0.166197	0.012686	0.395566	
-0.0790952	0.0620487	0.41859	
-0.13896	0.0197163	0.5	
-0.0921341	-0.0472882	0.428822	
-0.107964	-0.347419	0.364155	
-0.188087	-0.23341	0.408968	
-0.188087	-0.23341	0.313651	
-0.206938	-0.33712	0.400053	
-0.0974804	-0.267818	0.168751	
-0.162023	-0.339511	0.25028	
-0.0510822	-0.382345	0.237039	
-0.00981402	-0.289236	0.206945	
-0.149626	-0.106257	0.5	
-0.112672	-0.0704426	0.5	
-0.0688906	-0.12049	0.417622	
-0.0921341	-0.0472882	0.428822	
-0.149626	-0.106257	0.5	
-0.173205	-0.15	0.5	
-0.214222	-0.0809482	0.409057	
-0.167688	-0.179794	0.441452	
0.155319	-0.32739	0.22804	
0.174738	-0.468473	0.317184	
0.194286	-0.353827	0.369459	
0.0676693	-0.388009	0.271914	
0.0486433	-0.215998	0.178276	
0.0130711	-0.359241	0.13871	
-0.00981402	-0.289236	0.206945	
0.0390368	-0.27687	0.0931397	
0.246202	0.043412	0.5	
0.228063	0.102246	0.400094	
0.307169	-0.0101791	0.393725	
0.202719	0.0237767	0.420412	
-0.188087	-0.23341	0.313651	
-0.171623	-0.128704	0.255156	
-0.183468	-0.187607	0.160733	
-0.253263	-0.173914	0.276528	
-0.1997	0.206062	0.414424	
-0.173891	0.340446	0.398741	
-0.222708	0.258636	0.344999	
-0.281262	0.296575	0.411781	
-0.0555676	0.325574	0	
0.0214814	0.353326	0.153644	
0.0153159	0.363557	0	
-0.0809307	0.385403	0.109035	
0.236451	-0.193336	0.377474	
0.165128	-0.182854	0.433186	
0.273873	-0.116111	0.41418	
0.182789	-0.109466	0.430518	
-0.0776457	0.289778	0.5	
-0.0948532	0.245573	0.374875	
-0.135086	0.326126	0.5	
-0.0433744	0.307825	0.417357	
-0.0328721	-0.370689	0	
0.0390368	-0.27687	0.0931397	
-0.0638367	-0.295761	0	
-0.0562672	-0.401453	0.0877238	
0.155319	-0.32739	0.22804	
0.224653	-0.281756	0.300179	
0.165128	-0.182854	0.275544	
0.0851242	-0.244368	0.268286	
-0.188087	-0.23341	0.313651	
-0.142736	-0.147946	0.384212	
-0.0741769	-0.222661	0.29905	
-0.0795999	-0.137717	0.328283	
-0.142736	-0.147946	0.384212	
-0.188087	-0.23341	0.408968	
-0.246996	-0.178452	0.424102	
-0.203272	-0.117351	0.333128	
-0.372622	-0.0844629	0.11881	
-0.323408	-0.220518	0.107073	
-0.344127	-0.112227	0	
-0.243673	-0.146253	0.0931104	
-0.222708	0.258636	0.344999	
-0.1997	0.206062	0.414424	
-0.266336	0.143871	0.409139	
-0.230719	0.171576	0.307699	
-0.126305	-0.416563	0.5	
-0.107964	-0.347419	0.364155	
-0.0790357	-0.366186	0.5	
-0.0295129	-0.397696	0.405297	
-0.5	0	0.4	
-0.34365	-0.0208645	0.382522	
-0.406264	0.0467051	0.292816	
-0.37885	0.0751067	0.400181	
-0.159007	0.150563	0.248955	
-0.104233	0.0522254	0.274426	
-0.221879	0.0747178	0.286107	
-0.107039	0.0995618	0.201757	
-0.188087	-0.23341	0.313651	
-0.246996	-0.178452	0.424102	
-0.188087	-0.23341	0.408968	
-0.203272	-0.117351	0.333128	
-0.222708	0.258636	0.344999	
-0.132465	0.342544	0.286862	
-0.0948532	0.245573	0.374875	
-0.173354	0.242294	0.26617	
0.0903521	0.10545	0	
0.0596404	0.176022	0.113284	
0.0694446	0.0614041	0.127763	
0.165336	0.0617817	0.0970708	
-0.386792	-0.316847	0.301384	
-0.285188	-0.256019	0.23904	
-0.288349	-0.269581	0.401233	
-0.243234	-0.318297	0.307228	
-0.152331	-0.0811942	0.14549	
-0.115691	-0.0468978	0.268322	
-0.171623	-0.128704	0.255156	
-0.0599463	-0.0498399	0.20415	
-0.212951	-0.0278954	0.307934	
-0.221879	0.0747178	0.286107	
-0.166197	0.012686	0.395566	
-0.12302	0.073304	0.350874	
0.264667	-0.00226535	0.295846	
0.307169	-0.0101791	0.393725	
0.324629	0.108316	0.364447	
0.228063	0.102246	0.400094	
-0.493315	-0.0814864	0.152319	
-0.5	0	0.2	
-0.361082	-0.0385179	0.234803	
-0.372622	-0.0844629	0.11881	
-0.0934074	-0.183691	0.5	
-0.0688906	-0.12049	0.417622	
-0.0829946	-0.232421	0.403465	
-0.167688	-0.179794	0.441452	
0.191109	0.195644	0.106001	
0.165336	0.0617817	0.0970708	
0.247868	0.146306	0	
0.292412	0.0780179	0.101456	
-0.166197	0.012686	0.395566	
-0.221879	0.0747178	0.286107	
-0.185526	0.120318	0.373769	
-0.12302	0.073304	0.350874	
0.386505	0.317197	0.0688254	
0.266139	0.241799	0.177649	
0.380873	0.323938	0.152261	
0.227449	0.293019	0.0951933	
0.132817	-0.364062	0.5	
0.147585	-0.477722	0.416442	
0.0667135	-0.376589	0.379415	
0.194286	-0.353827	0.369459	
-0.0948532	0.245573	0.374875	
-0.132465	0.342544	0.286862	
-0.222708	0.258636	0.344999	
-0.173891	0.340446	0.398741	
0.00473146	-0.0477129	0.410326	
-0.0688906	-0.12049	0.417622	
-0.0156334	-0.0737433	0.5	
-0.0921341	-0.0472882	0.428822	
-0.278498	0.0524484	0.16694	
-0.361082	-0.0385179	0.234803	
-0.385327	0.0355064	0.11322	
-0.261227	-0.0514885	0.117995	
0.340356	0.131144	0.231324	
0.230141	0.201516	0.310453	
0.196123	0.185647	0.211614	
0.276243	0.0902748	0.286189	
0.120744	-0.0747732	0.5	
0.0936941	-0.0576924	0.420616	
0.176544	-0.0644028	0.5	
0.182789	-0.109466	0.430518	
-0.188087	-0.23341	0.313651	
-0.142736	-0.147946	0.384212	
-0.188087	-0.23341	0.408968	
-0.0829946	-0.232421	0.403465	
0.0733876	-0.0824124	0.5	
0.120744	-0.0747732	0.5	
0.0966642	-0.131711	0.5	
0.0936941	-0.0576924	0.420616	
0.0776457	-0.289778	0.5	
0.15	-0.259808	0.5	
0.128689	-0.272515	0.368277	
0.0645865	-0.210943	0.409687	
0.07775	0.0966917	0.259619	
0.186062	0.10988	0.269638	
0.125478	0.130999	0.17652	
0.0586412	0.17223	0.217492	
0.409478	-0.032947	0	
0.495208	-0.0690617	0.0692099	
0.5	0	0.1	
0.369564	-0.0975027	0.118883	
-0.212951	-0.0278954	0.307934	
-0.259226	0.03952	0.402729	
-0.34365	-0.0208645	0.382522	
-0.214222	-0.0809482	0.409057	
0.259073	0.206972	0.5	
0.30356	0.231708	0.5	
0.316151	0.221929	0.385283	
0.24627	0.285293	0.404112	
0.230141	0.201516	0.310453	
0.329012	0.224405	0.280196	
0.340356	0.131144	0.231324	
0.196123	0.185647	0.211614	
-0.171353	-0.469721	0.338334	
-0.0977967	-0.490343	0.258774	
-0.162023	-0.339511	0.25028	
-0.0510822	-0.382345	0.237039	
0.155319	-0.32739	0.22804	
0.224653	-0.281756	0.300179	
0.128689	-0.272515	0.368277	
0.194286	-0.353827	0.369459	
0.429476	-0.256028	0.291579	
0.304682	-0.199557	0.252634	
0.373696	-0.332191	0.334057	
0.373857	-0.180895	0.313411	
-0.118648	0.167764	0.5	
-0.112789	0.14207	0.41726	
-0.125	0.216506	0.5	
-0.0473335	0.163087	0.434501	
0.0936941	-0.0576924	0.420616	
0.182789	-0.109466	0.430518	
0.128497	-0.139894	0.387724	
0.14698	-0.0404502	0.339975	
0.0949827	-0.187358	0.5	
0.0645865	-0.210943	0.409687	
0.128497	-0.139894	0.387724	
0.165128	-0.182854	0.433186	
-0.00455509	0.289048	0.289048	
0.0365945	0.375424	0.376008	
-0.073553	0.38985	0.391066	
-0.0433744	0.307825	0.417357	
-0.125	0.216506	0.5	
-0.175601	0.220525	0.5	
-0.15	0.259808	0.5	
-0.1997	0.206062	0.414424	
0.166469	-0.308164	0.5	
0.194286	-0.353827	0.369459	
0.128689	-0.272515	0.368277	
0.213897	-0.237657	0.431435	
-0.321766	0.212706	0.386222	
-0.266336	0.143871	0.409139	
-0.368394	0.141973	0.5	
-0.37885	0.0751067	0.400181	
0.128689	-0.272515	0.368277	
0.224653	-0.281756	0.300179	
0.165128	-0.182854	0.275544	
0.164604	-0.198565	0.360975	
-0.428104	0.258315	0.196896	
-0.38078	0.324048	0.150149	
-0.377032	0.3284	0.243217	
-0.304187	0.215745	0.266633	
-0.0688906	-0.12049	0.417622	
-0.0145446	-0.0833015	0.323221	
0.00473146	-0.0477129	0.410326	
0.00727488	-0.125574	0.43338	
0.0486433	-0.215998	0.178276	
0.18433	-0.220573	0.141371	
0.0544868	-0.141962	0.103859	
0.113524	-0.1522	0.202868	
-0.107964	-0.347419	0.364155	
-0.0829946	-0.232421	0.403465	
-0.0776457	-0.289778	0.5	
0.000597841	-0.287345	0.400747	
-0.0507575	0.0878249	0.5	
0.0101256	0.127322	0.41346	
-0.0790952	0.0620487	0.41859	
-0.0473335	0.163087	0.434501	
0.274666	-0.249265	0.5	
0.304695	-0.194694	0.5	
0.340228	-0.209884	0.396212	
0.213897	-0.237657	0.431435	
0.0949827	-0.187358	0.5	
0.0583087	-0.173273	0.5	
0.0966642	-0.131711	0.5	
0.0645865	-0.210943	0.409687	
-0.188087	-0.23341	0.313651	
-0.0741769	-0.222661	0.29905	
-0.142736	-0.147946	0.384212	
-0.0829946	-0.232421	0.403465	
-0.212951	-0.0278954	0.307934	
-0.166197	0.012686	0.395566	
-0.259226	0.03952	0.402729	
-0.214222	-0.0809482	0.409057	
-0.0948532	0.245573	0.374875	
-0.173891	0.340446	0.398741	
-0.135086	0.326126	0.5	
-0.0433744	0.307825	0.417357	
-0.056943	0.120887	0.354229	
-0.125784	0.172859	0.335584	
-0.112789	0.14207	0.41726	
-0.0473335	0.163087	0.434501	
-0.238488	-0.439458	0.0756919	
-0.203173	-0.373024	0	
-0.315029	-0.388274	0.0791933	
-0.230549	-0.284648	0.130866	
-0.428192	0.000626804	0.5	
-0.34365	-0.0208645	0.382522	
-0.5	0	0.4	
-0.37885	0.0751067	0.400181	
0.155785	0.045673	0.353105	
0.228063	0.102246	0.400094	
0.264667	-0.00226535	0.295846	
0.276243	0.0902748	0.286189	
-0.0807376	0.493438	0.154216	
0	0.5	0.1	
0	0.5	0.2	
-0.0809307	0.385403	0.109035	
0.215641	0.22714	0.5	
0.259073	0.206972	0.5	
0.199563	0.20121	0.405215	
0.24627	0.285293	0.404112	
0.247057	0.434698	0.250499	
0.174678	0.468495	0.317109	
0.103925	0.350791	0.253756	
0.233262	0.310813	0.267062	
0.347622	-0.102783	0.358549	
0.249365	-0.119116	0.299613	
0.209772	-0.0539676	0.386967	
0.307169	-0.0101791	0.393725	
0.136333	-0.0203798	0.5	
0.0936941	-0.0576924	0.420616	
0.102443	0.0227629	0.419717	
0.202719	0.0237767	0.420412	
-0.107964	-0.347419	0.364155	
0.000597841	-0.287345	0.400747	
-0.0776457	-0.289778	0.5	
-0.0295129	-0.397696	0.405297	
0.5	0	0.3	
0.400259	0.0398147	0.391942	
0.379606	0.0327687	0.28854	
0.392021	-0.0480463	0.41747	
0.0208735	-0.153224	0.5	
0.0583087	-0.173273	0.5	
0.0645865	-0.210943	0.409687	
0.00727488	-0.125574	0.43338	
-0.270443	0.334367	0.5	
-0.228959	0.444497	0.408094	
-0.173891	0.340446	0.398741	
-0.281262	0.296575	0.411781	
0.314271	-0.0501881	0	
0.313791	-0.154465	0	
0.369564	-0.0975027	0.118883	
0.268679	-0.0175832	0.0938256	
-0.0699979	-0.0973408	0.5	
-0.0156334	-0.0737433	0.5	
-0.0688906	-0.12049	0.417622	
-0.0921341	-0.0472882	0.428822	
0.373696	-0.332191	0.334057	
0.377032	-0.3284	0.243217	
0.317163	-0.386533	0.299742	
0.224653	-0.281756	0.300179	
0.259808	0.15	0.5	
0.216156	0.175607	0.5	
0.199563	0.20121	0.405215	
0.228063	0.102246	0.400094	
0.324629	0.108316	0.364447	
0.264667	-0.00226535	0.295846	
0.228063	0.102246	0.400094	
0.276243	0.0902748	0.286189	
0.12288	0.243768	0.182957	
0.145858	0.357927	0.135369	
0.103925	0.350791	0.253756	
0.233262	0.310813	0.267062	
0.416563	-0.126305	0.5	
0.347622	-0.102783	0.358549	
0.326126	-0.135086	0.5	
0.392021	-0.0480463	0.41747	
0.0682711	-0.052186	0.339077	
0.0565057	-0.147787	0.277794	
-0.0145446	-0.0833015	0.323221	
0.0255949	-0.0865848	0.221929	
0.314271	-0.0501881	0	
0.232997	-0.11062	0	
0.313791	-0.154465	0	
0.268679	-0.0175832	0.0938256	
0.317163	-0.386533	0.299742	
0.247023	-0.434718	0.250558	
0.224653	-0.281756	0.300179	
0.262155	-0.286798	0.192405	
-0.186407	-0.169451	0	
-0.261345	-0.230036	0	
-0.230549	-0.284648	0.130866	
-0.243673	-0.146253	0.0931104	
0.228991	0.444481	0.408099	
0.164757	0.31504	0.3626	
0.25658	0.429146	0.33124	
0.24627	0.285293	0.404112	
-0.0948532	0.245573	0.374875	
-0.132465	0.342544	0.286862	
-0.00455509	0.289048	0.289048	
-0.082138	0.218948	0.273339	
-0.211369	-0.0761151	0	
-0.142648	-0.00714059	0	
-0.237047	0.0201392	0	
-0.261227	-0.0514885	0.117995	
-0.118932	0.39861	0	
-0.153329	0.47591	0.0923815	
-0.201912	0.369986	0	
-0.0809307	0.385403	0.109035	
-0.00800179	-0.0152081	0.261913	
0.00171532	0.0670635	0.305226	
0.0884767	-0.000375704	0.258795	
0.00560742	0.0907829	0.203832	
-0.067279	0.181403	0.5	
-0.118648	0.167764	0.5	
-0.125	0.216506	0.5	
-0.0473335	0.163087	0.434501	
0.314271	-0.0501881	0	
0.369564	-0.0975027	0.118883	
0.346509	0.0237889	0	
0.268679	-0.0175832	0.0938256	
-0.5	0	0.3	
-0.361082	-0.0385179	0.234803	
-0.406264	0.0467051	0.292816	
-0.387326	-0.108791	0.360005	
-0.153329	0.47591	0.0923815	
-0.213184	0.322526	0.106779	
-0.201912	0.369986	0	
-0.0809307	0.385403	0.109035	
-0.212951	-0.0278954	0.307934	
-0.214222	-0.0809482	0.409057	
-0.34365	-0.0208645	0.382522	
-0.288242	-0.0832951	0.281127	
-0.344127	-0.112227	0	
-0.41072	-0.12459	0	
-0.356684	-0.19351	0	
-0.372622	-0.0844629	0.11881	
0.0133811	0.178278	0.293393	
0.139502	0.248001	0.286243	
0.096294	0.191774	0.363276	
0.0586412	0.17223	0.217492	
-0.175601	0.220525	0.5	
-0.1997	0.206062	0.414424	
-0.125	0.216506	0.5	
-0.168013	0.159183	0.440667	
-0.00447954	0.190881	0.5	
0.0594834	0.18279	0.5	
0.0101256	0.127322	0.41346	
0.00464373	0.231373	0.403957	
-0.0948532	0.245573	0.374875	
-0.1997	0.206062	0.414424	
-0.222708	0.258636	0.344999	
-0.125784	0.172859	0.335584	
0.490343	0.0977967	0.241226	
0.469721	0.171353	0.161666	
0.493389	0.0810399	0.14715	
0.340356	0.131144	0.231324	
0.00155464	-0.188347	0.5	
0.0645865	-0.210943	0.409687	
0.043412	-0.246202	0.5	
0.000597841	-0.287345	0.400747	
0.0153159	0.363557	0	
0.114055	0.374109	0	
0.0214814	0.353326	0.153644	
0.0793736	0.28635	0.097829	
0.0851242	-0.244368	0.268286	
0.0676693	-0.388009	0.271914	
0.0093178	-0.302179	0.302179	
-0.00981402	-0.289236	0.206945	
0.15	-0.259808	0.5	
0.166469	-0.308164	0.5	
0.0776457	-0.289778	0.5	
0.128689	-0.272515	0.368277	
-0.289778	-0.0776457	0.5	
-0.281583	-0.139061	0.36108	
-0.364062	-0.132817	0.5	
-0.387326	-0.108791	0.360005	
-0.0732624	-0.0235498	0.355778	
-0.104233	0.0522254	0.274426	
-0.00800179	-0.0152081	0.261913	
-0.115691	-0.0468978	0.268322	
-0.104233	0.0522254	0.274426	
-0.0531538	0.125355	0.264689	
0.00171532	0.0670635	0.305226	
0.00560742	0.0907829	0.203832	
-0.31037	0.174447	0.5	
-0.321766	0.212706	0.386222	
-0.259808	0.2	0.5	
-0.266336	0.143871	0.409139	
0.0535528	0.0702068	0.5	
0.0454237	0.00960241	0.5	
0.0293798	0.0426018	0.391106	
0.102443	0.0227629	0.419717	
-0.126305	-0.416563	0.5	
-0.135086	-0.326126	0.5	
-0.107964	-0.347419	0.364155	
-0.206938	-0.33712	0.400053	
0.175681	0.0639425	0.5	
0.10136	0.102523	0.406019	
0.169238	0.138503	0.5	
0.228063	0.102246	0.400094	
-0.0829946	-0.232421	0.403465	
-0.0688906	-0.12049	0.417622	
-0.142736	-0.147946	0.384212	
-0.167688	-0.179794	0.441452	
0.223495	0.10535	0.166759	
0.165336	0.0617817	0.0970708	
0.191109	0.195644	0.106001	
0.292412	0.0780179	0.101456	
0.0966642	-0.131711	0.5	
0.0583087	-0.173273	0.5	
0.035935	-0.11426	0.5	
0.00727488	-0.125574	0.43338	
0.0248177	-0.313374	0	
0.0130711	-0.359241	0.13871	
0.112799	-0.33356	0	
0.0390368	-0.27687	0.0931397	
0.165128	-0.182854	0.275544	
0.0958167	-0.194694	0.334239	
0.128689	-0.272515	0.368277	
0.164604	-0.198565	0.360975	
0.224653	-0.281756	0.300179	
0.213897	-0.237657	0.431435	
0.236451	-0.193336	0.377474	
0.164604	-0.198565	0.360975	
0.0694446	0.0614041	0.127763	
0.0596404	0.176022	0.113284	
0.0903521	0.10545	0	
-0.0250996	0.111886	0.106171	
-0.043412	0.246202	0.5	
-0.125	0.216506	0.5	
-0.0948532	0.245573	0.374875	
-0.0473335	0.163087	0.434501	
-0.169854	0.0238988	0.185748	
-0.221879	0.0747178	0.286107	
-0.278498	0.0524484	0.16694	
-0.225667	-0.0555936	0.212037	
-0.315029	-0.388274	0.0791933	
-0.230549	-0.284648	0.130866	
-0.263582	-0.319413	0	
-0.323408	-0.220518	0.107073	
-0.361082	-0.0385179	0.234803	
-0.364452	0.121056	0.219309	
-0.278498	0.0524484	0.16694	
-0.385327	0.0355064	0.11322	
0.189715	-0.00503075	0.168338	
0.164655	-0.11934	0.10185	
0.092572	-0.0674004	0.167448	
0.0773506	-0.0233693	0.0836206	
-0.203173	-0.373024	0	
-0.230549	-0.284648	0.130866	
-0.238488	-0.439458	0.0756919	
-0.1449	-0.36257	0.121022	
0.0101256	0.127322	0.41346	
0.0133811	0.178278	0.293393	
0.00464373	0.231373	0.403957	
0.0522467	0.122489	0.34166	
-0.0573721	0.0334812	0.170638	
-0.169854	0.0238988	0.185748	
-0.152331	-0.0811942	0.14549	
-0.0599463	-0.0498399	0.20415	
0.19149	0.263191	0.5	
0.215641	0.22714	0.5	
0.199563	0.20121	0.405215	
0.24627	0.285293	0.404112	
0.199563	0.20121	0.405215	
0.10136	0.102523	0.406019	
0.096294	0.191774	0.363276	
0.162344	0.134607	0.350934	
0.264667	-0.00226535	0.295846	
0.347622	-0.102783	0.358549	
0.379606	0.0327687	0.28854	
0.307169	-0.0101791	0.393725	
0.228991	0.444481	0.408099	
0.164757	0.31504	0.3626	
0.195731	0.375572	0.5	
0.117226	0.368857	0.420345	
0.471122	-0.167464	0.300106	
0.493012	-0.0833019	0.344789	
0.490316	-0.0979281	0.24092	
0.34942	-0.0723305	0.238193	
0	0.5	0.3	
0.0365945	0.375424	0.376008	
0	0.5	0.4	
-0.073553	0.38985	0.391066	
0.0694446	0.0614041	0.127763	
0.125478	0.130999	0.17652	
0.189715	-0.00503075	0.168338	
0.165336	0.0617817	0.0970708	
0.247023	-0.434718	0.250558	
0.256554	-0.429162	0.331268	
0.224653	-0.281756	0.300179	
0.194286	-0.353827	0.369459	
-0.215641	-0.22714	0.5	
-0.188087	-0.23341	0.408968	
-0.248409	-0.277977	0.5	
-0.288349	-0.269581	0.401233	
-0.056943	0.120887	0.354229	
0.0133811	0.178278	0.293393	
0.0101256	0.127322	0.41346	
0.0522467	0.122489	0.34166	
-0.196783	0.00504363	0.5	
-0.246202	-0.043412	0.5	
-0.246202	0.043412	0.5	
-0.259226	0.03952	0.402729	
0.300884	0.198715	0	
0.231243	0.24169	0	
0.191109	0.195644	0.106001	
0.227449	0.293019	0.0951933	
0.186062	0.10988	0.269638	
0.196123	0.185647	0.211614	
0.125478	0.130999	0.17652	
0.0586412	0.17223	0.217492	
-0.259073	-0.206972	0.5	
-0.215641	-0.22714	0.5	
-0.248409	-0.277977	0.5	
-0.288349	-0.269581	0.401233	
-0.434698	-0.247057	0.249501	
-0.285188	-0.256019	0.23904	
-0.429146	-0.25658	0.16876	
-0.352865	-0.168551	0.27433	
0	0.5	0.3	
-0.073553	0.38985	0.391066	
-0.082983	0.493066	0.348347	
0.000988831	0.396472	0.255648	
0.125573	-0.41396	0	
0.0704474	-0.495012	0.0718449	
0.153329	-0.47591	0.0923815	
0.104159	-0.395278	0.16544	
0.493378	-0.0811073	0.146993	
0.34942	-0.0723305	0.238193	
0.369564	-0.0975027	0.118883	
0.375867	-0.158621	0.196853	
0.324629	0.108316	0.364447	
0.307169	-0.0101791	0.393725	
0.289778	0.0776457	0.5	
0.228063	0.102246	0.400094	
0.260383	-0.192244	0.5	
0.228406	-0.215902	0.5	
0.221044	-0.17499	0.5	
0.213897	-0.237657	0.431435	
-0.0625361	-0.0382385	0.5	
0.00473146	-0.0477129	0.410326	
-0.0156334	-0.0737433	0.5	
-0.0921341	-0.0472882	0.428822	
-0.113226	-0.140086	0.5	
-0.0688906	-0.12049	0.417622	
-0.0934074	-0.183691	0.5	
-0.167688	-0.179794	0.441452	
-0.214341	0.273759	0	
-0.213184	0.322526	0.106779	
-0.259032	0.225769	0.154918	
-0.170195	0.225746	0.0963396	
-0.056943	0.120887	0.354229	
-0.104233	0.0522254	0.274426	
0.00171532	0.0670635	0.305226	
-0.12302	0.073304	0.350874	
0.476114	0.152694	0.40246	
0.324629	0.108316	0.364447	
0.493012	0.0833019	0.344789	
0.400259	0.0398147	0.391942	
-0.0507575	0.0878249	0.5	
-0.0305981	0.141799	0.5	
0.0101256	0.127322	0.41346	
-0.0473335	0.163087	0.434501	
-0.356684	-0.19351	0	
-0.372622	-0.0844629	0.11881	
-0.444481	-0.228991	0.0919014	
-0.323408	-0.220518	0.107073	
0.439458	0.238488	0.424308	
0.431625	0.130932	0.5	
0.369217	0.203769	0.5	
0.364062	0.132817	0.5	
0.247868	0.146306	0	
0.337502	0.1652	0.112737	
0.300884	0.198715	0	
0.191109	0.195644	0.106001	
-0.149626	-0.106257	0.5	
-0.214222	-0.0809482	0.409057	
-0.142736	-0.147946	0.384212	
-0.167688	-0.179794	0.441452	
-0.259073	-0.206972	0.5	
-0.215641	-0.22714	0.5	
-0.288349	-0.269581	0.401233	
-0.246996	-0.178452	0.424102	
-0.460762	0.19416	0.234059	
-0.364452	0.121056	0.219309	
-0.304187	0.215745	0.266633	
-0.373924	0.17948	0.316585	
-0.188087	-0.23341	0.408968	
-0.288349	-0.269581	0.401233	
-0.215641	-0.22714	0.5	
-0.246996	-0.178452	0.424102	
0.195731	0.375572	0.5	
0.164757	0.31504	0.3626	
0.194694	0.304695	0.5	
0.117226	0.368857	0.420345	
-0.5	0	0.3	
-0.493437	-0.0807477	0.345776	
-0.361082	-0.0385179	0.234803	
-0.387326	-0.108791	0.360005	
0.0583087	-0.173273	0.5	
0.00155464	-0.188347	0.5	
0.0208735	-0.153224	0.5	
0.0645865	-0.210943	0.409687	
0.128689	-0.272515	0.368277	
0.224653	-0.281756	0.300179	
0.155319	-0.32739	0.22804	
0.0851242	-0.244368	0.268286	
0.0454237	0.00960241	0.5	
-0.00654379	0.0500762	0.5	
0.0293798	0.0426018	0.391106	
-0.0238699	0.0158197	0.434577	
5.51091e-17	0.3	0.5	
0.0712263	0.363482	0.5	
0.0776457	0.289778	0.5	
0.0365945	0.375424	0.376008	
0.2429	-0.437035	0.152631	
0.162218	-0.333858	0.109166	
0.155319	-0.32739	0.22804	
0.262155	-0.286798	0.192405	
0.337502	0.1652	0.112737	
0.191109	0.195644	0.106001	
0.266139	0.241799	0.177649	
0.227449	0.293019	0.0951933	
-0.0776457	-0.289778	0.5	
-0.107964	-0.347419	0.364155	
-0.135086	-0.326126	0.5	
-0.0829946	-0.232421	0.403465	
-0.302044	-0.0506462	0	
-0.385327	0.0355064	0.11322	
-0.372622	-0.0844629	0.11881	
-0.261227	-0.0514885	0.117995	
-0.315029	-0.388274	0.0791933	
-0.331361	-0.272953	0	
-0.386831	-0.3168	0.104097	
-0.323408	-0.220518	0.107073	
0.155319	-0.32739	0.22804	
0.0676693	-0.388009	0.271914	
0.0851242	-0.244368	0.268286	
-0.00981402	-0.289236	0.206945	
-0.056943	0.120887	0.354229	
0.0101256	0.127322	0.41346	
0.0293798	0.0426018	0.391106	
0.00171532	0.0670635	0.305226	
0.128689	-0.272515	0.368277	
0.213897	-0.237657	0.431435	
0.224653	-0.281756	0.300179	
0.164604	-0.198565	0.360975	
-0.169854	0.0238988	0.185748	
-0.221879	0.0747178	0.286107	
-0.104233	0.0522254	0.274426	
-0.107039	0.0995618	0.201757	
0.254347	-0.100565	0.163493	
0.249365	-0.119116	0.299613	
0.163856	-0.062131	0.265284	
0.227664	-0.175808	0.20875	
0.215641	0.22714	0.5	
0.169426	0.205971	0.5	
0.19149	0.263191	0.5	
0.199563	0.20121	0.405215	
0.155319	-0.32739	0.22804	
0.0676693	-0.388009	0.271914	
-0.00981402	-0.289236	0.206945	
0.104159	-0.395278	0.16544	
0.00464373	0.231373	0.403957	
0.0691737	0.285591	0.353708	
0.0776457	0.289778	0.5	
0.130242	0.253849	0.414889	
0.264667	-0.00226535	0.295846	
0.155785	0.045673	0.353105	
0.209772	-0.0539676	0.386967	
0.202719	0.0237767	0.420412	
0.0854243	0.492649	0.251403	
0.103925	0.350791	0.253756	
0.0814864	0.493315	0.347681	
0.000988831	0.396472	0.255648	
0.236451	-0.193336	0.377474	
0.165128	-0.182854	0.275544	
0.224653	-0.281756	0.300179	
0.164604	-0.198565	0.360975	
-0.185526	0.120318	0.373769	
-0.221879	0.0747178	0.286107	
-0.166197	0.012686	0.395566	
-0.259226	0.03952	0.402729	
0.00365932	0.104584	0.5	
0.0609049	0.128365	0.5	
0.0535528	0.0702068	0.5	
0.0101256	0.127322	0.41346	
-0.281583	-0.139061	0.36108	
-0.214222	-0.0809482	0.409057	
-0.289778	-0.0776457	0.5	
-0.246996	-0.178452	0.424102	
0.166469	-0.308164	0.5	
0.128689	-0.272515	0.368277	
0.15	-0.259808	0.5	
0.213897	-0.237657	0.431435	
-0.126305	-0.416563	0.5	
-0.107964	-0.347419	0.364155	
-0.144862	-0.478555	0.421652	
-0.206938	-0.33712	0.400053	
-0.152331	-0.0811942	0.14549	
-0.0573721	0.0334812	0.170638	
-0.0599463	-0.0498399	0.20415	
-0.0957928	-0.0529556	0.0773873	
-0.0295403	0.225144	0	
0.0596404	0.176022	0.113284	
-0.0198097	0.25642	0.112647	
-0.0250996	0.111886	0.106171	
0.0694446	0.0614041	0.127763	
0.189715	-0.00503075	0.168338	
0.092572	-0.0674004	0.167448	
0.0773506	-0.0233693	0.0836206	
0.431625	0.130932	0.5	
0.364062	0.132817	0.5	
0.476114	0.152694	0.40246	
0.400259	0.0398147	0.391942	
0.102443	0.0227629	0.419717	
0.202719	0.0237767	0.420412	
0.209772	-0.0539676	0.386967	
0.14698	-0.0404502	0.339975	
0.0651412	0.200096	0	
0.0596404	0.176022	0.113284	
0.158056	0.171884	0	
0.191109	0.195644	0.106001	
-0.344127	-0.112227	0	
-0.261227	-0.0514885	0.117995	
-0.372622	-0.0844629	0.11881	
-0.243673	-0.146253	0.0931104	
0.247057	0.434698	0.250499	
0.103925	0.350791	0.253756	
0.168734	0.470668	0.201781	
0.145858	0.357927	0.135369	
0.490316	-0.0979281	0.24092	
0.5	0	0.2	
0.34942	-0.0723305	0.238193	
0.379606	0.0327687	0.28854	
-0.222708	0.258636	0.344999	
-0.266336	0.143871	0.409139	
-0.321766	0.212706	0.386222	
-0.230719	0.171576	0.307699	
-0.0328721	-0.370689	0	
0.0130711	-0.359241	0.13871	
0.0248177	-0.313374	0	
0.0390368	-0.27687	0.0931397	
0.476114	0.152694	0.40246	
0.470916	0.168043	0.300126	
0.493012	0.0833019	0.344789	
0.324629	0.108316	0.364447	
0.0682711	-0.052186	0.339077	
-0.0145446	-0.0833015	0.323221	
-0.00800179	-0.0152081	0.261913	
0.0255949	-0.0865848	0.221929	
0.247023	-0.434718	0.250558	
0.2429	-0.437035	0.152631	
0.155319	-0.32739	0.22804	
0.262155	-0.286798	0.192405	
-0.186407	-0.169451	0	
-0.230549	-0.284648	0.130866	
-0.168688	-0.281701	0	
-0.127253	-0.156126	0.0844713	
-0.258165	-0.428195	0.298245	
-0.171353	-0.469721	0.338334	
-0.162023	-0.339511	0.25028	
-0.243234	-0.318297	0.307228	
0.0903521	0.10545	0	
0.0209546	0.0362755	0	
0.0694446	0.0614041	0.127763	
-0.0250996	0.111886	0.106171	
-0.0732624	-0.0235498	0.355778	
-0.0688906	-0.12049	0.417622	
0.00473146	-0.0477129	0.410326	
-0.0921341	-0.0472882	0.428822	
-0.310856	0.111964	0.328315	
-0.255792	0.140946	0.214728	
-0.221879	0.0747178	0.286107	
-0.296824	0.0138185	0.284404	
0.493012	-0.0833019	0.344789	
0.5	0	0.3	
0.379606	0.0327687	0.28854	
0.392021	-0.0480463	0.41747	
-0.337562	0.0547633	0	
-0.326028	0.142215	0.11299	
-0.278498	0.0524484	0.16694	
-0.215195	0.0857371	0.0917705	
-0.235698	0.440961	0.0686036	
-0.201912	0.369986	0	
-0.153329	0.47591	0.0923815	
-0.213184	0.322526	0.106779	
-0.0732624	-0.0235498	0.355778	
-0.0145446	-0.0833015	0.323221	
-0.0688906	-0.12049	0.417622	
-0.0795999	-0.137717	0.328283	
0.0776457	0.289778	0.5	
0.0365945	0.375424	0.376008	
0.0712263	0.363482	0.5	
0.117226	0.368857	0.420345	
0.114055	0.374109	0	
0.145858	0.357927	0.135369	
0.0214814	0.353326	0.153644	
0.0793736	0.28635	0.097829	
0.317163	-0.386533	0.299742	
0.224653	-0.281756	0.300179	
0.377032	-0.3284	0.243217	
0.262155	-0.286798	0.192405	
-0.115841	0.288513	0.162892	
0.0266006	0.259074	0.200021	
0.0214814	0.353326	0.153644	
-0.0810467	0.370121	0.206864	
0	0.5	0.2	
0.0214814	0.353326	0.153644	
0.000988831	0.396472	0.255648	
-0.0810467	0.370121	0.206864	
-0.278498	0.0524484	0.16694	
-0.225667	-0.0555936	0.212037	
-0.221879	0.0747178	0.286107	
-0.296824	0.0138185	0.284404	
0.304682	-0.199557	0.252634	
0.313473	-0.209952	0.12238	
0.428104	-0.258315	0.196896	
0.262155	-0.286798	0.192405	
-0.159007	0.150563	0.248955	
-0.221879	0.0747178	0.286107	
-0.104233	0.0522254	0.274426	
-0.12302	0.073304	0.350874	
0.5	0	0.2	
0.493378	-0.0811073	0.146993	
0.490316	-0.0979281	0.24092	
0.34942	-0.0723305	0.238193	
0.416563	-0.126305	0.5	
0.476132	-0.152637	0.402329	
0.375572	-0.195731	0.5	
0.340228	-0.209884	0.396212	
0.254347	-0.100565	0.163493	
0.113524	-0.1522	0.202868	
0.164655	-0.11934	0.10185	
0.227664	-0.175808	0.20875	
-0.217356	-0.450285	0.144698	
-0.257824	-0.4284	0.204976	
-0.162023	-0.339511	0.25028	
-0.1449	-0.36257	0.121022	
0.0365945	0.375424	0.376008	
0.103925	0.350791	0.253756	
0.164757	0.31504	0.3626	
0.0691737	0.285591	0.353708	
-0.26105	0.203399	0	
-0.257956	0.116321	0	
-0.18644	0.1823	0	
-0.215195	0.0857371	0.0917705	
-0.289778	0.0776457	0.5	
-0.31598	0.119651	0.5	
-0.266336	0.143871	0.409139	
-0.37885	0.0751067	0.400181	
0.242822	0.437078	0.152991	
0.247057	0.434698	0.250499	
0.145858	0.357927	0.135369	
0.233262	0.310813	0.267062	
0.247057	0.434698	0.250499	
0.25658	0.429146	0.33124	
0.174678	0.468495	0.317109	
0.233262	0.310813	0.267062	
-0.159007	0.150563	0.248955	
-0.104233	0.0522254	0.274426	
-0.125784	0.172859	0.335584	
-0.12302	0.073304	0.350874	
-0.159007	0.150563	0.248955	
-0.221879	0.0747178	0.286107	
-0.169854	0.0238988	0.185748	
-0.107039	0.0995618	0.201757	
-0.142736	-0.147946	0.384212	
-0.188087	-0.23341	0.313651	
-0.188087	-0.23341	0.408968	
-0.203272	-0.117351	0.333128	
-0.0156334	-0.0737433	0.5	
-0.0688906	-0.12049	0.417622	
0.00473146	-0.0477129	0.410326	
0.00727488	-0.125574	0.43338	
0.364062	0.132817	0.5	
0.308042	0.167631	0.5	
0.369217	0.203769	0.5	
0.316151	0.221929	0.385283	
-0.210645	0.180174	0.5	
-0.266336	0.143871	0.409139	
-0.1997	0.206062	0.414424	
-0.168013	0.159183	0.440667	
0.176544	-0.0644028	0.5	
0.209772	-0.0539676	0.386967	
0.136333	-0.0203798	0.5	
0.202719	0.0237767	0.420412	
0.232997	-0.11062	0	
0.164655	-0.11934	0.10185	
0.254347	-0.100565	0.163493	
0.268679	-0.0175832	0.0938256	
-0.159007	0.150563	0.248955	
-0.185526	0.120318	0.373769	
-0.221879	0.0747178	0.286107	
-0.12302	0.073304	0.350874	
-0.259032	0.225769	0.154918	
-0.304187	0.215745	0.266633	
-0.255792	0.140946	0.214728	
-0.173354	0.242294	0.26617	
-0.492649	-0.0854243	0.248597	
-0.468495	-0.174678	0.182891	
-0.361082	-0.0385179	0.234803	
-0.352865	-0.168551	0.27433	
0.247868	0.146306	0	
0.337502	0.1652	0.112737	
0.191109	0.195644	0.106001	
0.292412	0.0780179	0.101456	
-0.132465	0.342544	0.286862	
-0.0853821	0.492656	0.251348	
0.000988831	0.396472	0.255648	
-0.0810467	0.370121	0.206864	
0.246202	0.043412	0.5	
0.289778	0.0776457	0.5	
0.307169	-0.0101791	0.393725	
0.228063	0.102246	0.400094	
-0.310856	0.111964	0.328315	
-0.266336	0.143871	0.409139	
-0.321766	0.212706	0.386222	
-0.37885	0.0751067	0.400181	
-0.285188	-0.256019	0.23904	
-0.243234	-0.318297	0.307228	
-0.188087	-0.23341	0.313651	
-0.253263	-0.173914	0.276528	
-0.416747	0.276265	0.362548	
-0.429476	0.256028	0.291579	
-0.373696	0.332191	0.334057	
-0.373924	0.17948	0.316585	
0.0884767	-0.000375704	0.258795	
0.00171532	0.0670635	0.305226	
0.07775	0.0966917	0.259619	
0.00560742	0.0907829	0.203832	
-0.315029	-0.388274	0.0791933	
-0.203173	-0.373024	0	
-0.263582	-0.319413	0	
-0.230549	-0.284648	0.130866	
-0.152331	-0.0811942	0.14549	
-0.169854	0.0238988	0.185748	
-0.0573721	0.0334812	0.170638	
-0.12546	0.0336645	0.0931586	
-0.00915007	-0.159584	0.370443	
-0.0145446	-0.0833015	0.323221	
-0.0688906	-0.12049	0.417622	
0.00727488	-0.125574	0.43338	
-0.0776457	-0.289778	0.5	
-0.135086	-0.326126	0.5	
-0.15	-0.259808	0.5	
-0.0829946	-0.232421	0.403465	
0.469721	0.171353	0.161666	
0.340356	0.131144	0.231324	
0.337502	0.1652	0.112737	
0.391187	0.0843667	0.0902296	
-0.270443	0.334367	0.5	
-0.228959	0.444497	0.408094	
-0.195731	0.375572	0.5	
-0.173891	0.340446	0.398741	
-0.258165	-0.428195	0.298245	
-0.206938	-0.33712	0.400053	
-0.171353	-0.469721	0.338334	
-0.243234	-0.318297	0.307228	
-0.259032	0.225769	0.154918	
-0.234922	0.307887	0.237464	
-0.115841	0.288513	0.162892	
-0.213184	0.322526	0.106779	
-0.259808	-0.15	0.5	
-0.289778	-0.0776457	0.5	
-0.214222	-0.0809482	0.409057	
-0.246996	-0.178452	0.424102	
-0.428104	0.258315	0.196896	
-0.364452	0.121056	0.219309	
-0.469621	0.171627	0.160116	
-0.326028	0.142215	0.11299	
0.0704482	0.495012	0.0718447	
0.0807477	0.493437	0.154224	
0	0.5	0.1	
0.0214814	0.353326	0.153644	
-0.125	0.216506	0.5	
-0.112789	0.14207	0.41726	
-0.118648	0.167764	0.5	
-0.168013	0.159183	0.440667	
-0.337562	0.0547633	0	
-0.385327	0.0355064	0.11322	
-0.278498	0.0524484	0.16694	
-0.326028	0.142215	0.11299	
0.19149	0.263191	0.5	
0.194694	0.304695	0.5	
0.24627	0.285293	0.404112	
0.130242	0.253849	0.414889	
-0.126305	-0.416563	0.5	
-0.195731	-0.375572	0.5	
-0.135086	-0.326126	0.5	
-0.206938	-0.33712	0.400053	
0.223495	0.10535	0.166759	
0.266139	0.241799	0.177649	
0.340356	0.131144	0.231324	
0.337502	0.1652	0.112737	
0.314271	-0.0501881	0	
0.409478	-0.032947	0	
0.346509	0.0237889	0	
0.369564	-0.0975027	0.118883	
-0.132465	0.342544	0.286862	
-0.115841	0.288513	0.162892	
-0.082138	0.218948	0.273339	
-0.173354	0.242294	0.26617	
0.264667	-0.00226535	0.295846	
0.347622	-0.102783	0.358549	
0.34942	-0.0723305	0.238193	
0.379606	0.0327687	0.28854	
-0.115841	0.288513	0.162892	
-0.0198097	0.25642	0.112647	
0.0214814	0.353326	0.153644	
0.0266006	0.259074	0.200021	
0.377032	-0.3284	0.243217	
0.304682	-0.199557	0.252634	
0.428104	-0.258315	0.196896	
0.262155	-0.286798	0.192405	
-0.2429	0.437035	0.152631	
-0.16873	0.47067	0.201799	
-0.247023	0.434718	0.250558	
-0.234922	0.307887	0.237464	
-0.212951	-0.0278954	0.307934	
-0.166197	0.012686	0.395566	
-0.221879	0.0747178	0.286107	
-0.259226	0.03952	0.402729	
0.165128	-0.182854	0.275544	
0.304682	-0.199557	0.252634	
0.224653	-0.281756	0.300179	
0.227664	-0.175808	0.20875	
0.128497	-0.139894	0.387724	
0.0682711	-0.052186	0.339077	
0.0936941	-0.0576924	0.420616	
0.118937	-0.109877	0.313008	
2.23198e-17	0.373746	0.5	
0.0365945	0.375424	0.376008	
5.51091e-17	0.3	0.5	
-0.0433744	0.307825	0.417357	
0.0093178	-0.302179	0.302179	
0.000597841	-0.287345	0.400747	
0.128689	-0.272515	0.368277	
0.0217781	-0.230689	0.341777	
0.0130711	-0.359241	0.13871	
-0.00981402	-0.289236	0.206945	
0.0676693	-0.388009	0.271914	
0.104159	-0.395278	0.16544	
-0.0228356	-0.132115	0.5	
-0.0497612	-0.177788	0.5	
-0.0708935	-0.143579	0.5	
-0.0688906	-0.12049	0.417622	
0.0535528	0.0702068	0.5	
0.0293798	0.0426018	0.391106	
0.10136	0.102523	0.406019	
0.102443	0.0227629	0.419717	
0.096294	0.191774	0.363276	
0.230141	0.201516	0.310453	
0.199563	0.20121	0.405215	
0.162344	0.134607	0.350934	
0.165128	-0.182854	0.275544	
0.163856	-0.062131	0.265284	
0.249365	-0.119116	0.299613	
0.227664	-0.175808	0.20875	
-0.00800179	-0.0152081	0.261913	
0.0884767	-0.000375704	0.258795	
0.0682711	-0.052186	0.339077	
0.0255949	-0.0865848	0.221929	
0.324629	0.108316	0.364447	
0.230141	0.201516	0.310453	
0.316151	0.221929	0.385283	
0.329012	0.224405	0.280196	
-0.34365	-0.0208645	0.382522	
-0.214222	-0.0809482	0.409057	
-0.281583	-0.139061	0.36108	
-0.288242	-0.0832951	0.281127	
0.0776457	0.289778	0.5	
0.130242	0.253849	0.414889	
0.0691737	0.285591	0.353708	
0.117226	0.368857	0.420345	
-0.364452	0.121056	0.219309	
-0.385327	0.0355064	0.11322	
-0.469621	0.171627	0.160116	
-0.326028	0.142215	0.11299	
0.165128	-0.182854	0.275544	
0.0851242	-0.244368	0.268286	
0.128689	-0.272515	0.368277	
0.0958167	-0.194694	0.334239	
-0.188087	-0.23341	0.313651	
-0.142736	-0.147946	0.384212	
-0.171623	-0.128704	0.255156	
-0.203272	-0.117351	0.333128	
-0.104233	0.0522254	0.274426	
-0.0531538	0.125355	0.264689	
-0.159007	0.150563	0.248955	
-0.125784	0.172859	0.335584	
0.347622	-0.102783	0.358549	
0.340228	-0.209884	0.396212	
0.326126	-0.135086	0.5	
0.273873	-0.116111	0.41418	
0.112799	-0.33356	0	
0.0248177	-0.313374	0	
0.0404524	-0.41072	0	
0.0130711	-0.359241	0.13871	
2.23198e-17	0.373746	0.5	
0.0712263	0.363482	0.5	
5.51091e-17	0.3	0.5	
0.0365945	0.375424	0.376008	
0.115537	0.0107471	0	
0.210156	-0.0147965	0	
0.165336	0.0617817	0.0970708	
0.0773506	-0.0233693	0.0836206	
-0.115841	0.288513	0.162892	
-0.170195	0.225746	0.0963396	
-0.0198097	0.25642	0.112647	
-0.114496	0.199368	0.185093	
-0.216377	0.228686	0.5	
-0.192123	0.259903	0.5	
-0.175601	0.220525	0.5	
-0.1997	0.206062	0.414424	
-0.302044	-0.0506462	0	
-0.337562	0.0547633	0	
-0.385327	0.0355064	0.11322	
-0.261227	-0.0514885	0.117995	
-0.368394	0.141973	0.5	
-0.439384	0.238625	0.423358	
-0.363589	0.21739	0.5	
-0.321766	0.212706	0.386222	
0.289778	0.0776457	0.5	
0.324629	0.108316	0.364447	
0.363184	0.0579886	0.5	
0.307169	-0.0101791	0.393725	
0.254347	-0.100565	0.163493	
0.34942	-0.0723305	0.238193	
0.351628	0.0194463	0.154597	
0.27082	0.0310537	0.205694	
0.236451	-0.193336	0.377474	
0.347622	-0.102783	0.358549	
0.249365	-0.119116	0.299613	
0.273873	-0.116111	0.41418	
-0.0699979	-0.0973408	0.5	
-0.0625361	-0.0382385	0.5	
-0.0156334	-0.0737433	0.5	
-0.0921341	-0.0472882	0.428822	
-0.389036	0.207425	0	
-0.478516	0.14499	0.0762896	
-0.404541	0.126945	0	
-0.326028	0.142215	0.11299	
0.429476	-0.256028	0.291579	
0.377032	-0.3284	0.243217	
0.373696	-0.332191	0.334057	
0.304682	-0.199557	0.252634	
-0.283975	-0.144274	0.184102	
-0.285188	-0.256019	0.23904	
-0.230549	-0.284648	0.130866	
-0.183468	-0.187607	0.160733	
0.0101256	0.127322	0.41346	
-0.0790952	0.0620487	0.41859	
0.0293798	0.0426018	0.391106	
-0.0238699	0.0158197	0.434577	
0.380873	0.323938	0.152261	
0.428195	0.258165	0.201755	
0.266139	0.241799	0.177649	
0.337502	0.1652	0.112737	
-0.217356	-0.450285	0.144698	
-0.257824	-0.4284	0.204976	
-0.168043	-0.470916	0.199874	
-0.162023	-0.339511	0.25028	
0.236451	-0.193336	0.377474	
0.340228	-0.209884	0.396212	
0.347622	-0.102783	0.358549	
0.273873	-0.116111	0.41418	
-0.166581	-0.0467287	0.5	
-0.149626	-0.106257	0.5	
-0.214222	-0.0809482	0.409057	
-0.0921341	-0.0472882	0.428822	
0.0596404	0.176022	0.113284	
0.125478	0.130999	0.17652	
0.0694446	0.0614041	0.127763	
0.165336	0.0617817	0.0970708	
0.347622	-0.102783	0.358549	
0.264667	-0.00226535	0.295846	
0.249365	-0.119116	0.299613	
0.307169	-0.0101791	0.393725	
-0.0934074	-0.183691	0.5	
-0.13744	-0.178022	0.5	
-0.113226	-0.140086	0.5	
-0.167688	-0.179794	0.441452	
-0.0497612	-0.177788	0.5	
-0.0934074	-0.183691	0.5	
-0.0708935	-0.143579	0.5	
-0.0688906	-0.12049	0.417622	
0.471122	-0.167464	0.300106	
0.373857	-0.180895	0.313411	
0.34942	-0.0723305	0.238193	
0.375867	-0.158621	0.196853	
0.264667	-0.00226535	0.295846	
0.209772	-0.0539676	0.386967	
0.155785	0.045673	0.353105	
0.14698	-0.0404502	0.339975	
-0.310856	0.111964	0.328315	
-0.364452	0.121056	0.219309	
-0.255792	0.140946	0.214728	
-0.296824	0.0138185	0.284404	
-0.3	7.34788e-17	0.5	
-0.34365	-0.0208645	0.382522	
-0.351551	0.0541915	0.5	
-0.259226	0.03952	0.402729	
-0.428192	0.000626804	0.5	
-0.419906	-0.0889586	0.5	
-0.495012	-0.0704482	0.428155	
-0.361276	-0.0455918	0.5	
0.175681	0.0639425	0.5	
0.113554	0.0989266	0.5	
0.169238	0.138503	0.5	
0.10136	0.102523	0.406019	
-0.194667	-0.460548	0.26567	
-0.171353	-0.469721	0.338334	
-0.0977967	-0.490343	0.258774	
-0.162023	-0.339511	0.25028	
0.0807477	0.493437	0.154224	
0	0.5	0.2	
0.0214814	0.353326	0.153644	
0.000988831	0.396472	0.255648	
0.0807477	0.493437	0.154224	
0.168734	0.470668	0.201781	
0.103925	0.350791	0.253756	
0.145858	0.357927	0.135369	
-0.0531538	0.125355	0.264689	
-0.125784	0.172859	0.335584	
-0.104233	0.0522254	0.274426	
-0.12302	0.073304	0.350874	
-0.444481	-0.228991	0.0919014	
-0.372622	-0.0844629	0.11881	
-0.468495	-0.174678	0.182891	
-0.323408	-0.220518	0.107073	
-0.159007	0.150563	0.248955	
-0.125784	0.172859	0.335584	
-0.185526	0.120318	0.373769	
-0.12302	0.073304	0.350874	
0.380207	-0.19708	0	
0.313473	-0.209952	0.12238	
0.436811	-0.243302	0.0936268	
0.369564	-0.0975027	0.118883	
0.096294	0.191774	0.363276	
0.139502	0.248001	0.286243	
0.0133811	0.178278	0.293393	
0.0691737	0.285591	0.353708	
-0.0295403	0.225144	0	
-0.00425413	0.131001	0	
0.0596404	0.176022	0.113284	
-0.0250996	0.111886	0.106171	
-0.469621	0.171627	0.160116	
-0.364452	0.121056	0.219309	
-0.493378	0.0811073	0.146993	
-0.385327	0.0355064	0.11322	
0.0153159	0.363557	0	
0.0214814	0.353326	0.153644	
-0.0198097	0.25642	0.112647	
0.0793736	0.28635	0.097829	
0.164655	-0.11934	0.10185	
0.0544868	-0.141962	0.103859	
0.18433	-0.220573	0.141371	
0.113524	-0.1522	0.202868	
-0.0833019	-0.493012	0.155211	
-0.0510822	-0.382345	0.237039	
0.0130711	-0.359241	0.13871	
-0.0562672	-0.401453	0.0877238	
-0.115691	-0.0468978	0.268322	
-0.0145446	-0.0833015	0.323221	
-0.0732624	-0.0235498	0.355778	
-0.0795999	-0.137717	0.328283	
0.0486433	-0.215998	0.178276	
0.113524	-0.1522	0.202868	
0.0544868	-0.141962	0.103859	
0.0255949	-0.0865848	0.221929	
-0.0328721	-0.370689	0	
0.0248177	-0.313374	0	
-0.0638367	-0.295761	0	
0.0390368	-0.27687	0.0931397	
-0.0573721	0.0334812	0.170638	
-0.152331	-0.0811942	0.14549	
-0.12546	0.0336645	0.0931586	
-0.0957928	-0.0529556	0.0773873	
-0.492649	-0.0854243	0.248597	
-0.361082	-0.0385179	0.234803	
-0.493437	-0.0807477	0.345776	
-0.387326	-0.108791	0.360005	
-0.278713	-0.14304	0	
-0.344127	-0.112227	0	
-0.323408	-0.220518	0.107073	
-0.243673	-0.146253	0.0931104	
-0.289778	-0.0776457	0.5	
-0.364062	-0.132817	0.5	
-0.361276	-0.0455918	0.5	
-0.387326	-0.108791	0.360005	
-0.31598	0.119651	0.5	
-0.368394	0.141973	0.5	
-0.266336	0.143871	0.409139	
-0.37885	0.0751067	0.400181	
-0.429146	-0.25658	0.16876	
-0.285188	-0.256019	0.23904	
-0.386498	-0.317206	0.200322	
-0.323408	-0.220518	0.107073	
-0.171623	-0.128704	0.255156	
-0.0795999	-0.137717	0.328283	
-0.115691	-0.0468978	0.268322	
-0.143954	-0.0664954	0.366375	
-0.0790357	-0.366186	0.5	
-0.135086	-0.326126	0.5	
-0.0776457	-0.289778	0.5	
-0.107964	-0.347419	0.364155	
-0.344127	-0.112227	0	
-0.372622	-0.0844629	0.11881	
-0.356684	-0.19351	0	
-0.323408	-0.220518	0.107073	
0.0712814	-0.153152	0	
0.0943468	-0.245334	0	
0.164797	-0.177585	0	
0.0544868	-0.141962	0.103859	
-0.216506	0.125	0.5	
-0.266336	0.143871	0.409139	
-0.168013	0.159183	0.440667	
-0.15502	0.0902607	0.438606	
-0.255792	0.140946	0.214728	
-0.326028	0.142215	0.11299	
-0.259032	0.225769	0.154918	
-0.215195	0.0857371	0.0917705	
-0.113226	-0.140086	0.5	
-0.149626	-0.106257	0.5	
-0.112672	-0.0704426	0.5	
-0.0688906	-0.12049	0.417622	
-0.212951	-0.0278954	0.307934	
-0.221879	0.0747178	0.286107	
-0.169854	0.0238988	0.185748	
-0.225667	-0.0555936	0.212037	
0.128497	-0.139894	0.387724	
0.0936941	-0.0576924	0.420616	
0.0682711	-0.052186	0.339077	
0.0558806	-0.119121	0.374407	
-0.185526	0.120318	0.373769	
-0.168013	0.159183	0.440667	
-0.266336	0.143871	0.409139	
-0.15502	0.0902607	0.438606	
-0.217356	-0.450285	0.144698	
-0.162023	-0.339511	0.25028	
-0.168043	-0.470916	0.199874	
-0.1449	-0.36257	0.121022	
0.0093178	-0.302179	0.302179	
0.0667135	-0.376589	0.379415	
0.128689	-0.272515	0.368277	
0.000597841	-0.287345	0.400747	
-0.194694	-0.304695	0.5	
-0.15	-0.259808	0.5	
-0.135086	-0.326126	0.5	
-0.206938	-0.33712	0.400053	
-0.278498	0.0524484	0.16694	
-0.255792	0.140946	0.214728	
-0.169854	0.0238988	0.185748	
-0.215195	0.0857371	0.0917705	
0.223495	0.10535	0.166759	
0.125478	0.130999	0.17652	
0.189715	-0.00503075	0.168338	
0.172939	0.0245765	0.250039	
0.469721	0.171353	0.161666	
0.340356	0.131144	0.231324	
0.428195	0.258165	0.201755	
0.337502	0.1652	0.112737	
-0.00455509	0.289048	0.289048	
0.103925	0.350791	0.253756	
0.139502	0.248001	0.286243	
0.0266006	0.259074	0.200021	
-0.171623	-0.128704	0.255156	
-0.0795999	-0.137717	0.328283	
-0.0741769	-0.222661	0.29905	
-0.10857	-0.188319	0.218241	
-0.428104	0.258315	0.196896	
-0.460762	0.19416	0.234059	
-0.304187	0.215745	0.266633	
-0.373924	0.17948	0.316585	
-0.056943	0.120887	0.354229	
-0.0948532	0.245573	0.374875	
-0.125784	0.172859	0.335584	
-0.0473335	0.163087	0.434501	
0.476132	-0.152637	0.402329	
0.347622	-0.102783	0.358549	
0.416563	-0.126305	0.5	
0.392021	-0.0480463	0.41747	
0.379606	0.0327687	0.28854	
0.307169	-0.0101791	0.393725	
0.347622	-0.102783	0.358549	
0.392021	-0.0480463	0.41747	
-0.0156334	-0.0737433	0.5	
-0.0228356	-0.132115	0.5	
-0.0699979	-0.0973408	0.5	
-0.0688906	-0.12049	0.417622	
-0.468495	-0.174678	0.182891	
-0.493315	-0.0814864	0.152319	
-0.492649	-0.0854243	0.248597	
-0.361082	-0.0385179	0.234803	
0.153329	-0.47591	0.0923815	
0.162218	-0.333858	0.109166	
0.125573	-0.41396	0	
0.104159	-0.395278	0.16544	
-0.247023	0.434718	0.250558	
-0.132465	0.342544	0.286862	
-0.256554	0.429162	0.331268	
-0.234922	0.307887	0.237464	
0.5	0	0.2	
0.493389	0.0810399	0.14715	
0.5	0	0.1	
0.351628	0.0194463	0.154597	
-0.259032	0.225769	0.154918	
-0.255792	0.140946	0.214728	
-0.364452	0.121056	0.219309	
-0.326028	0.142215	0.11299	
-0.162023	-0.339511	0.25028	
-0.0510822	-0.382345	0.237039	
-0.168043	-0.470916	0.199874	
-0.1449	-0.36257	0.121022	
0.00155464	-0.188347	0.5	
0.043412	-0.246202	0.5	
-0.043412	-0.246202	0.5	
0.000597841	-0.287345	0.400747	
0.223495	0.10535	0.166759	
0.340356	0.131144	0.231324	
0.196123	0.185647	0.211614	
0.276243	0.0902748	0.286189	
0.369217	0.203769	0.5	
0.30356	0.231708	0.5	
0.325794	0.291996	0.5	
0.316151	0.221929	0.385283	
-0.112789	0.14207	0.41726	
-0.125784	0.172859	0.335584	
-0.0948532	0.245573	0.374875	
-0.0473335	0.163087	0.434501	
0.0461078	-0.0584269	0	
-0.0272885	-0.0825315	0.132744	
0.0544868	-0.141962	0.103859	
0.0773506	-0.0233693	0.0836206	
-0.0497612	-0.177788	0.5	
-0.0829946	-0.232421	0.403465	
-0.0934074	-0.183691	0.5	
-0.0688906	-0.12049	0.417622	
-0.0741769	-0.222661	0.29905	
-0.0795999	-0.137717	0.328283	
-0.00915007	-0.159584	0.370443	
-0.00830008	-0.198671	0.244345	
0.175681	0.0639425	0.5	
0.10136	0.102523	0.406019	
0.228063	0.102246	0.400094	
0.202719	0.0237767	0.420412	
-0.34365	-0.0208645	0.382522	
-0.406264	0.0467051	0.292816	
-0.361082	-0.0385179	0.234803	
-0.387326	-0.108791	0.360005	
0.373926	0.198925	0	
0.436762	0.243391	0.0969381	
0.328092	0.270243	0	
0.337502	0.1652	0.112737	
-0.289778	-0.0776457	0.5	
-0.308042	-0.167631	0.5	
-0.364062	-0.132817	0.5	
-0.281583	-0.139061	0.36108	
0.0461078	-0.0584269	0	
-0.0272885	-0.0825315	0.132744	
-0.0232782	-0.127584	0	
0.0544868	-0.141962	0.103859	
0.340356	0.131144	0.231324	
0.329012	0.224405	0.280196	
0.266139	0.241799	0.177649	
0.196123	0.185647	0.211614	
-0.492649	-0.0854243	0.248597	
-0.352865	-0.168551	0.27433	
-0.361082	-0.0385179	0.234803	
-0.387326	-0.108791	0.360005	
0.163856	-0.062131	0.265284	
0.189715	-0.00503075	0.168338	
0.092572	-0.0674004	0.167448	
0.0884767	-0.000375704	0.258795	
-0.321766	0.212706	0.386222	
-0.1997	0.206062	0.414424	
-0.222708	0.258636	0.344999	
-0.281262	0.296575	0.411781	
0.224653	-0.281756	0.300179	
0.128689	-0.272515	0.368277	
0.194286	-0.353827	0.369459	
0.213897	-0.237657	0.431435	
-0.0829946	-0.232421	0.403465	
0.000597841	-0.287345	0.400747	
-0.0741769	-0.222661	0.29905	
0.0217781	-0.230689	0.341777	
-0.0741769	-0.222661	0.29905	
0.000597841	-0.287345	0.400747	
0.0093178	-0.302179	0.302179	
0.0217781	-0.230689	0.341777	
-0.00915007	-0.159584	0.370443	
0.0645865	-0.210943	0.409687	
0.000597841	-0.287345	0.400747	
0.0217781	-0.230689	0.341777	
-0.0732624	-0.0235498	0.355778	
-0.0795999	-0.137717	0.328283	
-0.0688906	-0.12049	0.417622	
-0.143954	-0.0664954	0.366375	
-0.328307	0.16356	0	
-0.318983	0.261743	0	
-0.389036	0.207425	0	
-0.326028	0.142215	0.11299	
-0.211369	-0.0761151	0	
-0.152331	-0.0811942	0.14549	
-0.261227	-0.0514885	0.117995	
-0.243673	-0.146253	0.0931104	
-0.0948532	0.245573	0.374875	
0.00464373	0.231373	0.403957	
-0.043412	0.246202	0.5	
-0.0473335	0.163087	0.434501	
-0.283975	-0.144274	0.184102	
-0.261227	-0.0514885	0.117995	
-0.361082	-0.0385179	0.234803	
-0.225667	-0.0555936	0.212037	
0	-0.5	0.1	
0.0130711	-0.359241	0.13871	
0.0404524	-0.41072	0	
-0.0562672	-0.401453	0.0877238	
0.12288	0.243768	0.182957	
0.233262	0.310813	0.267062	
0.103925	0.350791	0.253756	
0.139502	0.248001	0.286243	
-0.386792	-0.316847	0.301384	
-0.352865	-0.168551	0.27433	
-0.437078	-0.242822	0.347009	
-0.354384	-0.194129	0.402587	
0.416747	-0.276265	0.362548	
0.429476	-0.256028	0.291579	
0.373696	-0.332191	0.334057	
0.373857	-0.180895	0.313411	
-0.428104	0.258315	0.196896	
-0.304187	0.215745	0.266633	
-0.460762	0.19416	0.234059	
-0.364452	0.121056	0.219309	
-0.188087	-0.23341	0.313651	
-0.171623	-0.128704	0.255156	
-0.0741769	-0.222661	0.29905	
-0.10857	-0.188319	0.218241	
-0.278498	0.0524484	0.16694	
-0.364452	0.121056	0.219309	
-0.361082	-0.0385179	0.234803	
-0.296824	0.0138185	0.284404	
0.19149	0.263191	0.5	
0.24627	0.285293	0.404112	
0.199563	0.20121	0.405215	
0.130242	0.253849	0.414889	
0.043412	0.246202	0.5	
0.00464373	0.231373	0.403957	
0.0776457	0.289778	0.5	
0.130242	0.253849	0.414889	
-0.222708	0.258636	0.344999	
-0.0948532	0.245573	0.374875	
-0.125784	0.172859	0.335584	
-0.173354	0.242294	0.26617	
-0.1997	0.206062	0.414424	
-0.230719	0.171576	0.307699	
-0.222708	0.258636	0.344999	
-0.125784	0.172859	0.335584	
0.0565057	-0.147787	0.277794	
0.0255949	-0.0865848	0.221929	
0.0486433	-0.215998	0.178276	
-0.00830008	-0.198671	0.244345	
0.493389	0.0810399	0.14715	
0.5	0	0.1	
0.351628	0.0194463	0.154597	
0.391187	0.0843667	0.0902296	
-0.126305	-0.416563	0.5	
-0.144862	-0.478555	0.421652	
-0.195731	-0.375572	0.5	
-0.206938	-0.33712	0.400053	
0.259073	0.206972	0.5	
0.30356	0.231708	0.5	
0.308042	0.167631	0.5	
0.316151	0.221929	0.385283	
0.223495	0.10535	0.166759	
0.340356	0.131144	0.231324	
0.266139	0.241799	0.177649	
0.196123	0.185647	0.211614	
0.388274	0.315029	0.420807	
0.374193	0.331632	0.334643	
0.316151	0.221929	0.385283	
0.24627	0.285293	0.404112	
-0.0732624	-0.0235498	0.355778	
-0.115691	-0.0468978	0.268322	
-0.00800179	-0.0152081	0.261913	
-0.0145446	-0.0833015	0.323221	
0.373926	0.198925	0	
0.414183	0.131147	0	
0.478555	0.144862	0.0783483	
0.337502	0.1652	0.112737	
0.216506	-0.125	0.5	
0.273873	-0.116111	0.41418	
0.221044	-0.17499	0.5	
0.182789	-0.109466	0.430518	
-0.2429	0.437035	0.152631	
-0.213184	0.322526	0.106779	
-0.153329	0.47591	0.0923815	
-0.0809307	0.385403	0.109035	
0.0486433	-0.215998	0.178276	
0.0565057	-0.147787	0.277794	
0.113524	-0.1522	0.202868	
0.0255949	-0.0865848	0.221929	
0.29185	-0.325871	0.5	
0.203679	-0.368672	0.5	
0.231749	-0.30504	0.5	
0.270471	-0.290437	0.402527	
0.216156	0.175607	0.5	
0.169238	0.138503	0.5	
0.169426	0.205971	0.5	
0.199563	0.20121	0.405215	
0.317163	-0.386533	0.299742	
0.373696	-0.332191	0.334057	
0.224653	-0.281756	0.300179	
0.270471	-0.290437	0.402527	
-0.310856	0.111964	0.328315	
-0.37885	0.0751067	0.400181	
-0.321766	0.212706	0.386222	
-0.373924	0.17948	0.316585	
0	-0.5	0.1	
0.0704474	-0.495012	0.0718449	
0.0404524	-0.41072	0	
0.0130711	-0.359241	0.13871	
0.147585	-0.477722	0.416442	
0.130932	-0.431625	0.5	
0.132817	-0.364062	0.5	
0.0667135	-0.376589	0.379415	
-0.048473	-0.0328568	0	
-0.0272885	-0.0825315	0.132744	
0.0461078	-0.0584269	0	
-0.0145265	0.00397743	0.0865031	
0.0884767	-0.000375704	0.258795	
0.0244504	-0.00702123	0.176751	
-0.00800179	-0.0152081	0.261913	
0.00560742	0.0907829	0.203832	
-0.107964	-0.347419	0.364155	
-0.188087	-0.23341	0.313651	
-0.162023	-0.339511	0.25028	
-0.243234	-0.318297	0.307228	
0.245477	-0.191651	0	
0.313473	-0.209952	0.12238	
0.18433	-0.220573	0.141371	
0.251583	-0.28589	0.0896708	
-0.152331	-0.0811942	0.14549	
-0.127253	-0.156126	0.0844713	
-0.211369	-0.0761151	0	
-0.0957928	-0.0529556	0.0773873	
0.164797	-0.177585	0	
0.18433	-0.220573	0.141371	
0.245477	-0.191651	0	
0.164655	-0.11934	0.10185	
0.450285	0.217356	0.355302	
0.415735	0.277785	0.365862	
0.4284	0.257824	0.295024	
0.329012	0.224405	0.280196	
-0.00425413	0.131001	0	
0.0903521	0.10545	0	
0.0596404	0.176022	0.113284	
-0.0250996	0.111886	0.106171	
0.317206	0.386498	0.299678	
0.3168	0.386831	0.395903	
0.25658	0.429146	0.33124	
0.24627	0.285293	0.404112	
0.493378	-0.0811073	0.146993	
0.490316	-0.0979281	0.24092	
0.34942	-0.0723305	0.238193	
0.375867	-0.158621	0.196853	
-0.15	0.259808	0.5	
-0.0776457	0.289778	0.5	
-0.125	0.216506	0.5	
-0.0948532	0.245573	0.374875	
0.133074	0.264097	0	
0.0596404	0.176022	0.113284	
0.0651412	0.200096	0	
0.191109	0.195644	0.106001	
0.169238	0.138503	0.5	
0.113554	0.0989266	0.5	
0.118461	0.161044	0.5	
0.10136	0.102523	0.406019	
-0.0507575	0.0878249	0.5	
-0.0790952	0.0620487	0.41859	
-0.0892693	0.13018	0.5	
-0.0473335	0.163087	0.434501	
0.0130711	-0.359241	0.13871	
0.0676693	-0.388009	0.271914	
0	-0.5	0.2	
0.104159	-0.395278	0.16544	
0.165128	-0.182854	0.275544	
0.249365	-0.119116	0.299613	
0.304682	-0.199557	0.252634	
0.227664	-0.175808	0.20875	
0.264667	-0.00226535	0.295846	
0.209772	-0.0539676	0.386967	
0.307169	-0.0101791	0.393725	
0.202719	0.0237767	0.420412	
0.317163	-0.386533	0.299742	
0.270471	-0.290437	0.402527	
0.224653	-0.281756	0.300179	
0.194286	-0.353827	0.369459	
-0.0732624	-0.0235498	0.355778	
-0.0790952	0.0620487	0.41859	
-0.166197	0.012686	0.395566	
-0.0921341	-0.0472882	0.428822	
0.165128	-0.182854	0.275544	
0.249365	-0.119116	0.299613	
0.118937	-0.109877	0.313008	
0.19791	-0.131113	0.360072	
-0.304187	0.215745	0.266633	
-0.230719	0.171576	0.307699	
-0.255792	0.140946	0.214728	
-0.173354	0.242294	0.26617	
0.304695	-0.194694	0.5	
0.260383	-0.192244	0.5	
0.259808	-0.15	0.5	
0.273873	-0.116111	0.41418	
0.184962	0.0799289	0	
0.247868	0.146306	0	
0.191109	0.195644	0.106001	
0.165336	0.0617817	0.0970708	
0.230141	0.201516	0.310453	
0.096294	0.191774	0.363276	
0.199563	0.20121	0.405215	
0.139502	0.248001	0.286243	
-0.152331	-0.0811942	0.14549	
-0.243673	-0.146253	0.0931104	
-0.211369	-0.0761151	0	
-0.127253	-0.156126	0.0844713	
-0.107964	-0.347419	0.364155	
0.0093178	-0.302179	0.302179	
0.000597841	-0.287345	0.400747	
-0.0295129	-0.397696	0.405297	
0.199563	0.20121	0.405215	
0.139502	0.248001	0.286243	
0.096294	0.191774	0.363276	
0.130242	0.253849	0.414889	
0.0682711	-0.052186	0.339077	
0.00473146	-0.0477129	0.410326	
0.0293798	0.0426018	0.391106	
0.0015496	-0.0106233	0.342921	
0.376757	0.328716	0.246468	
0.266139	0.241799	0.177649	
0.428195	0.258165	0.201755	
0.329012	0.224405	0.280196	
0.230141	0.201516	0.310453	
0.199563	0.20121	0.405215	
0.164757	0.31504	0.3626	
0.139502	0.248001	0.286243	
0.128497	-0.139894	0.387724	
0.118937	-0.109877	0.313008	
0.0936941	-0.0576924	0.420616	
0.14698	-0.0404502	0.339975	
0.439458	0.238488	0.424308	
0.415735	0.277785	0.365862	
0.450285	0.217356	0.355302	
0.316151	0.221929	0.385283	
0.0943468	-0.245334	0	
0.201164	-0.273578	0	
0.18433	-0.220573	0.141371	
0.162218	-0.333858	0.109166	
0	-0.5	0.2	
0.0130711	-0.359241	0.13871	
-0.0510822	-0.382345	0.237039	
0.0676693	-0.388009	0.271914	
0.0903521	0.10545	0	
-0.00425413	0.131001	0	
0.0209546	0.0362755	0	
-0.0250996	0.111886	0.106171	
0.0667135	-0.376589	0.379415	
0.194286	-0.353827	0.369459	
0.174738	-0.468473	0.317184	
0.0676693	-0.388009	0.271914	
0.00473146	-0.0477129	0.410326	
0.00727488	-0.125574	0.43338	
-0.0145446	-0.0833015	0.323221	
0.0558806	-0.119121	0.374407	
0.324629	0.108316	0.364447	
0.230141	0.201516	0.310453	
0.329012	0.224405	0.280196	
0.276243	0.0902748	0.286189	
0.0776457	-0.289778	0.5	
0.125	-0.216506	0.5	
0.15	-0.259808	0.5	
0.0645865	-0.210943	0.409687	
0.0486433	-0.215998	0.178276	
-0.00830008	-0.198671	0.244345	
-0.0369979	-0.193764	0.104577	
-0.00981402	-0.289236	0.206945	
-0.221879	0.0747178	0.286107	
-0.225667	-0.0555936	0.212037	
-0.212951	-0.0278954	0.307934	
-0.296824	0.0138185	0.284404	
0.215641	0.22714	0.5	
0.248409	0.277977	0.5	
0.259073	0.206972	0.5	
0.24627	0.285293	0.404112	
-0.493315	-0.0814864	0.152319	
-0.372622	-0.0844629	0.11881	
-0.5	0	0.1	
-0.385327	0.0355064	0.11322	
-0.00447954	0.190881	0.5	
0.0101256	0.127322	0.41346	
0.017794	0.149684	0.5	
-0.0473335	0.163087	0.434501	
0.228991	0.444481	0.408099	
0.3168	0.386831	0.395903	
0.270443	0.334367	0.5	
0.24627	0.285293	0.404112	
-0.00915007	-0.159584	0.370443	
-0.00830008	-0.198671	0.244345	
0.0565057	-0.147787	0.277794	
0.0217781	-0.230689	0.341777	
0.317163	-0.386533	0.299742	
0.247023	-0.434718	0.250558	
0.256554	-0.429162	0.331268	
0.224653	-0.281756	0.300179	
-0.169854	0.0238988	0.185748	
-0.115691	-0.0468978	0.268322	
-0.152331	-0.0811942	0.14549	
-0.0599463	-0.0498399	0.20415	
-0.283975	-0.144274	0.184102	
-0.372622	-0.0844629	0.11881	
-0.361082	-0.0385179	0.234803	
-0.261227	-0.0514885	0.117995	
-0.144862	-0.478555	0.421652	
-0.107964	-0.347419	0.364155	
-0.126305	-0.416563	0.5	
-0.0295129	-0.397696	0.405297	
-0.166197	0.012686	0.395566	
-0.0921341	-0.0472882	0.428822	
-0.214222	-0.0809482	0.409057	
-0.143954	-0.0664954	0.366375	
0.175681	0.0639425	0.5	
0.102443	0.0227629	0.419717	
0.10136	0.102523	0.406019	
0.202719	0.0237767	0.420412	
-0.222708	0.258636	0.344999	
-0.321766	0.212706	0.386222	
-0.304187	0.215745	0.266633	
-0.230719	0.171576	0.307699	
-0.188087	-0.23341	0.313651	
-0.285188	-0.256019	0.23904	
-0.162023	-0.339511	0.25028	
-0.243234	-0.318297	0.307228	
0	-0.5	0.4	
0.0667135	-0.376589	0.379415	
0	-0.5	0.3	
-0.0295129	-0.397696	0.405297	
-0.361082	-0.0385179	0.234803	
-0.261227	-0.0514885	0.117995	
-0.278498	0.0524484	0.16694	
-0.225667	-0.0555936	0.212037	
0.164757	0.31504	0.3626	
0.139502	0.248001	0.286243	
0.199563	0.20121	0.405215	
0.130242	0.253849	0.414889	
-0.0974804	-0.267818	0.168751	
-0.0510822	-0.382345	0.237039	
0.0130711	-0.359241	0.13871	
-0.00981402	-0.289236	0.206945	
0.439384	-0.238625	0.423358	
0.375572	-0.195731	0.5	
0.476132	-0.152637	0.402329	
0.340228	-0.209884	0.396212	
0.164757	0.31504	0.3626	
0.199563	0.20121	0.405215	
0.230141	0.201516	0.310453	
0.24627	0.285293	0.404112	
-0.00800179	-0.0152081	0.261913	
-0.104233	0.0522254	0.274426	
-0.0573721	0.0334812	0.170638	
-0.0599463	-0.0498399	0.20415	
-0.478516	0.14499	0.0762896	
-0.469621	0.171627	0.160116	
-0.385327	0.0355064	0.11322	
-0.326028	0.142215	0.11299	
-0.115841	0.288513	0.162892	
-0.259032	0.225769	0.154918	
-0.213184	0.322526	0.106779	
-0.170195	0.225746	0.0963396	
-0.26105	0.203399	0	
-0.318983	0.261743	0	
-0.328307	0.16356	0	
-0.326028	0.142215	0.11299	
0.0101256	0.127322	0.41346	
0.0293798	0.0426018	0.391106	
0.00171532	0.0670635	0.305226	
0.0522467	0.122489	0.34166	
-0.281583	-0.139061	0.36108	
-0.246996	-0.178452	0.424102	
-0.188087	-0.23341	0.313651	
-0.203272	-0.117351	0.333128	
0.431625	0.130932	0.5	
0.439458	0.238488	0.424308	
0.476114	0.152694	0.40246	
0.364062	0.132817	0.5	
0.0454237	0.00960241	0.5	
0.0376566	-0.0505847	0.5	
-0.0081622	-0.0144392	0.5	
0.00473146	-0.0477129	0.410326	
0	0.5	0.3	
0	0.5	0.4	
-0.082983	0.493066	0.348347	
-0.073553	0.38985	0.391066	
-0.0833019	-0.493012	0.155211	
-0.1449	-0.36257	0.121022	
-0.0510822	-0.382345	0.237039	
-0.0562672	-0.401453	0.0877238	
-0.31678	0.386847	0.395869	
-0.317163	0.386533	0.299742	
-0.256554	0.429162	0.331268	
-0.281262	0.296575	0.411781	
-0.230549	-0.284648	0.130866	
-0.285188	-0.256019	0.23904	
-0.283975	-0.144274	0.184102	
-0.323408	-0.220518	0.107073	
0.363184	0.0579886	0.5	
0.307169	-0.0101791	0.393725	
0.324629	0.108316	0.364447	
0.400259	0.0398147	0.391942	
0.249365	-0.119116	0.299613	
0.209772	-0.0539676	0.386967	
0.14698	-0.0404502	0.339975	
0.19791	-0.131113	0.360072	
-0.0833019	-0.493012	0.155211	
-0.168043	-0.470916	0.199874	
-0.0510822	-0.382345	0.237039	
-0.1449	-0.36257	0.121022	
0.0807477	0.493437	0.154224	
0	0.5	0.2	
0	0.5	0.1	
0.0214814	0.353326	0.153644	
-0.00455509	0.289048	0.289048	
0.103925	0.350791	0.253756	
0.0365945	0.375424	0.376008	
0.0691737	0.285591	0.353708	
0.34942	-0.0723305	0.238193	
0.249365	-0.119116	0.299613	
0.304682	-0.199557	0.252634	
0.373857	-0.180895	0.313411	
-0.404541	0.126945	0	
-0.478516	0.14499	0.0762896	
-0.385327	0.0355064	0.11322	
-0.326028	0.142215	0.11299	
-0.0509221	-0.120838	0.250106	
-0.00800179	-0.0152081	0.261913	
-0.115691	-0.0468978	0.268322	
-0.0145446	-0.0833015	0.323221	
0.478516	-0.14499	0.0762896	
0.380207	-0.19708	0	
0.436811	-0.243302	0.0936268	
0.369564	-0.0975027	0.118883	
-0.174738	0.468473	0.317184	
-0.132465	0.342544	0.286862	
-0.082983	0.493066	0.348347	
-0.073553	0.38985	0.391066	
-0.318983	0.261743	0	
-0.214341	0.273759	0	
-0.273315	0.334955	0	
-0.213184	0.322526	0.106779	
0.274666	-0.249265	0.5	
0.340228	-0.209884	0.396212	
0.270471	-0.290437	0.402527	
0.213897	-0.237657	0.431435	
-0.0734441	0.0616893	0	
-0.0250996	0.111886	0.106171	
-0.128142	0.132022	0.124103	
-0.12546	0.0336645	0.0931586	
-0.00455509	0.289048	0.289048	
0.139502	0.248001	0.286243	
0.103925	0.350791	0.253756	
0.0691737	0.285591	0.353708	
-0.132465	0.342544	0.286862	
-0.082138	0.218948	0.273339	
-0.0948532	0.245573	0.374875	
-0.173354	0.242294	0.26617	
-0.142736	-0.147946	0.384212	
-0.0829946	-0.232421	0.403465	
-0.0741769	-0.222661	0.29905	
-0.0795999	-0.137717	0.328283	
-0.107964	-0.347419	0.364155	
-0.206938	-0.33712	0.400053	
-0.188087	-0.23341	0.313651	
-0.243234	-0.318297	0.307228	
0.376757	0.328716	0.246468	
0.233262	0.310813	0.267062	
0.266139	0.241799	0.177649	
0.329012	0.224405	0.280196	
0.176544	-0.0644028	0.5	
0.136333	-0.0203798	0.5	
0.196849	-0.00527115	0.5	
0.202719	0.0237767	0.420412	
0.209772	-0.0539676	0.386967	
0.182789	-0.109466	0.430518	
0.0936941	-0.0576924	0.420616	
0.14698	-0.0404502	0.339975	
-0.429476	0.256028	0.291579	
-0.304187	0.215745	0.266633	
-0.373696	0.332191	0.334057	
-0.373924	0.17948	0.316585	
0.247868	0.146306	0	
0.165336	0.0617817	0.0970708	
0.184962	0.0799289	0	
0.292412	0.0780179	0.101456	
0.155319	-0.32739	0.22804	
0.162218	-0.333858	0.109166	
0.2429	-0.437035	0.152631	
0.104159	-0.395278	0.16544	
0.165128	-0.182854	0.275544	
0.236451	-0.193336	0.377474	
0.249365	-0.119116	0.299613	
0.19791	-0.131113	0.360072	
0.00473146	-0.0477129	0.410326	
-0.0921341	-0.0472882	0.428822	
-0.0625361	-0.0382385	0.5	
-0.0238699	0.0158197	0.434577	
-0.0232782	-0.127584	0	
0.0461078	-0.0584269	0	
-0.048473	-0.0328568	0	
-0.0272885	-0.0825315	0.132744	
0.0461078	-0.0584269	0	
-0.0145265	0.00397743	0.0865031	
-0.0272885	-0.0825315	0.132744	
0.0773506	-0.0233693	0.0836206	
0.414991	0.0495125	0	
0.409478	-0.032947	0	
0.5	0	0.1	
0.391187	0.0843667	0.0902296	
0.096294	0.191774	0.363276	
0.0101256	0.127322	0.41346	
0.00464373	0.231373	0.403957	
0.0522467	0.122489	0.34166	
-0.303998	0.231686	0.5	
-0.321766	0.212706	0.386222	
-0.325943	0.285613	0.5	
-0.281262	0.296575	0.411781	
0.228959	-0.444497	0.408094	
0.132817	-0.364062	0.5	
0.203679	-0.368672	0.5	
0.194286	-0.353827	0.369459	
-0.171623	-0.128704	0.255156	
-0.142736	-0.147946	0.384212	
-0.0795999	-0.137717	0.328283	
-0.203272	-0.117351	0.333128	
0.450285	0.217356	0.355302	
0.4284	0.257824	0.295024	
0.470916	0.168043	0.300126	
0.329012	0.224405	0.280196	
0.259073	0.206972	0.5	
0.216156	0.175607	0.5	
0.215641	0.22714	0.5	
0.199563	0.20121	0.405215	
0.264667	-0.00226535	0.295846	
0.34942	-0.0723305	0.238193	
0.347622	-0.102783	0.358549	
0.249365	-0.119116	0.299613	
-0.10857	-0.188319	0.218241	
-0.00830008	-0.198671	0.244345	
-0.0741769	-0.222661	0.29905	
-0.00981402	-0.289236	0.206945	
0.223495	0.10535	0.166759	
0.191109	0.195644	0.106001	
0.337502	0.1652	0.112737	
0.292412	0.0780179	0.101456	
-0.0829946	-0.232421	0.403465	
-0.0688906	-0.12049	0.417622	
-0.00915007	-0.159584	0.370443	
-0.0795999	-0.137717	0.328283	
0.495208	-0.0690617	0.0692099	
0.493378	-0.0811073	0.146993	
0.5	0	0.1	
0.369564	-0.0975027	0.118883	
-0.259808	0.2	0.5	
-0.1997	0.206062	0.414424	
-0.210645	0.180174	0.5	
-0.266336	0.143871	0.409139	
0.364062	0.132817	0.5	
0.289778	0.0776457	0.5	
0.308042	0.167631	0.5	
0.324629	0.108316	0.364447	
-0.428104	0.258315	0.196896	
-0.304187	0.215745	0.266633	
-0.429476	0.256028	0.291579	
-0.373924	0.17948	0.316585	
0.351628	0.0194463	0.154597	
0.34942	-0.0723305	0.238193	
0.254347	-0.100565	0.163493	
0.369564	-0.0975027	0.118883	
2.23198e-17	0.373746	0.5	
-0.073553	0.38985	0.391066	
0.0365945	0.375424	0.376008	
-0.0433744	0.307825	0.417357	
-0.0734441	0.0616893	0	
-0.0983601	0.156434	0	
-0.128142	0.132022	0.124103	
-0.0250996	0.111886	0.106171	
0.380873	0.323938	0.152261	
0.266139	0.241799	0.177649	
0.316847	0.386792	0.198616	
0.227449	0.293019	0.0951933	
0.231749	-0.30504	0.5	
0.270471	-0.290437	0.402527	
0.203679	-0.368672	0.5	
0.194286	-0.353827	0.369459	
-0.115691	-0.0468978	0.268322	
-0.0795999	-0.137717	0.328283	
-0.0732624	-0.0235498	0.355778	
-0.143954	-0.0664954	0.366375	
0.135086	0.326126	0.5	
0.164757	0.31504	0.3626	
0.194694	0.304695	0.5	
0.130242	0.253849	0.414889	
-0.3	7.34788e-17	0.5	
-0.246202	0.043412	0.5	
-0.246202	-0.043412	0.5	
-0.259226	0.03952	0.402729	
-0.5	0	0.3	
-0.493437	-0.0807477	0.345776	
-0.492649	-0.0854243	0.248597	
-0.361082	-0.0385179	0.234803	
0.351628	0.0194463	0.154597	
0.337502	0.1652	0.112737	
0.340356	0.131144	0.231324	
0.391187	0.0843667	0.0902296	
-0.177196	0.0645246	0.5	
-0.246202	0.043412	0.5	
-0.216506	0.125	0.5	
-0.15502	0.0902607	0.438606	
-0.281583	-0.139061	0.36108	
-0.246996	-0.178452	0.424102	
-0.308042	-0.167631	0.5	
-0.354384	-0.194129	0.402587	
-0.289778	-0.0776457	0.5	
-0.361276	-0.0455918	0.5	
-0.3	7.34788e-17	0.5	
-0.34365	-0.0208645	0.382522	
-0.434698	-0.247057	0.249501	
-0.386498	-0.317206	0.200322	
-0.429146	-0.25658	0.16876	
-0.285188	-0.256019	0.23904	
-0.493315	-0.0814864	0.152319	
-0.5	0	0.1	
-0.5	0	0.2	
-0.385327	0.0355064	0.11322	
0.340356	0.131144	0.231324	
0.337502	0.1652	0.112737	
0.351628	0.0194463	0.154597	
0.292412	0.0780179	0.101456	
0.12288	0.243768	0.182957	
0.103925	0.350791	0.253756	
0.0214814	0.353326	0.153644	
0.0266006	0.259074	0.200021	
0.0130711	-0.359241	0.13871	
-0.0974804	-0.267818	0.168751	
-0.00981402	-0.289236	0.206945	
0.0390368	-0.27687	0.0931397	
-0.364452	0.121056	0.219309	
-0.278498	0.0524484	0.16694	
-0.255792	0.140946	0.214728	
-0.296824	0.0138185	0.284404	
0.0814864	0.493315	0.347681	
0.0365945	0.375424	0.376008	
0	0.5	0.3	
0.000988831	0.396472	0.255648	
0.228063	0.102246	0.400094	
0.162344	0.134607	0.350934	
0.230141	0.201516	0.310453	
0.276243	0.0902748	0.286189	
0.165128	-0.182854	0.275544	
0.249365	-0.119116	0.299613	
0.163856	-0.062131	0.265284	
0.118937	-0.109877	0.313008	
-0.259226	0.03952	0.402729	
-0.266336	0.143871	0.409139	
-0.216506	0.125	0.5	
-0.15502	0.0902607	0.438606	
-0.186407	-0.169451	0	
-0.261345	-0.230036	0	
-0.168688	-0.281701	0	
-0.230549	-0.284648	0.130866	
0.254347	-0.100565	0.163493	
0.351628	0.0194463	0.154597	
0.268679	-0.0175832	0.0938256	
0.27082	0.0310537	0.205694	
0.230141	0.201516	0.310453	
0.139502	0.248001	0.286243	
0.186062	0.10988	0.269638	
0.162344	0.134607	0.350934	
0.428104	-0.258315	0.196896	
0.313473	-0.209952	0.12238	
0.304682	-0.199557	0.252634	
0.375867	-0.158621	0.196853	
-0.174738	0.468473	0.317184	
-0.173891	0.340446	0.398741	
-0.132465	0.342544	0.286862	
-0.073553	0.38985	0.391066	
0.0365945	0.375424	0.376008	
0.103925	0.350791	0.253756	
-0.00455509	0.289048	0.289048	
0.000988831	0.396472	0.255648	
0.163856	-0.062131	0.265284	
0.189715	-0.00503075	0.168338	
0.0884767	-0.000375704	0.258795	
0.172939	0.0245765	0.250039	
0.374193	0.331632	0.334643	
0.233262	0.310813	0.267062	
0.376757	0.328716	0.246468	
0.329012	0.224405	0.280196	
0.264667	-0.00226535	0.295846	
0.155785	0.045673	0.353105	
0.172939	0.0245765	0.250039	
0.14698	-0.0404502	0.339975	
-0.0232782	-0.127584	0	
-0.127253	-0.156126	0.0844713	
-0.0272885	-0.0825315	0.132744	
-0.0957928	-0.0529556	0.0773873	
0.194694	0.304695	0.5	
0.195731	0.375572	0.5	
0.270443	0.334367	0.5	
0.24627	0.285293	0.404112	
-0.056943	0.120887	0.354229	
0.0101256	0.127322	0.41346	
0.00171532	0.0670635	0.305226	
0.0522467	0.122489	0.34166	
-0.283975	-0.144274	0.184102	
-0.225667	-0.0555936	0.212037	
-0.152331	-0.0811942	0.14549	
-0.243673	-0.146253	0.0931104	
0.328092	0.270243	0	
0.436762	0.243391	0.0969381	
0.386505	0.317197	0.0688254	
0.337502	0.1652	0.112737	
0.268393	-0.334301	0	
0.194604	-0.371188	0	
0.235698	-0.440961	0.0686036	
0.251583	-0.28589	0.0896708	
0.230141	0.201516	0.310453	
0.324629	0.108316	0.364447	
0.228063	0.102246	0.400094	
0.276243	0.0902748	0.286189	
0.0694446	0.0614041	0.127763	
0.165336	0.0617817	0.0970708	
0.189715	-0.00503075	0.168338	
0.0773506	-0.0233693	0.0836206	
-0.00800179	-0.0152081	0.261913	
-0.115691	-0.0468978	0.268322	
-0.104233	0.0522254	0.274426	
-0.0599463	-0.0498399	0.20415	
0.0682711	-0.052186	0.339077	
0.0293798	0.0426018	0.391106	
0.102443	0.0227629	0.419717	
0.0785134	0.0464455	0.325494	
-0.5	0	0.1	
-0.372622	-0.0844629	0.11881	
-0.494668	-0.0728232	0.0735406	
-0.385327	0.0355064	0.11322	
0.386505	0.317197	0.0688254	
0.436762	0.243391	0.0969381	
0.380873	0.323938	0.152261	
0.337502	0.1652	0.112737	
0.30356	0.231708	0.5	
0.325794	0.291996	0.5	
0.316151	0.221929	0.385283	
0.24627	0.285293	0.404112	
0.470916	0.168043	0.300126	
0.340356	0.131144	0.231324	
0.490343	0.0977967	0.241226	
0.379606	0.0327687	0.28854	
-0.166581	-0.0467287	0.5	
-0.112672	-0.0704426	0.5	
-0.149626	-0.106257	0.5	
-0.0921341	-0.0472882	0.428822	
0.224653	-0.281756	0.300179	
0.194286	-0.353827	0.369459	
0.270471	-0.290437	0.402527	
0.213897	-0.237657	0.431435	
-0.0232782	-0.127584	0	
-0.0369979	-0.193764	0.104577	
-0.0272885	-0.0825315	0.132744	
-0.127253	-0.156126	0.0844713	
0.166469	-0.308164	0.5	
0.231749	-0.30504	0.5	
0.203679	-0.368672	0.5	
0.194286	-0.353827	0.369459	
-0.104233	0.0522254	0.274426	
-0.0573721	0.0334812	0.170638	
-0.0531538	0.125355	0.264689	
0.00560742	0.0907829	0.203832	
0.366186	-0.0790357	0.5	
0.273873	-0.116111	0.41418	
0.289778	-0.0776457	0.5	
0.392021	-0.0480463	0.41747	
-0.0081622	-0.0144392	0.5	
-0.0156334	-0.0737433	0.5	
-0.0625361	-0.0382385	0.5	
0.00473146	-0.0477129	0.410326	
-0.00915007	-0.159584	0.370443	
0.000597841	-0.287345	0.400747	
-0.0829946	-0.232421	0.403465	
0.0217781	-0.230689	0.341777	
-0.493012	0.0833019	0.344789	
-0.37885	0.0751067	0.400181	
-0.406264	0.0467051	0.292816	
-0.373924	0.17948	0.316585	
-0.0790952	0.0620487	0.41859	
-0.112789	0.14207	0.41726	
-0.0892693	0.13018	0.5	
-0.0473335	0.163087	0.434501	
-0.0228356	-0.132115	0.5	
-0.0497612	-0.177788	0.5	
-0.0688906	-0.12049	0.417622	
0.00727488	-0.125574	0.43338	
0.490316	-0.0979281	0.24092	
0.5	0	0.3	
0.5	0	0.2	
0.379606	0.0327687	0.28854	
-0.315029	-0.388274	0.0791933	
-0.386831	-0.3168	0.104097	
-0.230549	-0.284648	0.130866	
-0.323408	-0.220518	0.107073	
0.133074	0.264097	0	
0.0651412	0.200096	0	
0.158056	0.171884	0	
0.191109	0.195644	0.106001	
-0.283975	-0.144274	0.184102	
-0.183468	-0.187607	0.160733	
-0.152331	-0.0811942	0.14549	
-0.225667	-0.0555936	0.212037	
0.228991	0.444481	0.408099	
0.174678	0.468495	0.317109	
0.164757	0.31504	0.3626	
0.117226	0.368857	0.420345	
-0.289778	0.0776457	0.5	
-0.266336	0.143871	0.409139	
-0.259226	0.03952	0.402729	
-0.37885	0.0751067	0.400181	
0.115537	0.0107471	0	
0.14072	-0.0839746	0	
0.210156	-0.0147965	0	
0.0773506	-0.0233693	0.0836206	
0.259073	0.206972	0.5	
0.248409	0.277977	0.5	
0.30356	0.231708	0.5	
0.24627	0.285293	0.404112	
0.133074	0.264097	0	
0.0596404	0.176022	0.113284	
0.191109	0.195644	0.106001	
0.0793736	0.28635	0.097829	
0.266139	0.241799	0.177649	
0.337502	0.1652	0.112737	
0.223495	0.10535	0.166759	
0.191109	0.195644	0.106001	
-0.436811	0.243302	0.0936268	
-0.478516	0.14499	0.0762896	
-0.389036	0.207425	0	
-0.326028	0.142215	0.11299	
0.162218	-0.333858	0.109166	
0.262155	-0.286798	0.192405	
0.2429	-0.437035	0.152631	
0.251583	-0.28589	0.0896708	
-0.142736	-0.147946	0.384212	
-0.0921341	-0.0472882	0.428822	
-0.0688906	-0.12049	0.417622	
-0.143954	-0.0664954	0.366375	
-0.302044	-0.0506462	0	
-0.237047	0.0201392	0	
-0.337562	0.0547633	0	
-0.261227	-0.0514885	0.117995	
-0.259032	0.225769	0.154918	
-0.234922	0.307887	0.237464	
-0.304187	0.215745	0.266633	
-0.173354	0.242294	0.26617	
-0.478516	0.14499	0.0762896	
-0.469621	0.171627	0.160116	
-0.493378	0.0811073	0.146993	
-0.385327	0.0355064	0.11322	
0.128497	-0.139894	0.387724	
0.209772	-0.0539676	0.386967	
0.182789	-0.109466	0.430518	
0.19791	-0.131113	0.360072	
0.132817	-0.364062	0.5	
0.228959	-0.444497	0.408094	
0.147585	-0.477722	0.416442	
0.194286	-0.353827	0.369459	
0.300884	0.198715	0	
0.373926	0.198925	0	
0.328092	0.270243	0	
0.337502	0.1652	0.112737	
0.0682711	-0.052186	0.339077	
0.0785134	0.0464455	0.325494	
0.102443	0.0227629	0.419717	
0.14698	-0.0404502	0.339975	
0.132817	-0.364062	0.5	
0.0579886	-0.363184	0.5	
0.0776457	-0.289778	0.5	
0.0667135	-0.376589	0.379415	
-0.212951	-0.0278954	0.307934	
-0.169854	0.0238988	0.185748	
-0.115691	-0.0468978	0.268322	
-0.225667	-0.0555936	0.212037	
-0.13896	0.0197163	0.5	
-0.0790952	0.0620487	0.41859	
-0.166197	0.012686	0.395566	
-0.15502	0.0902607	0.438606	
-0.00455509	0.289048	0.289048	
-0.0948532	0.245573	0.374875	
0.00464373	0.231373	0.403957	
-0.0433744	0.307825	0.417357	
0.347622	-0.102783	0.358549	
0.249365	-0.119116	0.299613	
0.34942	-0.0723305	0.238193	
0.373857	-0.180895	0.313411	
0.163856	-0.062131	0.265284	
0.249365	-0.119116	0.299613	
0.14698	-0.0404502	0.339975	
0.19791	-0.131113	0.360072	
0.313791	-0.154465	0	
0.313473	-0.209952	0.12238	
0.380207	-0.19708	0	
0.369564	-0.0975027	0.118883	
0.476132	-0.152637	0.402329	
0.450312	-0.217299	0.354112	
0.340228	-0.209884	0.396212	
0.373857	-0.180895	0.313411	
0.164757	0.31504	0.3626	
0.230141	0.201516	0.310453	
0.233262	0.310813	0.267062	
0.24627	0.285293	0.404112	
-0.3	7.34788e-17	0.5	
-0.361276	-0.0455918	0.5	
-0.351551	0.0541915	0.5	
-0.34365	-0.0208645	0.382522	
0.0936941	-0.0576924	0.420616	
0.118937	-0.109877	0.313008	
0.0682711	-0.052186	0.339077	
0.14698	-0.0404502	0.339975	
-0.0734441	0.0616893	0	
-0.128142	0.132022	0.124103	
-0.16685	0.0883447	0	
-0.12546	0.0336645	0.0931586	
0.0712814	-0.153152	0	
0.164797	-0.177585	0	
0.164655	-0.11934	0.10185	
0.0544868	-0.141962	0.103859	
-0.056943	0.120887	0.354229	
-0.125784	0.172859	0.335584	
-0.0531538	0.125355	0.264689	
-0.12302	0.073304	0.350874	
0.174738	-0.468473	0.317184	
0.155319	-0.32739	0.22804	
0.16873	-0.47067	0.201799	
0.0676693	-0.388009	0.271914	
-0.056943	0.120887	0.354229	
-0.082138	0.218948	0.273339	
0.0133811	0.178278	0.293393	
-0.0531538	0.125355	0.264689	
-0.364062	-0.132817	0.5	
-0.387326	-0.108791	0.360005	
-0.281583	-0.139061	0.36108	
-0.354384	-0.194129	0.402587	
0.12288	0.243768	0.182957	
0.266139	0.241799	0.177649	
0.233262	0.310813	0.267062	
0.196123	0.185647	0.211614	
-0.142736	-0.147946	0.384212	
-0.246996	-0.178452	0.424102	
-0.188087	-0.23341	0.408968	
-0.167688	-0.179794	0.441452	
0.379606	0.0327687	0.28854	
0.400259	0.0398147	0.391942	
0.307169	-0.0101791	0.393725	
0.392021	-0.0480463	0.41747	
-0.188087	-0.23341	0.408968	
-0.288349	-0.269581	0.401233	
-0.188087	-0.23341	0.313651	
-0.243234	-0.318297	0.307228	
0.228959	-0.444497	0.408094	
0.130932	-0.431625	0.5	
0.203679	-0.368672	0.5	
0.132817	-0.364062	0.5	
0.153328	0.47591	0.0923699	
0.0704482	0.495012	0.0718447	
0.114055	0.374109	0	
0.145858	0.357927	0.135369	
0.0682711	-0.052186	0.339077	
0.118937	-0.109877	0.313008	
0.128497	-0.139894	0.387724	
0.0558806	-0.119121	0.374407	
0.18228	-0.160584	0.5	
0.216506	-0.125	0.5	
0.221044	-0.17499	0.5	
0.182789	-0.109466	0.430518	
0.128689	-0.272515	0.368277	
0.0851242	-0.244368	0.268286	
0.0093178	-0.302179	0.302179	
0.0217781	-0.230689	0.341777	
-0.436811	0.243302	0.0936268	
-0.428104	0.258315	0.196896	
-0.469621	0.171627	0.160116	
-0.326028	0.142215	0.11299	
0.165128	-0.182854	0.275544	
0.164604	-0.198565	0.360975	
0.236451	-0.193336	0.377474	
0.19791	-0.131113	0.360072	
-0.278498	0.0524484	0.16694	
-0.221879	0.0747178	0.286107	
-0.169854	0.0238988	0.185748	
-0.255792	0.140946	0.214728	
0.374193	0.331632	0.334643	
0.415735	0.277785	0.365862	
0.316151	0.221929	0.385283	
0.329012	0.224405	0.280196	
0.259808	0.15	0.5	
0.216506	0.125	0.5	
0.216156	0.175607	0.5	
0.228063	0.102246	0.400094	
0.19149	0.263191	0.5	
0.199563	0.20121	0.405215	
0.169426	0.205971	0.5	
0.130242	0.253849	0.414889	
-0.0573721	0.0334812	0.170638	
-0.104233	0.0522254	0.274426	
-0.0531538	0.125355	0.264689	
-0.107039	0.0995618	0.201757	
-0.270443	0.334367	0.5	
-0.31678	0.386847	0.395869	
-0.228959	0.444497	0.408094	
-0.281262	0.296575	0.411781	
-0.18644	0.1823	0	
-0.128142	0.132022	0.124103	
-0.170195	0.225746	0.0963396	
-0.215195	0.0857371	0.0917705	
-0.142736	-0.147946	0.384212	
-0.0688906	-0.12049	0.417622	
-0.0829946	-0.232421	0.403465	
-0.0795999	-0.137717	0.328283	
0.209772	-0.0539676	0.386967	
0.128497	-0.139894	0.387724	
0.182789	-0.109466	0.430518	
0.14698	-0.0404502	0.339975	
-0.283975	-0.144274	0.184102	
-0.183468	-0.187607	0.160733	
-0.230549	-0.284648	0.130866	
-0.323408	-0.220518	0.107073	
-0.171623	-0.128704	0.255156	
-0.0795999	-0.137717	0.328283	
-0.143954	-0.0664954	0.366375	
-0.203272	-0.117351	0.333128	
-0.221879	0.0747178	0.286107	
-0.255792	0.140946	0.214728	
-0.278498	0.0524484	0.16694	
-0.296824	0.0138185	0.284404	
-0.113226	-0.140086	0.5	
-0.0708935	-0.143579	0.5	
-0.0934074	-0.183691	0.5	
-0.0688906	-0.12049	0.417622	
-0.00447954	0.190881	0.5	
0.00464373	0.231373	0.403957	
0.0101256	0.127322	0.41346	
-0.0473335	0.163087	0.434501	
0.0682711	-0.052186	0.339077	
-0.0145446	-0.0833015	0.323221	
0.0565057	-0.147787	0.277794	
0.0558806	-0.119121	0.374407	
0.163856	-0.062131	0.265284	
0.113524	-0.1522	0.202868	
0.165128	-0.182854	0.275544	
0.118937	-0.109877	0.313008	
0.460548	0.194667	0.23433	
0.340356	0.131144	0.231324	
0.470916	0.168043	0.300126	
0.329012	0.224405	0.280196	
0.246202	-0.043412	0.5	
0.307169	-0.0101791	0.393725	
0.209772	-0.0539676	0.386967	
0.202719	0.0237767	0.420412	
-0.112672	-0.0704426	0.5	
-0.0699979	-0.0973408	0.5	
-0.113226	-0.140086	0.5	
-0.0688906	-0.12049	0.417622	
0.0807477	0.493437	0.154224	
0.168734	0.470668	0.201781	
0.0854243	0.492649	0.251403	
0.103925	0.350791	0.253756	
-0.0328721	-0.370689	0	
0.0404524	-0.41072	0	
0.0248177	-0.313374	0	
0.0130711	-0.359241	0.13871	
-0.364062	-0.132817	0.5	
-0.281583	-0.139061	0.36108	
-0.308042	-0.167631	0.5	
-0.354384	-0.194129	0.402587	
0.0776457	0.289778	0.5	
0.043412	0.246202	0.5	
5.51091e-17	0.3	0.5	
0.00464373	0.231373	0.403957	
0.316847	0.386792	0.198616	
0.266139	0.241799	0.177649	
0.376757	0.328716	0.246468	
0.233262	0.310813	0.267062	
-0.364452	0.121056	0.219309	
-0.406264	0.0467051	0.292816	
-0.361082	-0.0385179	0.234803	
-0.296824	0.0138185	0.284404	
0.07775	0.0966917	0.259619	
0.186062	0.10988	0.269638	
0.0785134	0.0464455	0.325494	
0.172939	0.0245765	0.250039	
-0.310856	0.111964	0.328315	
-0.304187	0.215745	0.266633	
-0.321766	0.212706	0.386222	
-0.230719	0.171576	0.307699	
-0.125	0.216506	0.5	
-0.0776457	0.289778	0.5	
-0.043412	0.246202	0.5	
-0.0948532	0.245573	0.374875	
-0.0145446	-0.0833015	0.323221	
0.00727488	-0.125574	0.43338	
-0.00915007	-0.159584	0.370443	
0.0558806	-0.119121	0.374407	
0.153328	0.47591	0.0923699	
0.0807477	0.493437	0.154224	
0.0704482	0.495012	0.0718447	
0.145858	0.357927	0.135369	
-0.174738	0.468473	0.317184	
-0.256554	0.429162	0.331268	
-0.132465	0.342544	0.286862	
-0.173891	0.340446	0.398741	
0	-0.5	0.4	
0.082983	-0.493066	0.348347	
0	-0.5	0.3	
0.0667135	-0.376589	0.379415	
0.14072	-0.0839746	0	
0.0544868	-0.141962	0.103859	
0.164655	-0.11934	0.10185	
0.0773506	-0.0233693	0.0836206	
-0.363589	0.21739	0.5	
-0.325943	0.285613	0.5	
-0.303998	0.231686	0.5	
-0.321766	0.212706	0.386222	
-0.00455509	0.289048	0.289048	
0.000988831	0.396472	0.255648	
0.103925	0.350791	0.253756	
0.0266006	0.259074	0.200021	
-0.278498	0.0524484	0.16694	
-0.169854	0.0238988	0.185748	
-0.261227	-0.0514885	0.117995	
-0.215195	0.0857371	0.0917705	
0.0544868	-0.141962	0.103859	
0.113524	-0.1522	0.202868	
0.092572	-0.0674004	0.167448	
0.0255949	-0.0865848	0.221929	
0.209772	-0.0539676	0.386967	
0.307169	-0.0101791	0.393725	
0.246202	-0.043412	0.5	
0.273873	-0.116111	0.41418	
0.189715	-0.00503075	0.168338	
0.125478	0.130999	0.17652	
0.223495	0.10535	0.166759	
0.165336	0.0617817	0.0970708	
-0.0833019	-0.493012	0.155211	
0	-0.5	0.2	
0.0130711	-0.359241	0.13871	
-0.0510822	-0.382345	0.237039	
0.186062	0.10988	0.269638	
0.196123	0.185647	0.211614	
0.230141	0.201516	0.310453	
0.276243	0.0902748	0.286189	
-0.152331	-0.0811942	0.14549	
-0.115691	-0.0468978	0.268322	
-0.169854	0.0238988	0.185748	
-0.225667	-0.0555936	0.212037	
0.478516	-0.14499	0.0762896	
0.394936	-0.119803	0	
0.380207	-0.19708	0	
0.369564	-0.0975027	0.118883	
0.0214814	0.353326	0.153644	
-0.0198097	0.25642	0.112647	
-0.115841	0.288513	0.162892	
-0.0809307	0.385403	0.109035	
-0.283975	-0.144274	0.184102	
-0.152331	-0.0811942	0.14549	
-0.183468	-0.187607	0.160733	
-0.243673	-0.146253	0.0931104	
0.0776457	-0.289778	0.5	
0.0667135	-0.376589	0.379415	
0.0579886	-0.363184	0.5	
0.000597841	-0.287345	0.400747	
0.0376566	-0.0505847	0.5	
-0.0156334	-0.0737433	0.5	
0.00473146	-0.0477129	0.410326	
0.00727488	-0.125574	0.43338	
0.247023	-0.434718	0.250558	
0.16873	-0.47067	0.201799	
0.174738	-0.468473	0.317184	
0.155319	-0.32739	0.22804	
0.164757	0.31504	0.3626	
0.24627	0.285293	0.404112	
0.194694	0.304695	0.5	
0.130242	0.253849	0.414889	
0.12288	0.243768	0.182957	
0.233262	0.310813	0.267062	
0.139502	0.248001	0.286243	
0.196123	0.185647	0.211614	
0.230141	0.201516	0.310453	
0.096294	0.191774	0.363276	
0.139502	0.248001	0.286243	
0.162344	0.134607	0.350934	
0.374193	0.331632	0.334643	
0.3168	0.386831	0.395903	
0.317206	0.386498	0.299678	
0.24627	0.285293	0.404112	
0.00365932	0.104584	0.5	
0.017794	0.149684	0.5	
0.0609049	0.128365	0.5	
0.0101256	0.127322	0.41346	
-0.0833019	-0.493012	0.155211	
0.0130711	-0.359241	0.13871	
0	-0.5	0.2	
-0.0562672	-0.401453	0.0877238	
0.0565057	-0.147787	0.277794	
-0.00915007	-0.159584	0.370443	
0.0958167	-0.194694	0.334239	
0.0558806	-0.119121	0.374407	
0.228991	0.444481	0.408099	
0.25658	0.429146	0.33124	
0.3168	0.386831	0.395903	
0.24627	0.285293	0.404112	
0.0594834	0.18279	0.5	
0.043412	0.246202	0.5	
0.125	0.216506	0.5	
0.130242	0.253849	0.414889	
-0.166581	-0.0467287	0.5	
-0.214222	-0.0809482	0.409057	
-0.166197	0.012686	0.395566	
-0.0921341	-0.0472882	0.428822	
0.0704474	-0.495012	0.0718449	
0.0130711	-0.359241	0.13871	
0.0807376	-0.493438	0.154216	
0.104159	-0.395278	0.16544	
0.228959	-0.444497	0.408094	
0.147585	-0.477722	0.416442	
0.130932	-0.431625	0.5	
0.132817	-0.364062	0.5	
-0.152331	-0.0811942	0.14549	
-0.225667	-0.0555936	0.212037	
-0.261227	-0.0514885	0.117995	
-0.243673	-0.146253	0.0931104	
0.163856	-0.062131	0.265284	
0.118937	-0.109877	0.313008	
0.249365	-0.119116	0.299613	
0.19791	-0.131113	0.360072	
-0.0156334	-0.0737433	0.5	
-0.0228356	-0.132115	0.5	
-0.0688906	-0.12049	0.417622	
0.00727488	-0.125574	0.43338	
0.00464373	0.231373	0.403957	
0.0133811	0.178278	0.293393	
-0.00455509	0.289048	0.289048	
0.0691737	0.285591	0.353708	
0.476132	-0.152637	0.402329	
0.340228	-0.209884	0.396212	
0.347622	-0.102783	0.358549	
0.373857	-0.180895	0.313411	
-0.0974804	-0.267818	0.168751	
-0.0510822	-0.382345	0.237039	
-0.162023	-0.339511	0.25028	
-0.1449	-0.36257	0.121022	
-0.00915007	-0.159584	0.370443	
-0.0741769	-0.222661	0.29905	
-0.00830008	-0.198671	0.244345	
0.0217781	-0.230689	0.341777	
0.18433	-0.220573	0.141371	
0.113524	-0.1522	0.202868	
0.165128	-0.182854	0.275544	
0.227664	-0.175808	0.20875	
0.194694	0.304695	0.5	
0.164757	0.31504	0.3626	
0.135086	0.326126	0.5	
0.117226	0.368857	0.420345	
0.0208735	-0.153224	0.5	
0.035935	-0.11426	0.5	
0.0583087	-0.173273	0.5	
0.00727488	-0.125574	0.43338	
0.317163	-0.386533	0.299742	
0.317319	-0.386405	0.201487	
0.247023	-0.434718	0.250558	
0.262155	-0.286798	0.192405	
0.428195	0.258165	0.201755	
0.469721	0.171353	0.161666	
0.460548	0.194667	0.23433	
0.340356	0.131144	0.231324	
-0.0509221	-0.120838	0.250106	
-0.0145446	-0.0833015	0.323221	
-0.115691	-0.0468978	0.268322	
-0.0795999	-0.137717	0.328283	
-0.248409	-0.277977	0.5	
-0.188087	-0.23341	0.408968	
-0.194694	-0.304695	0.5	
-0.206938	-0.33712	0.400053	
0	-0.5	0.1	
0.0807376	-0.493438	0.154216	
0.0704474	-0.495012	0.0718449	
0.0130711	-0.359241	0.13871	
-0.270443	0.334367	0.5	
-0.173891	0.340446	0.398741	
-0.194694	0.304695	0.5	
-0.281262	0.296575	0.411781	
-0.0509221	-0.120838	0.250106	
-0.115691	-0.0468978	0.268322	
-0.171623	-0.128704	0.255156	
-0.0795999	-0.137717	0.328283	
0.194604	-0.371188	0	
0.162218	-0.333858	0.109166	
0.235698	-0.440961	0.0686036	
0.251583	-0.28589	0.0896708	
-0.0974804	-0.267818	0.168751	
-0.162023	-0.339511	0.25028	
-0.230549	-0.284648	0.130866	
-0.1449	-0.36257	0.121022	
-0.0732624	-0.0235498	0.355778	
-0.0688906	-0.12049	0.417622	
-0.0921341	-0.0472882	0.428822	
-0.143954	-0.0664954	0.366375	
0.261819	0.319027	0	
0.235698	0.440961	0.068569	
0.202324	0.378521	0	
0.227449	0.293019	0.0951933	
0.0214814	0.353326	0.153644	
0.103925	0.350791	0.253756	
0.12288	0.243768	0.182957	
0.145858	0.357927	0.135369	
-0.5	0	0.4	
-0.495012	-0.0704482	0.428155	
-0.493437	-0.0807477	0.345776	
-0.387326	-0.108791	0.360005	
-0.124938	0.414491	0.5	
-0.195731	0.375572	0.5	
-0.147585	0.477722	0.416442	
-0.173891	0.340446	0.398741	
0.175681	0.0639425	0.5	
0.113554	0.0989266	0.5	
0.10136	0.102523	0.406019	
0.102443	0.0227629	0.419717	
0.340356	0.131144	0.231324	
0.329012	0.224405	0.280196	
0.230141	0.201516	0.310453	
0.276243	0.0902748	0.286189	
0.346509	0.0237889	0	
0.268679	-0.0175832	0.0938256	
0.351628	0.0194463	0.154597	
0.292412	0.0780179	0.101456	
-0.217356	-0.450285	0.144698	
-0.238488	-0.439458	0.0756919	
-0.277785	-0.415735	0.134138	
-0.1449	-0.36257	0.121022	
0.264667	-0.00226535	0.295846	
0.379606	0.0327687	0.28854	
0.324629	0.108316	0.364447	
0.307169	-0.0101791	0.393725	
-0.0853821	0.492656	0.251348	
-0.082983	0.493066	0.348347	
-0.174738	0.468473	0.317184	
-0.132465	0.342544	0.286862	
-0.132465	0.342544	0.286862	
-0.234922	0.307887	0.237464	
-0.115841	0.288513	0.162892	
-0.173354	0.242294	0.26617	
-0.444481	-0.228991	0.0919014	
-0.468495	-0.174678	0.182891	
-0.429146	-0.25658	0.16876	
-0.323408	-0.220518	0.107073	
0.0712814	-0.153152	0	
0.0544868	-0.141962	0.103859	
0.00183684	-0.222331	0	
0.0390368	-0.27687	0.0931397	
0.155785	0.045673	0.353105	
0.228063	0.102246	0.400094	
0.10136	0.102523	0.406019	
0.202719	0.0237767	0.420412	
0.317206	0.386498	0.299678	
0.376757	0.328716	0.246468	
0.374193	0.331632	0.334643	
0.233262	0.310813	0.267062	
-0.0295403	0.225144	0	
-0.0983601	0.156434	0	
-0.00425413	0.131001	0	
-0.0250996	0.111886	0.106171	
0.18433	-0.220573	0.141371	
0.313473	-0.209952	0.12238	
0.254347	-0.100565	0.163493	
0.227664	-0.175808	0.20875	
-0.283975	-0.144274	0.184102	
-0.171623	-0.128704	0.255156	
-0.183468	-0.187607	0.160733	
-0.225667	-0.0555936	0.212037	
0.0454237	0.00960241	0.5	
0.00473146	-0.0477129	0.410326	
-0.0081622	-0.0144392	0.5	
-0.0238699	0.0158197	0.434577	
-0.152331	-0.0811942	0.14549	
-0.183468	-0.187607	0.160733	
-0.171623	-0.128704	0.255156	
-0.225667	-0.0555936	0.212037	
0.351628	0.0194463	0.154597	
0.369564	-0.0975027	0.118883	
0.254347	-0.100565	0.163493	
0.268679	-0.0175832	0.0938256	
0.19149	0.263191	0.5	
0.248409	0.277977	0.5	
0.215641	0.22714	0.5	
0.24627	0.285293	0.404112	
0.351628	0.0194463	0.154597	
0.292412	0.0780179	0.101456	
0.337502	0.1652	0.112737	
0.391187	0.0843667	0.0902296	
-0.404541	0.126945	0	
-0.495208	0.0690617	0.0692099	
-0.426463	0.0441363	0	
-0.385327	0.0355064	0.11322	
-0.38078	0.324048	0.150149	
-0.317319	0.386405	0.201487	
-0.377032	0.3284	0.243217	
-0.234922	0.307887	0.237464	
-0.263582	-0.319413	0	
-0.261345	-0.230036	0	
-0.331361	-0.272953	0	
-0.323408	-0.220518	0.107073	
0.224653	-0.281756	0.300179	
0.270471	-0.290437	0.402527	
0.236451	-0.193336	0.377474	
0.213897	-0.237657	0.431435	
-0.372622	-0.0844629	0.11881	
-0.283975	-0.144274	0.184102	
-0.323408	-0.220518	0.107073	
-0.243673	-0.146253	0.0931104	
0.380873	0.323938	0.152261	
0.316847	0.386792	0.198616	
0.317233	0.386476	0.0904728	
0.227449	0.293019	0.0951933	
-0.00455509	0.289048	0.289048	
-0.132465	0.342544	0.286862	
0.000988831	0.396472	0.255648	
-0.0810467	0.370121	0.206864	
-0.302044	-0.0506462	0	
-0.261227	-0.0514885	0.117995	
-0.344127	-0.112227	0	
-0.243673	-0.146253	0.0931104	
0.155785	0.045673	0.353105	
0.0785134	0.0464455	0.325494	
0.186062	0.10988	0.269638	
0.172939	0.0245765	0.250039	
0.0535528	0.0702068	0.5	
0.10136	0.102523	0.406019	
0.113554	0.0989266	0.5	
0.102443	0.0227629	0.419717	
0.0365945	0.375424	0.376008	
-0.00455509	0.289048	0.289048	
0.0691737	0.285591	0.353708	
-0.0433744	0.307825	0.417357	
0.0565057	-0.147787	0.277794	
-0.0145446	-0.0833015	0.323221	
-0.00915007	-0.159584	0.370443	
0.0558806	-0.119121	0.374407	
0.223495	0.10535	0.166759	
0.196123	0.185647	0.211614	
0.186062	0.10988	0.269638	
0.276243	0.0902748	0.286189	
0.0694446	0.0614041	0.127763	
-0.0250996	0.111886	0.106171	
0.0209546	0.0362755	0	
-0.0145265	0.00397743	0.0865031	
0.0682711	-0.052186	0.339077	
0.102443	0.0227629	0.419717	
0.0936941	-0.0576924	0.420616	
0.14698	-0.0404502	0.339975	
-0.0259622	0.175651	0.191483	
-0.082138	0.218948	0.273339	
0.0133811	0.178278	0.293393	
0.0266006	0.259074	0.200021	
-0.16685	0.0883447	0	
-0.0734441	0.0616893	0	
-0.0983601	0.156434	0	
-0.128142	0.132022	0.124103	
0.388274	0.315029	0.420807	
0.316151	0.221929	0.385283	
0.325794	0.291996	0.5	
0.24627	0.285293	0.404112	
0.164797	-0.177585	0	
0.0943468	-0.245334	0	
0.201164	-0.273578	0	
0.18433	-0.220573	0.141371	
0.202324	0.378521	0	
0.235698	0.440961	0.068569	
0.145858	0.357927	0.135369	
0.227449	0.293019	0.0951933	
-0.216377	0.228686	0.5	
-0.210645	0.180174	0.5	
-0.259808	0.2	0.5	
-0.1997	0.206062	0.414424	
-0.278498	0.0524484	0.16694	
-0.361082	-0.0385179	0.234803	
-0.225667	-0.0555936	0.212037	
-0.296824	0.0138185	0.284404	
-0.210645	0.180174	0.5	
-0.216506	0.125	0.5	
-0.266336	0.143871	0.409139	
-0.168013	0.159183	0.440667	
0.216506	-0.125	0.5	
0.259808	-0.15	0.5	
0.221044	-0.17499	0.5	
0.273873	-0.116111	0.41418	
0.0609049	0.128365	0.5	
0.118461	0.161044	0.5	
0.113554	0.0989266	0.5	
0.10136	0.102523	0.406019	
-0.0732624	-0.0235498	0.355778	
-0.166197	0.012686	0.395566	
-0.0790952	0.0620487	0.41859	
-0.12302	0.073304	0.350874	
0.0651412	0.200096	0	
0.0596404	0.176022	0.113284	
0.133074	0.264097	0	
0.0793736	0.28635	0.097829	
0.363184	0.0579886	0.5	
0.324629	0.108316	0.364447	
0.364062	0.132817	0.5	
0.400259	0.0398147	0.391942	
-0.493012	0.0833019	0.344789	
-0.406264	0.0467051	0.292816	
-0.471122	0.167464	0.300106	
-0.373924	0.17948	0.316585	
-0.13896	0.0197163	0.5	
-0.196783	0.00504363	0.5	
-0.177196	0.0645246	0.5	
-0.166197	0.012686	0.395566	
0.07775	0.0966917	0.259619	
0.0522467	0.122489	0.34166	
0.0785134	0.0464455	0.325494	
0.162344	0.134607	0.350934	
0.0854243	0.492649	0.251403	
0.174678	0.468495	0.317109	
0.0814864	0.493315	0.347681	
0.103925	0.350791	0.253756	
-0.386476	-0.317233	0.409527	
-0.288349	-0.269581	0.401233	
-0.386792	-0.316847	0.301384	
-0.354384	-0.194129	0.402587	
0.242822	0.437078	0.152991	
0.316847	0.386792	0.198616	
0.247057	0.434698	0.250499	
0.233262	0.310813	0.267062	
-0.185526	0.120318	0.373769	
-0.266336	0.143871	0.409139	
-0.259226	0.03952	0.402729	
-0.15502	0.0902607	0.438606	
0.203679	-0.368672	0.5	
0.270471	-0.290437	0.402527	
0.31678	-0.386847	0.395869	
0.194286	-0.353827	0.369459	
0.230141	0.201516	0.310453	
0.266139	0.241799	0.177649	
0.329012	0.224405	0.280196	
0.196123	0.185647	0.211614	
0.184962	0.0799289	0	
0.191109	0.195644	0.106001	
0.158056	0.171884	0	
0.165336	0.0617817	0.0970708	
0.186062	0.10988	0.269638	
0.07775	0.0966917	0.259619	
0.125478	0.130999	0.17652	
0.172939	0.0245765	0.250039	
-0.283975	-0.144274	0.184102	
-0.261227	-0.0514885	0.117995	
-0.225667	-0.0555936	0.212037	
-0.243673	-0.146253	0.0931104	
0.231243	0.24169	0	
0.300884	0.198715	0	
0.328092	0.270243	0	
0.227449	0.293019	0.0951933	
-0.117671	-0.10197	0	
-0.211369	-0.0761151	0	
-0.127253	-0.156126	0.0844713	
-0.0957928	-0.0529556	0.0773873	
0.254347	-0.100565	0.163493	
0.164655	-0.11934	0.10185	
0.189715	-0.00503075	0.168338	
0.268679	-0.0175832	0.0938256	
0.0667135	-0.376589	0.379415	
0.000597841	-0.287345	0.400747	
0.0093178	-0.302179	0.302179	
-0.0295129	-0.397696	0.405297	
-0.283975	-0.144274	0.184102	
-0.285188	-0.256019	0.23904	
-0.183468	-0.187607	0.160733	
-0.253263	-0.173914	0.276528	
-0.351551	0.0541915	0.5	
-0.34365	-0.0208645	0.382522	
-0.361276	-0.0455918	0.5	
-0.37885	0.0751067	0.400181	
-0.173891	0.340446	0.398741	
-0.073553	0.38985	0.391066	
-0.135086	0.326126	0.5	
-0.0433744	0.307825	0.417357	
0.364062	0.132817	0.5	
0.363184	0.0579886	0.5	
0.289778	0.0776457	0.5	
0.324629	0.108316	0.364447	
-0.159007	0.150563	0.248955	
-0.255792	0.140946	0.214728	
-0.230719	0.171576	0.307699	
-0.173354	0.242294	0.26617	
0.082983	-0.493066	0.348347	
0	-0.5	0.3	
0.0667135	-0.376589	0.379415	
0.0676693	-0.388009	0.271914	
0.340356	0.131144	0.231324	
0.27082	0.0310537	0.205694	
0.223495	0.10535	0.166759	
0.292412	0.0780179	0.101456	
0.235698	-0.440961	0.0686036	
0.162218	-0.333858	0.109166	
0.317131	-0.386559	0.0881616	
0.251583	-0.28589	0.0896708	
-0.0705177	0.0247142	0.5	
-0.0921341	-0.0472882	0.428822	
-0.0790952	0.0620487	0.41859	
-0.0238699	0.0158197	0.434577	
-0.056943	0.120887	0.354229	
-0.0790952	0.0620487	0.41859	
0.0101256	0.127322	0.41346	
-0.0473335	0.163087	0.434501	
0.38078	-0.324048	0.150149	
0.428104	-0.258315	0.196896	
0.313473	-0.209952	0.12238	
0.262155	-0.286798	0.192405	
-0.2429	0.437035	0.152631	
-0.153329	0.47591	0.0923815	
-0.16873	0.47067	0.201799	
-0.0809307	0.385403	0.109035	
0.223495	0.10535	0.166759	
0.337502	0.1652	0.112737	
0.340356	0.131144	0.231324	
0.292412	0.0780179	0.101456	
0.096294	0.191774	0.363276	
0.0133811	0.178278	0.293393	
0.00464373	0.231373	0.403957	
0.0691737	0.285591	0.353708	
0.386505	0.317197	0.0688254	
0.380873	0.323938	0.152261	
0.317233	0.386476	0.0904728	
0.227449	0.293019	0.0951933	
-0.0081622	-0.0144392	0.5	
0.00473146	-0.0477129	0.410326	
-0.0625361	-0.0382385	0.5	
-0.0238699	0.0158197	0.434577	
-0.385896	0.317937	0.065638	
-0.436811	0.243302	0.0936268	
-0.389036	0.207425	0	
-0.318983	0.261743	0	
-0.246202	0.043412	0.5	
-0.259226	0.03952	0.402729	
-0.216506	0.125	0.5	
-0.15502	0.0902607	0.438606	
-0.00455509	0.289048	0.289048	
0.0133811	0.178278	0.293393	
-0.082138	0.218948	0.273339	
0.0266006	0.259074	0.200021	
-0.152331	-0.0811942	0.14549	
-0.171623	-0.128704	0.255156	
-0.115691	-0.0468978	0.268322	
-0.225667	-0.0555936	0.212037	
0.0461078	-0.0584269	0	
0.0544868	-0.141962	0.103859	
0.14072	-0.0839746	0	
0.0773506	-0.0233693	0.0836206	
0.176544	-0.0644028	0.5	
0.120744	-0.0747732	0.5	
0.136333	-0.0203798	0.5	
0.0936941	-0.0576924	0.420616	
0.096294	0.191774	0.363276	
0.00464373	0.231373	0.403957	
0.0133811	0.178278	0.293393	
0.0522467	0.122489	0.34166	
0.254347	-0.100565	0.163493	
0.227664	-0.175808	0.20875	
0.313473	-0.209952	0.12238	
0.375867	-0.158621	0.196853	
0.264667	-0.00226535	0.295846	
0.172939	0.0245765	0.250039	
0.163856	-0.062131	0.265284	
0.14698	-0.0404502	0.339975	
-0.302044	-0.0506462	0	
-0.372622	-0.0844629	0.11881	
-0.344127	-0.112227	0	
-0.261227	-0.0514885	0.117995	
-0.258165	-0.428195	0.298245	
-0.171353	-0.469721	0.338334	
-0.194667	-0.460548	0.26567	
-0.162023	-0.339511	0.25028	
-0.135086	0.326126	0.5	
-0.173891	0.340446	0.398741	
-0.124938	0.414491	0.5	
-0.073553	0.38985	0.391066	
0.328092	0.270243	0	
0.317233	0.386476	0.0904728	
0.261819	0.319027	0	
0.227449	0.293019	0.0951933	
-0.0974804	-0.267818	0.168751	
-0.10857	-0.188319	0.218241	
-0.0741769	-0.222661	0.29905	
-0.00981402	-0.289236	0.206945	
-0.416747	0.276265	0.362548	
-0.439384	0.238625	0.423358	
-0.450312	0.217299	0.354112	
-0.321766	0.212706	0.386222	
0.0712263	0.363482	0.5	
2.23198e-17	0.373746	0.5	
0.042537	0.432039	0.5	
0.0365945	0.375424	0.376008	
0.186062	0.10988	0.269638	
0.230141	0.201516	0.310453	
0.162344	0.134607	0.350934	
0.276243	0.0902748	0.286189	
0.0209546	0.0362755	0	
0.115537	0.0107471	0	
0.0694446	0.0614041	0.127763	
0.0773506	-0.0233693	0.0836206	
0.00464373	0.231373	0.403957	
0.0691737	0.285591	0.353708	
-0.00455509	0.289048	0.289048	
-0.0433744	0.307825	0.417357	
0.0535528	0.0702068	0.5	
0.113554	0.0989266	0.5	
0.102519	0.0330131	0.5	
0.102443	0.0227629	0.419717	
0.0365945	0.375424	0.376008	
0.0691737	0.285591	0.353708	
0.164757	0.31504	0.3626	
0.117226	0.368857	0.420345	
0.351628	0.0194463	0.154597	
0.27082	0.0310537	0.205694	
0.340356	0.131144	0.231324	
0.292412	0.0780179	0.101456	
-0.0272885	-0.0825315	0.132744	
-0.0369979	-0.193764	0.104577	
-0.0232782	-0.127584	0	
0.0544868	-0.141962	0.103859	
0.346509	0.0237889	0	
0.292412	0.0780179	0.101456	
0.351628	0.0194463	0.154597	
0.391187	0.0843667	0.0902296	
-0.401548	-0.0423374	0	
-0.494668	-0.0728232	0.0735406	
-0.372622	-0.0844629	0.11881	
-0.385327	0.0355064	0.11322	
0.10136	0.102523	0.406019	
0.102443	0.0227629	0.419717	
0.155785	0.045673	0.353105	
0.202719	0.0237767	0.420412	
0.0404524	-0.41072	0	
0.0130711	-0.359241	0.13871	
-0.0328721	-0.370689	0	
-0.0562672	-0.401453	0.0877238	
0.351628	0.0194463	0.154597	
0.379606	0.0327687	0.28854	
0.340356	0.131144	0.231324	
0.27082	0.0310537	0.205694	
-0.185526	0.120318	0.373769	
-0.230719	0.171576	0.307699	
-0.1997	0.206062	0.414424	
-0.125784	0.172859	0.335584	
0.471122	-0.167464	0.300106	
0.34942	-0.0723305	0.238193	
0.490316	-0.0979281	0.24092	
0.375867	-0.158621	0.196853	
0.103925	0.350791	0.253756	
0.000988831	0.396472	0.255648	
0.0214814	0.353326	0.153644	
0.0266006	0.259074	0.200021	
0.0153159	0.363557	0	
-0.0198097	0.25642	0.112647	
0.0401436	0.291204	0	
0.0793736	0.28635	0.097829	
-0.115841	0.288513	0.162892	
0.0214814	0.353326	0.153644	
-0.0809307	0.385403	0.109035	
-0.0810467	0.370121	0.206864	
-0.00915007	-0.159584	0.370443	
-0.0829946	-0.232421	0.403465	
-0.0741769	-0.222661	0.29905	
0.0217781	-0.230689	0.341777	
-0.416747	0.276265	0.362548	
-0.321766	0.212706	0.386222	
-0.450312	0.217299	0.354112	
-0.373924	0.17948	0.316585	
-0.124938	0.414491	0.5	
-0.173891	0.340446	0.398741	
-0.147585	0.477722	0.416442	
-0.073553	0.38985	0.391066	
0.00171532	0.0670635	0.305226	
-0.0531538	0.125355	0.264689	
0.0133811	0.178278	0.293393	
0.00560742	0.0907829	0.203832	
-0.38078	0.324048	0.150149	
-0.317131	0.386559	0.0881616	
-0.317319	0.386405	0.201487	
-0.213184	0.322526	0.106779	
0.017794	0.149684	0.5	
0.00365932	0.104584	0.5	
-0.0305981	0.141799	0.5	
0.0101256	0.127322	0.41346	
0	-0.5	0.2	
0.0130711	-0.359241	0.13871	
0	-0.5	0.1	
-0.0562672	-0.401453	0.0877238	
-0.248409	-0.277977	0.5	
-0.288349	-0.269581	0.401233	
-0.188087	-0.23341	0.408968	
-0.206938	-0.33712	0.400053	
-0.183468	-0.187607	0.160733	
-0.323408	-0.220518	0.107073	
-0.283975	-0.144274	0.184102	
-0.243673	-0.146253	0.0931104	
0.376757	0.328716	0.246468	
0.380873	0.323938	0.152261	
0.428195	0.258165	0.201755	
0.266139	0.241799	0.177649	
0.380873	0.323938	0.152261	
0.436762	0.243391	0.0969381	
0.428195	0.258165	0.201755	
0.337502	0.1652	0.112737	
0.174678	0.468495	0.317109	
0.25658	0.429146	0.33124	
0.228991	0.444481	0.408099	
0.164757	0.31504	0.3626	
0.042537	0.432039	0.5	
0.0365945	0.375424	0.376008	
0.0728232	0.494668	0.426459	
0.117226	0.368857	0.420345	
-0.0790952	0.0620487	0.41859	
-0.0921341	-0.0472882	0.428822	
-0.0732624	-0.0235498	0.355778	
-0.0238699	0.0158197	0.434577	
0.176544	-0.0644028	0.5	
0.209772	-0.0539676	0.386967	
0.246202	-0.043412	0.5	
0.182789	-0.109466	0.430518	
-0.401548	-0.0423374	0	
-0.372622	-0.0844629	0.11881	
-0.302044	-0.0506462	0	
-0.385327	0.0355064	0.11322	
0.07775	0.0966917	0.259619	
0.00171532	0.0670635	0.305226	
0.0133811	0.178278	0.293393	
0.00560742	0.0907829	0.203832	
-0.428104	0.258315	0.196896	
-0.429476	0.256028	0.291579	
-0.460762	0.19416	0.234059	
-0.373924	0.17948	0.316585	
-0.386831	-0.3168	0.104097	
-0.386498	-0.317206	0.200322	
-0.331632	-0.374193	0.165357	
-0.323408	-0.220518	0.107073	
0.128689	-0.272515	0.368277	
0.000597841	-0.287345	0.400747	
0.0645865	-0.210943	0.409687	
0.0217781	-0.230689	0.341777	
0.115537	0.0107471	0	
0.0903521	0.10545	0	
0.0694446	0.0614041	0.127763	
0.165336	0.0617817	0.0970708	
-0.368394	0.141973	0.5	
-0.363589	0.21739	0.5	
-0.31037	0.174447	0.5	
-0.321766	0.212706	0.386222	
-0.188087	-0.23341	0.408968	
-0.206938	-0.33712	0.400053	
-0.288349	-0.269581	0.401233	
-0.243234	-0.318297	0.307228	
0.0579886	-0.363184	0.5	
0.000597841	-0.287345	0.400747	
0.0667135	-0.376589	0.379415	
-0.0295129	-0.397696	0.405297	
0.042537	0.432039	0.5	
0	0.5	0.4	
0.0728232	0.494668	0.426459	
0.0365945	0.375424	0.376008	
-0.0741769	-0.222661	0.29905	
-0.0829946	-0.232421	0.403465	
-0.00915007	-0.159584	0.370443	
-0.0795999	-0.137717	0.328283	
0.0376566	-0.0505847	0.5	
0.035935	-0.11426	0.5	
-0.0156334	-0.0737433	0.5	
0.00727488	-0.125574	0.43338	
-0.310856	0.111964	0.328315	
-0.321766	0.212706	0.386222	
-0.266336	0.143871	0.409139	
-0.230719	0.171576	0.307699	
0.128497	-0.139894	0.387724	
0.14698	-0.0404502	0.339975	
0.209772	-0.0539676	0.386967	
0.19791	-0.131113	0.360072	
0.174738	-0.468473	0.317184	
0.256554	-0.429162	0.331268	
0.247023	-0.434718	0.250558	
0.194286	-0.353827	0.369459	
-0.147585	0.477722	0.416442	
-0.173891	0.340446	0.398741	
-0.174738	0.468473	0.317184	
-0.073553	0.38985	0.391066	
-0.270443	0.334367	0.5	
-0.195731	0.375572	0.5	
-0.194694	0.304695	0.5	
-0.173891	0.340446	0.398741	
0.386505	0.317197	0.0688254	
0.317233	0.386476	0.0904728	
0.328092	0.270243	0	
0.227449	0.293019	0.0951933	
-0.492649	-0.0854243	0.248597	
-0.470668	-0.168734	0.298219	
-0.352865	-0.168551	0.27433	
-0.387326	-0.108791	0.360005	
0.256554	-0.429162	0.331268	
0.317163	-0.386533	0.299742	
0.224653	-0.281756	0.300179	
0.194286	-0.353827	0.369459	
0.209772	-0.0539676	0.386967	
0.273873	-0.116111	0.41418	
0.246202	-0.043412	0.5	
0.182789	-0.109466	0.430518	
0.377032	-0.3284	0.243217	
0.428104	-0.258315	0.196896	
0.38078	-0.324048	0.150149	
0.262155	-0.286798	0.192405	
-0.16685	0.0883447	0	
-0.128142	0.132022	0.124103	
-0.18644	0.1823	0	
-0.215195	0.0857371	0.0917705	
-0.161262	0.177195	0.5	
-0.210645	0.180174	0.5	
-0.175601	0.220525	0.5	
-0.168013	0.159183	0.440667	
-0.175601	0.220525	0.5	
-0.125	0.216506	0.5	
-0.161262	0.177195	0.5	
-0.168013	0.159183	0.440667	
0.135086	0.326126	0.5	
0.164757	0.31504	0.3626	
0.130242	0.253849	0.414889	
0.117226	0.368857	0.420345	
-0.188087	-0.23341	0.408968	
-0.188087	-0.23341	0.313651	
-0.206938	-0.33712	0.400053	
-0.243234	-0.318297	0.307228	
0.199563	0.20121	0.405215	
0.316151	0.221929	0.385283	
0.230141	0.201516	0.310453	
0.24627	0.285293	0.404112	
-0.0810399	-0.493389	0.35285	
-0.107964	-0.347419	0.364155	
-0.144862	-0.478555	0.421652	
-0.0295129	-0.397696	0.405297	
0.324629	0.108316	0.364447	
0.329012	0.224405	0.280196	
0.340356	0.131144	0.231324	
0.276243	0.0902748	0.286189	
-0.173205	-0.15	0.5	
-0.216506	-0.125	0.5	
-0.214222	-0.0809482	0.409057	
-0.167688	-0.179794	0.441452	
-0.144862	-0.478555	0.421652	
-0.107964	-0.347419	0.364155	
-0.171353	-0.469721	0.338334	
-0.206938	-0.33712	0.400053	
-0.444481	-0.228991	0.0919014	
-0.477948	-0.146853	0.0840084	
-0.468495	-0.174678	0.182891	
-0.372622	-0.0844629	0.11881	
0.0903521	0.10545	0	
0.0209546	0.0362755	0	
0.115537	0.0107471	0	
0.0694446	0.0614041	0.127763	
-0.0509221	-0.120838	0.250106	
-0.0795999	-0.137717	0.328283	
-0.171623	-0.128704	0.255156	
-0.10857	-0.188319	0.218241	
0.304682	-0.199557	0.252634	
0.373857	-0.180895	0.313411	
0.429476	-0.256028	0.291579	
0.375867	-0.158621	0.196853	
0.158056	0.171884	0	
0.184962	0.0799289	0	
0.247868	0.146306	0	
0.191109	0.195644	0.106001	
0.0645865	-0.210943	0.409687	
0.165128	-0.182854	0.433186	
0.128689	-0.272515	0.368277	
0.164604	-0.198565	0.360975	
0.289778	-0.0776457	0.5	
0.273873	-0.116111	0.41418	
0.307169	-0.0101791	0.393725	
0.392021	-0.0480463	0.41747	
0.304682	-0.199557	0.252634	
0.313473	-0.209952	0.12238	
0.227664	-0.175808	0.20875	
0.375867	-0.158621	0.196853	
-0.386831	-0.3168	0.104097	
-0.331632	-0.374193	0.165357	
-0.230549	-0.284648	0.130866	
-0.323408	-0.220518	0.107073	
-0.302044	-0.0506462	0	
-0.344127	-0.112227	0	
-0.278713	-0.14304	0	
-0.243673	-0.146253	0.0931104	
-0.0232782	-0.127584	0	
-0.0272885	-0.0825315	0.132744	
-0.048473	-0.0328568	0	
-0.0957928	-0.0529556	0.0773873	
0.0694446	0.0614041	0.127763	
0.125478	0.130999	0.17652	
0.0596404	0.176022	0.113284	
0.00560742	0.0907829	0.203832	
-0.0369979	-0.193764	0.104577	
-0.00981402	-0.289236	0.206945	
-0.0974804	-0.267818	0.168751	
0.0390368	-0.27687	0.0931397	
-0.185526	0.120318	0.373769	
-0.159007	0.150563	0.248955	
-0.221879	0.0747178	0.286107	
-0.230719	0.171576	0.307699	
0.3	-3.67394e-17	0.5	
0.307169	-0.0101791	0.393725	
0.246202	-0.043412	0.5	
0.202719	0.0237767	0.420412	
-0.337562	0.0547633	0	
-0.257956	0.116321	0	
-0.326028	0.142215	0.11299	
-0.215195	0.0857371	0.0917705	
0.0579886	-0.363184	0.5	
-0.0152603	-0.363012	0.5	
0.000597841	-0.287345	0.400747	
-0.0295129	-0.397696	0.405297	
0.223495	0.10535	0.166759	
0.189715	-0.00503075	0.168338	
0.165336	0.0617817	0.0970708	
0.292412	0.0780179	0.101456	
0.230141	0.201516	0.310453	
0.186062	0.10988	0.269638	
0.139502	0.248001	0.286243	
0.196123	0.185647	0.211614	
0.0936941	-0.0576924	0.420616	
0.00727488	-0.125574	0.43338	
0.00473146	-0.0477129	0.410326	
0.0558806	-0.119121	0.374407	
0.0682711	-0.052186	0.339077	
0.0884767	-0.000375704	0.258795	
0.163856	-0.062131	0.265284	
0.118937	-0.109877	0.313008	
0.0943468	-0.245334	0	
0.112799	-0.33356	0	
0.162218	-0.333858	0.109166	
0.0390368	-0.27687	0.0931397	
-0.113894	0.0780637	0.5	
-0.0892693	0.13018	0.5	
-0.0790952	0.0620487	0.41859	
-0.112789	0.14207	0.41726	
0.351628	0.0194463	0.154597	
0.34942	-0.0723305	0.238193	
0.379606	0.0327687	0.28854	
0.27082	0.0310537	0.205694	
0.0596404	0.176022	0.113284	
0.00560742	0.0907829	0.203832	
0.125478	0.130999	0.17652	
0.0586412	0.17223	0.217492	
-0.351551	0.0541915	0.5	
-0.259226	0.03952	0.402729	
-0.34365	-0.0208645	0.382522	
-0.37885	0.0751067	0.400181	
0.232997	-0.11062	0	
0.210156	-0.0147965	0	
0.164655	-0.11934	0.10185	
0.268679	-0.0175832	0.0938256	
-0.304187	0.215745	0.266633	
-0.222708	0.258636	0.344999	
-0.230719	0.171576	0.307699	
-0.173354	0.242294	0.26617	
0.223495	0.10535	0.166759	
0.186062	0.10988	0.269638	
0.125478	0.130999	0.17652	
0.172939	0.0245765	0.250039	
-0.471122	0.167464	0.300106	
-0.406264	0.0467051	0.292816	
-0.364452	0.121056	0.219309	
-0.373924	0.17948	0.316585	
-0.230549	-0.284648	0.130866	
-0.261345	-0.230036	0	
-0.323408	-0.220518	0.107073	
-0.243673	-0.146253	0.0931104	
0.174738	-0.468473	0.317184	
0.0667135	-0.376589	0.379415	
0.147585	-0.477722	0.416442	
0.194286	-0.353827	0.369459	
-0.216506	-0.125	0.5	
-0.149626	-0.106257	0.5	
-0.173205	-0.15	0.5	
-0.214222	-0.0809482	0.409057	
-0.0704474	0.495012	0.0718449	
-0.0372406	0.417791	0	
0	0.5	0.1	
-0.0809307	0.385403	0.109035	
-0.175601	0.220525	0.5	
-0.210645	0.180174	0.5	
-0.216377	0.228686	0.5	
-0.1997	0.206062	0.414424	
-0.216506	0.125	0.5	
-0.210645	0.180174	0.5	
-0.185713	0.151649	0.5	
-0.168013	0.159183	0.440667	
-0.0531538	0.125355	0.264689	
0.00560742	0.0907829	0.203832	
-0.0573721	0.0334812	0.170638	
-0.107039	0.0995618	0.201757	
0.414991	0.0495125	0	
0.346509	0.0237889	0	
0.409478	-0.032947	0	
0.391187	0.0843667	0.0902296	
-0.168043	-0.470916	0.199874	
-0.162023	-0.339511	0.25028	
-0.0977967	-0.490343	0.258774	
-0.0510822	-0.382345	0.237039	
-0.0690566	0.495208	0.430964	
0	0.5	0.4	
-0.0426444	0.431636	0.5	
-0.073553	0.38985	0.391066	
0.414183	0.131147	0	
0.478555	0.144862	0.0783483	
0.337502	0.1652	0.112737	
0.391187	0.0843667	0.0902296	
0.0609049	0.128365	0.5	
0.113554	0.0989266	0.5	
0.0535528	0.0702068	0.5	
0.10136	0.102523	0.406019	
0.246202	0.043412	0.5	
0.289778	0.0776457	0.5	
0.3	-3.67394e-17	0.5	
0.307169	-0.0101791	0.393725	
-0.196783	0.00504363	0.5	
-0.166197	0.012686	0.395566	
-0.166581	-0.0467287	0.5	
-0.214222	-0.0809482	0.409057	
-0.0272885	-0.0825315	0.132744	
-0.0599463	-0.0498399	0.20415	
-0.0573721	0.0334812	0.170638	
-0.0957928	-0.0529556	0.0773873	
-0.493012	0.0833019	0.344789	
-0.476132	0.152637	0.402329	
-0.37885	0.0751067	0.400181	
-0.373924	0.17948	0.316585	
0.436811	-0.243302	0.0936268	
0.369564	-0.0975027	0.118883	
0.313473	-0.209952	0.12238	
0.375867	-0.158621	0.196853	
0.385896	-0.317937	0.065638	
0.436811	-0.243302	0.0936268	
0.380207	-0.19708	0	
0.313473	-0.209952	0.12238	
-0.361082	-0.0385179	0.234803	
-0.283975	-0.144274	0.184102	
-0.225667	-0.0555936	0.212037	
-0.288242	-0.0832951	0.281127	
0.0682711	-0.052186	0.339077	
0.0884767	-0.000375704	0.258795	
-0.00800179	-0.0152081	0.261913	
0.0015496	-0.0106233	0.342921	
0.264667	-0.00226535	0.295846	
0.324629	0.108316	0.364447	
0.379606	0.0327687	0.28854	
0.276243	0.0902748	0.286189	
0.201164	-0.273578	0	
0.245477	-0.191651	0	
0.18433	-0.220573	0.141371	
0.251583	-0.28589	0.0896708	
0.15	0.259808	0.5	
0.19149	0.263191	0.5	
0.169426	0.205971	0.5	
0.130242	0.253849	0.414889	
-0.0509221	-0.120838	0.250106	
-0.0145446	-0.0833015	0.323221	
0.0565057	-0.147787	0.277794	
0.0255949	-0.0865848	0.221929	
0.128497	-0.139894	0.387724	
0.165128	-0.182854	0.433186	
0.0645865	-0.210943	0.409687	
0.164604	-0.198565	0.360975	
-0.056943	0.120887	0.354229	
-0.082138	0.218948	0.273339	
-0.0531538	0.125355	0.264689	
-0.125784	0.172859	0.335584	
0.270471	-0.290437	0.402527	
0.340228	-0.209884	0.396212	
0.236451	-0.193336	0.377474	
0.213897	-0.237657	0.431435	
0.264667	-0.00226535	0.295846	
0.379606	0.0327687	0.28854	
0.34942	-0.0723305	0.238193	
0.27082	0.0310537	0.205694	
0.16873	-0.47067	0.201799	
0.155319	-0.32739	0.22804	
0.2429	-0.437035	0.152631	
0.104159	-0.395278	0.16544	
-0.0369979	-0.193764	0.104577	
-0.0974804	-0.267818	0.168751	
-0.10857	-0.188319	0.218241	
-0.127253	-0.156126	0.0844713	
-0.185526	0.120318	0.373769	
-0.310856	0.111964	0.328315	
-0.221879	0.0747178	0.286107	
-0.259226	0.03952	0.402729	
-0.082138	0.218948	0.273339	
-0.173354	0.242294	0.26617	
-0.115841	0.288513	0.162892	
-0.114496	0.199368	0.185093	
-0.278713	-0.14304	0	
-0.344127	-0.112227	0	
-0.356684	-0.19351	0	
-0.323408	-0.220518	0.107073	
0.388274	0.315029	0.420807	
0.439458	0.238488	0.424308	
0.369217	0.203769	0.5	
0.316151	0.221929	0.385283	
-0.0259622	0.175651	0.191483	
-0.0198097	0.25642	0.112647	
0.0596404	0.176022	0.113284	
-0.0250996	0.111886	0.106171	
-0.303998	0.231686	0.5	
-0.31037	0.174447	0.5	
-0.363589	0.21739	0.5	
-0.321766	0.212706	0.386222	
0.201164	-0.273578	0	
0.245477	-0.191651	0	
0.164797	-0.177585	0	
0.18433	-0.220573	0.141371	
-0.321766	0.212706	0.386222	
-0.304187	0.215745	0.266633	
-0.310856	0.111964	0.328315	
-0.373924	0.17948	0.316585	
-0.259808	0.15	0.5	
-0.259808	0.2	0.5	
-0.210645	0.180174	0.5	
-0.266336	0.143871	0.409139	
-0.401548	-0.0423374	0	
-0.5	0	0.1	
-0.494668	-0.0728232	0.0735406	
-0.385327	0.0355064	0.11322	
0.16873	-0.47067	0.201799	
0.247023	-0.434718	0.250558	
0.2429	-0.437035	0.152631	
0.155319	-0.32739	0.22804	
-0.0977967	-0.490343	0.258774	
-0.0810399	-0.493389	0.35285	
0	-0.5	0.3	
-0.0510822	-0.382345	0.237039	
0.0943468	-0.245334	0	
0.0544868	-0.141962	0.103859	
0.0712814	-0.153152	0	
0.0390368	-0.27687	0.0931397	
-0.194667	-0.460548	0.26567	
-0.0977967	-0.490343	0.258774	
-0.168043	-0.470916	0.199874	
-0.162023	-0.339511	0.25028	
-0.289778	0.0776457	0.5	
-0.3	7.34788e-17	0.5	
-0.351551	0.0541915	0.5	
-0.259226	0.03952	0.402729	
-0.203173	-0.373024	0	
-0.168688	-0.281701	0	
-0.230549	-0.284648	0.130866	
-0.1449	-0.36257	0.121022	
-0.0228356	-0.132115	0.5	
-0.0708935	-0.143579	0.5	
-0.0699979	-0.0973408	0.5	
-0.0688906	-0.12049	0.417622	
0.29185	-0.325871	0.5	
0.31678	-0.386847	0.395869	
0.203679	-0.368672	0.5	
0.270471	-0.290437	0.402527	
0.174678	0.468495	0.317109	
0.146853	0.477948	0.415992	
0.0814864	0.493315	0.347681	
0.117226	0.368857	0.420345	
0.317131	-0.386559	0.0881616	
0.2429	-0.437035	0.152631	
0.262155	-0.286798	0.192405	
0.251583	-0.28589	0.0896708	
0.0807477	0.493437	0.154224	
0.0854243	0.492649	0.251403	
0	0.5	0.2	
0.000988831	0.396472	0.255648	
-0.416747	0.276265	0.362548	
-0.373696	0.332191	0.334057	
-0.388345	0.314941	0.420199	
-0.321766	0.212706	0.386222	
0.3	-3.67394e-17	0.5	
0.289778	0.0776457	0.5	
0.363184	0.0579886	0.5	
0.307169	-0.0101791	0.393725	
0.385896	-0.317937	0.065638	
0.380207	-0.19708	0	
0.314857	-0.257449	0	
0.313473	-0.209952	0.12238	
-0.104233	0.0522254	0.274426	
-0.056943	0.120887	0.354229	
0.00171532	0.0670635	0.305226	
-0.0531538	0.125355	0.264689	
0.428195	0.258165	0.201755	
0.340356	0.131144	0.231324	
0.460548	0.194667	0.23433	
0.329012	0.224405	0.280196	
-0.0776457	-0.289778	0.5	
-1.51596e-16	-0.3	0.5	
-0.0152603	-0.363012	0.5	
0.000597841	-0.287345	0.400747	
-0.215641	-0.22714	0.5	
-0.172766	-0.209666	0.5	
-0.192742	-0.261282	0.5	
-0.188087	-0.23341	0.408968	
-0.428192	0.000626804	0.5	
-0.361276	-0.0455918	0.5	
-0.34365	-0.0208645	0.382522	
-0.37885	0.0751067	0.400181	
-0.263582	-0.319413	0	
-0.230549	-0.284648	0.130866	
-0.261345	-0.230036	0	
-0.323408	-0.220518	0.107073	
-0.468495	-0.174678	0.182891	
-0.434698	-0.247057	0.249501	
-0.429146	-0.25658	0.16876	
-0.352865	-0.168551	0.27433	
-0.00915007	-0.159584	0.370443	
0.0565057	-0.147787	0.277794	
0.0958167	-0.194694	0.334239	
0.0217781	-0.230689	0.341777	
0.00171532	0.0670635	0.305226	
0.0015496	-0.0106233	0.342921	
-0.00800179	-0.0152081	0.261913	
0.0785134	0.0464455	0.325494	
-0.152331	-0.0811942	0.14549	
-0.10857	-0.188319	0.218241	
-0.183468	-0.187607	0.160733	
-0.127253	-0.156126	0.0844713	
-0.1997	0.206062	0.414424	
-0.185526	0.120318	0.373769	
-0.125784	0.172859	0.335584	
-0.168013	0.159183	0.440667	
-0.0853821	0.492656	0.251348	
-0.132465	0.342544	0.286862	
-0.16873	0.47067	0.201799	
-0.0810467	0.370121	0.206864	
-0.0295403	0.225144	0	
0.0596404	0.176022	0.113284	
0.0651412	0.200096	0	
-0.0198097	0.25642	0.112647	
-0.0510822	-0.382345	0.237039	
0.0676693	-0.388009	0.271914	
0.0130711	-0.359241	0.13871	
-0.00981402	-0.289236	0.206945	
0.0682711	-0.052186	0.339077	
0.118937	-0.109877	0.313008	
0.163856	-0.062131	0.265284	
0.14698	-0.0404502	0.339975	
-0.16685	0.0883447	0	
-0.0983601	0.156434	0	
-0.18644	0.1823	0	
-0.128142	0.132022	0.124103	
0.369217	0.203769	0.5	
0.325794	0.291996	0.5	
0.388274	0.315029	0.420807	
0.316151	0.221929	0.385283	
0.130932	-0.431625	0.5	
0.0690566	-0.495208	0.430964	
0.0431128	-0.437731	0.5	
0.0667135	-0.376589	0.379415	
-0.00425413	0.131001	0	
0.0651412	0.200096	0	
-0.0295403	0.225144	0	
0.0596404	0.176022	0.113284	
-0.212951	-0.0278954	0.307934	
-0.259226	0.03952	0.402729	
-0.221879	0.0747178	0.286107	
-0.296824	0.0138185	0.284404	
0.155785	0.045673	0.353105	
0.202719	0.0237767	0.420412	
0.102443	0.0227629	0.419717	
0.14698	-0.0404502	0.339975	
0.0651412	0.200096	0	
-0.0198097	0.25642	0.112647	
0.0596404	0.176022	0.113284	
0.0793736	0.28635	0.097829	
-0.214222	-0.0809482	0.409057	
-0.246996	-0.178452	0.424102	
-0.142736	-0.147946	0.384212	
-0.167688	-0.179794	0.441452	
-0.18644	0.1823	0	
-0.128142	0.132022	0.124103	
-0.0983601	0.156434	0	
-0.170195	0.225746	0.0963396	
-0.325943	0.285613	0.5	
-0.321766	0.212706	0.386222	
-0.388345	0.314941	0.420199	
-0.281262	0.296575	0.411781	
-0.177196	0.0645246	0.5	
-0.13896	0.0197163	0.5	
-0.166197	0.012686	0.395566	
-0.15502	0.0902607	0.438606	
0.326126	-0.135086	0.5	
0.340228	-0.209884	0.396212	
0.304695	-0.194694	0.5	
0.273873	-0.116111	0.41418	
0.189715	-0.00503075	0.168338	
0.223495	0.10535	0.166759	
0.27082	0.0310537	0.205694	
0.292412	0.0780179	0.101456	
0.12288	0.243768	0.182957	
0.227449	0.293019	0.0951933	
0.191109	0.195644	0.106001	
0.0793736	0.28635	0.097829	
0.194694	0.304695	0.5	
0.19149	0.263191	0.5	
0.15	0.259808	0.5	
0.130242	0.253849	0.414889	
-0.0573721	0.0334812	0.170638	
0.0244504	-0.00702123	0.176751	
0.0694446	0.0614041	0.127763	
0.00560742	0.0907829	0.203832	
0.0694446	0.0614041	0.127763	
-0.0250996	0.111886	0.106171	
-0.0573721	0.0334812	0.170638	
0.00560742	0.0907829	0.203832	
-0.495208	0.0690617	0.0692099	
-0.404541	0.126945	0	
-0.478516	0.14499	0.0762896	
-0.385327	0.0355064	0.11322	
0.247868	0.146306	0	
0.300884	0.198715	0	
0.231243	0.24169	0	
0.191109	0.195644	0.106001	
0.189613	0.313662	0	
0.227449	0.293019	0.0951933	
0.145858	0.357927	0.135369	
0.0793736	0.28635	0.097829	
-0.126305	-0.416563	0.5	
-0.0790357	-0.366186	0.5	
-0.0442266	-0.432186	0.5	
-0.0295129	-0.397696	0.405297	
0.377032	-0.3284	0.243217	
0.429476	-0.256028	0.291579	
0.428104	-0.258315	0.196896	
0.304682	-0.199557	0.252634	
0.092572	-0.0674004	0.167448	
0.0544868	-0.141962	0.103859	
-0.0272885	-0.0825315	0.132744	
0.0773506	-0.0233693	0.0836206	
0.394936	-0.119803	0	
0.313791	-0.154465	0	
0.380207	-0.19708	0	
0.369564	-0.0975027	0.118883	
-0.043412	0.246202	0.5	
0.00464373	0.231373	0.403957	
-0.0948532	0.245573	0.374875	
-0.0433744	0.307825	0.417357	
0.0884767	-0.000375704	0.258795	
-0.00800179	-0.0152081	0.261913	
0.0015496	-0.0106233	0.342921	
0.0785134	0.0464455	0.325494	
-0.304187	0.215745	0.266633	
-0.234922	0.307887	0.237464	
-0.222708	0.258636	0.344999	
-0.173354	0.242294	0.26617	
-0.0509221	-0.120838	0.250106	
-0.115691	-0.0468978	0.268322	
-0.00800179	-0.0152081	0.261913	
-0.0599463	-0.0498399	0.20415	
0.3	-3.67394e-17	0.5	
0.246202	0.043412	0.5	
0.307169	-0.0101791	0.393725	
0.202719	0.0237767	0.420412	
0.177945	-0.20787	0.5	
0.221044	-0.17499	0.5	
0.228406	-0.215902	0.5	
0.213897	-0.237657	0.431435	
0.0690566	-0.495208	0.430964	
0.0431128	-0.437731	0.5	
0.0667135	-0.376589	0.379415	
-0.0295129	-0.397696	0.405297	
-0.310856	0.111964	0.328315	
-0.185526	0.120318	0.373769	
-0.221879	0.0747178	0.286107	
-0.230719	0.171576	0.307699	
-0.315029	-0.388274	0.0791933	
-0.331632	-0.374193	0.165357	
-0.277785	-0.415735	0.134138	
-0.230549	-0.284648	0.130866	
-0.325698	-0.286034	0.5	
-0.30356	-0.231708	0.5	
-0.288349	-0.269581	0.401233	
-0.354384	-0.194129	0.402587	
0.12288	0.243768	0.182957	
0.139502	0.248001	0.286243	
0.103925	0.350791	0.253756	
0.0266006	0.259074	0.200021	
0.242822	0.437078	0.152991	
0.247057	0.434698	0.250499	
0.168734	0.470668	0.201781	
0.145858	0.357927	0.135369	
0.139502	0.248001	0.286243	
0.12288	0.243768	0.182957	
0.196123	0.185647	0.211614	
0.0586412	0.17223	0.217492	
-0.185526	0.120318	0.373769	
-0.310856	0.111964	0.328315	
-0.259226	0.03952	0.402729	
-0.266336	0.143871	0.409139	
-0.222708	0.258636	0.344999	
-0.125784	0.172859	0.335584	
-0.230719	0.171576	0.307699	
-0.173354	0.242294	0.26617	
0.07775	0.0966917	0.259619	
0.125478	0.130999	0.17652	
0.0694446	0.0614041	0.127763	
0.00560742	0.0907829	0.203832	
-0.212951	-0.0278954	0.307934	
-0.34365	-0.0208645	0.382522	
-0.259226	0.03952	0.402729	
-0.296824	0.0138185	0.284404	
0.153328	0.47591	0.0923699	
0.202324	0.378521	0	
0.235698	0.440961	0.068569	
0.145858	0.357927	0.135369	
0.334367	-0.270443	0.5	
0.270471	-0.290437	0.402527	
0.274666	-0.249265	0.5	
0.340228	-0.209884	0.396212	
0.268393	-0.334301	0	
0.235698	-0.440961	0.0686036	
0.317131	-0.386559	0.0881616	
0.251583	-0.28589	0.0896708	
-0.0272885	-0.0825315	0.132744	
0.0544868	-0.141962	0.103859	
0.092572	-0.0674004	0.167448	
0.0255949	-0.0865848	0.221929	
-0.216156	-0.175607	0.5	
-0.215641	-0.22714	0.5	
-0.246996	-0.178452	0.424102	
-0.167688	-0.179794	0.441452	
-0.183468	-0.187607	0.160733	
-0.10857	-0.188319	0.218241	
-0.0974804	-0.267818	0.168751	
-0.127253	-0.156126	0.0844713	
-0.210645	0.180174	0.5	
-0.1997	0.206062	0.414424	
-0.175601	0.220525	0.5	
-0.168013	0.159183	0.440667	
-0.230549	-0.284648	0.130866	
-0.323408	-0.220518	0.107073	
-0.183468	-0.187607	0.160733	
-0.243673	-0.146253	0.0931104	
-0.043412	0.246202	0.5	
-0.0948532	0.245573	0.374875	
-0.0776457	0.289778	0.5	
-0.0433744	0.307825	0.417357	
0.0776457	-0.289778	0.5	
0.043412	-0.246202	0.5	
0.0645865	-0.210943	0.409687	
0.000597841	-0.287345	0.400747	
-0.493012	0.0833019	0.344789	
-0.471122	0.167464	0.300106	
-0.476132	0.152637	0.402329	
-0.373924	0.17948	0.316585	
-0.159007	0.150563	0.248955	
-0.230719	0.171576	0.307699	
-0.185526	0.120318	0.373769	
-0.125784	0.172859	0.335584	
0.268679	-0.0175832	0.0938256	
0.165336	0.0617817	0.0970708	
0.189715	-0.00503075	0.168338	
0.292412	0.0780179	0.101456	
-0.222708	0.258636	0.344999	
-0.234922	0.307887	0.237464	
-0.132465	0.342544	0.286862	
-0.173354	0.242294	0.26617	
0.155319	-0.32739	0.22804	
0.162218	-0.333858	0.109166	
0.18433	-0.220573	0.141371	
0.262155	-0.286798	0.192405	
0.115537	0.0107471	0	
0.165336	0.0617817	0.0970708	
0.0694446	0.0614041	0.127763	
0.0773506	-0.0233693	0.0836206	
-0.0712263	0.363482	0.5	
-0.135086	0.326126	0.5	
-0.124938	0.414491	0.5	
-0.073553	0.38985	0.391066	
0.165128	-0.182854	0.275544	
0.0851242	-0.244368	0.268286	
0.0565057	-0.147787	0.277794	
0.113524	-0.1522	0.202868	
-0.34365	-0.0208645	0.382522	
-0.387326	-0.108791	0.360005	
-0.361082	-0.0385179	0.234803	
-0.288242	-0.0832951	0.281127	
-0.386792	-0.316847	0.301384	
-0.285188	-0.256019	0.23904	
-0.434698	-0.247057	0.249501	
-0.352865	-0.168551	0.27433	
0.247057	0.434698	0.250499	
0.174678	0.468495	0.317109	
0.168734	0.470668	0.201781	
0.103925	0.350791	0.253756	
0.216156	0.175607	0.5	
0.169426	0.205971	0.5	
0.215641	0.22714	0.5	
0.199563	0.20121	0.405215	
0.0461078	-0.0584269	0	
0.0712814	-0.153152	0	
0.14072	-0.0839746	0	
0.0544868	-0.141962	0.103859	
-0.310856	0.111964	0.328315	
-0.266336	0.143871	0.409139	
-0.185526	0.120318	0.373769	
-0.230719	0.171576	0.307699	
0.242822	0.437078	0.152991	
0.317233	0.386476	0.0904728	
0.316847	0.386792	0.198616	
0.227449	0.293019	0.0951933	
-0.235698	0.440961	0.0686036	
-0.153329	0.47591	0.0923815	
-0.2429	0.437035	0.152631	
-0.213184	0.322526	0.106779	
-0.048473	-0.0328568	0	
-0.0272885	-0.0825315	0.132744	
-0.0145265	0.00397743	0.0865031	
-0.0957928	-0.0529556	0.0773873	
-0.112672	-0.0704426	0.5	
-0.0699979	-0.0973408	0.5	
-0.0688906	-0.12049	0.417622	
-0.0921341	-0.0472882	0.428822	
0.199563	0.20121	0.405215	
0.230141	0.201516	0.310453	
0.228063	0.102246	0.400094	
0.162344	0.134607	0.350934	
0.0694446	0.0614041	0.127763	
0.0244504	-0.00702123	0.176751	
-0.0573721	0.0334812	0.170638	
-0.0145265	0.00397743	0.0865031	
-0.310856	0.111964	0.328315	
-0.364452	0.121056	0.219309	
-0.304187	0.215745	0.266633	
-0.255792	0.140946	0.214728	
0.0651412	0.200096	0	
0.0903521	0.10545	0	
0.158056	0.171884	0	
0.0596404	0.176022	0.113284	
0.017794	0.149684	0.5	
0.0101256	0.127322	0.41346	
-0.0305981	0.141799	0.5	
-0.0473335	0.163087	0.434501	
-0.315029	-0.388274	0.0791933	
-0.386831	-0.3168	0.104097	
-0.331632	-0.374193	0.165357	
-0.230549	-0.284648	0.130866	
0.373926	0.198925	0	
0.478555	0.144862	0.0783483	
0.436762	0.243391	0.0969381	
0.337502	0.1652	0.112737	
0.247023	-0.434718	0.250558	
0.317319	-0.386405	0.201487	
0.2429	-0.437035	0.152631	
0.262155	-0.286798	0.192405	
0.0682711	-0.052186	0.339077	
0.0884767	-0.000375704	0.258795	
0.0015496	-0.0106233	0.342921	
0.0785134	0.0464455	0.325494	
0.476132	-0.152637	0.402329	
0.347622	-0.102783	0.358549	
0.471122	-0.167464	0.300106	
0.373857	-0.180895	0.313411	
0.317131	-0.386559	0.0881616	
0.162218	-0.333858	0.109166	
0.2429	-0.437035	0.152631	
0.251583	-0.28589	0.0896708	
0.0214814	0.353326	0.153644	
0.145858	0.357927	0.135369	
0.12288	0.243768	0.182957	
0.0793736	0.28635	0.097829	
0.164655	-0.11934	0.10185	
0.113524	-0.1522	0.202868	
0.18433	-0.220573	0.141371	
0.227664	-0.175808	0.20875	
-0.188087	-0.23341	0.408968	
-0.0829946	-0.232421	0.403465	
-0.142736	-0.147946	0.384212	
-0.167688	-0.179794	0.441452	
-0.0272885	-0.0825315	0.132744	
0.0244504	-0.00702123	0.176751	
0.092572	-0.0674004	0.167448	
0.0773506	-0.0233693	0.0836206	
-0.15	-0.259808	0.5	
-0.188087	-0.23341	0.408968	
-0.172766	-0.209666	0.5	
-0.167688	-0.179794	0.441452	
-0.171623	-0.128704	0.255156	
-0.143954	-0.0664954	0.366375	
-0.115691	-0.0468978	0.268322	
-0.203272	-0.117351	0.333128	
0.124929	0.414525	0.5	
0.146853	0.477948	0.415992	
0.195731	0.375572	0.5	
0.117226	0.368857	0.420345	
0.202324	0.378521	0	
0.145858	0.357927	0.135369	
0.189613	0.313662	0	
0.227449	0.293019	0.0951933	
0.16873	-0.47067	0.201799	
0.0676693	-0.388009	0.271914	
0.155319	-0.32739	0.22804	
0.104159	-0.395278	0.16544	
0.164757	0.31504	0.3626	
0.233262	0.310813	0.267062	
0.230141	0.201516	0.310453	
0.139502	0.248001	0.286243	
0.00183684	-0.222331	0	
0.0544868	-0.141962	0.103859	
-0.0369979	-0.193764	0.104577	
0.0390368	-0.27687	0.0931397	
0.375572	-0.195731	0.5	
0.439384	-0.238625	0.423358	
0.334367	-0.270443	0.5	
0.340228	-0.209884	0.396212	
-0.0573721	0.0334812	0.170638	
-0.0250996	0.111886	0.106171	
0.0694446	0.0614041	0.127763	
-0.0145265	0.00397743	0.0865031	
0.388345	-0.314941	0.420199	
0.416747	-0.276265	0.362548	
0.373696	-0.332191	0.334057	
0.340228	-0.209884	0.396212	
-0.135086	0.326126	0.5	
-0.073553	0.38985	0.391066	
-0.0712263	0.363482	0.5	
-0.0433744	0.307825	0.417357	
0.266139	0.241799	0.177649	
0.233262	0.310813	0.267062	
0.230141	0.201516	0.310453	
0.329012	0.224405	0.280196	
-0.082138	0.218948	0.273339	
-0.125784	0.172859	0.335584	
-0.0948532	0.245573	0.374875	
-0.173354	0.242294	0.26617	
0.18228	-0.160584	0.5	
0.139746	-0.170777	0.5	
0.155716	-0.12147	0.5	
0.165128	-0.182854	0.433186	
0.0153159	0.363557	0	
-0.0555676	0.325574	0	
0.0401436	0.291204	0	
-0.0198097	0.25642	0.112647	
0.2	-0.259808	0.5	
0.231749	-0.30504	0.5	
0.166469	-0.308164	0.5	
0.213897	-0.237657	0.431435	
0	-0.5	0.2	
0.0807376	-0.493438	0.154216	
0	-0.5	0.1	
0.0130711	-0.359241	0.13871	
-0.373696	0.332191	0.334057	
-0.429476	0.256028	0.291579	
-0.377032	0.3284	0.243217	
-0.304187	0.215745	0.266633	
0.270443	0.334367	0.5	
0.3168	0.386831	0.395903	
0.325794	0.291996	0.5	
0.24627	0.285293	0.404112	
0.334367	-0.270443	0.5	
0.274666	-0.249265	0.5	
0.304695	-0.194694	0.5	
0.340228	-0.209884	0.396212	
-0.126305	-0.416563	0.5	
-0.0442266	-0.432186	0.5	
-0.0684459	-0.495293	0.431403	
-0.0295129	-0.397696	0.405297	
0.0214814	0.353326	0.153644	
0.12288	0.243768	0.182957	
0.0266006	0.259074	0.200021	
0.0793736	0.28635	0.097829	
0.163856	-0.062131	0.265284	
0.0884767	-0.000375704	0.258795	
0.0682711	-0.052186	0.339077	
0.14698	-0.0404502	0.339975	
-0.144862	-0.478555	0.421652	
-0.243391	-0.436762	0.403062	
-0.195731	-0.375572	0.5	
-0.206938	-0.33712	0.400053	
0.0486433	-0.215998	0.178276	
-0.00981402	-0.289236	0.206945	
-0.0369979	-0.193764	0.104577	
0.0390368	-0.27687	0.0931397	
0.0807376	-0.493438	0.154216	
0.0130711	-0.359241	0.13871	
0	-0.5	0.2	
0.104159	-0.395278	0.16544	
-0.5	0	0.1	
-0.401548	-0.0423374	0	
-0.426463	0.0441363	0	
-0.385327	0.0355064	0.11322	
0.2429	-0.437035	0.152631	
0.317131	-0.386559	0.0881616	
0.235698	-0.440961	0.0686036	
0.162218	-0.333858	0.109166	
0.0682711	-0.052186	0.339077	
0.0015496	-0.0106233	0.342921	
0.0293798	0.0426018	0.391106	
0.0785134	0.0464455	0.325494	
-0.113894	0.0780637	0.5	
-0.0790952	0.0620487	0.41859	
-0.13896	0.0197163	0.5	
-0.15502	0.0902607	0.438606	
-0.0228356	-0.132115	0.5	
0.00155464	-0.188347	0.5	
-0.0497612	-0.177788	0.5	
0.00727488	-0.125574	0.43338	
-0.171623	-0.128704	0.255156	
-0.183468	-0.187607	0.160733	
-0.152331	-0.0811942	0.14549	
-0.10857	-0.188319	0.218241	
-0.142736	-0.147946	0.384212	
-0.143954	-0.0664954	0.366375	
-0.0795999	-0.137717	0.328283	
-0.203272	-0.117351	0.333128	
0.0565057	-0.147787	0.277794	
0.165128	-0.182854	0.275544	
0.113524	-0.1522	0.202868	
0.118937	-0.109877	0.313008	
-0.203173	-0.373024	0	
-0.168688	-0.281701	0	
-0.263582	-0.319413	0	
-0.230549	-0.284648	0.130866	
0.0101256	0.127322	0.41346	
0.096294	0.191774	0.363276	
0.10136	0.102523	0.406019	
0.0522467	0.122489	0.34166	
0.260383	-0.192244	0.5	
0.274666	-0.249265	0.5	
0.228406	-0.215902	0.5	
0.213897	-0.237657	0.431435	
-0.363589	0.21739	0.5	
-0.388345	0.314941	0.420199	
-0.325943	0.285613	0.5	
-0.321766	0.212706	0.386222	
0	0.5	0.3	
0.0814864	0.493315	0.347681	
0	0.5	0.4	
0.0365945	0.375424	0.376008	
-0.361082	-0.0385179	0.234803	
-0.352865	-0.168551	0.27433	
-0.283975	-0.144274	0.184102	
-0.288242	-0.0832951	0.281127	
0.128689	-0.272515	0.368277	
0.165128	-0.182854	0.433186	
0.213897	-0.237657	0.431435	
0.164604	-0.198565	0.360975	
0	0.5	0.3	
-0.082983	0.493066	0.348347	
-0.0853821	0.492656	0.251348	
0.000988831	0.396472	0.255648	
-0.056943	0.120887	0.354229	
-0.0531538	0.125355	0.264689	
-0.104233	0.0522254	0.274426	
-0.12302	0.073304	0.350874	
0.12288	0.243768	0.182957	
0.139502	0.248001	0.286243	
0.0266006	0.259074	0.200021	
0.0586412	0.17223	0.217492	
0.0596404	0.176022	0.113284	
-0.0250996	0.111886	0.106171	
0.0694446	0.0614041	0.127763	
0.00560742	0.0907829	0.203832	
0.490343	0.0977967	0.241226	
0.460548	0.194667	0.23433	
0.469721	0.171353	0.161666	
0.340356	0.131144	0.231324	
-0.185526	0.120318	0.373769	
-0.266336	0.143871	0.409139	
-0.1997	0.206062	0.414424	
-0.230719	0.171576	0.307699	
0.428104	-0.258315	0.196896	
0.304682	-0.199557	0.252634	
0.429476	-0.256028	0.291579	
0.375867	-0.158621	0.196853	
-0.115691	-0.0468978	0.268322	
-0.143954	-0.0664954	0.366375	
-0.212951	-0.0278954	0.307934	
-0.203272	-0.117351	0.333128	
-0.0688906	-0.12049	0.417622	
-0.0145446	-0.0833015	0.323221	
-0.00915007	-0.159584	0.370443	
-0.0795999	-0.137717	0.328283	
-0.259073	-0.206972	0.5	
-0.288349	-0.269581	0.401233	
-0.30356	-0.231708	0.5	
-0.246996	-0.178452	0.424102	
-0.0732624	-0.0235498	0.355778	
-0.0145446	-0.0833015	0.323221	
-0.00800179	-0.0152081	0.261913	
0.0015496	-0.0106233	0.342921	
0.163856	-0.062131	0.265284	
0.14698	-0.0404502	0.339975	
0.118937	-0.109877	0.313008	
0.19791	-0.131113	0.360072	
-0.0250996	0.111886	0.106171	
-0.12546	0.0336645	0.0931586	
-0.0734441	0.0616893	0	
-0.0145265	0.00397743	0.0865031	
0.4284	0.257824	0.295024	
0.460548	0.194667	0.23433	
0.470916	0.168043	0.300126	
0.329012	0.224405	0.280196	
0.133074	0.264097	0	
0.191109	0.195644	0.106001	
0.227449	0.293019	0.0951933	
0.0793736	0.28635	0.097829	
-0.0699979	-0.0973408	0.5	
-0.0708935	-0.143579	0.5	
-0.113226	-0.140086	0.5	
-0.0688906	-0.12049	0.417622	
0.0682711	-0.052186	0.339077	
0.0565057	-0.147787	0.277794	
0.118937	-0.109877	0.313008	
0.0558806	-0.119121	0.374407	
0.00183684	-0.222331	0	
-0.0369979	-0.193764	0.104577	
-0.0638367	-0.295761	0	
0.0390368	-0.27687	0.0931397	
0.164655	-0.11934	0.10185	
0.0544868	-0.141962	0.103859	
0.092572	-0.0674004	0.167448	
0.0773506	-0.0233693	0.0836206	
0.203679	-0.368672	0.5	
0.132817	-0.364062	0.5	
0.166469	-0.308164	0.5	
0.194286	-0.353827	0.369459	
-0.372622	-0.0844629	0.11881	
-0.261227	-0.0514885	0.117995	
-0.283975	-0.144274	0.184102	
-0.243673	-0.146253	0.0931104	
0.082983	-0.493066	0.348347	
0.0667135	-0.376589	0.379415	
0.174738	-0.468473	0.317184	
0.0676693	-0.388009	0.271914	
0.304682	-0.199557	0.252634	
0.262155	-0.286798	0.192405	
0.224653	-0.281756	0.300179	
0.227664	-0.175808	0.20875	
-0.0833019	-0.493012	0.155211	
0	-0.5	0.2	
0	-0.5	0.1	
-0.0562672	-0.401453	0.0877238	
0.0814864	0.493315	0.347681	
0.0728232	0.494668	0.426459	
0.0365945	0.375424	0.376008	
0.117226	0.368857	0.420345	
-0.128142	0.132022	0.124103	
-0.0250996	0.111886	0.106171	
-0.0259622	0.175651	0.191483	
-0.107039	0.0995618	0.201757	
-0.15	0.259808	0.5	
-0.194694	0.304695	0.5	
-0.135086	0.326126	0.5	
-0.173891	0.340446	0.398741	
0.103925	0.350791	0.253756	
0.233262	0.310813	0.267062	
0.164757	0.31504	0.3626	
0.139502	0.248001	0.286243	
0.376757	0.328716	0.246468	
0.316847	0.386792	0.198616	
0.380873	0.323938	0.152261	
0.266139	0.241799	0.177649	
0.0682711	-0.052186	0.339077	
-0.00800179	-0.0152081	0.261913	
-0.0145446	-0.0833015	0.323221	
0.0015496	-0.0106233	0.342921	
0.15	-0.259808	0.5	
0.165128	-0.182854	0.433186	
0.177945	-0.20787	0.5	
0.213897	-0.237657	0.431435	
-0.0259622	0.175651	0.191483	
-0.0250996	0.111886	0.106171	
0.00560742	0.0907829	0.203832	
-0.107039	0.0995618	0.201757	
0.00473146	-0.0477129	0.410326	
-0.0732624	-0.0235498	0.355778	
-0.0921341	-0.0472882	0.428822	
-0.0238699	0.0158197	0.434577	
-0.493315	-0.0814864	0.152319	
-0.5	0	0.2	
-0.492649	-0.0854243	0.248597	
-0.361082	-0.0385179	0.234803	
0.0712814	-0.153152	0	
0.164655	-0.11934	0.10185	
0.14072	-0.0839746	0	
0.0544868	-0.141962	0.103859	
0.439384	-0.238625	0.423358	
0.476132	-0.152637	0.402329	
0.450312	-0.217299	0.354112	
0.340228	-0.209884	0.396212	
0.228959	-0.444497	0.408094	
0.203679	-0.368672	0.5	
0.31678	-0.386847	0.395869	
0.194286	-0.353827	0.369459	
-0.0573721	0.0334812	0.170638	
-0.169854	0.0238988	0.185748	
-0.104233	0.0522254	0.274426	
-0.107039	0.0995618	0.201757	
0.092572	-0.0674004	0.167448	
0.0244504	-0.00702123	0.176751	
0.0694446	0.0614041	0.127763	
0.0773506	-0.0233693	0.0836206	
0.363184	0.0579886	0.5	
0.364062	0.132817	0.5	
0.431625	0.130932	0.5	
0.400259	0.0398147	0.391942	
0.230141	0.201516	0.310453	
0.139502	0.248001	0.286243	
0.233262	0.310813	0.267062	
0.196123	0.185647	0.211614	
-0.188087	-0.23341	0.313651	
-0.253263	-0.173914	0.276528	
-0.281583	-0.139061	0.36108	
-0.203272	-0.117351	0.333128	
-0.248409	-0.277977	0.5	
-0.30356	-0.231708	0.5	
-0.259073	-0.206972	0.5	
-0.288349	-0.269581	0.401233	
-0.289778	0.0776457	0.5	
-0.216506	0.125	0.5	
-0.259226	0.03952	0.402729	
-0.266336	0.143871	0.409139	
0.189715	-0.00503075	0.168338	
0.27082	0.0310537	0.205694	
0.268679	-0.0175832	0.0938256	
0.292412	0.0780179	0.101456	
0.155785	0.045673	0.353105	
0.0884767	-0.000375704	0.258795	
0.172939	0.0245765	0.250039	
0.14698	-0.0404502	0.339975	
0.436811	-0.243302	0.0936268	
0.469621	-0.171627	0.160116	
0.369564	-0.0975027	0.118883	
0.375867	-0.158621	0.196853	
-0.30356	-0.231708	0.5	
-0.246996	-0.178452	0.424102	
-0.288349	-0.269581	0.401233	
-0.354384	-0.194129	0.402587	
-0.0507575	0.0878249	0.5	
-0.113894	0.0780637	0.5	
-0.0892693	0.13018	0.5	
-0.0790952	0.0620487	0.41859	
-0.0507575	0.0878249	0.5	
-0.0892693	0.13018	0.5	
-0.0305981	0.141799	0.5	
-0.0473335	0.163087	0.434501	
0.0884767	-0.000375704	0.258795	
0.00171532	0.0670635	0.305226	
-0.00800179	-0.0152081	0.261913	
0.0785134	0.0464455	0.325494	
0.0645865	-0.210943	0.409687	
0.0958167	-0.194694	0.334239	
-0.00915007	-0.159584	0.370443	
0.0558806	-0.119121	0.374407	
-0.0232782	-0.127584	0	
-0.0369979	-0.193764	0.104577	
0.00183684	-0.222331	0	
0.0544868	-0.141962	0.103859	
-0.5	0	0.3	
-0.361082	-0.0385179	0.234803	
-0.5	0	0.2	
-0.406264	0.0467051	0.292816	
0.0376566	-0.0505847	0.5	
0.0854359	-0.0267855	0.5	
0.0733876	-0.0824124	0.5	
0.0936941	-0.0576924	0.420616	
-0.0509221	-0.120838	0.250106	
-0.0795999	-0.137717	0.328283	
-0.0741769	-0.222661	0.29905	
-0.00830008	-0.198671	0.244345	
-0.185526	0.120318	0.373769	
-0.259226	0.03952	0.402729	
-0.166197	0.012686	0.395566	
-0.15502	0.0902607	0.438606	
0.10136	0.102523	0.406019	
0.0785134	0.0464455	0.325494	
0.0522467	0.122489	0.34166	
0.162344	0.134607	0.350934	
-0.283975	-0.144274	0.184102	
-0.183468	-0.187607	0.160733	
-0.171623	-0.128704	0.255156	
-0.253263	-0.173914	0.276528	
0.30356	0.231708	0.5	
0.369217	0.203769	0.5	
0.308042	0.167631	0.5	
0.316151	0.221929	0.385283	
0.201164	-0.273578	0	
0.18433	-0.220573	0.141371	
0.162218	-0.333858	0.109166	
0.251583	-0.28589	0.0896708	
-0.247023	0.434718	0.250558	
-0.174738	0.468473	0.317184	
-0.256554	0.429162	0.331268	
-0.132465	0.342544	0.286862	
0.31678	-0.386847	0.395869	
0.270471	-0.290437	0.402527	
0.317163	-0.386533	0.299742	
0.194286	-0.353827	0.369459	
0.102443	0.0227629	0.419717	
0.0785134	0.0464455	0.325494	
0.155785	0.045673	0.353105	
0.14698	-0.0404502	0.339975	
0.195731	0.375572	0.5	
0.194694	0.304695	0.5	
0.135086	0.326126	0.5	
0.117226	0.368857	0.420345	
0.0712263	0.363482	0.5	
0.0365945	0.375424	0.376008	
0.042537	0.432039	0.5	
0.117226	0.368857	0.420345	
-0.5	0	0.4	
-0.406264	0.0467051	0.292816	
-0.493012	0.0833019	0.344789	
-0.37885	0.0751067	0.400181	
0.0903521	0.10545	0	
0.184962	0.0799289	0	
0.158056	0.171884	0	
0.165336	0.0617817	0.0970708	
0.07775	0.0966917	0.259619	
0.0785134	0.0464455	0.325494	
0.0884767	-0.000375704	0.258795	
0.172939	0.0245765	0.250039	
-0.258165	-0.428195	0.298245	
-0.162023	-0.339511	0.25028	
-0.257824	-0.4284	0.204976	
-0.243234	-0.318297	0.307228	
0.155785	0.045673	0.353105	
0.0785134	0.0464455	0.325494	
0.0884767	-0.000375704	0.258795	
0.14698	-0.0404502	0.339975	
0.0690566	-0.495208	0.430964	
0.130932	-0.431625	0.5	
0.147585	-0.477722	0.416442	
0.0667135	-0.376589	0.379415	
0.254347	-0.100565	0.163493	
0.268679	-0.0175832	0.0938256	
0.189715	-0.00503075	0.168338	
0.27082	0.0310537	0.205694	
0.18228	-0.160584	0.5	
0.221044	-0.17499	0.5	
0.177945	-0.20787	0.5	
0.165128	-0.182854	0.433186	
-0.147585	0.477722	0.416442	
-0.195731	0.375572	0.5	
-0.228959	0.444497	0.408094	
-0.173891	0.340446	0.398741	
0.0682711	-0.052186	0.339077	
0.00473146	-0.0477129	0.410326	
-0.0145446	-0.0833015	0.323221	
0.0558806	-0.119121	0.374407	
0.230141	0.201516	0.310453	
0.233262	0.310813	0.267062	
0.266139	0.241799	0.177649	
0.196123	0.185647	0.211614	
0.470916	0.168043	0.300126	
0.490343	0.0977967	0.241226	
0.493012	0.0833019	0.344789	
0.379606	0.0327687	0.28854	
0.165128	-0.182854	0.275544	
0.0565057	-0.147787	0.277794	
0.0851242	-0.244368	0.268286	
0.0958167	-0.194694	0.334239	
0.0943468	-0.245334	0	
0.0712814	-0.153152	0	
0.00183684	-0.222331	0	
0.0390368	-0.27687	0.0931397	
0.3	-3.67394e-17	0.5	
0.246202	-0.043412	0.5	
0.246202	0.043412	0.5	
0.202719	0.0237767	0.420412	
-0.128142	0.132022	0.124103	
-0.0250996	0.111886	0.106171	
-0.0573721	0.0334812	0.170638	
-0.12546	0.0336645	0.0931586	
0.470916	0.168043	0.300126	
0.460548	0.194667	0.23433	
0.490343	0.0977967	0.241226	
0.340356	0.131144	0.231324	
-0.159007	0.150563	0.248955	
-0.082138	0.218948	0.273339	
-0.0531538	0.125355	0.264689	
-0.114496	0.199368	0.185093	
-0.278498	0.0524484	0.16694	
-0.326028	0.142215	0.11299	
-0.255792	0.140946	0.214728	
-0.215195	0.0857371	0.0917705	
0.261819	0.319027	0	
0.317233	0.386476	0.0904728	
0.235698	0.440961	0.068569	
0.227449	0.293019	0.0951933	
-0.169854	0.0238988	0.185748	
-0.261227	-0.0514885	0.117995	
-0.152331	-0.0811942	0.14549	
-0.225667	-0.0555936	0.212037	
-0.0625361	-0.0382385	0.5	
-0.110253	-0.0221958	0.5	
-0.0705177	0.0247142	0.5	
-0.0921341	-0.0472882	0.428822	
-0.056943	0.120887	0.354229	
0.00171532	0.0670635	0.305226	
0.0133811	0.178278	0.293393	
0.0522467	0.122489	0.34166	
-0.310856	0.111964	0.328315	
-0.255792	0.140946	0.214728	
-0.304187	0.215745	0.266633	
-0.230719	0.171576	0.307699	
0.5	0	0.1	
0.495293	0.0684459	0.0685965	
0.414991	0.0495125	0	
0.391187	0.0843667	0.0902296	
0.437731	0.0431128	0.5	
0.5	0	0.4	
0.432186	-0.0442266	0.5	
0.392021	-0.0480463	0.41747	
-0.056943	0.120887	0.354229	
-0.112789	0.14207	0.41726	
-0.0790952	0.0620487	0.41859	
-0.0473335	0.163087	0.434501	
-0.0705177	0.0247142	0.5	
-0.0625361	-0.0382385	0.5	
-0.0921341	-0.0472882	0.428822	
-0.0238699	0.0158197	0.434577	
-0.388345	0.314941	0.420199	
-0.321766	0.212706	0.386222	
-0.373696	0.332191	0.334057	
-0.281262	0.296575	0.411781	
0.130932	-0.431625	0.5	
0.0431128	-0.437731	0.5	
0.0579886	-0.363184	0.5	
0.0667135	-0.376589	0.379415	
0.236451	-0.193336	0.377474	
0.165128	-0.182854	0.433186	
0.182789	-0.109466	0.430518	
0.19791	-0.131113	0.360072	
0.12288	0.243768	0.182957	
0.266139	0.241799	0.177649	
0.191109	0.195644	0.106001	
0.227449	0.293019	0.0951933	
0.249365	-0.119116	0.299613	
0.273873	-0.116111	0.41418	
0.209772	-0.0539676	0.386967	
0.19791	-0.131113	0.360072	
-0.404541	0.126945	0	
-0.385327	0.0355064	0.11322	
-0.337562	0.0547633	0	
-0.326028	0.142215	0.11299	
-0.317163	0.386533	0.299742	
-0.247023	0.434718	0.250558	
-0.256554	0.429162	0.331268	
-0.234922	0.307887	0.237464	
-0.235698	0.440961	0.0686036	
-0.273315	0.334955	0	
-0.201912	0.369986	0	
-0.213184	0.322526	0.106779	
-0.0259622	0.175651	0.191483	
-0.0250996	0.111886	0.106171	
0.0596404	0.176022	0.113284	
0.00560742	0.0907829	0.203832	
-0.377032	0.3284	0.243217	
-0.429476	0.256028	0.291579	
-0.428104	0.258315	0.196896	
-0.304187	0.215745	0.266633	
-0.493315	-0.0814864	0.152319	
-0.494668	-0.0728232	0.0735406	
-0.5	0	0.1	
-0.372622	-0.0844629	0.11881	
-0.195731	-0.375572	0.5	
-0.277785	-0.415735	0.5	
-0.270443	-0.334367	0.5	
-0.206938	-0.33712	0.400053	
0.276476	0.0535537	0	
0.165336	0.0617817	0.0970708	
0.268679	-0.0175832	0.0938256	
0.292412	0.0780179	0.101456	
-0.310856	0.111964	0.328315	
-0.406264	0.0467051	0.292816	
-0.364452	0.121056	0.219309	
-0.296824	0.0138185	0.284404	
-0.112789	0.14207	0.41726	
-0.125784	0.172859	0.335584	
-0.185526	0.120318	0.373769	
-0.168013	0.159183	0.440667	
0.133074	0.264097	0	
0.227449	0.293019	0.0951933	
0.189613	0.313662	0	
0.0793736	0.28635	0.097829	
-0.323938	-0.380873	0.347739	
-0.386792	-0.316847	0.301384	
-0.288349	-0.269581	0.401233	
-0.243234	-0.318297	0.307228	
0.30356	0.231708	0.5	
0.248409	0.277977	0.5	
0.325794	0.291996	0.5	
0.24627	0.285293	0.404112	
0.12288	0.243768	0.182957	
0.191109	0.195644	0.106001	
0.0596404	0.176022	0.113284	
0.0793736	0.28635	0.097829	
0.0776457	-0.289778	0.5	
0.0579886	-0.363184	0.5	
-1.51596e-16	-0.3	0.5	
0.000597841	-0.287345	0.400747	
-0.406264	0.0467051	0.292816	
-0.37885	0.0751067	0.400181	
-0.310856	0.111964	0.328315	
-0.373924	0.17948	0.316585	
0.128689	-0.272515	0.368277	
0.0958167	-0.194694	0.334239	
0.0851242	-0.244368	0.268286	
0.0217781	-0.230689	0.341777	
0.128497	-0.139894	0.387724	
0.118937	-0.109877	0.313008	
0.14698	-0.0404502	0.339975	
0.19791	-0.131113	0.360072	
0.340356	0.131144	0.231324	
0.27082	0.0310537	0.205694	
0.379606	0.0327687	0.28854	
0.276243	0.0902748	0.286189	
0.175681	0.0639425	0.5	
0.102519	0.0330131	0.5	
0.113554	0.0989266	0.5	
0.102443	0.0227629	0.419717	
0.366186	-0.0790357	0.5	
0.326126	-0.135086	0.5	
0.289778	-0.0776457	0.5	
0.273873	-0.116111	0.41418	
-0.113226	-0.140086	0.5	
-0.173205	-0.15	0.5	
-0.149626	-0.106257	0.5	
-0.167688	-0.179794	0.441452	
-0.0573721	0.0334812	0.170638	
-0.0145265	0.00397743	0.0865031	
-0.0272885	-0.0825315	0.132744	
-0.0957928	-0.0529556	0.0773873	
-0.2429	0.437035	0.152631	
-0.234922	0.307887	0.237464	
-0.317319	0.386405	0.201487	
-0.213184	0.322526	0.106779	
-0.0573721	0.0334812	0.170638	
0.00560742	0.0907829	0.203832	
-0.0250996	0.111886	0.106171	
-0.107039	0.0995618	0.201757	
-0.325698	-0.286034	0.5	
-0.363128	-0.216258	0.5	
-0.30356	-0.231708	0.5	
-0.354384	-0.194129	0.402587	
-0.386476	-0.317233	0.409527	
-0.386792	-0.316847	0.301384	
-0.437078	-0.242822	0.347009	
-0.354384	-0.194129	0.402587	
0.388274	0.315029	0.420807	
0.3168	0.386831	0.395903	
0.374193	0.331632	0.334643	
0.24627	0.285293	0.404112	
-0.0509221	-0.120838	0.250106	
0.0255949	-0.0865848	0.221929	
-0.0272885	-0.0825315	0.132744	
-0.0599463	-0.0498399	0.20415	
-0.0684459	-0.495293	0.431403	
-0.144862	-0.478555	0.421652	
-0.126305	-0.416563	0.5	
-0.0295129	-0.397696	0.405297	
0.388274	0.315029	0.420807	
0.415735	0.277785	0.365862	
0.439458	0.238488	0.424308	
0.316151	0.221929	0.385283	
-0.439384	0.238625	0.423358	
-0.388345	0.314941	0.420199	
-0.363589	0.21739	0.5	
-0.321766	0.212706	0.386222	
-0.492649	-0.0854243	0.248597	
-0.470668	-0.168734	0.298219	
-0.468495	-0.174678	0.182891	
-0.352865	-0.168551	0.27433	
-0.0509221	-0.120838	0.250106	
-0.00800179	-0.0152081	0.261913	
-0.0145446	-0.0833015	0.323221	
0.0255949	-0.0865848	0.221929	
-0.228959	0.444497	0.408094	
-0.277785	0.415735	0.5	
-0.270443	0.334367	0.5	
-0.195731	0.375572	0.5	
-0.119993	0.246691	0	
-0.0295403	0.225144	0	
-0.0555676	0.325574	0	
-0.0198097	0.25642	0.112647	
-0.192742	-0.261282	0.5	
-0.172766	-0.209666	0.5	
-0.15	-0.259808	0.5	
-0.188087	-0.23341	0.408968	
0.277785	0.415735	0.5	
0.270443	0.334367	0.5	
0.195731	0.375572	0.5	
0.228991	0.444481	0.408099	
0.0579886	-0.363184	0.5	
-0.0152603	-0.363012	0.5	
-1.51596e-16	-0.3	0.5	
0.000597841	-0.287345	0.400747	
-0.171623	-0.128704	0.255156	
-0.225667	-0.0555936	0.212037	
-0.283975	-0.144274	0.184102	
-0.253263	-0.173914	0.276528	
0.0579886	-0.363184	0.5	
0.132817	-0.364062	0.5	
0.130932	-0.431625	0.5	
0.0667135	-0.376589	0.379415	
-0.0573721	0.0334812	0.170638	
-0.00800179	-0.0152081	0.261913	
0.0244504	-0.00702123	0.176751	
0.00560742	0.0907829	0.203832	
0.0596404	0.176022	0.113284	
-0.0259622	0.175651	0.191483	
0.00560742	0.0907829	0.203832	
0.0586412	0.17223	0.217492	
0.0093178	-0.302179	0.302179	
-0.0741769	-0.222661	0.29905	
-0.00830008	-0.198671	0.244345	
-0.00981402	-0.289236	0.206945	
0.374193	0.331632	0.334643	
0.415735	0.277785	0.365862	
0.388274	0.315029	0.420807	
0.316151	0.221929	0.385283	
-0.0426444	0.431636	0.5	
2.23198e-17	0.373746	0.5	
-0.0712263	0.363482	0.5	
-0.073553	0.38985	0.391066	
0.153328	0.47591	0.0923699	
0.114055	0.374109	0	
0.202324	0.378521	0	
0.145858	0.357927	0.135369	
-0.159007	0.150563	0.248955	
-0.114496	0.199368	0.185093	
-0.0531538	0.125355	0.264689	
-0.107039	0.0995618	0.201757	
0.0814864	0.493315	0.347681	
0	0.5	0.3	
0.0854243	0.492649	0.251403	
0.000988831	0.396472	0.255648	
0.471122	-0.167464	0.300106	
0.476132	-0.152637	0.402329	
0.493012	-0.0833019	0.344789	
0.347622	-0.102783	0.358549	
0.289778	-0.0776457	0.5	
0.246202	-0.043412	0.5	
0.307169	-0.0101791	0.393725	
0.273873	-0.116111	0.41418	
0.177945	-0.20787	0.5	
0.165128	-0.182854	0.433186	
0.221044	-0.17499	0.5	
0.213897	-0.237657	0.431435	
0.340356	0.131144	0.231324	
0.223495	0.10535	0.166759	
0.27082	0.0310537	0.205694	
0.276243	0.0902748	0.286189	
0.145858	0.357927	0.135369	
0.227449	0.293019	0.0951933	
0.12288	0.243768	0.182957	
0.0793736	0.28635	0.097829	
-0.212951	-0.0278954	0.307934	
-0.115691	-0.0468978	0.268322	
-0.171623	-0.128704	0.255156	
-0.225667	-0.0555936	0.212037	
-0.428192	0.000626804	0.5	
-0.351551	0.0541915	0.5	
-0.361276	-0.0455918	0.5	
-0.37885	0.0751067	0.400181	
0.124929	0.414525	0.5	
0.042537	0.432039	0.5	
0.0728232	0.494668	0.426459	
0.117226	0.368857	0.420345	
-0.152694	-0.476114	0.0975404	
-0.203173	-0.373024	0	
-0.238488	-0.439458	0.0756919	
-0.1449	-0.36257	0.121022	
0.277785	0.415735	0	
0.261819	0.319027	0	
0.235698	0.440961	0.068569	
0.202324	0.378521	0	
-0.361082	-0.0385179	0.234803	
-0.387326	-0.108791	0.360005	
-0.352865	-0.168551	0.27433	
-0.288242	-0.0832951	0.281127	
-0.0573721	0.0334812	0.170638	
-0.0250996	0.111886	0.106171	
-0.128142	0.132022	0.124103	
-0.107039	0.0995618	0.201757	
0.0133811	0.178278	0.293393	
0.00171532	0.0670635	0.305226	
-0.056943	0.120887	0.354229	
-0.0531538	0.125355	0.264689	
0.242822	0.437078	0.152991	
0.145858	0.357927	0.135369	
0.235698	0.440961	0.068569	
0.227449	0.293019	0.0951933	
0	-0.5	0.1	
0.0404524	-0.41072	0	
-0.0422582	-0.437473	0	
-0.0562672	-0.401453	0.0877238	
0.388345	-0.314941	0.420199	
0.373696	-0.332191	0.334057	
0.270471	-0.290437	0.402527	
0.340228	-0.209884	0.396212	
-0.171623	-0.128704	0.255156	
-0.115691	-0.0468978	0.268322	
-0.212951	-0.0278954	0.307934	
-0.203272	-0.117351	0.333128	
0	-0.5	0.3	
0	-0.5	0.2	
-0.0510822	-0.382345	0.237039	
0.0676693	-0.388009	0.271914	
-0.144862	-0.478555	0.421652	
-0.0810399	-0.493389	0.35285	
-0.171353	-0.469721	0.338334	
-0.107964	-0.347419	0.364155	
-0.469621	0.171627	0.160116	
-0.478516	0.14499	0.0762896	
-0.436811	0.243302	0.0936268	
-0.326028	0.142215	0.11299	
-0.0509221	-0.120838	0.250106	
-0.0741769	-0.222661	0.29905	
-0.0795999	-0.137717	0.328283	
-0.10857	-0.188319	0.218241	
0.0565057	-0.147787	0.277794	
0.0851242	-0.244368	0.268286	
0.0486433	-0.215998	0.178276	
0.113524	-0.1522	0.202868	
-0.439384	0.238625	0.423358	
-0.416747	0.276265	0.362548	
-0.388345	0.314941	0.420199	
-0.321766	0.212706	0.386222	
-0.159007	0.150563	0.248955	
-0.128142	0.132022	0.124103	
-0.114496	0.199368	0.185093	
-0.107039	0.0995618	0.201757	
-0.142736	-0.147946	0.384212	
-0.246996	-0.178452	0.424102	
-0.214222	-0.0809482	0.409057	
-0.203272	-0.117351	0.333128	
0.216506	-0.125	0.5	
0.246202	-0.043412	0.5	
0.273873	-0.116111	0.41418	
0.182789	-0.109466	0.430518	
0.18228	-0.160584	0.5	
0.165128	-0.182854	0.433186	
0.155716	-0.12147	0.5	
0.182789	-0.109466	0.430518	
0.388345	-0.314941	0.420199	
0.270471	-0.290437	0.402527	
0.334367	-0.270443	0.5	
0.340228	-0.209884	0.396212	
0.228991	0.444481	0.408099	
0.146853	0.477948	0.415992	
0.174678	0.468495	0.317109	
0.117226	0.368857	0.420345	
-0.0712263	0.363482	0.5	
-0.073553	0.38985	0.391066	
2.23198e-17	0.373746	0.5	
-0.0433744	0.307825	0.417357	
0.0209546	0.0362755	0	
-0.0250996	0.111886	0.106171	
-0.0734441	0.0616893	0	
-0.0145265	0.00397743	0.0865031	
-0.0892693	0.13018	0.5	
-0.112789	0.14207	0.41726	
-0.118648	0.167764	0.5	
-0.0473335	0.163087	0.434501	
-0.0853821	0.492656	0.251348	
-0.174738	0.468473	0.317184	
-0.16873	0.47067	0.201799	
-0.132465	0.342544	0.286862	
0.254347	-0.100565	0.163493	
0.164655	-0.11934	0.10185	
0.18433	-0.220573	0.141371	
0.227664	-0.175808	0.20875	
-0.469621	0.171627	0.160116	
-0.428104	0.258315	0.196896	
-0.460762	0.19416	0.234059	
-0.364452	0.121056	0.219309	
-0.0573721	0.0334812	0.170638	
-0.12546	0.0336645	0.0931586	
-0.0250996	0.111886	0.106171	
-0.0145265	0.00397743	0.0865031	
0.14072	-0.0839746	0	
0.232997	-0.11062	0	
0.210156	-0.0147965	0	
0.164655	-0.11934	0.10185	
0.0682711	-0.052186	0.339077	
0.0936941	-0.0576924	0.420616	
0.00473146	-0.0477129	0.410326	
0.0558806	-0.119121	0.374407	
-0.113894	0.0780637	0.5	
-0.112789	0.14207	0.41726	
-0.0790952	0.0620487	0.41859	
-0.15502	0.0902607	0.438606	
-0.154439	0.124228	0.5	
-0.118648	0.167764	0.5	
-0.0892693	0.13018	0.5	
-0.112789	0.14207	0.41726	
-0.41072	-0.12459	0	
-0.494668	-0.0728232	0.0735406	
-0.477948	-0.146853	0.0840084	
-0.372622	-0.0844629	0.11881	
-0.30356	-0.231708	0.5	
-0.308042	-0.167631	0.5	
-0.246996	-0.178452	0.424102	
-0.354384	-0.194129	0.402587	
0.147585	-0.477722	0.416442	
0.174738	-0.468473	0.317184	
0.082983	-0.493066	0.348347	
0.0667135	-0.376589	0.379415	
-0.310856	0.111964	0.328315	
-0.221879	0.0747178	0.286107	
-0.259226	0.03952	0.402729	
-0.296824	0.0138185	0.284404	
0.0093178	-0.302179	0.302179	
0.0676693	-0.388009	0.271914	
-0.0510822	-0.382345	0.237039	
-0.00981402	-0.289236	0.206945	
-0.138674	0.323797	0	
-0.213184	0.322526	0.106779	
-0.214341	0.273759	0	
-0.170195	0.225746	0.0963396	
-0.16873	0.47067	0.201799	
-0.174738	0.468473	0.317184	
-0.247023	0.434718	0.250558	
-0.132465	0.342544	0.286862	
-0.304187	0.215745	0.266633	
-0.364452	0.121056	0.219309	
-0.310856	0.111964	0.328315	
-0.373924	0.17948	0.316585	
-0.278498	0.0524484	0.16694	
-0.261227	-0.0514885	0.117995	
-0.169854	0.0238988	0.185748	
-0.225667	-0.0555936	0.212037	
0.155785	0.045673	0.353105	
0.10136	0.102523	0.406019	
0.228063	0.102246	0.400094	
0.162344	0.134607	0.350934	
-0.113894	0.0780637	0.5	
-0.0705177	0.0247142	0.5	
-0.13896	0.0197163	0.5	
-0.0790952	0.0620487	0.41859	
0.0565057	-0.147787	0.277794	
-0.00830008	-0.198671	0.244345	
0.0851242	-0.244368	0.268286	
0.0217781	-0.230689	0.341777	
0.247868	0.146306	0	
0.337634	0.115561	0	
0.300884	0.198715	0	
0.337502	0.1652	0.112737	
0.324629	0.108316	0.364447	
0.307169	-0.0101791	0.393725	
0.379606	0.0327687	0.28854	
0.400259	0.0398147	0.391942	
-0.259226	0.03952	0.402729	
-0.266336	0.143871	0.409139	
-0.310856	0.111964	0.328315	
-0.37885	0.0751067	0.400181	
-0.0509221	-0.120838	0.250106	
0.0255949	-0.0865848	0.221929	
0.0565057	-0.147787	0.277794	
-0.00830008	-0.198671	0.244345	
-0.216506	0.125	0.5	
-0.246202	0.043412	0.5	
-0.289778	0.0776457	0.5	
-0.259226	0.03952	0.402729	
0	0.5	0.2	
0.000988831	0.396472	0.255648	
-0.0853821	0.492656	0.251348	
-0.0810467	0.370121	0.206864	
0.0535528	0.0702068	0.5	
0.102519	0.0330131	0.5	
0.0454237	0.00960241	0.5	
0.102443	0.0227629	0.419717	
0.493012	-0.0833019	0.344789	
0.347622	-0.102783	0.358549	
0.476132	-0.152637	0.402329	
0.392021	-0.0480463	0.41747	
0.114055	0.374109	0	
0.189613	0.313662	0	
0.145858	0.357927	0.135369	
0.0793736	0.28635	0.097829	
-0.0638367	-0.295761	0	
-0.1449	-0.36257	0.121022	
-0.114467	-0.386332	0	
-0.0562672	-0.401453	0.0877238	
0.0712814	-0.153152	0	
-0.0232782	-0.127584	0	
0.00183684	-0.222331	0	
0.0544868	-0.141962	0.103859	
-0.154439	0.124228	0.5	
-0.118648	0.167764	0.5	
-0.112789	0.14207	0.41726	
-0.168013	0.159183	0.440667	
0.337634	0.115561	0	
0.414183	0.131147	0	
0.373926	0.198925	0	
0.337502	0.1652	0.112737	
-0.270443	0.334367	0.5	
-0.194694	0.304695	0.5	
-0.249565	0.273325	0.5	
-0.281262	0.296575	0.411781	
-0.364452	0.121056	0.219309	
-0.406264	0.0467051	0.292816	
-0.310856	0.111964	0.328315	
-0.373924	0.17948	0.316585	
0.317163	-0.386533	0.299742	
0.377032	-0.3284	0.243217	
0.317319	-0.386405	0.201487	
0.262155	-0.286798	0.192405	
0.439384	-0.238625	0.423358	
0.388345	-0.314941	0.420199	
0.334367	-0.270443	0.5	
0.340228	-0.209884	0.396212	
0.165128	-0.182854	0.275544	
0.118937	-0.109877	0.313008	
0.0565057	-0.147787	0.277794	
0.0958167	-0.194694	0.334239	
-0.351551	0.0541915	0.5	
-0.289778	0.0776457	0.5	
-0.259226	0.03952	0.402729	
-0.37885	0.0751067	0.400181	
-0.113226	-0.140086	0.5	
-0.13744	-0.178022	0.5	
-0.173205	-0.15	0.5	
-0.167688	-0.179794	0.441452	
0.0209546	0.0362755	0	
0.0694446	0.0614041	0.127763	
-0.0145265	0.00397743	0.0865031	
0.0773506	-0.0233693	0.0836206	
0.254347	-0.100565	0.163493	
0.313473	-0.209952	0.12238	
0.369564	-0.0975027	0.118883	
0.375867	-0.158621	0.196853	
0.0651412	0.200096	0	
-0.00425413	0.131001	0	
0.0903521	0.10545	0	
0.0596404	0.176022	0.113284	
0.00155464	-0.188347	0.5	
-0.0228356	-0.132115	0.5	
0.0208735	-0.153224	0.5	
0.00727488	-0.125574	0.43338	
0.232997	-0.11062	0	
0.164797	-0.177585	0	
0.245477	-0.191651	0	
0.164655	-0.11934	0.10185	
0.247868	0.146306	0	
0.337634	0.115561	0	
0.337502	0.1652	0.112737	
0.292412	0.0780179	0.101456	
0.223495	0.10535	0.166759	
0.125478	0.130999	0.17652	
0.191109	0.195644	0.106001	
0.165336	0.0617817	0.0970708	
0	-0.5	0.2	
0.0676693	-0.388009	0.271914	
0.0853821	-0.492656	0.251348	
0.104159	-0.395278	0.16544	
0.0690566	-0.495208	0.430964	
0.0667135	-0.376589	0.379415	
0	-0.5	0.4	
-0.0295129	-0.397696	0.405297	
0.3168	0.386831	0.395903	
0.388274	0.315029	0.420807	
0.325794	0.291996	0.5	
0.24627	0.285293	0.404112	
-0.270443	-0.334367	0.5	
-0.288349	-0.269581	0.401233	
-0.248409	-0.277977	0.5	
-0.206938	-0.33712	0.400053	
0.471122	-0.167464	0.300106	
0.460762	-0.19416	0.234059	
0.373857	-0.180895	0.313411	
0.375867	-0.158621	0.196853	
-0.188087	-0.23341	0.408968	
-0.246996	-0.178452	0.424102	
-0.215641	-0.22714	0.5	
-0.167688	-0.179794	0.441452	
-0.310856	0.111964	0.328315	
-0.221879	0.0747178	0.286107	
-0.255792	0.140946	0.214728	
-0.230719	0.171576	0.307699	
-0.259808	0.15	0.5	
-0.210645	0.180174	0.5	
-0.216506	0.125	0.5	
-0.266336	0.143871	0.409139	
-0.0807376	0.493438	0.154216	
-0.16873	0.47067	0.201799	
-0.0809307	0.385403	0.109035	
-0.0810467	0.370121	0.206864	
-0.404541	0.126945	0	
-0.328307	0.16356	0	
-0.389036	0.207425	0	
-0.326028	0.142215	0.11299	
0.0651412	0.200096	0	
0.0401436	0.291204	0	
-0.0198097	0.25642	0.112647	
0.0793736	0.28635	0.097829	
0.175681	0.0639425	0.5	
0.169238	0.138503	0.5	
0.216506	0.125	0.5	
0.228063	0.102246	0.400094	
-0.0934074	-0.183691	0.5	
-0.125	-0.216506	0.5	
-0.13744	-0.178022	0.5	
-0.167688	-0.179794	0.441452	
-0.215641	-0.22714	0.5	
-0.216156	-0.175607	0.5	
-0.172766	-0.209666	0.5	
-0.167688	-0.179794	0.441452	
0.409478	-0.032947	0	
0.394936	-0.119803	0	
0.495208	-0.0690617	0.0692099	
0.369564	-0.0975027	0.118883	
-0.0810399	-0.493389	0.35285	
0	-0.5	0.4	
0	-0.5	0.3	
-0.0295129	-0.397696	0.405297	
0.114055	0.374109	0	
0.189613	0.313662	0	
0.202324	0.378521	0	
0.145858	0.357927	0.135369	
0.0682711	-0.052186	0.339077	
0.0884767	-0.000375704	0.258795	
0.0785134	0.0464455	0.325494	
0.14698	-0.0404502	0.339975	
0.184962	0.0799289	0	
0.165336	0.0617817	0.0970708	
0.276476	0.0535537	0	
0.292412	0.0780179	0.101456	
-0.13896	0.0197163	0.5	
-0.166581	-0.0467287	0.5	
-0.196783	0.00504363	0.5	
-0.166197	0.012686	0.395566	
-0.278498	0.0524484	0.16694	
-0.385327	0.0355064	0.11322	
-0.364452	0.121056	0.219309	
-0.326028	0.142215	0.11299	
0.07775	0.0966917	0.259619	
0.00171532	0.0670635	0.305226	
0.0884767	-0.000375704	0.258795	
0.0785134	0.0464455	0.325494	
-0.215641	-0.22714	0.5	
-0.172766	-0.209666	0.5	
-0.188087	-0.23341	0.408968	
-0.167688	-0.179794	0.441452	
0.236451	-0.193336	0.377474	
0.273873	-0.116111	0.41418	
0.249365	-0.119116	0.299613	
0.19791	-0.131113	0.360072	
0.165128	-0.182854	0.275544	
0.118937	-0.109877	0.313008	
0.164604	-0.198565	0.360975	
0.19791	-0.131113	0.360072	
0.317319	-0.386405	0.201487	
0.317131	-0.386559	0.0881616	
0.2429	-0.437035	0.152631	
0.262155	-0.286798	0.192405	
0.092572	-0.0674004	0.167448	
0.0544868	-0.141962	0.103859	
0.164655	-0.11934	0.10185	
0.113524	-0.1522	0.202868	
-0.00447954	0.190881	0.5	
0.043412	0.246202	0.5	
0.0594834	0.18279	0.5	
0.00464373	0.231373	0.403957	
0.469721	0.171353	0.161666	
0.428195	0.258165	0.201755	
0.436762	0.243391	0.0969381	
0.337502	0.1652	0.112737	
-0.144862	-0.478555	0.421652	
-0.171353	-0.469721	0.338334	
-0.243391	-0.436762	0.403062	
-0.206938	-0.33712	0.400053	
-0.169854	0.0238988	0.185748	
-0.12546	0.0336645	0.0931586	
-0.128142	0.132022	0.124103	
-0.107039	0.0995618	0.201757	
0.34942	-0.0723305	0.238193	
0.373857	-0.180895	0.313411	
0.304682	-0.199557	0.252634	
0.375867	-0.158621	0.196853	
0.0579886	-0.363184	0.5	
0.0667135	-0.376589	0.379415	
0.0431128	-0.437731	0.5	
-0.0295129	-0.397696	0.405297	
-0.310856	0.111964	0.328315	
-0.259226	0.03952	0.402729	
-0.34365	-0.0208645	0.382522	
-0.296824	0.0138185	0.284404	
-0.317197	-0.386505	0.431175	
-0.288349	-0.269581	0.401233	
-0.270443	-0.334367	0.5	
-0.206938	-0.33712	0.400053	
-0.159007	0.150563	0.248955	
-0.0531538	0.125355	0.264689	
-0.082138	0.218948	0.273339	
-0.125784	0.172859	0.335584	
0.155785	0.045673	0.353105	
0.0884767	-0.000375704	0.258795	
0.0785134	0.0464455	0.325494	
0.172939	0.0245765	0.250039	
0.340356	0.131144	0.231324	
0.379606	0.0327687	0.28854	
0.324629	0.108316	0.364447	
0.276243	0.0902748	0.286189	
-0.154439	0.124228	0.5	
-0.216506	0.125	0.5	
-0.185713	0.151649	0.5	
-0.168013	0.159183	0.440667	
0.223495	0.10535	0.166759	
0.27082	0.0310537	0.205694	
0.186062	0.10988	0.269638	
0.172939	0.0245765	0.250039	
0.10136	0.102523	0.406019	
0.155785	0.045673	0.353105	
0.0785134	0.0464455	0.325494	
0.162344	0.134607	0.350934	
-0.0573721	0.0334812	0.170638	
-0.128142	0.132022	0.124103	
-0.12546	0.0336645	0.0931586	
-0.107039	0.0995618	0.201757	
-0.161262	0.177195	0.5	
-0.125	0.216506	0.5	
-0.118648	0.167764	0.5	
-0.168013	0.159183	0.440667	
0.307169	-0.0101791	0.393725	
0.273873	-0.116111	0.41418	
0.347622	-0.102783	0.358549	
0.392021	-0.0480463	0.41747	
-0.128142	0.132022	0.124103	
-0.12546	0.0336645	0.0931586	
-0.169854	0.0238988	0.185748	
-0.215195	0.0857371	0.0917705	
-0.0892693	0.13018	0.5	
-0.118648	0.167764	0.5	
-0.067279	0.181403	0.5	
-0.0473335	0.163087	0.434501	
0.266139	0.241799	0.177649	
0.191109	0.195644	0.106001	
0.223495	0.10535	0.166759	
0.196123	0.185647	0.211614	
-0.331361	-0.272953	0	
-0.356684	-0.19351	0	
-0.415735	-0.277785	0	
-0.323408	-0.220518	0.107073	
-0.288349	-0.269581	0.401233	
-0.246996	-0.178452	0.424102	
-0.281583	-0.139061	0.36108	
-0.354384	-0.194129	0.402587	
0.437731	0.0431128	0.5	
0.400259	0.0398147	0.391942	
0.5	0	0.4	
0.392021	-0.0480463	0.41747	
-0.277785	-0.415735	0.5	
-0.317197	-0.386505	0.431175	
-0.270443	-0.334367	0.5	
-0.206938	-0.33712	0.400053	
-0.113894	0.0780637	0.5	
-0.0892693	0.13018	0.5	
-0.112789	0.14207	0.41726	
-0.15502	0.0902607	0.438606	
-0.0688906	-0.12049	0.417622	
-0.0795999	-0.137717	0.328283	
-0.142736	-0.147946	0.384212	
-0.143954	-0.0664954	0.366375	
0.0949827	-0.187358	0.5	
0.125	-0.216506	0.5	
0.0645865	-0.210943	0.409687	
0.165128	-0.182854	0.433186	
0.242822	0.437078	0.152991	
0.235698	0.440961	0.068569	
0.317233	0.386476	0.0904728	
0.227449	0.293019	0.0951933	
-0.196783	0.00504363	0.5	
-0.166581	-0.0467287	0.5	
-0.246202	-0.043412	0.5	
-0.214222	-0.0809482	0.409057	
0.460762	-0.19416	0.234059	
0.429476	-0.256028	0.291579	
0.373857	-0.180895	0.313411	
0.375867	-0.158621	0.196853	
0.385896	-0.317937	0.065638	
0.38078	-0.324048	0.150149	
0.313473	-0.209952	0.12238	
0.251583	-0.28589	0.0896708	
0.00473146	-0.0477129	0.410326	
0.0015496	-0.0106233	0.342921	
-0.0732624	-0.0235498	0.355778	
-0.0238699	0.0158197	0.434577	
-0.0690566	0.495208	0.430964	
-0.0426444	0.431636	0.5	
-0.124938	0.414491	0.5	
-0.073553	0.38985	0.391066	
-0.212951	-0.0278954	0.307934	
-0.288242	-0.0832951	0.281127	
-0.171623	-0.128704	0.255156	
-0.203272	-0.117351	0.333128	
0.379606	0.0327687	0.28854	
0.27082	0.0310537	0.205694	
0.264667	-0.00226535	0.295846	
0.276243	0.0902748	0.286189	
-0.117671	-0.10197	0	
-0.127253	-0.156126	0.0844713	
-0.0232782	-0.127584	0	
-0.0957928	-0.0529556	0.0773873	
0.0133811	0.178278	0.293393	
-0.0531538	0.125355	0.264689	
-0.0259622	0.175651	0.191483	
0.00560742	0.0907829	0.203832	
-0.0807376	0.493438	0.154216	
0	0.5	0.2	
-0.0853821	0.492656	0.251348	
-0.0810467	0.370121	0.206864	
0.195731	0.375572	0.5	
0.124929	0.414525	0.5	
0.191342	0.46194	0.5	
0.146853	0.477948	0.415992	
-0.386792	-0.316847	0.301384	
-0.386498	-0.317206	0.200322	
-0.434698	-0.247057	0.249501	
-0.285188	-0.256019	0.23904	
-0.0934074	-0.183691	0.5	
-0.0829946	-0.232421	0.403465	
-0.125	-0.216506	0.5	
-0.167688	-0.179794	0.441452	
-0.325698	-0.286034	0.5	
-0.288349	-0.269581	0.401233	
-0.386476	-0.317233	0.409527	
-0.354384	-0.194129	0.402587	
-0.152331	-0.0811942	0.14549	
-0.0599463	-0.0498399	0.20415	
-0.0272885	-0.0825315	0.132744	
-0.0957928	-0.0529556	0.0773873	
0.0376566	-0.0505847	0.5	
-0.0156334	-0.0737433	0.5	
-0.0081622	-0.0144392	0.5	
0.00473146	-0.0477129	0.410326	
0.276476	0.0535537	0	
0.210156	-0.0147965	0	
0.268679	-0.0175832	0.0938256	
0.165336	0.0617817	0.0970708	
-0.243391	-0.436762	0.403062	
-0.171353	-0.469721	0.338334	
-0.258165	-0.428195	0.298245	
-0.206938	-0.33712	0.400053	
-0.048473	-0.0328568	0	
-0.0145265	0.00397743	0.0865031	
-0.12546	0.0336645	0.0931586	
-0.0957928	-0.0529556	0.0773873	
-0.0295403	0.225144	0	
0.0651412	0.200096	0	
0.0401436	0.291204	0	
-0.0198097	0.25642	0.112647	
-0.0272885	-0.0825315	0.132744	
-0.127253	-0.156126	0.0844713	
-0.152331	-0.0811942	0.14549	
-0.0957928	-0.0529556	0.0773873	
0.103925	0.350791	0.253756	
0.139502	0.248001	0.286243	
0.164757	0.31504	0.3626	
0.0691737	0.285591	0.353708	
-0.337562	0.0547633	0	
-0.237047	0.0201392	0	
-0.257956	0.116321	0	
-0.215195	0.0857371	0.0917705	
0.254347	-0.100565	0.163493	
0.369564	-0.0975027	0.118883	
0.34942	-0.0723305	0.238193	
0.375867	-0.158621	0.196853	
-0.159007	0.150563	0.248955	
-0.0531538	0.125355	0.264689	
-0.104233	0.0522254	0.274426	
-0.107039	0.0995618	0.201757	
-0.128142	0.132022	0.124103	
-0.0259622	0.175651	0.191483	
-0.114496	0.199368	0.185093	
-0.107039	0.0995618	0.201757	
-0.0272885	-0.0825315	0.132744	
0.0255949	-0.0865848	0.221929	
0.092572	-0.0674004	0.167448	
0.0244504	-0.00702123	0.176751	
-0.174738	0.468473	0.317184	
-0.147585	0.477722	0.416442	
-0.228959	0.444497	0.408094	
-0.173891	0.340446	0.398741	
0.236451	-0.193336	0.377474	
0.182789	-0.109466	0.430518	
0.273873	-0.116111	0.41418	
0.19791	-0.131113	0.360072	
-0.216506	-0.125	0.5	
-0.259808	-0.15	0.5	
-0.214222	-0.0809482	0.409057	
-0.246996	-0.178452	0.424102	
-0.0555676	0.325574	0	
0.0153159	0.363557	0	
-0.0372406	0.417791	0	
-0.0809307	0.385403	0.109035	
-0.00915007	-0.159584	0.370443	
0.00727488	-0.125574	0.43338	
0.0645865	-0.210943	0.409687	
0.0558806	-0.119121	0.374407	
0.092572	-0.0674004	0.167448	
0.0255949	-0.0865848	0.221929	
0.0884767	-0.000375704	0.258795	
0.0244504	-0.00702123	0.176751	
0.0093178	-0.302179	0.302179	
-0.00830008	-0.198671	0.244345	
-0.0741769	-0.222661	0.29905	
0.0217781	-0.230689	0.341777	
-0.401548	-0.0423374	0	
-0.302044	-0.0506462	0	
-0.337562	0.0547633	0	
-0.385327	0.0355064	0.11322	
-0.043412	-0.246202	0.5	
-0.0776457	-0.289778	0.5	
-0.0829946	-0.232421	0.403465	
0.000597841	-0.287345	0.400747	
0.0814864	0.493315	0.347681	
0.146853	0.477948	0.415992	
0.0728232	0.494668	0.426459	
0.117226	0.368857	0.420345	
-0.135086	0.326126	0.5	
-0.195731	0.375572	0.5	
-0.124938	0.414491	0.5	
-0.173891	0.340446	0.398741	
0.120744	-0.0747732	0.5	
0.176544	-0.0644028	0.5	
0.155716	-0.12147	0.5	
0.182789	-0.109466	0.430518	
0.0565057	-0.147787	0.277794	
0.0486433	-0.215998	0.178276	
0.0851242	-0.244368	0.268286	
-0.00830008	-0.198671	0.244345	
-0.216506	-0.125	0.5	
-0.246996	-0.178452	0.424102	
-0.214222	-0.0809482	0.409057	
-0.167688	-0.179794	0.441452	
0.436811	-0.243302	0.0936268	
0.469621	-0.171627	0.160116	
0.478516	-0.14499	0.0762896	
0.369564	-0.0975027	0.118883	
-0.495208	0.0690617	0.0692099	
-0.5	0	0.1	
-0.426463	0.0441363	0	
-0.385327	0.0355064	0.11322	
-0.490316	0.0979281	0.24092	
-0.364452	0.121056	0.219309	
-0.471122	0.167464	0.300106	
-0.406264	0.0467051	0.292816	
0.0851242	-0.244368	0.268286	
-0.00830008	-0.198671	0.244345	
0.0093178	-0.302179	0.302179	
0.0217781	-0.230689	0.341777	
-0.328716	-0.376757	0.253532	
-0.285188	-0.256019	0.23904	
-0.386792	-0.316847	0.301384	
-0.243234	-0.318297	0.307228	
-0.351551	0.0541915	0.5	
-0.31598	0.119651	0.5	
-0.289778	0.0776457	0.5	
-0.37885	0.0751067	0.400181	
-0.328716	-0.376757	0.253532	
-0.258165	-0.428195	0.298245	
-0.257824	-0.4284	0.204976	
-0.243234	-0.318297	0.307228	
0.07775	0.0966917	0.259619	
0.00560742	0.0907829	0.203832	
0.0133811	0.178278	0.293393	
0.0586412	0.17223	0.217492	
0.0093178	-0.302179	0.302179	
-0.00830008	-0.198671	0.244345	
0.0851242	-0.244368	0.268286	
-0.00981402	-0.289236	0.206945	
-0.0573721	0.0334812	0.170638	
-0.12546	0.0336645	0.0931586	
-0.169854	0.0238988	0.185748	
-0.107039	0.0995618	0.201757	
0.0596404	0.176022	0.113284	
0.191109	0.195644	0.106001	
0.12288	0.243768	0.182957	
0.125478	0.130999	0.17652	
-0.492649	-0.0854243	0.248597	
-0.5	0	0.2	
-0.5	0	0.3	
-0.361082	-0.0385179	0.234803	
-0.328716	-0.376757	0.253532	
-0.331632	-0.374193	0.165357	
-0.386498	-0.317206	0.200322	
-0.285188	-0.256019	0.23904	
-0.00915007	-0.159584	0.370443	
0.0958167	-0.194694	0.334239	
0.0645865	-0.210943	0.409687	
0.0217781	-0.230689	0.341777	
-0.191342	0.46194	0.5	
-0.147585	0.477722	0.416442	
-0.124938	0.414491	0.5	
-0.195731	0.375572	0.5	
0.431625	0.130932	0.5	
0.476114	0.152694	0.40246	
0.495101	0.0698189	0.427621	
0.400259	0.0398147	0.391942	
-0.495208	0.0690617	0.0692099	
-0.478516	0.14499	0.0762896	
-0.493378	0.0811073	0.146993	
-0.385327	0.0355064	0.11322	
0.0776457	0.289778	0.5	
0.135086	0.326126	0.5	
0.130242	0.253849	0.414889	
0.117226	0.368857	0.420345	
-0.212951	-0.0278954	0.307934	
-0.225667	-0.0555936	0.212037	
-0.171623	-0.128704	0.255156	
-0.288242	-0.0832951	0.281127	
0.00473146	-0.0477129	0.410326	
-0.0145446	-0.0833015	0.323221	
-0.0732624	-0.0235498	0.355778	
0.0015496	-0.0106233	0.342921	
-0.0442266	-0.432186	0.5	
0.0431128	-0.437731	0.5	
0	-0.5	0.4	
-0.0295129	-0.397696	0.405297	
-0.34365	-0.0208645	0.382522	
-0.296824	0.0138185	0.284404	
-0.212951	-0.0278954	0.307934	
-0.288242	-0.0832951	0.281127	
0.128497	-0.139894	0.387724	
0.164604	-0.198565	0.360975	
0.118937	-0.109877	0.313008	
0.19791	-0.131113	0.360072	
0.478555	0.144862	0.0783483	
0.373926	0.198925	0	
0.46194	0.191342	0	
0.414183	0.131147	0	
-0.41072	-0.12459	0	
-0.401548	-0.0423374	0	
-0.494668	-0.0728232	0.0735406	
-0.372622	-0.0844629	0.11881	
-0.174738	0.468473	0.317184	
-0.228959	0.444497	0.408094	
-0.256554	0.429162	0.331268	
-0.173891	0.340446	0.398741	
0.128497	-0.139894	0.387724	
0.0645865	-0.210943	0.409687	
0.0958167	-0.194694	0.334239	
0.164604	-0.198565	0.360975	
0.228991	0.444481	0.408099	
0.195731	0.375572	0.5	
0.146853	0.477948	0.415992	
0.117226	0.368857	0.420345	
-0.16685	0.0883447	0	
-0.12546	0.0336645	0.0931586	
-0.128142	0.132022	0.124103	
-0.215195	0.0857371	0.0917705	
0.07775	0.0966917	0.259619	
0.0133811	0.178278	0.293393	
0.00171532	0.0670635	0.305226	
0.0522467	0.122489	0.34166	
-0.26105	0.203399	0	
-0.328307	0.16356	0	
-0.257956	0.116321	0	
-0.326028	0.142215	0.11299	
0.0690566	-0.495208	0.430964	
0	-0.5	0.4	
0.0431128	-0.437731	0.5	
-0.0295129	-0.397696	0.405297	
-0.16685	0.0883447	0	
-0.237047	0.0201392	0	
-0.12546	0.0336645	0.0931586	
-0.215195	0.0857371	0.0917705	
-0.0272885	-0.0825315	0.132744	
-0.0145265	0.00397743	0.0865031	
0.0244504	-0.00702123	0.176751	
0.0773506	-0.0233693	0.0836206	
-0.225667	-0.0555936	0.212037	
-0.253263	-0.173914	0.276528	
-0.171623	-0.128704	0.255156	
-0.288242	-0.0832951	0.281127	
-0.048473	-0.0328568	0	
-0.0734441	0.0616893	0	
-0.12546	0.0336645	0.0931586	
-0.0145265	0.00397743	0.0865031	
0.431625	0.130932	0.5	
0.495101	0.0698189	0.427621	
0.437731	0.0431128	0.5	
0.400259	0.0398147	0.391942	
0.186062	0.10988	0.269638	
0.172939	0.0245765	0.250039	
0.27082	0.0310537	0.205694	
0.276243	0.0902748	0.286189	
-0.283975	-0.144274	0.184102	
-0.253263	-0.173914	0.276528	
-0.225667	-0.0555936	0.212037	
-0.288242	-0.0832951	0.281127	
0.471122	-0.167464	0.300106	
0.490316	-0.0979281	0.24092	
0.460762	-0.19416	0.234059	
0.375867	-0.158621	0.196853	
0.363184	0.0579886	0.5	
0.431625	0.130932	0.5	
0.437731	0.0431128	0.5	
0.400259	0.0398147	0.391942	
-0.5	0	0.2	
-0.5	0	0.1	
-0.493378	0.0811073	0.146993	
-0.385327	0.0355064	0.11322	
-0.257824	-0.4284	0.204976	
-0.194667	-0.460548	0.26567	
-0.168043	-0.470916	0.199874	
-0.162023	-0.339511	0.25028	
-0.317131	0.386559	0.0881616	
-0.273315	0.334955	0	
-0.235698	0.440961	0.0686036	
-0.213184	0.322526	0.106779	
0.186062	0.10988	0.269638	
0.27082	0.0310537	0.205694	
0.223495	0.10535	0.166759	
0.276243	0.0902748	0.286189	
-0.0734441	0.0616893	0	
0.0209546	0.0362755	0	
-0.00425413	0.131001	0	
-0.0250996	0.111886	0.106171	
0.135086	0.326126	0.5	
0.194694	0.304695	0.5	
0.15	0.259808	0.5	
0.130242	0.253849	0.414889	
0.096294	0.191774	0.363276	
0.0691737	0.285591	0.353708	
0.00464373	0.231373	0.403957	
0.130242	0.253849	0.414889	
0.247868	0.146306	0	
0.184962	0.0799289	0	
0.276476	0.0535537	0	
0.292412	0.0780179	0.101456	
0.125478	0.130999	0.17652	
0.196123	0.185647	0.211614	
0.12288	0.243768	0.182957	
0.0586412	0.17223	0.217492	
-0.238488	-0.439458	0.0756919	
-0.152694	-0.476114	0.0975404	
-0.191342	-0.46194	0	
-0.203173	-0.373024	0	
0.12288	0.243768	0.182957	
0.191109	0.195644	0.106001	
0.266139	0.241799	0.177649	
0.196123	0.185647	0.211614	
-0.043412	0.246202	0.5	
0.00464373	0.231373	0.403957	
-0.00447954	0.190881	0.5	
-0.0473335	0.163087	0.434501	
0.07775	0.0966917	0.259619	
0.125478	0.130999	0.17652	
0.00560742	0.0907829	0.203832	
0.0586412	0.17223	0.217492	
0.165128	-0.182854	0.275544	
0.118937	-0.109877	0.313008	
0.0958167	-0.194694	0.334239	
0.164604	-0.198565	0.360975	
0.385896	-0.317937	0.065638	
0.268393	-0.334301	0	
0.317131	-0.386559	0.0881616	
0.251583	-0.28589	0.0896708	
-0.15	-0.259808	0.5	
-0.172766	-0.209666	0.5	
-0.125	-0.216506	0.5	
-0.167688	-0.179794	0.441452	
-0.212951	-0.0278954	0.307934	
-0.166197	0.012686	0.395566	
-0.214222	-0.0809482	0.409057	
-0.143954	-0.0664954	0.366375	
-0.34365	-0.0208645	0.382522	
-0.259226	0.03952	0.402729	
-0.310856	0.111964	0.328315	
-0.37885	0.0751067	0.400181	
0.439384	-0.238625	0.423358	
0.334367	-0.270443	0.5	
0.415735	-0.277785	0.5	
0.375572	-0.195731	0.5	
-0.34365	-0.0208645	0.382522	
-0.281583	-0.139061	0.36108	
-0.387326	-0.108791	0.360005	
-0.288242	-0.0832951	0.281127	
0.0884767	-0.000375704	0.258795	
0.0255949	-0.0865848	0.221929	
-0.00800179	-0.0152081	0.261913	
0.0244504	-0.00702123	0.176751	
-0.325698	-0.286034	0.5	
-0.270443	-0.334367	0.5	
-0.317197	-0.386505	0.431175	
-0.288349	-0.269581	0.401233	
0.363184	0.0579886	0.5	
0.363012	-0.0152603	0.5	
0.3	-3.67394e-17	0.5	
0.307169	-0.0101791	0.393725	
-0.259808	-0.15	0.5	
-0.289778	-0.0776457	0.5	
-0.216506	-0.125	0.5	
-0.214222	-0.0809482	0.409057	
0.0565057	-0.147787	0.277794	
0.0851242	-0.244368	0.268286	
0.0958167	-0.194694	0.334239	
0.0217781	-0.230689	0.341777	
-0.166197	0.012686	0.395566	
-0.185526	0.120318	0.373769	
-0.15502	0.0902607	0.438606	
-0.12302	0.073304	0.350874	
0.0101256	0.127322	0.41346	
0.10136	0.102523	0.406019	
0.0293798	0.0426018	0.391106	
0.0522467	0.122489	0.34166	
0.493378	-0.0811073	0.146993	
0.369564	-0.0975027	0.118883	
0.469621	-0.171627	0.160116	
0.375867	-0.158621	0.196853	
0.363012	-0.0152603	0.5	
0.307169	-0.0101791	0.393725	
0.363184	0.0579886	0.5	
0.400259	0.0398147	0.391942	
-0.142648	-0.00714059	0	
-0.16685	0.0883447	0	
-0.237047	0.0201392	0	
-0.12546	0.0336645	0.0931586	
-0.310856	0.111964	0.328315	
-0.34365	-0.0208645	0.382522	
-0.406264	0.0467051	0.292816	
-0.296824	0.0138185	0.284404	
0.276476	0.0535537	0	
0.184962	0.0799289	0	
0.210156	-0.0147965	0	
0.165336	0.0617817	0.0970708	
-0.361082	-0.0385179	0.234803	
-0.225667	-0.0555936	0.212037	
-0.296824	0.0138185	0.284404	
-0.288242	-0.0832951	0.281127	
-0.495102	0.0698146	0.4276	
-0.428192	0.000626804	0.5	
-0.5	0	0.4	
-0.37885	0.0751067	0.400181	
0.314857	-0.257449	0	
0.385896	-0.317937	0.065638	
0.313473	-0.209952	0.12238	
0.251583	-0.28589	0.0896708	
-0.361082	-0.0385179	0.234803	
-0.296824	0.0138185	0.284404	
-0.34365	-0.0208645	0.382522	
-0.288242	-0.0832951	0.281127	
0.363012	-0.0152603	0.5	
0.289778	-0.0776457	0.5	
0.3	-3.67394e-17	0.5	
0.307169	-0.0101791	0.393725	
-0.211369	-0.0761151	0	
-0.261227	-0.0514885	0.117995	
-0.302044	-0.0506462	0	
-0.243673	-0.146253	0.0931104	
0.38078	-0.324048	0.150149	
0.317131	-0.386559	0.0881616	
0.262155	-0.286798	0.192405	
0.251583	-0.28589	0.0896708	
0.0943468	-0.245334	0	
0.112799	-0.33356	0	
0.201164	-0.273578	0	
0.162218	-0.333858	0.109166	
0.128497	-0.139894	0.387724	
0.0958167	-0.194694	0.334239	
0.118937	-0.109877	0.313008	
0.164604	-0.198565	0.360975	
0.414183	0.131147	0	
0.337502	0.1652	0.112737	
0.337634	0.115561	0	
0.391187	0.0843667	0.0902296	
-0.0734441	0.0616893	0	
-0.00425413	0.131001	0	
-0.0983601	0.156434	0	
-0.0250996	0.111886	0.106171	
-0.0259622	0.175651	0.191483	
-0.0531538	0.125355	0.264689	
-0.082138	0.218948	0.273339	
-0.114496	0.199368	0.185093	
0.38078	-0.324048	0.150149	
0.262155	-0.286798	0.192405	
0.313473	-0.209952	0.12238	
0.251583	-0.28589	0.0896708	
0.256554	-0.429162	0.331268	
0.31678	-0.386847	0.395869	
0.317163	-0.386533	0.299742	
0.194286	-0.353827	0.369459	
0.199563	0.20121	0.405215	
0.24627	0.285293	0.404112	
0.164757	0.31504	0.3626	
0.130242	0.253849	0.414889	
0.0682711	-0.052186	0.339077	
-0.0145446	-0.0833015	0.323221	
0.00473146	-0.0477129	0.410326	
0.0015496	-0.0106233	0.342921	
0.0854243	0.492649	0.251403	
0.168734	0.470668	0.201781	
0.174678	0.468495	0.317109	
0.103925	0.350791	0.253756	
0.375572	-0.195731	0.5	
0.304695	-0.194694	0.5	
0.326126	-0.135086	0.5	
0.340228	-0.209884	0.396212	
-0.168688	-0.281701	0	
-0.114467	-0.386332	0	
-0.0638367	-0.295761	0	
-0.1449	-0.36257	0.121022	
-0.31037	0.174447	0.5	
-0.259808	0.2	0.5	
-0.259808	0.15	0.5	
-0.266336	0.143871	0.409139	
-0.404541	0.126945	0	
-0.426463	0.0441363	0	
-0.337562	0.0547633	0	
-0.385327	0.0355064	0.11322	
-0.259073	-0.206972	0.5	
-0.30356	-0.231708	0.5	
-0.308042	-0.167631	0.5	
-0.246996	-0.178452	0.424102	
-0.0531538	0.125355	0.264689	
-0.114496	0.199368	0.185093	
-0.0259622	0.175651	0.191483	
-0.107039	0.0995618	0.201757	
-0.0573721	0.0334812	0.170638	
-0.12546	0.0336645	0.0931586	
-0.0145265	0.00397743	0.0865031	
-0.0957928	-0.0529556	0.0773873	
0.385896	-0.317937	0.065638	
0.314857	-0.257449	0	
0.268393	-0.334301	0	
0.251583	-0.28589	0.0896708	
-0.386831	-0.3168	0.104097	
-0.331361	-0.272953	0	
-0.415735	-0.277785	0	
-0.323408	-0.220518	0.107073	
-0.168043	-0.470916	0.199874	
-0.0977967	-0.490343	0.258774	
-0.0833019	-0.493012	0.155211	
-0.0510822	-0.382345	0.237039	
0.313473	-0.209952	0.12238	
0.262155	-0.286798	0.192405	
0.304682	-0.199557	0.252634	
0.227664	-0.175808	0.20875	
-0.0684459	-0.495293	0.431403	
-0.0810399	-0.493389	0.35285	
-0.144862	-0.478555	0.421652	
-0.0295129	-0.397696	0.405297	
0.120744	-0.0747732	0.5	
0.0733876	-0.0824124	0.5	
0.0854359	-0.0267855	0.5	
0.0936941	-0.0576924	0.420616	
-0.0426444	0.431636	0.5	
0	0.5	0.4	
0	0.5	0.5	
0.042537	0.432039	0.5	
-0.263582	-0.319413	0	
-0.168688	-0.281701	0	
-0.261345	-0.230036	0	
-0.230549	-0.284648	0.130866	
0.128497	-0.139894	0.387724	
0.0958167	-0.194694	0.334239	
0.0645865	-0.210943	0.409687	
0.0558806	-0.119121	0.374407	
-0.419906	-0.0889586	0.5	
-0.361276	-0.0455918	0.5	
-0.364062	-0.132817	0.5	
-0.387326	-0.108791	0.360005	
0.0461078	-0.0584269	0	
-0.0232782	-0.127584	0	
0.0712814	-0.153152	0	
0.0544868	-0.141962	0.103859	
0.277785	-0.415735	0.5	
0.203679	-0.368672	0.5	
0.29185	-0.325871	0.5	
0.31678	-0.386847	0.395869	
-0.0497612	-0.177788	0.5	
-0.043412	-0.246202	0.5	
-0.0934074	-0.183691	0.5	
-0.0829946	-0.232421	0.403465	
0.2429	-0.437035	0.152631	
0.162218	-0.333858	0.109166	
0.153329	-0.47591	0.0923815	
0.104159	-0.395278	0.16544	
-0.00447954	0.190881	0.5	
0.017794	0.149684	0.5	
-0.0305981	0.141799	0.5	
-0.0473335	0.163087	0.434501	
-0.289778	0.0776457	0.5	
-0.259808	0.15	0.5	
-0.216506	0.125	0.5	
-0.266336	0.143871	0.409139	
-0.34365	-0.0208645	0.382522	
-0.361082	-0.0385179	0.234803	
-0.406264	0.0467051	0.292816	
-0.296824	0.0138185	0.284404	
-0.0573721	0.0334812	0.170638	
-0.0272885	-0.0825315	0.132744	
0.0244504	-0.00702123	0.176751	
-0.0599463	-0.0498399	0.20415	
0.0133811	0.178278	0.293393	
0.00560742	0.0907829	0.203832	
-0.0259622	0.175651	0.191483	
0.0586412	0.17223	0.217492	
0.0807376	-0.493438	0.154216	
0	-0.5	0.2	
0.0853821	-0.492656	0.251348	
0.104159	-0.395278	0.16544	
-0.0732624	-0.0235498	0.355778	
-0.0921341	-0.0472882	0.428822	
-0.166197	0.012686	0.395566	
-0.143954	-0.0664954	0.366375	
0.436811	-0.243302	0.0936268	
0.313473	-0.209952	0.12238	
0.428104	-0.258315	0.196896	
0.375867	-0.158621	0.196853	
0.374193	0.331632	0.334643	
0.4284	0.257824	0.295024	
0.415735	0.277785	0.365862	
0.329012	0.224405	0.280196	
-0.325698	-0.286034	0.5	
-0.386476	-0.317233	0.409527	
-0.363128	-0.216258	0.5	
-0.354384	-0.194129	0.402587	
-0.31678	0.386847	0.395869	
-0.373696	0.332191	0.334057	
-0.317163	0.386533	0.299742	
-0.281262	0.296575	0.411781	
-0.1997	0.206062	0.414424	
-0.266336	0.143871	0.409139	
-0.185526	0.120318	0.373769	
-0.168013	0.159183	0.440667	
0.139502	0.248001	0.286243	
0.0691737	0.285591	0.353708	
0.096294	0.191774	0.363276	
0.130242	0.253849	0.414889	
-0.278713	-0.14304	0	
-0.211369	-0.0761151	0	
-0.302044	-0.0506462	0	
-0.243673	-0.146253	0.0931104	
0	-0.5	0.4	
0.0690566	-0.495208	0.430964	
0.082983	-0.493066	0.348347	
0.0667135	-0.376589	0.379415	
0.19149	0.263191	0.5	
0.194694	0.304695	0.5	
0.248409	0.277977	0.5	
0.24627	0.285293	0.404112	
-0.154439	0.124228	0.5	
-0.112789	0.14207	0.41726	
-0.0892693	0.13018	0.5	
-0.15502	0.0902607	0.438606	
-0.270443	-0.334367	0.5	
-0.248409	-0.277977	0.5	
-0.194694	-0.304695	0.5	
-0.206938	-0.33712	0.400053	
0.175681	0.0639425	0.5	
0.136333	-0.0203798	0.5	
0.102443	0.0227629	0.419717	
0.202719	0.0237767	0.420412	
-0.437078	-0.242822	0.347009	
-0.386792	-0.316847	0.301384	
-0.434698	-0.247057	0.249501	
-0.352865	-0.168551	0.27433	
0.0596404	0.176022	0.113284	
-0.0198097	0.25642	0.112647	
-0.0259622	0.175651	0.191483	
0.0266006	0.259074	0.200021	
-0.166197	0.012686	0.395566	
-0.15502	0.0902607	0.438606	
-0.0790952	0.0620487	0.41859	
-0.12302	0.073304	0.350874	
0.493378	-0.0811073	0.146993	
0.469621	-0.171627	0.160116	
0.490316	-0.0979281	0.24092	
0.375867	-0.158621	0.196853	
-0.469621	0.171627	0.160116	
-0.490316	0.0979281	0.24092	
-0.493378	0.0811073	0.146993	
-0.364452	0.121056	0.219309	
-0.47591	-0.153328	0.40763	
-0.387326	-0.108791	0.360005	
-0.364062	-0.132817	0.5	
-0.354384	-0.194129	0.402587	
0.478516	-0.14499	0.0762896	
0.495208	-0.0690617	0.0692099	
0.394936	-0.119803	0	
0.369564	-0.0975027	0.118883	
0.264667	-0.00226535	0.295846	
0.27082	0.0310537	0.205694	
0.172939	0.0245765	0.250039	
0.276243	0.0902748	0.286189	
0.166469	-0.308164	0.5	
0.15	-0.259808	0.5	
0.2	-0.259808	0.5	
0.213897	-0.237657	0.431435	
0.317206	0.386498	0.299678	
0.316847	0.386792	0.198616	
0.376757	0.328716	0.246468	
0.233262	0.310813	0.267062	
-0.0573721	0.0334812	0.170638	
0.0244504	-0.00702123	0.176751	
-0.0272885	-0.0825315	0.132744	
-0.0145265	0.00397743	0.0865031	
-0.0369979	-0.193764	0.104577	
0.0544868	-0.141962	0.103859	
0.0486433	-0.215998	0.178276	
0.0390368	-0.27687	0.0931397	
-0.352865	-0.168551	0.27433	
-0.387326	-0.108791	0.360005	
-0.437078	-0.242822	0.347009	
-0.354384	-0.194129	0.402587	
0.469721	0.171353	0.161666	
0.337502	0.1652	0.112737	
0.478555	0.144862	0.0783483	
0.391187	0.0843667	0.0902296	
0.0133811	0.178278	0.293393	
-0.082138	0.218948	0.273339	
-0.0259622	0.175651	0.191483	
-0.0531538	0.125355	0.264689	
-0.159007	0.150563	0.248955	
-0.230719	0.171576	0.307699	
-0.125784	0.172859	0.335584	
-0.173354	0.242294	0.26617	
0.0565057	-0.147787	0.277794	
0.0958167	-0.194694	0.334239	
0.118937	-0.109877	0.313008	
0.0558806	-0.119121	0.374407	
0.460762	-0.19416	0.234059	
0.428104	-0.258315	0.196896	
0.429476	-0.256028	0.291579	
0.375867	-0.158621	0.196853	
0.416747	-0.276265	0.362548	
0.340228	-0.209884	0.396212	
0.450312	-0.217299	0.354112	
0.373857	-0.180895	0.313411	
-0.114467	-0.386332	0	
-0.203173	-0.373024	0	
-0.152694	-0.476114	0.0975404	
-0.1449	-0.36257	0.121022	
-0.31678	0.386847	0.395869	
-0.277785	0.415735	0.5	
-0.270443	0.334367	0.5	
-0.228959	0.444497	0.408094	
0.277785	0.415735	0.5	
0.270443	0.334367	0.5	
0.228991	0.444481	0.408099	
0.3168	0.386831	0.395903	
-0.246202	0.043412	0.5	
-0.3	7.34788e-17	0.5	
-0.289778	0.0776457	0.5	
-0.259226	0.03952	0.402729	
0.14072	-0.0839746	0	
0.0712814	-0.153152	0	
0.164797	-0.177585	0	
0.164655	-0.11934	0.10185	
0.128689	-0.272515	0.368277	
0.0645865	-0.210943	0.409687	
0.0958167	-0.194694	0.334239	
0.0217781	-0.230689	0.341777	
-0.211369	-0.0761151	0	
-0.243673	-0.146253	0.0931104	
-0.186407	-0.169451	0	
-0.127253	-0.156126	0.0844713	
-0.0372406	0.417791	0	
0	0.5	0	
0	0.5	0.1	
0.0420691	0.427134	0	
-0.310856	0.111964	0.328315	
-0.406264	0.0467051	0.292816	
-0.34365	-0.0208645	0.382522	
-0.37885	0.0751067	0.400181	
0.125	-0.216506	0.5	
0.0776457	-0.289778	0.5	
0.043412	-0.246202	0.5	
0.0645865	-0.210943	0.409687	
-0.258165	-0.428195	0.298245	
-0.194667	-0.460548	0.26567	
-0.257824	-0.4284	0.204976	
-0.162023	-0.339511	0.25028	
-0.46194	-0.191342	0	
-0.444481	-0.228991	0.0919014	
-0.356684	-0.19351	0	
-0.41072	-0.12459	0	
-0.043412	-0.246202	0.5	
0.043412	-0.246202	0.5	
-1.51596e-16	-0.3	0.5	
0.000597841	-0.287345	0.400747	
-0.216156	-0.175607	0.5	
-0.246996	-0.178452	0.424102	
-0.216506	-0.125	0.5	
-0.167688	-0.179794	0.441452	
0.248409	0.277977	0.5	
0.194694	0.304695	0.5	
0.270443	0.334367	0.5	
0.24627	0.285293	0.404112	
0.163856	-0.062131	0.265284	
0.172939	0.0245765	0.250039	
0.0884767	-0.000375704	0.258795	
0.14698	-0.0404502	0.339975	
-0.0705177	0.0247142	0.5	
-0.0790952	0.0620487	0.41859	
-0.0507575	0.0878249	0.5	
-0.0238699	0.0158197	0.434577	
0.223495	0.10535	0.166759	
0.189715	-0.00503075	0.168338	
0.27082	0.0310537	0.205694	
0.172939	0.0245765	0.250039	
-0.0704474	0.495012	0.0718449	
-0.118932	0.39861	0	
-0.0372406	0.417791	0	
-0.0809307	0.385403	0.109035	
0.277785	0.415735	0	
0.261819	0.319027	0	
0.317233	0.386476	0.0904728	
0.235698	0.440961	0.068569	
0.375572	-0.195731	0.5	
0.334367	-0.270443	0.5	
0.304695	-0.194694	0.5	
0.340228	-0.209884	0.396212	
0.0293798	0.0426018	0.391106	
0.10136	0.102523	0.406019	
0.102443	0.0227629	0.419717	
0.0785134	0.0464455	0.325494	
0.18433	-0.220573	0.141371	
0.262155	-0.286798	0.192405	
0.313473	-0.209952	0.12238	
0.227664	-0.175808	0.20875	
0.18433	-0.220573	0.141371	
0.262155	-0.286798	0.192405	
0.162218	-0.333858	0.109166	
0.251583	-0.28589	0.0896708	
0.15	-0.259808	0.5	
0.125	-0.216506	0.5	
0.177945	-0.20787	0.5	
0.165128	-0.182854	0.433186	
-0.056943	0.120887	0.354229	
-0.112789	0.14207	0.41726	
-0.125784	0.172859	0.335584	
-0.12302	0.073304	0.350874	
0.246202	-0.043412	0.5	
0.196849	-0.00527115	0.5	
0.246202	0.043412	0.5	
0.202719	0.0237767	0.420412	
-0.142648	-0.00714059	0	
-0.211369	-0.0761151	0	
-0.117671	-0.10197	0	
-0.0957928	-0.0529556	0.0773873	
0.450312	-0.217299	0.354112	
0.476132	-0.152637	0.402329	
0.471122	-0.167464	0.300106	
0.373857	-0.180895	0.313411	
0.176544	-0.0644028	0.5	
0.246202	-0.043412	0.5	
0.216506	-0.125	0.5	
0.182789	-0.109466	0.430518	
-0.471122	0.167464	0.300106	
-0.364452	0.121056	0.219309	
-0.460762	0.19416	0.234059	
-0.373924	0.17948	0.316585	
0.326126	-0.135086	0.5	
0.304695	-0.194694	0.5	
0.259808	-0.15	0.5	
0.273873	-0.116111	0.41418	
-0.5	0	0.4	
-0.493012	0.0833019	0.344789	
-0.495102	0.0698146	0.4276	
-0.37885	0.0751067	0.400181	
-0.138674	0.323797	0	
-0.0555676	0.325574	0	
-0.118932	0.39861	0	
-0.0809307	0.385403	0.109035	
-0.048473	-0.0328568	0	
-0.12546	0.0336645	0.0931586	
-0.142648	-0.00714059	0	
-0.0957928	-0.0529556	0.0773873	
0.307169	-0.0101791	0.393725	
0.400259	0.0398147	0.391942	
0.363012	-0.0152603	0.5	
0.392021	-0.0480463	0.41747	
-0.46194	-0.191342	0.5	
-0.440961	-0.235698	0.431431	
-0.47591	-0.153328	0.40763	
-0.354384	-0.194129	0.402587	
0.414991	0.0495125	0	
0.5	0	0	
0.5	0	0.1	
0.409478	-0.032947	0	
0.112799	-0.33356	0	
0.125573	-0.41396	0	
0.194604	-0.371188	0	
0.162218	-0.333858	0.109166	
-0.0509221	-0.120838	0.250106	
-0.00800179	-0.0152081	0.261913	
0.0255949	-0.0865848	0.221929	
-0.0599463	-0.0498399	0.20415	
0.114055	0.374109	0	
0.133074	0.264097	0	
0.189613	0.313662	0	
0.0793736	0.28635	0.097829	
0.0133811	0.178278	0.293393	
-0.0259622	0.175651	0.191483	
0.0266006	0.259074	0.200021	
0.0586412	0.17223	0.217492	
0.136333	-0.0203798	0.5	
0.102519	0.0330131	0.5	
0.175681	0.0639425	0.5	
0.102443	0.0227629	0.419717	
0.0851242	-0.244368	0.268286	
-0.00830008	-0.198671	0.244345	
0.0486433	-0.215998	0.178276	
-0.00981402	-0.289236	0.206945	
0.317163	-0.386533	0.299742	
0.31678	-0.386847	0.395869	
0.373696	-0.332191	0.334057	
0.270471	-0.290437	0.402527	
-0.323938	-0.380873	0.347739	
-0.288349	-0.269581	0.401233	
-0.317197	-0.386505	0.431175	
-0.206938	-0.33712	0.400053	
0.00155464	-0.188347	0.5	
0.0583087	-0.173273	0.5	
0.043412	-0.246202	0.5	
0.0645865	-0.210943	0.409687	
-0.259808	0.15	0.5	
-0.31598	0.119651	0.5	
-0.31037	0.174447	0.5	
-0.266336	0.143871	0.409139	
-0.323938	-0.380873	0.347739	
-0.206938	-0.33712	0.400053	
-0.258165	-0.428195	0.298245	
-0.243234	-0.318297	0.307228	
0.155785	0.045673	0.353105	
0.209772	-0.0539676	0.386967	
0.202719	0.0237767	0.420412	
0.14698	-0.0404502	0.339975	
-0.00654379	0.0500762	0.5	
-0.0705177	0.0247142	0.5	
-0.0507575	0.0878249	0.5	
-0.0238699	0.0158197	0.434577	
0.289778	-0.0776457	0.5	
0.246202	-0.043412	0.5	
0.3	-3.67394e-17	0.5	
0.307169	-0.0101791	0.393725	
-0.476132	0.152637	0.402329	
-0.46194	0.191342	0.5	
-0.368394	0.141973	0.5	
-0.439384	0.238625	0.423358	
-0.323938	-0.380873	0.347739	
-0.288349	-0.269581	0.401233	
-0.206938	-0.33712	0.400053	
-0.243234	-0.318297	0.307228	
-0.0638367	-0.295761	0	
0.00183684	-0.222331	0	
-0.0925337	-0.196451	0	
-0.0369979	-0.193764	0.104577	
-0.0422582	-0.437473	0	
0	-0.5	0.1	
0	-0.5	0	
0.0404524	-0.41072	0	
-0.138674	0.323797	0	
-0.214341	0.273759	0	
-0.119993	0.246691	0	
-0.170195	0.225746	0.0963396	
0.133074	0.264097	0	
0.191109	0.195644	0.106001	
0.231243	0.24169	0	
0.227449	0.293019	0.0951933	
-0.493315	-0.0814864	0.152319	
-0.468495	-0.174678	0.182891	
-0.477948	-0.146853	0.0840084	
-0.372622	-0.0844629	0.11881	
-0.185713	0.151649	0.5	
-0.210645	0.180174	0.5	
-0.161262	0.177195	0.5	
-0.168013	0.159183	0.440667	
-0.401548	-0.0423374	0	
-0.5	0	0	
-0.5	0	0.1	
-0.426463	0.0441363	0	
0.164757	0.31504	0.3626	
0.0691737	0.285591	0.353708	
0.139502	0.248001	0.286243	
0.130242	0.253849	0.414889	
-0.0259622	0.175651	0.191483	
0.0596404	0.176022	0.113284	
0.0266006	0.259074	0.200021	
0.0586412	0.17223	0.217492	
0.314857	-0.257449	0	
0.313473	-0.209952	0.12238	
0.245477	-0.191651	0	
0.251583	-0.28589	0.0896708	
-0.444481	-0.228991	0.0919014	
-0.46194	-0.191342	0	
-0.477948	-0.146853	0.0840084	
-0.41072	-0.12459	0	
0.493389	0.0810399	0.14715	
0.495293	0.0684459	0.0685965	
0.5	0	0.1	
0.391187	0.0843667	0.0902296	
0.128497	-0.139894	0.387724	
0.118937	-0.109877	0.313008	
0.0958167	-0.194694	0.334239	
0.0558806	-0.119121	0.374407	
0.334367	-0.270443	0.5	
0.388345	-0.314941	0.420199	
0.29185	-0.325871	0.5	
0.270471	-0.290437	0.402527	
0.259808	0.15	0.5	
0.289778	0.0776457	0.5	
0.216506	0.125	0.5	
0.228063	0.102246	0.400094	
-0.0690566	0.495208	0.430964	
-0.124938	0.414491	0.5	
-0.147585	0.477722	0.416442	
-0.073553	0.38985	0.391066	
-0.283975	-0.144274	0.184102	
-0.352865	-0.168551	0.27433	
-0.285188	-0.256019	0.23904	
-0.253263	-0.173914	0.276528	
0.2429	-0.437035	0.152631	
0.235698	-0.440961	0.0686036	
0.153329	-0.47591	0.0923815	
0.162218	-0.333858	0.109166	
-0.0259622	0.175651	0.191483	
0.00560742	0.0907829	0.203832	
-0.0531538	0.125355	0.264689	
-0.107039	0.0995618	0.201757	
-0.147585	0.477722	0.416442	
-0.174738	0.468473	0.317184	
-0.082983	0.493066	0.348347	
-0.073553	0.38985	0.391066	
0.476132	-0.152637	0.402329	
0.416563	-0.126305	0.5	
0.495102	-0.0698146	0.4276	
0.392021	-0.0480463	0.41747	
-0.125	-0.216506	0.5	
-0.0776457	-0.289778	0.5	
-0.15	-0.259808	0.5	
-0.0829946	-0.232421	0.403465	
0.235698	-0.440961	0.0686036	
0.194604	-0.371188	0	
0.191342	-0.46194	0	
0.125573	-0.41396	0	
0.203679	-0.368672	0.5	
0.277785	-0.415735	0.5	
0.228959	-0.444497	0.408094	
0.31678	-0.386847	0.395869	
0.5	0	0.3	
0.490343	0.0977967	0.241226	
0.5	0	0.2	
0.379606	0.0327687	0.28854	
0.0454237	0.00960241	0.5	
0.102519	0.0330131	0.5	
0.0854359	-0.0267855	0.5	
0.102443	0.0227629	0.419717	
-0.159007	0.150563	0.248955	
-0.255792	0.140946	0.214728	
-0.221879	0.0747178	0.286107	
-0.230719	0.171576	0.307699	
-0.2429	0.437035	0.152631	
-0.247023	0.434718	0.250558	
-0.317319	0.386405	0.201487	
-0.234922	0.307887	0.237464	
0.436811	-0.243302	0.0936268	
0.380207	-0.19708	0	
0.415735	-0.277785	0	
0.385896	-0.317937	0.065638	
0.415735	-0.277785	0.5	
0.334367	-0.270443	0.5	
0.439384	-0.238625	0.423358	
0.388345	-0.314941	0.420199	
-0.0734441	0.0616893	0	
-0.142648	-0.00714059	0	
-0.048473	-0.0328568	0	
-0.12546	0.0336645	0.0931586	
-0.16873	0.47067	0.201799	
-0.153329	0.47591	0.0923815	
-0.0807376	0.493438	0.154216	
-0.0809307	0.385403	0.109035	
-0.113894	0.0780637	0.5	
-0.154439	0.124228	0.5	
-0.0892693	0.13018	0.5	
-0.15502	0.0902607	0.438606	
-0.261345	-0.230036	0	
-0.278713	-0.14304	0	
-0.323408	-0.220518	0.107073	
-0.243673	-0.146253	0.0931104	
0.5	0	0.5	
0.5	0	0.4	
0.432186	-0.0442266	0.5	
0.437731	0.0431128	0.5	
0.394936	-0.119803	0	
0.314271	-0.0501881	0	
0.313791	-0.154465	0	
0.369564	-0.0975027	0.118883	
-0.0741769	-0.222661	0.29905	
-0.10857	-0.188319	0.218241	
-0.0509221	-0.120838	0.250106	
-0.00830008	-0.198671	0.244345	
-0.195731	-0.375572	0.5	
-0.243391	-0.436762	0.403062	
-0.277785	-0.415735	0.5	
-0.206938	-0.33712	0.400053	
0.274666	-0.249265	0.5	
0.270471	-0.290437	0.402527	
0.231749	-0.30504	0.5	
0.213897	-0.237657	0.431435	
-0.0790952	0.0620487	0.41859	
-0.112789	0.14207	0.41726	
-0.056943	0.120887	0.354229	
-0.12302	0.073304	0.350874	
-0.278498	0.0524484	0.16694	
-0.364452	0.121056	0.219309	
-0.255792	0.140946	0.214728	
-0.326028	0.142215	0.11299	
-0.492649	-0.0854243	0.248597	
-0.493437	-0.0807477	0.345776	
-0.470668	-0.168734	0.298219	
-0.387326	-0.108791	0.360005	
-0.259073	-0.206972	0.5	
-0.216156	-0.175607	0.5	
-0.215641	-0.22714	0.5	
-0.246996	-0.178452	0.424102	
0.270443	0.334367	0.5	
0.325794	0.291996	0.5	
0.248409	0.277977	0.5	
0.24627	0.285293	0.404112	
-0.188087	-0.23341	0.313651	
-0.171623	-0.128704	0.255156	
-0.253263	-0.173914	0.276528	
-0.203272	-0.117351	0.333128	
-0.476132	0.152637	0.402329	
-0.471122	0.167464	0.300106	
-0.450312	0.217299	0.354112	
-0.373924	0.17948	0.316585	
0.0728232	0.494668	0.426459	
0	0.5	0.4	
0.0814864	0.493315	0.347681	
0.0365945	0.375424	0.376008	
-0.289778	0.0776457	0.5	
-0.31598	0.119651	0.5	
-0.259808	0.15	0.5	
-0.266336	0.143871	0.409139	
-0.0833019	-0.493012	0.155211	
-0.152694	-0.476114	0.0975404	
-0.168043	-0.470916	0.199874	
-0.1449	-0.36257	0.121022	
-0.263582	-0.319413	0	
-0.353553	-0.353553	0	
-0.315029	-0.388274	0.0791933	
-0.331361	-0.272953	0	
0.228991	0.444481	0.408099	
0.195731	0.375572	0.5	
0.191342	0.46194	0.5	
0.146853	0.477948	0.415992	
0.0776457	-0.289778	0.5	
-1.51596e-16	-0.3	0.5	
0.043412	-0.246202	0.5	
0.000597841	-0.287345	0.400747	
-0.5	0	0.3	
-0.493012	0.0833019	0.344789	
-0.5	0	0.4	
-0.406264	0.0467051	0.292816	
0.136333	-0.0203798	0.5	
0.0936941	-0.0576924	0.420616	
0.0854359	-0.0267855	0.5	
0.102443	0.0227629	0.419717	
-0.0704474	0.495012	0.0718449	
0	0.5	0.1	
-0.0807376	0.493438	0.154216	
-0.0809307	0.385403	0.109035	
0.478555	0.144862	0.0783483	
0.469721	0.171353	0.161666	
0.436762	0.243391	0.0969381	
0.337502	0.1652	0.112737	
-0.0198097	0.25642	0.112647	
0.0266006	0.259074	0.200021	
0.0596404	0.176022	0.113284	
0.0793736	0.28635	0.097829	
-0.277785	0.415735	0	
-0.201912	0.369986	0	
-0.235698	0.440961	0.0686036	
-0.273315	0.334955	0	
-0.444481	-0.228991	0.0919014	
-0.415735	-0.277785	0	
-0.356684	-0.19351	0	
-0.323408	-0.220518	0.107073	
0.385896	-0.317937	0.065638	
0.317131	-0.386559	0.0881616	
0.38078	-0.324048	0.150149	
0.251583	-0.28589	0.0896708	
0.0645865	-0.210943	0.409687	
0.128689	-0.272515	0.368277	
0.0958167	-0.194694	0.334239	
0.164604	-0.198565	0.360975	
-0.0712263	0.363482	0.5	
-0.124938	0.414491	0.5	
-0.0426444	0.431636	0.5	
-0.073553	0.38985	0.391066	
-0.377032	0.3284	0.243217	
-0.317319	0.386405	0.201487	
-0.317163	0.386533	0.299742	
-0.234922	0.307887	0.237464	
-0.0442266	-0.432186	0.5	
0	-0.5	0.5	
0	-0.5	0.4	
0.0431128	-0.437731	0.5	
-0.238488	-0.439458	0.0756919	
-0.277785	-0.415735	0	
-0.315029	-0.388274	0.0791933	
-0.203173	-0.373024	0	
-0.386498	-0.317206	0.200322	
-0.386792	-0.316847	0.301384	
-0.328716	-0.376757	0.253532	
-0.285188	-0.256019	0.23904	
0.175681	0.0639425	0.5	
0.196849	-0.00527115	0.5	
0.136333	-0.0203798	0.5	
0.202719	0.0237767	0.420412	
0.428195	0.258165	0.201755	
0.460548	0.194667	0.23433	
0.4284	0.257824	0.295024	
0.329012	0.224405	0.280196	
0.12288	0.243768	0.182957	
0.0596404	0.176022	0.113284	
0.0266006	0.259074	0.200021	
0.0793736	0.28635	0.097829	
0.0853821	-0.492656	0.251348	
0.174738	-0.468473	0.317184	
0.16873	-0.47067	0.201799	
0.0676693	-0.388009	0.271914	
0.495102	-0.0698146	0.4276	
0.416563	-0.126305	0.5	
0.432186	-0.0442266	0.5	
0.392021	-0.0480463	0.41747	
0.414991	0.0495125	0	
0.5	0	0.1	
0.5	0	0	
0.495293	0.0684459	0.0685965	
0.246202	0.043412	0.5	
0.175681	0.0639425	0.5	
0.228063	0.102246	0.400094	
0.202719	0.0237767	0.420412	
-0.386792	-0.316847	0.301384	
-0.386476	-0.317233	0.409527	
-0.323938	-0.380873	0.347739	
-0.288349	-0.269581	0.401233	
-0.152694	-0.476114	0.0975404	
-0.114467	-0.386332	0	
-0.191342	-0.46194	0	
-0.203173	-0.373024	0	
0.0579886	-0.363184	0.5	
0.0431128	-0.437731	0.5	
-0.0152603	-0.363012	0.5	
-0.0295129	-0.397696	0.405297	
-0.429146	-0.25658	0.16876	
-0.386498	-0.317206	0.200322	
-0.386831	-0.3168	0.104097	
-0.323408	-0.220518	0.107073	
-0.2429	0.437035	0.152631	
-0.317319	0.386405	0.201487	
-0.317131	0.386559	0.0881616	
-0.213184	0.322526	0.106779	
0.261819	0.319027	0	
0.231243	0.24169	0	
0.328092	0.270243	0	
0.227449	0.293019	0.0951933	
-0.147585	0.477722	0.416442	
-0.191342	0.46194	0.5	
-0.228959	0.444497	0.408094	
-0.195731	0.375572	0.5	
-0.043412	-0.246202	0.5	
-1.51596e-16	-0.3	0.5	
-0.0776457	-0.289778	0.5	
0.000597841	-0.287345	0.400747	
-0.067279	0.181403	0.5	
-0.043412	0.246202	0.5	
-0.00447954	0.190881	0.5	
-0.0473335	0.163087	0.434501	
0.313791	-0.154465	0	
0.314857	-0.257449	0	
0.380207	-0.19708	0	
0.313473	-0.209952	0.12238	
-0.144862	-0.478555	0.421652	
-0.195731	-0.375572	0.5	
-0.191342	-0.46194	0.5	
-0.126305	-0.416563	0.5	
-0.331361	-0.272953	0	
-0.353553	-0.353553	0	
-0.315029	-0.388274	0.0791933	
-0.386831	-0.3168	0.104097	
-0.119993	0.246691	0	
-0.18644	0.1823	0	
-0.0983601	0.156434	0	
-0.170195	0.225746	0.0963396	
0.385896	-0.317937	0.065638	
0.380207	-0.19708	0	
0.415735	-0.277785	0	
0.314857	-0.257449	0	
0.203679	-0.368672	0.5	
0.191342	-0.46194	0.5	
0.130932	-0.431625	0.5	
0.228959	-0.444497	0.408094	
-0.173205	-0.15	0.5	
-0.216156	-0.175607	0.5	
-0.216506	-0.125	0.5	
-0.167688	-0.179794	0.441452	
-0.302044	-0.0506462	0	
-0.401548	-0.0423374	0	
-0.344127	-0.112227	0	
-0.372622	-0.0844629	0.11881	
0.0728232	0.494668	0.426459	
0.146853	0.477948	0.415992	
0.124929	0.414525	0.5	
0.117226	0.368857	0.420345	
0.437731	0.0431128	0.5	
0.363012	-0.0152603	0.5	
0.400259	0.0398147	0.391942	
0.392021	-0.0480463	0.41747	
0.082983	-0.493066	0.348347	
0.0690566	-0.495208	0.430964	
0.147585	-0.477722	0.416442	
0.0667135	-0.376589	0.379415	
-0.419906	-0.0889586	0.5	
-0.364062	-0.132817	0.5	
-0.47591	-0.153328	0.40763	
-0.387326	-0.108791	0.360005	
-0.0638367	-0.295761	0	
-0.114467	-0.386332	0	
-0.0328721	-0.370689	0	
-0.0562672	-0.401453	0.0877238	
0.493012	0.0833019	0.344789	
0.379606	0.0327687	0.28854	
0.5	0	0.3	
0.400259	0.0398147	0.391942	
-0.302044	-0.0506462	0	
-0.211369	-0.0761151	0	
-0.237047	0.0201392	0	
-0.261227	-0.0514885	0.117995	
0.0293798	0.0426018	0.391106	
0.0522467	0.122489	0.34166	
0.10136	0.102523	0.406019	
0.0785134	0.0464455	0.325494	
0.38078	-0.324048	0.150149	
0.317131	-0.386559	0.0881616	
0.317319	-0.386405	0.201487	
0.262155	-0.286798	0.192405	
0.0596404	0.176022	0.113284	
0.12288	0.243768	0.182957	
0.0266006	0.259074	0.200021	
0.0586412	0.17223	0.217492	
-0.152331	-0.0811942	0.14549	
-0.183468	-0.187607	0.160733	
-0.243673	-0.146253	0.0931104	
-0.127253	-0.156126	0.0844713	
0.394936	-0.119803	0	
0.409478	-0.032947	0	
0.314271	-0.0501881	0	
0.369564	-0.0975027	0.118883	
-0.0833019	-0.493012	0.155211	
-0.152694	-0.476114	0.0975404	
-0.1449	-0.36257	0.121022	
-0.0562672	-0.401453	0.0877238	
-0.401548	-0.0423374	0	
-0.41072	-0.12459	0	
-0.344127	-0.112227	0	
-0.372622	-0.0844629	0.11881	
-0.368394	0.141973	0.5	
-0.419906	0.0889586	0.5	
-0.476132	0.152637	0.402329	
-0.37885	0.0751067	0.400181	
-0.317197	-0.386505	0.431175	
-0.386476	-0.317233	0.409527	
-0.325698	-0.286034	0.5	
-0.288349	-0.269581	0.401233	
-0.0776457	0.289778	0.5	
-0.135086	0.326126	0.5	
-0.0712263	0.363482	0.5	
-0.0433744	0.307825	0.417357	
-0.0790952	0.0620487	0.41859	
-0.15502	0.0902607	0.438606	
-0.112789	0.14207	0.41726	
-0.12302	0.073304	0.350874	
0.437731	0.0431128	0.5	
0.432186	-0.0442266	0.5	
0.363012	-0.0152603	0.5	
0.392021	-0.0480463	0.41747	
0.337634	0.115561	0	
0.373926	0.198925	0	
0.300884	0.198715	0	
0.337502	0.1652	0.112737	
-0.185526	0.120318	0.373769	
-0.125784	0.172859	0.335584	
-0.112789	0.14207	0.41726	
-0.12302	0.073304	0.350874	
-0.0573721	0.0334812	0.170638	
0.0244504	-0.00702123	0.176751	
-0.00800179	-0.0152081	0.261913	
-0.0599463	-0.0498399	0.20415	
-0.171623	-0.128704	0.255156	
-0.288242	-0.0832951	0.281127	
-0.253263	-0.173914	0.276528	
-0.203272	-0.117351	0.333128	
-0.159007	0.150563	0.248955	
-0.125784	0.172859	0.335584	
-0.082138	0.218948	0.273339	
-0.173354	0.242294	0.26617	
0.125	0.216506	0.5	
0.043412	0.246202	0.5	
0.0776457	0.289778	0.5	
0.130242	0.253849	0.414889	
0.115537	0.0107471	0	
0.184962	0.0799289	0	
0.0903521	0.10545	0	
0.165336	0.0617817	0.0970708	
-0.47591	-0.153328	0.40763	
-0.495012	-0.0704482	0.428155	
-0.419906	-0.0889586	0.5	
-0.387326	-0.108791	0.360005	
0.124929	0.414525	0.5	
0.0712263	0.363482	0.5	
0.042537	0.432039	0.5	
0.117226	0.368857	0.420345	
-0.404541	0.126945	0	
-0.337562	0.0547633	0	
-0.328307	0.16356	0	
-0.326028	0.142215	0.11299	
-0.26105	0.203399	0	
-0.18644	0.1823	0	
-0.214341	0.273759	0	
-0.170195	0.225746	0.0963396	
0.245477	-0.191651	0	
0.314857	-0.257449	0	
0.313791	-0.154465	0	
0.313473	-0.209952	0.12238	
0.268393	-0.334301	0	
0.353553	-0.353553	0	
0.385896	-0.317937	0.065638	
0.317131	-0.386559	0.0881616	
0.0975452	0.490393	0	
0.0704482	0.495012	0.0718447	
0.0420691	0.427134	0	
0.114055	0.374109	0	
-0.0295403	0.225144	0	
0.0401436	0.291204	0	
-0.0555676	0.325574	0	
-0.0198097	0.25642	0.112647	
0.0691737	0.285591	0.353708	
0.130242	0.253849	0.414889	
0.164757	0.31504	0.3626	
0.117226	0.368857	0.420345	
-0.110253	-0.0221958	0.5	
-0.112672	-0.0704426	0.5	
-0.166581	-0.0467287	0.5	
-0.0921341	-0.0472882	0.428822	
0.0293798	0.0426018	0.391106	
0.0015496	-0.0106233	0.342921	
0.00473146	-0.0477129	0.410326	
-0.0238699	0.0158197	0.434577	
-0.46194	-0.191342	0.5	
-0.47591	-0.153328	0.40763	
-0.364062	-0.132817	0.5	
-0.354384	-0.194129	0.402587	
-0.0925337	-0.196451	0	
-0.186407	-0.169451	0	
-0.168688	-0.281701	0	
-0.127253	-0.156126	0.0844713	
0.495102	-0.0698146	0.4276	
0.432186	-0.0442266	0.5	
0.5	0	0.4	
0.392021	-0.0480463	0.41747	
0	-0.5	0.3	
0.0853821	-0.492656	0.251348	
0	-0.5	0.2	
0.0676693	-0.388009	0.271914	
-0.277785	-0.415735	0.5	
-0.243391	-0.436762	0.403062	
-0.317197	-0.386505	0.431175	
-0.206938	-0.33712	0.400053	
0.46194	0.191342	0	
0.373926	0.198925	0	
0.478555	0.144862	0.0783483	
0.436762	0.243391	0.0969381	
0.153328	0.47591	0.0923699	
0.168734	0.470668	0.201781	
0.0807477	0.493437	0.154224	
0.145858	0.357927	0.135369	
-0.159007	0.150563	0.248955	
-0.173354	0.242294	0.26617	
-0.082138	0.218948	0.273339	
-0.114496	0.199368	0.185093	
-0.203173	-0.373024	0	
-0.114467	-0.386332	0	
-0.168688	-0.281701	0	
-0.1449	-0.36257	0.121022	
-0.00447954	0.190881	0.5	
-0.043412	0.246202	0.5	
0.043412	0.246202	0.5	
0.00464373	0.231373	0.403957	
-0.0704474	0.495012	0.0718449	
-0.153329	0.47591	0.0923815	
-0.118932	0.39861	0	
-0.0809307	0.385403	0.109035	
-0.0507575	0.0878249	0.5	
-0.0705177	0.0247142	0.5	
-0.113894	0.0780637	0.5	
-0.0790952	0.0620487	0.41859	
0.246202	0.043412	0.5	
0.175681	0.0639425	0.5	
0.216506	0.125	0.5	
0.228063	0.102246	0.400094	
-0.440961	-0.235698	0.431431	
-0.363128	-0.216258	0.5	
-0.386476	-0.317233	0.409527	
-0.354384	-0.194129	0.402587	
0.436811	-0.243302	0.0936268	
0.38078	-0.324048	0.150149	
0.428104	-0.258315	0.196896	
0.313473	-0.209952	0.12238	
-0.263582	-0.319413	0	
-0.315029	-0.388274	0.0791933	
-0.277785	-0.415735	0	
-0.203173	-0.373024	0	
-0.0684459	-0.495293	0.431403	
-0.0442266	-0.432186	0.5	
0	-0.5	0.4	
-0.0295129	-0.397696	0.405297	
0.155785	0.045673	0.353105	
0.102443	0.0227629	0.419717	
0.10136	0.102523	0.406019	
0.0785134	0.0464455	0.325494	
0.450312	-0.217299	0.354112	
0.416747	-0.276265	0.362548	
0.439384	-0.238625	0.423358	
0.340228	-0.209884	0.396212	
-0.243391	-0.436762	0.403062	
-0.258165	-0.428195	0.298245	
-0.323938	-0.380873	0.347739	
-0.206938	-0.33712	0.400053	
-0.401548	-0.0423374	0	
-0.337562	0.0547633	0	
-0.426463	0.0441363	0	
-0.385327	0.0355064	0.11322	
-0.353553	0.353553	0	
-0.385896	0.317937	0.065638	
-0.318983	0.261743	0	
-0.273315	0.334955	0	
-0.386831	-0.3168	0.104097	
-0.415735	-0.277785	0	
-0.444481	-0.228991	0.0919014	
-0.323408	-0.220518	0.107073	
-0.325698	-0.286034	0.5	
-0.248409	-0.277977	0.5	
-0.270443	-0.334367	0.5	
-0.288349	-0.269581	0.401233	
-0.352865	-0.168551	0.27433	
-0.387326	-0.108791	0.360005	
-0.281583	-0.139061	0.36108	
-0.288242	-0.0832951	0.281127	
0.246202	0.043412	0.5	
0.216506	0.125	0.5	
0.289778	0.0776457	0.5	
0.228063	0.102246	0.400094	
-0.0422582	-0.437473	0	
0.0404524	-0.41072	0	
-0.0328721	-0.370689	0	
-0.0562672	-0.401453	0.0877238	
0.125	-0.216506	0.5	
0.043412	-0.246202	0.5	
0.0949827	-0.187358	0.5	
0.0645865	-0.210943	0.409687	
-0.490316	0.0979281	0.24092	
-0.5	0	0.3	
-0.5	0	0.2	
-0.406264	0.0467051	0.292816	
-0.437078	-0.242822	0.347009	
-0.352865	-0.168551	0.27433	
-0.470668	-0.168734	0.298219	
-0.387326	-0.108791	0.360005	
0.415735	0.277785	0.5	
0.439458	0.238488	0.424308	
0.369217	0.203769	0.5	
0.388274	0.315029	0.420807	
-0.281583	-0.139061	0.36108	
-0.387326	-0.108791	0.360005	
-0.352865	-0.168551	0.27433	
-0.354384	-0.194129	0.402587	
0.346509	0.0237889	0	
0.337634	0.115561	0	
0.292412	0.0780179	0.101456	
0.391187	0.0843667	0.0902296	
-0.385896	0.317937	0.065638	
-0.353553	0.353553	0	
-0.317131	0.386559	0.0881616	
-0.273315	0.334955	0	
0.478516	-0.14499	0.0762896	
0.493378	-0.0811073	0.146993	
0.495208	-0.0690617	0.0692099	
0.369564	-0.0975027	0.118883	
-0.0925337	-0.196451	0	
-0.0369979	-0.193764	0.104577	
-0.0232782	-0.127584	0	
-0.127253	-0.156126	0.0844713	
0.439458	0.238488	0.424308	
0.431625	0.130932	0.5	
0.46194	0.191342	0.5	
0.369217	0.203769	0.5	
-0.337562	0.0547633	0	
-0.257956	0.116321	0	
-0.328307	0.16356	0	
-0.326028	0.142215	0.11299	
-0.117671	-0.10197	0	
-0.211369	-0.0761151	0	
-0.186407	-0.169451	0	
-0.127253	-0.156126	0.0844713	
-0.317131	0.386559	0.0881616	
-0.277785	0.415735	0	
-0.235698	0.440961	0.0686036	
-0.273315	0.334955	0	
0.191342	-0.46194	0	
0.153329	-0.47591	0.0923815	
0.235698	-0.440961	0.0686036	
0.125573	-0.41396	0	
0.201164	-0.273578	0	
0.162218	-0.333858	0.109166	
0.194604	-0.371188	0	
0.251583	-0.28589	0.0896708	
-0.16685	0.0883447	0	
-0.18644	0.1823	0	
-0.257956	0.116321	0	
-0.215195	0.0857371	0.0917705	
-0.439384	0.238625	0.423358	
-0.46194	0.191342	0.5	
-0.368394	0.141973	0.5	
-0.363589	0.21739	0.5	
-0.154439	0.124228	0.5	
-0.168013	0.159183	0.440667	
-0.112789	0.14207	0.41726	
-0.15502	0.0902607	0.438606	
-0.460762	0.19416	0.234059	
-0.471122	0.167464	0.300106	
-0.490316	0.0979281	0.24092	
-0.364452	0.121056	0.219309	
-0.0555676	0.325574	0	
-0.0372406	0.417791	0	
-0.118932	0.39861	0	
-0.0809307	0.385403	0.109035	
0.385896	-0.317937	0.065638	
0.38078	-0.324048	0.150149	
0.436811	-0.243302	0.0936268	
0.313473	-0.209952	0.12238	
0.191342	0.46194	0	
0.235698	0.440961	0.068569	
0.153328	0.47591	0.0923699	
0.202324	0.378521	0	
0.0596404	0.176022	0.113284	
0.125478	0.130999	0.17652	
0.12288	0.243768	0.182957	
0.0586412	0.17223	0.217492	
0.18433	-0.220573	0.141371	
0.313473	-0.209952	0.12238	
0.262155	-0.286798	0.192405	
0.251583	-0.28589	0.0896708	
-0.270443	-0.334367	0.5	
-0.194694	-0.304695	0.5	
-0.195731	-0.375572	0.5	
-0.206938	-0.33712	0.400053	
0.0293798	0.0426018	0.391106	
0.0015496	-0.0106233	0.342921	
0.00171532	0.0670635	0.305226	
0.0785134	0.0464455	0.325494	
-0.434698	-0.247057	0.249501	
-0.468495	-0.174678	0.182891	
-0.470668	-0.168734	0.298219	
-0.352865	-0.168551	0.27433	
0.314857	-0.257449	0	
0.353553	-0.353553	0	
0.385896	-0.317937	0.065638	
0.268393	-0.334301	0	
-0.243391	-0.436762	0.403062	
-0.195731	-0.375572	0.5	
-0.191342	-0.46194	0.5	
-0.144862	-0.478555	0.421652	
-0.325698	-0.286034	0.5	
-0.30356	-0.231708	0.5	
-0.248409	-0.277977	0.5	
-0.288349	-0.269581	0.401233	
0.0949827	-0.187358	0.5	
0.139746	-0.170777	0.5	
0.125	-0.216506	0.5	
0.165128	-0.182854	0.433186	
-0.195731	-0.375572	0.5	
-0.194694	-0.304695	0.5	
-0.135086	-0.326126	0.5	
-0.206938	-0.33712	0.400053	
-0.249565	0.273325	0.5	
-0.303998	0.231686	0.5	
-0.325943	0.285613	0.5	
-0.281262	0.296575	0.411781	
-0.261345	-0.230036	0	
-0.278713	-0.14304	0	
-0.356684	-0.19351	0	
-0.323408	-0.220518	0.107073	
0.235698	-0.440961	0.0686036	
0.277785	-0.415735	0	
0.194604	-0.371188	0	
0.268393	-0.334301	0	
0.369217	0.203769	0.5	
0.325794	0.291996	0.5	
0.415735	0.277785	0.5	
0.388274	0.315029	0.420807	
0.317206	0.386498	0.299678	
0.25658	0.429146	0.33124	
0.247057	0.434698	0.250499	
0.233262	0.310813	0.267062	
-0.281583	-0.139061	0.36108	
-0.214222	-0.0809482	0.409057	
-0.246996	-0.178452	0.424102	
-0.203272	-0.117351	0.333128	
0.158056	0.171884	0	
0.247868	0.146306	0	
0.231243	0.24169	0	
0.191109	0.195644	0.106001	
0.231243	0.24169	0	
0.133074	0.264097	0	
0.158056	0.171884	0	
0.191109	0.195644	0.106001	
-0.082983	0.493066	0.348347	
0	0.5	0.4	
-0.0690566	0.495208	0.430964	
-0.073553	0.38985	0.391066	
0.0255949	-0.0865848	0.221929	
0.0244504	-0.00702123	0.176751	
-0.0272885	-0.0825315	0.132744	
-0.0599463	-0.0498399	0.20415	
0.495208	-0.0690617	0.0692099	
0.5	0	0.1	
0.5	0	0	
0.409478	-0.032947	0	
0.114055	0.374109	0	
0.191342	0.46194	0	
0.153328	0.47591	0.0923699	
0.202324	0.378521	0	
-0.152694	-0.476114	0.0975404	
-0.217356	-0.450285	0.144698	
-0.168043	-0.470916	0.199874	
-0.1449	-0.36257	0.121022	
0.0153159	0.363557	0	
0.0401436	0.291204	0	
0.114055	0.374109	0	
0.0793736	0.28635	0.097829	
0.0853821	-0.492656	0.251348	
0.0676693	-0.388009	0.271914	
0.16873	-0.47067	0.201799	
0.104159	-0.395278	0.16544	
0.12288	0.243768	0.182957	
0.125478	0.130999	0.17652	
0.191109	0.195644	0.106001	
0.196123	0.185647	0.211614	
0.346509	0.0237889	0	
0.276476	0.0535537	0	
0.268679	-0.0175832	0.0938256	
0.292412	0.0780179	0.101456	
-0.212951	-0.0278954	0.307934	
-0.296824	0.0138185	0.284404	
-0.225667	-0.0555936	0.212037	
-0.288242	-0.0832951	0.281127	
-0.125	-0.216506	0.5	
-0.0934074	-0.183691	0.5	
-0.043412	-0.246202	0.5	
-0.0829946	-0.232421	0.403465	
0.228959	-0.444497	0.408094	
0.174738	-0.468473	0.317184	
0.147585	-0.477722	0.416442	
0.194286	-0.353827	0.369459	
0.128497	-0.139894	0.387724	
0.182789	-0.109466	0.430518	
0.165128	-0.182854	0.433186	
0.19791	-0.131113	0.360072	
-0.149626	-0.106257	0.5	
-0.216506	-0.125	0.5	
-0.166581	-0.0467287	0.5	
-0.214222	-0.0809482	0.409057	
-0.385896	0.317937	0.065638	
-0.389036	0.207425	0	
-0.415735	0.277785	0	
-0.318983	0.261743	0	
0	-0.5	0.3	
0	-0.5	0.2	
-0.0977967	-0.490343	0.258774	
-0.0510822	-0.382345	0.237039	
0.31678	-0.386847	0.395869	
0.29185	-0.325871	0.5	
0.388345	-0.314941	0.420199	
0.270471	-0.290437	0.402527	
-0.214341	0.273759	0	
-0.138674	0.323797	0	
-0.201912	0.369986	0	
-0.213184	0.322526	0.106779	
-0.352865	-0.168551	0.27433	
-0.253263	-0.173914	0.276528	
-0.283975	-0.144274	0.184102	
-0.288242	-0.0832951	0.281127	
0.351628	0.0194463	0.154597	
0.268679	-0.0175832	0.0938256	
0.27082	0.0310537	0.205694	
0.292412	0.0780179	0.101456	
0.493012	0.0833019	0.344789	
0.490343	0.0977967	0.241226	
0.5	0	0.3	
0.379606	0.0327687	0.28854	
0.436811	-0.243302	0.0936268	
0.428104	-0.258315	0.196896	
0.469621	-0.171627	0.160116	
0.375867	-0.158621	0.196853	
-0.323938	-0.380873	0.347739	
-0.328716	-0.376757	0.253532	
-0.386792	-0.316847	0.301384	
-0.243234	-0.318297	0.307228	
0.0704474	-0.495012	0.0718449	
0	-0.5	0	
0	-0.5	0.1	
0.0404524	-0.41072	0	
0.115537	0.0107471	0	
0.210156	-0.0147965	0	
0.184962	0.0799289	0	
0.165336	0.0617817	0.0970708	
0.495102	-0.0698146	0.4276	
0.493012	-0.0833019	0.344789	
0.476132	-0.152637	0.402329	
0.392021	-0.0480463	0.41747	
0.325794	0.291996	0.5	
0.270443	0.334367	0.5	
0.353553	0.353553	0.5	
0.3168	0.386831	0.395903	
0.096294	0.191774	0.363276	
0.10136	0.102523	0.406019	
0.0522467	0.122489	0.34166	
0.162344	0.134607	0.350934	
0.437731	0.0431128	0.5	
0.495101	0.0698189	0.427621	
0.5	0	0.4	
0.400259	0.0398147	0.391942	
-0.0975452	-0.490393	0	
-0.0698189	-0.495101	0.0723791	
-0.0422582	-0.437473	0	
-0.0562672	-0.401453	0.0877238	
0.261819	0.319027	0	
0.202324	0.378521	0	
0.189613	0.313662	0	
0.227449	0.293019	0.0951933	
-0.0807376	0.493438	0.154216	
-0.0853821	0.492656	0.251348	
-0.16873	0.47067	0.201799	
-0.0810467	0.370121	0.206864	
-0.112672	-0.0704426	0.5	
-0.0625361	-0.0382385	0.5	
-0.0699979	-0.0973408	0.5	
-0.0921341	-0.0472882	0.428822	
-0.0152603	-0.363012	0.5	
0.0431128	-0.437731	0.5	
-0.0442266	-0.432186	0.5	
-0.0295129	-0.397696	0.405297	
0.5	0	0.4	
0.493012	-0.0833019	0.344789	
0.495102	-0.0698146	0.4276	
0.392021	-0.0480463	0.41747	
0.133074	0.264097	0	
0.231243	0.24169	0	
0.189613	0.313662	0	
0.227449	0.293019	0.0951933	
-0.114467	-0.386332	0	
-0.1449	-0.36257	0.121022	
-0.152694	-0.476114	0.0975404	
-0.0562672	-0.401453	0.0877238	
0.316847	0.386792	0.198616	
0.317206	0.386498	0.299678	
0.247057	0.434698	0.250499	
0.233262	0.310813	0.267062	
-0.401548	-0.0423374	0	
-0.5	0	0.1	
-0.5	0	0	
-0.494668	-0.0728232	0.0735406	
0.00183684	-0.222331	0	
-0.0638367	-0.295761	0	
0.0248177	-0.313374	0	
0.0390368	-0.27687	0.0931397	
0.0244504	-0.00702123	0.176751	
-0.0145265	0.00397743	0.0865031	
0.0694446	0.0614041	0.127763	
0.0773506	-0.0233693	0.0836206	
0.00171532	0.0670635	0.305226	
0.0522467	0.122489	0.34166	
0.0293798	0.0426018	0.391106	
0.0785134	0.0464455	0.325494	
-0.389036	0.207425	0	
-0.46194	0.191342	0	
-0.404541	0.126945	0	
-0.478516	0.14499	0.0762896	
0.235698	-0.440961	0.0686036	
0.277785	-0.415735	0	
0.268393	-0.334301	0	
0.317131	-0.386559	0.0881616	
0.0704474	-0.495012	0.0718449	
0.0807376	-0.493438	0.154216	
0.153329	-0.47591	0.0923815	
0.104159	-0.395278	0.16544	
-0.0833019	-0.493012	0.155211	
-0.0977967	-0.490343	0.258774	
0	-0.5	0.2	
-0.0510822	-0.382345	0.237039	
0.223495	0.10535	0.166759	
0.125478	0.130999	0.17652	
0.186062	0.10988	0.269638	
0.196123	0.185647	0.211614	
0.414991	0.0495125	0	
0.495293	0.0684459	0.0685965	
0.414183	0.131147	0	
0.391187	0.0843667	0.0902296	
-0.212951	-0.0278954	0.307934	
-0.143954	-0.0664954	0.366375	
-0.214222	-0.0809482	0.409057	
-0.203272	-0.117351	0.333128	
0.120744	-0.0747732	0.5	
0.0854359	-0.0267855	0.5	
0.136333	-0.0203798	0.5	
0.0936941	-0.0576924	0.420616	
0.147585	-0.477722	0.416442	
0.130932	-0.431625	0.5	
0.191342	-0.46194	0.5	
0.228959	-0.444497	0.408094	
0.191109	0.195644	0.106001	
0.125478	0.130999	0.17652	
0.223495	0.10535	0.166759	
0.196123	0.185647	0.211614	
0.082983	-0.493066	0.348347	
0.174738	-0.468473	0.317184	
0.0853821	-0.492656	0.251348	
0.0676693	-0.388009	0.271914	
-0.112789	0.14207	0.41726	
-0.15502	0.0902607	0.438606	
-0.185526	0.120318	0.373769	
-0.12302	0.073304	0.350874	
0.478516	-0.14499	0.0762896	
0.380207	-0.19708	0	
0.46194	-0.191342	0	
0.436811	-0.243302	0.0936268	
-0.493012	0.0833019	0.344789	
-0.490316	0.0979281	0.24092	
-0.471122	0.167464	0.300106	
-0.406264	0.0467051	0.292816	
-0.477948	-0.146853	0.0840084	
-0.494668	-0.0728232	0.0735406	
-0.493315	-0.0814864	0.152319	
-0.372622	-0.0844629	0.11881	
-0.437078	-0.242822	0.347009	
-0.387326	-0.108791	0.360005	
-0.47591	-0.153328	0.40763	
-0.354384	-0.194129	0.402587	
0.2	-0.259808	0.5	
0.274666	-0.249265	0.5	
0.231749	-0.30504	0.5	
0.213897	-0.237657	0.431435	
-0.0156334	-0.0737433	0.5	
0.035935	-0.11426	0.5	
-0.0228356	-0.132115	0.5	
0.00727488	-0.125574	0.43338	
-0.154439	0.124228	0.5	
-0.161262	0.177195	0.5	
-0.118648	0.167764	0.5	
-0.168013	0.159183	0.440667	
-0.0698189	-0.495101	0.0723791	
0	-0.5	0.1	
-0.0422582	-0.437473	0	
-0.0562672	-0.401453	0.0877238	
0.0454237	0.00960241	0.5	
-0.0081622	-0.0144392	0.5	
-0.00654379	0.0500762	0.5	
-0.0238699	0.0158197	0.434577	
0.493012	0.0833019	0.344789	
0.5	0	0.3	
0.5	0	0.4	
0.400259	0.0398147	0.391942	
0.289778	-0.0776457	0.5	
0.216506	-0.125	0.5	
0.246202	-0.043412	0.5	
0.273873	-0.116111	0.41418	
0.268393	-0.334301	0	
0.201164	-0.273578	0	
0.194604	-0.371188	0	
0.251583	-0.28589	0.0896708	
-0.00800179	-0.0152081	0.261913	
0.0244504	-0.00702123	0.176751	
0.0255949	-0.0865848	0.221929	
-0.0599463	-0.0498399	0.20415	
-0.436811	0.243302	0.0936268	
-0.389036	0.207425	0	
-0.415735	0.277785	0	
-0.385896	0.317937	0.065638	
0.388345	-0.314941	0.420199	
0.439384	-0.238625	0.423358	
0.416747	-0.276265	0.362548	
0.340228	-0.209884	0.396212	
5.51091e-17	0.3	0.5	
0.00464373	0.231373	0.403957	
-0.043412	0.246202	0.5	
-0.0433744	0.307825	0.417357	
-0.0372406	0.417791	0	
0	0.5	0.1	
0	0.5	0	
-0.0704474	0.495012	0.0718449	
0.2	-0.259808	0.5	
0.15	-0.259808	0.5	
0.177945	-0.20787	0.5	
0.213897	-0.237657	0.431435	
0.437731	0.0431128	0.5	
0.363012	-0.0152603	0.5	
0.363184	0.0579886	0.5	
0.400259	0.0398147	0.391942	
0.0943468	-0.245334	0	
0.0248177	-0.313374	0	
0.112799	-0.33356	0	
0.0390368	-0.27687	0.0931397	
0.376757	0.328716	0.246468	
0.428195	0.258165	0.201755	
0.4284	0.257824	0.295024	
0.329012	0.224405	0.280196	
-0.495208	0.0690617	0.0692099	
-0.426463	0.0441363	0	
-0.490393	0.0975452	0	
-0.404541	0.126945	0	
-0.201912	0.369986	0	
-0.273315	0.334955	0	
-0.214341	0.273759	0	
-0.213184	0.322526	0.106779	
0.0209546	0.0362755	0	
-0.0145265	0.00397743	0.0865031	
0.0461078	-0.0584269	0	
0.0773506	-0.0233693	0.0836206	
0.374193	0.331632	0.334643	
0.376757	0.328716	0.246468	
0.4284	0.257824	0.295024	
0.329012	0.224405	0.280196	
5.51091e-17	0.3	0.5	
0.043412	0.246202	0.5	
-0.043412	0.246202	0.5	
0.00464373	0.231373	0.403957	
0.0704482	0.495012	0.0718447	
0.0975452	0.490393	0	
0.153328	0.47591	0.0923699	
0.114055	0.374109	0	
0.0776457	0.289778	0.5	
0.135086	0.326126	0.5	
0.15	0.259808	0.5	
0.130242	0.253849	0.414889	
0.273873	-0.116111	0.41418	
0.182789	-0.109466	0.430518	
0.209772	-0.0539676	0.386967	
0.19791	-0.131113	0.360072	
0.236451	-0.193336	0.377474	
0.164604	-0.198565	0.360975	
0.165128	-0.182854	0.433186	
0.19791	-0.131113	0.360072	
-0.247023	0.434718	0.250558	
-0.317163	0.386533	0.299742	
-0.317319	0.386405	0.201487	
-0.234922	0.307887	0.237464	
-0.469621	0.171627	0.160116	
-0.460762	0.19416	0.234059	
-0.490316	0.0979281	0.24092	
-0.364452	0.121056	0.219309	
-0.495208	0.0690617	0.0692099	
-0.493378	0.0811073	0.146993	
-0.5	0	0.1	
-0.385327	0.0355064	0.11322	
0.337502	0.1652	0.112737	
0.292412	0.0780179	0.101456	
0.337634	0.115561	0	
0.391187	0.0843667	0.0902296	
-0.125	-0.216506	0.5	
-0.043412	-0.246202	0.5	
-0.0776457	-0.289778	0.5	
-0.0829946	-0.232421	0.403465	
0.29185	-0.325871	0.5	
0.231749	-0.30504	0.5	
0.274666	-0.249265	0.5	
0.270471	-0.290437	0.402527	
0.469621	-0.171627	0.160116	
0.493378	-0.0811073	0.146993	
0.478516	-0.14499	0.0762896	
0.369564	-0.0975027	0.118883	
0.082983	-0.493066	0.348347	
0.0853821	-0.492656	0.251348	
0	-0.5	0.3	
0.0676693	-0.388009	0.271914	
-0.46194	0.191342	0	
-0.389036	0.207425	0	
-0.436811	0.243302	0.0936268	
-0.478516	0.14499	0.0762896	
-0.152694	-0.476114	0.0975404	
-0.238488	-0.439458	0.0756919	
-0.217356	-0.450285	0.144698	
-0.1449	-0.36257	0.121022	
0.274666	-0.249265	0.5	
0.334367	-0.270443	0.5	
0.29185	-0.325871	0.5	
0.270471	-0.290437	0.402527	
-0.495102	0.0698146	0.4276	
-0.419906	0.0889586	0.5	
-0.428192	0.000626804	0.5	
-0.37885	0.0751067	0.400181	
0.490393	0.0975452	0	
0.414183	0.131147	0	
0.414991	0.0495125	0	
0.495293	0.0684459	0.0685965	
0.139746	-0.170777	0.5	
0.18228	-0.160584	0.5	
0.177945	-0.20787	0.5	
0.165128	-0.182854	0.433186	
-0.216506	-0.125	0.5	
-0.289778	-0.0776457	0.5	
-0.246202	-0.043412	0.5	
-0.214222	-0.0809482	0.409057	
0.043412	-0.246202	0.5	
0.0583087	-0.173273	0.5	
0.0949827	-0.187358	0.5	
0.0645865	-0.210943	0.409687	
0.416563	-0.126305	0.5	
0.366186	-0.0790357	0.5	
0.432186	-0.0442266	0.5	
0.392021	-0.0480463	0.41747	
-0.0232782	-0.127584	0	
-0.048473	-0.0328568	0	
-0.117671	-0.10197	0	
-0.0957928	-0.0529556	0.0773873	
-0.270443	0.334367	0.5	
-0.325943	0.285613	0.5	
-0.353553	0.353553	0.5	
-0.281262	0.296575	0.411781	
0.16873	-0.47067	0.201799	
0.2429	-0.437035	0.152631	
0.153329	-0.47591	0.0923815	
0.104159	-0.395278	0.16544	
0.0214814	0.353326	0.153644	
0.0266006	0.259074	0.200021	
-0.0198097	0.25642	0.112647	
0.0793736	0.28635	0.097829	
0.14072	-0.0839746	0	
0.164797	-0.177585	0	
0.232997	-0.11062	0	
0.164655	-0.11934	0.10185	
0.414183	0.131147	0	
0.495293	0.0684459	0.0685965	
0.478555	0.144862	0.0783483	
0.391187	0.0843667	0.0902296	
0.128497	-0.139894	0.387724	
0.165128	-0.182854	0.433186	
0.164604	-0.198565	0.360975	
0.19791	-0.131113	0.360072	
-0.216506	0.125	0.5	
-0.168013	0.159183	0.440667	
-0.154439	0.124228	0.5	
-0.15502	0.0902607	0.438606	
0.194604	-0.371188	0	
0.201164	-0.273578	0	
0.112799	-0.33356	0	
0.162218	-0.333858	0.109166	
-0.426463	0.0441363	0	
-0.5	0	0	
-0.5	0	0.1	
-0.495208	0.0690617	0.0692099	
0.469721	0.171353	0.161666	
0.478555	0.144862	0.0783483	
0.493389	0.0810399	0.14715	
0.391187	0.0843667	0.0902296	
-0.0925337	-0.196451	0	
0.00183684	-0.222331	0	
-0.0232782	-0.127584	0	
-0.0369979	-0.193764	0.104577	
0	0.5	0.3	
-0.0853821	0.492656	0.251348	
0	0.5	0.2	
0.000988831	0.396472	0.255648	
-0.331361	-0.272953	0	
-0.261345	-0.230036	0	
-0.356684	-0.19351	0	
-0.323408	-0.220518	0.107073	
0.0704482	0.495012	0.0718447	
0	0.5	0.1	
0	0.5	0	
0.0420691	0.427134	0	
-0.0705177	0.0247142	0.5	
-0.0081622	-0.0144392	0.5	
-0.0625361	-0.0382385	0.5	
-0.0238699	0.0158197	0.434577	
0.380207	-0.19708	0	
0.46194	-0.191342	0	
0.394936	-0.119803	0	
0.478516	-0.14499	0.0762896	
-0.0975452	0.490393	0.5	
-0.124938	0.414491	0.5	
-0.0690566	0.495208	0.430964	
-0.0426444	0.431636	0.5	
-0.194694	0.304695	0.5	
-0.195731	0.375572	0.5	
-0.135086	0.326126	0.5	
-0.173891	0.340446	0.398741	
-0.368394	0.141973	0.5	
-0.31598	0.119651	0.5	
-0.351551	0.0541915	0.5	
-0.37885	0.0751067	0.400181	
0.439458	0.238488	0.424308	
0.46194	0.191342	0.5	
0.431625	0.130932	0.5	
0.476114	0.152694	0.40246	
0	0.5	0.2	
0.0854243	0.492649	0.251403	
0	0.5	0.3	
0.000988831	0.396472	0.255648	
-0.0442266	-0.432186	0.5	
0	-0.5	0.4	
0	-0.5	0.5	
-0.0684459	-0.495293	0.431403	
-0.0690566	0.495208	0.430964	
0	0.5	0.4	
0	0.5	0.5	
-0.0426444	0.431636	0.5	
-0.117671	-0.10197	0	
-0.0925337	-0.196451	0	
-0.0232782	-0.127584	0	
-0.127253	-0.156126	0.0844713	
-0.270443	0.334367	0.5	
-0.353553	0.353553	0.5	
-0.31678	0.386847	0.395869	
-0.281262	0.296575	0.411781	
-0.476132	0.152637	0.402329	
-0.368394	0.141973	0.5	
-0.46194	0.191342	0.5	
-0.419906	0.0889586	0.5	
-0.325698	-0.286034	0.5	
-0.386476	-0.317233	0.409527	
-0.415735	-0.277785	0.5	
-0.363128	-0.216258	0.5	
0.210156	-0.0147965	0	
0.232997	-0.11062	0	
0.314271	-0.0501881	0	
0.268679	-0.0175832	0.0938256	
0.0209546	0.0362755	0	
-0.048473	-0.0328568	0	
0.0461078	-0.0584269	0	
-0.0145265	0.00397743	0.0865031	
0.242822	0.437078	0.152991	
0.153328	0.47591	0.0923699	
0.235698	0.440961	0.068569	
0.145858	0.357927	0.135369	
0.432186	-0.0442266	0.5	
0.5	0	0.4	
0.5	0	0.5	
0.495102	-0.0698146	0.4276	
-0.0975452	-0.490393	0	
-0.0422582	-0.437473	0	
-0.114467	-0.386332	0	
-0.0562672	-0.401453	0.0877238	
-0.476132	0.152637	0.402329	
-0.419906	0.0889586	0.5	
-0.495102	0.0698146	0.4276	
-0.37885	0.0751067	0.400181	
-0.388345	0.314941	0.420199	
-0.415735	0.277785	0.5	
-0.439384	0.238625	0.423358	
-0.363589	0.21739	0.5	
-0.243391	-0.436762	0.403062	
-0.323938	-0.380873	0.347739	
-0.317197	-0.386505	0.431175	
-0.206938	-0.33712	0.400053	
0.247868	0.146306	0	
0.276476	0.0535537	0	
0.337634	0.115561	0	
0.292412	0.0780179	0.101456	
-0.0734441	0.0616893	0	
-0.16685	0.0883447	0	
-0.142648	-0.00714059	0	
-0.12546	0.0336645	0.0931586	
0.0776457	0.289778	0.5	
0.15	0.259808	0.5	
0.125	0.216506	0.5	
0.130242	0.253849	0.414889	
0.476114	0.152694	0.40246	
0.493012	0.0833019	0.344789	
0.495101	0.0698189	0.427621	
0.400259	0.0398147	0.391942	
-0.2429	0.437035	0.152631	
-0.317131	0.386559	0.0881616	
-0.235698	0.440961	0.0686036	
-0.213184	0.322526	0.106779	
-0.177196	0.0645246	0.5	
-0.113894	0.0780637	0.5	
-0.13896	0.0197163	0.5	
-0.15502	0.0902607	0.438606	
-0.166581	-0.0467287	0.5	
-0.216506	-0.125	0.5	
-0.246202	-0.043412	0.5	
-0.214222	-0.0809482	0.409057	
-0.323938	-0.380873	0.347739	
-0.386476	-0.317233	0.409527	
-0.317197	-0.386505	0.431175	
-0.288349	-0.269581	0.401233	
0.2	-0.259808	0.5	
0.228406	-0.215902	0.5	
0.274666	-0.249265	0.5	
0.213897	-0.237657	0.431435	
-0.0712263	0.363482	0.5	
2.23198e-17	0.373746	0.5	
5.51091e-17	0.3	0.5	
-0.0433744	0.307825	0.417357	
0.169426	0.205971	0.5	
0.125	0.216506	0.5	
0.15	0.259808	0.5	
0.130242	0.253849	0.414889	
0.3168	0.386831	0.395903	
0.353553	0.353553	0.5	
0.325794	0.291996	0.5	
0.388274	0.315029	0.420807	
-0.118932	0.39861	0	
-0.0372406	0.417791	0	
-0.0975452	0.490393	0	
-0.0704474	0.495012	0.0718449	
-0.281583	-0.139061	0.36108	
-0.253263	-0.173914	0.276528	
-0.352865	-0.168551	0.27433	
-0.288242	-0.0832951	0.281127	
0.394936	-0.119803	0	
0.495208	-0.0690617	0.0692099	
0.490393	-0.0975452	0	
0.409478	-0.032947	0	
0.31678	-0.386847	0.395869	
0.388345	-0.314941	0.420199	
0.373696	-0.332191	0.334057	
0.270471	-0.290437	0.402527	
-0.154439	0.124228	0.5	
-0.185713	0.151649	0.5	
-0.161262	0.177195	0.5	
-0.168013	0.159183	0.440667	
0.0776457	0.289778	0.5	
0.0712263	0.363482	0.5	
0.135086	0.326126	0.5	
0.117226	0.368857	0.420345	
0.035935	-0.11426	0.5	
0.0208735	-0.153224	0.5	
-0.0228356	-0.132115	0.5	
0.00727488	-0.125574	0.43338	
0.276476	0.0535537	0	
0.346509	0.0237889	0	
0.337634	0.115561	0	
0.292412	0.0780179	0.101456	
0.377032	-0.3284	0.243217	
0.38078	-0.324048	0.150149	
0.317319	-0.386405	0.201487	
0.262155	-0.286798	0.192405	
-0.048473	-0.0328568	0	
0.0209546	0.0362755	0	
-0.0734441	0.0616893	0	
-0.0145265	0.00397743	0.0865031	
-0.416747	0.276265	0.362548	
-0.450312	0.217299	0.354112	
-0.429476	0.256028	0.291579	
-0.373924	0.17948	0.316585	
-0.353553	0.353553	0.5	
-0.325943	0.285613	0.5	
-0.388345	0.314941	0.420199	
-0.281262	0.296575	0.411781	
-0.388345	0.314941	0.420199	
-0.415735	0.277785	0.5	
-0.363589	0.21739	0.5	
-0.325943	0.285613	0.5	
0.0461078	-0.0584269	0	
0.14072	-0.0839746	0	
0.115537	0.0107471	0	
0.0773506	-0.0233693	0.0836206	
-0.440961	-0.235698	0.431431	
-0.415735	-0.277785	0.5	
-0.386476	-0.317233	0.409527	
-0.363128	-0.216258	0.5	
-0.47591	-0.153328	0.40763	
-0.437078	-0.242822	0.347009	
-0.470668	-0.168734	0.298219	
-0.387326	-0.108791	0.360005	
-0.363128	-0.216258	0.5	
-0.308042	-0.167631	0.5	
-0.30356	-0.231708	0.5	
-0.354384	-0.194129	0.402587	
0.414183	0.131147	0	
0.490393	0.0975452	0	
0.478555	0.144862	0.0783483	
0.495293	0.0684459	0.0685965	
0.042537	0.432039	0.5	
0	0.5	0.4	
0	0.5	0.5	
0.0728232	0.494668	0.426459	
0.460762	-0.19416	0.234059	
0.490316	-0.0979281	0.24092	
0.469621	-0.171627	0.160116	
0.375867	-0.158621	0.196853	
0.236451	-0.193336	0.377474	
0.213897	-0.237657	0.431435	
0.165128	-0.182854	0.433186	
0.164604	-0.198565	0.360975	
0.416747	-0.276265	0.362548	
0.450312	-0.217299	0.354112	
0.429476	-0.256028	0.291579	
0.373857	-0.180895	0.313411	
0.216506	-0.125	0.5	
0.18228	-0.160584	0.5	
0.155716	-0.12147	0.5	
0.182789	-0.109466	0.430518	
0.07775	0.0966917	0.259619	
0.0522467	0.122489	0.34166	
0.00171532	0.0670635	0.305226	
0.0785134	0.0464455	0.325494	
-0.0442266	-0.432186	0.5	
-0.0790357	-0.366186	0.5	
-0.0152603	-0.363012	0.5	
-0.0295129	-0.397696	0.405297	
-0.0684459	-0.495293	0.431403	
0	-0.5	0.4	
-0.0810399	-0.493389	0.35285	
-0.0295129	-0.397696	0.405297	
-0.493012	0.0833019	0.344789	
-0.476132	0.152637	0.402329	
-0.495102	0.0698146	0.4276	
-0.37885	0.0751067	0.400181	
0.242822	0.437078	0.152991	
0.168734	0.470668	0.201781	
0.153328	0.47591	0.0923699	
0.145858	0.357927	0.135369	
-0.47591	-0.153328	0.40763	
-0.419906	-0.0889586	0.5	
-0.46194	-0.191342	0.5	
-0.364062	-0.132817	0.5	
-0.490393	0.0975452	0	
-0.495208	0.0690617	0.0692099	
-0.404541	0.126945	0	
-0.478516	0.14499	0.0762896	
0.0209546	0.0362755	0	
0.0461078	-0.0584269	0	
0.115537	0.0107471	0	
0.0773506	-0.0233693	0.0836206	
-0.0975452	0.490393	0	
-0.118932	0.39861	0	
-0.0704474	0.495012	0.0718449	
-0.153329	0.47591	0.0923815	
0.102519	0.0330131	0.5	
0.136333	-0.0203798	0.5	
0.0854359	-0.0267855	0.5	
0.102443	0.0227629	0.419717	
-0.0690566	0.495208	0.430964	
-0.147585	0.477722	0.416442	
-0.082983	0.493066	0.348347	
-0.073553	0.38985	0.391066	
0.490393	-0.0975452	0	
0.495208	-0.0690617	0.0692099	
0.394936	-0.119803	0	
0.478516	-0.14499	0.0762896	
-0.0892693	0.13018	0.5	
-0.067279	0.181403	0.5	
-0.0305981	0.141799	0.5	
-0.0473335	0.163087	0.434501	
-0.172766	-0.209666	0.5	
-0.216156	-0.175607	0.5	
-0.173205	-0.15	0.5	
-0.167688	-0.179794	0.441452	
-0.444481	-0.228991	0.0919014	
-0.429146	-0.25658	0.16876	
-0.386831	-0.3168	0.104097	
-0.323408	-0.220518	0.107073	
0.0975452	0.490393	0.5	
0.124929	0.414525	0.5	
0.042537	0.432039	0.5	
0.0728232	0.494668	0.426459	
-0.214341	0.273759	0	
-0.18644	0.1823	0	
-0.119993	0.246691	0	
-0.170195	0.225746	0.0963396	
-0.437078	-0.242822	0.347009	
-0.47591	-0.153328	0.40763	
-0.440961	-0.235698	0.431431	
-0.354384	-0.194129	0.402587	
0	-0.5	0	
0	-0.5	0.1	
-0.0422582	-0.437473	0	
-0.0698189	-0.495101	0.0723791	
-0.142736	-0.147946	0.384212	
-0.214222	-0.0809482	0.409057	
-0.143954	-0.0664954	0.366375	
-0.203272	-0.117351	0.333128	
-0.434698	-0.247057	0.249501	
-0.470668	-0.168734	0.298219	
-0.437078	-0.242822	0.347009	
-0.352865	-0.168551	0.27433	
-0.112789	0.14207	0.41726	
-0.168013	0.159183	0.440667	
-0.185526	0.120318	0.373769	
-0.15502	0.0902607	0.438606	
0.0975452	-0.490393	0	
0.0704474	-0.495012	0.0718449	
0.125573	-0.41396	0	
0.0404524	-0.41072	0	
0.346509	0.0237889	0	
0.276476	0.0535537	0	
0.314271	-0.0501881	0	
0.268679	-0.0175832	0.0938256	
0.216506	-0.125	0.5	
0.289778	-0.0776457	0.5	
0.259808	-0.15	0.5	
0.273873	-0.116111	0.41418	
-0.216506	-0.125	0.5	
-0.216156	-0.175607	0.5	
-0.259808	-0.15	0.5	
-0.246996	-0.178452	0.424102	
-0.0833019	-0.493012	0.155211	
0	-0.5	0.1	
-0.0698189	-0.495101	0.0723791	
-0.0562672	-0.401453	0.0877238	
0.256554	-0.429162	0.331268	
0.228959	-0.444497	0.408094	
0.31678	-0.386847	0.395869	
0.194286	-0.353827	0.369459	
0.0401436	0.291204	0	
0.133074	0.264097	0	
0.114055	0.374109	0	
0.0793736	0.28635	0.097829	
-0.261345	-0.230036	0	
-0.186407	-0.169451	0	
-0.278713	-0.14304	0	
-0.243673	-0.146253	0.0931104	
-0.437078	-0.242822	0.347009	
-0.440961	-0.235698	0.431431	
-0.386476	-0.317233	0.409527	
-0.354384	-0.194129	0.402587	
-0.211369	-0.0761151	0	
-0.278713	-0.14304	0	
-0.186407	-0.169451	0	
-0.243673	-0.146253	0.0931104	
-0.124938	0.414491	0.5	
-0.147585	0.477722	0.416442	
-0.0975452	0.490393	0.5	
-0.0690566	0.495208	0.430964	
0.31678	-0.386847	0.395869	
0.29185	-0.325871	0.5	
0.353553	-0.353553	0.5	
0.388345	-0.314941	0.420199	
0.201164	-0.273578	0	
0.314857	-0.257449	0	
0.245477	-0.191651	0	
0.251583	-0.28589	0.0896708	
-0.317197	-0.386505	0.431175	
-0.386476	-0.317233	0.409527	
-0.353553	-0.353553	0.5	
-0.325698	-0.286034	0.5	
-0.41072	-0.12459	0	
-0.401548	-0.0423374	0	
-0.490393	-0.0975452	0	
-0.494668	-0.0728232	0.0735406	
-0.110253	-0.0221958	0.5	
-0.0625361	-0.0382385	0.5	
-0.112672	-0.0704426	0.5	
-0.0921341	-0.0472882	0.428822	
-0.31678	0.386847	0.395869	
-0.353553	0.353553	0.5	
-0.388345	0.314941	0.420199	
-0.281262	0.296575	0.411781	
-0.270443	-0.334367	0.5	
-0.317197	-0.386505	0.431175	
-0.353553	-0.353553	0.5	
-0.325698	-0.286034	0.5	
-0.47591	-0.153328	0.40763	
-0.493437	-0.0807477	0.345776	
-0.495012	-0.0704482	0.428155	
-0.387326	-0.108791	0.360005	
0.0690566	-0.495208	0.430964	
0	-0.5	0.4	
0	-0.5	0.5	
0.0431128	-0.437731	0.5	
0.432186	-0.0442266	0.5	
0.490393	-0.0975452	0.5	
0.416563	-0.126305	0.5	
0.495102	-0.0698146	0.4276	
0.135086	0.326126	0.5	
0.124929	0.414525	0.5	
0.195731	0.375572	0.5	
0.117226	0.368857	0.420345	
0.174738	-0.468473	0.317184	
0.228959	-0.444497	0.408094	
0.256554	-0.429162	0.331268	
0.194286	-0.353827	0.369459	
-0.0975452	-0.490393	0.5	
-0.126305	-0.416563	0.5	
-0.0442266	-0.432186	0.5	
-0.0684459	-0.495293	0.431403	
-0.253263	-0.173914	0.276528	
-0.288242	-0.0832951	0.281127	
-0.281583	-0.139061	0.36108	
-0.203272	-0.117351	0.333128	
0.0401436	0.291204	0	
0.0651412	0.200096	0	
0.133074	0.264097	0	
0.0793736	0.28635	0.097829	
0.5	0	0.5	
0.5	0	0.4	
0.437731	0.0431128	0.5	
0.495101	0.0698189	0.427621	
-0.31678	0.386847	0.395869	
-0.388345	0.314941	0.420199	
-0.373696	0.332191	0.334057	
-0.281262	0.296575	0.411781	
0.29185	-0.325871	0.5	
0.334367	-0.270443	0.5	
0.353553	-0.353553	0.5	
0.388345	-0.314941	0.420199	
0.353553	0.353553	0	
0.277785	0.415735	0	
0.261819	0.319027	0	
0.317233	0.386476	0.0904728	
-0.249565	0.273325	0.5	
-0.325943	0.285613	0.5	
-0.270443	0.334367	0.5	
-0.281262	0.296575	0.411781	
0.346509	0.0237889	0	
0.414991	0.0495125	0	
0.337634	0.115561	0	
0.391187	0.0843667	0.0902296	
0.139746	-0.170777	0.5	
0.177945	-0.20787	0.5	
0.125	-0.216506	0.5	
0.165128	-0.182854	0.433186	
-0.490316	0.0979281	0.24092	
-0.493012	0.0833019	0.344789	
-0.5	0	0.3	
-0.406264	0.0467051	0.292816	
-0.237047	0.0201392	0	
-0.16685	0.0883447	0	
-0.257956	0.116321	0	
-0.215195	0.0857371	0.0917705	
-0.490393	-0.0975452	0	
-0.477948	-0.146853	0.0840084	
-0.41072	-0.12459	0	
-0.494668	-0.0728232	0.0735406	
-0.0807376	0.493438	0.154216	
-0.153329	0.47591	0.0923815	
-0.0704474	0.495012	0.0718449	
-0.0809307	0.385403	0.109035	
-0.351551	0.0541915	0.5	
-0.428192	0.000626804	0.5	
-0.419906	0.0889586	0.5	
-0.37885	0.0751067	0.400181	
-0.177196	0.0645246	0.5	
-0.216506	0.125	0.5	
-0.154439	0.124228	0.5	
-0.15502	0.0902607	0.438606	
0.177945	-0.20787	0.5	
0.228406	-0.215902	0.5	
0.2	-0.259808	0.5	
0.213897	-0.237657	0.431435	
-0.172766	-0.209666	0.5	
-0.173205	-0.15	0.5	
-0.13744	-0.178022	0.5	
-0.167688	-0.179794	0.441452	
-0.444481	-0.228991	0.0919014	
-0.415735	-0.277785	0	
-0.46194	-0.191342	0	
-0.356684	-0.19351	0	
0.153328	0.47591	0.0923699	
0.0975452	0.490393	0	
0.191342	0.46194	0	
0.114055	0.374109	0	
-0.191342	-0.46194	0	
-0.0975452	-0.490393	0	
-0.114467	-0.386332	0	
-0.152694	-0.476114	0.0975404	
0.0943468	-0.245334	0	
0.00183684	-0.222331	0	
0.0248177	-0.313374	0	
0.0390368	-0.27687	0.0931397	
-0.067279	0.181403	0.5	
-0.00447954	0.190881	0.5	
-0.0305981	0.141799	0.5	
-0.0473335	0.163087	0.434501	
-0.00654379	0.0500762	0.5	
-0.0081622	-0.0144392	0.5	
-0.0705177	0.0247142	0.5	
-0.0238699	0.0158197	0.434577	
0.0704474	-0.495012	0.0718449	
0.153329	-0.47591	0.0923815	
0.0975452	-0.490393	0	
0.125573	-0.41396	0	
-0.0833019	-0.493012	0.155211	
-0.0698189	-0.495101	0.0723791	
-0.152694	-0.476114	0.0975404	
-0.0562672	-0.401453	0.0877238	
0.414183	0.131147	0	
0.337634	0.115561	0	
0.414991	0.0495125	0	
0.391187	0.0843667	0.0902296	
-0.259073	-0.206972	0.5	
-0.259808	-0.15	0.5	
-0.216156	-0.175607	0.5	
-0.246996	-0.178452	0.424102	
0.314271	-0.0501881	0	
0.276476	0.0535537	0	
0.210156	-0.0147965	0	
0.268679	-0.0175832	0.0938256	
-0.172766	-0.209666	0.5	
-0.13744	-0.178022	0.5	
-0.125	-0.216506	0.5	
-0.167688	-0.179794	0.441452	
0.0807376	-0.493438	0.154216	
0.0853821	-0.492656	0.251348	
0.16873	-0.47067	0.201799	
0.104159	-0.395278	0.16544	
0.155716	-0.12147	0.5	
0.176544	-0.0644028	0.5	
0.216506	-0.125	0.5	
0.182789	-0.109466	0.430518	
-0.118932	0.39861	0	
-0.0975452	0.490393	0	
-0.191342	0.46194	0	
-0.153329	0.47591	0.0923815	
-0.323938	-0.380873	0.347739	
-0.258165	-0.428195	0.298245	
-0.328716	-0.376757	0.253532	
-0.243234	-0.318297	0.307228	
0.478555	0.144862	0.0783483	
0.495293	0.0684459	0.0685965	
0.493389	0.0810399	0.14715	
0.391187	0.0843667	0.0902296	
0.0690566	-0.495208	0.430964	
0.0975452	-0.490393	0.5	
0.130932	-0.431625	0.5	
0.0431128	-0.437731	0.5	
-0.429476	0.256028	0.291579	
-0.471122	0.167464	0.300106	
-0.460762	0.19416	0.234059	
-0.373924	0.17948	0.316585	
0.5	0	0.4	
0.495101	0.0698189	0.427621	
0.493012	0.0833019	0.344789	
0.400259	0.0398147	0.391942	
0.416563	-0.126305	0.5	
0.490393	-0.0975452	0.5	
0.476132	-0.152637	0.402329	
0.495102	-0.0698146	0.4276	
0.373926	0.198925	0	
0.46194	0.191342	0	
0.415735	0.277785	0	
0.436762	0.243391	0.0969381	
-0.259073	-0.206972	0.5	
-0.308042	-0.167631	0.5	
-0.259808	-0.15	0.5	
-0.246996	-0.178452	0.424102	
-0.195731	-0.375572	0.5	
-0.191342	-0.46194	0.5	
-0.277785	-0.415735	0.5	
-0.243391	-0.436762	0.403062	
-0.47591	-0.153328	0.40763	
-0.470668	-0.168734	0.298219	
-0.493437	-0.0807477	0.345776	
-0.387326	-0.108791	0.360005	
-0.0776457	0.289778	0.5	
-0.0712263	0.363482	0.5	
5.51091e-17	0.3	0.5	
-0.0433744	0.307825	0.417357	
-0.415735	-0.277785	0	
-0.353553	-0.353553	0	
-0.331361	-0.272953	0	
-0.386831	-0.3168	0.104097	
0.259808	-0.15	0.5	
0.289778	-0.0776457	0.5	
0.326126	-0.135086	0.5	
0.273873	-0.116111	0.41418	
0.268393	-0.334301	0	
0.314857	-0.257449	0	
0.201164	-0.273578	0	
0.251583	-0.28589	0.0896708	
0.246202	0.043412	0.5	
0.196849	-0.00527115	0.5	
0.175681	0.0639425	0.5	
0.202719	0.0237767	0.420412	
-0.117671	-0.10197	0	
-0.048473	-0.0328568	0	
-0.142648	-0.00714059	0	
-0.0957928	-0.0529556	0.0773873	
-0.495012	-0.0704482	0.428155	
-0.5	0	0.4	
-0.5	0	0.5	
-0.428192	0.000626804	0.5	
0.270443	0.334367	0.5	
0.277785	0.415735	0.5	
0.353553	0.353553	0.5	
0.3168	0.386831	0.395903	
-0.270443	0.334367	0.5	
-0.353553	0.353553	0.5	
-0.277785	0.415735	0.5	
-0.31678	0.386847	0.395869	
-0.5	0	0.5	
-0.5	0	0.4	
-0.495102	0.0698146	0.4276	
-0.428192	0.000626804	0.5	
0.0975452	0.490393	0.5	
0.124929	0.414525	0.5	
0.0728232	0.494668	0.426459	
0.146853	0.477948	0.415992	
0.153329	-0.47591	0.0923815	
0.0807376	-0.493438	0.154216	
0.16873	-0.47067	0.201799	
0.104159	-0.395278	0.16544	
-0.191342	0.46194	0.5	
-0.277785	0.415735	0.5	
-0.228959	0.444497	0.408094	
-0.195731	0.375572	0.5	
0.195731	0.375572	0.5	
0.191342	0.46194	0.5	
0.277785	0.415735	0.5	
0.228991	0.444481	0.408099	
0.471122	-0.167464	0.300106	
0.460762	-0.19416	0.234059	
0.429476	-0.256028	0.291579	
0.373857	-0.180895	0.313411	
0.495208	-0.0690617	0.0692099	
0.5	0	0	
0.490393	-0.0975452	0	
0.409478	-0.032947	0	
0.203679	-0.368672	0.5	
0.277785	-0.415735	0.5	
0.191342	-0.46194	0.5	
0.228959	-0.444497	0.408094	
0.380207	-0.19708	0	
0.415735	-0.277785	0	
0.46194	-0.191342	0	
0.436811	-0.243302	0.0936268	
-0.46194	0.191342	0.5	
-0.490393	0.0975452	0.5	
-0.476132	0.152637	0.402329	
-0.419906	0.0889586	0.5	
-0.401548	-0.0423374	0	
-0.5	0	0	
-0.490393	-0.0975452	0	
-0.494668	-0.0728232	0.0735406	
0.437731	0.0431128	0.5	
0.431625	0.130932	0.5	
0.490393	0.0975452	0.5	
0.495101	0.0698189	0.427621	
-0.126305	-0.416563	0.5	
-0.0975452	-0.490393	0.5	
-0.144862	-0.478555	0.421652	
-0.0684459	-0.495293	0.431403	
0.191342	-0.46194	0	
0.0975452	-0.490393	0	
0.153329	-0.47591	0.0923815	
0.125573	-0.41396	0	
-0.450312	0.217299	0.354112	
-0.471122	0.167464	0.300106	
-0.429476	0.256028	0.291579	
-0.373924	0.17948	0.316585	
-0.351551	0.0541915	0.5	
-0.419906	0.0889586	0.5	
-0.368394	0.141973	0.5	
-0.37885	0.0751067	0.400181	
0.415735	-0.277785	0.5	
0.46194	-0.191342	0.5	
0.439384	-0.238625	0.423358	
0.375572	-0.195731	0.5	
-0.317131	0.386559	0.0881616	
-0.353553	0.353553	0	
-0.277785	0.415735	0	
-0.273315	0.334955	0	
-0.495102	0.0698146	0.4276	
-0.476132	0.152637	0.402329	
-0.490393	0.0975452	0.5	
-0.419906	0.0889586	0.5	
0.261819	0.319027	0	
0.189613	0.313662	0	
0.231243	0.24169	0	
0.227449	0.293019	0.0951933	
-0.147585	0.477722	0.416442	
-0.0975452	0.490393	0.5	
-0.191342	0.46194	0.5	
-0.124938	0.414491	0.5	
0.414991	0.0495125	0	
0.5	0	0	
0.490393	0.0975452	0	
0.495293	0.0684459	0.0685965	
0.476132	-0.152637	0.402329	
0.46194	-0.191342	0.5	
0.490393	-0.0975452	0.5	
0.416563	-0.126305	0.5	
-0.177196	0.0645246	0.5	
-0.154439	0.124228	0.5	
-0.113894	0.0780637	0.5	
-0.15502	0.0902607	0.438606	
0.277785	-0.415735	0	
0.353553	-0.353553	0	
0.268393	-0.334301	0	
0.317131	-0.386559	0.0881616	
-0.364062	-0.132817	0.5	
-0.308042	-0.167631	0.5	
-0.363128	-0.216258	0.5	
-0.354384	-0.194129	0.402587	
5.51091e-17	0.3	0.5	
-0.043412	0.246202	0.5	
-0.0776457	0.289778	0.5	
-0.0433744	0.307825	0.417357	
0.450312	-0.217299	0.354112	
0.471122	-0.167464	0.300106	
0.429476	-0.256028	0.291579	
0.373857	-0.180895	0.313411	
0.460762	-0.19416	0.234059	
0.469621	-0.171627	0.160116	
0.428104	-0.258315	0.196896	
0.375867	-0.158621	0.196853	
-0.46194	-0.191342	0	
-0.490393	-0.0975452	0	
-0.477948	-0.146853	0.0840084	
-0.41072	-0.12459	0	
0.0704474	-0.495012	0.0718449	
0.0975452	-0.490393	0	
0	-0.5	0	
0.0404524	-0.41072	0	
0.353553	-0.353553	0.5	
0.277785	-0.415735	0.5	
0.29185	-0.325871	0.5	
0.31678	-0.386847	0.395869	
-0.0422582	-0.437473	0	
-0.0328721	-0.370689	0	
-0.114467	-0.386332	0	
-0.0562672	-0.401453	0.0877238	
-0.315029	-0.388274	0.0791933	
-0.277785	-0.415735	0	
-0.353553	-0.353553	0	
-0.263582	-0.319413	0	
0	0.5	0	
-0.0975452	0.490393	0	
-0.0372406	0.417791	0	
-0.0704474	0.495012	0.0718449	
0.0690566	-0.495208	0.430964	
0.130932	-0.431625	0.5	
0.0975452	-0.490393	0.5	
0.147585	-0.477722	0.416442	
-0.415735	0.277785	0.5	
-0.46194	0.191342	0.5	
-0.439384	0.238625	0.423358	
-0.363589	0.21739	0.5	
0.135086	0.326126	0.5	
0.0712263	0.363482	0.5	
0.124929	0.414525	0.5	
0.117226	0.368857	0.420345	
-0.389036	0.207425	0	
-0.415735	0.277785	0	
-0.46194	0.191342	0	
-0.436811	0.243302	0.0936268	
0.432186	-0.0442266	0.5	
0.366186	-0.0790357	0.5	
0.363012	-0.0152603	0.5	
0.392021	-0.0480463	0.41747	
0.124929	0.414525	0.5	
0.0975452	0.490393	0.5	
0.191342	0.46194	0.5	
0.146853	0.477948	0.415992	
-0.46194	-0.191342	0.5	
-0.490393	-0.0975452	0.5	
-0.419906	-0.0889586	0.5	
-0.47591	-0.153328	0.40763	
-0.238488	-0.439458	0.0756919	
-0.191342	-0.46194	0	
-0.277785	-0.415735	0	
-0.203173	-0.373024	0	
0.415735	-0.277785	0	
0.353553	-0.353553	0	
0.385896	-0.317937	0.065638	
0.314857	-0.257449	0	
-0.495012	-0.0704482	0.428155	
-0.419906	-0.0889586	0.5	
-0.490393	-0.0975452	0.5	
-0.47591	-0.153328	0.40763	
-0.415735	0.277785	0	
-0.353553	0.353553	0	
-0.385896	0.317937	0.065638	
-0.318983	0.261743	0	
-0.495012	-0.0704482	0.428155	
-0.5	0	0.5	
-0.490393	-0.0975452	0.5	
-0.428192	0.000626804	0.5	
0.191342	-0.46194	0	
0.277785	-0.415735	0	
0.194604	-0.371188	0	
0.235698	-0.440961	0.0686036	
-0.495102	0.0698146	0.4276	
-0.490393	0.0975452	0.5	
-0.5	0	0.5	
-0.428192	0.000626804	0.5	
0.394936	-0.119803	0	
0.46194	-0.191342	0	
0.490393	-0.0975452	0	
0.478516	-0.14499	0.0762896	
0.495101	0.0698189	0.427621	
0.431625	0.130932	0.5	
0.490393	0.0975452	0.5	
0.476114	0.152694	0.40246	
0.334367	-0.270443	0.5	
0.415735	-0.277785	0.5	
0.353553	-0.353553	0.5	
0.388345	-0.314941	0.420199	
-0.117671	-0.10197	0	
-0.186407	-0.169451	0	
-0.0925337	-0.196451	0	
-0.127253	-0.156126	0.0844713	
-0.201912	0.369986	0	
-0.191342	0.46194	0	
-0.277785	0.415735	0	
-0.235698	0.440961	0.0686036	
-0.0690566	0.495208	0.430964	
0	0.5	0.5	
-0.0975452	0.490393	0.5	
-0.0426444	0.431636	0.5	
-0.426463	0.0441363	0	
-0.490393	0.0975452	0	
-0.5	0	0	
-0.495208	0.0690617	0.0692099	
0.439458	0.238488	0.424308	
0.46194	0.191342	0.5	
0.415735	0.277785	0.5	
0.369217	0.203769	0.5	
-0.490393	-0.0975452	0.5	
-0.419906	-0.0889586	0.5	
-0.495012	-0.0704482	0.428155	
-0.428192	0.000626804	0.5	
-0.428192	0.000626804	0.5	
-0.495102	0.0698146	0.4276	
-0.490393	0.0975452	0.5	
-0.419906	0.0889586	0.5	
-0.415735	-0.277785	0.5	
-0.353553	-0.353553	0.5	
-0.386476	-0.317233	0.409527	
-0.325698	-0.286034	0.5	
0	0.5	0.5	
0.0975452	0.490393	0.5	
0.042537	0.432039	0.5	
0.0728232	0.494668	0.426459	
-0.388345	0.314941	0.420199	
-0.353553	0.353553	0.5	
-0.415735	0.277785	0.5	
-0.325943	0.285613	0.5	
-0.404541	0.126945	0	
-0.46194	0.191342	0	
-0.490393	0.0975452	0	
-0.478516	0.14499	0.0762896	
0.431625	0.130932	0.5	
0.46194	0.191342	0.5	
0.490393	0.0975452	0.5	
0.476114	0.152694	0.40246	
0.130932	-0.431625	0.5	
0.191342	-0.46194	0.5	
0.0975452	-0.490393	0.5	
0.147585	-0.477722	0.416442	
0.478555	0.144862	0.0783483	
0.46194	0.191342	0	
0.490393	0.0975452	0	
0.414183	0.131147	0	
0	0.5	0	
0.0975452	0.490393	0	
0.0704482	0.495012	0.0718447	
0.0420691	0.427134	0	
0.5	0	0.5	
0.490393	-0.0975452	0.5	
0.432186	-0.0442266	0.5	
0.495102	-0.0698146	0.4276	
0.328092	0.270243	0	
0.415735	0.277785	0	
0.353553	0.353553	0	
0.386505	0.317197	0.0688254	
0.0690566	-0.495208	0.430964	
0	-0.5	0.5	
0.0975452	-0.490393	0.5	
0.0431128	-0.437731	0.5	
-0.0422582	-0.437473	0	
-0.0975452	-0.490393	0	
0	-0.5	0	
-0.0698189	-0.495101	0.0723791	
-0.0442266	-0.432186	0.5	
0	-0.5	0.5	
-0.0975452	-0.490393	0.5	
-0.0684459	-0.495293	0.431403	
-0.317197	-0.386505	0.431175	
-0.353553	-0.353553	0.5	
-0.277785	-0.415735	0.5	
-0.270443	-0.334367	0.5	
0.325794	0.291996	0.5	
0.353553	0.353553	0.5	
0.415735	0.277785	0.5	
0.388274	0.315029	0.420807	
0.437731	0.0431128	0.5	
0.490393	0.0975452	0.5	
0.5	0	0.5	
0.495101	0.0698189	0.427621	
0.235698	0.440961	0.068569	
0.191342	0.46194	0	
0.277785	0.415735	0	
0.202324	0.378521	0	
-0.440961	-0.235698	0.431431	
-0.46194	-0.191342	0.5	
-0.415735	-0.277785	0.5	
-0.363128	-0.216258	0.5	
-0.191342	-0.46194	0.5	
-0.0975452	-0.490393	0.5	
-0.144862	-0.478555	0.421652	
-0.126305	-0.416563	0.5	
-0.0809307	0.385403	0.109035	
0.0420691	0.427134	0	
0.0153159	0.363557	0	
-0.0372406	0.417791	0	
-0.0809307	0.385403	0.109035	
0.0153159	0.363557	0	
0.0420691	0.427134	0	
0.0214814	0.353326	0.153644	
-0.323408	-0.220518	0.107073	
-0.352865	-0.168551	0.27433	
-0.468495	-0.174678	0.182891	
-0.429146	-0.25658	0.16876	
-0.323408	-0.220518	0.107073	
-0.468495	-0.174678	0.182891	
-0.352865	-0.168551	0.27433	
-0.283975	-0.144274	0.184102	
-0.10857	-0.188319	0.218241	
-0.0599463	-0.0498399	0.20415	
-0.171623	-0.128704	0.255156	
-0.0509221	-0.120838	0.250106	
-0.171623	-0.128704	0.255156	
-0.0599463	-0.0498399	0.20415	
-0.10857	-0.188319	0.218241	
-0.152331	-0.0811942	0.14549	
0.27082	0.0310537	0.205694	
0.163856	-0.062131	0.265284	
0.172939	0.0245765	0.250039	
0.189715	-0.00503075	0.168338	
0.27082	0.0310537	0.205694	
0.172939	0.0245765	0.250039	
0.163856	-0.062131	0.265284	
0.264667	-0.00226535	0.295846	
0.213897	-0.237657	0.431435	
0.304695	-0.194694	0.5	
0.236451	-0.193336	0.377474	
0.260383	-0.192244	0.5	
0.213897	-0.237657	0.431435	
0.236451	-0.193336	0.377474	
0.304695	-0.194694	0.5	
0.340228	-0.209884	0.396212	
0.273873	-0.116111	0.41418	
0.236451	-0.193336	0.377474	
0.304695	-0.194694	0.5	
0.260383	-0.192244	0.5	
0.273873	-0.116111	0.41418	
0.304695	-0.194694	0.5	
0.236451	-0.193336	0.377474	
0.340228	-0.209884	0.396212	
0.182789	-0.109466	0.430518	
0.0966642	-0.131711	0.5	
0.165128	-0.182854	0.433186	
0.155716	-0.12147	0.5	
0.182789	-0.109466	0.430518	
0.165128	-0.182854	0.433186	
0.0966642	-0.131711	0.5	
0.128497	-0.139894	0.387724	
-0.214222	-0.0809482	0.409057	
-0.196783	0.00504363	0.5	
-0.259226	0.03952	0.402729	
-0.246202	-0.043412	0.5	
-0.214222	-0.0809482	0.409057	
-0.259226	0.03952	0.402729	
-0.196783	0.00504363	0.5	
-0.166197	0.012686	0.395566	
-0.0776457	-0.289778	0.5	
-0.0295129	-0.397696	0.405297	
-0.0152603	-0.363012	0.5	
-0.0790357	-0.366186	0.5	
-0.0152603	-0.363012	0.5	
-0.0295129	-0.397696	0.405297	
-0.0776457	-0.289778	0.5	
0.000597841	-0.287345	0.400747	
-0.168013	0.159183	0.440667	
-0.0948532	0.245573	0.374875	
-0.125784	0.172859	0.335584	
-0.1997	0.206062	0.414424	
-0.168013	0.159183	0.440667	
-0.125784	0.172859	0.335584	
-0.0948532	0.245573	0.374875	
-0.112789	0.14207	0.41726	
0.392021	-0.0480463	0.41747	
0.326126	-0.135086	0.5	
0.273873	-0.116111	0.41418	
0.347622	-0.102783	0.358549	
0.392021	-0.0480463	0.41747	
0.273873	-0.116111	0.41418	
0.326126	-0.135086	0.5	
0.366186	-0.0790357	0.5	
0.0390368	-0.27687	0.0931397	
0.104159	-0.395278	0.16544	
0.112799	-0.33356	0	
0.162218	-0.333858	0.109166	
0.112799	-0.33356	0	
0.104159	-0.395278	0.16544	
0.0390368	-0.27687	0.0931397	
0.0130711	-0.359241	0.13871	
0.130242	0.253849	0.414889	
0.118461	0.161044	0.5	
0.0594834	0.18279	0.5	
0.096294	0.191774	0.363276	
0.130242	0.253849	0.414889	
0.0594834	0.18279	0.5	
0.118461	0.161044	0.5	
0.125	0.216506	0.5	
-0.373696	0.332191	0.334057	
-0.234922	0.307887	0.237464	
-0.377032	0.3284	0.243217	
-0.317163	0.386533	0.299742	
-0.377032	0.3284	0.243217	
-0.234922	0.307887	0.237464	
-0.373696	0.332191	0.334057	
-0.304187	0.215745	0.266633	
-0.114496	0.199368	0.185093	
0.0266006	0.259074	0.200021	
-0.0198097	0.25642	0.112647	
-0.115841	0.288513	0.162892	
-0.114496	0.199368	0.185093	
-0.0198097	0.25642	0.112647	
0.0266006	0.259074	0.200021	
-0.0259622	0.175651	0.191483	
-0.243234	-0.318297	0.307228	
-0.107964	-0.347419	0.364155	
-0.171353	-0.469721	0.338334	
-0.162023	-0.339511	0.25028	
-0.243234	-0.318297	0.307228	
-0.171353	-0.469721	0.338334	
-0.107964	-0.347419	0.364155	
-0.206938	-0.33712	0.400053	
0.308042	0.167631	0.5	
0.228063	0.102246	0.400094	
0.289778	0.0776457	0.5	
0.259808	0.15	0.5	
0.289778	0.0776457	0.5	
0.228063	0.102246	0.400094	
0.308042	0.167631	0.5	
0.324629	0.108316	0.364447	
-0.0599463	-0.0498399	0.20415	
-0.104233	0.0522254	0.274426	
-0.169854	0.0238988	0.185748	
-0.115691	-0.0468978	0.268322	
-0.0599463	-0.0498399	0.20415	
-0.169854	0.0238988	0.185748	
-0.104233	0.0522254	0.274426	
-0.0573721	0.0334812	0.170638	
-0.201912	0.369986	0	
-0.0809307	0.385403	0.109035	
-0.138674	0.323797	0	
-0.118932	0.39861	0	
-0.138674	0.323797	0	
-0.0809307	0.385403	0.109035	
-0.201912	0.369986	0	
-0.213184	0.322526	0.106779	
-0.206938	-0.33712	0.400053	
-0.15	-0.259808	0.5	
-0.107964	-0.347419	0.364155	
-0.188087	-0.23341	0.408968	
-0.206938	-0.33712	0.400053	
-0.107964	-0.347419	0.364155	
-0.15	-0.259808	0.5	
-0.135086	-0.326126	0.5	
-0.0829946	-0.232421	0.403465	
-0.107964	-0.347419	0.364155	
-0.15	-0.259808	0.5	
-0.188087	-0.23341	0.408968	
-0.0829946	-0.232421	0.403465	
-0.15	-0.259808	0.5	
-0.107964	-0.347419	0.364155	
-0.135086	-0.326126	0.5	
0.233262	0.310813	0.267062	
0.227449	0.293019	0.0951933	
0.12288	0.243768	0.182957	
0.145858	0.357927	0.135369	
0.12288	0.243768	0.182957	
0.227449	0.293019	0.0951933	
0.233262	0.310813	0.267062	
0.266139	0.241799	0.177649	
-0.0433744	0.307825	0.417357	
-0.132465	0.342544	0.286862	
-0.173891	0.340446	0.398741	
-0.073553	0.38985	0.391066	
-0.0433744	0.307825	0.417357	
-0.173891	0.340446	0.398741	
-0.132465	0.342544	0.286862	
-0.0948532	0.245573	0.374875	
0.273873	-0.116111	0.41418	
0.260383	-0.192244	0.5	
0.221044	-0.17499	0.5	
0.236451	-0.193336	0.377474	
0.273873	-0.116111	0.41418	
0.221044	-0.17499	0.5	
0.260383	-0.192244	0.5	
0.259808	-0.15	0.5	
-0.0510822	-0.382345	0.237039	
-0.171353	-0.469721	0.338334	
-0.0810399	-0.493389	0.35285	
-0.107964	-0.347419	0.364155	
-0.0510822	-0.382345	0.237039	
-0.0810399	-0.493389	0.35285	
-0.171353	-0.469721	0.338334	
-0.0977967	-0.490343	0.258774	
-0.385896	0.317937	0.065638	
-0.273315	0.334955	0	
-0.213184	0.322526	0.106779	
-0.318983	0.261743	0	
-0.213184	0.322526	0.106779	
-0.273315	0.334955	0	
-0.385896	0.317937	0.065638	
-0.317131	0.386559	0.0881616	
0.00560742	0.0907829	0.203832	
0.0884767	-0.000375704	0.258795	
0.0694446	0.0614041	0.127763	
0.07775	0.0966917	0.259619	
0.00560742	0.0907829	0.203832	
0.0694446	0.0614041	0.127763	
0.0884767	-0.000375704	0.258795	
0.0244504	-0.00702123	0.176751	
0.0645865	-0.210943	0.409687	
0.15	-0.259808	0.5	
0.165128	-0.182854	0.433186	
0.125	-0.216506	0.5	
0.0645865	-0.210943	0.409687	
0.165128	-0.182854	0.433186	
0.15	-0.259808	0.5	
0.128689	-0.272515	0.368277	
0.102443	0.0227629	0.419717	
0.00473146	-0.0477129	0.410326	
0.0682711	-0.052186	0.339077	
0.0936941	-0.0576924	0.420616	
0.102443	0.0227629	0.419717	
0.0682711	-0.052186	0.339077	
0.00473146	-0.0477129	0.410326	
0.0293798	0.0426018	0.391106	
0.104159	-0.395278	0.16544	
0.0390368	-0.27687	0.0931397	
0.0486433	-0.215998	0.178276	
0.155319	-0.32739	0.22804	
0.0486433	-0.215998	0.178276	
0.0390368	-0.27687	0.0931397	
0.104159	-0.395278	0.16544	
0.0130711	-0.359241	0.13871	
0.0486433	-0.215998	0.178276	
-0.00981402	-0.289236	0.206945	
0.104159	-0.395278	0.16544	
0.155319	-0.32739	0.22804	
0.104159	-0.395278	0.16544	
-0.00981402	-0.289236	0.206945	
0.0486433	-0.215998	0.178276	
0.0130711	-0.359241	0.13871	
-0.288242	-0.0832951	0.281127	
-0.214222	-0.0809482	0.409057	
-0.203272	-0.117351	0.333128	
-0.212951	-0.0278954	0.307934	
-0.288242	-0.0832951	0.281127	
-0.203272	-0.117351	0.333128	
-0.214222	-0.0809482	0.409057	
-0.281583	-0.139061	0.36108	
-0.387326	-0.108791	0.360005	
-0.5	0	0.3	
-0.34365	-0.0208645	0.382522	
-0.406264	0.0467051	0.292816	
-0.387326	-0.108791	0.360005	
-0.34365	-0.0208645	0.382522	
-0.5	0	0.3	
-0.493437	-0.0807477	0.345776	
-0.5	0	0.4	
-0.34365	-0.0208645	0.382522	
-0.5	0	0.3	
-0.406264	0.0467051	0.292816	
-0.5	0	0.4	
-0.5	0	0.3	
-0.34365	-0.0208645	0.382522	
-0.493437	-0.0807477	0.345776	
-0.0921341	-0.0472882	0.428822	
-0.13896	0.0197163	0.5	
-0.166581	-0.0467287	0.5	
-0.110253	-0.0221958	0.5	
-0.0921341	-0.0472882	0.428822	
-0.166581	-0.0467287	0.5	
-0.13896	0.0197163	0.5	
-0.166197	0.012686	0.395566	
-0.234922	0.307887	0.237464	
-0.38078	0.324048	0.150149	
-0.213184	0.322526	0.106779	
-0.259032	0.225769	0.154918	
-0.234922	0.307887	0.237464	
-0.213184	0.322526	0.106779	
-0.38078	0.324048	0.150149	
-0.317319	0.386405	0.201487	
0.392021	-0.0480463	0.41747	
0.5	0	0.3	
0.5	0	0.4	
0.493012	-0.0833019	0.344789	
0.392021	-0.0480463	0.41747	
0.5	0	0.4	
0.5	0	0.3	
0.400259	0.0398147	0.391942	
0.202719	0.0237767	0.420412	
0.176544	-0.0644028	0.5	
0.246202	-0.043412	0.5	
0.196849	-0.00527115	0.5	
0.202719	0.0237767	0.420412	
0.246202	-0.043412	0.5	
0.176544	-0.0644028	0.5	
0.209772	-0.0539676	0.386967	
0.130242	0.253849	0.414889	
0.169426	0.205971	0.5	
0.118461	0.161044	0.5	
0.199563	0.20121	0.405215	
0.130242	0.253849	0.414889	
0.118461	0.161044	0.5	
0.169426	0.205971	0.5	
0.125	0.216506	0.5	
-0.0562672	-0.401453	0.0877238	
-0.0974804	-0.267818	0.168751	
-0.0510822	-0.382345	0.237039	
0.0130711	-0.359241	0.13871	
-0.0562672	-0.401453	0.0877238	
-0.0510822	-0.382345	0.237039	
-0.0974804	-0.267818	0.168751	
-0.1449	-0.36257	0.121022	
-0.167688	-0.179794	0.441452	
-0.0688906	-0.12049	0.417622	
-0.149626	-0.106257	0.5	
-0.113226	-0.140086	0.5	
-0.167688	-0.179794	0.441452	
-0.149626	-0.106257	0.5	
-0.0688906	-0.12049	0.417622	
-0.142736	-0.147946	0.384212	
0.249365	-0.119116	0.299613	
0.14698	-0.0404502	0.339975	
0.264667	-0.00226535	0.295846	
0.163856	-0.062131	0.265284	
0.264667	-0.00226535	0.295846	
0.14698	-0.0404502	0.339975	
0.249365	-0.119116	0.299613	
0.209772	-0.0539676	0.386967	
0.379606	0.0327687	0.28854	
0.490316	-0.0979281	0.24092	
0.493012	-0.0833019	0.344789	
0.34942	-0.0723305	0.238193	
0.379606	0.0327687	0.28854	
0.493012	-0.0833019	0.344789	
0.490316	-0.0979281	0.24092	
0.5	0	0.3	
0.228063	0.102246	0.400094	
0.216156	0.175607	0.5	
0.169238	0.138503	0.5	
0.216506	0.125	0.5	
0.228063	0.102246	0.400094	
0.169238	0.138503	0.5	
0.216156	0.175607	0.5	
0.199563	0.20121	0.405215	
0.227664	-0.175808	0.20875	
0.375867	-0.158621	0.196853	
0.34942	-0.0723305	0.238193	
0.304682	-0.199557	0.252634	
0.34942	-0.0723305	0.238193	
0.375867	-0.158621	0.196853	
0.227664	-0.175808	0.20875	
0.254347	-0.100565	0.163493	
0.34942	-0.0723305	0.238193	
0.249365	-0.119116	0.299613	
0.227664	-0.175808	0.20875	
0.304682	-0.199557	0.252634	
0.227664	-0.175808	0.20875	
0.249365	-0.119116	0.299613	
0.34942	-0.0723305	0.238193	
0.254347	-0.100565	0.163493	
0.436762	0.243391	0.0969381	
0.328092	0.270243	0	
0.415735	0.277785	0	
0.373926	0.198925	0	
0.436762	0.243391	0.0969381	
0.415735	0.277785	0	
0.328092	0.270243	0	
0.386505	0.317197	0.0688254	
0.0785134	0.0464455	0.325494	
0.186062	0.10988	0.269638	
0.162344	0.134607	0.350934	
0.155785	0.045673	0.353105	
0.0785134	0.0464455	0.325494	
0.162344	0.134607	0.350934	
0.186062	0.10988	0.269638	
0.07775	0.0966917	0.259619	
-0.15502	0.0902607	0.438606	
-0.246202	0.043412	0.5	
-0.166197	0.012686	0.395566	
-0.177196	0.0645246	0.5	
-0.15502	0.0902607	0.438606	
-0.166197	0.012686	0.395566	
-0.246202	0.043412	0.5	
-0.259226	0.03952	0.402729	
-0.196783	0.00504363	0.5	
-0.166197	0.012686	0.395566	
-0.246202	0.043412	0.5	
-0.177196	0.0645246	0.5	
-0.196783	0.00504363	0.5	
-0.246202	0.043412	0.5	
-0.166197	0.012686	0.395566	
-0.259226	0.03952	0.402729	
0.172939	0.0245765	0.250039	
0.276243	0.0902748	0.286189	
0.155785	0.045673	0.353105	
0.264667	-0.00226535	0.295846	
0.155785	0.045673	0.353105	
0.276243	0.0902748	0.286189	
0.172939	0.0245765	0.250039	
0.186062	0.10988	0.269638	
0.0266006	0.259074	0.200021	
0.000988831	0.396472	0.255648	
-0.0810467	0.370121	0.206864	
-0.00455509	0.289048	0.289048	
0.0266006	0.259074	0.200021	
-0.0810467	0.370121	0.206864	
0.000988831	0.396472	0.255648	
0.0214814	0.353326	0.153644	
0.328092	0.270243	0	
0.317233	0.386476	0.0904728	
0.353553	0.353553	0	
0.261819	0.319027	0	
0.353553	0.353553	0	
0.317233	0.386476	0.0904728	
0.328092	0.270243	0	
0.386505	0.317197	0.0688254	
-0.281262	0.296575	0.411781	
-0.228959	0.444497	0.408094	
-0.256554	0.429162	0.331268	
-0.31678	0.386847	0.395869	
-0.281262	0.296575	0.411781	
-0.256554	0.429162	0.331268	
-0.228959	0.444497	0.408094	
-0.173891	0.340446	0.398741	
-0.153329	0.47591	0.0923815	
-0.201912	0.369986	0	
-0.191342	0.46194	0	
-0.118932	0.39861	0	
-0.153329	0.47591	0.0923815	
-0.191342	0.46194	0	
-0.201912	0.369986	0	
-0.235698	0.440961	0.0686036	
-0.00981402	-0.289236	0.206945	
-0.10857	-0.188319	0.218241	
-0.0369979	-0.193764	0.104577	
-0.0974804	-0.267818	0.168751	
-0.00981402	-0.289236	0.206945	
-0.0369979	-0.193764	0.104577	
-0.10857	-0.188319	0.218241	
-0.00830008	-0.198671	0.244345	
0.289778	-0.0776457	0.5	
0.392021	-0.0480463	0.41747	
0.363012	-0.0152603	0.5	
0.366186	-0.0790357	0.5	
0.363012	-0.0152603	0.5	
0.392021	-0.0480463	0.41747	
0.289778	-0.0776457	0.5	
0.307169	-0.0101791	0.393725	
0.162344	0.134607	0.350934	
0.276243	0.0902748	0.286189	
0.155785	0.045673	0.353105	
0.186062	0.10988	0.269638	
0.155785	0.045673	0.353105	
0.276243	0.0902748	0.286189	
0.162344	0.134607	0.350934	
0.228063	0.102246	0.400094	
0.125573	-0.41396	0	
0.235698	-0.440961	0.0686036	
0.162218	-0.333858	0.109166	
0.153329	-0.47591	0.0923815	
0.125573	-0.41396	0	
0.162218	-0.333858	0.109166	
0.235698	-0.440961	0.0686036	
0.194604	-0.371188	0	
0.375572	-0.195731	0.5	
0.476132	-0.152637	0.402329	
0.46194	-0.191342	0.5	
0.439384	-0.238625	0.423358	
0.375572	-0.195731	0.5	
0.46194	-0.191342	0.5	
0.476132	-0.152637	0.402329	
0.416563	-0.126305	0.5	
-0.167688	-0.179794	0.441452	
-0.15	-0.259808	0.5	
-0.0829946	-0.232421	0.403465	
-0.125	-0.216506	0.5	
-0.167688	-0.179794	0.441452	
-0.0829946	-0.232421	0.403465	
-0.15	-0.259808	0.5	
-0.188087	-0.23341	0.408968	
-0.354384	-0.194129	0.402587	
-0.46194	-0.191342	0.5	
-0.363128	-0.216258	0.5	
-0.364062	-0.132817	0.5	
-0.354384	-0.194129	0.402587	
-0.363128	-0.216258	0.5	
-0.46194	-0.191342	0.5	
-0.440961	-0.235698	0.431431	
-0.0562672	-0.401453	0.0877238	
-0.0975452	-0.490393	0	
-0.152694	-0.476114	0.0975404	
-0.114467	-0.386332	0	
-0.0562672	-0.401453	0.0877238	
-0.152694	-0.476114	0.0975404	
-0.0975452	-0.490393	0	
-0.0698189	-0.495101	0.0723791	
0.236451	-0.193336	0.622526	
0.128497	-0.139894	0.612276	
0.165128	-0.182854	0.724456	
0.249893	-0.118387	0.700681	
0.128497	-0.139894	0.612276	
0.165128	-0.182854	0.724456	
0.249893	-0.118387	0.700681	
0.118003	-0.110167	0.68636	
0.165128	-0.182854	0.724456	
0.185145	-0.220341	0.859684	
0.304977	-0.200047	0.747623	
0.165332	-0.129906	0.808096	
0.119174	0.287711	0.637668	
0.102331	0.345115	0.749287	
0.0704936	0.198592	0.689629	
0.148721	0.172259	0.753766	
-0.232531	-0.00520461	0.629061	
-0.303266	-0.0059886	0.701726	
-0.161265	-0.08127	0.716218	
-0.179806	-0.00389189	0.693003	
-0.120471	0.3509	0.721125	
-0.220027	0.322099	0.738771	
-0.115841	0.288513	0.837108	
-0.202396	0.33987	0.890246	
-0.108579	-0.348279	0.636398	
-0.221522	-0.316483	0.612387	
-0.217356	-0.450285	0.644698	
-0.162672	-0.339378	0.750157	
-0.00455509	0.289048	0.710952	
0.0271447	0.258379	0.801291	
-0.115841	0.288513	0.837108	
-0.0614757	0.232646	0.751575	
0.0565057	-0.147787	0.722206	
0.103299	-0.191976	0.670856	
0.0543934	-0.098021	0.585709	
0.118003	-0.110167	0.68636	
-0.00915007	-0.159584	0.629557	
0.0543934	-0.098021	0.585709	
0.0565057	-0.147787	0.722206	
0.103299	-0.191976	0.670856	
0.0543934	-0.098021	0.585709	
0.103299	-0.191976	0.670856	
0.128497	-0.139894	0.612276	
0.118003	-0.110167	0.68636	
0.236451	-0.193336	0.622526	
0.128497	-0.139894	0.612276	
0.249893	-0.118387	0.700681	
0.212248	-0.110857	0.594534	
-0.249565	0.273325	0.5	
-0.1997	0.206062	0.577949	
-0.192123	0.259903	0.5	
-0.285935	0.290775	0.588479	
-0.222708	0.258636	0.655001	
-0.0973459	0.263913	0.624876	
-0.159007	0.150563	0.6241	
-0.1997	0.206062	0.577949	
0.165128	-0.182854	0.724456	
0.304977	-0.200047	0.747623	
0.249893	-0.118387	0.700681	
0.165332	-0.129906	0.808096	
0.236451	-0.193336	0.622526	
0.128497	-0.139894	0.612276	
0.165128	-0.182854	0.566814	
0.103299	-0.191976	0.670856	
-0.00455509	0.289048	0.710952	
0.0206391	0.354311	0.845617	
-0.115841	0.288513	0.837108	
0.0271447	0.258379	0.801291	
-0.351812	-0.111075	0.861116	
-0.307152	-0.222724	0.726676	
-0.24957	-0.20227	0.837053	
-0.328462	-0.228271	0.903506	
0.092572	-0.0674004	0.832552	
0.0565057	-0.147787	0.722206	
0.0486433	-0.215998	0.821724	
0.0259112	-0.0811505	0.774009	
0.165128	-0.182854	0.724456	
0.0565057	-0.147787	0.722206	
0.0486433	-0.215998	0.821724	
0.165332	-0.129906	0.808096	
-0.1997	0.206062	0.577949	
-0.1727	0.337134	0.60049	
-0.192123	0.259903	0.5	
-0.285935	0.290775	0.588479	
-0.115841	0.288513	0.837108	
0.0206391	0.354311	0.845617	
-0.00455509	0.289048	0.710952	
-0.0187025	0.397023	0.746774	
-0.15	0.259808	0.5	
-0.192123	0.259903	0.5	
-0.1997	0.206062	0.577949	
-0.1727	0.337134	0.60049	
0.0486433	-0.215998	0.821724	
0.0565057	-0.147787	0.722206	
0.092572	-0.0674004	0.832552	
0.165332	-0.129906	0.808096	
0.249893	-0.118387	0.700681	
0.212248	-0.110857	0.594534	
0.128497	-0.139894	0.612276	
0.118003	-0.110167	0.68636	
0.07775	0.0966917	0.740381	
0.0653714	0.061152	0.872444	
0.197278	0.0487031	0.829069	
0.150575	0.144679	0.883538	
-0.00915007	-0.159584	0.629557	
0.0565057	-0.147787	0.722206	
0.0543934	-0.098021	0.585709	
0.000554419	-0.0943553	0.688478	
-0.257824	-0.4284	0.704976	
-0.217356	-0.450285	0.644698	
-0.221522	-0.316483	0.612387	
-0.162672	-0.339378	0.750157	
0.119174	0.287711	0.637668	
0.215007	0.321027	0.704259	
0.102331	0.345115	0.749287	
0.148721	0.172259	0.753766	
-0.293675	-0.122789	0.650858	
-0.161265	-0.08127	0.716218	
-0.232531	-0.00520461	0.629061	
-0.303266	-0.0059886	0.701726	
0.124154	0.245419	0.824268	
0.148721	0.172259	0.753766	
0.284059	0.282644	0.778361	
0.222962	0.130748	0.792454	
-0.25658	0.429146	0.66876	
-0.1727	0.337134	0.60049	
-0.222708	0.258636	0.655001	
-0.285935	0.290775	0.588479	
0.0543934	-0.098021	0.585709	
0.000554419	-0.0943553	0.688478	
0.0565057	-0.147787	0.722206	
0.118003	-0.110167	0.68636	
-0.0705177	0.0247142	0.5	
-0.13896	0.0197163	0.5	
-0.110253	-0.0221958	0.5	
-0.122493	-0.0457662	0.591275	
0.197278	0.0487031	0.829069	
0.0653714	0.061152	0.872444	
0.07775	0.0966917	0.740381	
0.0831208	-0.00188727	0.757361	
-0.0782828	-0.218112	0.590988	
0.0645865	-0.210943	0.590313	
0.00155464	-0.188347	0.5	
0.00148161	-0.13757	0.564688	
-0.493437	-0.0807477	0.845776	
-0.351812	-0.111075	0.861116	
-0.371727	0.0207537	0.771598	
-0.384543	0.0457703	0.887922	
0.197278	0.0487031	0.829069	
0.162067	-0.0633879	0.734858	
0.092572	-0.0674004	0.832552	
0.0831208	-0.00188727	0.757361	
0.25658	0.429146	0.83124	
0.141859	0.360078	0.864623	
0.215007	0.321027	0.704259	
0.284059	0.282644	0.778361	
-0.00455509	0.289048	0.710952	
-0.115841	0.288513	0.837108	
-0.120471	0.3509	0.721125	
-0.0614757	0.232646	0.751575	
5.51091e-17	0.3	0.5	
-0.036445	0.376821	0.622976	
-0.0973459	0.263913	0.624876	
0.00262968	0.233117	0.59891	
0.0420691	0.427134	1	
0.0206391	0.354311	0.845617	
0.0728232	0.494668	0.926459	
0.141859	0.360078	0.864623	
0.0093178	-0.302179	0.697821	
0.128689	-0.272515	0.631723	
0.0851242	-0.244368	0.731714	
0.0564693	-0.387133	0.748139	
-0.115841	0.288513	0.837108	
-0.120471	0.3509	0.721125	
-0.168734	0.470668	0.798219	
-0.081646	0.385636	0.890794	
-0.0168636	-0.119171	0.872846	
-0.0124705	-0.26219	0.899433	
-0.152603	-0.19085	0.88329	
-0.0433655	-0.190602	0.814951	
0	0.5	0.9	
0.0420691	0.427134	1	
-0.0372406	0.417791	1	
0.0206391	0.354311	0.845617	
-0.238488	-0.439458	0.575692	
-0.108579	-0.348279	0.636398	
-0.195731	-0.375572	0.5	
-0.221522	-0.316483	0.612387	
-0.168734	0.470668	0.798219	
-0.120471	0.3509	0.721125	
-0.115841	0.288513	0.837108	
-0.202396	0.33987	0.890246	
5.51091e-17	0.3	0.5	
-0.0973459	0.263913	0.624876	
-0.0776457	0.289778	0.5	
0.00262968	0.233117	0.59891	
0.165128	-0.182854	0.724456	
0.0486433	-0.215998	0.821724	
0.0565057	-0.147787	0.722206	
0.0851242	-0.244368	0.731714	
-0.470668	-0.168734	0.798219	
-0.351812	-0.111075	0.861116	
-0.307152	-0.222724	0.726676	
-0.358174	-0.0931631	0.744866	
0.092572	-0.0674004	0.832552	
0.0653714	0.061152	0.872444	
0.197278	0.0487031	0.829069	
0.0831208	-0.00188727	0.757361	
0.0682711	-0.052186	0.660923	
0.000554419	-0.0943553	0.688478	
0.0543934	-0.098021	0.585709	
0.118003	-0.110167	0.68636	
-0.110253	-0.0221958	0.5	
-0.0625361	-0.0382385	0.5	
-0.0705177	0.0247142	0.5	
-0.122493	-0.0457662	0.591275	
0.197278	0.0487031	0.829069	
0.191683	0.0839995	0.717836	
0.162067	-0.0633879	0.734858	
0.0831208	-0.00188727	0.757361	
0.300884	0.198715	1	
0.247868	0.146306	1	
0.231243	0.24169	1	
0.245664	0.104793	0.903539	
-0.0776457	0.289778	0.5	
-0.0973459	0.263913	0.624876	
5.51091e-17	0.3	0.5	
-0.036445	0.376821	0.622976	
-0.0973459	0.263913	0.624876	
0.00262968	0.233117	0.59891	
-0.036445	0.376821	0.622976	
0.0283105	0.314008	0.630388	
0.300884	0.198715	1	
0.245664	0.104793	0.903539	
0.231243	0.24169	1	
0.331523	0.239691	0.896553	
-0.188087	-0.23341	0.686349	
-0.0741769	-0.222661	0.70095	
-0.108579	-0.348279	0.636398	
-0.17146	-0.257962	0.580515	
-0.437078	-0.242822	0.847009	
-0.307152	-0.222724	0.726676	
-0.351812	-0.111075	0.861116	
-0.328462	-0.228271	0.903506	
0.0486433	-0.215998	0.821724	
0.165128	-0.182854	0.724456	
0.185145	-0.220341	0.859684	
0.0851242	-0.244368	0.731714	
0.231243	0.24169	1	
0.245664	0.104793	0.903539	
0.293439	0.171691	0.838154	
0.331523	0.239691	0.896553	
-0.0422582	-0.437473	1	
-0.0328721	-0.370689	1	
0.0187635	-0.357972	0.857507	
-0.0973131	-0.377708	0.878415	
0.231243	0.24169	1	
0.150575	0.144679	0.883538	
0.237861	0.283786	0.876325	
0.245664	0.104793	0.903539	
-0.0741769	-0.222661	0.70095	
-0.0782828	-0.218112	0.590988	
-0.108579	-0.348279	0.636398	
-0.17146	-0.257962	0.580515	
0.165128	-0.182854	0.724456	
0.142334	-0.324062	0.773071	
0.229446	-0.281388	0.703137	
0.263974	-0.284246	0.810467	
0.5	0	0.8	
0.356094	-0.0732678	0.7583	
0.349701	0.023511	0.844749	
0.376828	0.00465276	0.670748	
-0.0168636	-0.119171	0.872846	
-0.096592	-0.0392798	0.774507	
-0.0619448	0.0316562	0.830282	
0.0170666	-0.00404371	0.815416	
0.174911	-0.0307899	0.613699	
0.212248	-0.110857	0.594534	
0.249893	-0.118387	0.700681	
0.118003	-0.110167	0.68636	
0.07775	0.0966917	0.740381	
0.150575	0.144679	0.883538	
0.197278	0.0487031	0.829069	
0.148721	0.172259	0.753766	
-0.0372406	0.417791	1	
0.0420691	0.427134	1	
0.0153159	0.363557	1	
0.0206391	0.354311	0.845617	
-0.140563	-0.0864996	0.858051	
-0.0168636	-0.119171	0.872846	
-0.117671	-0.10197	1	
-0.152603	-0.19085	0.88329	
-0.249565	0.273325	0.5	
-0.216377	0.228686	0.5	
-0.192123	0.259903	0.5	
-0.1997	0.206062	0.577949	
-0.0974804	-0.267818	0.831249	
-0.162672	-0.339378	0.750157	
-0.0741769	-0.222661	0.70095	
-0.00969375	-0.289543	0.79323	
-0.253577	0.121423	0.598057	
-0.160124	0.0403748	0.589251	
-0.177196	0.0645246	0.5	
-0.159007	0.150563	0.559172	
0.165128	-0.182854	0.724456	
0.0486433	-0.215998	0.821724	
0.185145	-0.220341	0.859684	
0.165332	-0.129906	0.808096	
-0.404541	0.126945	1	
-0.384543	0.0457703	0.887922	
-0.478555	0.144862	0.921652	
-0.312269	0.206869	0.893833	
-0.0741769	-0.222661	0.70095	
-0.162672	-0.339378	0.750157	
-0.108579	-0.348279	0.636398	
-0.0516032	-0.38053	0.763919	
0.142334	-0.324062	0.773071	
0.0851242	-0.244368	0.731714	
0.128689	-0.272515	0.631723	
0.0564693	-0.387133	0.748139	
-0.322372	0.204757	0.615478	
-0.1997	0.206062	0.577949	
-0.222708	0.258636	0.655001	
-0.243141	0.175788	0.70528	
-0.115841	0.288513	0.837108	
-0.00455509	0.289048	0.710952	
-0.120471	0.3509	0.721125	
-0.0187025	0.397023	0.746774	
-0.470668	-0.168734	0.798219	
-0.307152	-0.222724	0.726676	
-0.434698	-0.247057	0.749501	
-0.358174	-0.0931631	0.744866	
-0.478555	0.144862	0.921652	
-0.312269	0.206869	0.893833	
-0.384543	0.0457703	0.887922	
-0.388856	0.122276	0.792585	
-0.115841	0.288513	0.837108	
-0.081646	0.385636	0.890794	
-0.168734	0.470668	0.798219	
-0.202396	0.33987	0.890246	
0.0093178	-0.302179	0.697821	
-0.0741769	-0.222661	0.70095	
-0.108579	-0.348279	0.636398	
-0.0516032	-0.38053	0.763919	
0.142334	-0.324062	0.773071	
0.0667763	-0.376719	0.620641	
0.128689	-0.272515	0.631723	
0.184871	-0.357405	0.649244	
-0.249565	0.273325	0.5	
-0.259808	0.2	0.5	
-0.216377	0.228686	0.5	
-0.1997	0.206062	0.577949	
2.23198e-17	0.373746	0.5	
0.042537	0.432039	0.5	
-0.0426444	0.431636	0.5	
-0.036445	0.376821	0.622976	
0.165128	-0.182854	0.724456	
0.128497	-0.139894	0.612276	
0.236451	-0.193336	0.622526	
0.103299	-0.191976	0.670856	
-0.168734	0.470668	0.798219	
-0.220027	0.322099	0.738771	
-0.120471	0.3509	0.721125	
-0.202396	0.33987	0.890246	
-0.322372	0.204757	0.615478	
-0.253577	0.121423	0.598057	
-0.1997	0.206062	0.577949	
-0.243141	0.175788	0.70528	
-0.25658	0.429146	0.66876	
-0.222708	0.258636	0.655001	
-0.317206	0.386498	0.700322	
-0.285935	0.290775	0.588479	
0.231243	0.24169	1	
0.237861	0.283786	0.876325	
0.293439	0.171691	0.838154	
0.245664	0.104793	0.903539	
0.0704936	0.198592	0.689629	
0.102331	0.345115	0.749287	
0.124154	0.245419	0.824268	
0.148721	0.172259	0.753766	
-0.159007	0.150563	0.751045	
-0.198122	0.226155	0.892159	
-0.201407	0.100714	0.820483	
-0.114718	0.198983	0.815635	
-0.259808	0.2	0.5	
-0.1997	0.206062	0.577949	
-0.322372	0.204757	0.615478	
-0.253577	0.121423	0.598057	
-0.217356	-0.450285	0.644698	
-0.108579	-0.348279	0.636398	
-0.238488	-0.439458	0.575692	
-0.221522	-0.316483	0.612387	
-0.0705177	0.0247142	0.5	
-0.160124	0.0403748	0.589251	
-0.122493	-0.0457662	0.591275	
-0.0295799	0.0358881	0.577891	
-0.0168636	-0.119171	0.872846	
0.103648	-0.156441	0.895396	
0.00183684	-0.222331	1	
-0.0124705	-0.26219	0.899433	
-0.273315	0.334955	1	
-0.312269	0.206869	0.893833	
-0.317233	0.386476	0.909527	
-0.202396	0.33987	0.890246	
0.125573	-0.41396	1	
0.112799	-0.33356	1	
0.162257	-0.333773	0.890843	
0.108507	-0.396912	0.833758	
0.124154	0.245419	0.824268	
0.284059	0.282644	0.778361	
0.237861	0.283786	0.876325	
0.222962	0.130748	0.792454	
0.128497	-0.139894	0.612276	
0.0543934	-0.098021	0.585709	
0.0966642	-0.131711	0.5	
0.0645865	-0.210943	0.590313	
0.304977	-0.200047	0.747623	
0.185145	-0.220341	0.859684	
0.255304	-0.0994756	0.835986	
0.165332	-0.129906	0.808096	
-0.162672	-0.339378	0.750157	
-0.0516032	-0.38053	0.763919	
-0.0741769	-0.222661	0.70095	
-0.00969375	-0.289543	0.79323	
-0.293675	-0.122789	0.650858	
-0.24121	-0.14299	0.745605	
-0.161265	-0.08127	0.716218	
-0.303266	-0.0059886	0.701726	
0.165128	-0.182854	0.724456	
0.304977	-0.200047	0.747623	
0.185145	-0.220341	0.859684	
0.263974	-0.284246	0.810467	
0.043412	0.246202	0.5	
0.0776457	0.289778	0.5	
0.00262968	0.233117	0.59891	
0.146959	0.210165	0.588072	
-0.0625361	-0.0382385	0.5	
-0.0699979	-0.0973408	0.5	
-0.0156334	-0.0737433	0.5	
-0.0688906	-0.12049	0.582378	
0.165128	-0.182854	0.724456	
0.304977	-0.200047	0.747623	
0.236451	-0.193336	0.622526	
0.249893	-0.118387	0.700681	
0	0.5	0.9	
0.0206391	0.354311	0.845617	
-0.0372406	0.417791	1	
-0.081646	0.385636	0.890794	
0.174911	-0.0307899	0.613699	
0.249893	-0.118387	0.700681	
0.162067	-0.0633879	0.734858	
0.118003	-0.110167	0.68636	
0.0543934	-0.098021	0.585709	
0.0645865	-0.210943	0.590313	
0.128497	-0.139894	0.612276	
0.103299	-0.191976	0.670856	
-0.495012	-0.0704482	0.928155	
-0.351812	-0.111075	0.861116	
-0.493437	-0.0807477	0.845776	
-0.384543	0.0457703	0.887922	
0.092572	-0.0674004	0.832552	
0.162067	-0.0633879	0.734858	
0.197278	0.0487031	0.829069	
0.181192	-0.0401295	0.895026	
-0.257157	-0.0458854	0.782759	
-0.161265	-0.08127	0.716218	
-0.24121	-0.14299	0.745605	
-0.303266	-0.0059886	0.701726	
-0.0619448	0.0316562	0.830282	
-0.096592	-0.0392798	0.774507	
-0.0168636	-0.119171	0.872846	
-0.0991242	-0.0135691	0.909138	
-0.0509221	-0.120838	0.749894	
0.0565057	-0.147787	0.722206	
-0.0433655	-0.190602	0.814951	
0.023726	-0.214303	0.683566	
-0.120471	0.3509	0.721125	
-0.081646	0.385636	0.890794	
-0.115841	0.288513	0.837108	
-0.0187025	0.397023	0.746774	
0.25658	0.429146	0.83124	
0.237861	0.283786	0.876325	
0.141859	0.360078	0.864623	
0.284059	0.282644	0.778361	
-0.25658	0.429146	0.66876	
-0.222708	0.258636	0.655001	
-0.1727	0.337134	0.60049	
-0.220027	0.322099	0.738771	
0.230141	0.201516	0.689547	
0.215007	0.321027	0.704259	
0.148721	0.172259	0.753766	
0.284059	0.282644	0.778361	
0.293439	0.171691	0.838154	
0.237861	0.283786	0.876325	
0.231243	0.24169	1	
0.331523	0.239691	0.896553	
0.0807477	0.493437	0.654224	
0.0755103	0.388608	0.610372	
0.102331	0.345115	0.749287	
-0.0187025	0.397023	0.746774	
0.0565057	-0.147787	0.722206	
0.0259112	-0.0811505	0.774009	
0.162067	-0.0633879	0.734858	
0.118003	-0.110167	0.68636	
0.236451	-0.193336	0.622526	
0.165128	-0.182854	0.566814	
0.128689	-0.272515	0.631723	
0.103299	-0.191976	0.670856	
-0.036445	0.376821	0.622976	
0.00262968	0.233117	0.59891	
5.51091e-17	0.3	0.5	
0.0283105	0.314008	0.630388	
-0.159007	0.150563	0.6241	
-0.0973459	0.263913	0.624876	
-0.222708	0.258636	0.655001	
-0.145109	0.249909	0.723665	
-0.115841	0.288513	0.837108	
-0.081646	0.385636	0.890794	
-0.138674	0.323797	1	
-0.104561	0.217724	0.908588	
-0.00915007	-0.159584	0.629557	
0.0645865	-0.210943	0.590313	
-0.0782828	-0.218112	0.590988	
0.00148161	-0.13757	0.564688	
-0.232531	-0.00520461	0.629061	
-0.161265	-0.08127	0.716218	
-0.293675	-0.122789	0.650858	
-0.211192	-0.1537	0.666432	
0.191683	0.0839995	0.717836	
0.122018	0.0307901	0.671023	
0.162067	-0.0633879	0.734858	
0.0831208	-0.00188727	0.757361	
0.349701	0.023511	0.844749	
0.30555	0.0888144	0.75317	
0.385025	0.1139	0.812458	
0.393123	0.117954	0.711669	
-0.168734	0.470668	0.798219	
-0.081646	0.385636	0.890794	
-0.120471	0.3509	0.721125	
-0.0187025	0.397023	0.746774	
0.102331	0.345115	0.749287	
0.215007	0.321027	0.704259	
0.124154	0.245419	0.824268	
0.148721	0.172259	0.753766	
-0.257824	-0.4284	0.704976	
-0.162672	-0.339378	0.750157	
-0.221522	-0.316483	0.612387	
-0.253586	-0.309787	0.710553	
0.165128	-0.182854	0.724456	
0.236451	-0.193336	0.622526	
0.304977	-0.200047	0.747623	
0.229446	-0.281388	0.703137	
0.124154	0.245419	0.824268	
0.148721	0.172259	0.753766	
0.215007	0.321027	0.704259	
0.284059	0.282644	0.778361	
0.25658	0.429146	0.83124	
0.247057	0.434698	0.750499	
0.215007	0.321027	0.704259	
0.141859	0.360078	0.864623	
-0.249565	0.273325	0.5	
-0.192123	0.259903	0.5	
-0.194694	0.304695	0.5	
-0.285935	0.290775	0.588479	
0.112799	-0.33356	1	
0.125573	-0.41396	1	
0.0404524	-0.41072	1	
0.108507	-0.396912	0.833758	
0.165128	-0.182854	0.724456	
0.236451	-0.193336	0.622526	
0.128689	-0.272515	0.631723	
0.103299	-0.191976	0.670856	
0.165128	-0.182854	0.724456	
0.185145	-0.220341	0.859684	
0.142334	-0.324062	0.773071	
0.263974	-0.284246	0.810467	
-0.0328721	-0.370689	1	
0.0404524	-0.41072	1	
-0.0422582	-0.437473	1	
0.0187635	-0.357972	0.857507	
-0.159007	0.150563	0.751045	
-0.198122	0.226155	0.892159	
-0.262727	0.245322	0.796513	
-0.201407	0.100714	0.820483	
-0.0625361	-0.0382385	0.5	
-0.0705177	0.0247142	0.5	
-0.122493	-0.0457662	0.591275	
-0.0295799	0.0358881	0.577891	
-0.104054	0.0128374	0.663816	
-0.0136448	-0.0115771	0.733329	
-0.0583731	0.0957366	0.731357	
-0.096592	-0.0392798	0.774507	
-0.0974804	-0.267818	0.831249	
-0.152603	-0.19085	0.88329	
-0.0638367	-0.295761	1	
-0.0124705	-0.26219	0.899433	
0.230141	0.201516	0.689547	
0.215007	0.321027	0.704259	
0.119174	0.287711	0.637668	
0.148721	0.172259	0.753766	
0.349701	0.023511	0.844749	
0.376828	0.00465276	0.670748	
0.30555	0.0888144	0.75317	
0.393123	0.117954	0.711669	
-0.262727	0.245322	0.796513	
-0.198122	0.226155	0.892159	
-0.159007	0.150563	0.751045	
-0.114718	0.198983	0.815635	
0.142334	-0.324062	0.773071	
0.185145	-0.220341	0.859684	
0.165128	-0.182854	0.724456	
0.0851242	-0.244368	0.731714	
0.237861	0.283786	0.876325	
0.284059	0.282644	0.778361	
0.293439	0.171691	0.838154	
0.222962	0.130748	0.792454	
0.162067	-0.0633879	0.734858	
0.191683	0.0839995	0.717836	
0.197278	0.0487031	0.829069	
0.270025	-0.00993688	0.796605	
0.0682711	-0.052186	0.660923	
0.174911	-0.0307899	0.613699	
0.128497	-0.139894	0.612276	
0.149744	-0.0894982	0.564748	
0.0653714	0.061152	0.872444	
0.150575	0.144679	0.883538	
0.07775	0.0966917	0.740381	
0.0617642	0.177547	0.776817	
-0.15	0.259808	0.5	
-0.1997	0.206062	0.577949	
-0.0973459	0.263913	0.624876	
-0.1727	0.337134	0.60049	
-0.0625361	-0.0382385	0.5	
-0.122493	-0.0457662	0.591275	
-0.0284942	-0.0420004	0.604932	
-0.0295799	0.0358881	0.577891	
0.230141	0.201516	0.689547	
0.134419	0.128531	0.62625	
0.0704936	0.198592	0.689629	
0.146959	0.210165	0.588072	
0.128689	-0.272515	0.631723	
0.0093178	-0.302179	0.697821	
0.0667763	-0.376719	0.620641	
0.0564693	-0.387133	0.748139	
-0.5	0	0.9	
-0.495012	-0.0704482	0.928155	
-0.493437	-0.0807477	0.845776	
-0.384543	0.0457703	0.887922	
0.128689	-0.272515	0.631723	
0.0667763	-0.376719	0.620641	
0.142334	-0.324062	0.773071	
0.0564693	-0.387133	0.748139	
-0.036445	0.376821	0.622976	
-0.120471	0.3509	0.721125	
-0.174678	0.468495	0.682891	
-0.1727	0.337134	0.60049	
-0.380873	0.323938	0.847739	
-0.312269	0.206869	0.893833	
-0.262727	0.245322	0.796513	
-0.202396	0.33987	0.890246	
0.07775	0.0966917	0.740381	
0.191683	0.0839995	0.717836	
0.197278	0.0487031	0.829069	
0.0831208	-0.00188727	0.757361	
-0.24957	-0.20227	0.837053	
-0.307152	-0.222724	0.726676	
-0.351812	-0.111075	0.861116	
-0.24121	-0.14299	0.745605	
0.26162	-0.00747869	0.698076	
0.191683	0.0839995	0.717836	
0.162067	-0.0633879	0.734858	
0.270025	-0.00993688	0.796605	
0.092572	-0.0674004	0.832552	
0.162067	-0.0633879	0.734858	
0.0565057	-0.147787	0.722206	
0.0259112	-0.0811505	0.774009	
-0.317206	0.386498	0.700322	
-0.222708	0.258636	0.655001	
-0.25658	0.429146	0.66876	
-0.220027	0.322099	0.738771	
-0.0422582	-0.437473	1	
0.0187635	-0.357972	0.857507	
0	-0.5	0.9	
-0.0973131	-0.377708	0.878415	
-0.0168636	-0.119171	0.872846	
0.0259112	-0.0811505	0.774009	
-0.096592	-0.0392798	0.774507	
0.0170666	-0.00404371	0.815416	
-0.0509221	-0.120838	0.749894	
-0.096592	-0.0392798	0.774507	
-0.0168636	-0.119171	0.872846	
0.0259112	-0.0811505	0.774009	
0.255304	-0.0994756	0.835986	
0.249893	-0.118387	0.700681	
0.304977	-0.200047	0.747623	
0.165332	-0.129906	0.808096	
0.237861	0.283786	0.876325	
0.150575	0.144679	0.883538	
0.293439	0.171691	0.838154	
0.245664	0.104793	0.903539	
-0.0372406	0.417791	1	
0.0206391	0.354311	0.845617	
0.0153159	0.363557	1	
-0.081646	0.385636	0.890794	
0.128689	-0.272515	0.631723	
0.251869	-0.294586	0.601969	
0.166469	-0.308164	0.5	
0.213897	-0.237657	0.568565	
0.259073	0.206972	0.5	
0.215641	0.22714	0.5	
0.216156	0.175607	0.5	
0.230707	0.150403	0.598384	
0.092572	-0.0674004	0.832552	
0.0486433	-0.215998	0.821724	
-0.0168636	-0.119171	0.872846	
0.0259112	-0.0811505	0.774009	
0.3	-3.67394e-17	0.5	
0.245674	0.0465287	0.605115	
0.277454	-0.0417897	0.589806	
0.399716	0.0593288	0.591749	
-0.161265	-0.08127	0.716218	
-0.303266	-0.0059886	0.701726	
-0.257157	-0.0458854	0.782759	
-0.179806	-0.00389189	0.693003	
0.0093178	-0.302179	0.697821	
0.0564693	-0.387133	0.748139	
-0.0516032	-0.38053	0.763919	
-0.029629	-0.397647	0.594827	
0.0712814	-0.153152	1	
0.00183684	-0.222331	1	
-0.0168636	-0.119171	0.872846	
0.103648	-0.156441	0.895396	
0.133074	0.264097	1	
0.124154	0.245419	0.824268	
0.237861	0.283786	0.876325	
0.150575	0.144679	0.883538	
-0.24957	-0.20227	0.837053	
-0.328462	-0.228271	0.903506	
-0.307152	-0.222724	0.726676	
-0.290901	-0.287972	0.800889	
-0.0619448	0.0316562	0.830282	
-0.00109612	-0.0173781	0.904468	
-0.0168636	-0.119171	0.872846	
0.0170666	-0.00404371	0.815416	
-0.0973459	0.263913	0.624876	
-0.036445	0.376821	0.622976	
-0.0712263	0.363482	0.5	
-0.1727	0.337134	0.60049	
-0.259808	0.2	0.5	
-0.322372	0.204757	0.615478	
-0.31037	0.174447	0.5	
-0.253577	0.121423	0.598057	
0.293439	0.171691	0.838154	
0.150575	0.144679	0.883538	
0.237861	0.283786	0.876325	
0.222962	0.130748	0.792454	
-0.322372	0.204757	0.615478	
-0.1997	0.206062	0.577949	
-0.259808	0.2	0.5	
-0.285935	0.290775	0.588479	
-0.135086	0.326126	0.5	
-0.0776457	0.289778	0.5	
-0.0712263	0.363482	0.5	
-0.0973459	0.263913	0.624876	
-0.0705177	0.0247142	0.5	
-0.0843404	0.0959758	0.591667	
-0.160124	0.0403748	0.589251	
-0.0295799	0.0358881	0.577891	
-0.124938	0.414491	0.5	
-0.036445	0.376821	0.622976	
-0.146853	0.477948	0.584008	
-0.1727	0.337134	0.60049	
0.119174	0.287711	0.637668	
0.00262968	0.233117	0.59891	
0.0776457	0.289778	0.5	
0.146959	0.210165	0.588072	
-0.273315	0.334955	1	
-0.214341	0.273759	1	
-0.312269	0.206869	0.893833	
-0.202396	0.33987	0.890246	
-0.104054	0.0128374	0.663816	
-0.0583731	0.0957366	0.731357	
-0.16493	0.0307641	0.766812	
-0.096592	-0.0392798	0.774507	
0.230141	0.201516	0.689547	
0.284059	0.282644	0.778361	
0.148721	0.172259	0.753766	
0.222962	0.130748	0.792454	
0.197278	0.0487031	0.829069	
0.181192	-0.0401295	0.895026	
0.162067	-0.0633879	0.734858	
0.270025	-0.00993688	0.796605	
-0.194694	0.304695	0.5	
-0.192123	0.259903	0.5	
-0.1727	0.337134	0.60049	
-0.285935	0.290775	0.588479	
-0.24957	-0.20227	0.837053	
-0.247755	-0.0727414	0.89259	
-0.140563	-0.0864996	0.858051	
-0.24121	-0.14299	0.745605	
-0.232531	-0.00520461	0.629061	
-0.208135	-0.0860903	0.586046	
-0.161265	-0.08127	0.716218	
-0.211192	-0.1537	0.666432	
0.165128	-0.182854	0.724456	
0.229446	-0.281388	0.703137	
0.304977	-0.200047	0.747623	
0.263974	-0.284246	0.810467	
-0.140563	-0.0864996	0.858051	
-0.161265	-0.08127	0.716218	
-0.257157	-0.0458854	0.782759	
-0.096592	-0.0392798	0.774507	
-0.293675	-0.122789	0.650858	
-0.230141	-0.201516	0.598323	
-0.259808	-0.15	0.5	
-0.208135	-0.0860903	0.586046	
-0.259808	-0.15	0.5	
-0.293675	-0.122789	0.650858	
-0.308042	-0.167631	0.5	
-0.230141	-0.201516	0.598323	
-0.108579	-0.348279	0.636398	
-0.0741769	-0.222661	0.70095	
-0.188087	-0.23341	0.686349	
-0.162672	-0.339378	0.750157	
0.162067	-0.0633879	0.734858	
0.165332	-0.129906	0.808096	
0.0565057	-0.147787	0.722206	
0.118003	-0.110167	0.68636	
-0.317206	0.386498	0.700322	
-0.285935	0.290775	0.588479	
-0.222708	0.258636	0.655001	
-0.303077	0.2787	0.708341	
-0.0712263	0.363482	0.5	
-0.0973459	0.263913	0.624876	
-0.0776457	0.289778	0.5	
-0.036445	0.376821	0.622976	
0.237861	0.283786	0.876325	
0.150575	0.144679	0.883538	
0.124154	0.245419	0.824268	
0.222962	0.130748	0.792454	
-0.161265	-0.08127	0.716218	
-0.16493	0.0307641	0.766812	
-0.257157	-0.0458854	0.782759	
-0.096592	-0.0392798	0.774507	
0.495101	0.0698189	0.927621	
0.349701	0.023511	0.844749	
0.414991	0.0495125	1	
0.370295	0.150924	0.906655	
-0.0925337	-0.196451	1	
-0.152603	-0.19085	0.88329	
-0.0168636	-0.119171	0.872846	
-0.0124705	-0.26219	0.899433	
0.102331	0.345115	0.749287	
0.124154	0.245419	0.824268	
0.215007	0.321027	0.704259	
0.141859	0.360078	0.864623	
0.0187635	-0.357972	0.857507	
0.162257	-0.333773	0.890843	
0.112799	-0.33356	1	
0.108507	-0.396912	0.833758	
0.0682711	-0.052186	0.660923	
0.0965515	-0.0251853	0.583435	
0.174911	-0.0307899	0.613699	
0.149744	-0.0894982	0.564748	
0.0565057	-0.147787	0.722206	
0.162067	-0.0633879	0.734858	
0.092572	-0.0674004	0.832552	
0.165332	-0.129906	0.808096	
0.0535528	0.0702068	0.5	
-0.00654379	0.0500762	0.5	
0.0480825	0.0400932	0.605275	
-0.0203138	0.116891	0.566619	
-0.307152	-0.222724	0.726676	
-0.358174	-0.0931631	0.744866	
-0.351812	-0.111075	0.861116	
-0.24121	-0.14299	0.745605	
-0.493437	-0.0807477	0.845776	
-0.371727	0.0207537	0.771598	
-0.5	0	0.8	
-0.384543	0.0457703	0.887922	
-0.273315	0.334955	1	
-0.318983	0.261743	1	
-0.317233	0.386476	0.909527	
-0.312269	0.206869	0.893833	
-0.230141	-0.201516	0.598323	
-0.188087	-0.23341	0.686349	
-0.307152	-0.222724	0.726676	
-0.295665	-0.266599	0.586027	
-0.493437	-0.0807477	0.845776	
-0.371727	0.0207537	0.771598	
-0.351812	-0.111075	0.861116	
-0.358174	-0.0931631	0.744866	
0.197278	0.0487031	0.829069	
0.0653714	0.061152	0.872444	
0.092572	-0.0674004	0.832552	
0.0906227	-0.0186438	0.910454	
0.142334	-0.324062	0.773071	
0.0187635	-0.357972	0.857507	
0.0486433	-0.215998	0.821724	
-0.00969375	-0.289543	0.79323	
0.5	0	0.9	
0.409478	-0.032947	1	
0.414991	0.0495125	1	
0.349701	0.023511	0.844749	
-0.159007	0.150563	0.6241	
-0.1997	0.206062	0.577949	
-0.253577	0.121423	0.598057	
-0.243141	0.175788	0.70528	
0.174911	-0.0307899	0.613699	
0.122018	0.0307901	0.671023	
0.26162	-0.00747869	0.698076	
0.245674	0.0465287	0.605115	
-0.384543	0.0457703	0.887922	
-0.312269	0.206869	0.893833	
-0.295069	0.107196	0.837498	
-0.388856	0.122276	0.792585	
0.221044	-0.17499	0.5	
0.165128	-0.182854	0.566814	
0.236451	-0.193336	0.622526	
0.212248	-0.110857	0.594534	
0.165128	-0.182854	0.724456	
0.128689	-0.272515	0.631723	
0.236451	-0.193336	0.622526	
0.229446	-0.281388	0.703137	
0.114055	0.374109	1	
0.0206391	0.354311	0.845617	
0.0420691	0.427134	1	
0.141859	0.360078	0.864623	
-0.216506	0.125	0.5	
-0.253577	0.121423	0.598057	
-0.177196	0.0645246	0.5	
-0.159007	0.150563	0.559172	
-0.401548	-0.0423374	1	
-0.351812	-0.111075	0.861116	
-0.384543	0.0457703	0.887922	
-0.29588	0.00863916	0.858008	
-0.262727	0.245322	0.796513	
-0.243141	0.175788	0.70528	
-0.159007	0.150563	0.751045	
-0.201407	0.100714	0.820483	
-0.140563	-0.0864996	0.858051	
-0.257157	-0.0458854	0.782759	
-0.16493	0.0307641	0.766812	
-0.096592	-0.0392798	0.774507	
-0.146853	0.477948	0.584008	
-0.036445	0.376821	0.622976	
-0.174678	0.468495	0.682891	
-0.1727	0.337134	0.60049	
0.255304	-0.0994756	0.835986	
0.181192	-0.0401295	0.895026	
0.162067	-0.0633879	0.734858	
0.165332	-0.129906	0.808096	
-0.186407	-0.169451	1	
-0.24957	-0.20227	0.837053	
-0.278713	-0.14304	1	
-0.247755	-0.0727414	0.89259	
-0.307152	-0.222724	0.726676	
-0.328462	-0.228271	0.903506	
-0.437078	-0.242822	0.847009	
-0.290901	-0.287972	0.800889	
0.0206391	0.354311	0.845617	
-0.115841	0.288513	0.837108	
-0.081646	0.385636	0.890794	
-0.0187025	0.397023	0.746774	
0.0420691	0.427134	1	
0	0.5	0.9	
0.0728232	0.494668	0.926459	
0.0206391	0.354311	0.845617	
0.00262968	0.233117	0.59891	
0.0473696	0.155243	0.576019	
0.043412	0.246202	0.5	
0.146959	0.210165	0.588072	
-0.117671	-0.10197	1	
-0.0168636	-0.119171	0.872846	
-0.140563	-0.0864996	0.858051	
-0.0991242	-0.0135691	0.909138	
-0.00915007	-0.159584	0.629557	
0.0645865	-0.210943	0.590313	
0.0543934	-0.098021	0.585709	
0.103299	-0.191976	0.670856	
0.409478	-0.032947	1	
0.349701	0.023511	0.844749	
0.5	0	0.9	
0.371732	-0.09396	0.880254	
-0.140563	-0.0864996	0.858051	
-0.146541	-0.177031	0.776317	
-0.24957	-0.20227	0.837053	
-0.24121	-0.14299	0.745605	
-0.0284942	-0.0420004	0.604932	
-0.0136448	-0.0115771	0.733329	
-0.104054	0.0128374	0.663816	
-0.0810226	-0.0861052	0.668473	
0.364062	0.132817	0.5	
0.325802	0.106737	0.636954	
0.478555	0.144862	0.578348	
0.320995	0.210811	0.605402	
0.102331	0.345115	0.749287	
0.215007	0.321027	0.704259	
0.247057	0.434698	0.750499	
0.141859	0.360078	0.864623	
0.133074	0.264097	1	
0.237861	0.283786	0.876325	
0.231243	0.24169	1	
0.150575	0.144679	0.883538	
0.0093178	-0.302179	0.697821	
-0.0741769	-0.222661	0.70095	
-0.0516032	-0.38053	0.763919	
-0.00969375	-0.289543	0.79323	
-0.0973459	0.263913	0.624876	
-0.1997	0.206062	0.577949	
-0.125	0.216506	0.5	
-0.0939263	0.178211	0.579293	
-0.140563	-0.0864996	0.858051	
-0.247755	-0.0727414	0.89259	
-0.257157	-0.0458854	0.782759	
-0.24121	-0.14299	0.745605	
-0.135086	0.326126	0.5	
-0.0973459	0.263913	0.624876	
-0.0712263	0.363482	0.5	
-0.1727	0.337134	0.60049	
-0.0168636	-0.119171	0.872846	
-0.096592	-0.0392798	0.774507	
-0.140563	-0.0864996	0.858051	
-0.0991242	-0.0135691	0.909138	
-0.140563	-0.0864996	0.858051	
-0.0168636	-0.119171	0.872846	
-0.0509221	-0.120838	0.749894	
-0.096592	-0.0392798	0.774507	
0.0093178	-0.302179	0.697821	
0.0667763	-0.376719	0.620641	
0.0564693	-0.387133	0.748139	
-0.029629	-0.397647	0.594827	
0.07775	0.0966917	0.740381	
0.197278	0.0487031	0.829069	
0.191683	0.0839995	0.717836	
0.148721	0.172259	0.753766	
0.043412	0.246202	0.5	
0.0473696	0.155243	0.576019	
0.0594834	0.18279	0.5	
0.146959	0.210165	0.588072	
0.133074	0.264097	1	
0.231243	0.24169	1	
0.158056	0.171884	1	
0.150575	0.144679	0.883538	
0.125573	-0.41396	1	
0.0704482	-0.495012	0.928155	
0.0404524	-0.41072	1	
0.108507	-0.396912	0.833758	
-0.159007	0.150563	0.6241	
-0.145109	0.249909	0.723665	
-0.222708	0.258636	0.655001	
-0.243141	0.175788	0.70528	
-0.0168636	-0.119171	0.872846	
0.0461078	-0.0584269	1	
0.103648	-0.156441	0.895396	
0.0906227	-0.0186438	0.910454	
-0.401548	-0.0423374	1	
-0.351812	-0.111075	0.861116	
-0.495012	-0.0704482	0.928155	
-0.384543	0.0457703	0.887922	
-0.0168636	-0.119171	0.872846	
-0.00109612	-0.0173781	0.904468	
-0.0619448	0.0316562	0.830282	
-0.0991242	-0.0135691	0.909138	
0.313791	-0.154465	1	
0.283042	-0.0276105	0.90443	
0.255304	-0.0994756	0.835986	
0.198682	-0.135756	0.90724	
0.230141	0.201516	0.689547	
0.0704936	0.198592	0.689629	
0.119174	0.287711	0.637668	
0.146959	0.210165	0.588072	
-0.257157	-0.0458854	0.782759	
-0.161265	-0.08127	0.716218	
-0.140563	-0.0864996	0.858051	
-0.24121	-0.14299	0.745605	
-0.159007	0.150563	0.751045	
-0.145109	0.249909	0.723665	
-0.159007	0.150563	0.6241	
-0.243141	0.175788	0.70528	
0.042537	0.432039	0.5	
-0.036445	0.376821	0.622976	
2.23198e-17	0.373746	0.5	
0.0755103	0.388608	0.610372	
-0.13896	0.0197163	0.5	
-0.122493	-0.0457662	0.591275	
-0.0705177	0.0247142	0.5	
-0.160124	0.0403748	0.589251	
0.162067	-0.0633879	0.734858	
0.181192	-0.0401295	0.895026	
0.255304	-0.0994756	0.835986	
0.270025	-0.00993688	0.796605	
-0.0712263	0.363482	0.5	
-0.036445	0.376821	0.622976	
-0.124938	0.414491	0.5	
-0.1727	0.337134	0.60049	
0.112799	-0.33356	1	
0.0404524	-0.41072	1	
0.0187635	-0.357972	0.857507	
0.108507	-0.396912	0.833758	
-0.135086	-0.326126	0.5	
-0.195731	-0.375572	0.5	
-0.108579	-0.348279	0.636398	
-0.221522	-0.316483	0.612387	
0.0682711	-0.052186	0.660923	
-0.0284942	-0.0420004	0.604932	
0.000554419	-0.0943553	0.688478	
0.0473369	0.0172976	0.690385	
0.174911	-0.0307899	0.613699	
0.162067	-0.0633879	0.734858	
0.26162	-0.00747869	0.698076	
0.122018	0.0307901	0.671023	
0.092572	-0.0674004	0.832552	
0.162067	-0.0633879	0.734858	
0.181192	-0.0401295	0.895026	
0.165332	-0.129906	0.808096	
-0.295069	0.107196	0.837498	
-0.384543	0.0457703	0.887922	
-0.328307	0.16356	1	
-0.312269	0.206869	0.893833	
0.07775	0.0966917	0.740381	
0.150575	0.144679	0.883538	
0.148721	0.172259	0.753766	
0.0617642	0.177547	0.776817	
0.166469	-0.308164	0.5	
0.128689	-0.272515	0.631723	
0.132817	-0.364062	0.5	
0.184871	-0.357405	0.649244	
-0.0509221	-0.120838	0.749894	
-0.0433655	-0.190602	0.814951	
-0.0741769	-0.222661	0.70095	
0.023726	-0.214303	0.683566	
0.142334	-0.324062	0.773071	
0.0486433	-0.215998	0.821724	
0.0187635	-0.357972	0.857507	
0.0999474	-0.256123	0.897299	
0.113554	0.0989266	0.5	
0.169238	0.138503	0.5	
0.118461	0.161044	0.5	
0.0803667	0.0912248	0.564492	
-0.161265	-0.08127	0.716218	
-0.146541	-0.177031	0.776317	
-0.140563	-0.0864996	0.858051	
-0.24121	-0.14299	0.745605	
-0.257824	-0.4284	0.704976	
-0.217356	-0.450285	0.644698	
-0.277785	-0.415735	0.634138	
-0.221522	-0.316483	0.612387	
0.0682711	-0.052186	0.660923	
0.128497	-0.139894	0.612276	
0.174911	-0.0307899	0.613699	
0.118003	-0.110167	0.68636	
-0.0807477	0.493437	0.845776	
-0.081646	0.385636	0.890794	
-0.168734	0.470668	0.798219	
-0.0187025	0.397023	0.746774	
-0.404541	0.126945	1	
-0.328307	0.16356	1	
-0.384543	0.0457703	0.887922	
-0.312269	0.206869	0.893833	
0	0.5	0.7	
-0.036445	0.376821	0.622976	
0.0755103	0.388608	0.610372	
-0.0187025	0.397023	0.746774	
0.19149	0.263191	0.5	
0.194694	0.304695	0.5	
0.15	0.259808	0.5	
0.223145	0.258282	0.600696	
0.0583087	-0.173273	0.5	
0.0966642	-0.131711	0.5	
0.0543934	-0.098021	0.585709	
0.0645865	-0.210943	0.590313	
0.230141	0.201516	0.689547	
0.119174	0.287711	0.637668	
0.0704936	0.198592	0.689629	
0.148721	0.172259	0.753766	
0.478555	0.144862	0.578348	
0.325802	0.106737	0.636954	
0.364062	0.132817	0.5	
0.399716	0.0593288	0.591749	
-0.186407	-0.169451	1	
-0.24957	-0.20227	0.837053	
-0.247755	-0.0727414	0.89259	
-0.152603	-0.19085	0.88329	
0.325794	0.291996	0.5	
0.386505	0.317197	0.568825	
0.223145	0.258282	0.600696	
0.320995	0.210811	0.605402	
0.0966642	-0.131711	0.5	
0.128497	-0.139894	0.612276	
0.0949827	-0.187358	0.5	
0.165128	-0.182854	0.566814	
-0.115841	0.288513	0.837108	
-0.019486	0.256762	0.89034	
-0.081646	0.385636	0.890794	
-0.104561	0.217724	0.908588	
-0.0555676	0.325574	1	
-0.138674	0.323797	1	
-0.081646	0.385636	0.890794	
-0.104561	0.217724	0.908588	
0.5	0	0.9	
0.414991	0.0495125	1	
0.495101	0.0698189	0.927621	
0.349701	0.023511	0.844749	
0.139746	-0.170777	0.5	
0.0966642	-0.131711	0.5	
0.0949827	-0.187358	0.5	
0.165128	-0.182854	0.566814	
-0.122493	-0.0457662	0.591275	
-0.160124	0.0403748	0.589251	
-0.104054	0.0128374	0.663816	
-0.0295799	0.0358881	0.577891	
-0.104054	0.0128374	0.663816	
-0.0136448	-0.0115771	0.733329	
-0.0284942	-0.0420004	0.604932	
-0.0201791	0.0475049	0.66463	
-0.278713	-0.14304	1	
-0.247755	-0.0727414	0.89259	
-0.24957	-0.20227	0.837053	
-0.328462	-0.228271	0.903506	
0.0486433	-0.215998	0.821724	
-0.0433655	-0.190602	0.814951	
0.0565057	-0.147787	0.722206	
0.023726	-0.214303	0.683566	
0.0667763	-0.376719	0.620641	
0.184871	-0.357405	0.649244	
0.142334	-0.324062	0.773071	
0.0564693	-0.387133	0.748139	
-0.0509221	-0.120838	0.749894	
-0.0168636	-0.119171	0.872846	
-0.140563	-0.0864996	0.858051	
-0.0433655	-0.190602	0.814951	
-0.0509221	-0.120838	0.749894	
0.0565057	-0.147787	0.722206	
0.0259112	-0.0811505	0.774009	
-0.0433655	-0.190602	0.814951	
-0.273315	0.334955	1	
-0.214341	0.273759	1	
-0.318983	0.261743	1	
-0.312269	0.206869	0.893833	
0.325802	0.106737	0.636954	
0.191683	0.0839995	0.717836	
0.230141	0.201516	0.689547	
0.230707	0.150403	0.598384	
-0.0625361	-0.0382385	0.5	
-0.0156334	-0.0737433	0.5	
-0.0284942	-0.0420004	0.604932	
-0.0688906	-0.12049	0.582378	
0.414991	0.0495125	1	
0.349701	0.023511	0.844749	
0.346509	0.0237889	1	
0.370295	0.150924	0.906655	
0.0535528	0.0702068	0.5	
0.00365932	0.104584	0.5	
-0.00654379	0.0500762	0.5	
-0.0203138	0.116891	0.566619	
-0.125	0.216506	0.5	
-0.0973459	0.263913	0.624876	
-0.15	0.259808	0.5	
-0.1997	0.206062	0.577949	
0.174911	-0.0307899	0.613699	
0.249893	-0.118387	0.700681	
0.212248	-0.110857	0.594534	
0.277454	-0.0417897	0.589806	
0.128689	-0.272515	0.631723	
0.0667763	-0.376719	0.620641	
0.132817	-0.364062	0.5	
0.184871	-0.357405	0.649244	
-0.230141	-0.201516	0.598323	
-0.221522	-0.316483	0.612387	
-0.188087	-0.23341	0.686349	
-0.295665	-0.266599	0.586027	
0.490343	0.0977967	0.741226	
0.5	0	0.8	
0.385025	0.1139	0.812458	
0.393123	0.117954	0.711669	
-0.295069	0.107196	0.837498	
-0.243141	0.175788	0.70528	
-0.262727	0.245322	0.796513	
-0.201407	0.100714	0.820483	
0.00155464	-0.188347	0.5	
0.0645865	-0.210943	0.590313	
-0.0782828	-0.218112	0.590988	
-0.00328301	-0.284745	0.599465	
0.313791	-0.154465	1	
0.371732	-0.09396	0.880254	
0.255304	-0.0994756	0.835986	
0.283042	-0.0276105	0.90443	
-0.222708	0.258636	0.655001	
-0.220027	0.322099	0.738771	
-0.317206	0.386498	0.700322	
-0.303077	0.2787	0.708341	
0.216156	0.175607	0.5	
0.230707	0.150403	0.598384	
0.215641	0.22714	0.5	
0.146959	0.210165	0.588072	
0.113554	0.0989266	0.5	
0.145725	0.0491975	0.586984	
0.169238	0.138503	0.5	
0.0803667	0.0912248	0.564492	
0.114055	0.374109	1	
0.0153159	0.363557	1	
0.0420691	0.427134	1	
0.0206391	0.354311	0.845617	
0.223145	0.258282	0.600696	
0.320995	0.210811	0.605402	
0.386505	0.317197	0.568825	
0.298958	0.273011	0.680114	
-0.115841	0.288513	0.837108	
-0.262727	0.245322	0.796513	
-0.145109	0.249909	0.723665	
-0.114718	0.198983	0.815635	
-0.0422582	-0.437473	1	
0.0404524	-0.41072	1	
0	-0.5	0.9	
0.0187635	-0.357972	0.857507	
0.230141	0.201516	0.689547	
0.0704936	0.198592	0.689629	
0.134419	0.128531	0.62625	
0.148721	0.172259	0.753766	
0.349701	0.023511	0.844749	
0.370295	0.150924	0.906655	
0.495101	0.0698189	0.927621	
0.385025	0.1139	0.812458	
0.260383	-0.192244	0.5	
0.221044	-0.17499	0.5	
0.213897	-0.237657	0.568565	
0.295498	-0.153797	0.576613	
-0.113894	0.0780637	0.5	
-0.0705177	0.0247142	0.5	
-0.0843404	0.0959758	0.591667	
-0.160124	0.0403748	0.589251	
-0.159007	0.150563	0.6241	
-0.0803648	0.180844	0.680643	
-0.0973459	0.263913	0.624876	
-0.145109	0.249909	0.723665	
0.216156	0.175607	0.5	
0.215641	0.22714	0.5	
0.169426	0.205971	0.5	
0.146959	0.210165	0.588072	
-0.259808	0.2	0.5	
-0.31037	0.174447	0.5	
-0.259808	0.15	0.5	
-0.253577	0.121423	0.598057	
-0.00447954	0.190881	0.5	
-0.067279	0.181403	0.5	
-0.0305981	0.141799	0.5	
-0.0203138	0.116891	0.566619	
0.0704936	0.198592	0.689629	
0.0473696	0.155243	0.576019	
0.00262968	0.233117	0.59891	
0.146959	0.210165	0.588072	
0.191683	0.0839995	0.717836	
0.230707	0.150403	0.598384	
0.325802	0.106737	0.636954	
0.245674	0.0465287	0.605115	
-0.261345	-0.230036	1	
-0.208529	-0.319219	0.867558	
-0.24957	-0.20227	0.837053	
-0.152603	-0.19085	0.88329	
-0.159007	0.150563	0.6241	
-0.160124	0.0403748	0.589251	
-0.253577	0.121423	0.598057	
-0.159007	0.150563	0.559172	
0.0486433	-0.215998	0.821724	
0.103648	-0.156441	0.895396	
-0.0168636	-0.119171	0.872846	
-0.0124705	-0.26219	0.899433	
-0.478555	0.144862	0.921652	
-0.389036	0.207425	1	
-0.404541	0.126945	1	
-0.312269	0.206869	0.893833	
0.169238	0.138503	0.5	
0.134419	0.128531	0.62625	
0.118461	0.161044	0.5	
0.0803667	0.0912248	0.564492	
-0.262727	0.245322	0.796513	
-0.159007	0.150563	0.751045	
-0.145109	0.249909	0.723665	
-0.114718	0.198983	0.815635	
-0.00654379	0.0500762	0.5	
-0.0295799	0.0358881	0.577891	
0.0480825	0.0400932	0.605275	
-0.0203138	0.116891	0.566619	
-0.154439	0.124228	0.5	
-0.160124	0.0403748	0.589251	
-0.113894	0.0780637	0.5	
-0.159007	0.150563	0.559172	
0.139746	-0.170777	0.5	
0.0966642	-0.131711	0.5	
0.165128	-0.182854	0.566814	
0.149744	-0.0894982	0.564748	
-0.380873	0.323938	0.847739	
-0.317233	0.386476	0.909527	
-0.312269	0.206869	0.893833	
-0.202396	0.33987	0.890246	
-0.159007	0.150563	0.6241	
-0.1997	0.206062	0.577949	
-0.0973459	0.263913	0.624876	
-0.0939263	0.178211	0.579293	
-0.0925337	-0.196451	1	
-0.117671	-0.10197	1	
-0.0168636	-0.119171	0.872846	
-0.152603	-0.19085	0.88329	
0.102331	0.345115	0.749287	
0.119174	0.287711	0.637668	
0.0755103	0.388608	0.610372	
0.187975	0.355336	0.600929	
0.139746	-0.170777	0.5	
0.155716	-0.12147	0.5	
0.0966642	-0.131711	0.5	
0.149744	-0.0894982	0.564748	
-0.303998	0.231686	0.5	
-0.322372	0.204757	0.615478	
-0.259808	0.2	0.5	
-0.285935	0.290775	0.588479	
0.255304	-0.0994756	0.835986	
0.313777	-0.208405	0.877459	
0.313791	-0.154465	1	
0.198682	-0.135756	0.90724	
-0.0843404	0.0959758	0.591667	
-0.104054	0.0128374	0.663816	
-0.160124	0.0403748	0.589251	
-0.0295799	0.0358881	0.577891	
-0.159007	0.150563	0.6241	
-0.222708	0.258636	0.655001	
-0.1997	0.206062	0.577949	
-0.243141	0.175788	0.70528	
-0.469721	0.171353	0.838334	
-0.312269	0.206869	0.893833	
-0.478555	0.144862	0.921652	
-0.388856	0.122276	0.792585	
0.221044	-0.17499	0.5	
0.236451	-0.193336	0.622526	
0.165128	-0.182854	0.566814	
0.213897	-0.237657	0.568565	
0.260383	-0.192244	0.5	
0.274666	-0.249265	0.5	
0.331891	-0.227727	0.595789	
0.213897	-0.237657	0.568565	
-0.0156334	-0.0737433	0.5	
0.00148161	-0.13757	0.564688	
0.0543934	-0.098021	0.585709	
0.0268659	-0.0185974	0.564249	
0.0949827	-0.187358	0.5	
0.128497	-0.139894	0.612276	
0.0966642	-0.131711	0.5	
0.0645865	-0.210943	0.590313	
0.0535528	0.0702068	0.5	
-0.0203138	0.116891	0.566619	
0.0480825	0.0400932	0.605275	
0.0803667	0.0912248	0.564492	
0.308042	0.167631	0.5	
0.259808	0.15	0.5	
0.289778	0.0776457	0.5	
0.230707	0.150403	0.598384	
-0.00915007	-0.159584	0.629557	
-0.0688906	-0.12049	0.582378	
-0.142736	-0.147946	0.615788	
-0.122368	-0.153617	0.697369	
0.0831208	-0.00188727	0.757361	
0.0259112	-0.0811505	0.774009	
0.0682711	-0.052186	0.660923	
0.118003	-0.110167	0.68636	
-0.0136448	-0.0115771	0.733329	
0.000554419	-0.0943553	0.688478	
-0.0284942	-0.0420004	0.604932	
0.0473369	0.0172976	0.690385	
0.26162	-0.00747869	0.698076	
0.191683	0.0839995	0.717836	
0.325802	0.106737	0.636954	
0.245674	0.0465287	0.605115	
0.162067	-0.0633879	0.734858	
0.191683	0.0839995	0.717836	
0.26162	-0.00747869	0.698076	
0.122018	0.0307901	0.671023	
-0.373013	-0.0200173	0.628673	
-0.346884	0.118257	0.588594	
-0.495101	0.0698189	0.572379	
-0.405387	0.0525253	0.685554	
-0.0509221	-0.120838	0.749894	
-0.00915007	-0.159584	0.629557	
0.000554419	-0.0943553	0.688478	
0.023726	-0.214303	0.683566	
-0.0625361	-0.0382385	0.5	
-0.122493	-0.0457662	0.591275	
-0.0699979	-0.0973408	0.5	
-0.0688906	-0.12049	0.582378	
0.168734	0.470668	0.701781	
0.102331	0.345115	0.749287	
0.0755103	0.388608	0.610372	
0.187975	0.355336	0.600929	
0.166469	-0.308164	0.5	
0.251869	-0.294586	0.601969	
0.128689	-0.272515	0.631723	
0.184871	-0.357405	0.649244	
-0.0156334	-0.0737433	0.5	
-0.0284942	-0.0420004	0.604932	
0.00148161	-0.13757	0.564688	
0.0268659	-0.0185974	0.564249	
-0.168688	-0.281701	1	
-0.0974804	-0.267818	0.831249	
-0.0638367	-0.295761	1	
-0.0973131	-0.377708	0.878415	
-0.159007	0.150563	0.751045	
-0.0803648	0.180844	0.680643	
-0.159007	0.150563	0.6241	
-0.145109	0.249909	0.723665	
-0.0790357	-0.366186	0.5	
-0.00328301	-0.284745	0.599465	
-0.108579	-0.348279	0.636398	
-0.029629	-0.397647	0.594827	
0.409478	-0.032947	1	
0.346509	0.0237889	1	
0.414991	0.0495125	1	
0.349701	0.023511	0.844749	
-0.198122	0.226155	0.892159	
-0.312269	0.206869	0.893833	
-0.214341	0.273759	1	
-0.202396	0.33987	0.890246	
-0.337562	0.0547633	1	
-0.29588	0.00863916	0.858008	
-0.295069	0.107196	0.837498	
-0.222536	0.133159	0.91035	
-0.303998	0.231686	0.5	
-0.31037	0.174447	0.5	
-0.259808	0.2	0.5	
-0.322372	0.204757	0.615478	
0.0486433	-0.215998	0.821724	
0.185145	-0.220341	0.859684	
0.142334	-0.324062	0.773071	
0.0851242	-0.244368	0.731714	
-0.308042	-0.167631	0.5	
-0.230141	-0.201516	0.598323	
-0.293675	-0.122789	0.650858	
-0.350556	-0.203398	0.639466	
-0.188087	-0.23341	0.686349	
-0.221522	-0.316483	0.612387	
-0.108579	-0.348279	0.636398	
-0.162672	-0.339378	0.750157	
0.325794	0.291996	0.5	
0.248409	0.277977	0.5	
0.30356	0.231708	0.5	
0.223145	0.258282	0.600696	
-0.232531	-0.00520461	0.629061	
-0.196783	0.00504363	0.5	
-0.160124	0.0403748	0.589251	
-0.208135	-0.0860903	0.586046	
-0.0422582	-0.437473	1	
0	-0.5	0.9	
-0.0684459	-0.495293	0.931403	
-0.0973131	-0.377708	0.878415	
-0.161265	-0.08127	0.716218	
-0.122493	-0.0457662	0.591275	
-0.142736	-0.147946	0.615788	
-0.208135	-0.0860903	0.586046	
0.0814864	0.493315	0.847681	
0.0206391	0.354311	0.845617	
0.102331	0.345115	0.749287	
0.141859	0.360078	0.864623	
-0.168688	-0.281701	1	
-0.0638367	-0.295761	1	
-0.0974804	-0.267818	0.831249	
-0.152603	-0.19085	0.88329	
-0.0776457	-0.289778	0.5	
-0.108579	-0.348279	0.636398	
-0.0790357	-0.366186	0.5	
-0.00328301	-0.284745	0.599465	
0.124154	0.245419	0.824268	
0.150575	0.144679	0.883538	
0.133074	0.264097	1	
0.0767997	0.290568	0.903715	
0.102331	0.345115	0.749287	
-0.0187025	0.397023	0.746774	
0.0755103	0.388608	0.610372	
0.0283105	0.314008	0.630388	
0.132817	-0.364062	0.5	
0.128689	-0.272515	0.631723	
0.0776457	-0.289778	0.5	
0.0667763	-0.376719	0.620641	
-0.401548	-0.0423374	1	
-0.384543	0.0457703	0.887922	
-0.302044	-0.0506462	1	
-0.29588	0.00863916	0.858008	
-0.00915007	-0.159584	0.629557	
-0.0810226	-0.0861052	0.668473	
-0.0688906	-0.12049	0.582378	
-0.122368	-0.153617	0.697369	
0.236451	-0.193336	0.622526	
0.251869	-0.294586	0.601969	
0.128689	-0.272515	0.631723	
0.213897	-0.237657	0.568565	
0.18228	-0.160584	0.5	
0.155716	-0.12147	0.5	
0.165128	-0.182854	0.566814	
0.149744	-0.0894982	0.564748	
0.169238	0.138503	0.5	
0.230707	0.150403	0.598384	
0.134419	0.128531	0.62625	
0.145725	0.0491975	0.586984	
0.313791	-0.154465	1	
0.313777	-0.208405	0.877459	
0.255304	-0.0994756	0.835986	
0.371732	-0.09396	0.880254	
0.165128	-0.182854	0.724456	
0.128689	-0.272515	0.631723	
0.229446	-0.281388	0.703137	
0.0851242	-0.244368	0.731714	
-0.142736	-0.147946	0.615788	
-0.122493	-0.0457662	0.591275	
-0.161265	-0.08127	0.716218	
-0.0810226	-0.0861052	0.668473	
-0.0509221	-0.120838	0.749894	
-0.140563	-0.0864996	0.858051	
-0.146541	-0.177031	0.776317	
-0.0433655	-0.190602	0.814951	
-0.0509221	-0.120838	0.749894	
-0.0810226	-0.0861052	0.668473	
-0.00915007	-0.159584	0.629557	
-0.122368	-0.153617	0.697369	
-0.0516032	-0.38053	0.763919	
0.0564693	-0.387133	0.748139	
0	-0.5	0.7	
-0.029629	-0.397647	0.594827	
-0.0426444	0.431636	0.5	
0.042537	0.432039	0.5	
0	0.5	0.6	
-0.036445	0.376821	0.622976	
0.0486433	-0.215998	0.821724	
0.0259112	-0.0811505	0.774009	
0.0565057	-0.147787	0.722206	
-0.0433655	-0.190602	0.814951	
-0.0833019	-0.493012	0.655211	
-0.108579	-0.348279	0.636398	
-0.0516032	-0.38053	0.763919	
-0.029629	-0.397647	0.594827	
-0.168688	-0.281701	1	
-0.208529	-0.319219	0.867558	
-0.0974804	-0.267818	0.831249	
-0.0973131	-0.377708	0.878415	
0.270443	0.334367	0.5	
0.248409	0.277977	0.5	
0.325794	0.291996	0.5	
0.223145	0.258282	0.600696	
-0.0625361	-0.0382385	0.5	
-0.112672	-0.0704426	0.5	
-0.0699979	-0.0973408	0.5	
-0.122493	-0.0457662	0.591275	
0.493389	-0.0810399	0.85285	
0.5	0	0.8	
0.356094	-0.0732678	0.7583	
0.371732	-0.09396	0.880254	
-0.149626	-0.106257	0.5	
-0.122493	-0.0457662	0.591275	
-0.142736	-0.147946	0.615788	
-0.0688906	-0.12049	0.582378	
-0.140563	-0.0864996	0.858051	
-0.16493	0.0307641	0.766812	
-0.257157	-0.0458854	0.782759	
-0.187544	0.023283	0.887465	
0.07775	0.0966917	0.740381	
0.00559979	0.0873054	0.798487	
-0.0201791	0.0475049	0.66463	
0.0473369	0.0172976	0.690385	
0.255304	-0.0994756	0.835986	
0.185145	-0.220341	0.859684	
0.304977	-0.200047	0.747623	
0.313777	-0.208405	0.877459	
0.247057	-0.434698	0.749501	
0.229446	-0.281388	0.703137	
0.142334	-0.324062	0.773071	
0.263974	-0.284246	0.810467	
-0.0201791	0.0475049	0.66463	
0.00559979	0.0873054	0.798487	
-0.0136448	-0.0115771	0.733329	
0.0473369	0.0172976	0.690385	
-0.246202	0.043412	0.5	
-0.177196	0.0645246	0.5	
-0.253577	0.121423	0.598057	
-0.160124	0.0403748	0.589251	
0.0854243	0.492649	0.751403	
0.0807477	0.493437	0.654224	
0.102331	0.345115	0.749287	
-0.0187025	0.397023	0.746774	
-0.108579	-0.348279	0.636398	
-0.0782828	-0.218112	0.590988	
-0.0741769	-0.222661	0.70095	
-0.00328301	-0.284745	0.599465	
0.349701	0.023511	0.844749	
0.356094	-0.0732678	0.7583	
0.5	0	0.8	
0.371732	-0.09396	0.880254	
-0.232531	-0.00520461	0.629061	
-0.293675	-0.122789	0.650858	
-0.208135	-0.0860903	0.586046	
-0.211192	-0.1537	0.666432	
-0.16685	0.0883447	1	
-0.187544	0.023283	0.887465	
-0.130723	0.131802	0.876531	
-0.0991242	-0.0135691	0.909138	
0.26162	-0.00747869	0.698076	
0.122018	0.0307901	0.671023	
0.191683	0.0839995	0.717836	
0.245674	0.0465287	0.605115	
-0.108579	-0.348279	0.636398	
0.0093178	-0.302179	0.697821	
-0.0516032	-0.38053	0.763919	
-0.029629	-0.397647	0.594827	
0.346509	0.0237889	1	
0.349701	0.023511	0.844749	
0.409478	-0.032947	1	
0.283042	-0.0276105	0.90443	
0.0682711	-0.052186	0.660923	
0.174911	-0.0307899	0.613699	
0.162067	-0.0633879	0.734858	
0.118003	-0.110167	0.68636	
-0.434698	-0.247057	0.749501	
-0.358174	-0.0931631	0.744866	
-0.307152	-0.222724	0.726676	
-0.392935	-0.114355	0.653897	
0.230141	0.201516	0.689547	
0.191683	0.0839995	0.717836	
0.325802	0.106737	0.636954	
0.30555	0.0888144	0.75317	
0.092572	-0.0674004	0.832552	
-0.0168636	-0.119171	0.872846	
0.103648	-0.156441	0.895396	
0.0906227	-0.0186438	0.910454	
-0.117671	-0.10197	1	
-0.048473	-0.0328568	1	
-0.0168636	-0.119171	0.872846	
-0.0991242	-0.0135691	0.909138	
0.450285	0.217356	0.855302	
0.293439	0.171691	0.838154	
0.4284	0.257824	0.795024	
0.385025	0.1139	0.812458	
0.128689	-0.272515	0.631723	
0.0645865	-0.210943	0.590313	
0.0776457	-0.289778	0.5	
-0.00328301	-0.284745	0.599465	
0.165128	-0.182854	0.724456	
0.0565057	-0.147787	0.722206	
0.165332	-0.129906	0.808096	
0.118003	-0.110167	0.68636	
0.356094	-0.0732678	0.7583	
0.30555	0.0888144	0.75317	
0.349701	0.023511	0.844749	
0.376828	0.00465276	0.670748	
-0.0509221	-0.120838	0.749894	
-0.00915007	-0.159584	0.629557	
-0.0810226	-0.0861052	0.668473	
0.000554419	-0.0943553	0.688478	
-0.161265	-0.08127	0.716218	
-0.24121	-0.14299	0.745605	
-0.293675	-0.122789	0.650858	
-0.211192	-0.1537	0.666432	
0.493012	0.0833019	0.844789	
0.349701	0.023511	0.844749	
0.495101	0.0698189	0.927621	
0.385025	0.1139	0.812458	
-0.217356	-0.450285	0.644698	
-0.168043	-0.470916	0.699874	
-0.108579	-0.348279	0.636398	
-0.162672	-0.339378	0.750157	
-0.187544	0.023283	0.887465	
-0.247755	-0.0727414	0.89259	
-0.140563	-0.0864996	0.858051	
-0.0991242	-0.0135691	0.909138	
-0.338342	0.189085	0.729139	
-0.243141	0.175788	0.70528	
-0.295069	0.107196	0.837498	
-0.25776	0.0501948	0.763211	
0.270443	0.334367	0.5	
0.325794	0.291996	0.5	
0.317233	0.386476	0.590473	
0.223145	0.258282	0.600696	
-0.113894	0.0780637	0.5	
-0.160124	0.0403748	0.589251	
-0.0843404	0.0959758	0.591667	
-0.159007	0.150563	0.559172	
0.25658	0.429146	0.83124	
0.215007	0.321027	0.704259	
0.247057	0.434698	0.750499	
0.284059	0.282644	0.778361	
0.338019	-0.101245	0.632718	
0.356094	-0.0732678	0.7583	
0.493012	-0.0833019	0.655211	
0.376828	0.00465276	0.670748	
-0.0168636	-0.119171	0.872846	
-0.00109612	-0.0173781	0.904468	
0.0461078	-0.0584269	1	
0.0906227	-0.0186438	0.910454	
0.0682711	-0.052186	0.660923	
0.162067	-0.0633879	0.734858	
0.174911	-0.0307899	0.613699	
0.122018	0.0307901	0.671023	
-0.16685	0.0883447	1	
-0.130723	0.131802	0.876531	
-0.0734441	0.0616893	1	
-0.0991242	-0.0135691	0.909138	
0.174911	-0.0307899	0.613699	
0.128497	-0.139894	0.612276	
0.212248	-0.110857	0.594534	
0.118003	-0.110167	0.68636	
-0.293675	-0.122789	0.650858	
-0.208135	-0.0860903	0.586046	
-0.259808	-0.15	0.5	
-0.293992	-0.0575398	0.588141	
-0.316208	0.0903343	0.672767	
-0.243141	0.175788	0.70528	
-0.338342	0.189085	0.729139	
-0.25776	0.0501948	0.763211	
0.0461078	-0.0584269	1	
0.0712814	-0.153152	1	
-0.0168636	-0.119171	0.872846	
0.103648	-0.156441	0.895396	
-0.0974804	-0.267818	0.831249	
-0.0516032	-0.38053	0.763919	
-0.162672	-0.339378	0.750157	
-0.00969375	-0.289543	0.79323	
-0.122493	-0.0457662	0.591275	
-0.208135	-0.0860903	0.586046	
-0.161265	-0.08127	0.716218	
-0.179806	-0.00389189	0.693003	
0.118461	0.161044	0.5	
0.134419	0.128531	0.62625	
0.0473696	0.155243	0.576019	
0.0803667	0.0912248	0.564492	
-0.00447954	0.190881	0.5	
0.00262968	0.233117	0.59891	
-0.0939263	0.178211	0.579293	
-0.0203138	0.116891	0.566619	
-0.259808	-0.15	0.5	
-0.308042	-0.167631	0.5	
-0.293675	-0.122789	0.650858	
-0.293992	-0.0575398	0.588141	
-0.0136448	-0.0115771	0.733329	
-0.0810226	-0.0861052	0.668473	
-0.0284942	-0.0420004	0.604932	
0.000554419	-0.0943553	0.688478	
-0.0232782	-0.127584	1	
0.0712814	-0.153152	1	
0.00183684	-0.222331	1	
-0.0168636	-0.119171	0.872846	
-0.25658	0.429146	0.66876	
-0.1727	0.337134	0.60049	
-0.120471	0.3509	0.721125	
-0.220027	0.322099	0.738771	
0.128689	-0.272515	0.631723	
0.0776457	-0.289778	0.5	
0.0667763	-0.376719	0.620641	
-0.00328301	-0.284745	0.599465	
0.114055	0.374109	1	
0.0420691	0.427134	1	
0.0728232	0.494668	0.926459	
0.141859	0.360078	0.864623	
-0.0974804	-0.267818	0.831249	
-0.0741769	-0.222661	0.70095	
-0.162672	-0.339378	0.750157	
-0.198796	-0.256159	0.777791	
-0.0509221	-0.120838	0.749894	
-0.0741769	-0.222661	0.70095	
-0.00915007	-0.159584	0.629557	
0.023726	-0.214303	0.683566	
0.092572	-0.0674004	0.832552	
-0.0168636	-0.119171	0.872846	
0.0486433	-0.215998	0.821724	
0.103648	-0.156441	0.895396	
-0.0328721	-0.370689	1	
0.0187635	-0.357972	0.857507	
-0.0973131	-0.377708	0.878415	
-0.0124705	-0.26219	0.899433	
-0.0625361	-0.0382385	0.5	
-0.0284942	-0.0420004	0.604932	
-0.122493	-0.0457662	0.591275	
-0.0688906	-0.12049	0.582378	
-0.0284942	-0.0420004	0.604932	
0.0480825	0.0400932	0.605275	
0.0682711	-0.052186	0.660923	
0.0268659	-0.0185974	0.564249	
0.00183684	-0.222331	1	
-0.0925337	-0.196451	1	
-0.0168636	-0.119171	0.872846	
-0.0124705	-0.26219	0.899433	
-0.0974804	-0.267818	0.831249	
-0.0638367	-0.295761	1	
-0.0973131	-0.377708	0.878415	
-0.0124705	-0.26219	0.899433	
-0.00447954	0.190881	0.5	
-0.0939263	0.178211	0.579293	
-0.067279	0.181403	0.5	
-0.0203138	0.116891	0.566619	
0.134419	0.128531	0.62625	
0.245674	0.0465287	0.605115	
0.191683	0.0839995	0.717836	
0.145725	0.0491975	0.586984	
-0.262727	0.245322	0.796513	
-0.295069	0.107196	0.837498	
-0.201407	0.100714	0.820483	
-0.222536	0.133159	0.91035	
-0.036445	0.376821	0.622976	
0.0755103	0.388608	0.610372	
-0.0187025	0.397023	0.746774	
0.0283105	0.314008	0.630388	
-0.262727	0.245322	0.796513	
-0.201407	0.100714	0.820483	
-0.198122	0.226155	0.892159	
-0.222536	0.133159	0.91035	
0.349701	0.023511	0.844749	
0.30555	0.0888144	0.75317	
0.197278	0.0487031	0.829069	
0.245664	0.104793	0.903539	
-0.419906	0.0889586	0.5	
-0.495101	0.0698189	0.572379	
-0.373013	-0.0200173	0.628673	
-0.346884	0.118257	0.588594	
-0.188087	-0.23341	0.686349	
-0.162672	-0.339378	0.750157	
-0.0741769	-0.222661	0.70095	
-0.198796	-0.256159	0.777791	
0.15	-0.259808	0.5	
0.165128	-0.182854	0.566814	
0.128689	-0.272515	0.631723	
0.213897	-0.237657	0.568565	
-0.0284942	-0.0420004	0.604932	
-0.0201791	0.0475049	0.66463	
-0.0136448	-0.0115771	0.733329	
0.0473369	0.0172976	0.690385	
-0.108579	-0.348279	0.636398	
-0.0782828	-0.218112	0.590988	
-0.0776457	-0.289778	0.5	
-0.17146	-0.257962	0.580515	
-0.188087	-0.23341	0.686349	
-0.253586	-0.309787	0.710553	
-0.307152	-0.222724	0.726676	
-0.295665	-0.266599	0.586027	
0.07775	0.0966917	0.740381	
-0.0583731	0.0957366	0.731357	
-0.0201791	0.0475049	0.66463	
0.00559979	0.0873054	0.798487	
-0.113894	0.0780637	0.5	
-0.13896	0.0197163	0.5	
-0.0705177	0.0247142	0.5	
-0.160124	0.0403748	0.589251	
-0.246202	0.043412	0.5	
-0.232531	-0.00520461	0.629061	
-0.196783	0.00504363	0.5	
-0.160124	0.0403748	0.589251	
0.133074	0.264097	1	
0.237861	0.283786	0.876325	
0.124154	0.245419	0.824268	
0.0767997	0.290568	0.903715	
0.092572	-0.0674004	0.832552	
0.103648	-0.156441	0.895396	
0.0486433	-0.215998	0.821724	
0.165332	-0.129906	0.808096	
0.0704482	-0.495012	0.928155	
0.0187635	-0.357972	0.857507	
0.0404524	-0.41072	1	
0.108507	-0.396912	0.833758	
0.325794	0.291996	0.5	
0.386505	0.317197	0.568825	
0.317233	0.386476	0.590473	
0.223145	0.258282	0.600696	
0.26162	-0.00747869	0.698076	
0.162067	-0.0633879	0.734858	
0.174911	-0.0307899	0.613699	
0.249893	-0.118387	0.700681	
-0.195731	-0.375572	0.5	
-0.126305	-0.416563	0.5	
-0.135086	-0.326126	0.5	
-0.108579	-0.348279	0.636398	
-0.142736	-0.147946	0.615788	
-0.0688906	-0.12049	0.582378	
-0.00915007	-0.159584	0.629557	
-0.0782828	-0.218112	0.590988	
-0.0555676	0.325574	1	
-0.081646	0.385636	0.890794	
-0.019486	0.256762	0.89034	
-0.104561	0.217724	0.908588	
-0.135086	-0.326126	0.5	
-0.221522	-0.316483	0.612387	
-0.108579	-0.348279	0.636398	
-0.17146	-0.257962	0.580515	
-0.0136448	-0.0115771	0.733329	
-0.0201791	0.0475049	0.66463	
-0.0583731	0.0957366	0.731357	
0.00559979	0.0873054	0.798487	
0.0682711	-0.052186	0.660923	
0.0480825	0.0400932	0.605275	
-0.0284942	-0.0420004	0.604932	
0.0473369	0.0172976	0.690385	
0.162067	-0.0633879	0.734858	
0.0259112	-0.0811505	0.774009	
0.0831208	-0.00188727	0.757361	
0.118003	-0.110167	0.68636	
0.134419	0.128531	0.62625	
0.230707	0.150403	0.598384	
0.191683	0.0839995	0.717836	
0.245674	0.0465287	0.605115	
-0.138674	0.323797	1	
-0.202396	0.33987	0.890246	
-0.115841	0.288513	0.837108	
-0.104561	0.217724	0.908588	
0.0776457	0.289778	0.5	
0.00262968	0.233117	0.59891	
0.119174	0.287711	0.637668	
0.0283105	0.314008	0.630388	
0.0807477	0.493437	0.654224	
0	0.5	0.7	
0.0755103	0.388608	0.610372	
-0.0187025	0.397023	0.746774	
-0.159007	0.150563	0.751045	
-0.0583731	0.0957366	0.731357	
-0.0803648	0.180844	0.680643	
-0.0614757	0.232646	0.751575	
-0.130723	0.131802	0.876531	
-0.0278211	0.108649	0.897003	
-0.0734441	0.0616893	1	
-0.0991242	-0.0135691	0.909138	
0.132817	-0.364062	0.5	
0.0667763	-0.376719	0.620641	
0.146853	-0.477948	0.584008	
0.184871	-0.357405	0.649244	
-0.221522	-0.316483	0.612387	
-0.253586	-0.309787	0.710553	
-0.188087	-0.23341	0.686349	
-0.295665	-0.266599	0.586027	
0.124154	0.245419	0.824268	
0.102331	0.345115	0.749287	
0.0704936	0.198592	0.689629	
0.0271447	0.258379	0.801291	
0.0153159	0.363557	1	
-0.081646	0.385636	0.890794	
0.0206391	0.354311	0.845617	
-0.019486	0.256762	0.89034	
0.128497	-0.139894	0.612276	
0.165128	-0.182854	0.566814	
0.0966642	-0.131711	0.5	
0.149744	-0.0894982	0.564748	
-0.278713	-0.14304	1	
-0.351812	-0.111075	0.861116	
-0.247755	-0.0727414	0.89259	
-0.328462	-0.228271	0.903506	
0.478555	0.144862	0.578348	
0.369217	0.203769	0.5	
0.364062	0.132817	0.5	
0.320995	0.210811	0.605402	
-0.337562	0.0547633	1	
-0.328307	0.16356	1	
-0.295069	0.107196	0.837498	
-0.384543	0.0457703	0.887922	
-0.00455509	0.289048	0.710952	
-0.0803648	0.180844	0.680643	
0.00262968	0.233117	0.59891	
-0.00352435	0.161713	0.716755	
0.0776457	-0.289778	0.5	
0.132817	-0.364062	0.5	
0.166469	-0.308164	0.5	
0.128689	-0.272515	0.631723	
-0.177196	0.0645246	0.5	
-0.160124	0.0403748	0.589251	
-0.154439	0.124228	0.5	
-0.159007	0.150563	0.559172	
-0.211369	-0.0761151	1	
-0.140563	-0.0864996	0.858051	
-0.247755	-0.0727414	0.89259	
-0.0991242	-0.0135691	0.909138	
0.139746	-0.170777	0.5	
0.165128	-0.182854	0.566814	
0.155716	-0.12147	0.5	
0.149744	-0.0894982	0.564748	
0.4284	0.257824	0.795024	
0.293439	0.171691	0.838154	
0.450285	0.217356	0.855302	
0.331523	0.239691	0.896553	
-0.0973459	0.263913	0.624876	
-0.1997	0.206062	0.577949	
-0.222708	0.258636	0.655001	
-0.1727	0.337134	0.60049	
-0.0741769	-0.222661	0.70095	
0.023726	-0.214303	0.683566	
-0.0433655	-0.190602	0.814951	
-0.00969375	-0.289543	0.79323	
-0.138674	0.323797	1	
-0.081646	0.385636	0.890794	
-0.115841	0.288513	0.837108	
-0.202396	0.33987	0.890246	
0.197278	0.0487031	0.829069	
0.148721	0.172259	0.753766	
0.150575	0.144679	0.883538	
0.222962	0.130748	0.792454	
-0.16493	0.0307641	0.766812	
-0.096592	-0.0392798	0.774507	
-0.0583731	0.0957366	0.731357	
-0.113733	0.0934406	0.798152	
0.349701	0.023511	0.844749	
0.30555	0.0888144	0.75317	
0.356094	-0.0732678	0.7583	
0.270025	-0.00993688	0.796605	
-0.371727	0.0207537	0.771598	
-0.384543	0.0457703	0.887922	
-0.351812	-0.111075	0.861116	
-0.29588	0.00863916	0.858008	
0.0966642	-0.131711	0.5	
0.0543934	-0.098021	0.585709	
0.128497	-0.139894	0.612276	
0.149744	-0.0894982	0.564748	
-0.278713	-0.14304	1	
-0.186407	-0.169451	1	
-0.261345	-0.230036	1	
-0.24957	-0.20227	0.837053	
0.346509	0.0237889	1	
0.276476	0.0535537	1	
0.337634	0.115561	1	
0.245664	0.104793	0.903539	
0.176544	-0.0644028	0.5	
0.212248	-0.110857	0.594534	
0.174911	-0.0307899	0.613699	
0.149744	-0.0894982	0.564748	
-0.0509221	-0.120838	0.749894	
-0.00915007	-0.159584	0.629557	
-0.0741769	-0.222661	0.70095	
-0.122368	-0.153617	0.697369	
-0.237047	0.0201392	1	
-0.187544	0.023283	0.887465	
-0.29588	0.00863916	0.858008	
-0.222536	0.133159	0.91035	
-0.261345	-0.230036	1	
-0.278713	-0.14304	1	
-0.24957	-0.20227	0.837053	
-0.328462	-0.228271	0.903506	
0.174911	-0.0307899	0.613699	
0.26162	-0.00747869	0.698076	
0.249893	-0.118387	0.700681	
0.277454	-0.0417897	0.589806	
-0.174678	0.468495	0.682891	
-0.146853	0.477948	0.584008	
-0.0814864	0.493315	0.652319	
-0.036445	0.376821	0.622976	
-0.0619448	0.0316562	0.830282	
-0.0583731	0.0957366	0.731357	
-0.0136448	-0.0115771	0.733329	
-0.096592	-0.0392798	0.774507	
-0.401548	-0.0423374	1	
-0.302044	-0.0506462	1	
-0.351812	-0.111075	0.861116	
-0.29588	0.00863916	0.858008	
-0.159007	0.150563	0.751045	
-0.114718	0.198983	0.815635	
-0.0583731	0.0957366	0.731357	
-0.0614757	0.232646	0.751575	
-0.428195	0.258165	0.798245	
-0.338342	0.189085	0.729139	
-0.262727	0.245322	0.796513	
-0.312269	0.206869	0.893833	
-0.0232782	-0.127584	1	
0.00183684	-0.222331	1	
-0.0925337	-0.196451	1	
-0.0168636	-0.119171	0.872846	
-0.0807477	0.493437	0.845776	
0.0206391	0.354311	0.845617	
-0.081646	0.385636	0.890794	
-0.0187025	0.397023	0.746774	
0.0543934	-0.098021	0.585709	
0.00148161	-0.13757	0.564688	
-0.0284942	-0.0420004	0.604932	
0.0268659	-0.0185974	0.564249	
0.169238	0.138503	0.5	
0.145725	0.0491975	0.586984	
0.134419	0.128531	0.62625	
0.0803667	0.0912248	0.564492	
0.0814864	0.493315	0.847681	
0.0206391	0.354311	0.845617	
0.0854243	0.492649	0.751403	
0.102331	0.345115	0.749287	
-0.0688906	-0.12049	0.582378	
-0.0810226	-0.0861052	0.668473	
-0.142736	-0.147946	0.615788	
-0.122368	-0.153617	0.697369	
0.325802	0.106737	0.636954	
0.191683	0.0839995	0.717836	
0.26162	-0.00747869	0.698076	
0.30555	0.0888144	0.75317	
-0.117671	-0.10197	1	
-0.048473	-0.0328568	1	
-0.0232782	-0.127584	1	
-0.0168636	-0.119171	0.872846	
0.317233	0.386476	0.590473	
0.223145	0.258282	0.600696	
0.386505	0.317197	0.568825	
0.298958	0.273011	0.680114	
-0.0619448	0.0316562	0.830282	
-0.0583731	0.0957366	0.731357	
-0.096592	-0.0392798	0.774507	
-0.113733	0.0934406	0.798152	
-0.188087	-0.23341	0.686349	
-0.221522	-0.316483	0.612387	
-0.162672	-0.339378	0.750157	
-0.253586	-0.309787	0.710553	
-0.174678	0.468495	0.682891	
-0.036445	0.376821	0.622976	
-0.0814864	0.493315	0.652319	
-0.120471	0.3509	0.721125	
0.191683	0.0839995	0.717836	
0.148721	0.172259	0.753766	
0.197278	0.0487031	0.829069	
0.222962	0.130748	0.792454	
-0.00915007	-0.159584	0.629557	
-0.142736	-0.147946	0.615788	
-0.0782828	-0.218112	0.590988	
-0.122368	-0.153617	0.697369	
-0.216506	0.125	0.5	
-0.210645	0.180174	0.5	
-0.1997	0.206062	0.577949	
-0.159007	0.150563	0.559172	
0.168734	0.470668	0.701781	
0.215007	0.321027	0.704259	
0.102331	0.345115	0.749287	
0.187975	0.355336	0.600929	
-0.108579	-0.348279	0.636398	
-0.162672	-0.339378	0.750157	
-0.168043	-0.470916	0.699874	
-0.0516032	-0.38053	0.763919	
0.142334	-0.324062	0.773071	
0.0486433	-0.215998	0.821724	
0.0851242	-0.244368	0.731714	
-0.00969375	-0.289543	0.79323	
0.0667763	-0.376719	0.620641	
0	-0.5	0.7	
0.0564693	-0.387133	0.748139	
-0.029629	-0.397647	0.594827	
-0.262727	0.245322	0.796513	
-0.115841	0.288513	0.837108	
-0.145109	0.249909	0.723665	
-0.220027	0.322099	0.738771	
0.197278	0.0487031	0.829069	
0.30555	0.0888144	0.75317	
0.349701	0.023511	0.844749	
0.270025	-0.00993688	0.796605	
-0.188087	-0.23341	0.686349	
-0.108579	-0.348279	0.636398	
-0.221522	-0.316483	0.612387	
-0.17146	-0.257962	0.580515	
0.376828	0.00465276	0.670748	
0.277454	-0.0417897	0.589806	
0.245674	0.0465287	0.605115	
0.399716	0.0593288	0.591749	
-0.0925337	-0.196451	1	
-0.0638367	-0.295761	1	
-0.152603	-0.19085	0.88329	
-0.0124705	-0.26219	0.899433	
0.197278	0.0487031	0.829069	
0.245664	0.104793	0.903539	
0.30555	0.0888144	0.75317	
0.222962	0.130748	0.792454	
-0.386505	0.317197	0.931175	
-0.317233	0.386476	0.909527	
-0.318983	0.261743	1	
-0.312269	0.206869	0.893833	
0.260383	-0.192244	0.5	
0.213897	-0.237657	0.568565	
0.331891	-0.227727	0.595789	
0.295498	-0.153797	0.576613	
-0.16493	0.0307641	0.766812	
-0.187544	0.023283	0.887465	
-0.140563	-0.0864996	0.858051	
-0.096592	-0.0392798	0.774507	
0.0854243	0.492649	0.751403	
0.102331	0.345115	0.749287	
0.0206391	0.354311	0.845617	
-0.0187025	0.397023	0.746774	
0.0814864	0.493315	0.847681	
0.0728232	0.494668	0.926459	
0.0206391	0.354311	0.845617	
0.141859	0.360078	0.864623	
-0.216506	0.125	0.5	
-0.185713	0.151649	0.5	
-0.210645	0.180174	0.5	
-0.159007	0.150563	0.559172	
-0.0814864	0.493315	0.652319	
-0.120471	0.3509	0.721125	
-0.036445	0.376821	0.622976	
-0.0187025	0.397023	0.746774	
0.169238	0.138503	0.5	
0.216506	0.125	0.5	
0.230707	0.150403	0.598384	
0.145725	0.0491975	0.586984	
-0.0509221	-0.120838	0.749894	
0.000554419	-0.0943553	0.688478	
0.0565057	-0.147787	0.722206	
0.023726	-0.214303	0.683566	
-0.104054	0.0128374	0.663816	
-0.16493	0.0307641	0.766812	
-0.0583731	0.0957366	0.731357	
-0.115015	0.0956921	0.669627	
0.07775	0.0966917	0.740381	
-0.0201791	0.0475049	0.66463	
-0.0583731	0.0957366	0.731357	
-0.00352435	0.161713	0.716755	
0.26162	-0.00747869	0.698076	
0.376828	0.00465276	0.670748	
0.30555	0.0888144	0.75317	
0.270025	-0.00993688	0.796605	
-0.168688	-0.281701	1	
-0.0974804	-0.267818	0.831249	
-0.208529	-0.319219	0.867558	
-0.152603	-0.19085	0.88329	
0.247057	-0.434698	0.749501	
0.142334	-0.324062	0.773071	
0.229446	-0.281388	0.703137	
0.184871	-0.357405	0.649244	
-0.0619448	0.0316562	0.830282	
-0.187544	0.023283	0.887465	
-0.096592	-0.0392798	0.774507	
-0.0991242	-0.0135691	0.909138	
-0.316208	0.0903343	0.672767	
-0.25776	0.0501948	0.763211	
-0.338342	0.189085	0.729139	
-0.388856	0.122276	0.792585	
-0.0509221	-0.120838	0.749894	
-0.146541	-0.177031	0.776317	
-0.140563	-0.0864996	0.858051	
-0.096592	-0.0392798	0.774507	
-0.0925337	-0.196451	1	
-0.117671	-0.10197	1	
-0.0232782	-0.127584	1	
-0.0168636	-0.119171	0.872846	
-0.00455509	0.289048	0.710952	
0.0704936	0.198592	0.689629	
0.102331	0.345115	0.749287	
0.0271447	0.258379	0.801291	
0.00155464	-0.188347	0.5	
-0.0497612	-0.177788	0.5	
-0.0782828	-0.218112	0.590988	
0.00148161	-0.13757	0.564688	
-0.428195	0.258165	0.798245	
-0.338342	0.189085	0.729139	
-0.312269	0.206869	0.893833	
-0.388856	0.122276	0.792585	
0.07775	0.0966917	0.740381	
-0.0201791	0.0475049	0.66463	
-0.00352435	0.161713	0.716755	
0.0662295	0.0983543	0.659549	
0.0093178	-0.302179	0.697821	
-0.108579	-0.348279	0.636398	
-0.0741769	-0.222661	0.70095	
-0.00328301	-0.284745	0.599465	
-0.0156334	-0.0737433	0.5	
-0.0284942	-0.0420004	0.604932	
-0.0688906	-0.12049	0.582378	
0.00148161	-0.13757	0.564688	
0.236451	-0.193336	0.622526	
0.128689	-0.272515	0.631723	
0.165128	-0.182854	0.566814	
0.213897	-0.237657	0.568565	
-0.5	0	0.7	
-0.358174	-0.0931631	0.744866	
-0.373013	-0.0200173	0.628673	
-0.405387	0.0525253	0.685554	
0	0.5	0.6	
-0.036445	0.376821	0.622976	
0.042537	0.432039	0.5	
0.0755103	0.388608	0.610372	
-0.4284	0.257824	0.704976	
-0.322372	0.204757	0.615478	
-0.415735	0.277785	0.634138	
-0.303077	0.2787	0.708341	
-0.361276	-0.0455918	0.5	
-0.373013	-0.0200173	0.628673	
-0.392935	-0.114355	0.653897	
-0.293992	-0.0575398	0.588141	
-0.246202	0.043412	0.5	
-0.246202	-0.043412	0.5	
-0.196783	0.00504363	0.5	
-0.232531	-0.00520461	0.629061	
-0.24957	-0.20227	0.837053	
-0.208529	-0.319219	0.867558	
-0.261345	-0.230036	1	
-0.328462	-0.228271	0.903506	
0.255304	-0.0994756	0.835986	
0.249893	-0.118387	0.700681	
0.162067	-0.0633879	0.734858	
0.270025	-0.00993688	0.796605	
-0.262727	0.245322	0.796513	
-0.312269	0.206869	0.893833	
-0.198122	0.226155	0.892159	
-0.202396	0.33987	0.890246	
-0.168734	0.470668	0.798219	
-0.242822	0.437078	0.847009	
-0.220027	0.322099	0.738771	
-0.202396	0.33987	0.890246	
-0.00455509	0.289048	0.710952	
0.0704936	0.198592	0.689629	
0.119174	0.287711	0.637668	
0.102331	0.345115	0.749287	
-0.222708	0.258636	0.655001	
-0.1727	0.337134	0.60049	
-0.1997	0.206062	0.577949	
-0.285935	0.290775	0.588479	
0.191683	0.0839995	0.717836	
0.245674	0.0465287	0.605115	
0.122018	0.0307901	0.671023	
0.145725	0.0491975	0.586984	
-0.115841	0.288513	0.837108	
-0.198122	0.226155	0.892159	
-0.262727	0.245322	0.796513	
-0.114718	0.198983	0.815635	
-0.222708	0.258636	0.655001	
-0.0973459	0.263913	0.624876	
-0.1727	0.337134	0.60049	
-0.145109	0.249909	0.723665	
0.0535528	0.0702068	0.5	
-0.00654379	0.0500762	0.5	
0.0454237	0.00960241	0.5	
0.0480825	0.0400932	0.605275	
-0.249565	0.273325	0.5	
-0.259808	0.2	0.5	
-0.1997	0.206062	0.577949	
-0.285935	0.290775	0.588479	
-0.0284942	-0.0420004	0.604932	
0.0543934	-0.098021	0.585709	
-0.00915007	-0.159584	0.629557	
0.00148161	-0.13757	0.564688	
-0.295069	0.107196	0.837498	
-0.338342	0.189085	0.729139	
-0.262727	0.245322	0.796513	
-0.243141	0.175788	0.70528	
-0.337562	0.0547633	1	
-0.384543	0.0457703	0.887922	
-0.295069	0.107196	0.837498	
-0.29588	0.00863916	0.858008	
-0.0712263	0.363482	0.5	
-0.0426444	0.431636	0.5	
-0.124938	0.414491	0.5	
-0.036445	0.376821	0.622976	
0.120744	-0.0747732	0.5	
0.0965515	-0.0251853	0.583435	
0.0733876	-0.0824124	0.5	
0.149744	-0.0894982	0.564748	
0.0486433	-0.215998	0.821724	
-0.0433655	-0.190602	0.814951	
0.023726	-0.214303	0.683566	
-0.00969375	-0.289543	0.79323	
-0.493437	-0.0807477	0.845776	
-0.492649	-0.0854243	0.748597	
-0.371727	0.0207537	0.771598	
-0.358174	-0.0931631	0.744866	
0.102331	0.345115	0.749287	
0.215007	0.321027	0.704259	
0.119174	0.287711	0.637668	
0.187975	0.355336	0.600929	
-0.00455509	0.289048	0.710952	
-0.036445	0.376821	0.622976	
-0.0973459	0.263913	0.624876	
-0.120471	0.3509	0.721125	
0.165128	-0.182854	0.724456	
0.229446	-0.281388	0.703137	
0.142334	-0.324062	0.773071	
0.0851242	-0.244368	0.731714	
0.313791	-0.154465	1	
0.232997	-0.11062	1	
0.283042	-0.0276105	0.90443	
0.198682	-0.135756	0.90724	
0	0.5	0.8	
0.0206391	0.354311	0.845617	
-0.0807477	0.493437	0.845776	
-0.0187025	0.397023	0.746774	
-0.168043	-0.470916	0.699874	
-0.0833019	-0.493012	0.655211	
-0.108579	-0.348279	0.636398	
-0.0516032	-0.38053	0.763919	
-0.104054	0.0128374	0.663816	
-0.122493	-0.0457662	0.591275	
-0.0810226	-0.0861052	0.668473	
-0.179806	-0.00389189	0.693003	
-0.211369	-0.0761151	1	
-0.247755	-0.0727414	0.89259	
-0.187544	0.023283	0.887465	
-0.0991242	-0.0135691	0.909138	
-0.24957	-0.20227	0.837053	
-0.247755	-0.0727414	0.89259	
-0.351812	-0.111075	0.861116	
-0.328462	-0.228271	0.903506	
0.304977	-0.200047	0.747623	
0.236451	-0.193336	0.622526	
0.249893	-0.118387	0.700681	
0.365268	-0.183537	0.674475	
0.0153159	0.363557	1	
0.0206391	0.354311	0.845617	
0.114055	0.374109	1	
0.0767997	0.290568	0.903715	
0.194694	0.304695	0.5	
0.15	0.259808	0.5	
0.223145	0.258282	0.600696	
0.187975	0.355336	0.600929	
-0.00455509	0.289048	0.710952	
-0.145109	0.249909	0.723665	
-0.0973459	0.263913	0.624876	
-0.0614757	0.232646	0.751575	
0.112799	-0.33356	1	
0.162257	-0.333773	0.890843	
0.0187635	-0.357972	0.857507	
0.0999474	-0.256123	0.897299	
-0.295069	0.107196	0.837498	
-0.243141	0.175788	0.70528	
-0.201407	0.100714	0.820483	
-0.25776	0.0501948	0.763211	
0.07775	0.0966917	0.740381	
0.0704936	0.198592	0.689629	
0.134419	0.128531	0.62625	
0.0662295	0.0983543	0.659549	
-0.0728232	0.494668	0.573541	
-0.124938	0.414491	0.5	
-0.0426444	0.431636	0.5	
-0.036445	0.376821	0.622976	
-0.104054	0.0128374	0.663816	
-0.0284942	-0.0420004	0.604932	
-0.122493	-0.0457662	0.591275	
-0.0295799	0.0358881	0.577891	
-0.154439	0.124228	0.5	
-0.177196	0.0645246	0.5	
-0.113894	0.0780637	0.5	
-0.160124	0.0403748	0.589251	
-0.230141	-0.201516	0.598323	
-0.307152	-0.222724	0.726676	
-0.188087	-0.23341	0.686349	
-0.211192	-0.1537	0.666432	
-0.159007	0.150563	0.6241	
-0.211247	0.0837089	0.687573	
-0.253577	0.121423	0.598057	
-0.160124	0.0403748	0.589251	
0.0854243	0.492649	0.751403	
0.0206391	0.354311	0.845617	
0	0.5	0.8	
-0.0187025	0.397023	0.746774	
0.0651412	0.200096	1	
0.133074	0.264097	1	
0.150575	0.144679	0.883538	
0.0505063	0.178091	0.883857	
-0.115841	0.288513	0.837108	
-0.220027	0.322099	0.738771	
-0.262727	0.245322	0.796513	
-0.202396	0.33987	0.890246	
0.0153159	0.363557	1	
-0.0555676	0.325574	1	
-0.081646	0.385636	0.890794	
-0.019486	0.256762	0.89034	
-0.478555	0.144862	0.921652	
-0.436762	0.243391	0.903062	
-0.389036	0.207425	1	
-0.312269	0.206869	0.893833	
-0.0776457	-0.289778	0.5	
-0.0782828	-0.218112	0.590988	
-0.108579	-0.348279	0.636398	
-0.00328301	-0.284745	0.599465	
-0.0973459	0.263913	0.624876	
-0.120471	0.3509	0.721125	
-0.036445	0.376821	0.622976	
-0.1727	0.337134	0.60049	
-0.0807477	0.493437	0.845776	
0.0206391	0.354311	0.845617	
0	0.5	0.9	
-0.081646	0.385636	0.890794	
0.349701	0.023511	0.844749	
0.371732	-0.09396	0.880254	
0.409478	-0.032947	1	
0.283042	-0.0276105	0.90443	
-0.00915007	-0.159584	0.629557	
0.0543934	-0.098021	0.585709	
-0.0284942	-0.0420004	0.604932	
0.000554419	-0.0943553	0.688478	
0.0653714	0.061152	0.872444	
0.07775	0.0966917	0.740381	
0.00559979	0.0873054	0.798487	
0.0617642	0.177547	0.776817	
-0.135086	-0.326126	0.5	
-0.126305	-0.416563	0.5	
-0.0790357	-0.366186	0.5	
-0.108579	-0.348279	0.636398	
0.197278	0.0487031	0.829069	
0.092572	-0.0674004	0.832552	
0.181192	-0.0401295	0.895026	
0.0906227	-0.0186438	0.910454	
0.125	0.216506	0.5	
0.043412	0.246202	0.5	
0.0594834	0.18279	0.5	
0.146959	0.210165	0.588072	
-0.419906	0.0889586	0.5	
-0.373013	-0.0200173	0.628673	
-0.351551	0.0541915	0.5	
-0.346884	0.118257	0.588594	
-0.0973459	0.263913	0.624876	
0.00262968	0.233117	0.59891	
-0.00455509	0.289048	0.710952	
-0.0803648	0.180844	0.680643	
0.30555	0.0888144	0.75317	
0.376828	0.00465276	0.670748	
0.356094	-0.0732678	0.7583	
0.270025	-0.00993688	0.796605	
-0.307152	-0.222724	0.726676	
-0.253586	-0.309787	0.710553	
-0.386498	-0.317206	0.700322	
-0.295665	-0.266599	0.586027	
0.478555	0.144862	0.578348	
0.325802	0.106737	0.636954	
0.469721	0.171353	0.661666	
0.320995	0.210811	0.605402	
0.0535528	0.0702068	0.5	
0.00365932	0.104584	0.5	
-0.0203138	0.116891	0.566619	
0.0803667	0.0912248	0.564492	
-0.263582	-0.319413	1	
-0.208529	-0.319219	0.867558	
-0.317197	-0.386505	0.931175	
-0.328462	-0.228271	0.903506	
-0.257824	-0.4284	0.704976	
-0.221522	-0.316483	0.612387	
-0.277785	-0.415735	0.634138	
-0.253586	-0.309787	0.710553	
-0.0509221	-0.120838	0.749894	
-0.161265	-0.08127	0.716218	
-0.146541	-0.177031	0.776317	
-0.096592	-0.0392798	0.774507	
0.0206391	0.354311	0.845617	
0.141859	0.360078	0.864623	
0.114055	0.374109	1	
0.0767997	0.290568	0.903715	
0.0480825	0.0400932	0.605275	
-0.0201791	0.0475049	0.66463	
-0.0284942	-0.0420004	0.604932	
0.0473369	0.0172976	0.690385	
-0.246202	0.043412	0.5	
-0.160124	0.0403748	0.589251	
-0.253577	0.121423	0.598057	
-0.299226	0.0393938	0.583455	
-0.159007	0.150563	0.751045	
-0.243141	0.175788	0.70528	
-0.211247	0.0837089	0.687573	
-0.201407	0.100714	0.820483	
-0.325943	0.285613	0.5	
-0.322372	0.204757	0.615478	
-0.303998	0.231686	0.5	
-0.285935	0.290775	0.588479	
0.134419	0.128531	0.62625	
0.191683	0.0839995	0.717836	
0.122018	0.0307901	0.671023	
0.145725	0.0491975	0.586984	
-0.0833019	-0.493012	0.655211	
-0.0516032	-0.38053	0.763919	
0	-0.5	0.7	
-0.029629	-0.397647	0.594827	
-0.0168636	-0.119171	0.872846	
0.0259112	-0.0811505	0.774009	
0.0486433	-0.215998	0.821724	
-0.0433655	-0.190602	0.814951	
-0.5	0	0.7	
-0.373013	-0.0200173	0.628673	
-0.358174	-0.0931631	0.744866	
-0.392935	-0.114355	0.653897	
-0.112672	-0.0704426	0.5	
-0.122493	-0.0457662	0.591275	
-0.149626	-0.106257	0.5	
-0.0688906	-0.12049	0.582378	
0.15	0.259808	0.5	
0.223145	0.258282	0.600696	
0.119174	0.287711	0.637668	
0.146959	0.210165	0.588072	
-0.308042	-0.167631	0.5	
-0.295665	-0.266599	0.586027	
-0.230141	-0.201516	0.598323	
-0.350556	-0.203398	0.639466	
0.0704936	0.198592	0.689629	
0.00262968	0.233117	0.59891	
0.119174	0.287711	0.637668	
0.146959	0.210165	0.588072	
-0.0619448	0.0316562	0.830282	
-0.0278211	0.108649	0.897003	
-0.130723	0.131802	0.876531	
-0.0991242	-0.0135691	0.909138	
0.293439	0.171691	0.838154	
0.30555	0.0888144	0.75317	
0.349701	0.023511	0.844749	
0.245664	0.104793	0.903539	
-0.186407	-0.169451	1	
-0.247755	-0.0727414	0.89259	
-0.140563	-0.0864996	0.858051	
-0.152603	-0.19085	0.88329	
-0.140563	-0.0864996	0.858051	
-0.096592	-0.0392798	0.774507	
-0.187544	0.023283	0.887465	
-0.0991242	-0.0135691	0.909138	
-0.211369	-0.0761151	1	
-0.140563	-0.0864996	0.858051	
-0.186407	-0.169451	1	
-0.247755	-0.0727414	0.89259	
0.112799	-0.33356	1	
0.0187635	-0.357972	0.857507	
0.0248177	-0.313374	1	
0.0999474	-0.256123	0.897299	
-0.222708	0.258636	0.655001	
-0.145109	0.249909	0.723665	
-0.220027	0.322099	0.738771	
-0.243141	0.175788	0.70528	
-0.493437	-0.0807477	0.845776	
-0.5	0	0.8	
-0.5	0	0.9	
-0.384543	0.0457703	0.887922	
0.325802	0.106737	0.636954	
0.245674	0.0465287	0.605115	
0.289778	0.0776457	0.5	
0.399716	0.0593288	0.591749	
0.260383	-0.192244	0.5	
0.274666	-0.249265	0.5	
0.304695	-0.194694	0.5	
0.331891	-0.227727	0.595789	
0.118461	0.161044	0.5	
0.134419	0.128531	0.62625	
0.169238	0.138503	0.5	
0.146959	0.210165	0.588072	
0.166469	-0.308164	0.5	
0.203679	-0.368672	0.5	
0.251869	-0.294586	0.601969	
0.184871	-0.357405	0.649244	
0.0733876	-0.0824124	0.5	
0.0543934	-0.098021	0.585709	
0.0966642	-0.131711	0.5	
0.149744	-0.0894982	0.564748	
0	0.5	0.7	
-0.036445	0.376821	0.622976	
0	0.5	0.6	
0.0755103	0.388608	0.610372	
-0.0974804	-0.267818	0.831249	
-0.146541	-0.177031	0.776317	
-0.0741769	-0.222661	0.70095	
-0.198796	-0.256159	0.777791	
0.0776457	0.289778	0.5	
0.119174	0.287711	0.637668	
0.135086	0.326126	0.5	
0.0755103	0.388608	0.610372	
0.00183684	-0.222331	1	
-0.0124705	-0.26219	0.899433	
0.103648	-0.156441	0.895396	
0.0999474	-0.256123	0.897299	
-0.295069	0.107196	0.837498	
-0.312269	0.206869	0.893833	
-0.328307	0.16356	1	
-0.222536	0.133159	0.91035	
-0.0810399	-0.493389	0.85285	
-0.0973131	-0.377708	0.878415	
0.0187635	-0.357972	0.857507	
-0.0516032	-0.38053	0.763919	
0.450285	0.217356	0.855302	
0.370295	0.150924	0.906655	
0.293439	0.171691	0.838154	
0.385025	0.1139	0.812458	
-0.5	0	0.7	
-0.371727	0.0207537	0.771598	
-0.358174	-0.0931631	0.744866	
-0.405387	0.0525253	0.685554	
0.246202	-0.043412	0.5	
0.196849	-0.00527115	0.5	
0.176544	-0.0644028	0.5	
0.174911	-0.0307899	0.613699	
-0.308042	-0.167631	0.5	
-0.30356	-0.231708	0.5	
-0.259073	-0.206972	0.5	
-0.295665	-0.266599	0.586027	
-0.0712263	0.363482	0.5	
-0.0776457	0.289778	0.5	
5.51091e-17	0.3	0.5	
-0.036445	0.376821	0.622976	
-0.159007	0.150563	0.751045	
-0.262727	0.245322	0.796513	
-0.145109	0.249909	0.723665	
-0.243141	0.175788	0.70528	
-0.338342	0.189085	0.729139	
-0.25776	0.0501948	0.763211	
-0.295069	0.107196	0.837498	
-0.388856	0.122276	0.792585	
0.242822	-0.437078	0.847009	
0.142334	-0.324062	0.773071	
0.162257	-0.333773	0.890843	
0.263974	-0.284246	0.810467	
-0.211369	-0.0761151	1	
-0.117671	-0.10197	1	
-0.140563	-0.0864996	0.858051	
-0.0991242	-0.0135691	0.909138	
0.128497	-0.139894	0.612276	
0.0645865	-0.210943	0.590313	
0.0949827	-0.187358	0.5	
0.165128	-0.182854	0.566814	
-0.238488	-0.439458	0.575692	
-0.217356	-0.450285	0.644698	
-0.152694	-0.476114	0.59754	
-0.108579	-0.348279	0.636398	
0.228406	-0.215902	0.5	
0.260383	-0.192244	0.5	
0.221044	-0.17499	0.5	
0.213897	-0.237657	0.568565	
0.26162	-0.00747869	0.698076	
0.356094	-0.0732678	0.7583	
0.376828	0.00465276	0.670748	
0.270025	-0.00993688	0.796605	
0.150575	0.144679	0.883538	
0.0505063	0.178091	0.883857	
0.133074	0.264097	1	
0.0767997	0.290568	0.903715	
0.102331	0.345115	0.749287	
-0.00455509	0.289048	0.710952	
-0.0187025	0.397023	0.746774	
0.0283105	0.314008	0.630388	
-0.159007	0.150563	0.751045	
-0.0583731	0.0957366	0.731357	
-0.114718	0.198983	0.815635	
-0.113733	0.0934406	0.798152	
-0.222708	0.258636	0.655001	
-0.1727	0.337134	0.60049	
-0.120471	0.3509	0.721125	
-0.145109	0.249909	0.723665	
-0.175601	0.220525	0.5	
-0.15	0.259808	0.5	
-0.192123	0.259903	0.5	
-0.1997	0.206062	0.577949	
0.0814864	0.493315	0.847681	
0	0.5	0.8	
0.0854243	0.492649	0.751403	
0.0206391	0.354311	0.845617	
0.197278	0.0487031	0.829069	
0.151755	0.0498946	0.914333	
0.0653714	0.061152	0.872444	
0.0906227	-0.0186438	0.910454	
2.23198e-17	0.373746	0.5	
-0.036445	0.376821	0.622976	
5.51091e-17	0.3	0.5	
0.0283105	0.314008	0.630388	
0.293439	0.171691	0.838154	
0.230141	0.201516	0.689547	
0.335831	0.198146	0.73463	
0.222962	0.130748	0.792454	
0.194694	0.304695	0.5	
0.135086	0.326126	0.5	
0.15	0.259808	0.5	
0.187975	0.355336	0.600929	
0.221044	-0.17499	0.5	
0.212248	-0.110857	0.594534	
0.236451	-0.193336	0.622526	
0.295498	-0.153797	0.576613	
0.0704936	0.198592	0.689629	
0.124154	0.245419	0.824268	
0.0271447	0.258379	0.801291	
0.0617642	0.177547	0.776817	
-0.048473	-0.0328568	1	
-0.00109612	-0.0173781	0.904468	
-0.0168636	-0.119171	0.872846	
-0.0991242	-0.0135691	0.909138	
0.0645865	-0.210943	0.590313	
0.165128	-0.182854	0.566814	
0.128497	-0.139894	0.612276	
0.103299	-0.191976	0.670856	
0.0583087	-0.173273	0.5	
0.0949827	-0.187358	0.5	
0.0966642	-0.131711	0.5	
0.0645865	-0.210943	0.590313	
-0.126305	-0.416563	0.5	
-0.0790357	-0.366186	0.5	
-0.108579	-0.348279	0.636398	
-0.029629	-0.397647	0.594827	
-0.0807477	0.493437	0.845776	
0	0.5	0.8	
0	0.5	0.9	
0.0206391	0.354311	0.845617	
0.242822	-0.437078	0.847009	
0.247057	-0.434698	0.749501	
0.142334	-0.324062	0.773071	
0.263974	-0.284246	0.810467	
-0.104054	0.0128374	0.663816	
-0.0810226	-0.0861052	0.668473	
-0.0136448	-0.0115771	0.733329	
-0.096592	-0.0392798	0.774507	
0.230141	0.201516	0.689547	
0.293439	0.171691	0.838154	
0.284059	0.282644	0.778361	
0.222962	0.130748	0.792454	
0.122018	0.0307901	0.671023	
0.245674	0.0465287	0.605115	
0.174911	-0.0307899	0.613699	
0.145725	0.0491975	0.586984	
0.25658	0.429146	0.83124	
0.247057	0.434698	0.750499	
0.317206	0.386498	0.799678	
0.284059	0.282644	0.778361	
0.15	0.259808	0.5	
0.119174	0.287711	0.637668	
0.0776457	0.289778	0.5	
0.146959	0.210165	0.588072	
0.0645865	-0.210943	0.590313	
-0.00328301	-0.284745	0.599465	
0.128689	-0.272515	0.631723	
0.023726	-0.214303	0.683566	
0.0776457	-0.289778	0.5	
0.128689	-0.272515	0.631723	
0.15	-0.259808	0.5	
0.0645865	-0.210943	0.590313	
-0.0782828	-0.218112	0.590988	
0.0645865	-0.210943	0.590313	
-0.00915007	-0.159584	0.629557	
-0.00328301	-0.284745	0.599465	
0.0454237	0.00960241	0.5	
0.0480825	0.0400932	0.605275	
-0.00654379	0.0500762	0.5	
0.0268659	-0.0185974	0.564249	
-0.192742	-0.261282	0.5	
-0.215641	-0.22714	0.5	
-0.248409	-0.277977	0.5	
-0.17146	-0.257962	0.580515	
-0.0807477	0.493437	0.845776	
-0.168734	0.470668	0.798219	
-0.0854243	0.492649	0.748597	
-0.0187025	0.397023	0.746774	
0.228991	0.444481	0.908099	
0.237861	0.283786	0.876325	
0.202324	0.378521	1	
0.141859	0.360078	0.864623	
0.142334	-0.324062	0.773071	
0.229446	-0.281388	0.703137	
0.128689	-0.272515	0.631723	
0.0851242	-0.244368	0.731714	
-0.043412	-0.246202	0.5	
0.00155464	-0.188347	0.5	
-0.0782828	-0.218112	0.590988	
-0.00328301	-0.284745	0.599465	
0.174678	-0.468495	0.682891	
0.142334	-0.324062	0.773071	
0.184871	-0.357405	0.649244	
0.0564693	-0.387133	0.748139	
-0.138674	0.323797	1	
-0.198122	0.226155	0.892159	
-0.202396	0.33987	0.890246	
-0.104561	0.217724	0.908588	
-0.216156	-0.175607	0.5	
-0.216506	-0.125	0.5	
-0.230141	-0.201516	0.598323	
-0.167688	-0.179794	0.560998	
-0.261345	-0.230036	1	
-0.24957	-0.20227	0.837053	
-0.186407	-0.169451	1	
-0.152603	-0.19085	0.88329	
0.118461	0.161044	0.5	
0.0473696	0.155243	0.576019	
0.134419	0.128531	0.62625	
0.146959	0.210165	0.588072	
0.216506	0.125	0.5	
0.245674	0.0465287	0.605115	
0.230707	0.150403	0.598384	
0.145725	0.0491975	0.586984	
0.142334	-0.324062	0.773071	
0.185145	-0.220341	0.859684	
0.0486433	-0.215998	0.821724	
0.0999474	-0.256123	0.897299	
-0.0699979	-0.0973408	0.5	
-0.122493	-0.0457662	0.591275	
-0.112672	-0.0704426	0.5	
-0.0688906	-0.12049	0.582378	
0.4284	0.257824	0.795024	
0.335831	0.198146	0.73463	
0.293439	0.171691	0.838154	
0.331523	0.239691	0.896553	
-0.262727	0.245322	0.796513	
-0.220027	0.322099	0.738771	
-0.316847	0.386792	0.801384	
-0.202396	0.33987	0.890246	
0.293439	0.171691	0.838154	
0.370295	0.150924	0.906655	
0.450285	0.217356	0.855302	
0.331523	0.239691	0.896553	
0.119174	0.287711	0.637668	
0.223145	0.258282	0.600696	
0.15	0.259808	0.5	
0.187975	0.355336	0.600929	
0.07775	0.0966917	0.740381	
0.122018	0.0307901	0.671023	
0.191683	0.0839995	0.717836	
0.0831208	-0.00188727	0.757361	
0.0903521	0.10545	1	
0.0653714	0.061152	0.872444	
-0.0278211	0.108649	0.897003	
0.0505063	0.178091	0.883857	
-0.168734	0.470668	0.798219	
-0.120471	0.3509	0.721125	
-0.0854243	0.492649	0.748597	
-0.0187025	0.397023	0.746774	
-0.194694	-0.304695	0.5	
-0.221522	-0.316483	0.612387	
-0.135086	-0.326126	0.5	
-0.17146	-0.257962	0.580515	
0.236451	-0.193336	0.622526	
0.229446	-0.281388	0.703137	
0.128689	-0.272515	0.631723	
0.251869	-0.294586	0.601969	
-0.0810399	-0.493389	0.85285	
0.0187635	-0.357972	0.857507	
0	-0.5	0.8	
-0.0516032	-0.38053	0.763919	
-0.232531	-0.00520461	0.629061	
-0.161265	-0.08127	0.716218	
-0.208135	-0.0860903	0.586046	
-0.179806	-0.00389189	0.693003	
-0.356684	-0.19351	1	
-0.47591	-0.153328	0.90763	
-0.41072	-0.12459	1	
-0.351812	-0.111075	0.861116	
0.174678	0.468495	0.817109	
0.102331	0.345115	0.749287	
0.247057	0.434698	0.750499	
0.141859	0.360078	0.864623	
-0.440961	-0.235698	0.931431	
-0.351812	-0.111075	0.861116	
-0.356684	-0.19351	1	
-0.328462	-0.228271	0.903506	
-0.0843404	0.0959758	0.591667	
-0.160124	0.0403748	0.589251	
-0.159007	0.150563	0.6241	
-0.159007	0.150563	0.559172	
-0.043412	0.246202	0.5	
-0.0776457	0.289778	0.5	
-0.0973459	0.263913	0.624876	
0.00262968	0.233117	0.59891	
0.125573	-0.41396	1	
0.153328	-0.47591	0.90763	
0.0704482	-0.495012	0.928155	
0.108507	-0.396912	0.833758	
-0.140563	-0.0864996	0.858051	
-0.146541	-0.177031	0.776317	
-0.161265	-0.08127	0.716218	
-0.096592	-0.0392798	0.774507	
0.255304	-0.0994756	0.835986	
0.356094	-0.0732678	0.7583	
0.304977	-0.200047	0.747623	
0.249893	-0.118387	0.700681	
0.259073	0.206972	0.5	
0.223145	0.258282	0.600696	
0.215641	0.22714	0.5	
0.230707	0.150403	0.598384	
0.246202	-0.043412	0.5	
0.174911	-0.0307899	0.613699	
0.176544	-0.0644028	0.5	
0.212248	-0.110857	0.594534	
0.0248177	-0.313374	1	
0.0187635	-0.357972	0.857507	
-0.0328721	-0.370689	1	
-0.0124705	-0.26219	0.899433	
-0.0156334	-0.0737433	0.5	
0.0543934	-0.098021	0.585709	
0.0376566	-0.0505847	0.5	
0.0268659	-0.0185974	0.564249	
-0.246202	-0.043412	0.5	
-0.196783	0.00504363	0.5	
-0.232531	-0.00520461	0.629061	
-0.208135	-0.0860903	0.586046	
0.308042	0.167631	0.5	
0.289778	0.0776457	0.5	
0.325802	0.106737	0.636954	
0.230707	0.150403	0.598384	
-0.259808	0.2	0.5	
-0.259808	0.15	0.5	
-0.1997	0.206062	0.577949	
-0.253577	0.121423	0.598057	
0.325794	0.291996	0.5	
0.223145	0.258282	0.600696	
0.30356	0.231708	0.5	
0.320995	0.210811	0.605402	
-0.0232782	-0.127584	1	
0.0461078	-0.0584269	1	
0.0712814	-0.153152	1	
-0.0168636	-0.119171	0.872846	
-0.00412871	0.131789	0.635032	
-0.0939263	0.178211	0.579293	
0.00262968	0.233117	0.59891	
-0.0203138	0.116891	0.566619	
-0.159007	0.150563	0.6241	
-0.0843404	0.0959758	0.591667	
-0.0939263	0.178211	0.579293	
-0.115015	0.0956921	0.669627	
-0.293675	-0.122789	0.650858	
-0.307152	-0.222724	0.726676	
-0.230141	-0.201516	0.598323	
-0.211192	-0.1537	0.666432	
0.317206	-0.386498	0.700322	
0.229446	-0.281388	0.703137	
0.376757	-0.328716	0.753532	
0.316563	-0.261412	0.680038	
-0.24957	-0.20227	0.837053	
-0.146541	-0.177031	0.776317	
-0.140563	-0.0864996	0.858051	
-0.152603	-0.19085	0.88329	
-0.15	0.259808	0.5	
-0.194694	0.304695	0.5	
-0.192123	0.259903	0.5	
-0.1727	0.337134	0.60049	
0.335831	0.198146	0.73463	
0.284059	0.282644	0.778361	
0.293439	0.171691	0.838154	
0.331523	0.239691	0.896553	
-0.140563	-0.0864996	0.858051	
-0.0168636	-0.119171	0.872846	
-0.152603	-0.19085	0.88329	
-0.0433655	-0.190602	0.814951	
0.169238	0.138503	0.5	
0.216156	0.175607	0.5	
0.169426	0.205971	0.5	
0.146959	0.210165	0.588072	
-0.00455509	0.289048	0.710952	
0.00262968	0.233117	0.59891	
0.0704936	0.198592	0.689629	
-0.00352435	0.161713	0.716755	
0.229446	-0.281388	0.703137	
0.263974	-0.284246	0.810467	
0.376757	-0.328716	0.753532	
0.316563	-0.261412	0.680038	
-0.00455509	0.289048	0.710952	
-0.120471	0.3509	0.721125	
-0.0973459	0.263913	0.624876	
-0.145109	0.249909	0.723665	
-0.161265	-0.08127	0.716218	
-0.0810226	-0.0861052	0.668473	
-0.122493	-0.0457662	0.591275	
-0.179806	-0.00389189	0.693003	
-0.351551	0.0541915	0.5	
-0.346884	0.118257	0.588594	
-0.373013	-0.0200173	0.628673	
-0.299226	0.0393938	0.583455	
0.120744	-0.0747732	0.5	
0.0733876	-0.0824124	0.5	
0.0966642	-0.131711	0.5	
0.149744	-0.0894982	0.564748	
-0.386498	-0.317206	0.700322	
-0.307152	-0.222724	0.726676	
-0.295665	-0.266599	0.586027	
-0.350556	-0.203398	0.639466	
0.4284	0.257824	0.795024	
0.450285	0.217356	0.855302	
0.415735	0.277785	0.865862	
0.331523	0.239691	0.896553	
0.174911	-0.0307899	0.613699	
0.245674	0.0465287	0.605115	
0.196849	-0.00527115	0.5	
0.145725	0.0491975	0.586984	
0.0776457	0.289778	0.5	
0.119174	0.287711	0.637668	
0.0755103	0.388608	0.610372	
0.0283105	0.314008	0.630388	
-0.401548	-0.0423374	1	
-0.41072	-0.12459	1	
-0.495012	-0.0704482	0.928155	
-0.351812	-0.111075	0.861116	
0.135086	0.326126	0.5	
0.119174	0.287711	0.637668	
0.15	0.259808	0.5	
0.187975	0.355336	0.600929	
0.202324	0.378521	1	
0.237861	0.283786	0.876325	
0.189613	0.313662	1	
0.141859	0.360078	0.864623	
-0.222708	0.258636	0.655001	
-0.1997	0.206062	0.577949	
-0.322372	0.204757	0.615478	
-0.285935	0.290775	0.588479	
-0.171353	-0.469721	0.838334	
-0.162672	-0.339378	0.750157	
-0.0973131	-0.377708	0.878415	
-0.0516032	-0.38053	0.763919	
0.166469	-0.308164	0.5	
0.15	-0.259808	0.5	
0.0776457	-0.289778	0.5	
0.128689	-0.272515	0.631723	
-0.25658	0.429146	0.66876	
-0.3168	0.386831	0.604097	
-0.1727	0.337134	0.60049	
-0.285935	0.290775	0.588479	
-0.00915007	-0.159584	0.629557	
-0.0782828	-0.218112	0.590988	
-0.0741769	-0.222661	0.70095	
-0.122368	-0.153617	0.697369	
0.0807477	0.493437	0.654224	
0.168734	0.470668	0.701781	
0.102331	0.345115	0.749287	
0.0755103	0.388608	0.610372	
0.5	0	0.9	
0.495101	0.0698189	0.927621	
0.493012	0.0833019	0.844789	
0.349701	0.023511	0.844749	
0.15	0.259808	0.5	
0.135086	0.326126	0.5	
0.0776457	0.289778	0.5	
0.119174	0.287711	0.637668	
-0.142648	-0.00714059	1	
-0.211369	-0.0761151	1	
-0.187544	0.023283	0.887465	
-0.0991242	-0.0135691	0.909138	
-0.262727	0.245322	0.796513	
-0.338342	0.189085	0.729139	
-0.295069	0.107196	0.837498	
-0.312269	0.206869	0.893833	
-0.493437	-0.0807477	0.845776	
-0.492649	-0.0854243	0.748597	
-0.5	0	0.8	
-0.371727	0.0207537	0.771598	
-0.211369	-0.0761151	1	
-0.117671	-0.10197	1	
-0.186407	-0.169451	1	
-0.140563	-0.0864996	0.858051	
0.166469	-0.308164	0.5	
0.15	-0.259808	0.5	
0.128689	-0.272515	0.631723	
0.213897	-0.237657	0.568565	
0.0653714	0.061152	0.872444	
0.0505063	0.178091	0.883857	
0.150575	0.144679	0.883538	
0.0617642	0.177547	0.776817	
2.23198e-17	0.373746	0.5	
0.0755103	0.388608	0.610372	
-0.036445	0.376821	0.622976	
0.0283105	0.314008	0.630388	
0.196849	-0.00527115	0.5	
0.245674	0.0465287	0.605115	
0.174911	-0.0307899	0.613699	
0.277454	-0.0417897	0.589806	
-0.259808	0.15	0.5	
-0.210645	0.180174	0.5	
-0.1997	0.206062	0.577949	
-0.253577	0.121423	0.598057	
-0.00412871	0.131789	0.635032	
-0.0803648	0.180844	0.680643	
0.00262968	0.233117	0.59891	
-0.0939263	0.178211	0.579293	
-0.0810399	-0.493389	0.85285	
0	-0.5	0.9	
0.0187635	-0.357972	0.857507	
-0.0973131	-0.377708	0.878415	
0.162067	-0.0633879	0.734858	
0.249893	-0.118387	0.700681	
0.255304	-0.0994756	0.835986	
0.165332	-0.129906	0.808096	
-0.0262407	0.173818	0.811595	
-0.0583731	0.0957366	0.731357	
-0.114718	0.198983	0.815635	
-0.0614757	0.232646	0.751575	
-0.161262	0.177195	0.5	
-0.125	0.216506	0.5	
-0.175601	0.220525	0.5	
-0.159007	0.150563	0.559172	
-0.468495	-0.174678	0.682891	
-0.358174	-0.0931631	0.744866	
-0.434698	-0.247057	0.749501	
-0.392935	-0.114355	0.653897	
-0.135086	-0.326126	0.5	
-0.108579	-0.348279	0.636398	
-0.0776457	-0.289778	0.5	
-0.17146	-0.257962	0.580515	
0.0583087	-0.173273	0.5	
0.0645865	-0.210943	0.590313	
0.0543934	-0.098021	0.585709	
0.00148161	-0.13757	0.564688	
-0.0728232	0.494668	0.573541	
-0.146853	0.477948	0.584008	
-0.124938	0.414491	0.5	
-0.036445	0.376821	0.622976	
-0.113226	-0.140086	0.5	
-0.0934074	-0.183691	0.5	
-0.0688906	-0.12049	0.582378	
-0.167688	-0.179794	0.560998	
-0.0328721	-0.370689	1	
-0.0973131	-0.377708	0.878415	
-0.0638367	-0.295761	1	
-0.0124705	-0.26219	0.899433	
0.202324	0.378521	1	
0.3168	0.386831	0.895903	
0.261819	0.319027	1	
0.237861	0.283786	0.876325	
0.0454237	0.00960241	0.5	
0.0965515	-0.0251853	0.583435	
0.0480825	0.0400932	0.605275	
0.0268659	-0.0185974	0.564249	
-0.043412	0.246202	0.5	
-0.0973459	0.263913	0.624876	
-0.0776457	0.289778	0.5	
-0.0939263	0.178211	0.579293	
0.128689	-0.272515	0.631723	
0.0851242	-0.244368	0.731714	
0.165128	-0.182854	0.724456	
0.103299	-0.191976	0.670856	
0.134419	0.128531	0.62625	
0.230141	0.201516	0.689547	
0.191683	0.0839995	0.717836	
0.230707	0.150403	0.598384	
-0.386792	-0.316847	0.801384	
-0.307152	-0.222724	0.726676	
-0.437078	-0.242822	0.847009	
-0.290901	-0.287972	0.800889	
-0.308042	-0.167631	0.5	
-0.293675	-0.122789	0.650858	
-0.364062	-0.132817	0.5	
-0.350556	-0.203398	0.639466	
0.293439	0.171691	0.838154	
0.335831	0.198146	0.73463	
0.4284	0.257824	0.795024	
0.385025	0.1139	0.812458	
0.158056	0.171884	1	
0.0651412	0.200096	1	
0.133074	0.264097	1	
0.150575	0.144679	0.883538	
-0.0776457	0.289778	0.5	
-0.0973459	0.263913	0.624876	
-0.125	0.216506	0.5	
-0.0939263	0.178211	0.579293	
0.26162	-0.00747869	0.698076	
0.162067	-0.0633879	0.734858	
0.249893	-0.118387	0.700681	
0.270025	-0.00993688	0.796605	
-0.104054	0.0128374	0.663816	
-0.0583731	0.0957366	0.731357	
-0.0136448	-0.0115771	0.733329	
-0.0201791	0.0475049	0.66463	
0.495293	-0.0684459	0.931403	
0.409478	-0.032947	1	
0.5	0	0.9	
0.371732	-0.09396	0.880254	
0.0733876	-0.0824124	0.5	
0.0965515	-0.0251853	0.583435	
0.0543934	-0.098021	0.585709	
0.149744	-0.0894982	0.564748	
0.142334	-0.324062	0.773071	
0.0999474	-0.256123	0.897299	
0.0187635	-0.357972	0.857507	
0.108507	-0.396912	0.833758	
-0.0284942	-0.0420004	0.604932	
0.0543934	-0.098021	0.585709	
0.0682711	-0.052186	0.660923	
0.000554419	-0.0943553	0.688478	
-0.261345	-0.230036	1	
-0.168688	-0.281701	1	
-0.208529	-0.319219	0.867558	
-0.152603	-0.19085	0.88329	
-0.263582	-0.319413	1	
-0.317197	-0.386505	0.931175	
-0.331361	-0.272953	1	
-0.328462	-0.228271	0.903506	
-0.142736	-0.147946	0.615788	
-0.122493	-0.0457662	0.591275	
-0.149626	-0.106257	0.5	
-0.208135	-0.0860903	0.586046	
-0.00412871	0.131789	0.635032	
0.00262968	0.233117	0.59891	
-0.0803648	0.180844	0.680643	
-0.00352435	0.161713	0.716755	
-0.135086	-0.326126	0.5	
-0.194694	-0.304695	0.5	
-0.195731	-0.375572	0.5	
-0.221522	-0.316483	0.612387	
0.270443	0.334367	0.5	
0.194694	0.304695	0.5	
0.248409	0.277977	0.5	
0.223145	0.258282	0.600696	
-0.3168	0.386831	0.604097	
-0.25658	0.429146	0.66876	
-0.317206	0.386498	0.700322	
-0.285935	0.290775	0.588479	
0.0814864	0.493315	0.847681	
0.102331	0.345115	0.749287	
0.174678	0.468495	0.817109	
0.141859	0.360078	0.864623	
5.51091e-17	0.3	0.5	
2.23198e-17	0.373746	0.5	
-0.0712263	0.363482	0.5	
-0.036445	0.376821	0.622976	
0.166469	-0.308164	0.5	
0.132817	-0.364062	0.5	
0.203679	-0.368672	0.5	
0.184871	-0.357405	0.649244	
0.231749	-0.30504	0.5	
0.166469	-0.308164	0.5	
0.203679	-0.368672	0.5	
0.251869	-0.294586	0.601969	
-0.232531	-0.00520461	0.629061	
-0.208135	-0.0860903	0.586046	
-0.122493	-0.0457662	0.591275	
-0.179806	-0.00389189	0.693003	
0.293439	0.171691	0.838154	
0.30555	0.0888144	0.75317	
0.245664	0.104793	0.903539	
0.222962	0.130748	0.792454	
0.376828	0.00465276	0.670748	
0.245674	0.0465287	0.605115	
0.325802	0.106737	0.636954	
0.399716	0.0593288	0.591749	
0.203679	-0.368672	0.5	
0.132817	-0.364062	0.5	
0.228991	-0.444481	0.591901	
0.184871	-0.357405	0.649244	
0.380207	-0.19708	1	
0.436762	-0.243391	0.903062	
0.313777	-0.208405	0.877459	
0.371732	-0.09396	0.880254	
-0.211247	0.0837089	0.687573	
-0.160124	0.0403748	0.589251	
-0.159007	0.150563	0.6241	
-0.115015	0.0956921	0.669627	
-0.230141	-0.201516	0.598323	
-0.295665	-0.266599	0.586027	
-0.307152	-0.222724	0.726676	
-0.350556	-0.203398	0.639466	
-0.295069	0.107196	0.837498	
-0.312269	0.206869	0.893833	
-0.338342	0.189085	0.729139	
-0.388856	0.122276	0.792585	
-0.302044	-0.0506462	1	
-0.247755	-0.0727414	0.89259	
-0.351812	-0.111075	0.861116	
-0.29588	0.00863916	0.858008	
0.228991	-0.444481	0.591901	
0.132817	-0.364062	0.5	
0.146853	-0.477948	0.584008	
0.184871	-0.357405	0.649244	
0.092572	-0.0674004	0.832552	
0.0831208	-0.00188727	0.757361	
0.162067	-0.0633879	0.734858	
0.0259112	-0.0811505	0.774009	
0.0248177	-0.313374	1	
0.112799	-0.33356	1	
0.0404524	-0.41072	1	
0.0187635	-0.357972	0.857507	
-0.194667	-0.460548	0.76567	
-0.162672	-0.339378	0.750157	
-0.171353	-0.469721	0.838334	
-0.0516032	-0.38053	0.763919	
0.236451	-0.193336	0.622526	
0.213897	-0.237657	0.568565	
0.221044	-0.17499	0.5	
0.295498	-0.153797	0.576613	
-0.270443	0.334367	0.5	
-0.195731	0.375572	0.5	
-0.228991	0.444481	0.591901	
-0.1727	0.337134	0.60049	
-0.232531	-0.00520461	0.629061	
-0.253577	0.121423	0.598057	
-0.211247	0.0837089	0.687573	
-0.160124	0.0403748	0.589251	
0.4284	0.257824	0.795024	
0.284059	0.282644	0.778361	
0.335831	0.198146	0.73463	
0.331523	0.239691	0.896553	
0.174678	-0.468495	0.682891	
0.184871	-0.357405	0.649244	
0.0667763	-0.376719	0.620641	
0.0564693	-0.387133	0.748139	
-0.120471	0.3509	0.721125	
-0.1727	0.337134	0.60049	
-0.0973459	0.263913	0.624876	
-0.145109	0.249909	0.723665	
-0.356684	-0.19351	1	
-0.41072	-0.12459	1	
-0.344127	-0.112227	1	
-0.351812	-0.111075	0.861116	
-0.0156334	-0.0737433	0.5	
0.035935	-0.11426	0.5	
0.0376566	-0.0505847	0.5	
0.0543934	-0.098021	0.585709	
0.270443	0.334367	0.5	
0.223145	0.258282	0.600696	
0.317233	0.386476	0.590473	
0.187975	0.355336	0.600929	
-0.15	0.259808	0.5	
-0.0776457	0.289778	0.5	
-0.135086	0.326126	0.5	
-0.0973459	0.263913	0.624876	
0.189613	0.313662	1	
0.141859	0.360078	0.864623	
0.237861	0.283786	0.876325	
0.0767997	0.290568	0.903715	
0.134419	0.128531	0.62625	
0.0473696	0.155243	0.576019	
0.0704936	0.198592	0.689629	
0.146959	0.210165	0.588072	
-0.00915007	-0.159584	0.629557	
-0.0284942	-0.0420004	0.604932	
-0.0688906	-0.12049	0.582378	
-0.0810226	-0.0861052	0.668473	
-0.113894	0.0780637	0.5	
-0.0843404	0.0959758	0.591667	
-0.0892693	0.13018	0.5	
-0.159007	0.150563	0.559172	
0.185145	-0.220341	0.859684	
0.304977	-0.200047	0.747623	
0.313777	-0.208405	0.877459	
0.263974	-0.284246	0.810467	
0.370295	0.150924	0.906655	
0.245664	0.104793	0.903539	
0.300884	0.198715	1	
0.331523	0.239691	0.896553	
0	-0.5	0.9	
0	-0.5	0.8	
-0.0810399	-0.493389	0.85285	
0.0187635	-0.357972	0.857507	
-0.0625361	-0.0382385	0.5	
-0.0284942	-0.0420004	0.604932	
-0.0081622	-0.0144392	0.5	
-0.0295799	0.0358881	0.577891	
-0.175601	0.220525	0.5	
-0.125	0.216506	0.5	
-0.15	0.259808	0.5	
-0.1997	0.206062	0.577949	
-0.386792	-0.316847	0.801384	
-0.434698	-0.247057	0.749501	
-0.437078	-0.242822	0.847009	
-0.307152	-0.222724	0.726676	
0.223145	0.258282	0.600696	
0.317233	0.386476	0.590473	
0.187975	0.355336	0.600929	
0.298958	0.273011	0.680114	
0.236451	-0.193336	0.622526	
0.365268	-0.183537	0.674475	
0.304977	-0.200047	0.747623	
0.316563	-0.261412	0.680038	
-0.253577	0.121423	0.598057	
-0.160124	0.0403748	0.589251	
-0.232531	-0.00520461	0.629061	
-0.299226	0.0393938	0.583455	
0.0093178	-0.302179	0.697821	
0.128689	-0.272515	0.631723	
-0.00328301	-0.284745	0.599465	
0.023726	-0.214303	0.683566	
-0.043412	0.246202	0.5	
0.00262968	0.233117	0.59891	
-0.0973459	0.263913	0.624876	
-0.0939263	0.178211	0.579293	
0	-0.5	0.9	
0.0404524	-0.41072	1	
0.0704482	-0.495012	0.928155	
0.0187635	-0.357972	0.857507	
0.18228	-0.160584	0.5	
0.165128	-0.182854	0.566814	
0.212248	-0.110857	0.594534	
0.149744	-0.0894982	0.564748	
-0.104054	0.0128374	0.663816	
-0.115015	0.0956921	0.669627	
-0.160124	0.0403748	0.589251	
-0.179806	-0.00389189	0.693003	
-0.140563	-0.0864996	0.858051	
-0.247755	-0.0727414	0.89259	
-0.24957	-0.20227	0.837053	
-0.152603	-0.19085	0.88329	
0.092572	-0.0674004	0.832552	
-0.00109612	-0.0173781	0.904468	
-0.0168636	-0.119171	0.872846	
0.0906227	-0.0186438	0.910454	
-0.0152603	-0.363012	0.5	
-0.00328301	-0.284745	0.599465	
-0.0790357	-0.366186	0.5	
-0.029629	-0.397647	0.594827	
-0.159007	0.150563	0.751045	
-0.159007	0.150563	0.6241	
-0.0803648	0.180844	0.680643	
-0.115015	0.0956921	0.669627	
0.428195	-0.258165	0.798245	
0.313777	-0.208405	0.877459	
0.304977	-0.200047	0.747623	
0.263974	-0.284246	0.810467	
-0.0974804	-0.267818	0.831249	
-0.152603	-0.19085	0.88329	
-0.0124705	-0.26219	0.899433	
-0.0433655	-0.190602	0.814951	
-0.262727	0.245322	0.796513	
-0.338342	0.189085	0.729139	
-0.376757	0.328716	0.753532	
-0.303077	0.2787	0.708341	
0.0376566	-0.0505847	0.5	
0.0543934	-0.098021	0.585709	
0.0733876	-0.0824124	0.5	
0.0268659	-0.0185974	0.564249	
0.134419	0.128531	0.62625	
0.122018	0.0307901	0.671023	
0.191683	0.0839995	0.717836	
0.0662295	0.0983543	0.659549	
0.07775	0.0966917	0.740381	
0.134419	0.128531	0.62625	
0.191683	0.0839995	0.717836	
0.0662295	0.0983543	0.659549	
0.229446	-0.281388	0.703137	
0.251869	-0.294586	0.601969	
0.317206	-0.386498	0.700322	
0.184871	-0.357405	0.649244	
0.043412	-0.246202	0.5	
0.0645865	-0.210943	0.590313	
0.00155464	-0.188347	0.5	
-0.00328301	-0.284745	0.599465	
0.230141	0.201516	0.689547	
0.293439	0.171691	0.838154	
0.335831	0.198146	0.73463	
0.284059	0.282644	0.778361	
-0.246202	0.043412	0.5	
-0.232531	-0.00520461	0.629061	
-0.160124	0.0403748	0.589251	
-0.299226	0.0393938	0.583455	
-0.374193	0.331632	0.665357	
-0.322372	0.204757	0.615478	
-0.415735	0.277785	0.634138	
-0.285935	0.290775	0.588479	
-0.174678	0.468495	0.682891	
-0.120471	0.3509	0.721125	
-0.25658	0.429146	0.66876	
-0.1727	0.337134	0.60049	
-0.135086	0.326126	0.5	
-0.15	0.259808	0.5	
-0.0973459	0.263913	0.624876	
-0.1727	0.337134	0.60049	
0.0903521	0.10545	1	
0.0653714	0.061152	0.872444	
0.0209546	0.0362755	1	
-0.0278211	0.108649	0.897003	
-0.386505	0.317197	0.931175	
-0.380873	0.323938	0.847739	
-0.317233	0.386476	0.909527	
-0.312269	0.206869	0.893833	
-0.308042	-0.167631	0.5	
-0.364062	-0.132817	0.5	
-0.293675	-0.122789	0.650858	
-0.293992	-0.0575398	0.588141	
-0.4284	0.257824	0.704976	
-0.415735	0.277785	0.634138	
-0.322372	0.204757	0.615478	
-0.384891	0.157961	0.659274	
0.134419	0.128531	0.62625	
0.07775	0.0966917	0.740381	
0.191683	0.0839995	0.717836	
0.148721	0.172259	0.753766	
-0.344127	-0.112227	1	
-0.351812	-0.111075	0.861116	
-0.278713	-0.14304	1	
-0.328462	-0.228271	0.903506	
-0.303998	0.231686	0.5	
-0.325943	0.285613	0.5	
-0.363589	0.21739	0.5	
-0.322372	0.204757	0.615478	
-0.331632	-0.374193	0.665357	
-0.386498	-0.317206	0.700322	
-0.253586	-0.309787	0.710553	
-0.295665	-0.266599	0.586027	
-0.186407	-0.169451	1	
-0.140563	-0.0864996	0.858051	
-0.117671	-0.10197	1	
-0.152603	-0.19085	0.88329	
-0.295069	0.107196	0.837498	
-0.262727	0.245322	0.796513	
-0.312269	0.206869	0.893833	
-0.222536	0.133159	0.91035	
-0.308042	-0.167631	0.5	
-0.259073	-0.206972	0.5	
-0.230141	-0.201516	0.598323	
-0.295665	-0.266599	0.586027	
-0.00447954	0.190881	0.5	
0.0473696	0.155243	0.576019	
0.00262968	0.233117	0.59891	
-0.0203138	0.116891	0.566619	
-0.217356	-0.450285	0.644698	
-0.257824	-0.4284	0.704976	
-0.168043	-0.470916	0.699874	
-0.162672	-0.339378	0.750157	
-0.317197	-0.386505	0.931175	
-0.208529	-0.319219	0.867558	
-0.323938	-0.380873	0.847739	
-0.328462	-0.228271	0.903506	
-0.371727	0.0207537	0.771598	
-0.358174	-0.0931631	0.744866	
-0.257157	-0.0458854	0.782759	
-0.29588	0.00863916	0.858008	
-0.043412	0.246202	0.5	
-0.0776457	0.289778	0.5	
-0.125	0.216506	0.5	
-0.0939263	0.178211	0.579293	
-0.262727	0.245322	0.796513	
-0.198122	0.226155	0.892159	
-0.115841	0.288513	0.837108	
-0.202396	0.33987	0.890246	
0.247057	-0.434698	0.749501	
0.174678	-0.468495	0.682891	
0.142334	-0.324062	0.773071	
0.184871	-0.357405	0.649244	
-0.171353	-0.469721	0.838334	
-0.162672	-0.339378	0.750157	
-0.208529	-0.319219	0.867558	
-0.0973131	-0.377708	0.878415	
0.0594834	0.18279	0.5	
0.0473696	0.155243	0.576019	
0.118461	0.161044	0.5	
0.146959	0.210165	0.588072	
-0.211247	0.0837089	0.687573	
-0.201407	0.100714	0.820483	
-0.243141	0.175788	0.70528	
-0.25776	0.0501948	0.763211	
0.133074	0.264097	1	
0.0505063	0.178091	0.883857	
0.0651412	0.200096	1	
0.0767997	0.290568	0.903715	
-0.198122	0.226155	0.892159	
-0.312269	0.206869	0.893833	
-0.262727	0.245322	0.796513	
-0.222536	0.133159	0.91035	
0.349701	0.023511	0.844749	
0.370295	0.150924	0.906655	
0.293439	0.171691	0.838154	
0.245664	0.104793	0.903539	
-0.188087	-0.23341	0.686349	
-0.0741769	-0.222661	0.70095	
-0.146541	-0.177031	0.776317	
-0.198796	-0.256159	0.777791	
0.0712263	0.363482	0.5	
2.23198e-17	0.373746	0.5	
5.51091e-17	0.3	0.5	
0.0283105	0.314008	0.630388	
-0.210645	0.180174	0.5	
-0.259808	0.2	0.5	
-0.259808	0.15	0.5	
-0.1997	0.206062	0.577949	
-0.0708935	-0.143579	0.5	
-0.0934074	-0.183691	0.5	
-0.0497612	-0.177788	0.5	
-0.0688906	-0.12049	0.582378	
0.134419	0.128531	0.62625	
0.0704936	0.198592	0.689629	
0.07775	0.0966917	0.740381	
0.148721	0.172259	0.753766	
0.165128	-0.182854	0.724456	
0.128497	-0.139894	0.612276	
0.103299	-0.191976	0.670856	
0.118003	-0.110167	0.68636	
-0.293675	-0.122789	0.650858	
-0.364062	-0.132817	0.5	
-0.392935	-0.114355	0.653897	
-0.293992	-0.0575398	0.588141	
-0.0295403	0.225144	1	
-0.0278211	0.108649	0.897003	
-0.019486	0.256762	0.89034	
0.0505063	0.178091	0.883857	
-0.159007	0.150563	0.751045	
-0.211247	0.0837089	0.687573	
-0.159007	0.150563	0.6241	
-0.115015	0.0956921	0.669627	
-0.0284942	-0.0420004	0.604932	
-0.00915007	-0.159584	0.629557	
-0.0688906	-0.12049	0.582378	
0.00148161	-0.13757	0.564688	
-0.120471	0.3509	0.721125	
-0.1727	0.337134	0.60049	
-0.222708	0.258636	0.655001	
-0.220027	0.322099	0.738771	
-0.13744	-0.178022	0.5	
-0.0934074	-0.183691	0.5	
-0.113226	-0.140086	0.5	
-0.167688	-0.179794	0.560998	
-0.142736	-0.147946	0.615788	
-0.161265	-0.08127	0.716218	
-0.208135	-0.0860903	0.586046	
-0.211192	-0.1537	0.666432	
0.0653714	0.061152	0.872444	
0.0831208	-0.00188727	0.757361	
0.092572	-0.0674004	0.832552	
0.0170666	-0.00404371	0.815416	
-0.00455509	0.289048	0.710952	
-0.120471	0.3509	0.721125	
-0.145109	0.249909	0.723665	
-0.0614757	0.232646	0.751575	
0.4284	0.257824	0.795024	
0.415735	0.277785	0.865862	
0.374193	0.331632	0.834643	
0.331523	0.239691	0.896553	
0.043412	0.246202	0.5	
0.125	0.216506	0.5	
0.0776457	0.289778	0.5	
0.146959	0.210165	0.588072	
0.428195	-0.258165	0.798245	
0.304977	-0.200047	0.747623	
0.376757	-0.328716	0.753532	
0.263974	-0.284246	0.810467	
-0.249565	0.273325	0.5	
-0.303998	0.231686	0.5	
-0.259808	0.2	0.5	
-0.285935	0.290775	0.588479	
-0.154439	0.124228	0.5	
-0.113894	0.0780637	0.5	
-0.0892693	0.13018	0.5	
-0.159007	0.150563	0.559172	
-0.316208	0.0903343	0.672767	
-0.253577	0.121423	0.598057	
-0.322372	0.204757	0.615478	
-0.243141	0.175788	0.70528	
-0.469721	0.171353	0.838334	
-0.436762	0.243391	0.903062	
-0.478555	0.144862	0.921652	
-0.312269	0.206869	0.893833	
-0.0741769	-0.222661	0.70095	
-0.0782828	-0.218112	0.590988	
-0.00915007	-0.159584	0.629557	
0.023726	-0.214303	0.683566	
-0.0201791	0.0475049	0.66463	
0.0662295	0.0983543	0.659549	
0.07775	0.0966917	0.740381	
0.0473369	0.0172976	0.690385	
0.0712263	0.363482	0.5	
0.0755103	0.388608	0.610372	
2.23198e-17	0.373746	0.5	
0.0283105	0.314008	0.630388	
0.175681	0.0639425	0.5	
0.245674	0.0465287	0.605115	
0.216506	0.125	0.5	
0.145725	0.0491975	0.586984	
-0.259808	-0.15	0.5	
-0.216156	-0.175607	0.5	
-0.216506	-0.125	0.5	
-0.230141	-0.201516	0.598323	
-0.138674	0.323797	1	
-0.119993	0.246691	1	
-0.198122	0.226155	0.892159	
-0.104561	0.217724	0.908588	
0.260383	-0.192244	0.5	
0.331891	-0.227727	0.595789	
0.304695	-0.194694	0.5	
0.295498	-0.153797	0.576613	
0.304977	-0.200047	0.747623	
0.249893	-0.118387	0.700681	
0.356094	-0.0732678	0.7583	
0.365268	-0.183537	0.674475	
-0.41072	-0.12459	1	
-0.47591	-0.153328	0.90763	
-0.495012	-0.0704482	0.928155	
-0.351812	-0.111075	0.861116	
0.197278	0.0487031	0.829069	
0.270025	-0.00993688	0.796605	
0.349701	0.023511	0.844749	
0.283042	-0.0276105	0.90443	
0.169426	0.205971	0.5	
0.215641	0.22714	0.5	
0.19149	0.263191	0.5	
0.146959	0.210165	0.588072	
0.289778	0.0776457	0.5	
0.325802	0.106737	0.636954	
0.230707	0.150403	0.598384	
0.245674	0.0465287	0.605115	
0.231749	-0.30504	0.5	
0.166469	-0.308164	0.5	
0.251869	-0.294586	0.601969	
0.213897	-0.237657	0.568565	
0.0728232	0.494668	0.926459	
0	0.5	0.9	
0.0814864	0.493315	0.847681	
0.0206391	0.354311	0.845617	
-0.293675	-0.122789	0.650858	
-0.364062	-0.132817	0.5	
-0.350556	-0.203398	0.639466	
-0.392935	-0.114355	0.653897	
-0.246202	0.043412	0.5	
-0.177196	0.0645246	0.5	
-0.216506	0.125	0.5	
-0.253577	0.121423	0.598057	
-0.428192	0.000626804	0.5	
-0.419906	0.0889586	0.5	
-0.495101	0.0698189	0.572379	
-0.373013	-0.0200173	0.628673	
0.18228	-0.160584	0.5	
0.216506	-0.125	0.5	
0.155716	-0.12147	0.5	
0.149744	-0.0894982	0.564748	
0.0480825	0.0400932	0.605275	
-0.0295799	0.0358881	0.577891	
-0.00654379	0.0500762	0.5	
0.0268659	-0.0185974	0.564249	
-0.0583731	0.0957366	0.731357	
-0.0262407	0.173818	0.811595	
-0.114718	0.198983	0.815635	
-0.113733	0.0934406	0.798152	
-0.0295403	0.225144	1	
-0.019486	0.256762	0.89034	
-0.0278211	0.108649	0.897003	
-0.104561	0.217724	0.908588	
-0.351812	-0.111075	0.861116	
-0.257157	-0.0458854	0.782759	
-0.358174	-0.0931631	0.744866	
-0.29588	0.00863916	0.858008	
-0.043412	0.246202	0.5	
5.51091e-17	0.3	0.5	
-0.0776457	0.289778	0.5	
0.00262968	0.233117	0.59891	
-0.351812	-0.111075	0.861116	
-0.358174	-0.0931631	0.744866	
-0.257157	-0.0458854	0.782759	
-0.24121	-0.14299	0.745605	
0.169238	0.138503	0.5	
0.175681	0.0639425	0.5	
0.216506	0.125	0.5	
0.145725	0.0491975	0.586984	
-0.3168	0.386831	0.604097	
-0.270443	0.334367	0.5	
-0.1727	0.337134	0.60049	
-0.285935	0.290775	0.588479	
0.07775	0.0966917	0.740381	
0.0831208	-0.00188727	0.757361	
0.0653714	0.061152	0.872444	
0.00559979	0.0873054	0.798487	
0.162067	-0.0633879	0.734858	
0.0831208	-0.00188727	0.757361	
0.0682711	-0.052186	0.660923	
0.118003	-0.110167	0.68636	
-0.361276	-0.0455918	0.5	
-0.392935	-0.114355	0.653897	
-0.364062	-0.132817	0.5	
-0.293992	-0.0575398	0.588141	
0.0206391	0.354311	0.845617	
-0.019486	0.256762	0.89034	
-0.115841	0.288513	0.837108	
0.0271447	0.258379	0.801291	
-0.270443	-0.334367	0.5	
-0.238488	-0.439458	0.575692	
-0.195731	-0.375572	0.5	
-0.221522	-0.316483	0.612387	
0.07775	0.0966917	0.740381	
0.191683	0.0839995	0.717836	
0.122018	0.0307901	0.671023	
0.0662295	0.0983543	0.659549	
-0.112672	-0.0704426	0.5	
-0.149626	-0.106257	0.5	
-0.113226	-0.140086	0.5	
-0.0688906	-0.12049	0.582378	
-0.5	0	0.9	
-0.401548	-0.0423374	1	
-0.495012	-0.0704482	0.928155	
-0.384543	0.0457703	0.887922	
-0.00412871	0.131789	0.635032	
-0.00352435	0.161713	0.716755	
-0.0201791	0.0475049	0.66463	
0.0662295	0.0983543	0.659549	
0.317206	-0.386498	0.700322	
0.376757	-0.328716	0.753532	
0.229446	-0.281388	0.703137	
0.263974	-0.284246	0.810467	
-0.130723	0.131802	0.876531	
-0.187544	0.023283	0.887465	
-0.0619448	0.0316562	0.830282	
-0.0991242	-0.0135691	0.909138	
0.169238	0.138503	0.5	
0.230707	0.150403	0.598384	
0.216156	0.175607	0.5	
0.146959	0.210165	0.588072	
0.493012	-0.0833019	0.655211	
0.356094	-0.0732678	0.7583	
0.490343	-0.0977967	0.758774	
0.376828	0.00465276	0.670748	
-0.135086	-0.326126	0.5	
-0.0790357	-0.366186	0.5	
-0.0776457	-0.289778	0.5	
-0.108579	-0.348279	0.636398	
0.493389	-0.0810399	0.85285	
0.371732	-0.09396	0.880254	
0.356094	-0.0732678	0.7583	
0.375849	-0.159302	0.804904	
0.259073	0.206972	0.5	
0.30356	0.231708	0.5	
0.248409	0.277977	0.5	
0.223145	0.258282	0.600696	
-0.428195	0.258165	0.798245	
-0.376757	0.328716	0.753532	
-0.262727	0.245322	0.796513	
-0.338342	0.189085	0.729139	
-0.0152603	-0.363012	0.5	
-0.0776457	-0.289778	0.5	
-0.0790357	-0.366186	0.5	
-0.00328301	-0.284745	0.599465	
-0.0741769	-0.222661	0.70095	
-0.00328301	-0.284745	0.599465	
-0.0782828	-0.218112	0.590988	
0.023726	-0.214303	0.683566	
0.337634	0.115561	1	
0.414991	0.0495125	1	
0.346509	0.0237889	1	
0.370295	0.150924	0.906655	
-0.0228356	-0.132115	0.5	
-0.0156334	-0.0737433	0.5	
-0.0699979	-0.0973408	0.5	
-0.0688906	-0.12049	0.582378	
-0.00412871	0.131789	0.635032	
-0.0843404	0.0959758	0.591667	
-0.0201791	0.0475049	0.66463	
-0.115015	0.0956921	0.669627	
0.478555	0.144862	0.578348	
0.436762	0.243391	0.596938	
0.369217	0.203769	0.5	
0.320995	0.210811	0.605402	
-0.0284942	-0.0420004	0.604932	
-0.0810226	-0.0861052	0.668473	
-0.00915007	-0.159584	0.629557	
0.000554419	-0.0943553	0.688478	
-0.0136448	-0.0115771	0.733329	
0.00559979	0.0873054	0.798487	
0.0831208	-0.00188727	0.757361	
0.0473369	0.0172976	0.690385	
-0.0619448	0.0316562	0.830282	
-0.187544	0.023283	0.887465	
-0.130723	0.131802	0.876531	
-0.113733	0.0934406	0.798152	
-0.159007	0.150563	0.6241	
-0.211247	0.0837089	0.687573	
-0.159007	0.150563	0.751045	
-0.243141	0.175788	0.70528	
-0.00412871	0.131789	0.635032	
-0.0843404	0.0959758	0.591667	
-0.0803648	0.180844	0.680643	
-0.0939263	0.178211	0.579293	
-0.261345	-0.230036	1	
-0.208529	-0.319219	0.867558	
-0.263582	-0.319413	1	
-0.328462	-0.228271	0.903506	
0.035935	-0.11426	0.5	
0.0543934	-0.098021	0.585709	
-0.0156334	-0.0737433	0.5	
0.00148161	-0.13757	0.564688	
0.338019	-0.101245	0.632718	
0.376828	0.00465276	0.670748	
0.493012	-0.0833019	0.655211	
0.390858	-0.0458412	0.581997	
-0.16493	0.0307641	0.766812	
-0.115015	0.0956921	0.669627	
-0.159007	0.150563	0.751045	
-0.113733	0.0934406	0.798152	
-0.222708	0.258636	0.655001	
-0.145109	0.249909	0.723665	
-0.120471	0.3509	0.721125	
-0.220027	0.322099	0.738771	
0.0187635	-0.357972	0.857507	
-0.0124705	-0.26219	0.899433	
0.0248177	-0.313374	1	
0.0999474	-0.256123	0.897299	
0.102519	0.0330131	0.5	
0.0480825	0.0400932	0.605275	
0.0454237	0.00960241	0.5	
0.0965515	-0.0251853	0.583435	
0.304977	-0.200047	0.747623	
0.229446	-0.281388	0.703137	
0.236451	-0.193336	0.622526	
0.316563	-0.261412	0.680038	
0.0486433	-0.215998	0.821724	
0.0565057	-0.147787	0.722206	
0.0851242	-0.244368	0.731714	
0.023726	-0.214303	0.683566	
-0.0156334	-0.0737433	0.5	
-0.0081622	-0.0144392	0.5	
-0.0625361	-0.0382385	0.5	
-0.0284942	-0.0420004	0.604932	
0.236451	-0.193336	0.622526	
0.365268	-0.183537	0.674475	
0.331891	-0.227727	0.595789	
0.295498	-0.153797	0.576613	
0.230141	0.201516	0.689547	
0.134419	0.128531	0.62625	
0.191683	0.0839995	0.717836	
0.148721	0.172259	0.753766	
0.169238	0.138503	0.5	
0.134419	0.128531	0.62625	
0.230707	0.150403	0.598384	
0.146959	0.210165	0.588072	
-0.16493	0.0307641	0.766812	
-0.211247	0.0837089	0.687573	
-0.159007	0.150563	0.751045	
-0.115015	0.0956921	0.669627	
0.202324	0.378521	1	
0.228991	0.444481	0.908099	
0.3168	0.386831	0.895903	
0.237861	0.283786	0.876325	
-0.389036	0.207425	1	
-0.328307	0.16356	1	
-0.404541	0.126945	1	
-0.312269	0.206869	0.893833	
0.0486433	-0.215998	0.821724	
0.023726	-0.214303	0.683566	
0.0851242	-0.244368	0.731714	
-0.00969375	-0.289543	0.79323	
0.380207	-0.19708	1	
0.478555	-0.144862	0.921652	
0.436762	-0.243391	0.903062	
0.371732	-0.09396	0.880254	
-0.308042	-0.167631	0.5	
-0.363128	-0.216258	0.5	
-0.30356	-0.231708	0.5	
-0.295665	-0.266599	0.586027	
0.0903521	0.10545	1	
-0.0278211	0.108649	0.897003	
-0.00425413	0.131001	1	
0.0505063	0.178091	0.883857	
-0.130723	0.131802	0.876531	
-0.201407	0.100714	0.820483	
-0.198122	0.226155	0.892159	
-0.114718	0.198983	0.815635	
-0.243391	-0.436762	0.903062	
-0.208529	-0.319219	0.867558	
-0.203173	-0.373024	1	
-0.0973131	-0.377708	0.878415	
0.0712263	0.363482	0.5	
0.0776457	0.289778	0.5	
0.135086	0.326126	0.5	
0.0755103	0.388608	0.610372	
0.469721	0.171353	0.661666	
0.320995	0.210811	0.605402	
0.325802	0.106737	0.636954	
0.393123	0.117954	0.711669	
0.317206	-0.386498	0.700322	
0.251869	-0.294586	0.601969	
0.229446	-0.281388	0.703137	
0.316563	-0.261412	0.680038	
0.26162	-0.00747869	0.698076	
0.245674	0.0465287	0.605115	
0.376828	0.00465276	0.670748	
0.277454	-0.0417897	0.589806	
0.0704936	0.198592	0.689629	
0.148721	0.172259	0.753766	
0.124154	0.245419	0.824268	
0.0617642	0.177547	0.776817	
-0.140563	-0.0864996	0.858051	
-0.187544	0.023283	0.887465	
-0.257157	-0.0458854	0.782759	
-0.247755	-0.0727414	0.89259	
0.0854243	0.492649	0.751403	
0	0.5	0.7	
0.0807477	0.493437	0.654224	
-0.0187025	0.397023	0.746774	
-0.356684	-0.19351	1	
-0.440961	-0.235698	0.931431	
-0.47591	-0.153328	0.90763	
-0.351812	-0.111075	0.861116	
-0.00412871	0.131789	0.635032	
0.0480825	0.0400932	0.605275	
-0.0203138	0.116891	0.566619	
0.0803667	0.0912248	0.564492	
0.197278	0.0487031	0.829069	
0.349701	0.023511	0.844749	
0.245664	0.104793	0.903539	
0.283042	-0.0276105	0.90443	
0.153328	-0.47591	0.90763	
0.125573	-0.41396	1	
0.162257	-0.333773	0.890843	
0.108507	-0.396912	0.833758	
-0.361276	-0.0455918	0.5	
-0.373013	-0.0200173	0.628673	
-0.419906	-0.0889586	0.5	
-0.392935	-0.114355	0.653897	
0.0153159	0.363557	1	
-0.019486	0.256762	0.89034	
0.0206391	0.354311	0.845617	
0.0767997	0.290568	0.903715	
0.293439	0.171691	0.838154	
0.245664	0.104793	0.903539	
0.370295	0.150924	0.906655	
0.331523	0.239691	0.896553	
0.133074	0.264097	1	
0.189613	0.313662	1	
0.237861	0.283786	0.876325	
0.0767997	0.290568	0.903715	
0.0187635	-0.357972	0.857507	
0.142334	-0.324062	0.773071	
0.0564693	-0.387133	0.748139	
-0.00969375	-0.289543	0.79323	
-0.278713	-0.14304	1	
-0.351812	-0.111075	0.861116	
-0.344127	-0.112227	1	
-0.247755	-0.0727414	0.89259	
-0.168688	-0.281701	1	
-0.203173	-0.373024	1	
-0.208529	-0.319219	0.867558	
-0.0973131	-0.377708	0.878415	
0.128689	-0.272515	0.631723	
0.229446	-0.281388	0.703137	
0.142334	-0.324062	0.773071	
0.184871	-0.357405	0.649244	
-0.159007	0.150563	0.6241	
-0.0973459	0.263913	0.624876	
-0.0803648	0.180844	0.680643	
-0.0939263	0.178211	0.579293	
-0.142736	-0.147946	0.615788	
-0.208135	-0.0860903	0.586046	
-0.149626	-0.106257	0.5	
-0.167688	-0.179794	0.560998	
-0.0782828	-0.218112	0.590988	
-0.00328301	-0.284745	0.599465	
-0.00915007	-0.159584	0.629557	
0.023726	-0.214303	0.683566	
-0.428195	0.258165	0.798245	
-0.312269	0.206869	0.893833	
-0.469721	0.171353	0.838334	
-0.388856	0.122276	0.792585	
0.035935	-0.11426	0.5	
0.0208735	-0.153224	0.5	
0.0583087	-0.173273	0.5	
0.00148161	-0.13757	0.564688	
-0.351812	-0.111075	0.861116	
-0.358174	-0.0931631	0.744866	
-0.371727	0.0207537	0.771598	
-0.29588	0.00863916	0.858008	
-0.0328721	-0.370689	1	
0.0248177	-0.313374	1	
0.0404524	-0.41072	1	
0.0187635	-0.357972	0.857507	
-0.232531	-0.00520461	0.629061	
-0.211247	0.0837089	0.687573	
-0.253577	0.121423	0.598057	
-0.299226	0.0393938	0.583455	
0.0712814	-0.153152	1	
0.00183684	-0.222331	1	
0.103648	-0.156441	0.895396	
0.0999474	-0.256123	0.897299	
0.0583087	-0.173273	0.5	
0.0966642	-0.131711	0.5	
0.035935	-0.11426	0.5	
0.0543934	-0.098021	0.585709	
-0.00412871	0.131789	0.635032	
0.0480825	0.0400932	0.605275	
-0.0295799	0.0358881	0.577891	
-0.0203138	0.116891	0.566619	
-0.371727	0.0207537	0.771598	
-0.25776	0.0501948	0.763211	
-0.316208	0.0903343	0.672767	
-0.388856	0.122276	0.792585	
-0.0284942	-0.0420004	0.604932	
0.0682711	-0.052186	0.660923	
0.0543934	-0.098021	0.585709	
0.0268659	-0.0185974	0.564249	
-0.216506	0.125	0.5	
-0.1997	0.206062	0.577949	
-0.210645	0.180174	0.5	
-0.253577	0.121423	0.598057	
-0.230141	-0.201516	0.598323	
-0.307152	-0.222724	0.726676	
-0.293675	-0.122789	0.650858	
-0.350556	-0.203398	0.639466	
0.334367	-0.270443	0.5	
0.388274	-0.315029	0.579193	
0.331891	-0.227727	0.595789	
0.251869	-0.294586	0.601969	
-0.323938	-0.380873	0.847739	
-0.328462	-0.228271	0.903506	
-0.208529	-0.319219	0.867558	
-0.290901	-0.287972	0.800889	
0.0682711	-0.052186	0.660923	
0.162067	-0.0633879	0.734858	
0.122018	0.0307901	0.671023	
0.0831208	-0.00188727	0.757361	
-0.0688906	-0.12049	0.582378	
-0.0782828	-0.218112	0.590988	
-0.0497612	-0.177788	0.5	
0.00148161	-0.13757	0.564688	
0.230707	0.150403	0.598384	
0.245674	0.0465287	0.605115	
0.134419	0.128531	0.62625	
0.145725	0.0491975	0.586984	
-0.415735	0.277785	0.634138	
-0.322372	0.204757	0.615478	
-0.374193	0.331632	0.665357	
-0.303077	0.2787	0.708341	
0.470916	-0.168043	0.699874	
0.356094	-0.0732678	0.7583	
0.365268	-0.183537	0.674475	
0.375849	-0.159302	0.804904	
-0.00412871	0.131789	0.635032	
-0.0803648	0.180844	0.680643	
-0.0843404	0.0959758	0.591667	
-0.115015	0.0956921	0.669627	
0.0851242	-0.244368	0.731714	
0.0564693	-0.387133	0.748139	
0.142334	-0.324062	0.773071	
-0.00969375	-0.289543	0.79323	
-0.257157	-0.0458854	0.782759	
-0.187544	0.023283	0.887465	
-0.16493	0.0307641	0.766812	
-0.25776	0.0501948	0.763211	
0.203679	-0.368672	0.5	
0.29185	-0.325871	0.5	
0.231749	-0.30504	0.5	
0.251869	-0.294586	0.601969	
-0.31037	0.174447	0.5	
-0.31598	0.119651	0.5	
-0.259808	0.15	0.5	
-0.253577	0.121423	0.598057	
0.25658	0.429146	0.83124	
0.317206	0.386498	0.799678	
0.237861	0.283786	0.876325	
0.284059	0.282644	0.778361	
0.0535528	0.0702068	0.5	
0.0480825	0.0400932	0.605275	
0.0454237	0.00960241	0.5	
0.0803667	0.0912248	0.564492	
0.356094	-0.0732678	0.7583	
0.249893	-0.118387	0.700681	
0.338019	-0.101245	0.632718	
0.365268	-0.183537	0.674475	
-0.160124	0.0403748	0.589251	
-0.115015	0.0956921	0.669627	
-0.211247	0.0837089	0.687573	
-0.179806	-0.00389189	0.693003	
0.124154	0.245419	0.824268	
0.0505063	0.178091	0.883857	
0.150575	0.144679	0.883538	
0.0767997	0.290568	0.903715	
0.174678	0.468495	0.817109	
0.247057	0.434698	0.750499	
0.25658	0.429146	0.83124	
0.141859	0.360078	0.864623	
0.255304	-0.0994756	0.835986	
0.356094	-0.0732678	0.7583	
0.249893	-0.118387	0.700681	
0.270025	-0.00993688	0.796605	
-0.262727	0.245322	0.796513	
-0.220027	0.322099	0.738771	
-0.145109	0.249909	0.723665	
-0.243141	0.175788	0.70528	
-0.142736	-0.147946	0.615788	
-0.17146	-0.257962	0.580515	
-0.230141	-0.201516	0.598323	
-0.167688	-0.179794	0.560998	
-0.258165	-0.428195	0.798245	
-0.162672	-0.339378	0.750157	
-0.253586	-0.309787	0.710553	
-0.290901	-0.287972	0.800889	
0.349701	0.023511	0.844749	
0.293439	0.171691	0.838154	
0.370295	0.150924	0.906655	
0.385025	0.1139	0.812458	
-0.048473	-0.0328568	1	
-0.0232782	-0.127584	1	
-0.0168636	-0.119171	0.872846	
-0.00109612	-0.0173781	0.904468	
0.376828	0.00465276	0.670748	
0.390858	-0.0458412	0.581997	
0.277454	-0.0417897	0.589806	
0.399716	0.0593288	0.591749	
0.215641	0.22714	0.5	
0.230707	0.150403	0.598384	
0.223145	0.258282	0.600696	
0.146959	0.210165	0.588072	
-0.277785	-0.415735	0.634138	
-0.217356	-0.450285	0.644698	
-0.238488	-0.439458	0.575692	
-0.221522	-0.316483	0.612387	
-0.211369	-0.0761151	1	
-0.142648	-0.00714059	1	
-0.117671	-0.10197	1	
-0.0991242	-0.0135691	0.909138	
-0.0295403	0.225144	1	
-0.00425413	0.131001	1	
-0.0278211	0.108649	0.897003	
0.0505063	0.178091	0.883857	
0.230141	0.201516	0.689547	
0.30555	0.0888144	0.75317	
0.325802	0.106737	0.636954	
0.335831	0.198146	0.73463	
-0.104054	0.0128374	0.663816	
-0.0843404	0.0959758	0.591667	
-0.0201791	0.0475049	0.66463	
-0.0295799	0.0358881	0.577891	
-0.0973459	0.263913	0.624876	
-0.036445	0.376821	0.622976	
-0.00455509	0.289048	0.710952	
0.0283105	0.314008	0.630388	
-0.168688	-0.281701	1	
-0.0925337	-0.196451	1	
-0.0638367	-0.295761	1	
-0.152603	-0.19085	0.88329	
0.146853	-0.477948	0.584008	
0.132817	-0.364062	0.5	
0.130932	-0.431625	0.5	
0.0667763	-0.376719	0.620641	
0.223145	0.258282	0.600696	
0.187975	0.355336	0.600929	
0.215007	0.321027	0.704259	
0.298958	0.273011	0.680114	
0.128689	-0.272515	0.631723	
0.165128	-0.182854	0.566814	
0.0645865	-0.210943	0.590313	
0.103299	-0.191976	0.670856	
-0.0497612	-0.177788	0.5	
-0.0228356	-0.132115	0.5	
-0.0708935	-0.143579	0.5	
0.00148161	-0.13757	0.564688	
-0.0776457	0.289778	0.5	
-0.15	0.259808	0.5	
-0.125	0.216506	0.5	
-0.0973459	0.263913	0.624876	
-0.5	0	0.7	
-0.493315	-0.0814864	0.652319	
-0.373013	-0.0200173	0.628673	
-0.392935	-0.114355	0.653897	
0.308042	0.167631	0.5	
0.289778	0.0776457	0.5	
0.364062	0.132817	0.5	
0.325802	0.106737	0.636954	
-0.159007	0.150563	0.6241	
-0.0939263	0.178211	0.579293	
-0.0803648	0.180844	0.680643	
-0.115015	0.0956921	0.669627	
0.0807477	0.493437	0.654224	
0	0.5	0.7	
0	0.5	0.6	
0.0755103	0.388608	0.610372	
0.0093178	-0.302179	0.697821	
0.128689	-0.272515	0.631723	
0.0667763	-0.376719	0.620641	
-0.00328301	-0.284745	0.599465	
0.0543934	-0.098021	0.585709	
0.0965515	-0.0251853	0.583435	
0.0733876	-0.0824124	0.5	
0.0268659	-0.0185974	0.564249	
0.165128	-0.182854	0.724456	
0.249893	-0.118387	0.700681	
0.162067	-0.0633879	0.734858	
0.165332	-0.129906	0.808096	
-0.439458	0.238488	0.575692	
-0.363589	0.21739	0.5	
-0.322372	0.204757	0.615478	
-0.346884	0.118257	0.588594	
0.00155464	-0.188347	0.5	
0.0583087	-0.173273	0.5	
0.0208735	-0.153224	0.5	
0.00148161	-0.13757	0.564688	
0.120744	-0.0747732	0.5	
0.0854359	-0.0267855	0.5	
0.0733876	-0.0824124	0.5	
0.0965515	-0.0251853	0.583435	
-0.232531	-0.00520461	0.629061	
-0.160124	0.0403748	0.589251	
-0.122493	-0.0457662	0.591275	
-0.208135	-0.0860903	0.586046	
0.202324	0.378521	1	
0.261819	0.319027	1	
0.189613	0.313662	1	
0.237861	0.283786	0.876325	
-0.00412871	0.131789	0.635032	
0.0704936	0.198592	0.689629	
0.00262968	0.233117	0.59891	
-0.00352435	0.161713	0.716755	
-0.31037	0.174447	0.5	
-0.253577	0.121423	0.598057	
-0.322372	0.204757	0.615478	
-0.346884	0.118257	0.588594	
-0.140563	-0.0864996	0.858051	
-0.152603	-0.19085	0.88329	
-0.146541	-0.177031	0.776317	
-0.0433655	-0.190602	0.814951	
-0.351551	0.0541915	0.5	
-0.419906	0.0889586	0.5	
-0.428192	0.000626804	0.5	
-0.373013	-0.0200173	0.628673	
-0.331361	-0.272953	1	
-0.317197	-0.386505	0.931175	
-0.386476	-0.317233	0.909527	
-0.328462	-0.228271	0.903506	
-0.246202	-0.043412	0.5	
-0.232531	-0.00520461	0.629061	
-0.246202	0.043412	0.5	
-0.299226	0.0393938	0.583455	
0.0814864	0.493315	0.847681	
0.0854243	0.492649	0.751403	
0.174678	0.468495	0.817109	
0.102331	0.345115	0.749287	
0.196849	-0.00527115	0.5	
0.174911	-0.0307899	0.613699	
0.246202	-0.043412	0.5	
0.277454	-0.0417897	0.589806	
0.0486433	-0.215998	0.821724	
0.103648	-0.156441	0.895396	
0.185145	-0.220341	0.859684	
0.165332	-0.129906	0.808096	
0.0653714	0.061152	0.872444	
0.00559979	0.0873054	0.798487	
0.0505063	0.178091	0.883857	
0.0617642	0.177547	0.776817	
0.125	-0.216506	0.5	
0.0776457	-0.289778	0.5	
0.15	-0.259808	0.5	
0.0645865	-0.210943	0.590313	
-0.168734	0.470668	0.798219	
-0.242822	0.437078	0.847009	
-0.247057	0.434698	0.749501	
-0.220027	0.322099	0.738771	
0.162067	-0.0633879	0.734858	
0.249893	-0.118387	0.700681	
0.165128	-0.182854	0.724456	
0.118003	-0.110167	0.68636	
-0.0934074	-0.183691	0.5	
-0.0782828	-0.218112	0.590988	
-0.0688906	-0.12049	0.582378	
-0.167688	-0.179794	0.560998	
0.230141	0.201516	0.689547	
0.191683	0.0839995	0.717836	
0.30555	0.0888144	0.75317	
0.222962	0.130748	0.792454	
0.221044	-0.17499	0.5	
0.259808	-0.15	0.5	
0.212248	-0.110857	0.594534	
0.295498	-0.153797	0.576613	
-0.0509221	-0.120838	0.749894	
-0.0136448	-0.0115771	0.733329	
-0.0810226	-0.0861052	0.668473	
-0.096592	-0.0392798	0.774507	
-0.00412871	0.131789	0.635032	
-0.0201791	0.0475049	0.66463	
-0.0583731	0.0957366	0.731357	
-0.115015	0.0956921	0.669627	
-0.4284	0.257824	0.704976	
-0.338342	0.189085	0.729139	
-0.322372	0.204757	0.615478	
-0.303077	0.2787	0.708341	
-0.5	0	0.6	
-0.373013	-0.0200173	0.628673	
-0.495101	0.0698189	0.572379	
-0.405387	0.0525253	0.685554	
0.215007	0.321027	0.704259	
0.187975	0.355336	0.600929	
0.317233	0.386476	0.590473	
0.298958	0.273011	0.680114	
-0.168734	0.470668	0.798219	
-0.247057	0.434698	0.749501	
-0.120471	0.3509	0.721125	
-0.220027	0.322099	0.738771	
-0.188087	-0.23341	0.686349	
-0.230141	-0.201516	0.598323	
-0.142736	-0.147946	0.615788	
-0.17146	-0.257962	0.580515	
-0.0507575	0.0878249	0.5	
-0.113894	0.0780637	0.5	
-0.0705177	0.0247142	0.5	
-0.0843404	0.0959758	0.591667	
0.203679	-0.368672	0.5	
0.228991	-0.444481	0.591901	
0.251869	-0.294586	0.601969	
0.184871	-0.357405	0.649244	
0.236451	-0.193336	0.622526	
0.331891	-0.227727	0.595789	
0.365268	-0.183537	0.674475	
0.316563	-0.261412	0.680038	
0.414183	0.131147	1	
0.495101	0.0698189	0.927621	
0.414991	0.0495125	1	
0.370295	0.150924	0.906655	
-0.104054	0.0128374	0.663816	
-0.0201791	0.0475049	0.66463	
-0.0284942	-0.0420004	0.604932	
-0.0295799	0.0358881	0.577891	
0.0728232	0.494668	0.926459	
0.146853	0.477948	0.915992	
0.114055	0.374109	1	
0.141859	0.360078	0.864623	
-0.0583731	0.0957366	0.731357	
-0.115015	0.0956921	0.669627	
-0.16493	0.0307641	0.766812	
-0.113733	0.0934406	0.798152	
0.388274	-0.315029	0.579193	
0.331891	-0.227727	0.595789	
0.251869	-0.294586	0.601969	
0.316563	-0.261412	0.680038	
0.0903521	0.10545	1	
0.0209546	0.0362755	1	
-0.00425413	0.131001	1	
-0.0278211	0.108649	0.897003	
-0.248409	-0.277977	0.5	
-0.215641	-0.22714	0.5	
-0.259073	-0.206972	0.5	
-0.295665	-0.266599	0.586027	
0.103648	-0.156441	0.895396	
-0.0124705	-0.26219	0.899433	
0.0486433	-0.215998	0.821724	
0.0999474	-0.256123	0.897299	
-0.173205	-0.15	0.5	
-0.149626	-0.106257	0.5	
-0.208135	-0.0860903	0.586046	
-0.167688	-0.179794	0.560998	
-0.125	0.216506	0.5	
-0.0939263	0.178211	0.579293	
-0.1997	0.206062	0.577949	
-0.159007	0.150563	0.559172	
-0.171353	-0.469721	0.838334	
-0.162672	-0.339378	0.750157	
-0.258165	-0.428195	0.798245	
-0.208529	-0.319219	0.867558	
0.221044	-0.17499	0.5	
0.260383	-0.192244	0.5	
0.259808	-0.15	0.5	
0.295498	-0.153797	0.576613	
-0.0509221	-0.120838	0.749894	
-0.0810226	-0.0861052	0.668473	
-0.0136448	-0.0115771	0.733329	
0.000554419	-0.0943553	0.688478	
0.369217	0.203769	0.5	
0.431625	0.130932	0.5	
0.478555	0.144862	0.578348	
0.364062	0.132817	0.5	
0.0486433	-0.215998	0.821724	
-0.0124705	-0.26219	0.899433	
-0.0168636	-0.119171	0.872846	
-0.0433655	-0.190602	0.814951	
-0.5	0	0.7	
-0.358174	-0.0931631	0.744866	
-0.492649	-0.0854243	0.748597	
-0.392935	-0.114355	0.653897	
0.19149	0.263191	0.5	
0.223145	0.258282	0.600696	
0.15	0.259808	0.5	
0.146959	0.210165	0.588072	
-0.0734441	0.0616893	1	
-0.0278211	0.108649	0.897003	
-0.00109612	-0.0173781	0.904468	
-0.0991242	-0.0135691	0.909138	
0.436762	0.243391	0.596938	
0.478555	0.144862	0.578348	
0.469721	0.171353	0.661666	
0.320995	0.210811	0.605402	
0.0461078	-0.0584269	1	
0.14072	-0.0839746	1	
0.103648	-0.156441	0.895396	
0.0906227	-0.0186438	0.910454	
-0.337562	0.0547633	1	
-0.404541	0.126945	1	
-0.328307	0.16356	1	
-0.384543	0.0457703	0.887922	
0	0.5	0.8	
0.0814864	0.493315	0.847681	
0	0.5	0.9	
0.0206391	0.354311	0.845617	
0.0903521	0.10545	1	
0.150575	0.144679	0.883538	
0.0653714	0.061152	0.872444	
0.0505063	0.178091	0.883857	
-0.380873	0.323938	0.847739	
-0.428195	0.258165	0.798245	
-0.262727	0.245322	0.796513	
-0.312269	0.206869	0.893833	
-0.125	0.216506	0.5	
-0.1997	0.206062	0.577949	
-0.175601	0.220525	0.5	
-0.159007	0.150563	0.559172	
0.119174	0.287711	0.637668	
0.223145	0.258282	0.600696	
0.230141	0.201516	0.689547	
0.146959	0.210165	0.588072	
0.313791	-0.154465	1	
0.380207	-0.19708	1	
0.313777	-0.208405	0.877459	
0.371732	-0.09396	0.880254	
0.469721	0.171353	0.661666	
0.325802	0.106737	0.636954	
0.478555	0.144862	0.578348	
0.399716	0.0593288	0.591749	
-0.214341	0.273759	1	
-0.198122	0.226155	0.892159	
-0.26105	0.203399	1	
-0.312269	0.206869	0.893833	
0.168734	-0.470668	0.798219	
0.142334	-0.324062	0.773071	
0.174678	-0.468495	0.682891	
0.0564693	-0.387133	0.748139	
0.0461078	-0.0584269	1	
-0.0168636	-0.119171	0.872846	
-0.0232782	-0.127584	1	
-0.00109612	-0.0173781	0.904468	
-0.115841	0.288513	0.837108	
-0.202396	0.33987	0.890246	
-0.198122	0.226155	0.892159	
-0.104561	0.217724	0.908588	
0.338019	-0.101245	0.632718	
0.356094	-0.0732678	0.7583	
0.26162	-0.00747869	0.698076	
0.249893	-0.118387	0.700681	
-0.5	0	0.7	
-0.371727	0.0207537	0.771598	
-0.492649	-0.0854243	0.748597	
-0.358174	-0.0931631	0.744866	
0.334367	-0.270443	0.5	
0.331891	-0.227727	0.595789	
0.274666	-0.249265	0.5	
0.251869	-0.294586	0.601969	
0.128497	-0.139894	0.612276	
0.0682711	-0.052186	0.660923	
0.0543934	-0.098021	0.585709	
0.118003	-0.110167	0.68636	
0.174911	-0.0307899	0.613699	
0.212248	-0.110857	0.594534	
0.128497	-0.139894	0.612276	
0.149744	-0.0894982	0.564748	
0.236451	-0.193336	0.622526	
0.212248	-0.110857	0.594534	
0.249893	-0.118387	0.700681	
0.295498	-0.153797	0.576613	
-0.0803648	0.180844	0.680643	
-0.0939263	0.178211	0.579293	
-0.0843404	0.0959758	0.591667	
-0.115015	0.0956921	0.669627	
0.197278	0.0487031	0.829069	
0.181192	-0.0401295	0.895026	
0.151755	0.0498946	0.914333	
0.0906227	-0.0186438	0.910454	
0.490343	-0.0977967	0.758774	
0.493012	-0.0833019	0.655211	
0.470916	-0.168043	0.699874	
0.356094	-0.0732678	0.7583	
-0.159007	0.150563	0.6241	
-0.160124	0.0403748	0.589251	
-0.0843404	0.0959758	0.591667	
-0.115015	0.0956921	0.669627	
-0.253577	0.121423	0.598057	
-0.211247	0.0837089	0.687573	
-0.159007	0.150563	0.6241	
-0.243141	0.175788	0.70528	
-0.41072	-0.12459	1	
-0.401548	-0.0423374	1	
-0.344127	-0.112227	1	
-0.351812	-0.111075	0.861116	
0.349701	0.023511	0.844749	
0.30555	0.0888144	0.75317	
0.293439	0.171691	0.838154	
0.385025	0.1139	0.812458	
0.07775	0.0966917	0.740381	
0.0831208	-0.00188727	0.757361	
0.00559979	0.0873054	0.798487	
0.0473369	0.0172976	0.690385	
0.135086	0.326126	0.5	
0.0755103	0.388608	0.610372	
0.119174	0.287711	0.637668	
0.187975	0.355336	0.600929	
-0.0168636	-0.119171	0.872846	
0.092572	-0.0674004	0.832552	
0.0259112	-0.0811505	0.774009	
0.0170666	-0.00404371	0.815416	
-0.152694	-0.476114	0.59754	
-0.126305	-0.416563	0.5	
-0.108579	-0.348279	0.636398	
-0.029629	-0.397647	0.594827	
-0.0228356	-0.132115	0.5	
-0.0156334	-0.0737433	0.5	
-0.0688906	-0.12049	0.582378	
0.00148161	-0.13757	0.564688	
0.308042	0.167631	0.5	
0.230707	0.150403	0.598384	
0.325802	0.106737	0.636954	
0.320995	0.210811	0.605402	
-0.215641	-0.22714	0.5	
-0.230141	-0.201516	0.598323	
-0.259073	-0.206972	0.5	
-0.295665	-0.266599	0.586027	
-0.0555676	0.325574	1	
-0.119993	0.246691	1	
-0.138674	0.323797	1	
-0.104561	0.217724	0.908588	
0.338019	-0.101245	0.632718	
0.390858	-0.0458412	0.581997	
0.493012	-0.0833019	0.655211	
0.385165	-0.157061	0.580489	
-0.043412	-0.246202	0.5	
0.043412	-0.246202	0.5	
0.00155464	-0.188347	0.5	
-0.00328301	-0.284745	0.599465	
5.51091e-17	0.3	0.5	
0.043412	0.246202	0.5	
0.0776457	0.289778	0.5	
0.00262968	0.233117	0.59891	
-0.00455509	0.289048	0.710952	
-0.0973459	0.263913	0.624876	
-0.0803648	0.180844	0.680643	
-0.0614757	0.232646	0.751575	
0.0712263	0.363482	0.5	
0.0776457	0.289778	0.5	
0.0755103	0.388608	0.610372	
0.0283105	0.314008	0.630388	
-0.00412871	0.131789	0.635032	
-0.0295799	0.0358881	0.577891	
-0.0843404	0.0959758	0.591667	
-0.0203138	0.116891	0.566619	
0.197278	0.0487031	0.829069	
0.283042	-0.0276105	0.90443	
0.245664	0.104793	0.903539	
0.151755	0.0498946	0.914333	
-0.00412871	0.131789	0.635032	
0.00262968	0.233117	0.59891	
0.0704936	0.198592	0.689629	
0.0473696	0.155243	0.576019	
0.0480825	0.0400932	0.605275	
-0.0284942	-0.0420004	0.604932	
-0.0201791	0.0475049	0.66463	
-0.0295799	0.0358881	0.577891	
0.150575	0.144679	0.883538	
0.148721	0.172259	0.753766	
0.124154	0.245419	0.824268	
0.222962	0.130748	0.792454	
0.035935	-0.11426	0.5	
0.0583087	-0.173273	0.5	
0.0543934	-0.098021	0.585709	
0.00148161	-0.13757	0.564688	
0.428195	-0.258165	0.798245	
0.304977	-0.200047	0.747623	
0.313777	-0.208405	0.877459	
0.375849	-0.159302	0.804904	
-0.0705177	0.0247142	0.5	
-0.0507575	0.0878249	0.5	
-0.0843404	0.0959758	0.591667	
-0.0295799	0.0358881	0.577891	
0.259073	0.206972	0.5	
0.30356	0.231708	0.5	
0.223145	0.258282	0.600696	
0.320995	0.210811	0.605402	
-0.0583731	0.0957366	0.731357	
-0.00352435	0.161713	0.716755	
-0.0803648	0.180844	0.680643	
-0.0614757	0.232646	0.751575	
0.242822	-0.437078	0.847009	
0.162257	-0.333773	0.890843	
0.142334	-0.324062	0.773071	
0.108507	-0.396912	0.833758	
0.128497	-0.139894	0.612276	
0.236451	-0.193336	0.622526	
0.165128	-0.182854	0.566814	
0.212248	-0.110857	0.594534	
-0.135086	0.326126	0.5	
-0.0712263	0.363482	0.5	
-0.124938	0.414491	0.5	
-0.1727	0.337134	0.60049	
0.0704936	0.198592	0.689629	
0.0473696	0.155243	0.576019	
0.134419	0.128531	0.62625	
0.0662295	0.0983543	0.659549	
-0.0509221	-0.120838	0.749894	
0.0259112	-0.0811505	0.774009	
-0.0168636	-0.119171	0.872846	
-0.0433655	-0.190602	0.814951	
0.325802	0.106737	0.636954	
0.376828	0.00465276	0.670748	
0.26162	-0.00747869	0.698076	
0.245674	0.0465287	0.605115	
0.380207	-0.19708	1	
0.394936	-0.119803	1	
0.478555	-0.144862	0.921652	
0.371732	-0.09396	0.880254	
-0.104054	0.0128374	0.663816	
-0.160124	0.0403748	0.589251	
-0.122493	-0.0457662	0.591275	
-0.179806	-0.00389189	0.693003	
-0.144862	-0.478555	0.921652	
-0.243391	-0.436762	0.903062	
-0.203173	-0.373024	1	
-0.0973131	-0.377708	0.878415	
-0.0136448	-0.0115771	0.733329	
-0.096592	-0.0392798	0.774507	
0.0259112	-0.0811505	0.774009	
0.0170666	-0.00404371	0.815416	
0.15	0.259808	0.5	
0.0776457	0.289778	0.5	
0.125	0.216506	0.5	
0.146959	0.210165	0.588072	
-0.0497612	-0.177788	0.5	
-0.0708935	-0.143579	0.5	
-0.0688906	-0.12049	0.582378	
0.00148161	-0.13757	0.564688	
-0.316208	0.0903343	0.672767	
-0.253577	0.121423	0.598057	
-0.211247	0.0837089	0.687573	
-0.299226	0.0393938	0.583455	
0.00262968	0.233117	0.59891	
-0.0803648	0.180844	0.680643	
-0.0973459	0.263913	0.624876	
-0.0939263	0.178211	0.579293	
0.366186	-0.0790357	0.5	
0.338019	-0.101245	0.632718	
0.289778	-0.0776457	0.5	
0.295498	-0.153797	0.576613	
-0.331632	-0.374193	0.665357	
-0.253586	-0.309787	0.710553	
-0.221522	-0.316483	0.612387	
-0.295665	-0.266599	0.586027	
-0.0734441	0.0616893	1	
-0.130723	0.131802	0.876531	
-0.0983601	0.156434	1	
-0.0278211	0.108649	0.897003	
0.142334	-0.324062	0.773071	
0.162257	-0.333773	0.890843	
0.0999474	-0.256123	0.897299	
0.108507	-0.396912	0.833758	
-0.118932	0.39861	1	
-0.201912	0.369986	1	
-0.235698	0.440961	0.931431	
-0.202396	0.33987	0.890246	
-0.0295403	0.225144	1	
-0.0278211	0.108649	0.897003	
-0.0983601	0.156434	1	
-0.104561	0.217724	0.908588	
-0.0262407	0.173818	0.811595	
-0.114718	0.198983	0.815635	
-0.019486	0.256762	0.89034	
-0.0614757	0.232646	0.751575	
-0.316208	0.0903343	0.672767	
-0.211247	0.0837089	0.687573	
-0.232531	-0.00520461	0.629061	
-0.299226	0.0393938	0.583455	
-0.0854243	0.492649	0.748597	
-0.120471	0.3509	0.721125	
-0.0814864	0.493315	0.652319	
-0.0187025	0.397023	0.746774	
0.017794	0.149684	0.5	
0.0473696	0.155243	0.576019	
-0.00447954	0.190881	0.5	
-0.0203138	0.116891	0.566619	
0.174678	-0.468495	0.682891	
0.0667763	-0.376719	0.620641	
0.0814864	-0.493315	0.652319	
0.0564693	-0.387133	0.748139	
0.102519	0.0330131	0.5	
0.0480825	0.0400932	0.605275	
0.0965515	-0.0251853	0.583435	
0.0803667	0.0912248	0.564492	
-0.115841	0.288513	0.837108	
-0.019486	0.256762	0.89034	
-0.114718	0.198983	0.815635	
-0.0614757	0.232646	0.751575	
0.246202	-0.043412	0.5	
0.174911	-0.0307899	0.613699	
0.212248	-0.110857	0.594534	
0.277454	-0.0417897	0.589806	
-0.439458	0.238488	0.575692	
-0.346884	0.118257	0.588594	
-0.322372	0.204757	0.615478	
-0.384891	0.157961	0.659274	
-0.232531	-0.00520461	0.629061	
-0.122493	-0.0457662	0.591275	
-0.160124	0.0403748	0.589251	
-0.179806	-0.00389189	0.693003	
-0.00915007	-0.159584	0.629557	
0.103299	-0.191976	0.670856	
0.0565057	-0.147787	0.722206	
0.023726	-0.214303	0.683566	
-0.00455509	0.289048	0.710952	
0.102331	0.345115	0.749287	
0.0206391	0.354311	0.845617	
0.0271447	0.258379	0.801291	
-0.493437	-0.0807477	0.845776	
-0.351812	-0.111075	0.861116	
-0.470668	-0.168734	0.798219	
-0.358174	-0.0931631	0.744866	
5.51091e-17	0.3	0.5	
0.00262968	0.233117	0.59891	
0.0776457	0.289778	0.5	
0.0283105	0.314008	0.630388	
0.0093178	-0.302179	0.697821	
-0.108579	-0.348279	0.636398	
-0.00328301	-0.284745	0.599465	
-0.029629	-0.397647	0.594827	
0.0206391	0.354311	0.845617	
0.102331	0.345115	0.749287	
-0.00455509	0.289048	0.710952	
-0.0187025	0.397023	0.746774	
-0.258165	-0.428195	0.798245	
-0.208529	-0.319219	0.867558	
-0.162672	-0.339378	0.750157	
-0.290901	-0.287972	0.800889	
-0.0228356	-0.132115	0.5	
-0.0688906	-0.12049	0.582378	
-0.0708935	-0.143579	0.5	
0.00148161	-0.13757	0.564688	
0.304977	-0.200047	0.747623	
0.356094	-0.0732678	0.7583	
0.255304	-0.0994756	0.835986	
0.375849	-0.159302	0.804904	
-0.302044	-0.0506462	1	
-0.384543	0.0457703	0.887922	
-0.337562	0.0547633	1	
-0.29588	0.00863916	0.858008	
-0.388274	0.315029	0.579193	
-0.322372	0.204757	0.615478	
-0.325943	0.285613	0.5	
-0.285935	0.290775	0.588479	
0.197278	0.0487031	0.829069	
0.191683	0.0839995	0.717836	
0.30555	0.0888144	0.75317	
0.270025	-0.00993688	0.796605	
-0.036445	0.376821	0.622976	
-0.120471	0.3509	0.721125	
-0.00455509	0.289048	0.710952	
-0.0187025	0.397023	0.746774	
0.0093178	-0.302179	0.697821	
0.0564693	-0.387133	0.748139	
0.0851242	-0.244368	0.731714	
-0.00969375	-0.289543	0.79323	
-0.195731	0.375572	0.5	
-0.124938	0.414491	0.5	
-0.146853	0.477948	0.584008	
-0.1727	0.337134	0.60049	
0	-0.5	0.9	
0.0704482	-0.495012	0.928155	
0.0807477	-0.493437	0.845776	
0.0187635	-0.357972	0.857507	
-0.104054	0.0128374	0.663816	
-0.16493	0.0307641	0.766812	
-0.115015	0.0956921	0.669627	
-0.179806	-0.00389189	0.693003	
-0.259808	-0.15	0.5	
-0.289778	-0.0776457	0.5	
-0.308042	-0.167631	0.5	
-0.293992	-0.0575398	0.588141	
-0.00412871	0.131789	0.635032	
-0.0583731	0.0957366	0.731357	
-0.0803648	0.180844	0.680643	
-0.115015	0.0956921	0.669627	
-0.216506	0.125	0.5	
-0.1997	0.206062	0.577949	
-0.253577	0.121423	0.598057	
-0.159007	0.150563	0.559172	
0.493389	-0.0810399	0.85285	
0.5	0	0.8	
0.490343	-0.0977967	0.758774	
0.356094	-0.0732678	0.7583	
-0.00412871	0.131789	0.635032	
0.0480825	0.0400932	0.605275	
-0.0201791	0.0475049	0.66463	
-0.0295799	0.0358881	0.577891	
-0.259808	-0.15	0.5	
-0.308042	-0.167631	0.5	
-0.259073	-0.206972	0.5	
-0.230141	-0.201516	0.598323	
0.493389	-0.0810399	0.85285	
0.356094	-0.0732678	0.7583	
0.490343	-0.0977967	0.758774	
0.375849	-0.159302	0.804904	
-0.00412871	0.131789	0.635032	
-0.0203138	0.116891	0.566619	
0.0473696	0.155243	0.576019	
0.0803667	0.0912248	0.564492	
0.270443	0.334367	0.5	
0.194694	0.304695	0.5	
0.223145	0.258282	0.600696	
0.187975	0.355336	0.600929	
0.197278	0.0487031	0.829069	
0.181192	-0.0401295	0.895026	
0.283042	-0.0276105	0.90443	
0.151755	0.0498946	0.914333	
0.0854243	0.492649	0.751403	
0.0807477	0.493437	0.654224	
0.168734	0.470668	0.701781	
0.102331	0.345115	0.749287	
-0.322372	0.204757	0.615478	
-0.243141	0.175788	0.70528	
-0.222708	0.258636	0.655001	
-0.303077	0.2787	0.708341	
0.0093178	-0.302179	0.697821	
0.0851242	-0.244368	0.731714	
0.128689	-0.272515	0.631723	
0.023726	-0.214303	0.683566	
0.242822	-0.437078	0.847009	
0.263974	-0.284246	0.810467	
0.162257	-0.333773	0.890843	
0.250375	-0.286672	0.911571	
-0.00412871	0.131789	0.635032	
0.0473696	0.155243	0.576019	
0.0704936	0.198592	0.689629	
0.0662295	0.0983543	0.659549	
0.0704482	-0.495012	0.928155	
0.0807477	-0.493437	0.845776	
0.0187635	-0.357972	0.857507	
0.108507	-0.396912	0.833758	
0.245477	-0.191651	1	
0.198682	-0.135756	0.90724	
0.313777	-0.208405	0.877459	
0.250375	-0.286672	0.911571	
0.26162	-0.00747869	0.698076	
0.249893	-0.118387	0.700681	
0.356094	-0.0732678	0.7583	
0.270025	-0.00993688	0.796605	
0.102519	0.0330131	0.5	
0.0454237	0.00960241	0.5	
0.0480825	0.0400932	0.605275	
0.0803667	0.0912248	0.564492	
-0.0688906	-0.12049	0.582378	
-0.0782828	-0.218112	0.590988	
-0.142736	-0.147946	0.615788	
-0.167688	-0.179794	0.560998	
-0.302044	-0.0506462	1	
-0.344127	-0.112227	1	
-0.401548	-0.0423374	1	
-0.351812	-0.111075	0.861116	
-0.0708935	-0.143579	0.5	
-0.113226	-0.140086	0.5	
-0.0934074	-0.183691	0.5	
-0.0688906	-0.12049	0.582378	
0.4284	-0.257824	0.704976	
0.365268	-0.183537	0.674475	
0.304977	-0.200047	0.747623	
0.375849	-0.159302	0.804904	
-0.036445	0.376821	0.622976	
-0.0187025	0.397023	0.746774	
-0.00455509	0.289048	0.710952	
0.0283105	0.314008	0.630388	
-0.0699979	-0.0973408	0.5	
-0.112672	-0.0704426	0.5	
-0.113226	-0.140086	0.5	
-0.0688906	-0.12049	0.582378	
0.493012	-0.0833019	0.655211	
0.476114	-0.152694	0.59754	
0.470916	-0.168043	0.699874	
0.365268	-0.183537	0.674475	
0.203679	-0.368672	0.5	
0.130932	-0.431625	0.5	
0.228991	-0.444481	0.591901	
0.132817	-0.364062	0.5	
0.259808	0.15	0.5	
0.308042	0.167631	0.5	
0.259073	0.206972	0.5	
0.230707	0.150403	0.598384	
0.0776457	-0.289778	0.5	
0.0579886	-0.363184	0.5	
0.0667763	-0.376719	0.620641	
-0.00328301	-0.284745	0.599465	
0.0579886	-0.363184	0.5	
0.132817	-0.364062	0.5	
0.0776457	-0.289778	0.5	
0.0667763	-0.376719	0.620641	
-0.270443	0.334367	0.5	
-0.228991	0.444481	0.591901	
-0.3168	0.386831	0.604097	
-0.1727	0.337134	0.60049	
0.289778	-0.0776457	0.5	
0.338019	-0.101245	0.632718	
0.366186	-0.0790357	0.5	
0.277454	-0.0417897	0.589806	
-0.00455509	0.289048	0.710952	
0.119174	0.287711	0.637668	
0.0704936	0.198592	0.689629	
0.0283105	0.314008	0.630388	
-0.194694	0.304695	0.5	
-0.1727	0.337134	0.60049	
-0.270443	0.334367	0.5	
-0.285935	0.290775	0.588479	
0.0594834	0.18279	0.5	
0.118461	0.161044	0.5	
0.125	0.216506	0.5	
0.146959	0.210165	0.588072	
0.0543934	-0.098021	0.585709	
0.0645865	-0.210943	0.590313	
-0.00915007	-0.159584	0.629557	
0.00148161	-0.13757	0.564688	
-0.316208	0.0903343	0.672767	
-0.322372	0.204757	0.615478	
-0.338342	0.189085	0.729139	
-0.243141	0.175788	0.70528	
-0.0814864	0.493315	0.652319	
-0.036445	0.376821	0.622976	
0	0.5	0.7	
-0.0187025	0.397023	0.746774	
0.328092	0.270243	1	
0.261819	0.319027	1	
0.388274	0.315029	0.920807	
0.331523	0.239691	0.896553	
0.174911	-0.0307899	0.613699	
0.0682711	-0.052186	0.660923	
0.122018	0.0307901	0.671023	
0.0965515	-0.0251853	0.583435	
-0.316208	0.0903343	0.672767	
-0.211247	0.0837089	0.687573	
-0.243141	0.175788	0.70528	
-0.25776	0.0501948	0.763211	
0.247057	0.434698	0.750499	
0.102331	0.345115	0.749287	
0.168734	0.470668	0.701781	
0.215007	0.321027	0.704259	
-0.0741769	-0.222661	0.70095	
-0.146541	-0.177031	0.776317	
-0.0974804	-0.267818	0.831249	
-0.0433655	-0.190602	0.814951	
-0.161265	-0.08127	0.716218	
-0.0509221	-0.120838	0.749894	
-0.146541	-0.177031	0.776317	
-0.122368	-0.153617	0.697369	
-0.386476	-0.317233	0.909527	
-0.317197	-0.386505	0.931175	
-0.323938	-0.380873	0.847739	
-0.328462	-0.228271	0.903506	
0.274666	-0.249265	0.5	
0.251869	-0.294586	0.601969	
0.331891	-0.227727	0.595789	
0.213897	-0.237657	0.568565	
-0.0168636	-0.119171	0.872846	
-0.00109612	-0.0173781	0.904468	
0.092572	-0.0674004	0.832552	
0.0170666	-0.00404371	0.815416	
0.146853	-0.477948	0.584008	
0.228991	-0.444481	0.591901	
0.130932	-0.431625	0.5	
0.132817	-0.364062	0.5	
-0.120471	0.3509	0.721125	
-0.145109	0.249909	0.723665	
-0.115841	0.288513	0.837108	
-0.220027	0.322099	0.738771	
-0.0262407	0.173818	0.811595	
-0.00352435	0.161713	0.716755	
-0.0583731	0.0957366	0.731357	
-0.0614757	0.232646	0.751575	
0.134419	0.128531	0.62625	
0.230141	0.201516	0.689547	
0.230707	0.150403	0.598384	
0.146959	0.210165	0.588072	
0.119174	0.287711	0.637668	
-0.00455509	0.289048	0.710952	
0.102331	0.345115	0.749287	
0.0283105	0.314008	0.630388	
-0.0305981	0.141799	0.5	
0.017794	0.149684	0.5	
-0.00447954	0.190881	0.5	
-0.0203138	0.116891	0.566619	
0.366186	-0.0790357	0.5	
0.277454	-0.0417897	0.589806	
0.338019	-0.101245	0.632718	
0.390858	-0.0458412	0.581997	
0.196849	-0.00527115	0.5	
0.246202	0.043412	0.5	
0.245674	0.0465287	0.605115	
0.277454	-0.0417897	0.589806	
-0.246202	0.043412	0.5	
-0.196783	0.00504363	0.5	
-0.177196	0.0645246	0.5	
-0.160124	0.0403748	0.589251	
-0.00455509	0.289048	0.710952	
-0.0803648	0.180844	0.680643	
-0.00352435	0.161713	0.716755	
-0.0614757	0.232646	0.751575	
-0.0136448	-0.0115771	0.733329	
-0.0583731	0.0957366	0.731357	
-0.0619448	0.0316562	0.830282	
0.00559979	0.0873054	0.798487	
-0.1997	0.206062	0.577949	
-0.0939263	0.178211	0.579293	
-0.159007	0.150563	0.6241	
-0.159007	0.150563	0.559172	
-0.493389	0.0810399	0.85285	
-0.384543	0.0457703	0.887922	
-0.371727	0.0207537	0.771598	
-0.388856	0.122276	0.792585	
-0.493389	0.0810399	0.85285	
-0.5	0	0.8	
-0.371727	0.0207537	0.771598	
-0.384543	0.0457703	0.887922	
0.0093178	-0.302179	0.697821	
0.023726	-0.214303	0.683566	
-0.0741769	-0.222661	0.70095	
-0.00969375	-0.289543	0.79323	
-0.0156334	-0.0737433	0.5	
-0.0081622	-0.0144392	0.5	
-0.0284942	-0.0420004	0.604932	
0.0268659	-0.0185974	0.564249	
0.5	0	0.9	
0.493012	0.0833019	0.844789	
0.5	0	0.8	
0.349701	0.023511	0.844749	
0.165128	-0.182854	0.724456	
0.165332	-0.129906	0.808096	
0.162067	-0.0633879	0.734858	
0.118003	-0.110167	0.68636	
-0.115841	0.288513	0.837108	
0.0271447	0.258379	0.801291	
-0.019486	0.256762	0.89034	
-0.0614757	0.232646	0.751575	
0.5	0	0.7	
0.493012	-0.0833019	0.655211	
0.490343	-0.0977967	0.758774	
0.376828	0.00465276	0.670748	
-0.495101	0.0698189	0.572379	
-0.5	0	0.6	
-0.428192	0.000626804	0.5	
-0.373013	-0.0200173	0.628673	
-0.0278211	0.108649	0.897003	
-0.019486	0.256762	0.89034	
-0.0262407	0.173818	0.811595	
-0.104561	0.217724	0.908588	
0.168734	-0.470668	0.798219	
0.247057	-0.434698	0.749501	
0.174678	-0.468495	0.682891	
0.142334	-0.324062	0.773071	
0.0206391	0.354311	0.845617	
-0.081646	0.385636	0.890794	
-0.115841	0.288513	0.837108	
-0.019486	0.256762	0.89034	
0.0814864	0.493315	0.847681	
0.146853	0.477948	0.915992	
0.0728232	0.494668	0.926459	
0.141859	0.360078	0.864623	
-0.315029	-0.388274	0.579193	
-0.238488	-0.439458	0.575692	
-0.270443	-0.334367	0.5	
-0.221522	-0.316483	0.612387	
0.215641	0.22714	0.5	
0.223145	0.258282	0.600696	
0.19149	0.263191	0.5	
0.146959	0.210165	0.588072	
-0.25658	0.429146	0.66876	
-0.120471	0.3509	0.721125	
-0.174678	0.468495	0.682891	
-0.220027	0.322099	0.738771	
0.308042	0.167631	0.5	
0.325802	0.106737	0.636954	
0.364062	0.132817	0.5	
0.320995	0.210811	0.605402	
0.0712263	0.363482	0.5	
5.51091e-17	0.3	0.5	
0.0776457	0.289778	0.5	
0.0283105	0.314008	0.630388	
-0.214341	0.273759	1	
-0.26105	0.203399	1	
-0.318983	0.261743	1	
-0.312269	0.206869	0.893833	
0.102519	0.0330131	0.5	
0.0535528	0.0702068	0.5	
0.0454237	0.00960241	0.5	
0.0803667	0.0912248	0.564492	
0.4284	0.257824	0.795024	
0.374193	0.331632	0.834643	
0.284059	0.282644	0.778361	
0.331523	0.239691	0.896553	
0.07775	0.0966917	0.740381	
-0.0583731	0.0957366	0.731357	
0.00559979	0.0873054	0.798487	
-0.00352435	0.161713	0.716755	
0.242822	-0.437078	0.847009	
0.316847	-0.386792	0.801384	
0.247057	-0.434698	0.749501	
0.263974	-0.284246	0.810467	
0.14072	-0.0839746	1	
0.181192	-0.0401295	0.895026	
0.103648	-0.156441	0.895396	
0.0906227	-0.0186438	0.910454	
0.0831208	-0.00188727	0.757361	
0.0653714	0.061152	0.872444	
0.00559979	0.0873054	0.798487	
0.0170666	-0.00404371	0.815416	
-0.0974804	-0.267818	0.831249	
-0.0973131	-0.377708	0.878415	
-0.162672	-0.339378	0.750157	
-0.0516032	-0.38053	0.763919	
-0.450285	0.217356	0.644698	
-0.439458	0.238488	0.575692	
-0.415735	0.277785	0.634138	
-0.322372	0.204757	0.615478	
0.0480825	0.0400932	0.605275	
0.0965515	-0.0251853	0.583435	
0.0682711	-0.052186	0.660923	
0.0268659	-0.0185974	0.564249	
0.0903521	0.10545	1	
0.0651412	0.200096	1	
0.150575	0.144679	0.883538	
0.0505063	0.178091	0.883857	
-0.00412871	0.131789	0.635032	
-0.0201791	0.0475049	0.66463	
-0.0843404	0.0959758	0.591667	
-0.0295799	0.0358881	0.577891	
-0.0509221	-0.120838	0.749894	
-0.146541	-0.177031	0.776317	
-0.0741769	-0.222661	0.70095	
-0.0433655	-0.190602	0.814951	
0.0480825	0.0400932	0.605275	
0.122018	0.0307901	0.671023	
0.0682711	-0.052186	0.660923	
0.0965515	-0.0251853	0.583435	
-0.0974804	-0.267818	0.831249	
-0.0741769	-0.222661	0.70095	
-0.0433655	-0.190602	0.814951	
-0.00969375	-0.289543	0.79323	
0	-0.5	0.6	
0	-0.5	0.7	
0.0667763	-0.376719	0.620641	
-0.029629	-0.397647	0.594827	
0.259073	0.206972	0.5	
0.223145	0.258282	0.600696	
0.230707	0.150403	0.598384	
0.320995	0.210811	0.605402	
0.493012	0.0833019	0.844789	
0.5	0	0.8	
0.349701	0.023511	0.844749	
0.385025	0.1139	0.812458	
-0.257157	-0.0458854	0.782759	
-0.187544	0.023283	0.887465	
-0.25776	0.0501948	0.763211	
-0.29588	0.00863916	0.858008	
0.26162	-0.00747869	0.698076	
0.30555	0.0888144	0.75317	
0.191683	0.0839995	0.717836	
0.270025	-0.00993688	0.796605	
0.230141	0.201516	0.689547	
0.223145	0.258282	0.600696	
0.119174	0.287711	0.637668	
0.215007	0.321027	0.704259	
-0.168043	-0.470916	0.699874	
-0.0977967	-0.490343	0.758774	
-0.0833019	-0.493012	0.655211	
-0.0516032	-0.38053	0.763919	
-0.0782828	-0.218112	0.590988	
-0.17146	-0.257962	0.580515	
-0.142736	-0.147946	0.615788	
-0.167688	-0.179794	0.560998	
0.0209546	0.0362755	1	
-0.0278211	0.108649	0.897003	
0.0653714	0.061152	0.872444	
-0.00109612	-0.0173781	0.904468	
0.3	-3.67394e-17	0.5	
0.363012	-0.0152603	0.5	
0.363184	0.0579886	0.5	
0.399716	0.0593288	0.591749	
-0.469721	0.171353	0.838334	
-0.428195	0.258165	0.798245	
-0.436762	0.243391	0.903062	
-0.312269	0.206869	0.893833	
0.25658	0.429146	0.83124	
0.237861	0.283786	0.876325	
0.228991	0.444481	0.908099	
0.141859	0.360078	0.864623	
-0.242822	0.437078	0.847009	
-0.316847	0.386792	0.801384	
-0.220027	0.322099	0.738771	
-0.202396	0.33987	0.890246	
-0.0843404	0.0959758	0.591667	
-0.0939263	0.178211	0.579293	
-0.0892693	0.13018	0.5	
-0.159007	0.150563	0.559172	
-0.344127	-0.112227	1	
-0.356684	-0.19351	1	
-0.351812	-0.111075	0.861116	
-0.328462	-0.228271	0.903506	
-0.0295403	0.225144	1	
-0.00425413	0.131001	1	
-0.0983601	0.156434	1	
-0.0278211	0.108649	0.897003	
-0.192123	0.259903	0.5	
-0.216377	0.228686	0.5	
-0.175601	0.220525	0.5	
-0.1997	0.206062	0.577949	
-0.0734441	0.0616893	1	
-0.0278211	0.108649	0.897003	
0.0209546	0.0362755	1	
-0.00109612	-0.0173781	0.904468	
-0.322372	0.204757	0.615478	
-0.338342	0.189085	0.729139	
-0.4284	0.257824	0.704976	
-0.384891	0.157961	0.659274	
-0.5	0	0.7	
-0.492649	-0.0854243	0.748597	
-0.493315	-0.0814864	0.652319	
-0.392935	-0.114355	0.653897	
0.313777	-0.208405	0.877459	
0.198682	-0.135756	0.90724	
0.185145	-0.220341	0.859684	
0.250375	-0.286672	0.911571	
-0.115841	0.288513	0.837108	
-0.145109	0.249909	0.723665	
-0.120471	0.3509	0.721125	
-0.0614757	0.232646	0.751575	
-0.168688	-0.281701	1	
-0.114467	-0.386332	1	
-0.203173	-0.373024	1	
-0.0973131	-0.377708	0.878415	
-0.440961	-0.235698	0.931431	
-0.437078	-0.242822	0.847009	
-0.351812	-0.111075	0.861116	
-0.328462	-0.228271	0.903506	
-0.043412	-0.246202	0.5	
0.00155464	-0.188347	0.5	
-0.0497612	-0.177788	0.5	
-0.0782828	-0.218112	0.590988	
-0.0843404	0.0959758	0.591667	
-0.0939263	0.178211	0.579293	
-0.00412871	0.131789	0.635032	
-0.0203138	0.116891	0.566619	
-0.00412871	0.131789	0.635032	
0.00262968	0.233117	0.59891	
0.0473696	0.155243	0.576019	
-0.0203138	0.116891	0.566619	
0.119174	0.287711	0.637668	
0.102331	0.345115	0.749287	
0.0755103	0.388608	0.610372	
0.0283105	0.314008	0.630388	
-0.166581	-0.0467287	0.5	
-0.13896	0.0197163	0.5	
-0.196783	0.00504363	0.5	
-0.160124	0.0403748	0.589251	
-0.210645	0.180174	0.5	
-0.185713	0.151649	0.5	
-0.161262	0.177195	0.5	
-0.159007	0.150563	0.559172	
-0.153328	0.47591	0.90763	
-0.168734	0.470668	0.798219	
-0.081646	0.385636	0.890794	
-0.202396	0.33987	0.890246	
-0.0974804	-0.267818	0.831249	
-0.208529	-0.319219	0.867558	
-0.162672	-0.339378	0.750157	
-0.0973131	-0.377708	0.878415	
0.255304	-0.0994756	0.835986	
0.371732	-0.09396	0.880254	
0.356094	-0.0732678	0.7583	
0.270025	-0.00993688	0.796605	
0.478555	0.144862	0.578348	
0.364062	0.132817	0.5	
0.431625	0.130932	0.5	
0.399716	0.0593288	0.591749	
-0.0734441	0.0616893	1	
-0.16685	0.0883447	1	
-0.0983601	0.156434	1	
-0.130723	0.131802	0.876531	
0.175681	0.0639425	0.5	
0.196849	-0.00527115	0.5	
0.245674	0.0465287	0.605115	
0.145725	0.0491975	0.586984	
0.26162	-0.00747869	0.698076	
0.325802	0.106737	0.636954	
0.30555	0.0888144	0.75317	
0.376828	0.00465276	0.670748	
-0.0973459	0.263913	0.624876	
-0.00455509	0.289048	0.710952	
0.00262968	0.233117	0.59891	
0.0283105	0.314008	0.630388	
0.0461078	-0.0584269	1	
0.14072	-0.0839746	1	
0.0712814	-0.153152	1	
0.103648	-0.156441	0.895396	
-0.138674	0.323797	1	
-0.198122	0.226155	0.892159	
-0.214341	0.273759	1	
-0.202396	0.33987	0.890246	
-0.322372	0.204757	0.615478	
-0.285935	0.290775	0.588479	
-0.374193	0.331632	0.665357	
-0.303077	0.2787	0.708341	
0	-0.5	0.8	
0.0564693	-0.387133	0.748139	
0.0187635	-0.357972	0.857507	
0.108507	-0.396912	0.833758	
0.0093178	-0.302179	0.697821	
-0.00328301	-0.284745	0.599465	
-0.0741769	-0.222661	0.70095	
0.023726	-0.214303	0.683566	
0.304977	-0.200047	0.747623	
0.376757	-0.328716	0.753532	
0.263974	-0.284246	0.810467	
0.316563	-0.261412	0.680038	
-0.00455509	0.289048	0.710952	
-0.00352435	0.161713	0.716755	
0.0704936	0.198592	0.689629	
0.0271447	0.258379	0.801291	
-0.171353	-0.469721	0.838334	
-0.194667	-0.460548	0.76567	
-0.258165	-0.428195	0.798245	
-0.162672	-0.339378	0.750157	
-0.104054	0.0128374	0.663816	
-0.0201791	0.0475049	0.66463	
-0.0843404	0.0959758	0.591667	
-0.115015	0.0956921	0.669627	
0.194604	-0.371188	1	
0.268393	-0.334301	1	
0.235698	-0.440961	0.931431	
0.250375	-0.286672	0.911571	
0.495293	-0.0684459	0.931403	
0.5	0	0.9	
0.493389	-0.0810399	0.85285	
0.371732	-0.09396	0.880254	
-0.415735	0.277785	0.634138	
-0.322372	0.204757	0.615478	
-0.388274	0.315029	0.579193	
-0.285935	0.290775	0.588479	
0.313791	-0.154465	1	
0.313777	-0.208405	0.877459	
0.245477	-0.191651	1	
0.198682	-0.135756	0.90724	
-0.376757	0.328716	0.753532	
-0.380873	0.323938	0.847739	
-0.428195	0.258165	0.798245	
-0.262727	0.245322	0.796513	
-0.361276	-0.0455918	0.5	
-0.419906	-0.0889586	0.5	
-0.364062	-0.132817	0.5	
-0.392935	-0.114355	0.653897	
0.4284	-0.257824	0.704976	
0.376757	-0.328716	0.753532	
0.304977	-0.200047	0.747623	
0.316563	-0.261412	0.680038	
-0.257157	-0.0458854	0.782759	
-0.16493	0.0307641	0.766812	
-0.161265	-0.08127	0.716218	
-0.179806	-0.00389189	0.693003	
-0.216506	-0.125	0.5	
-0.208135	-0.0860903	0.586046	
-0.230141	-0.201516	0.598323	
-0.167688	-0.179794	0.560998	
-0.112672	-0.0704426	0.5	
-0.0625361	-0.0382385	0.5	
-0.110253	-0.0221958	0.5	
-0.122493	-0.0457662	0.591275	
-0.494668	-0.0728232	0.573541	
-0.419906	-0.0889586	0.5	
-0.373013	-0.0200173	0.628673	
-0.392935	-0.114355	0.653897	
0.366186	-0.0790357	0.5	
0.289778	-0.0776457	0.5	
0.326126	-0.135086	0.5	
0.295498	-0.153797	0.576613	
0.196849	-0.00527115	0.5	
0.246202	-0.043412	0.5	
0.246202	0.043412	0.5	
0.277454	-0.0417897	0.589806	
-0.118932	0.39861	1	
-0.081646	0.385636	0.890794	
-0.138674	0.323797	1	
-0.202396	0.33987	0.890246	
0.124929	0.414525	0.5	
0.0755103	0.388608	0.610372	
0.135086	0.326126	0.5	
0.187975	0.355336	0.600929	
0.0187635	-0.357972	0.857507	
-0.0124705	-0.26219	0.899433	
0.0486433	-0.215998	0.821724	
-0.00969375	-0.289543	0.79323	
-0.187544	0.023283	0.887465	
-0.201407	0.100714	0.820483	
-0.16493	0.0307641	0.766812	
-0.25776	0.0501948	0.763211	
-0.216156	-0.175607	0.5	
-0.230141	-0.201516	0.598323	
-0.215641	-0.22714	0.5	
-0.167688	-0.179794	0.560998	
-0.0426444	0.431636	0.5	
-0.0712263	0.363482	0.5	
2.23198e-17	0.373746	0.5	
-0.036445	0.376821	0.622976	
-0.0509221	-0.120838	0.749894	
-0.0136448	-0.0115771	0.733329	
-0.096592	-0.0392798	0.774507	
0.0259112	-0.0811505	0.774009	
0.0486433	-0.215998	0.821724	
-0.0124705	-0.26219	0.899433	
0.0187635	-0.357972	0.857507	
0.0999474	-0.256123	0.897299	
0.314271	-0.0501881	1	
0.346509	0.0237889	1	
0.409478	-0.032947	1	
0.283042	-0.0276105	0.90443	
0.30555	0.0888144	0.75317	
0.335831	0.198146	0.73463	
0.230141	0.201516	0.689547	
0.222962	0.130748	0.792454	
0.469721	0.171353	0.661666	
0.393123	0.117954	0.711669	
0.325802	0.106737	0.636954	
0.399716	0.0593288	0.591749	
-0.259073	-0.206972	0.5	
-0.216156	-0.175607	0.5	
-0.259808	-0.15	0.5	
-0.230141	-0.201516	0.598323	
0.304977	-0.200047	0.747623	
0.255304	-0.0994756	0.835986	
0.313777	-0.208405	0.877459	
0.375849	-0.159302	0.804904	
-0.0583731	0.0957366	0.731357	
-0.159007	0.150563	0.751045	
-0.115015	0.0956921	0.669627	
-0.113733	0.0934406	0.798152	
0.0831208	-0.00188727	0.757361	
0.00559979	0.0873054	0.798487	
-0.0136448	-0.0115771	0.733329	
0.0170666	-0.00404371	0.815416	
0.337634	0.115561	1	
0.247868	0.146306	1	
0.300884	0.198715	1	
0.245664	0.104793	0.903539	
0.128689	-0.272515	0.631723	
0.103299	-0.191976	0.670856	
0.0645865	-0.210943	0.590313	
0.023726	-0.214303	0.683566	
0.0480825	0.0400932	0.605275	
0.145725	0.0491975	0.586984	
0.0965515	-0.0251853	0.583435	
0.0803667	0.0912248	0.564492	
0.338019	-0.101245	0.632718	
0.212248	-0.110857	0.594534	
0.249893	-0.118387	0.700681	
0.277454	-0.0417897	0.589806	
-0.232531	-0.00520461	0.629061	
-0.299226	0.0393938	0.583455	
-0.246202	-0.043412	0.5	
-0.293992	-0.0575398	0.588141	
0.249893	-0.118387	0.700681	
0.212248	-0.110857	0.594534	
0.338019	-0.101245	0.632718	
0.295498	-0.153797	0.576613	
-0.295069	0.107196	0.837498	
-0.29588	0.00863916	0.858008	
-0.187544	0.023283	0.887465	
-0.222536	0.133159	0.91035	
0.338019	-0.101245	0.632718	
0.249893	-0.118387	0.700681	
0.26162	-0.00747869	0.698076	
0.277454	-0.0417897	0.589806	
0.202324	0.378521	1	
0.146853	0.477948	0.915992	
0.228991	0.444481	0.908099	
0.141859	0.360078	0.864623	
0.248409	0.277977	0.5	
0.215641	0.22714	0.5	
0.259073	0.206972	0.5	
0.223145	0.258282	0.600696	
0.289778	0.0776457	0.5	
0.230707	0.150403	0.598384	
0.216506	0.125	0.5	
0.245674	0.0465287	0.605115	
0.0579886	-0.363184	0.5	
-0.00328301	-0.284745	0.599465	
-0.0152603	-0.363012	0.5	
-0.029629	-0.397647	0.594827	
0.313791	-0.154465	1	
0.394936	-0.119803	1	
0.380207	-0.19708	1	
0.371732	-0.09396	0.880254	
-0.0810399	-0.493389	0.85285	
-0.0977967	-0.490343	0.758774	
-0.0973131	-0.377708	0.878415	
-0.0516032	-0.38053	0.763919	
-0.194667	-0.460548	0.76567	
-0.171353	-0.469721	0.838334	
-0.0977967	-0.490343	0.758774	
-0.0516032	-0.38053	0.763919	
0.00365932	0.104584	0.5	
0.0609049	0.128365	0.5	
0.017794	0.149684	0.5	
0.0473696	0.155243	0.576019	
0	-0.5	0.9	
0.0807477	-0.493437	0.845776	
0	-0.5	0.8	
0.0187635	-0.357972	0.857507	
0.0579886	-0.363184	0.5	
0.0667763	-0.376719	0.620641	
-0.00328301	-0.284745	0.599465	
-0.029629	-0.397647	0.594827	
-0.104054	0.0128374	0.663816	
-0.096592	-0.0392798	0.774507	
-0.16493	0.0307641	0.766812	
-0.179806	-0.00389189	0.693003	
-0.216506	-0.125	0.5	
-0.259808	-0.15	0.5	
-0.230141	-0.201516	0.598323	
-0.208135	-0.0860903	0.586046	
-0.0262407	0.173818	0.811595	
0.00559979	0.0873054	0.798487	
-0.0278211	0.108649	0.897003	
-0.113733	0.0934406	0.798152	
-0.277785	-0.415735	0.634138	
-0.221522	-0.316483	0.612387	
-0.331632	-0.374193	0.665357	
-0.253586	-0.309787	0.710553	
-0.237047	0.0201392	1	
-0.187544	0.023283	0.887465	
-0.247755	-0.0727414	0.89259	
-0.29588	0.00863916	0.858008	
0.317233	-0.386476	0.909527	
0.162257	-0.333773	0.890843	
0.235698	-0.440961	0.931431	
0.250375	-0.286672	0.911571	
-0.0619448	0.0316562	0.830282	
-0.00109612	-0.0173781	0.904468	
-0.0278211	0.108649	0.897003	
-0.0991242	-0.0135691	0.909138	
-0.344127	-0.112227	1	
-0.278713	-0.14304	1	
-0.356684	-0.19351	1	
-0.328462	-0.228271	0.903506	
0.203679	-0.368672	0.5	
0.3168	-0.386831	0.604097	
0.29185	-0.325871	0.5	
0.251869	-0.294586	0.601969	
0.320995	0.210811	0.605402	
0.335831	0.198146	0.73463	
0.325802	0.106737	0.636954	
0.393123	0.117954	0.711669	
0	-0.5	0.8	
-0.0516032	-0.38053	0.763919	
0.0187635	-0.357972	0.857507	
0.0564693	-0.387133	0.748139	
0.313791	-0.154465	1	
0.314271	-0.0501881	1	
0.371732	-0.09396	0.880254	
0.283042	-0.0276105	0.90443	
0.0653714	0.061152	0.872444	
0.150575	0.144679	0.883538	
0.0903521	0.10545	1	
0.151755	0.0498946	0.914333	
-0.211247	0.0837089	0.687573	
-0.115015	0.0956921	0.669627	
-0.16493	0.0307641	0.766812	
-0.179806	-0.00389189	0.693003	
0.428195	-0.258165	0.798245	
0.380873	-0.323938	0.847739	
0.313777	-0.208405	0.877459	
0.263974	-0.284246	0.810467	
0.0807477	-0.493437	0.845776	
0	-0.5	0.8	
0.0187635	-0.357972	0.857507	
0.108507	-0.396912	0.833758	
-0.16685	0.0883447	1	
-0.142648	-0.00714059	1	
-0.187544	0.023283	0.887465	
-0.0991242	-0.0135691	0.909138	
0.0480825	0.0400932	0.605275	
-0.00412871	0.131789	0.635032	
0.0662295	0.0983543	0.659549	
0.0803667	0.0912248	0.564492	
0.337634	0.115561	1	
0.300884	0.198715	1	
0.370295	0.150924	0.906655	
0.245664	0.104793	0.903539	
-0.0728232	0.494668	0.573541	
-0.0426444	0.431636	0.5	
0	0.5	0.6	
-0.036445	0.376821	0.622976	
0.124154	0.245419	0.824268	
0.0206391	0.354311	0.845617	
0.102331	0.345115	0.749287	
0.0271447	0.258379	0.801291	
0.0814864	-0.493315	0.652319	
0.0667763	-0.376719	0.620641	
0	-0.5	0.7	
0.0564693	-0.387133	0.748139	
-0.138674	0.323797	1	
-0.119993	0.246691	1	
-0.214341	0.273759	1	
-0.198122	0.226155	0.892159	
0.142334	-0.324062	0.773071	
0.0564693	-0.387133	0.748139	
0.168734	-0.470668	0.798219	
0.108507	-0.396912	0.833758	
0.119174	0.287711	0.637668	
0.00262968	0.233117	0.59891	
0.0704936	0.198592	0.689629	
0.0283105	0.314008	0.630388	
0.338019	-0.101245	0.632718	
0.26162	-0.00747869	0.698076	
0.356094	-0.0732678	0.7583	
0.376828	0.00465276	0.670748	
-0.00915007	-0.159584	0.629557	
-0.00328301	-0.284745	0.599465	
0.0645865	-0.210943	0.590313	
0.023726	-0.214303	0.683566	
-0.426463	0.0441363	1	
-0.401548	-0.0423374	1	
-0.5	0	0.9	
-0.384543	0.0457703	0.887922	
-0.00455509	0.289048	0.710952	
0.0704936	0.198592	0.689629	
0.00262968	0.233117	0.59891	
0.0283105	0.314008	0.630388	
0.356094	-0.0732678	0.7583	
0.371732	-0.09396	0.880254	
0.349701	0.023511	0.844749	
0.270025	-0.00993688	0.796605	
-0.363589	0.21739	0.5	
-0.325943	0.285613	0.5	
-0.388274	0.315029	0.579193	
-0.322372	0.204757	0.615478	
-0.363589	0.21739	0.5	
-0.31037	0.174447	0.5	
-0.303998	0.231686	0.5	
-0.322372	0.204757	0.615478	
-0.0810399	-0.493389	0.85285	
-0.0684459	-0.495293	0.931403	
0	-0.5	0.9	
-0.0973131	-0.377708	0.878415	
-0.104054	0.0128374	0.663816	
-0.122493	-0.0457662	0.591275	
-0.0284942	-0.0420004	0.604932	
-0.0810226	-0.0861052	0.668473	
0.0704936	0.198592	0.689629	
0.0271447	0.258379	0.801291	
-0.00352435	0.161713	0.716755	
0.0617642	0.177547	0.776817	
-0.0081622	-0.0144392	0.5	
-0.0295799	0.0358881	0.577891	
-0.0284942	-0.0420004	0.604932	
0.0268659	-0.0185974	0.564249	
-0.195731	0.375572	0.5	
-0.270443	0.334367	0.5	
-0.194694	0.304695	0.5	
-0.1727	0.337134	0.60049	
0.0966642	-0.131711	0.5	
0.0733876	-0.0824124	0.5	
0.035935	-0.11426	0.5	
0.0543934	-0.098021	0.585709	
-0.476114	0.152694	0.59754	
-0.346884	0.118257	0.588594	
-0.384891	0.157961	0.659274	
-0.405387	0.0525253	0.685554	
0.092572	-0.0674004	0.832552	
0.103648	-0.156441	0.895396	
0.165332	-0.129906	0.808096	
0.198682	-0.135756	0.90724	
-0.263582	-0.319413	1	
-0.203173	-0.373024	1	
-0.317197	-0.386505	0.931175	
-0.208529	-0.319219	0.867558	
0.230141	0.201516	0.689547	
0.325802	0.106737	0.636954	
0.320995	0.210811	0.605402	
0.335831	0.198146	0.73463	
0.261819	0.319027	1	
0.237861	0.283786	0.876325	
0.3168	0.386831	0.895903	
0.331523	0.239691	0.896553	
0.197278	0.0487031	0.829069	
0.30555	0.0888144	0.75317	
0.191683	0.0839995	0.717836	
0.222962	0.130748	0.792454	
-0.259073	-0.206972	0.5	
-0.215641	-0.22714	0.5	
-0.216156	-0.175607	0.5	
-0.230141	-0.201516	0.598323	
0.0209546	0.0362755	1	
0.0653714	0.061152	0.872444	
0.115537	0.0107471	1	
0.0906227	-0.0186438	0.910454	
-0.373013	-0.0200173	0.628673	
-0.346884	0.118257	0.588594	
-0.316208	0.0903343	0.672767	
-0.299226	0.0393938	0.583455	
-0.259808	0.15	0.5	
-0.216506	0.125	0.5	
-0.210645	0.180174	0.5	
-0.253577	0.121423	0.598057	
0.334367	-0.270443	0.5	
0.29185	-0.325871	0.5	
0.388274	-0.315029	0.579193	
0.251869	-0.294586	0.601969	
0.0903521	0.10545	1	
0.115537	0.0107471	1	
0.0209546	0.0362755	1	
0.0653714	0.061152	0.872444	
0.0187635	-0.357972	0.857507	
0.0999474	-0.256123	0.897299	
0.162257	-0.333773	0.890843	
0.108507	-0.396912	0.833758	
-0.0974804	-0.267818	0.831249	
-0.0973131	-0.377708	0.878415	
0.0187635	-0.357972	0.857507	
-0.0124705	-0.26219	0.899433	
0.313777	-0.208405	0.877459	
0.371732	-0.09396	0.880254	
0.436762	-0.243391	0.903062	
0.375849	-0.159302	0.804904	
-0.153328	0.47591	0.90763	
-0.081646	0.385636	0.890794	
-0.118932	0.39861	1	
-0.202396	0.33987	0.890246	
0.174678	0.468495	0.817109	
0.168734	0.470668	0.701781	
0.247057	0.434698	0.750499	
0.102331	0.345115	0.749287	
-0.344127	-0.112227	1	
-0.351812	-0.111075	0.861116	
-0.302044	-0.0506462	1	
-0.247755	-0.0727414	0.89259	
0.197278	0.0487031	0.829069	
0.150575	0.144679	0.883538	
0.0653714	0.061152	0.872444	
0.151755	0.0498946	0.914333	
-0.130723	0.131802	0.876531	
-0.0278211	0.108649	0.897003	
-0.0262407	0.173818	0.811595	
-0.104561	0.217724	0.908588	
-0.216506	0.125	0.5	
-0.177196	0.0645246	0.5	
-0.154439	0.124228	0.5	
-0.159007	0.150563	0.559172	
-0.159007	0.150563	0.6241	
-0.253577	0.121423	0.598057	
-0.1997	0.206062	0.577949	
-0.159007	0.150563	0.559172	
-0.31037	0.174447	0.5	
-0.31598	0.119651	0.5	
-0.253577	0.121423	0.598057	
-0.346884	0.118257	0.588594	
-0.248409	-0.277977	0.5	
-0.194694	-0.304695	0.5	
-0.192742	-0.261282	0.5	
-0.17146	-0.257962	0.580515	
-0.0583731	0.0957366	0.731357	
-0.0201791	0.0475049	0.66463	
-0.00412871	0.131789	0.635032	
-0.00352435	0.161713	0.716755	
-0.31037	0.174447	0.5	
-0.322372	0.204757	0.615478	
-0.363589	0.21739	0.5	
-0.346884	0.118257	0.588594	
0.102519	0.0330131	0.5	
0.0965515	-0.0251853	0.583435	
0.145725	0.0491975	0.586984	
0.0803667	0.0912248	0.564492	
0.194604	-0.371188	1	
0.235698	-0.440961	0.931431	
0.162257	-0.333773	0.890843	
0.250375	-0.286672	0.911571	
0.255304	-0.0994756	0.835986	
0.371732	-0.09396	0.880254	
0.270025	-0.00993688	0.796605	
0.283042	-0.0276105	0.90443	
0.331891	-0.227727	0.595789	
0.213897	-0.237657	0.568565	
0.236451	-0.193336	0.622526	
0.295498	-0.153797	0.576613	
-0.0705177	0.0247142	0.5	
-0.0625361	-0.0382385	0.5	
-0.0081622	-0.0144392	0.5	
-0.0295799	0.0358881	0.577891	
0.113554	0.0989266	0.5	
0.175681	0.0639425	0.5	
0.169238	0.138503	0.5	
0.145725	0.0491975	0.586984	
0.133074	0.264097	1	
0.189613	0.313662	1	
0.231243	0.24169	1	
0.237861	0.283786	0.876325	
0	0.5	0.9	
-0.0372406	0.417791	1	
-0.0704482	0.495012	0.928155	
-0.081646	0.385636	0.890794	
-0.308042	-0.167631	0.5	
-0.363128	-0.216258	0.5	
-0.295665	-0.266599	0.586027	
-0.350556	-0.203398	0.639466	
0.228991	-0.444481	0.591901	
0.3168	-0.386831	0.604097	
0.203679	-0.368672	0.5	
0.251869	-0.294586	0.601969	
0.293439	0.171691	0.838154	
0.245664	0.104793	0.903539	
0.150575	0.144679	0.883538	
0.222962	0.130748	0.792454	
0.366186	-0.0790357	0.5	
0.295498	-0.153797	0.576613	
0.326126	-0.135086	0.5	
0.385165	-0.157061	0.580489	
0.124154	0.245419	0.824268	
0.102331	0.345115	0.749287	
0.0206391	0.354311	0.845617	
0.141859	0.360078	0.864623	
0.115537	0.0107471	1	
0.0653714	0.061152	0.872444	
0.0903521	0.10545	1	
0.151755	0.0498946	0.914333	
0.103648	-0.156441	0.895396	
0.181192	-0.0401295	0.895026	
0.092572	-0.0674004	0.832552	
0.0906227	-0.0186438	0.910454	
-0.0262407	0.173818	0.811595	
-0.019486	0.256762	0.89034	
-0.0278211	0.108649	0.897003	
0.0505063	0.178091	0.883857	
0.0903521	0.10545	1	
0.0651412	0.200096	1	
0.158056	0.171884	1	
0.150575	0.144679	0.883538	
0.216506	0.125	0.5	
0.289778	0.0776457	0.5	
0.259808	0.15	0.5	
0.230707	0.150403	0.598384	
0.388274	0.315029	0.920807	
0.261819	0.319027	1	
0.3168	0.386831	0.895903	
0.331523	0.239691	0.896553	
-0.0974804	-0.267818	0.831249	
-0.0124705	-0.26219	0.899433	
0.0187635	-0.357972	0.857507	
-0.00969375	-0.289543	0.79323	
-0.194694	-0.304695	0.5	
-0.270443	-0.334367	0.5	
-0.195731	-0.375572	0.5	
-0.221522	-0.316483	0.612387	
0	-0.5	0.7	
0.0814864	-0.493315	0.652319	
0	-0.5	0.6	
0.0667763	-0.376719	0.620641	
-0.0284942	-0.0420004	0.604932	
-0.0295799	0.0358881	0.577891	
0.0480825	0.0400932	0.605275	
0.0268659	-0.0185974	0.564249	
0.366186	-0.0790357	0.5	
0.338019	-0.101245	0.632718	
0.295498	-0.153797	0.576613	
0.385165	-0.157061	0.580489	
0.237861	0.283786	0.876325	
0.141859	0.360078	0.864623	
0.124154	0.245419	0.824268	
0.0767997	0.290568	0.903715	
-0.159007	0.150563	0.751045	
-0.0803648	0.180844	0.680643	
-0.0583731	0.0957366	0.731357	
-0.115015	0.0956921	0.669627	
-0.159007	0.150563	0.751045	
-0.211247	0.0837089	0.687573	
-0.16493	0.0307641	0.766812	
-0.201407	0.100714	0.820483	
0.428195	-0.258165	0.798245	
0.376757	-0.328716	0.753532	
0.380873	-0.323938	0.847739	
0.263974	-0.284246	0.810467	
-0.0619448	0.0316562	0.830282	
-0.0278211	0.108649	0.897003	
0.00559979	0.0873054	0.798487	
-0.113733	0.0934406	0.798152	
-0.16685	0.0883447	1	
-0.0734441	0.0616893	1	
-0.142648	-0.00714059	1	
-0.0991242	-0.0135691	0.909138	
0	0.5	0.6	
0.042537	0.432039	0.5	
0.0704482	0.495012	0.571845	
0.0755103	0.388608	0.610372	
0.313791	-0.154465	1	
0.232997	-0.11062	1	
0.314271	-0.0501881	1	
0.283042	-0.0276105	0.90443	
-0.0892693	0.13018	0.5	
-0.0939263	0.178211	0.579293	
-0.0843404	0.0959758	0.591667	
-0.0203138	0.116891	0.566619	
0.0653714	0.061152	0.872444	
-0.0278211	0.108649	0.897003	
-0.0619448	0.0316562	0.830282	
-0.00109612	-0.0173781	0.904468	
-0.0262407	0.173818	0.811595	
-0.0278211	0.108649	0.897003	
-0.130723	0.131802	0.876531	
-0.113733	0.0934406	0.798152	
-0.248409	-0.277977	0.5	
-0.295665	-0.266599	0.586027	
-0.221522	-0.316483	0.612387	
-0.17146	-0.257962	0.580515	
-0.316847	0.386792	0.801384	
-0.220027	0.322099	0.738771	
-0.262727	0.245322	0.796513	
-0.303077	0.2787	0.708341	
-0.468495	-0.174678	0.682891	
-0.470668	-0.168734	0.798219	
-0.434698	-0.247057	0.749501	
-0.358174	-0.0931631	0.744866	
-0.232531	-0.00520461	0.629061	
-0.211247	0.0837089	0.687573	
-0.316208	0.0903343	0.672767	
-0.303266	-0.0059886	0.701726	
0.242822	-0.437078	0.847009	
0.317233	-0.386476	0.909527	
0.263974	-0.284246	0.810467	
0.250375	-0.286672	0.911571	
-0.166581	-0.0467287	0.5	
-0.122493	-0.0457662	0.591275	
-0.13896	0.0197163	0.5	
-0.160124	0.0403748	0.589251	
0.380207	-0.19708	1	
0.436762	-0.243391	0.903062	
0.386505	-0.317197	0.931175	
0.313777	-0.208405	0.877459	
0.317233	0.386476	0.590473	
0.316847	0.386792	0.698616	
0.215007	0.321027	0.704259	
0.298958	0.273011	0.680114	
0.136333	-0.0203798	0.5	
0.174911	-0.0307899	0.613699	
0.196849	-0.00527115	0.5	
0.145725	0.0491975	0.586984	
-0.495293	0.0684459	0.931403	
-0.404541	0.126945	1	
-0.426463	0.0441363	1	
-0.384543	0.0457703	0.887922	
-0.188087	-0.23341	0.686349	
-0.221522	-0.316483	0.612387	
-0.230141	-0.201516	0.598323	
-0.17146	-0.257962	0.580515	
-0.16685	0.0883447	1	
-0.130723	0.131802	0.876531	
-0.187544	0.023283	0.887465	
-0.222536	0.133159	0.91035	
-0.0974804	-0.267818	0.831249	
0.0187635	-0.357972	0.857507	
-0.0973131	-0.377708	0.878415	
-0.00969375	-0.289543	0.79323	
0.221044	-0.17499	0.5	
0.259808	-0.15	0.5	
0.216506	-0.125	0.5	
0.212248	-0.110857	0.594534	
0.092572	-0.0674004	0.832552	
0.165332	-0.129906	0.808096	
0.181192	-0.0401295	0.895026	
0.198682	-0.135756	0.90724	
0.0093178	-0.302179	0.697821	
-0.00328301	-0.284745	0.599465	
0.0667763	-0.376719	0.620641	
-0.029629	-0.397647	0.594827	
0.114055	0.374109	1	
0.146853	0.477948	0.915992	
0.202324	0.378521	1	
0.141859	0.360078	0.864623	
0.221044	-0.17499	0.5	
0.177945	-0.20787	0.5	
0.228406	-0.215902	0.5	
0.213897	-0.237657	0.568565	
-0.0776457	-0.289778	0.5	
-0.0782828	-0.218112	0.590988	
-0.15	-0.259808	0.5	
-0.17146	-0.257962	0.580515	
-0.247057	0.434698	0.749501	
-0.174678	0.468495	0.682891	
-0.120471	0.3509	0.721125	
-0.220027	0.322099	0.738771	
-0.0708935	-0.143579	0.5	
-0.0228356	-0.132115	0.5	
-0.0699979	-0.0973408	0.5	
-0.0688906	-0.12049	0.582378	
0.436762	0.243391	0.596938	
0.469721	0.171353	0.661666	
0.428195	0.258165	0.701755	
0.320995	0.210811	0.605402	
-0.0619448	0.0316562	0.830282	
0.0653714	0.061152	0.872444	
-0.00109612	-0.0173781	0.904468	
0.0170666	-0.00404371	0.815416	
-0.144862	-0.478555	0.921652	
-0.203173	-0.373024	1	
-0.114467	-0.386332	1	
-0.0973131	-0.377708	0.878415	
-0.0741769	-0.222661	0.70095	
-0.146541	-0.177031	0.776317	
-0.0509221	-0.120838	0.749894	
-0.122368	-0.153617	0.697369	
0.0712814	-0.153152	1	
0.0943468	-0.245334	1	
0.00183684	-0.222331	1	
0.0999474	-0.256123	0.897299	
-0.439458	0.238488	0.575692	
-0.388274	0.315029	0.579193	
-0.415735	0.277785	0.634138	
-0.322372	0.204757	0.615478	
0.0851242	-0.244368	0.731714	
0.103299	-0.191976	0.670856	
0.128689	-0.272515	0.631723	
0.023726	-0.214303	0.683566	
0.185145	-0.220341	0.859684	
0.162257	-0.333773	0.890843	
0.142334	-0.324062	0.773071	
0.263974	-0.284246	0.810467	
-0.444481	-0.228991	0.591901	
-0.363128	-0.216258	0.5	
-0.364062	-0.132817	0.5	
-0.350556	-0.203398	0.639466	
-0.019486	0.256762	0.89034	
0.0271447	0.258379	0.801291	
-0.0262407	0.173818	0.811595	
-0.0614757	0.232646	0.751575	
0.230141	0.201516	0.689547	
0.325802	0.106737	0.636954	
0.230707	0.150403	0.598384	
0.320995	0.210811	0.605402	
0.115537	0.0107471	1	
0.0653714	0.061152	0.872444	
0.151755	0.0498946	0.914333	
0.0906227	-0.0186438	0.910454	
-0.247057	0.434698	0.749501	
-0.25658	0.429146	0.66876	
-0.174678	0.468495	0.682891	
-0.220027	0.322099	0.738771	
-0.351551	0.0541915	0.5	
-0.373013	-0.0200173	0.628673	
-0.361276	-0.0455918	0.5	
-0.299226	0.0393938	0.583455	
0.017794	0.149684	0.5	
0.00365932	0.104584	0.5	
0.0473696	0.155243	0.576019	
-0.0203138	0.116891	0.566619	
-0.0509221	-0.120838	0.749894	
-0.0810226	-0.0861052	0.668473	
-0.161265	-0.08127	0.716218	
-0.096592	-0.0392798	0.774507	
0.0682711	-0.052186	0.660923	
0.0965515	-0.0251853	0.583435	
0.0543934	-0.098021	0.585709	
0.0268659	-0.0185974	0.564249	
0.242822	-0.437078	0.847009	
0.247057	-0.434698	0.749501	
0.168734	-0.470668	0.798219	
0.142334	-0.324062	0.773071	
0.0733876	-0.0824124	0.5	
0.0376566	-0.0505847	0.5	
0.035935	-0.11426	0.5	
0.0543934	-0.098021	0.585709	
0.18228	-0.160584	0.5	
0.212248	-0.110857	0.594534	
0.216506	-0.125	0.5	
0.149744	-0.0894982	0.564748	
-0.237047	0.0201392	1	
-0.247755	-0.0727414	0.89259	
-0.302044	-0.0506462	1	
-0.29588	0.00863916	0.858008	
0.216156	0.175607	0.5	
0.259808	0.15	0.5	
0.259073	0.206972	0.5	
0.230707	0.150403	0.598384	
-0.450285	0.217356	0.644698	
-0.322372	0.204757	0.615478	
-0.415735	0.277785	0.634138	
-0.384891	0.157961	0.659274	
0.043412	-0.246202	0.5	
0.0776457	-0.289778	0.5	
0.0645865	-0.210943	0.590313	
-0.00328301	-0.284745	0.599465	
0.242822	0.437078	0.652991	
0.317233	0.386476	0.590473	
0.215007	0.321027	0.704259	
0.187975	0.355336	0.600929	
0.164797	-0.177585	1	
0.103648	-0.156441	0.895396	
0.185145	-0.220341	0.859684	
0.0999474	-0.256123	0.897299	
0.4284	-0.257824	0.704976	
0.376757	-0.328716	0.753532	
0.428195	-0.258165	0.798245	
0.304977	-0.200047	0.747623	
0.242822	-0.437078	0.847009	
0.142334	-0.324062	0.773071	
0.168734	-0.470668	0.798219	
0.108507	-0.396912	0.833758	
-0.211247	0.0837089	0.687573	
-0.303266	-0.0059886	0.701726	
-0.232531	-0.00520461	0.629061	
-0.179806	-0.00389189	0.693003	
0.380207	-0.19708	1	
0.386505	-0.317197	0.931175	
0.314857	-0.257449	1	
0.313777	-0.208405	0.877459	
0.176544	-0.0644028	0.5	
0.174911	-0.0307899	0.613699	
0.136333	-0.0203798	0.5	
0.149744	-0.0894982	0.564748	
0.349701	0.023511	0.844749	
0.270025	-0.00993688	0.796605	
0.371732	-0.09396	0.880254	
0.283042	-0.0276105	0.90443	
0.314271	-0.0501881	1	
0.409478	-0.032947	1	
0.371732	-0.09396	0.880254	
0.283042	-0.0276105	0.90443	
-0.104054	0.0128374	0.663816	
-0.0843404	0.0959758	0.591667	
-0.160124	0.0403748	0.589251	
-0.115015	0.0956921	0.669627	
-0.3	7.34788e-17	0.5	
-0.246202	-0.043412	0.5	
-0.246202	0.043412	0.5	
-0.299226	0.0393938	0.583455	
0.338019	-0.101245	0.632718	
0.277454	-0.0417897	0.589806	
0.289778	-0.0776457	0.5	
0.295498	-0.153797	0.576613	
0.175681	0.0639425	0.5	
0.196849	-0.00527115	0.5	
0.246202	0.043412	0.5	
0.245674	0.0465287	0.605115	
-0.270443	-0.334367	0.5	
-0.194694	-0.304695	0.5	
-0.248409	-0.277977	0.5	
-0.221522	-0.316483	0.612387	
0.450285	-0.217356	0.644698	
0.331891	-0.227727	0.595789	
0.415735	-0.277785	0.634138	
0.365268	-0.183537	0.674475	
0.26162	-0.00747869	0.698076	
0.376828	0.00465276	0.670748	
0.338019	-0.101245	0.632718	
0.277454	-0.0417897	0.589806	
0.153328	0.47591	0.59237	
0.168734	0.470668	0.701781	
0.0755103	0.388608	0.610372	
0.187975	0.355336	0.600929	
0.4284	-0.257824	0.704976	
0.460548	-0.194667	0.76567	
0.365268	-0.183537	0.674475	
0.375849	-0.159302	0.804904	
-0.0983601	0.156434	1	
-0.0278211	0.108649	0.897003	
-0.130723	0.131802	0.876531	
-0.104561	0.217724	0.908588	
0.196849	-0.00527115	0.5	
0.136333	-0.0203798	0.5	
0.176544	-0.0644028	0.5	
0.174911	-0.0307899	0.613699	
0.142334	-0.324062	0.773071	
0.0187635	-0.357972	0.857507	
0.0564693	-0.387133	0.748139	
0.108507	-0.396912	0.833758	
-0.316847	0.386792	0.801384	
-0.262727	0.245322	0.796513	
-0.376757	0.328716	0.753532	
-0.303077	0.2787	0.708341	
-0.230141	-0.201516	0.598323	
-0.208135	-0.0860903	0.586046	
-0.142736	-0.147946	0.615788	
-0.167688	-0.179794	0.560998	
0.0473696	0.155243	0.576019	
-0.0203138	0.116891	0.566619	
0.00365932	0.104584	0.5	
0.0803667	0.0912248	0.564492	
0.201164	-0.273578	1	
0.164797	-0.177585	1	
0.185145	-0.220341	0.859684	
0.0999474	-0.256123	0.897299	
0.0565057	-0.147787	0.722206	
0.000554419	-0.0943553	0.688478	
-0.00915007	-0.159584	0.629557	
0.023726	-0.214303	0.683566	
-0.0973459	0.263913	0.624876	
-0.145109	0.249909	0.723665	
-0.0803648	0.180844	0.680643	
-0.0614757	0.232646	0.751575	
-0.152694	-0.476114	0.59754	
-0.217356	-0.450285	0.644698	
-0.168043	-0.470916	0.699874	
-0.108579	-0.348279	0.636398	
-0.118932	0.39861	1	
-0.235698	0.440961	0.931431	
-0.153328	0.47591	0.90763	
-0.202396	0.33987	0.890246	
-0.248409	-0.277977	0.5	
-0.221522	-0.316483	0.612387	
-0.194694	-0.304695	0.5	
-0.17146	-0.257962	0.580515	
0.181192	-0.0401295	0.895026	
0.210156	-0.0147965	1	
0.283042	-0.0276105	0.90443	
0.151755	0.0498946	0.914333	
-0.493437	-0.0807477	0.845776	
-0.470668	-0.168734	0.798219	
-0.492649	-0.0854243	0.748597	
-0.358174	-0.0931631	0.744866	
0.259073	0.206972	0.5	
0.230707	0.150403	0.598384	
0.308042	0.167631	0.5	
0.320995	0.210811	0.605402	
0.0645865	-0.210943	0.590313	
0.103299	-0.191976	0.670856	
-0.00915007	-0.159584	0.629557	
0.023726	-0.214303	0.683566	
-0.249565	0.273325	0.5	
-0.194694	0.304695	0.5	
-0.270443	0.334367	0.5	
-0.285935	0.290775	0.588479	
0.0776457	-0.289778	0.5	
-1.51596e-16	-0.3	0.5	
0.0579886	-0.363184	0.5	
-0.00328301	-0.284745	0.599465	
-0.261345	-0.230036	1	
-0.168688	-0.281701	1	
-0.263582	-0.319413	1	
-0.208529	-0.319219	0.867558	
-0.171353	-0.469721	0.838334	
-0.0810399	-0.493389	0.85285	
-0.0977967	-0.490343	0.758774	
-0.0973131	-0.377708	0.878415	
0.450285	0.217356	0.855302	
0.4284	0.257824	0.795024	
0.470916	0.168043	0.800126	
0.385025	0.1139	0.812458	
-0.130723	0.131802	0.876531	
-0.198122	0.226155	0.892159	
-0.18644	0.1823	1	
-0.104561	0.217724	0.908588	
-0.295069	0.107196	0.837498	
-0.25776	0.0501948	0.763211	
-0.371727	0.0207537	0.771598	
-0.388856	0.122276	0.792585	
-0.0619448	0.0316562	0.830282	
0.00559979	0.0873054	0.798487	
0.0653714	0.061152	0.872444	
0.0170666	-0.00404371	0.815416	
-0.118648	0.167764	0.5	
-0.0892693	0.13018	0.5	
-0.0939263	0.178211	0.579293	
-0.159007	0.150563	0.559172	
0.428195	-0.258165	0.798245	
0.4284	-0.257824	0.704976	
0.304977	-0.200047	0.747623	
0.375849	-0.159302	0.804904	
-0.437078	-0.242822	0.847009	
-0.47591	-0.153328	0.90763	
-0.440961	-0.235698	0.931431	
-0.351812	-0.111075	0.861116	
0.231749	-0.30504	0.5	
0.2	-0.259808	0.5	
0.166469	-0.308164	0.5	
0.213897	-0.237657	0.568565	
0.168734	0.470668	0.701781	
0.242822	0.437078	0.652991	
0.215007	0.321027	0.704259	
0.187975	0.355336	0.600929	
-0.18644	0.1823	1	
-0.198122	0.226155	0.892159	
-0.130723	0.131802	0.876531	
-0.222536	0.133159	0.91035	
-0.201407	0.100714	0.820483	
-0.25776	0.0501948	0.763211	
-0.187544	0.023283	0.887465	
-0.29588	0.00863916	0.858008	
0.142334	-0.324062	0.773071	
0.162257	-0.333773	0.890843	
0.185145	-0.220341	0.859684	
0.0999474	-0.256123	0.897299	
0.00155464	-0.188347	0.5	
0.0645865	-0.210943	0.590313	
0.0583087	-0.173273	0.5	
0.00148161	-0.13757	0.564688	
-0.171353	-0.469721	0.838334	
-0.0973131	-0.377708	0.878415	
-0.0977967	-0.490343	0.758774	
-0.0516032	-0.38053	0.763919	
-0.126305	-0.416563	0.5	
-0.0442266	-0.432186	0.5	
-0.0790357	-0.366186	0.5	
-0.029629	-0.397647	0.594827	
0.0609049	0.128365	0.5	
0.0473696	0.155243	0.576019	
0.00365932	0.104584	0.5	
0.0803667	0.0912248	0.564492	
-0.142736	-0.147946	0.615788	
-0.0688906	-0.12049	0.582378	
-0.122493	-0.0457662	0.591275	
-0.0810226	-0.0861052	0.668473	
-0.0619448	0.0316562	0.830282	
-0.0278211	0.108649	0.897003	
0.0653714	0.061152	0.872444	
0.00559979	0.0873054	0.798487	
0.274666	-0.249265	0.5	
0.260383	-0.192244	0.5	
0.228406	-0.215902	0.5	
0.213897	-0.237657	0.568565	
-0.289778	-0.0776457	0.5	
-0.259808	-0.15	0.5	
-0.208135	-0.0860903	0.586046	
-0.293992	-0.0575398	0.588141	
-0.293675	-0.122789	0.650858	
-0.358174	-0.0931631	0.744866	
-0.307152	-0.222724	0.726676	
-0.24121	-0.14299	0.745605	
0.14072	-0.0839746	1	
0.103648	-0.156441	0.895396	
0.181192	-0.0401295	0.895026	
0.198682	-0.135756	0.90724	
-0.322372	0.204757	0.615478	
-0.338342	0.189085	0.729139	
-0.243141	0.175788	0.70528	
-0.303077	0.2787	0.708341	
0.185145	-0.220341	0.859684	
0.313777	-0.208405	0.877459	
0.255304	-0.0994756	0.835986	
0.198682	-0.135756	0.90724	
-0.258165	-0.428195	0.798245	
-0.162672	-0.339378	0.750157	
-0.257824	-0.4284	0.704976	
-0.253586	-0.309787	0.710553	
-0.16685	0.0883447	1	
-0.18644	0.1823	1	
-0.130723	0.131802	0.876531	
-0.222536	0.133159	0.91035	
0.0401436	0.291204	1	
-0.019486	0.256762	0.89034	
0.0153159	0.363557	1	
0.0767997	0.290568	0.903715	
-0.232531	-0.00520461	0.629061	
-0.293675	-0.122789	0.650858	
-0.303266	-0.0059886	0.701726	
-0.293992	-0.0575398	0.588141	
0.0248177	-0.313374	1	
-0.0328721	-0.370689	1	
-0.0638367	-0.295761	1	
-0.0124705	-0.26219	0.899433	
0.102519	0.0330131	0.5	
0.0454237	0.00960241	0.5	
0.0854359	-0.0267855	0.5	
0.0965515	-0.0251853	0.583435	
0.235698	-0.440961	0.931431	
0.317233	-0.386476	0.909527	
0.242822	-0.437078	0.847009	
0.162257	-0.333773	0.890843	
-0.0974804	-0.267818	0.831249	
-0.0973131	-0.377708	0.878415	
-0.0516032	-0.38053	0.763919	
-0.00969375	-0.289543	0.79323	
0.0682711	-0.052186	0.660923	
0.122018	0.0307901	0.671023	
0.0480825	0.0400932	0.605275	
0.0473369	0.0172976	0.690385	
-0.439458	0.238488	0.575692	
-0.363589	0.21739	0.5	
-0.388274	0.315029	0.579193	
-0.322372	0.204757	0.615478	
-0.0983601	0.156434	1	
-0.16685	0.0883447	1	
-0.18644	0.1823	1	
-0.130723	0.131802	0.876531	
-0.363128	-0.216258	0.5	
-0.444481	-0.228991	0.591901	
-0.295665	-0.266599	0.586027	
-0.350556	-0.203398	0.639466	
0.0480825	0.0400932	0.605275	
0.0662295	0.0983543	0.659549	
0.145725	0.0491975	0.586984	
0.0803667	0.0912248	0.564492	
0.0473696	0.155243	0.576019	
0.0662295	0.0983543	0.659549	
-0.00412871	0.131789	0.635032	
0.0803667	0.0912248	0.564492	
-0.0152603	-0.363012	0.5	
-1.51596e-16	-0.3	0.5	
-0.0776457	-0.289778	0.5	
-0.00328301	-0.284745	0.599465	
-0.00455509	0.289048	0.710952	
-0.00352435	0.161713	0.716755	
0.0271447	0.258379	0.801291	
-0.0614757	0.232646	0.751575	
-0.198122	0.226155	0.892159	
-0.201407	0.100714	0.820483	
-0.130723	0.131802	0.876531	
-0.222536	0.133159	0.91035	
0.0579886	-0.363184	0.5	
-1.51596e-16	-0.3	0.5	
-0.0152603	-0.363012	0.5	
-0.00328301	-0.284745	0.599465	
0.174911	-0.0307899	0.613699	
0.245674	0.0465287	0.605115	
0.26162	-0.00747869	0.698076	
0.277454	-0.0417897	0.589806	
-0.0814864	0.493315	0.652319	
-0.146853	0.477948	0.584008	
-0.0728232	0.494668	0.573541	
-0.036445	0.376821	0.622976	
0.317206	-0.386498	0.700322	
0.316847	-0.386792	0.801384	
0.376757	-0.328716	0.753532	
0.263974	-0.284246	0.810467	
-0.373013	-0.0200173	0.628673	
-0.293675	-0.122789	0.650858	
-0.303266	-0.0059886	0.701726	
-0.392935	-0.114355	0.653897	
0	0.5	0.6	
0	0.5	0.7	
-0.0814864	0.493315	0.652319	
-0.036445	0.376821	0.622976	
0.118461	0.161044	0.5	
0.0473696	0.155243	0.576019	
0.0609049	0.128365	0.5	
0.0803667	0.0912248	0.564492	
0.476114	-0.152694	0.59754	
0.493012	-0.0833019	0.655211	
0.390858	-0.0458412	0.581997	
0.385165	-0.157061	0.580489	
0.177945	-0.20787	0.5	
0.165128	-0.182854	0.566814	
0.15	-0.259808	0.5	
0.213897	-0.237657	0.568565	
-0.00915007	-0.159584	0.629557	
-0.0782828	-0.218112	0.590988	
-0.0688906	-0.12049	0.582378	
0.00148161	-0.13757	0.564688	
-0.152694	-0.476114	0.59754	
-0.0698189	-0.495101	0.572379	
-0.126305	-0.416563	0.5	
-0.029629	-0.397647	0.594827	
-0.317206	0.386498	0.700322	
-0.374193	0.331632	0.665357	
-0.285935	0.290775	0.588479	
-0.303077	0.2787	0.708341	
0.236451	-0.193336	0.622526	
0.251869	-0.294586	0.601969	
0.331891	-0.227727	0.595789	
0.316563	-0.261412	0.680038	
-0.161265	-0.08127	0.716218	
-0.142736	-0.147946	0.615788	
-0.0810226	-0.0861052	0.668473	
-0.122368	-0.153617	0.697369	
0.3168	-0.386831	0.604097	
0.251869	-0.294586	0.601969	
0.317206	-0.386498	0.700322	
0.316563	-0.261412	0.680038	
-0.130723	0.131802	0.876531	
-0.0262407	0.173818	0.811595	
-0.114718	0.198983	0.815635	
-0.104561	0.217724	0.908588	
0.304977	-0.200047	0.747623	
0.365268	-0.183537	0.674475	
0.356094	-0.0732678	0.7583	
0.375849	-0.159302	0.804904	
-0.308042	-0.167631	0.5	
-0.364062	-0.132817	0.5	
-0.363128	-0.216258	0.5	
-0.350556	-0.203398	0.639466	
0.146853	-0.477948	0.584008	
0.0667763	-0.376719	0.620641	
0.174678	-0.468495	0.682891	
0.184871	-0.357405	0.649244	
0.4284	0.257824	0.795024	
0.335831	0.198146	0.73463	
0.470916	0.168043	0.800126	
0.385025	0.1139	0.812458	
-0.476114	0.152694	0.59754	
-0.384891	0.157961	0.659274	
-0.493012	0.0833019	0.655211	
-0.405387	0.0525253	0.685554	
-0.237047	0.0201392	1	
-0.302044	-0.0506462	1	
-0.337562	0.0547633	1	
-0.29588	0.00863916	0.858008	
0.325794	0.291996	0.5	
0.30356	0.231708	0.5	
0.369217	0.203769	0.5	
0.320995	0.210811	0.605402	
0.139746	-0.170777	0.5	
0.18228	-0.160584	0.5	
0.155716	-0.12147	0.5	
0.165128	-0.182854	0.566814	
0.184962	0.0799289	1	
0.245664	0.104793	0.903539	
0.276476	0.0535537	1	
0.151755	0.0498946	0.914333	
0.092572	-0.0674004	0.832552	
0.181192	-0.0401295	0.895026	
0.103648	-0.156441	0.895396	
0.198682	-0.135756	0.90724	
-0.295069	0.107196	0.837498	
-0.187544	0.023283	0.887465	
-0.201407	0.100714	0.820483	
-0.222536	0.133159	0.91035	
-0.186407	-0.169451	1	
-0.278713	-0.14304	1	
-0.211369	-0.0761151	1	
-0.247755	-0.0727414	0.89259	
-0.195731	0.375572	0.5	
-0.146853	0.477948	0.584008	
-0.228991	0.444481	0.591901	
-0.1727	0.337134	0.60049	
-0.361276	-0.0455918	0.5	
-0.3	7.34788e-17	0.5	
-0.299226	0.0393938	0.583455	
-0.293992	-0.0575398	0.588141	
-0.316208	0.0903343	0.672767	
-0.346884	0.118257	0.588594	
-0.373013	-0.0200173	0.628673	
-0.405387	0.0525253	0.685554	
-0.243391	-0.436762	0.903062	
-0.317197	-0.386505	0.931175	
-0.203173	-0.373024	1	
-0.208529	-0.319219	0.867558	
0.169426	0.205971	0.5	
0.118461	0.161044	0.5	
0.169238	0.138503	0.5	
0.146959	0.210165	0.588072	
0.0206391	0.354311	0.845617	
0.124154	0.245419	0.824268	
0.141859	0.360078	0.864623	
0.0767997	0.290568	0.903715	
0.242822	-0.437078	0.847009	
0.162257	-0.333773	0.890843	
0.317233	-0.386476	0.909527	
0.250375	-0.286672	0.911571	
-0.168688	-0.281701	1	
-0.0638367	-0.295761	1	
-0.114467	-0.386332	1	
-0.0973131	-0.377708	0.878415	
0.0712263	0.363482	0.5	
0.135086	0.326126	0.5	
0.124929	0.414525	0.5	
0.0755103	0.388608	0.610372	
-0.388856	0.122276	0.792585	
-0.384891	0.157961	0.659274	
-0.316208	0.0903343	0.672767	
-0.405387	0.0525253	0.685554	
-0.386792	-0.316847	0.801384	
-0.437078	-0.242822	0.847009	
-0.328462	-0.228271	0.903506	
-0.290901	-0.287972	0.800889	
-0.323938	-0.380873	0.847739	
-0.386476	-0.317233	0.909527	
-0.328462	-0.228271	0.903506	
-0.290901	-0.287972	0.800889	
0.469721	-0.171353	0.838334	
0.436762	-0.243391	0.903062	
0.371732	-0.09396	0.880254	
0.375849	-0.159302	0.804904	
0.317233	-0.386476	0.909527	
0.235698	-0.440961	0.931431	
0.268393	-0.334301	1	
0.250375	-0.286672	0.911571	
-0.0708935	-0.143579	0.5	
-0.0699979	-0.0973408	0.5	
-0.113226	-0.140086	0.5	
-0.0688906	-0.12049	0.582378	
-0.232531	-0.00520461	0.629061	
-0.160124	0.0403748	0.589251	
-0.211247	0.0837089	0.687573	
-0.179806	-0.00389189	0.693003	
0.470916	-0.168043	0.699874	
0.490343	-0.0977967	0.758774	
0.356094	-0.0732678	0.7583	
0.375849	-0.159302	0.804904	
0.136333	-0.0203798	0.5	
0.0965515	-0.0251853	0.583435	
0.174911	-0.0307899	0.613699	
0.145725	0.0491975	0.586984	
0.0651412	0.200096	1	
0.0505063	0.178091	0.883857	
-0.019486	0.256762	0.89034	
0.0767997	0.290568	0.903715	
-0.162672	-0.339378	0.750157	
-0.208529	-0.319219	0.867558	
-0.198796	-0.256159	0.777791	
-0.290901	-0.287972	0.800889	
0.0851242	-0.244368	0.731714	
0.023726	-0.214303	0.683566	
0.0093178	-0.302179	0.697821	
-0.00969375	-0.289543	0.79323	
0.493389	0.0810399	0.64715	
0.376828	0.00465276	0.670748	
0.5	0	0.7	
0.393123	0.117954	0.711669	
-0.439458	0.238488	0.575692	
-0.368394	0.141973	0.5	
-0.363589	0.21739	0.5	
-0.346884	0.118257	0.588594	
-0.258165	-0.428195	0.798245	
-0.253586	-0.309787	0.710553	
-0.328716	-0.376757	0.753532	
-0.290901	-0.287972	0.800889	
0.289778	0.0776457	0.5	
0.216506	0.125	0.5	
0.246202	0.043412	0.5	
0.245674	0.0465287	0.605115	
-0.0983601	0.156434	1	
-0.130723	0.131802	0.876531	
-0.18644	0.1823	1	
-0.104561	0.217724	0.908588	
-0.201912	0.369986	1	
-0.118932	0.39861	1	
-0.138674	0.323797	1	
-0.202396	0.33987	0.890246	
-0.246202	-0.043412	0.5	
-0.208135	-0.0860903	0.586046	
-0.232531	-0.00520461	0.629061	
-0.293992	-0.0575398	0.588141	
0.0187635	-0.357972	0.857507	
-0.0516032	-0.38053	0.763919	
-0.0973131	-0.377708	0.878415	
-0.00969375	-0.289543	0.79323	
0.3168	0.386831	0.895903	
0.228991	0.444481	0.908099	
0.25658	0.429146	0.83124	
0.237861	0.283786	0.876325	
0.5	0	0.6	
0.493012	-0.0833019	0.655211	
0.376828	0.00465276	0.670748	
0.390858	-0.0458412	0.581997	
-0.493437	-0.0807477	0.845776	
-0.495012	-0.0704482	0.928155	
-0.47591	-0.153328	0.90763	
-0.351812	-0.111075	0.861116	
-0.188087	-0.23341	0.686349	
-0.142736	-0.147946	0.615788	
-0.230141	-0.201516	0.598323	
-0.211192	-0.1537	0.666432	
-0.490343	0.0977967	0.758774	
-0.493389	0.0810399	0.85285	
-0.371727	0.0207537	0.771598	
-0.388856	0.122276	0.792585	
0.331891	-0.227727	0.595789	
0.251869	-0.294586	0.601969	
0.236451	-0.193336	0.622526	
0.213897	-0.237657	0.568565	
0.470916	-0.168043	0.699874	
0.365268	-0.183537	0.674475	
0.460548	-0.194667	0.76567	
0.375849	-0.159302	0.804904	
-0.222708	0.258636	0.655001	
-0.285935	0.290775	0.588479	
-0.322372	0.204757	0.615478	
-0.303077	0.2787	0.708341	
-0.188087	-0.23341	0.686349	
-0.24121	-0.14299	0.745605	
-0.307152	-0.222724	0.726676	
-0.198796	-0.256159	0.777791	
-0.162672	-0.339378	0.750157	
-0.198796	-0.256159	0.777791	
-0.253586	-0.309787	0.710553	
-0.290901	-0.287972	0.800889	
0.128689	-0.272515	0.631723	
0.251869	-0.294586	0.601969	
0.229446	-0.281388	0.703137	
0.184871	-0.357405	0.649244	
0.0854359	-0.0267855	0.5	
0.0965515	-0.0251853	0.583435	
0.0454237	0.00960241	0.5	
0.0268659	-0.0185974	0.564249	
0.235698	0.440961	0.568569	
0.124929	0.414525	0.5	
0.195731	0.375572	0.5	
0.187975	0.355336	0.600929	
-0.208529	-0.319219	0.867558	
-0.152603	-0.19085	0.88329	
-0.0974804	-0.267818	0.831249	
-0.198796	-0.256159	0.777791	
-0.386498	-0.317206	0.700322	
-0.295665	-0.266599	0.586027	
-0.386831	-0.3168	0.604097	
-0.350556	-0.203398	0.639466	
-0.13896	0.0197163	0.5	
-0.166581	-0.0467287	0.5	
-0.110253	-0.0221958	0.5	
-0.122493	-0.0457662	0.591275	
-0.211247	0.0837089	0.687573	
-0.25776	0.0501948	0.763211	
-0.303266	-0.0059886	0.701726	
-0.179806	-0.00389189	0.693003	
-0.316208	0.0903343	0.672767	
-0.388856	0.122276	0.792585	
-0.338342	0.189085	0.729139	
-0.384891	0.157961	0.659274	
0.175681	0.0639425	0.5	
0.246202	0.043412	0.5	
0.216506	0.125	0.5	
0.245674	0.0465287	0.605115	
0.242822	-0.437078	0.847009	
0.317233	-0.386476	0.909527	
0.316847	-0.386792	0.801384	
0.263974	-0.284246	0.810467	
0.0653714	0.061152	0.872444	
0.0170666	-0.00404371	0.815416	
0.092572	-0.0674004	0.832552	
0.0906227	-0.0186438	0.910454	
0.414183	0.131147	1	
0.476114	0.152694	0.90246	
0.495101	0.0698189	0.927621	
0.370295	0.150924	0.906655	
0.0712263	0.363482	0.5	
0.042537	0.432039	0.5	
2.23198e-17	0.373746	0.5	
0.0755103	0.388608	0.610372	
-0.401548	-0.0423374	1	
-0.337562	0.0547633	1	
-0.302044	-0.0506462	1	
-0.384543	0.0457703	0.887922	
-0.0934074	-0.183691	0.5	
-0.0497612	-0.177788	0.5	
-0.0688906	-0.12049	0.582378	
-0.0782828	-0.218112	0.590988	
-0.216377	0.228686	0.5	
-0.259808	0.2	0.5	
-0.210645	0.180174	0.5	
-0.1997	0.206062	0.577949	
-0.315029	-0.388274	0.579193	
-0.331632	-0.374193	0.665357	
-0.221522	-0.316483	0.612387	
-0.295665	-0.266599	0.586027	
-0.208529	-0.319219	0.867558	
-0.328462	-0.228271	0.903506	
-0.24957	-0.20227	0.837053	
-0.290901	-0.287972	0.800889	
0.165128	-0.182854	0.724456	
0.0851242	-0.244368	0.731714	
0.0565057	-0.147787	0.722206	
0.103299	-0.191976	0.670856	
0.122018	0.0307901	0.671023	
0.145725	0.0491975	0.586984	
0.0480825	0.0400932	0.605275	
0.0662295	0.0983543	0.659549	
0.124154	0.245419	0.824268	
0.148721	0.172259	0.753766	
0.150575	0.144679	0.883538	
0.0617642	0.177547	0.776817	
-0.376757	0.328716	0.753532	
-0.316847	0.386792	0.801384	
-0.380873	0.323938	0.847739	
-0.262727	0.245322	0.796513	
0.201164	-0.273578	1	
0.185145	-0.220341	0.859684	
0.162257	-0.333773	0.890843	
0.0999474	-0.256123	0.897299	
-0.3	7.34788e-17	0.5	
-0.246202	-0.043412	0.5	
-0.299226	0.0393938	0.583455	
-0.293992	-0.0575398	0.588141	
-0.316208	0.0903343	0.672767	
-0.211247	0.0837089	0.687573	
-0.253577	0.121423	0.598057	
-0.243141	0.175788	0.70528	
0.174911	-0.0307899	0.613699	
0.0965515	-0.0251853	0.583435	
0.136333	-0.0203798	0.5	
0.149744	-0.0894982	0.564748	
0.0728232	-0.494668	0.573541	
0.0667763	-0.376719	0.620641	
0.0431128	-0.437731	0.5	
-0.029629	-0.397647	0.594827	
0.130932	-0.431625	0.5	
0.0431128	-0.437731	0.5	
0.0728232	-0.494668	0.573541	
0.0667763	-0.376719	0.620641	
-0.0854243	0.492649	0.748597	
-0.174678	0.468495	0.682891	
-0.0814864	0.493315	0.652319	
-0.120471	0.3509	0.721125	
-0.168688	-0.281701	1	
-0.261345	-0.230036	1	
-0.186407	-0.169451	1	
-0.152603	-0.19085	0.88329	
-0.232531	-0.00520461	0.629061	
-0.208135	-0.0860903	0.586046	
-0.293675	-0.122789	0.650858	
-0.293992	-0.0575398	0.588141	
-0.173205	-0.15	0.5	
-0.113226	-0.140086	0.5	
-0.149626	-0.106257	0.5	
-0.167688	-0.179794	0.560998	
-0.0892693	0.13018	0.5	
-0.0843404	0.0959758	0.591667	
-0.0507575	0.0878249	0.5	
-0.0203138	0.116891	0.566619	
-0.237047	0.0201392	1	
-0.187544	0.023283	0.887465	
-0.211369	-0.0761151	1	
-0.247755	-0.0727414	0.89259	
-0.16493	0.0307641	0.766812	
-0.201407	0.100714	0.820483	
-0.187544	0.023283	0.887465	
-0.113733	0.0934406	0.798152	
0.124154	0.245419	0.824268	
0.0206391	0.354311	0.845617	
0.0271447	0.258379	0.801291	
0.0767997	0.290568	0.903715	
-0.358174	-0.0931631	0.744866	
-0.303266	-0.0059886	0.701726	
-0.293675	-0.122789	0.650858	
-0.392935	-0.114355	0.653897	
0.317206	0.386498	0.799678	
0.374193	0.331632	0.834643	
0.237861	0.283786	0.876325	
0.284059	0.282644	0.778361	
0.236451	-0.193336	0.622526	
0.229446	-0.281388	0.703137	
0.251869	-0.294586	0.601969	
0.316563	-0.261412	0.680038	
-0.215641	-0.22714	0.5	
-0.17146	-0.257962	0.580515	
-0.172766	-0.209666	0.5	
-0.167688	-0.179794	0.560998	
-0.0295403	0.225144	1	
0.0651412	0.200096	1	
-0.00425413	0.131001	1	
0.0505063	0.178091	0.883857	
0.177945	-0.20787	0.5	
0.221044	-0.17499	0.5	
0.18228	-0.160584	0.5	
0.165128	-0.182854	0.566814	
0.450285	-0.217356	0.644698	
0.439458	-0.238488	0.575692	
0.415735	-0.277785	0.634138	
0.331891	-0.227727	0.595789	
0.221044	-0.17499	0.5	
0.165128	-0.182854	0.566814	
0.177945	-0.20787	0.5	
0.213897	-0.237657	0.568565	
-0.248409	-0.277977	0.5	
-0.270443	-0.334367	0.5	
-0.221522	-0.316483	0.612387	
-0.295665	-0.266599	0.586027	
0.334367	-0.270443	0.5	
0.274666	-0.249265	0.5	
0.29185	-0.325871	0.5	
0.251869	-0.294586	0.601969	
-0.126305	-0.416563	0.5	
-0.0698189	-0.495101	0.572379	
-0.0442266	-0.432186	0.5	
-0.029629	-0.397647	0.594827	
0.270443	0.334367	0.5	
0.235698	0.440961	0.568569	
0.195731	0.375572	0.5	
0.187975	0.355336	0.600929	
-0.318983	0.261743	1	
-0.389036	0.207425	1	
-0.386505	0.317197	0.931175	
-0.312269	0.206869	0.893833	
-0.188087	-0.23341	0.686349	
-0.146541	-0.177031	0.776317	
-0.0741769	-0.222661	0.70095	
-0.122368	-0.153617	0.697369	
-0.0295403	0.225144	1	
-0.019486	0.256762	0.89034	
0.0651412	0.200096	1	
0.0505063	0.178091	0.883857	
-0.315029	-0.388274	0.579193	
-0.221522	-0.316483	0.612387	
-0.270443	-0.334367	0.5	
-0.295665	-0.266599	0.586027	
-0.331632	-0.374193	0.665357	
-0.386831	-0.3168	0.604097	
-0.386498	-0.317206	0.700322	
-0.295665	-0.266599	0.586027	
-0.351551	0.0541915	0.5	
-0.361276	-0.0455918	0.5	
-0.3	7.34788e-17	0.5	
-0.299226	0.0393938	0.583455	
-0.171353	-0.469721	0.838334	
-0.208529	-0.319219	0.867558	
-0.243391	-0.436762	0.903062	
-0.0973131	-0.377708	0.878415	
-0.307152	-0.222724	0.726676	
-0.24121	-0.14299	0.745605	
-0.188087	-0.23341	0.686349	
-0.211192	-0.1537	0.666432	
-0.277785	-0.415735	0.634138	
-0.315029	-0.388274	0.579193	
-0.331632	-0.374193	0.665357	
-0.221522	-0.316483	0.612387	
-0.0843404	0.0959758	0.591667	
-0.0295799	0.0358881	0.577891	
-0.0507575	0.0878249	0.5	
-0.0203138	0.116891	0.566619	
-0.122493	-0.0457662	0.591275	
-0.0688906	-0.12049	0.582378	
-0.0284942	-0.0420004	0.604932	
-0.0810226	-0.0861052	0.668473	
-0.316208	0.0903343	0.672767	
-0.338342	0.189085	0.729139	
-0.322372	0.204757	0.615478	
-0.384891	0.157961	0.659274	
-0.371727	0.0207537	0.771598	
-0.388856	0.122276	0.792585	
-0.316208	0.0903343	0.672767	
-0.405387	0.0525253	0.685554	
-0.5	0	0.8	
-0.490343	0.0977967	0.758774	
-0.493389	0.0810399	0.85285	
-0.371727	0.0207537	0.771598	
0.317233	0.386476	0.590473	
0.386505	0.317197	0.568825	
0.380873	0.323938	0.652261	
0.298958	0.273011	0.680114	
-0.295069	0.107196	0.837498	
-0.201407	0.100714	0.820483	
-0.187544	0.023283	0.887465	
-0.29588	0.00863916	0.858008	
-0.0803648	0.180844	0.680643	
-0.145109	0.249909	0.723665	
-0.159007	0.150563	0.751045	
-0.0614757	0.232646	0.751575	
0.432186	-0.0442266	0.5	
0.5	0	0.6	
0.437731	0.0431128	0.5	
0.390858	-0.0458412	0.581997	
0.470916	0.168043	0.800126	
0.4284	0.257824	0.795024	
0.460548	0.194667	0.73433	
0.335831	0.198146	0.73463	
0.320995	0.210811	0.605402	
0.335831	0.198146	0.73463	
0.428195	0.258165	0.701755	
0.298958	0.273011	0.680114	
-0.368394	0.141973	0.5	
-0.439458	0.238488	0.575692	
-0.476114	0.152694	0.59754	
-0.346884	0.118257	0.588594	
-0.230141	-0.201516	0.598323	
-0.208135	-0.0860903	0.586046	
-0.293675	-0.122789	0.650858	
-0.211192	-0.1537	0.666432	
-0.135086	-0.326126	0.5	
-0.0776457	-0.289778	0.5	
-0.15	-0.259808	0.5	
-0.17146	-0.257962	0.580515	
-0.361276	-0.0455918	0.5	
-0.299226	0.0393938	0.583455	
-0.373013	-0.0200173	0.628673	
-0.293992	-0.0575398	0.588141	
0.0682711	-0.052186	0.660923	
0.0831208	-0.00188727	0.757361	
0.122018	0.0307901	0.671023	
0.0473369	0.0172976	0.690385	
0.4284	-0.257824	0.704976	
0.304977	-0.200047	0.747623	
0.365268	-0.183537	0.674475	
0.316563	-0.261412	0.680038	
0.0807477	-0.493437	0.845776	
0.0564693	-0.387133	0.748139	
0	-0.5	0.8	
0.108507	-0.396912	0.833758	
-0.161265	-0.08127	0.716218	
-0.0810226	-0.0861052	0.668473	
-0.0509221	-0.120838	0.749894	
-0.122368	-0.153617	0.697369	
0.185145	-0.220341	0.859684	
0.103648	-0.156441	0.895396	
0.164797	-0.177585	1	
0.198682	-0.135756	0.90724	
-0.187544	0.023283	0.887465	
-0.201407	0.100714	0.820483	
-0.130723	0.131802	0.876531	
-0.113733	0.0934406	0.798152	
-0.493389	0.0810399	0.85285	
-0.5	0	0.9	
-0.5	0	0.8	
-0.384543	0.0457703	0.887922	
0.242822	0.437078	0.652991	
0.317233	0.386476	0.590473	
0.316847	0.386792	0.698616	
0.215007	0.321027	0.704259	
0.0579886	-0.363184	0.5	
0.0431128	-0.437731	0.5	
0.130932	-0.431625	0.5	
0.0667763	-0.376719	0.620641	
-0.404541	0.126945	1	
-0.495293	0.0684459	0.931403	
-0.478555	0.144862	0.921652	
-0.384543	0.0457703	0.887922	
-0.0619448	0.0316562	0.830282	
-0.130723	0.131802	0.876531	
-0.0278211	0.108649	0.897003	
-0.113733	0.0934406	0.798152	
0.114055	0.374109	1	
0.202324	0.378521	1	
0.189613	0.313662	1	
0.141859	0.360078	0.864623	
-0.468495	-0.174678	0.682891	
-0.434698	-0.247057	0.749501	
-0.429146	-0.25658	0.66876	
-0.350556	-0.203398	0.639466	
-0.113894	0.0780637	0.5	
-0.0507575	0.0878249	0.5	
-0.0892693	0.13018	0.5	
-0.0843404	0.0959758	0.591667	
0.366186	-0.0790357	0.5	
0.390858	-0.0458412	0.581997	
0.338019	-0.101245	0.632718	
0.385165	-0.157061	0.580489	
-0.439458	0.238488	0.575692	
-0.322372	0.204757	0.615478	
-0.450285	0.217356	0.644698	
-0.384891	0.157961	0.659274	
0.0651412	0.200096	1	
0.0903521	0.10545	1	
-0.00425413	0.131001	1	
0.0505063	0.178091	0.883857	
0.0401436	0.291204	1	
-0.0555676	0.325574	1	
0.0153159	0.363557	1	
-0.019486	0.256762	0.89034	
-0.373013	-0.0200173	0.628673	
-0.303266	-0.0059886	0.701726	
-0.358174	-0.0931631	0.744866	
-0.392935	-0.114355	0.653897	
-0.104054	0.0128374	0.663816	
-0.0583731	0.0957366	0.731357	
-0.0201791	0.0475049	0.66463	
-0.115015	0.0956921	0.669627	
-0.232531	-0.00520461	0.629061	
-0.303266	-0.0059886	0.701726	
-0.316208	0.0903343	0.672767	
-0.299226	0.0393938	0.583455	
-0.188087	-0.23341	0.686349	
-0.146541	-0.177031	0.776317	
-0.122368	-0.153617	0.697369	
-0.211192	-0.1537	0.666432	
-0.331361	-0.272953	1	
-0.261345	-0.230036	1	
-0.263582	-0.319413	1	
-0.328462	-0.228271	0.903506	
0.122018	0.0307901	0.671023	
0.0965515	-0.0251853	0.583435	
0.0480825	0.0400932	0.605275	
0.145725	0.0491975	0.586984	
0.493012	0.0833019	0.844789	
0.490343	0.0977967	0.741226	
0.5	0	0.8	
0.385025	0.1139	0.812458	
0.189613	0.313662	1	
0.114055	0.374109	1	
0.141859	0.360078	0.864623	
0.0767997	0.290568	0.903715	
-0.153328	0.47591	0.90763	
-0.242822	0.437078	0.847009	
-0.168734	0.470668	0.798219	
-0.202396	0.33987	0.890246	
-0.195731	0.375572	0.5	
-0.277785	0.415735	0.5	
-0.270443	0.334367	0.5	
-0.228991	0.444481	0.591901	
-0.494668	-0.0728232	0.573541	
-0.477948	-0.146853	0.584008	
-0.419906	-0.0889586	0.5	
-0.392935	-0.114355	0.653897	
-0.048473	-0.0328568	1	
0.0461078	-0.0584269	1	
-0.0232782	-0.127584	1	
-0.00109612	-0.0173781	0.904468	
-0.0583731	0.0957366	0.731357	
0.00559979	0.0873054	0.798487	
-0.0262407	0.173818	0.811595	
-0.113733	0.0934406	0.798152	
0.470916	0.168043	0.800126	
0.335831	0.198146	0.73463	
0.460548	0.194667	0.73433	
0.385025	0.1139	0.812458	
0.414991	0.0495125	1	
0.337634	0.115561	1	
0.414183	0.131147	1	
0.370295	0.150924	0.906655	
-0.434698	-0.247057	0.749501	
-0.307152	-0.222724	0.726676	
-0.429146	-0.25658	0.66876	
-0.350556	-0.203398	0.639466	
-0.173205	-0.15	0.5	
-0.13744	-0.178022	0.5	
-0.113226	-0.140086	0.5	
-0.167688	-0.179794	0.560998	
-0.215641	-0.22714	0.5	
-0.192742	-0.261282	0.5	
-0.172766	-0.209666	0.5	
-0.17146	-0.257962	0.580515	
-0.237047	0.0201392	1	
-0.16685	0.0883447	1	
-0.187544	0.023283	0.887465	
-0.222536	0.133159	0.91035	
-0.303266	-0.0059886	0.701726	
-0.25776	0.0501948	0.763211	
-0.257157	-0.0458854	0.782759	
-0.179806	-0.00389189	0.693003	
-0.232531	-0.00520461	0.629061	
-0.303266	-0.0059886	0.701726	
-0.299226	0.0393938	0.583455	
-0.293992	-0.0575398	0.588141	
-0.0583731	0.0957366	0.731357	
-0.00412871	0.131789	0.635032	
-0.0803648	0.180844	0.680643	
-0.00352435	0.161713	0.716755	
-0.24957	-0.20227	0.837053	
-0.152603	-0.19085	0.88329	
-0.208529	-0.319219	0.867558	
-0.198796	-0.256159	0.777791	
0.19149	0.263191	0.5	
0.215641	0.22714	0.5	
0.248409	0.277977	0.5	
0.223145	0.258282	0.600696	
0.0653714	0.061152	0.872444	
-0.0278211	0.108649	0.897003	
0.0505063	0.178091	0.883857	
0.00559979	0.0873054	0.798487	
-0.315029	-0.388274	0.579193	
-0.277785	-0.415735	0.634138	
-0.238488	-0.439458	0.575692	
-0.221522	-0.316483	0.612387	
-0.257157	-0.0458854	0.782759	
-0.247755	-0.0727414	0.89259	
-0.187544	0.023283	0.887465	
-0.29588	0.00863916	0.858008	
-0.172766	-0.209666	0.5	
-0.216156	-0.175607	0.5	
-0.215641	-0.22714	0.5	
-0.167688	-0.179794	0.560998	
-0.211247	0.0837089	0.687573	
-0.16493	0.0307641	0.766812	
-0.201407	0.100714	0.820483	
-0.25776	0.0501948	0.763211	
-0.426463	0.0441363	1	
-0.5	0	0.9	
-0.495293	0.0684459	0.931403	
-0.384543	0.0457703	0.887922	
-0.142648	-0.00714059	1	
-0.211369	-0.0761151	1	
-0.237047	0.0201392	1	
-0.187544	0.023283	0.887465	
0.185145	-0.220341	0.859684	
0.201164	-0.273578	1	
0.162257	-0.333773	0.890843	
0.250375	-0.286672	0.911571	
-0.152694	-0.476114	0.59754	
-0.108579	-0.348279	0.636398	
-0.0833019	-0.493012	0.655211	
-0.029629	-0.397647	0.594827	
0.0579886	-0.363184	0.5	
0.130932	-0.431625	0.5	
0.132817	-0.364062	0.5	
0.0667763	-0.376719	0.620641	
-0.477948	-0.146853	0.584008	
-0.364062	-0.132817	0.5	
-0.419906	-0.0889586	0.5	
-0.392935	-0.114355	0.653897	
0.19149	0.263191	0.5	
0.15	0.259808	0.5	
0.169426	0.205971	0.5	
0.146959	0.210165	0.588072	
-0.470916	0.168043	0.699874	
-0.384891	0.157961	0.659274	
-0.388856	0.122276	0.792585	
-0.405387	0.0525253	0.685554	
-0.5	0	0.7	
-0.5	0	0.8	
-0.492649	-0.0854243	0.748597	
-0.371727	0.0207537	0.771598	
-0.146853	0.477948	0.584008	
-0.174678	0.468495	0.682891	
-0.228991	0.444481	0.591901	
-0.1727	0.337134	0.60049	
-0.242822	0.437078	0.847009	
-0.316847	0.386792	0.801384	
-0.247057	0.434698	0.749501	
-0.220027	0.322099	0.738771	
0.289778	-0.0776457	0.5	
0.212248	-0.110857	0.594534	
0.259808	-0.15	0.5	
0.295498	-0.153797	0.576613	
-0.0734441	0.0616893	1	
-0.00109612	-0.0173781	0.904468	
-0.048473	-0.0328568	1	
-0.0991242	-0.0135691	0.909138	
0.184962	0.0799289	1	
0.150575	0.144679	0.883538	
0.158056	0.171884	1	
0.245664	0.104793	0.903539	
-0.125	-0.216506	0.5	
-0.15	-0.259808	0.5	
-0.0782828	-0.218112	0.590988	
-0.17146	-0.257962	0.580515	
0.169238	0.138503	0.5	
0.216506	0.125	0.5	
0.216156	0.175607	0.5	
0.230707	0.150403	0.598384	
0.363012	-0.0152603	0.5	
0.277454	-0.0417897	0.589806	
0.366186	-0.0790357	0.5	
0.390858	-0.0458412	0.581997	
-0.386498	-0.317206	0.700322	
-0.253586	-0.309787	0.710553	
-0.307152	-0.222724	0.726676	
-0.290901	-0.287972	0.800889	
-0.130723	0.131802	0.876531	
-0.114718	0.198983	0.815635	
-0.0262407	0.173818	0.811595	
-0.113733	0.0934406	0.798152	
-0.215641	-0.22714	0.5	
-0.230141	-0.201516	0.598323	
-0.17146	-0.257962	0.580515	
-0.167688	-0.179794	0.560998	
-0.0555676	0.325574	1	
-0.019486	0.256762	0.89034	
-0.0295403	0.225144	1	
-0.104561	0.217724	0.908588	
-0.5	0	0.6	
-0.494668	-0.0728232	0.573541	
-0.428192	0.000626804	0.5	
-0.373013	-0.0200173	0.628673	
0.0209546	0.0362755	1	
-0.00109612	-0.0173781	0.904468	
0.0653714	0.061152	0.872444	
0.0906227	-0.0186438	0.910454	
0.124154	0.245419	0.824268	
0.150575	0.144679	0.883538	
0.0505063	0.178091	0.883857	
0.0617642	0.177547	0.776817	
-0.152694	-0.476114	0.59754	
-0.168043	-0.470916	0.699874	
-0.0833019	-0.493012	0.655211	
-0.108579	-0.348279	0.636398	
-0.00412871	0.131789	0.635032	
-0.0201791	0.0475049	0.66463	
0.0480825	0.0400932	0.605275	
0.0662295	0.0983543	0.659549	
-0.374193	0.331632	0.665357	
-0.415735	0.277785	0.634138	
-0.388274	0.315029	0.579193	
-0.285935	0.290775	0.588479	
-0.278713	-0.14304	1	
-0.344127	-0.112227	1	
-0.302044	-0.0506462	1	
-0.247755	-0.0727414	0.89259	
-0.0136448	-0.0115771	0.733329	
0.0259112	-0.0811505	0.774009	
-0.0509221	-0.120838	0.749894	
0.000554419	-0.0943553	0.688478	
-0.067279	0.181403	0.5	
-0.043412	0.246202	0.5	
-0.125	0.216506	0.5	
-0.0939263	0.178211	0.579293	
0.304977	-0.200047	0.747623	
0.263974	-0.284246	0.810467	
0.229446	-0.281388	0.703137	
0.316563	-0.261412	0.680038	
-0.436762	0.243391	0.903062	
-0.386505	0.317197	0.931175	
-0.389036	0.207425	1	
-0.312269	0.206869	0.893833	
0.232997	-0.11062	1	
0.313791	-0.154465	1	
0.245477	-0.191651	1	
0.198682	-0.135756	0.90724	
-0.439458	0.238488	0.575692	
-0.476114	0.152694	0.59754	
-0.346884	0.118257	0.588594	
-0.384891	0.157961	0.659274	
-0.159007	0.150563	0.751045	
-0.114718	0.198983	0.815635	
-0.130723	0.131802	0.876531	
-0.113733	0.0934406	0.798152	
0.3168	0.386831	0.895903	
0.277785	0.415735	1	
0.202324	0.378521	1	
0.261819	0.319027	1	
-0.162672	-0.339378	0.750157	
-0.208529	-0.319219	0.867558	
-0.0974804	-0.267818	0.831249	
-0.198796	-0.256159	0.777791	
0.0535528	0.0702068	0.5	
0.0609049	0.128365	0.5	
0.00365932	0.104584	0.5	
0.0803667	0.0912248	0.564492	
0.184962	0.0799289	1	
0.0903521	0.10545	1	
0.150575	0.144679	0.883538	
0.151755	0.0498946	0.914333	
0.270443	0.334367	0.5	
0.317233	0.386476	0.590473	
0.235698	0.440961	0.568569	
0.187975	0.355336	0.600929	
-0.13744	-0.178022	0.5	
-0.125	-0.216506	0.5	
-0.0934074	-0.183691	0.5	
-0.167688	-0.179794	0.560998	
-0.228991	0.444481	0.591901	
-0.174678	0.468495	0.682891	
-0.25658	0.429146	0.66876	
-0.1727	0.337134	0.60049	
-0.188087	-0.23341	0.686349	
-0.24121	-0.14299	0.745605	
-0.146541	-0.177031	0.776317	
-0.211192	-0.1537	0.666432	
0.153328	0.47591	0.59237	
0.0755103	0.388608	0.610372	
0.124929	0.414525	0.5	
0.187975	0.355336	0.600929	
-0.246202	-0.043412	0.5	
-0.166581	-0.0467287	0.5	
-0.196783	0.00504363	0.5	
-0.208135	-0.0860903	0.586046	
-0.0619448	0.0316562	0.830282	
-0.0136448	-0.0115771	0.733329	
0.00559979	0.0873054	0.798487	
0.0170666	-0.00404371	0.815416	
-0.125	0.216506	0.5	
-0.161262	0.177195	0.5	
-0.118648	0.167764	0.5	
-0.159007	0.150563	0.559172	
-0.273315	0.334955	1	
-0.235698	0.440961	0.931431	
-0.201912	0.369986	1	
-0.202396	0.33987	0.890246	
-0.371727	0.0207537	0.771598	
-0.303266	-0.0059886	0.701726	
-0.316208	0.0903343	0.672767	
-0.25776	0.0501948	0.763211	
-0.494668	-0.0728232	0.573541	
-0.419906	-0.0889586	0.5	
-0.428192	0.000626804	0.5	
-0.373013	-0.0200173	0.628673	
0.134419	0.128531	0.62625	
0.145725	0.0491975	0.586984	
0.0662295	0.0983543	0.659549	
0.0803667	0.0912248	0.564492	
-0.142736	-0.147946	0.615788	
-0.208135	-0.0860903	0.586046	
-0.230141	-0.201516	0.598323	
-0.211192	-0.1537	0.666432	
0.493389	0.0810399	0.64715	
0.376828	0.00465276	0.670748	
0.393123	0.117954	0.711669	
0.399716	0.0593288	0.591749	
0.469721	-0.171353	0.838334	
0.436762	-0.243391	0.903062	
0.478555	-0.144862	0.921652	
0.371732	-0.09396	0.880254	
0.5	0	0.6	
0.376828	0.00465276	0.670748	
0.493389	0.0810399	0.64715	
0.399716	0.0593288	0.591749	
-0.351812	-0.111075	0.861116	
-0.247755	-0.0727414	0.89259	
-0.257157	-0.0458854	0.782759	
-0.29588	0.00863916	0.858008	
0.184962	0.0799289	1	
0.276476	0.0535537	1	
0.210156	-0.0147965	1	
0.151755	0.0498946	0.914333	
-0.228991	0.444481	0.591901	
-0.25658	0.429146	0.66876	
-0.3168	0.386831	0.604097	
-0.1727	0.337134	0.60049	
-0.322372	0.204757	0.615478	
-0.253577	0.121423	0.598057	
-0.316208	0.0903343	0.672767	
-0.346884	0.118257	0.588594	
0.0728232	-0.494668	0.573541	
0.146853	-0.477948	0.584008	
0.130932	-0.431625	0.5	
0.0667763	-0.376719	0.620641	
-0.493012	0.0833019	0.655211	
-0.5	0	0.6	
-0.495101	0.0698189	0.572379	
-0.405387	0.0525253	0.685554	
-0.135086	0.326126	0.5	
-0.194694	0.304695	0.5	
-0.15	0.259808	0.5	
-0.1727	0.337134	0.60049	
0.416563	-0.126305	0.5	
0.495101	-0.0698189	0.572379	
0.390858	-0.0458412	0.581997	
0.385165	-0.157061	0.580489	
0.415735	-0.277785	0.634138	
0.365268	-0.183537	0.674475	
0.331891	-0.227727	0.595789	
0.316563	-0.261412	0.680038	
0.3168	0.386831	0.895903	
0.25658	0.429146	0.83124	
0.317206	0.386498	0.799678	
0.237861	0.283786	0.876325	
0.3	-3.67394e-17	0.5	
0.289778	0.0776457	0.5	
0.246202	0.043412	0.5	
0.245674	0.0465287	0.605115	
-0.159007	0.150563	0.751045	
-0.130723	0.131802	0.876531	
-0.201407	0.100714	0.820483	
-0.113733	0.0934406	0.798152	
-0.373013	-0.0200173	0.628673	
-0.303266	-0.0059886	0.701726	
-0.293675	-0.122789	0.650858	
-0.293992	-0.0575398	0.588141	
0.174678	0.468495	0.817109	
0.0854243	0.492649	0.751403	
0.168734	0.470668	0.701781	
0.102331	0.345115	0.749287	
0.293439	0.171691	0.838154	
0.335831	0.198146	0.73463	
0.30555	0.0888144	0.75317	
0.222962	0.130748	0.792454	
-0.0136448	-0.0115771	0.733329	
-0.0619448	0.0316562	0.830282	
-0.096592	-0.0392798	0.774507	
0.0170666	-0.00404371	0.815416	
-0.308042	-0.167631	0.5	
-0.289778	-0.0776457	0.5	
-0.364062	-0.132817	0.5	
-0.293992	-0.0575398	0.588141	
0.259808	-0.15	0.5	
0.289778	-0.0776457	0.5	
0.216506	-0.125	0.5	
0.212248	-0.110857	0.594534	
0.223145	0.258282	0.600696	
0.230707	0.150403	0.598384	
0.230141	0.201516	0.689547	
0.146959	0.210165	0.588072	
0.255304	-0.0994756	0.835986	
0.371732	-0.09396	0.880254	
0.313777	-0.208405	0.877459	
0.375849	-0.159302	0.804904	
0.228991	-0.444481	0.591901	
0.3168	-0.386831	0.604097	
0.251869	-0.294586	0.601969	
0.184871	-0.357405	0.649244	
-0.118648	0.167764	0.5	
-0.154439	0.124228	0.5	
-0.0892693	0.13018	0.5	
-0.159007	0.150563	0.559172	
-0.16493	0.0307641	0.766812	
-0.257157	-0.0458854	0.782759	
-0.25776	0.0501948	0.763211	
-0.179806	-0.00389189	0.693003	
0.356094	-0.0732678	0.7583	
0.371732	-0.09396	0.880254	
0.255304	-0.0994756	0.835986	
0.375849	-0.159302	0.804904	
0.274666	-0.249265	0.5	
0.231749	-0.30504	0.5	
0.251869	-0.294586	0.601969	
0.213897	-0.237657	0.568565	
0.146853	-0.477948	0.584008	
0.0814864	-0.493315	0.652319	
0.174678	-0.468495	0.682891	
0.0667763	-0.376719	0.620641	
-0.0262407	0.173818	0.811595	
0.0505063	0.178091	0.883857	
0.00559979	0.0873054	0.798487	
0.0617642	0.177547	0.776817	
0.237861	0.283786	0.876325	
0.284059	0.282644	0.778361	
0.374193	0.331632	0.834643	
0.331523	0.239691	0.896553	
-0.4284	0.257824	0.704976	
-0.450285	0.217356	0.644698	
-0.415735	0.277785	0.634138	
-0.384891	0.157961	0.659274	
-0.210645	0.180174	0.5	
-0.175601	0.220525	0.5	
-0.216377	0.228686	0.5	
-0.1997	0.206062	0.577949	
0.4284	0.257824	0.795024	
0.376757	0.328716	0.746468	
0.335831	0.198146	0.73463	
0.284059	0.282644	0.778361	
-0.159007	0.150563	0.751045	
-0.201407	0.100714	0.820483	
-0.130723	0.131802	0.876531	
-0.114718	0.198983	0.815635	
-0.0422582	-0.437473	1	
-0.114467	-0.386332	1	
-0.0328721	-0.370689	1	
-0.0973131	-0.377708	0.878415	
0.0486433	-0.215998	0.821724	
0.185145	-0.220341	0.859684	
0.103648	-0.156441	0.895396	
0.0999474	-0.256123	0.897299	
-0.146541	-0.177031	0.776317	
-0.24121	-0.14299	0.745605	
-0.188087	-0.23341	0.686349	
-0.198796	-0.256159	0.777791	
0.168734	-0.470668	0.798219	
0.174678	-0.468495	0.682891	
0.0854243	-0.492649	0.748597	
0.0564693	-0.387133	0.748139	
0.386505	-0.317197	0.931175	
0.313777	-0.208405	0.877459	
0.380873	-0.323938	0.847739	
0.250375	-0.286672	0.911571	
-0.0372406	0.417791	1	
0.0153159	0.363557	1	
-0.0555676	0.325574	1	
-0.081646	0.385636	0.890794	
0.470916	-0.168043	0.699874	
0.460548	-0.194667	0.76567	
0.490343	-0.0977967	0.758774	
0.375849	-0.159302	0.804904	
0.394936	-0.119803	1	
0.409478	-0.032947	1	
0.495293	-0.0684459	0.931403	
0.371732	-0.09396	0.880254	
0.216506	-0.125	0.5	
0.246202	-0.043412	0.5	
0.176544	-0.0644028	0.5	
0.212248	-0.110857	0.594534	
0.174678	-0.468495	0.682891	
0.0814864	-0.493315	0.652319	
0.0854243	-0.492649	0.748597	
0.0564693	-0.387133	0.748139	
0.493389	0.0810399	0.64715	
0.5	0	0.7	
0.490343	0.0977967	0.741226	
0.393123	0.117954	0.711669	
-0.159007	0.150563	0.6241	
-0.0939263	0.178211	0.579293	
-0.0843404	0.0959758	0.591667	
-0.159007	0.150563	0.559172	
0.493389	0.0810399	0.64715	
0.393123	0.117954	0.711669	
0.469721	0.171353	0.661666	
0.399716	0.0593288	0.591749	
-0.174678	0.468495	0.682891	
-0.168734	0.470668	0.798219	
-0.247057	0.434698	0.749501	
-0.120471	0.3509	0.721125	
0.428195	-0.258165	0.798245	
0.460548	-0.194667	0.76567	
0.4284	-0.257824	0.704976	
0.375849	-0.159302	0.804904	
0.165128	-0.182854	0.724456	
0.103299	-0.191976	0.670856	
0.0565057	-0.147787	0.722206	
0.118003	-0.110167	0.68636	
0.450285	-0.217356	0.644698	
0.331891	-0.227727	0.595789	
0.365268	-0.183537	0.674475	
0.385165	-0.157061	0.580489	
-0.0422582	-0.437473	1	
-0.0684459	-0.495293	0.931403	
-0.114467	-0.386332	1	
-0.0973131	-0.377708	0.878415	
-0.195731	0.375572	0.5	
-0.124938	0.414491	0.5	
-0.191342	0.46194	0.5	
-0.146853	0.477948	0.584008	
-0.376757	0.328716	0.753532	
-0.338342	0.189085	0.729139	
-0.4284	0.257824	0.704976	
-0.303077	0.2787	0.708341	
-0.386831	-0.3168	0.604097	
-0.295665	-0.266599	0.586027	
-0.444481	-0.228991	0.591901	
-0.350556	-0.203398	0.639466	
-0.0555676	0.325574	1	
-0.0295403	0.225144	1	
-0.119993	0.246691	1	
-0.104561	0.217724	0.908588	
0.0949827	-0.187358	0.5	
0.0645865	-0.210943	0.590313	
0.125	-0.216506	0.5	
0.165128	-0.182854	0.566814	
0.184962	0.0799289	1	
0.158056	0.171884	1	
0.247868	0.146306	1	
0.245664	0.104793	0.903539	
-0.0509221	-0.120838	0.749894	
0.0259112	-0.0811505	0.774009	
0.0565057	-0.147787	0.722206	
0.000554419	-0.0943553	0.688478	
0.437731	0.0431128	0.5	
0.390858	-0.0458412	0.581997	
0.5	0	0.6	
0.399716	0.0593288	0.591749	
-0.363128	-0.216258	0.5	
-0.444481	-0.228991	0.591901	
-0.386831	-0.3168	0.604097	
-0.295665	-0.266599	0.586027	
0.0579886	-0.363184	0.5	
0.0431128	-0.437731	0.5	
0.0667763	-0.376719	0.620641	
-0.029629	-0.397647	0.594827	
0.386505	0.317197	0.568825	
0.320995	0.210811	0.605402	
0.380873	0.323938	0.652261	
0.298958	0.273011	0.680114	
0.232997	-0.11062	1	
0.181192	-0.0401295	0.895026	
0.283042	-0.0276105	0.90443	
0.198682	-0.135756	0.90724	
0.363012	-0.0152603	0.5	
0.289778	-0.0776457	0.5	
0.366186	-0.0790357	0.5	
0.277454	-0.0417897	0.589806	
0.270443	0.334367	0.5	
0.195731	0.375572	0.5	
0.194694	0.304695	0.5	
0.187975	0.355336	0.600929	
0.197278	0.0487031	0.829069	
0.181192	-0.0401295	0.895026	
0.270025	-0.00993688	0.796605	
0.283042	-0.0276105	0.90443	
-0.428192	0.000626804	0.5	
-0.361276	-0.0455918	0.5	
-0.351551	0.0541915	0.5	
-0.373013	-0.0200173	0.628673	
-0.0262407	0.173818	0.811595	
0.0505063	0.178091	0.883857	
-0.0278211	0.108649	0.897003	
0.00559979	0.0873054	0.798487	
-0.195731	0.375572	0.5	
-0.135086	0.326126	0.5	
-0.124938	0.414491	0.5	
-0.1727	0.337134	0.60049	
0.212248	-0.110857	0.594534	
0.277454	-0.0417897	0.589806	
0.338019	-0.101245	0.632718	
0.295498	-0.153797	0.576613	
0.185145	-0.220341	0.859684	
0.255304	-0.0994756	0.835986	
0.165332	-0.129906	0.808096	
0.198682	-0.135756	0.90724	
-0.316208	0.0903343	0.672767	
-0.303266	-0.0059886	0.701726	
-0.373013	-0.0200173	0.628673	
-0.299226	0.0393938	0.583455	
0.0704482	0.495012	0.571845	
0.042537	0.432039	0.5	
0.124929	0.414525	0.5	
0.0755103	0.388608	0.610372	
0.3168	0.386831	0.895903	
0.317206	0.386498	0.799678	
0.374193	0.331632	0.834643	
0.237861	0.283786	0.876325	
0.3	-3.67394e-17	0.5	
0.245674	0.0465287	0.605115	
0.246202	0.043412	0.5	
0.277454	-0.0417897	0.589806	
-0.295069	0.107196	0.837498	
-0.384543	0.0457703	0.887922	
-0.371727	0.0207537	0.771598	
-0.29588	0.00863916	0.858008	
-0.293675	-0.122789	0.650858	
-0.24121	-0.14299	0.745605	
-0.307152	-0.222724	0.726676	
-0.211192	-0.1537	0.666432	
-0.149626	-0.106257	0.5	
-0.122493	-0.0457662	0.591275	
-0.166581	-0.0467287	0.5	
-0.208135	-0.0860903	0.586046	
-0.161265	-0.08127	0.716218	
-0.122368	-0.153617	0.697369	
-0.24121	-0.14299	0.745605	
-0.211192	-0.1537	0.666432	
-0.386498	-0.317206	0.700322	
-0.328716	-0.376757	0.753532	
-0.253586	-0.309787	0.710553	
-0.290901	-0.287972	0.800889	
0.325794	0.291996	0.5	
0.369217	0.203769	0.5	
0.386505	0.317197	0.568825	
0.320995	0.210811	0.605402	
-0.26105	0.203399	1	
-0.312269	0.206869	0.893833	
-0.198122	0.226155	0.892159	
-0.222536	0.133159	0.91035	
0.3168	-0.386831	0.604097	
0.317206	-0.386498	0.700322	
0.374193	-0.331632	0.665357	
0.316563	-0.261412	0.680038	
-0.0262407	0.173818	0.811595	
0.0271447	0.258379	0.801291	
-0.00352435	0.161713	0.716755	
-0.0614757	0.232646	0.751575	
-0.142736	-0.147946	0.615788	
-0.122368	-0.153617	0.697369	
-0.161265	-0.08127	0.716218	
-0.211192	-0.1537	0.666432	
-0.113894	0.0780637	0.5	
-0.177196	0.0645246	0.5	
-0.13896	0.0197163	0.5	
-0.160124	0.0403748	0.589251	
0.134419	0.128531	0.62625	
0.145725	0.0491975	0.586984	
0.122018	0.0307901	0.671023	
0.0662295	0.0983543	0.659549	
0.388274	-0.315029	0.579193	
0.415735	-0.277785	0.5	
0.334367	-0.270443	0.5	
0.331891	-0.227727	0.595789	
-0.0305981	0.141799	0.5	
-0.0892693	0.13018	0.5	
-0.0507575	0.0878249	0.5	
-0.0203138	0.116891	0.566619	
-0.4284	0.257824	0.704976	
-0.415735	0.277785	0.634138	
-0.374193	0.331632	0.665357	
-0.303077	0.2787	0.708341	
0.0401436	0.291204	1	
0.0651412	0.200096	1	
-0.019486	0.256762	0.89034	
0.0767997	0.290568	0.903715	
0.289778	-0.0776457	0.5	
0.277454	-0.0417897	0.589806	
0.212248	-0.110857	0.594534	
0.295498	-0.153797	0.576613	
-0.428195	0.258165	0.798245	
-0.4284	0.257824	0.704976	
-0.376757	0.328716	0.753532	
-0.338342	0.189085	0.729139	
-0.257824	-0.4284	0.704976	
-0.194667	-0.460548	0.76567	
-0.168043	-0.470916	0.699874	
-0.162672	-0.339378	0.750157	
0.184962	0.0799289	1	
0.0903521	0.10545	1	
0.158056	0.171884	1	
0.150575	0.144679	0.883538	
-0.0776457	-0.289778	0.5	
-0.043412	-0.246202	0.5	
-0.0782828	-0.218112	0.590988	
-0.00328301	-0.284745	0.599465	
-0.0734441	0.0616893	1	
0.0209546	0.0362755	1	
-0.048473	-0.0328568	1	
-0.00109612	-0.0173781	0.904468	
-0.146541	-0.177031	0.776317	
-0.24121	-0.14299	0.745605	
-0.161265	-0.08127	0.716218	
-0.122368	-0.153617	0.697369	
0.195731	0.375572	0.5	
0.124929	0.414525	0.5	
0.135086	0.326126	0.5	
0.187975	0.355336	0.600929	
-0.00654379	0.0500762	0.5	
-0.0507575	0.0878249	0.5	
-0.0295799	0.0358881	0.577891	
-0.0203138	0.116891	0.566619	
-0.494668	-0.0728232	0.573541	
-0.373013	-0.0200173	0.628673	
-0.493315	-0.0814864	0.652319	
-0.392935	-0.114355	0.653897	
-0.3168	0.386831	0.604097	
-0.317206	0.386498	0.700322	
-0.374193	0.331632	0.665357	
-0.285935	0.290775	0.588479	
-0.0833019	-0.493012	0.655211	
-0.0977967	-0.490343	0.758774	
0	-0.5	0.7	
-0.0516032	-0.38053	0.763919	
-0.173205	-0.15	0.5	
-0.208135	-0.0860903	0.586046	
-0.216506	-0.125	0.5	
-0.167688	-0.179794	0.560998	
-0.221522	-0.316483	0.612387	
-0.295665	-0.266599	0.586027	
-0.230141	-0.201516	0.598323	
-0.17146	-0.257962	0.580515	
0.268393	-0.334301	1	
0.386505	-0.317197	0.931175	
0.317233	-0.386476	0.909527	
0.250375	-0.286672	0.911571	
-0.145109	0.249909	0.723665	
-0.114718	0.198983	0.815635	
-0.159007	0.150563	0.751045	
-0.0614757	0.232646	0.751575	
0.470916	-0.168043	0.699874	
0.476114	-0.152694	0.59754	
0.450285	-0.217356	0.644698	
0.365268	-0.183537	0.674475	
-0.0776457	-0.289778	0.5	
-0.125	-0.216506	0.5	
-0.15	-0.259808	0.5	
-0.0782828	-0.218112	0.590988	
0.3168	0.386831	0.895903	
0.237861	0.283786	0.876325	
0.374193	0.331632	0.834643	
0.331523	0.239691	0.896553	
-0.114467	-0.386332	1	
-0.0638367	-0.295761	1	
-0.0328721	-0.370689	1	
-0.0973131	-0.377708	0.878415	
-0.0442266	-0.432186	0.5	
0	-0.5	0.6	
0.0431128	-0.437731	0.5	
-0.029629	-0.397647	0.594827	
-0.161265	-0.08127	0.716218	
-0.16493	0.0307641	0.766812	
-0.096592	-0.0392798	0.774507	
-0.179806	-0.00389189	0.693003	
0.259073	0.206972	0.5	
0.308042	0.167631	0.5	
0.30356	0.231708	0.5	
0.320995	0.210811	0.605402	
0.19149	0.263191	0.5	
0.248409	0.277977	0.5	
0.194694	0.304695	0.5	
0.223145	0.258282	0.600696	
0.07775	0.0966917	0.740381	
-0.00352435	0.161713	0.716755	
0.0704936	0.198592	0.689629	
0.0662295	0.0983543	0.659549	
-0.373013	-0.0200173	0.628673	
-0.299226	0.0393938	0.583455	
-0.303266	-0.0059886	0.701726	
-0.293992	-0.0575398	0.588141	
-0.273315	0.334955	1	
-0.317233	0.386476	0.909527	
-0.235698	0.440961	0.931431	
-0.202396	0.33987	0.890246	
-0.490343	0.0977967	0.758774	
-0.371727	0.0207537	0.771598	
-0.5	0	0.7	
-0.405387	0.0525253	0.685554	
-0.191342	0.46194	1	
-0.235698	0.440961	0.931431	
-0.118932	0.39861	1	
-0.201912	0.369986	1	
0.174911	-0.0307899	0.613699	
0.0965515	-0.0251853	0.583435	
0.122018	0.0307901	0.671023	
0.145725	0.0491975	0.586984	
-0.371727	0.0207537	0.771598	
-0.384543	0.0457703	0.887922	
-0.295069	0.107196	0.837498	
-0.388856	0.122276	0.792585	
-0.495101	0.0698189	0.572379	
-0.419906	0.0889586	0.5	
-0.476114	0.152694	0.59754	
-0.346884	0.118257	0.588594	
-0.363128	-0.216258	0.5	
-0.386831	-0.3168	0.604097	
-0.325698	-0.286034	0.5	
-0.295665	-0.266599	0.586027	
0.0704936	0.198592	0.689629	
-0.00352435	0.161713	0.716755	
-0.00412871	0.131789	0.635032	
0.0662295	0.0983543	0.659549	
0.450285	-0.217356	0.644698	
0.365268	-0.183537	0.674475	
0.476114	-0.152694	0.59754	
0.385165	-0.157061	0.580489	
0.0728232	-0.494668	0.573541	
0	-0.5	0.6	
0.0667763	-0.376719	0.620641	
-0.029629	-0.397647	0.594827	
-0.24121	-0.14299	0.745605	
-0.122368	-0.153617	0.697369	
-0.146541	-0.177031	0.776317	
-0.211192	-0.1537	0.666432	
0.261819	0.319027	1	
0.328092	0.270243	1	
0.388274	0.315029	0.920807	
0.353553	0.353553	1	
-0.419906	-0.0889586	0.5	
-0.361276	-0.0455918	0.5	
-0.428192	0.000626804	0.5	
-0.373013	-0.0200173	0.628673	
0.0728232	-0.494668	0.573541	
0.0431128	-0.437731	0.5	
0	-0.5	0.6	
-0.029629	-0.397647	0.594827	
-0.26105	0.203399	1	
-0.328307	0.16356	1	
-0.312269	0.206869	0.893833	
-0.222536	0.133159	0.91035	
-0.307152	-0.222724	0.726676	
-0.253586	-0.309787	0.710553	
-0.188087	-0.23341	0.686349	
-0.198796	-0.256159	0.777791	
0.338019	-0.101245	0.632718	
0.277454	-0.0417897	0.589806	
0.376828	0.00465276	0.670748	
0.390858	-0.0458412	0.581997	
-0.019486	0.256762	0.89034	
-0.114718	0.198983	0.815635	
-0.0262407	0.173818	0.811595	
-0.104561	0.217724	0.908588	
-0.24957	-0.20227	0.837053	
-0.307152	-0.222724	0.726676	
-0.24121	-0.14299	0.745605	
-0.198796	-0.256159	0.777791	
-0.5	0	0.7	
-0.493315	-0.0814864	0.652319	
-0.5	0	0.6	
-0.373013	-0.0200173	0.628673	
0.313777	-0.208405	0.877459	
0.263974	-0.284246	0.810467	
0.380873	-0.323938	0.847739	
0.250375	-0.286672	0.911571	
-0.216506	-0.125	0.5	
-0.289778	-0.0776457	0.5	
-0.259808	-0.15	0.5	
-0.208135	-0.0860903	0.586046	
0.388274	-0.315029	0.579193	
0.29185	-0.325871	0.5	
0.3168	-0.386831	0.604097	
0.251869	-0.294586	0.601969	
-0.112672	-0.0704426	0.5	
-0.166581	-0.0467287	0.5	
-0.149626	-0.106257	0.5	
-0.122493	-0.0457662	0.591275	
-0.380873	0.323938	0.847739	
-0.436762	0.243391	0.903062	
-0.428195	0.258165	0.798245	
-0.312269	0.206869	0.893833	
0.5	0	0.6	
0.390858	-0.0458412	0.581997	
0.376828	0.00465276	0.670748	
0.399716	0.0593288	0.591749	
0.30555	0.0888144	0.75317	
0.376828	0.00465276	0.670748	
0.325802	0.106737	0.636954	
0.393123	0.117954	0.711669	
-0.316208	0.0903343	0.672767	
-0.303266	-0.0059886	0.701726	
-0.211247	0.0837089	0.687573	
-0.25776	0.0501948	0.763211	
-0.257157	-0.0458854	0.782759	
-0.358174	-0.0931631	0.744866	
-0.371727	0.0207537	0.771598	
-0.303266	-0.0059886	0.701726	
-0.171353	-0.469721	0.838334	
-0.258165	-0.428195	0.798245	
-0.243391	-0.436762	0.903062	
-0.208529	-0.319219	0.867558	
0.230141	0.201516	0.689547	
0.148721	0.172259	0.753766	
0.191683	0.0839995	0.717836	
0.222962	0.130748	0.792454	
-0.0974804	-0.267818	0.831249	
-0.152603	-0.19085	0.88329	
-0.146541	-0.177031	0.776317	
-0.198796	-0.256159	0.777791	
-0.0974804	-0.267818	0.831249	
-0.146541	-0.177031	0.776317	
-0.152603	-0.19085	0.88329	
-0.0433655	-0.190602	0.814951	
-0.317206	0.386498	0.700322	
-0.220027	0.322099	0.738771	
-0.316847	0.386792	0.801384	
-0.303077	0.2787	0.708341	
0.493389	-0.0810399	0.85285	
0.469721	-0.171353	0.838334	
0.371732	-0.09396	0.880254	
0.375849	-0.159302	0.804904	
0	-0.5	0.7	
-0.0516032	-0.38053	0.763919	
0	-0.5	0.8	
0.0564693	-0.387133	0.748139	
0.118461	0.161044	0.5	
0.0609049	0.128365	0.5	
0.113554	0.0989266	0.5	
0.0803667	0.0912248	0.564492	
0.202324	0.378521	1	
0.228991	0.444481	0.908099	
0.277785	0.415735	1	
0.3168	0.386831	0.895903	
-0.26105	0.203399	1	
-0.257956	0.116321	1	
-0.328307	0.16356	1	
-0.222536	0.133159	0.91035	
-0.142736	-0.147946	0.615788	
-0.188087	-0.23341	0.686349	
-0.122368	-0.153617	0.697369	
-0.211192	-0.1537	0.666432	
-0.328716	-0.376757	0.753532	
-0.258165	-0.428195	0.798245	
-0.257824	-0.4284	0.704976	
-0.253586	-0.309787	0.710553	
-0.257157	-0.0458854	0.782759	
-0.25776	0.0501948	0.763211	
-0.371727	0.0207537	0.771598	
-0.29588	0.00863916	0.858008	
-0.5	0	0.6	
-0.5	0	0.7	
-0.373013	-0.0200173	0.628673	
-0.405387	0.0525253	0.685554	
-0.00352435	0.161713	0.716755	
0.0271447	0.258379	0.801291	
-0.0262407	0.173818	0.811595	
0.0617642	0.177547	0.776817	
0.317233	-0.386476	0.909527	
0.380873	-0.323938	0.847739	
0.263974	-0.284246	0.810467	
0.250375	-0.286672	0.911571	
-0.173205	-0.15	0.5	
-0.149626	-0.106257	0.5	
-0.216506	-0.125	0.5	
-0.208135	-0.0860903	0.586046	
0.493389	-0.0810399	0.85285	
0.490343	-0.0977967	0.758774	
0.469721	-0.171353	0.838334	
0.375849	-0.159302	0.804904	
-0.289778	0.0776457	0.5	
-0.246202	0.043412	0.5	
-0.216506	0.125	0.5	
-0.253577	0.121423	0.598057	
0.380873	0.323938	0.652261	
0.320995	0.210811	0.605402	
0.428195	0.258165	0.701755	
0.298958	0.273011	0.680114	
0.0401436	0.291204	1	
0.0651412	0.200096	1	
-0.0295403	0.225144	1	
-0.019486	0.256762	0.89034	
0.166469	-0.308164	0.5	
0.2	-0.259808	0.5	
0.15	-0.259808	0.5	
0.213897	-0.237657	0.568565	
0	0.5	0.6	
-0.0426444	0.431636	0.5	
0	0.5	0.5	
0.042537	0.432039	0.5	
-0.125	-0.216506	0.5	
-0.17146	-0.257962	0.580515	
-0.0782828	-0.218112	0.590988	
-0.167688	-0.179794	0.560998	
-0.494668	-0.0728232	0.573541	
-0.5	0	0.6	
-0.493315	-0.0814864	0.652319	
-0.373013	-0.0200173	0.628673	
-0.428195	0.258165	0.798245	
-0.460548	0.194667	0.76567	
-0.338342	0.189085	0.729139	
-0.388856	0.122276	0.792585	
-0.144862	-0.478555	0.921652	
-0.171353	-0.469721	0.838334	
-0.243391	-0.436762	0.903062	
-0.0973131	-0.377708	0.878415	
0.3168	-0.386831	0.604097	
0.277785	-0.415735	0.5	
0.203679	-0.368672	0.5	
0.29185	-0.325871	0.5	
-0.31037	0.174447	0.5	
-0.363589	0.21739	0.5	
-0.368394	0.141973	0.5	
-0.346884	0.118257	0.588594	
-0.295069	0.107196	0.837498	
-0.25776	0.0501948	0.763211	
-0.201407	0.100714	0.820483	
-0.29588	0.00863916	0.858008	
0.328092	0.270243	1	
0.300884	0.198715	1	
0.231243	0.24169	1	
0.331523	0.239691	0.896553	
0.314857	-0.257449	1	
0.313777	-0.208405	0.877459	
0.386505	-0.317197	0.931175	
0.250375	-0.286672	0.911571	
0.230141	0.201516	0.689547	
0.230707	0.150403	0.598384	
0.223145	0.258282	0.600696	
0.320995	0.210811	0.605402	
0.3	-3.67394e-17	0.5	
0.246202	0.043412	0.5	
0.246202	-0.043412	0.5	
0.277454	-0.0417897	0.589806	
0.118461	0.161044	0.5	
0.0594834	0.18279	0.5	
0.0609049	0.128365	0.5	
0.0473696	0.155243	0.576019	
-0.371727	0.0207537	0.771598	
-0.25776	0.0501948	0.763211	
-0.295069	0.107196	0.837498	
-0.29588	0.00863916	0.858008	
-0.263582	-0.319413	1	
-0.168688	-0.281701	1	
-0.203173	-0.373024	1	
-0.208529	-0.319219	0.867558	
0.134419	0.128531	0.62625	
0.0662295	0.0983543	0.659549	
0.0473696	0.155243	0.576019	
0.0803667	0.0912248	0.564492	
-0.470916	0.168043	0.699874	
-0.338342	0.189085	0.729139	
-0.388856	0.122276	0.792585	
-0.384891	0.157961	0.659274	
-0.289778	0.0776457	0.5	
-0.246202	0.043412	0.5	
-0.253577	0.121423	0.598057	
-0.299226	0.0393938	0.583455	
0.4284	0.257824	0.795024	
0.374193	0.331632	0.834643	
0.376757	0.328716	0.746468	
0.284059	0.282644	0.778361	
0.460548	0.194667	0.73433	
0.385025	0.1139	0.812458	
0.335831	0.198146	0.73463	
0.393123	0.117954	0.711669	
0.450285	-0.217356	0.644698	
0.439458	-0.238488	0.575692	
0.331891	-0.227727	0.595789	
0.385165	-0.157061	0.580489	
0.314857	-0.257449	1	
0.386505	-0.317197	0.931175	
0.268393	-0.334301	1	
0.250375	-0.286672	0.911571	
-0.126305	-0.416563	0.5	
-0.195731	-0.375572	0.5	
-0.191342	-0.46194	0.5	
-0.238488	-0.439458	0.575692	
0.0966642	-0.131711	0.5	
0.155716	-0.12147	0.5	
0.120744	-0.0747732	0.5	
0.149744	-0.0894982	0.564748	
0.235698	0.440961	0.568569	
0.153328	0.47591	0.59237	
0.124929	0.414525	0.5	
0.187975	0.355336	0.600929	
0.184962	0.0799289	1	
0.150575	0.144679	0.883538	
0.245664	0.104793	0.903539	
0.151755	0.0498946	0.914333	
0.5	0	0.7	
0.5	0	0.6	
0.493012	-0.0833019	0.655211	
0.376828	0.00465276	0.670748	
0	0.5	0.8	
-0.0807477	0.493437	0.845776	
-0.0854243	0.492649	0.748597	
-0.0187025	0.397023	0.746774	
0.274666	-0.249265	0.5	
0.231749	-0.30504	0.5	
0.29185	-0.325871	0.5	
0.251869	-0.294586	0.601969	
0.119174	0.287711	0.637668	
0.215007	0.321027	0.704259	
0.223145	0.258282	0.600696	
0.187975	0.355336	0.600929	
-0.125	0.216506	0.5	
-0.118648	0.167764	0.5	
-0.0939263	0.178211	0.579293	
-0.159007	0.150563	0.559172	
-0.115841	0.288513	0.837108	
-0.114718	0.198983	0.815635	
-0.145109	0.249909	0.723665	
-0.0614757	0.232646	0.751575	
0.439458	0.238488	0.924308	
0.415735	0.277785	0.865862	
0.450285	0.217356	0.855302	
0.331523	0.239691	0.896553	
-0.470668	-0.168734	0.798219	
-0.47591	-0.153328	0.90763	
-0.437078	-0.242822	0.847009	
-0.351812	-0.111075	0.861116	
0.5	0	0.7	
0.493389	0.0810399	0.64715	
0.5	0	0.6	
0.376828	0.00465276	0.670748	
-0.259808	0.15	0.5	
-0.31598	0.119651	0.5	
-0.289778	0.0776457	0.5	
-0.253577	0.121423	0.598057	
-0.325698	-0.286034	0.5	
-0.315029	-0.388274	0.579193	
-0.270443	-0.334367	0.5	
-0.295665	-0.266599	0.586027	
0.201164	-0.273578	1	
0.0943468	-0.245334	1	
0.164797	-0.177585	1	
0.0999474	-0.256123	0.897299	
-0.386792	-0.316847	0.801384	
-0.386498	-0.317206	0.700322	
-0.434698	-0.247057	0.749501	
-0.307152	-0.222724	0.726676	
-0.257824	-0.4284	0.704976	
-0.258165	-0.428195	0.798245	
-0.194667	-0.460548	0.76567	
-0.162672	-0.339378	0.750157	
-0.5	0	0.8	
-0.5	0	0.7	
-0.490343	0.0977967	0.758774	
-0.371727	0.0207537	0.771598	
0.428195	-0.258165	0.798245	
0.313777	-0.208405	0.877459	
0.436762	-0.243391	0.903062	
0.375849	-0.159302	0.804904	
0.375572	-0.195731	0.5	
0.304695	-0.194694	0.5	
0.331891	-0.227727	0.595789	
0.295498	-0.153797	0.576613	
-0.174678	0.468495	0.682891	
-0.0854243	0.492649	0.748597	
-0.168734	0.470668	0.798219	
-0.120471	0.3509	0.721125	
-0.115841	0.288513	0.837108	
-0.114718	0.198983	0.815635	
-0.019486	0.256762	0.89034	
-0.104561	0.217724	0.908588	
-0.277785	0.415735	0.5	
-0.270443	0.334367	0.5	
-0.228991	0.444481	0.591901	
-0.3168	0.386831	0.604097	
-0.257157	-0.0458854	0.782759	
-0.303266	-0.0059886	0.701726	
-0.371727	0.0207537	0.771598	
-0.25776	0.0501948	0.763211	
0.495293	-0.0684459	0.931403	
0.478555	-0.144862	0.921652	
0.394936	-0.119803	1	
0.371732	-0.09396	0.880254	
0.415735	0.277785	1	
0.439458	0.238488	0.924308	
0.373926	0.198925	1	
0.331523	0.239691	0.896553	
0.017794	0.149684	0.5	
0.0594834	0.18279	0.5	
-0.00447954	0.190881	0.5	
0.0473696	0.155243	0.576019	
0.369217	0.203769	0.5	
0.308042	0.167631	0.5	
0.364062	0.132817	0.5	
0.320995	0.210811	0.605402	
0.431625	0.130932	0.5	
0.478555	0.144862	0.578348	
0.46194	0.191342	0.5	
0.369217	0.203769	0.5	
-0.237047	0.0201392	1	
-0.257956	0.116321	1	
-0.16685	0.0883447	1	
-0.222536	0.133159	0.91035	
0.191342	0.46194	0.5	
0.235698	0.440961	0.568569	
0.124929	0.414525	0.5	
0.195731	0.375572	0.5	
0.153328	-0.47591	0.90763	
0.162257	-0.333773	0.890843	
0.242822	-0.437078	0.847009	
0.108507	-0.396912	0.833758	
-0.386498	-0.317206	0.700322	
-0.307152	-0.222724	0.726676	
-0.386792	-0.316847	0.801384	
-0.290901	-0.287972	0.800889	
-0.470668	-0.168734	0.798219	
-0.493437	-0.0807477	0.845776	
-0.47591	-0.153328	0.90763	
-0.351812	-0.111075	0.861116	
0.289778	-0.0776457	0.5	
0.246202	-0.043412	0.5	
0.212248	-0.110857	0.594534	
0.277454	-0.0417897	0.589806	
0.0776457	-0.289778	0.5	
0.125	-0.216506	0.5	
0.043412	-0.246202	0.5	
0.0645865	-0.210943	0.590313	
0.216506	-0.125	0.5	
0.289778	-0.0776457	0.5	
0.246202	-0.043412	0.5	
0.212248	-0.110857	0.594534	
-0.118932	0.39861	1	
-0.0704482	0.495012	0.928155	
-0.0372406	0.417791	1	
-0.081646	0.385636	0.890794	
0.201164	-0.273578	1	
0.162257	-0.333773	0.890843	
0.112799	-0.33356	1	
0.0999474	-0.256123	0.897299	
0.388274	-0.315029	0.579193	
0.439458	-0.238488	0.575692	
0.415735	-0.277785	0.5	
0.331891	-0.227727	0.595789	
-0.185713	0.151649	0.5	
-0.216506	0.125	0.5	
-0.154439	0.124228	0.5	
-0.159007	0.150563	0.559172	
-0.470916	0.168043	0.699874	
-0.338342	0.189085	0.729139	
-0.460548	0.194667	0.76567	
-0.388856	0.122276	0.792585	
-0.00425413	0.131001	1	
0.0209546	0.0362755	1	
-0.0734441	0.0616893	1	
-0.0278211	0.108649	0.897003	
0	-0.5	0.6	
-0.0833019	-0.493012	0.655211	
0	-0.5	0.7	
-0.029629	-0.397647	0.594827	
0.386505	0.317197	0.568825	
0.369217	0.203769	0.5	
0.436762	0.243391	0.596938	
0.320995	0.210811	0.605402	
0.15	-0.259808	0.5	
0.177945	-0.20787	0.5	
0.125	-0.216506	0.5	
0.165128	-0.182854	0.566814	
0.122018	0.0307901	0.671023	
0.0831208	-0.00188727	0.757361	
0.07775	0.0966917	0.740381	
0.0473369	0.0172976	0.690385	
0.043412	-0.246202	0.5	
-1.51596e-16	-0.3	0.5	
0.0776457	-0.289778	0.5	
-0.00328301	-0.284745	0.599465	
-0.0081622	-0.0144392	0.5	
-0.00654379	0.0500762	0.5	
-0.0295799	0.0358881	0.577891	
0.0268659	-0.0185974	0.564249	
-0.195731	-0.375572	0.5	
-0.270443	-0.334367	0.5	
-0.277785	-0.415735	0.5	
-0.238488	-0.439458	0.575692	
-0.257824	-0.4284	0.704976	
-0.277785	-0.415735	0.634138	
-0.331632	-0.374193	0.665357	
-0.253586	-0.309787	0.710553	
0.460548	0.194667	0.73433	
0.335831	0.198146	0.73463	
0.428195	0.258165	0.701755	
0.393123	0.117954	0.711669	
-0.468495	-0.174678	0.682891	
-0.492649	-0.0854243	0.748597	
-0.470668	-0.168734	0.798219	
-0.358174	-0.0931631	0.744866	
-0.0619448	0.0316562	0.830282	
0.00559979	0.0873054	0.798487	
-0.0583731	0.0957366	0.731357	
-0.113733	0.0934406	0.798152	
0.216506	-0.125	0.5	
0.212248	-0.110857	0.594534	
0.176544	-0.0644028	0.5	
0.149744	-0.0894982	0.564748	
-0.0555676	0.325574	1	
-0.138674	0.323797	1	
-0.118932	0.39861	1	
-0.081646	0.385636	0.890794	
0.314271	-0.0501881	1	
0.394936	-0.119803	1	
0.313791	-0.154465	1	
0.371732	-0.09396	0.880254	
-0.492649	-0.0854243	0.748597	
-0.358174	-0.0931631	0.744866	
-0.468495	-0.174678	0.682891	
-0.392935	-0.114355	0.653897	
-0.470916	0.168043	0.699874	
-0.388856	0.122276	0.792585	
-0.490343	0.0977967	0.758774	
-0.405387	0.0525253	0.685554	
0.092572	-0.0674004	0.832552	
0.0170666	-0.00404371	0.815416	
-0.00109612	-0.0173781	0.904468	
0.0906227	-0.0186438	0.910454	
-0.386498	-0.317206	0.700322	
-0.429146	-0.25658	0.66876	
-0.307152	-0.222724	0.726676	
-0.350556	-0.203398	0.639466	
0.194604	-0.371188	1	
0.125573	-0.41396	1	
0.112799	-0.33356	1	
0.162257	-0.333773	0.890843	
-0.00654379	0.0500762	0.5	
0.00365932	0.104584	0.5	
-0.0507575	0.0878249	0.5	
-0.0203138	0.116891	0.566619	
0.414183	0.131147	1	
0.373926	0.198925	1	
0.46194	0.191342	1	
0.370295	0.150924	0.906655	
-0.323938	-0.380873	0.847739	
-0.208529	-0.319219	0.867558	
-0.258165	-0.428195	0.798245	
-0.290901	-0.287972	0.800889	
0.255304	-0.0994756	0.835986	
0.270025	-0.00993688	0.796605	
0.181192	-0.0401295	0.895026	
0.283042	-0.0276105	0.90443	
0.293439	0.171691	0.838154	
0.284059	0.282644	0.778361	
0.237861	0.283786	0.876325	
0.331523	0.239691	0.896553	
0.261819	0.319027	1	
0.388274	0.315029	0.920807	
0.3168	0.386831	0.895903	
0.353553	0.353553	1	
-0.0372406	0.417791	1	
0	0.5	0.9	
0	0.5	1	
0.0420691	0.427134	1	
-0.289778	0.0776457	0.5	
-0.253577	0.121423	0.598057	
-0.31598	0.119651	0.5	
-0.346884	0.118257	0.588594	
-0.00425413	0.131001	1	
-0.0734441	0.0616893	1	
-0.0983601	0.156434	1	
-0.0278211	0.108649	0.897003	
0	-0.5	1	
0	-0.5	0.9	
-0.0422582	-0.437473	1	
0.0404524	-0.41072	1	
0.5	0	1	
0.5	0	0.9	
0.409478	-0.032947	1	
0.414991	0.0495125	1	
-0.196783	0.00504363	0.5	
-0.13896	0.0197163	0.5	
-0.177196	0.0645246	0.5	
-0.160124	0.0403748	0.589251	
0.153328	0.47591	0.59237	
0.168734	0.470668	0.701781	
0.0807477	0.493437	0.654224	
0.0755103	0.388608	0.610372	
0.232997	-0.11062	1	
0.181192	-0.0401295	0.895026	
0.210156	-0.0147965	1	
0.283042	-0.0276105	0.90443	
-0.259073	-0.206972	0.5	
-0.30356	-0.231708	0.5	
-0.248409	-0.277977	0.5	
-0.295665	-0.266599	0.586027	
-0.0228356	-0.132115	0.5	
0.035935	-0.11426	0.5	
-0.0156334	-0.0737433	0.5	
0.00148161	-0.13757	0.564688	
0.493389	0.0810399	0.64715	
0.469721	0.171353	0.661666	
0.478555	0.144862	0.578348	
0.399716	0.0593288	0.591749	
-0.0814864	0.493315	0.652319	
0	0.5	0.7	
-0.0854243	0.492649	0.748597	
-0.0187025	0.397023	0.746774	
0.325802	0.106737	0.636954	
0.335831	0.198146	0.73463	
0.30555	0.0888144	0.75317	
0.393123	0.117954	0.711669	
0.0583087	-0.173273	0.5	
0.00155464	-0.188347	0.5	
0.043412	-0.246202	0.5	
0.0645865	-0.210943	0.590313	
-0.5	0	0.9	
-0.426463	0.0441363	1	
-0.5	0	1	
-0.401548	-0.0423374	1	
-0.46194	0.191342	0.5	
-0.368394	0.141973	0.5	
-0.439458	0.238488	0.575692	
-0.476114	0.152694	0.59754	
-0.386792	-0.316847	0.801384	
-0.328462	-0.228271	0.903506	
-0.386476	-0.317233	0.909527	
-0.290901	-0.287972	0.800889	
0.230141	0.201516	0.689547	
0.335831	0.198146	0.73463	
0.320995	0.210811	0.605402	
0.298958	0.273011	0.680114	
-0.0810399	-0.493389	0.85285	
0	-0.5	0.8	
-0.0977967	-0.490343	0.758774	
-0.0516032	-0.38053	0.763919	
0.185145	-0.220341	0.859684	
0.162257	-0.333773	0.890843	
0.263974	-0.284246	0.810467	
0.250375	-0.286672	0.911571	
0.189613	0.313662	1	
0.133074	0.264097	1	
0.114055	0.374109	1	
0.0767997	0.290568	0.903715	
-0.26105	0.203399	1	
-0.198122	0.226155	0.892159	
-0.18644	0.1823	1	
-0.222536	0.133159	0.91035	
0.30555	0.0888144	0.75317	
0.335831	0.198146	0.73463	
0.293439	0.171691	0.838154	
0.385025	0.1139	0.812458	
0.043412	-0.246202	0.5	
-0.043412	-0.246202	0.5	
-1.51596e-16	-0.3	0.5	
-0.00328301	-0.284745	0.599465	
0.436762	0.243391	0.596938	
0.428195	0.258165	0.701755	
0.380873	0.323938	0.652261	
0.320995	0.210811	0.605402	
0.247057	0.434698	0.750499	
0.168734	0.470668	0.701781	
0.242822	0.437078	0.652991	
0.215007	0.321027	0.704259	
0.317233	-0.386476	0.909527	
0.386505	-0.317197	0.931175	
0.380873	-0.323938	0.847739	
0.250375	-0.286672	0.911571	
0.235698	-0.440961	0.931431	
0.242822	-0.437078	0.847009	
0.153328	-0.47591	0.90763	
0.162257	-0.333773	0.890843	
-0.0262407	0.173818	0.811595	
0.00559979	0.0873054	0.798487	
-0.0583731	0.0957366	0.731357	
-0.00352435	0.161713	0.716755	
0.203679	-0.368672	0.5	
0.228991	-0.444481	0.591901	
0.277785	-0.415735	0.5	
0.3168	-0.386831	0.604097	
0.268393	-0.334301	1	
0.353553	-0.353553	1	
0.317233	-0.386476	0.909527	
0.386505	-0.317197	0.931175	
-0.24957	-0.20227	0.837053	
-0.146541	-0.177031	0.776317	
-0.152603	-0.19085	0.88329	
-0.198796	-0.256159	0.777791	
0.495101	-0.0698189	0.572379	
0.432186	-0.0442266	0.5	
0.416563	-0.126305	0.5	
0.390858	-0.0458412	0.581997	
0.415735	0.277785	1	
0.373926	0.198925	1	
0.328092	0.270243	1	
0.331523	0.239691	0.896553	
-0.477948	-0.146853	0.584008	
-0.444481	-0.228991	0.591901	
-0.46194	-0.191342	0.5	
-0.364062	-0.132817	0.5	
0.115537	0.0107471	1	
0.181192	-0.0401295	0.895026	
0.14072	-0.0839746	1	
0.0906227	-0.0186438	0.910454	
-0.24957	-0.20227	0.837053	
-0.24121	-0.14299	0.745605	
-0.146541	-0.177031	0.776317	
-0.198796	-0.256159	0.777791	
-0.159007	0.150563	0.751045	
-0.201407	0.100714	0.820483	
-0.16493	0.0307641	0.766812	
-0.113733	0.0934406	0.798152	
0.124929	0.414525	0.5	
0.042537	0.432039	0.5	
0.0712263	0.363482	0.5	
0.0755103	0.388608	0.610372	
-0.186407	-0.169451	1	
-0.117671	-0.10197	1	
-0.0925337	-0.196451	1	
-0.152603	-0.19085	0.88329	
0.194604	-0.371188	1	
0.235698	-0.440961	0.931431	
0.191342	-0.46194	1	
0.125573	-0.41396	1	
-0.0698189	-0.495101	0.572379	
-0.152694	-0.476114	0.59754	
-0.0833019	-0.493012	0.655211	
-0.029629	-0.397647	0.594827	
-0.0081622	-0.0144392	0.5	
0.0454237	0.00960241	0.5	
-0.00654379	0.0500762	0.5	
0.0268659	-0.0185974	0.564249	
-0.386498	-0.317206	0.700322	
-0.429146	-0.25658	0.66876	
-0.434698	-0.247057	0.749501	
-0.307152	-0.222724	0.726676	
0.432186	-0.0442266	0.5	
0.5	0	0.6	
0.5	0	0.5	
0.437731	0.0431128	0.5	
0.334367	-0.270443	0.5	
0.304695	-0.194694	0.5	
0.274666	-0.249265	0.5	
0.331891	-0.227727	0.595789	
-0.478555	0.144862	0.921652	
-0.495293	0.0684459	0.931403	
-0.493389	0.0810399	0.85285	
-0.384543	0.0457703	0.887922	
0.245477	-0.191651	1	
0.313777	-0.208405	0.877459	
0.314857	-0.257449	1	
0.250375	-0.286672	0.911571	
0.316847	-0.386792	0.801384	
0.317233	-0.386476	0.909527	
0.380873	-0.323938	0.847739	
0.263974	-0.284246	0.810467	
-0.337562	0.0547633	1	
-0.401548	-0.0423374	1	
-0.426463	0.0441363	1	
-0.384543	0.0457703	0.887922	
0.14072	-0.0839746	1	
0.164797	-0.177585	1	
0.103648	-0.156441	0.895396	
0.198682	-0.135756	0.90724	
0.415735	-0.277785	1	
0.386505	-0.317197	0.931175	
0.380207	-0.19708	1	
0.436762	-0.243391	0.903062	
0	-0.5	0.6	
0.0814864	-0.493315	0.652319	
0.0728232	-0.494668	0.573541	
0.0667763	-0.376719	0.620641	
-0.00447954	0.190881	0.5	
0.043412	0.246202	0.5	
-0.043412	0.246202	0.5	
0.00262968	0.233117	0.59891	
-0.0814864	0.493315	0.652319	
-0.0728232	0.494668	0.573541	
0	0.5	0.6	
-0.036445	0.376821	0.622976	
0.416563	-0.126305	0.5	
0.476114	-0.152694	0.59754	
0.495101	-0.0698189	0.572379	
0.385165	-0.157061	0.580489	
-0.337562	0.0547633	1	
-0.426463	0.0441363	1	
-0.404541	0.126945	1	
-0.384543	0.0457703	0.887922	
-0.191342	0.46194	1	
-0.235698	0.440961	0.931431	
-0.153328	0.47591	0.90763	
-0.118932	0.39861	1	
-0.188087	-0.23341	0.686349	
-0.253586	-0.309787	0.710553	
-0.162672	-0.339378	0.750157	
-0.198796	-0.256159	0.777791	
-0.153328	0.47591	0.90763	
-0.168734	0.470668	0.798219	
-0.0807477	0.493437	0.845776	
-0.081646	0.385636	0.890794	
-0.216156	-0.175607	0.5	
-0.173205	-0.15	0.5	
-0.216506	-0.125	0.5	
-0.167688	-0.179794	0.560998	
0.102519	0.0330131	0.5	
0.0965515	-0.0251853	0.583435	
0.136333	-0.0203798	0.5	
0.145725	0.0491975	0.586984	
-0.0807477	0.493437	0.845776	
0	0.5	0.9	
-0.0704482	0.495012	0.928155	
-0.081646	0.385636	0.890794	
0.120744	-0.0747732	0.5	
0.136333	-0.0203798	0.5	
0.0965515	-0.0251853	0.583435	
0.149744	-0.0894982	0.564748	
-0.191342	0.46194	0.5	
-0.195731	0.375572	0.5	
-0.146853	0.477948	0.584008	
-0.228991	0.444481	0.591901	
0.150575	0.144679	0.883538	
0.245664	0.104793	0.903539	
0.197278	0.0487031	0.829069	
0.222962	0.130748	0.792454	
0.460548	0.194667	0.73433	
0.428195	0.258165	0.701755	
0.469721	0.171353	0.661666	
0.393123	0.117954	0.711669	
0.07775	0.0966917	0.740381	
-0.00352435	0.161713	0.716755	
0.00559979	0.0873054	0.798487	
0.0617642	0.177547	0.776817	
0.128497	-0.139894	0.612276	
0.212248	-0.110857	0.594534	
0.165128	-0.182854	0.566814	
0.149744	-0.0894982	0.564748	
-0.130723	0.131802	0.876531	
-0.201407	0.100714	0.820483	
-0.187544	0.023283	0.887465	
-0.222536	0.133159	0.91035	
0.14072	-0.0839746	1	
0.181192	-0.0401295	0.895026	
0.232997	-0.11062	1	
0.198682	-0.135756	0.90724	
0	-0.5	0.6	
0	-0.5	0.5	
-0.0442266	-0.432186	0.5	
0.0431128	-0.437731	0.5	
0.331891	-0.227727	0.595789	
0.295498	-0.153797	0.576613	
0.365268	-0.183537	0.674475	
0.385165	-0.157061	0.580489	
-0.364062	-0.132817	0.5	
-0.444481	-0.228991	0.591901	
-0.46194	-0.191342	0.5	
-0.363128	-0.216258	0.5	
-0.0684459	-0.495293	0.931403	
-0.144862	-0.478555	0.921652	
-0.114467	-0.386332	1	
-0.0973131	-0.377708	0.878415	
0.3168	0.386831	0.895903	
0.374193	0.331632	0.834643	
0.388274	0.315029	0.920807	
0.331523	0.239691	0.896553	
0.0480825	0.0400932	0.605275	
0.0662295	0.0983543	0.659549	
-0.0201791	0.0475049	0.66463	
0.0473369	0.0172976	0.690385	
-0.373013	-0.0200173	0.628673	
-0.303266	-0.0059886	0.701726	
-0.316208	0.0903343	0.672767	
-0.405387	0.0525253	0.685554	
0.153328	0.47591	0.59237	
0.242822	0.437078	0.652991	
0.168734	0.470668	0.701781	
0.187975	0.355336	0.600929	
0.436762	0.243391	0.596938	
0.46194	0.191342	0.5	
0.478555	0.144862	0.578348	
0.369217	0.203769	0.5	
-0.353553	-0.353553	1	
-0.386476	-0.317233	0.909527	
-0.331361	-0.272953	1	
-0.317197	-0.386505	0.931175	
-0.262727	0.245322	0.796513	
-0.243141	0.175788	0.70528	
-0.338342	0.189085	0.729139	
-0.303077	0.2787	0.708341	
0.314857	-0.257449	1	
0.313791	-0.154465	1	
0.380207	-0.19708	1	
0.313777	-0.208405	0.877459	
0.0579886	-0.363184	0.5	
-0.0152603	-0.363012	0.5	
0.0431128	-0.437731	0.5	
-0.029629	-0.397647	0.594827	
-0.16685	0.0883447	1	
-0.142648	-0.00714059	1	
-0.237047	0.0201392	1	
-0.187544	0.023283	0.887465	
0.476114	-0.152694	0.59754	
0.390858	-0.0458412	0.581997	
0.495101	-0.0698189	0.572379	
0.385165	-0.157061	0.580489	
-0.289778	0.0776457	0.5	
-0.216506	0.125	0.5	
-0.259808	0.15	0.5	
-0.253577	0.121423	0.598057	
0.174678	0.468495	0.817109	
0.146853	0.477948	0.915992	
0.0814864	0.493315	0.847681	
0.141859	0.360078	0.864623	
0.0486433	-0.215998	0.821724	
-0.0124705	-0.26219	0.899433	
-0.0433655	-0.190602	0.814951	
-0.00969375	-0.289543	0.79323	
-0.125	-0.216506	0.5	
-0.0782828	-0.218112	0.590988	
-0.0934074	-0.183691	0.5	
-0.167688	-0.179794	0.560998	
0.102519	0.0330131	0.5	
0.145725	0.0491975	0.586984	
0.113554	0.0989266	0.5	
0.0803667	0.0912248	0.564492	
-0.0705177	0.0247142	0.5	
-0.00654379	0.0500762	0.5	
-0.0507575	0.0878249	0.5	
-0.0295799	0.0358881	0.577891	
-0.331361	-0.272953	1	
-0.263582	-0.319413	1	
-0.353553	-0.353553	1	
-0.317197	-0.386505	0.931175	
0.130932	-0.431625	0.5	
0.228991	-0.444481	0.591901	
0.191342	-0.46194	0.5	
0.203679	-0.368672	0.5	
0.0187635	-0.357972	0.857507	
0.0564693	-0.387133	0.748139	
-0.0516032	-0.38053	0.763919	
-0.00969375	-0.289543	0.79323	
-0.317206	0.386498	0.700322	
-0.316847	0.386792	0.801384	
-0.376757	0.328716	0.753532	
-0.303077	0.2787	0.708341	
-0.371727	0.0207537	0.771598	
-0.316208	0.0903343	0.672767	
-0.303266	-0.0059886	0.701726	
-0.405387	0.0525253	0.685554	
-0.242822	0.437078	0.847009	
-0.317233	0.386476	0.909527	
-0.316847	0.386792	0.801384	
-0.202396	0.33987	0.890246	
0.476114	0.152694	0.90246	
0.370295	0.150924	0.906655	
0.450285	0.217356	0.855302	
0.385025	0.1139	0.812458	
0.189613	0.313662	1	
0.261819	0.319027	1	
0.231243	0.24169	1	
0.237861	0.283786	0.876325	
-0.235698	0.440961	0.931431	
-0.277785	0.415735	1	
-0.273315	0.334955	1	
-0.201912	0.369986	1	
0.247057	-0.434698	0.749501	
0.25658	-0.429146	0.66876	
0.174678	-0.468495	0.682891	
0.184871	-0.357405	0.649244	
0.0807477	-0.493437	0.845776	
0.0854243	-0.492649	0.748597	
0	-0.5	0.8	
0.0564693	-0.387133	0.748139	
0.428195	-0.258165	0.798245	
0.380873	-0.323938	0.847739	
0.436762	-0.243391	0.903062	
0.313777	-0.208405	0.877459	
-0.0892693	0.13018	0.5	
-0.067279	0.181403	0.5	
-0.118648	0.167764	0.5	
-0.0939263	0.178211	0.579293	
0.14072	-0.0839746	1	
0.164797	-0.177585	1	
0.0712814	-0.153152	1	
0.103648	-0.156441	0.895396	
0.3	-3.67394e-17	0.5	
0.289778	-0.0776457	0.5	
0.363012	-0.0152603	0.5	
0.277454	-0.0417897	0.589806	
0.4284	-0.257824	0.704976	
0.365268	-0.183537	0.674475	
0.415735	-0.277785	0.634138	
0.316563	-0.261412	0.680038	
0.415735	-0.277785	1	
0.386505	-0.317197	0.931175	
0.314857	-0.257449	1	
0.380207	-0.19708	1	
0.314271	-0.0501881	1	
0.409478	-0.032947	1	
0.394936	-0.119803	1	
0.371732	-0.09396	0.880254	
-0.119993	0.246691	1	
-0.18644	0.1823	1	
-0.198122	0.226155	0.892159	
-0.104561	0.217724	0.908588	
-0.490343	0.0977967	0.758774	
-0.388856	0.122276	0.792585	
-0.371727	0.0207537	0.771598	
-0.405387	0.0525253	0.685554	
0.255304	-0.0994756	0.835986	
0.283042	-0.0276105	0.90443	
0.181192	-0.0401295	0.895026	
0.198682	-0.135756	0.90724	
0.314857	-0.257449	1	
0.245477	-0.191651	1	
0.313791	-0.154465	1	
0.313777	-0.208405	0.877459	
0.181192	-0.0401295	0.895026	
0.165332	-0.129906	0.808096	
0.255304	-0.0994756	0.835986	
0.198682	-0.135756	0.90724	
-0.0925337	-0.196451	1	
0.00183684	-0.222331	1	
-0.0638367	-0.295761	1	
-0.0124705	-0.26219	0.899433	
0.439458	0.238488	0.924308	
0.450285	0.217356	0.855302	
0.370295	0.150924	0.906655	
0.331523	0.239691	0.896553	
0.428195	0.258165	0.701755	
0.4284	0.257824	0.795024	
0.376757	0.328716	0.746468	
0.335831	0.198146	0.73463	
0.495101	-0.0698189	0.572379	
0.5	0	0.6	
0.432186	-0.0442266	0.5	
0.390858	-0.0458412	0.581997	
-0.315029	-0.388274	0.579193	
-0.277785	-0.415735	0.5	
-0.270443	-0.334367	0.5	
-0.238488	-0.439458	0.575692	
-0.386505	0.317197	0.931175	
-0.436762	0.243391	0.903062	
-0.380873	0.323938	0.847739	
-0.312269	0.206869	0.893833	
-0.273315	0.334955	1	
-0.201912	0.369986	1	
-0.214341	0.273759	1	
-0.202396	0.33987	0.890246	
-0.16493	0.0307641	0.766812	
-0.25776	0.0501948	0.763211	
-0.211247	0.0837089	0.687573	
-0.179806	-0.00389189	0.693003	
-0.4284	0.257824	0.704976	
-0.338342	0.189085	0.729139	
-0.470916	0.168043	0.699874	
-0.384891	0.157961	0.659274	
-0.439458	0.238488	0.575692	
-0.450285	0.217356	0.644698	
-0.476114	0.152694	0.59754	
-0.384891	0.157961	0.659274	
0.124929	0.414525	0.5	
0.153328	0.47591	0.59237	
0.0704482	0.495012	0.571845	
0.0755103	0.388608	0.610372	
0.120744	-0.0747732	0.5	
0.136333	-0.0203798	0.5	
0.0854359	-0.0267855	0.5	
0.0965515	-0.0251853	0.583435	
0.416563	-0.126305	0.5	
0.390858	-0.0458412	0.581997	
0.366186	-0.0790357	0.5	
0.385165	-0.157061	0.580489	
0.428195	0.258165	0.701755	
0.335831	0.198146	0.73463	
0.376757	0.328716	0.746468	
0.298958	0.273011	0.680114	
0.07775	0.0966917	0.740381	
0.148721	0.172259	0.753766	
0.0704936	0.198592	0.689629	
0.0617642	0.177547	0.776817	
0.353553	-0.353553	1	
0.268393	-0.334301	1	
0.314857	-0.257449	1	
0.386505	-0.317197	0.931175	
-0.0516032	-0.38053	0.763919	
0.0564693	-0.387133	0.748139	
0.0093178	-0.302179	0.697821	
-0.00969375	-0.289543	0.79323	
0.334367	-0.270443	0.5	
0.375572	-0.195731	0.5	
0.304695	-0.194694	0.5	
0.331891	-0.227727	0.595789	
-0.415735	-0.277785	1	
-0.331361	-0.272953	1	
-0.386476	-0.317233	0.909527	
-0.328462	-0.228271	0.903506	
-0.172766	-0.209666	0.5	
-0.17146	-0.257962	0.580515	
-0.125	-0.216506	0.5	
-0.167688	-0.179794	0.560998	
0.46194	0.191342	1	
0.373926	0.198925	1	
0.439458	0.238488	0.924308	
0.370295	0.150924	0.906655	
-0.419906	0.0889586	0.5	
-0.368394	0.141973	0.5	
-0.476114	0.152694	0.59754	
-0.346884	0.118257	0.588594	
-0.0974804	-0.267818	0.831249	
-0.0433655	-0.190602	0.814951	
-0.0124705	-0.26219	0.899433	
-0.00969375	-0.289543	0.79323	
0.122018	0.0307901	0.671023	
0.07775	0.0966917	0.740381	
0.0662295	0.0983543	0.659549	
0.0473369	0.0172976	0.690385	
-0.316208	0.0903343	0.672767	
-0.322372	0.204757	0.615478	
-0.346884	0.118257	0.588594	
-0.384891	0.157961	0.659274	
-0.325698	-0.286034	0.5	
-0.386831	-0.3168	0.604097	
-0.315029	-0.388274	0.579193	
-0.295665	-0.266599	0.586027	
0.0461078	-0.0584269	1	
-0.00109612	-0.0173781	0.904468	
0.0209546	0.0362755	1	
0.0906227	-0.0186438	0.910454	
0.325802	0.106737	0.636954	
0.393123	0.117954	0.711669	
0.376828	0.00465276	0.670748	
0.399716	0.0593288	0.591749	
-0.153328	0.47591	0.90763	
-0.0704482	0.495012	0.928155	
-0.118932	0.39861	1	
-0.081646	0.385636	0.890794	
-0.0081622	-0.0144392	0.5	
-0.00654379	0.0500762	0.5	
-0.0705177	0.0247142	0.5	
-0.0295799	0.0358881	0.577891	
0.5	0	1	
0.5	0	0.9	
0.414991	0.0495125	1	
0.495101	0.0698189	0.927621	
-0.317233	0.386476	0.909527	
-0.277785	0.415735	1	
-0.273315	0.334955	1	
-0.235698	0.440961	0.931431	
0.124154	0.245419	0.824268	
0.0271447	0.258379	0.801291	
0.0505063	0.178091	0.883857	
0.0767997	0.290568	0.903715	
0	0.5	0.7	
0.0854243	0.492649	0.751403	
0	0.5	0.8	
-0.0187025	0.397023	0.746774	
-0.243391	-0.436762	0.903062	
-0.191342	-0.46194	1	
-0.144862	-0.478555	0.921652	
-0.203173	-0.373024	1	
0.476114	-0.152694	0.59754	
0.493012	-0.0833019	0.655211	
0.495101	-0.0698189	0.572379	
0.390858	-0.0458412	0.581997	
0.415735	0.277785	1	
0.388274	0.315029	0.920807	
0.439458	0.238488	0.924308	
0.331523	0.239691	0.896553	
0.115537	0.0107471	1	
0.151755	0.0498946	0.914333	
0.181192	-0.0401295	0.895026	
0.0906227	-0.0186438	0.910454	
-0.4284	0.257824	0.704976	
-0.460548	0.194667	0.76567	
-0.470916	0.168043	0.699874	
-0.338342	0.189085	0.729139	
0.335831	0.198146	0.73463	
0.284059	0.282644	0.778361	
0.376757	0.328716	0.746468	
0.298958	0.273011	0.680114	
0.0807477	-0.493437	0.845776	
0.0854243	-0.492649	0.748597	
0.0564693	-0.387133	0.748139	
0.108507	-0.396912	0.833758	
0.230141	0.201516	0.689547	
0.223145	0.258282	0.600696	
0.215007	0.321027	0.704259	
0.298958	0.273011	0.680114	
0.432186	-0.0442266	0.5	
0.437731	0.0431128	0.5	
0.363012	-0.0152603	0.5	
0.390858	-0.0458412	0.581997	
0.230141	0.201516	0.689547	
0.215007	0.321027	0.704259	
0.284059	0.282644	0.778361	
0.298958	0.273011	0.680114	
0.437731	0.0431128	0.5	
0.363012	-0.0152603	0.5	
0.390858	-0.0458412	0.581997	
0.399716	0.0593288	0.591749	
-0.293675	-0.122789	0.650858	
-0.392935	-0.114355	0.653897	
-0.373013	-0.0200173	0.628673	
-0.293992	-0.0575398	0.588141	
-0.152694	-0.476114	0.59754	
-0.126305	-0.416563	0.5	
-0.191342	-0.46194	0.5	
-0.238488	-0.439458	0.575692	
-0.289778	0.0776457	0.5	
-0.253577	0.121423	0.598057	
-0.346884	0.118257	0.588594	
-0.299226	0.0393938	0.583455	
0.0505063	0.178091	0.883857	
0.0271447	0.258379	0.801291	
-0.019486	0.256762	0.89034	
0.0767997	0.290568	0.903715	
0.114055	0.374109	1	
0.202324	0.378521	1	
0.146853	0.477948	0.915992	
0.191342	0.46194	1	
0.375572	-0.195731	0.5	
0.295498	-0.153797	0.576613	
0.331891	-0.227727	0.595789	
0.385165	-0.157061	0.580489	
0.07775	0.0966917	0.740381	
0.0704936	0.198592	0.689629	
-0.00352435	0.161713	0.716755	
0.0617642	0.177547	0.776817	
-0.214341	0.273759	1	
-0.119993	0.246691	1	
-0.18644	0.1823	1	
-0.198122	0.226155	0.892159	
-0.307152	-0.222724	0.726676	
-0.198796	-0.256159	0.777791	
-0.24957	-0.20227	0.837053	
-0.290901	-0.287972	0.800889	
0.201164	-0.273578	1	
0.112799	-0.33356	1	
0.0943468	-0.245334	1	
0.0999474	-0.256123	0.897299	
0.0480825	0.0400932	0.605275	
0.122018	0.0307901	0.671023	
0.0662295	0.0983543	0.659549	
0.0473369	0.0172976	0.690385	
-0.0925337	-0.196451	1	
-0.168688	-0.281701	1	
-0.186407	-0.169451	1	
-0.152603	-0.19085	0.88329	
-0.0262407	0.173818	0.811595	
-0.019486	0.256762	0.89034	
0.0505063	0.178091	0.883857	
0.0271447	0.258379	0.801291	
-0.237047	0.0201392	1	
-0.211369	-0.0761151	1	
-0.302044	-0.0506462	1	
-0.247755	-0.0727414	0.89259	
-0.325698	-0.286034	0.5	
-0.415735	-0.277785	0.5	
-0.386831	-0.3168	0.604097	
-0.363128	-0.216258	0.5	
-0.0776457	-0.289778	0.5	
-1.51596e-16	-0.3	0.5	
-0.043412	-0.246202	0.5	
-0.00328301	-0.284745	0.599465	
0.175681	0.0639425	0.5	
0.136333	-0.0203798	0.5	
0.196849	-0.00527115	0.5	
0.145725	0.0491975	0.586984	
0.00559979	0.0873054	0.798487	
-0.00352435	0.161713	0.716755	
-0.0262407	0.173818	0.811595	
0.0617642	0.177547	0.776817	
0.043412	-0.246202	0.5	
0.125	-0.216506	0.5	
0.0949827	-0.187358	0.5	
0.0645865	-0.210943	0.590313	
-0.0977967	-0.490343	0.758774	
0	-0.5	0.8	
0	-0.5	0.7	
-0.0516032	-0.38053	0.763919	
0.375572	-0.195731	0.5	
0.331891	-0.227727	0.595789	
0.439458	-0.238488	0.575692	
0.385165	-0.157061	0.580489	
0.202324	0.378521	1	
0.228991	0.444481	0.908099	
0.146853	0.477948	0.915992	
0.191342	0.46194	1	
-0.0372406	0.417791	1	
-0.0555676	0.325574	1	
-0.118932	0.39861	1	
-0.081646	0.385636	0.890794	
0.0728232	0.494668	0.926459	
0.0420691	0.427134	1	
0.114055	0.374109	1	
0.0975452	0.490393	1	
0.386505	-0.317197	0.931175	
0.436762	-0.243391	0.903062	
0.380873	-0.323938	0.847739	
0.313777	-0.208405	0.877459	
-0.138674	0.323797	1	
-0.214341	0.273759	1	
-0.201912	0.369986	1	
-0.202396	0.33987	0.890246	
0.373926	0.198925	1	
0.370295	0.150924	0.906655	
0.300884	0.198715	1	
0.331523	0.239691	0.896553	
0.153328	-0.47591	0.90763	
0.191342	-0.46194	1	
0.235698	-0.440961	0.931431	
0.125573	-0.41396	1	
0.476114	0.152694	0.90246	
0.450285	0.217356	0.855302	
0.470916	0.168043	0.800126	
0.385025	0.1139	0.812458	
-0.0156334	-0.0737433	0.5	
0.0376566	-0.0505847	0.5	
-0.0081622	-0.0144392	0.5	
0.0268659	-0.0185974	0.564249	
0.0854243	-0.492649	0.748597	
0.0814864	-0.493315	0.652319	
0	-0.5	0.7	
0.0564693	-0.387133	0.748139	
0.139746	-0.170777	0.5	
0.0949827	-0.187358	0.5	
0.125	-0.216506	0.5	
0.165128	-0.182854	0.566814	
-0.428195	0.258165	0.798245	
-0.469721	0.171353	0.838334	
-0.460548	0.194667	0.76567	
-0.388856	0.122276	0.792585	
0.5	0	0.6	
0.495101	-0.0698189	0.572379	
0.493012	-0.0833019	0.655211	
0.390858	-0.0458412	0.581997	
0.228991	-0.444481	0.591901	
0.25658	-0.429146	0.66876	
0.3168	-0.386831	0.604097	
0.184871	-0.357405	0.649244	
-0.439458	0.238488	0.575692	
-0.368394	0.141973	0.5	
-0.46194	0.191342	0.5	
-0.363589	0.21739	0.5	
0.232997	-0.11062	1	
0.14072	-0.0839746	1	
0.210156	-0.0147965	1	
0.181192	-0.0401295	0.895026	
0.216506	-0.125	0.5	
0.176544	-0.0644028	0.5	
0.155716	-0.12147	0.5	
0.149744	-0.0894982	0.564748	
0.14072	-0.0839746	1	
0.115537	0.0107471	1	
0.210156	-0.0147965	1	
0.181192	-0.0401295	0.895026	
0.277785	0.415735	0.5	
0.270443	0.334367	0.5	
0.235698	0.440961	0.568569	
0.195731	0.375572	0.5	
0.230141	0.201516	0.689547	
0.320995	0.210811	0.605402	
0.223145	0.258282	0.600696	
0.298958	0.273011	0.680114	
0.0943468	-0.245334	1	
0.112799	-0.33356	1	
0.0248177	-0.313374	1	
0.0999474	-0.256123	0.897299	
0.373926	0.198925	1	
0.439458	0.238488	0.924308	
0.370295	0.150924	0.906655	
0.331523	0.239691	0.896553	
0.168734	-0.470668	0.798219	
0.0564693	-0.387133	0.748139	
0.0854243	-0.492649	0.748597	
0.108507	-0.396912	0.833758	
0.230141	0.201516	0.689547	
0.284059	0.282644	0.778361	
0.335831	0.198146	0.73463	
0.298958	0.273011	0.680114	
-0.401548	-0.0423374	1	
-0.5	0	1	
-0.5	0	0.9	
-0.495012	-0.0704482	0.928155	
0.495293	0.0684459	0.568597	
0.437731	0.0431128	0.5	
0.5	0	0.6	
0.399716	0.0593288	0.591749	
0.495293	-0.0684459	0.931403	
0.5	0	1	
0.5	0	0.9	
0.409478	-0.032947	1	
-0.0295403	0.225144	1	
-0.0555676	0.325574	1	
0.0401436	0.291204	1	
-0.019486	0.256762	0.89034	
-0.0442266	-0.432186	0.5	
-0.0698189	-0.495101	0.572379	
0	-0.5	0.6	
-0.029629	-0.397647	0.594827	
0.316847	0.386792	0.698616	
0.284059	0.282644	0.778361	
0.215007	0.321027	0.704259	
0.298958	0.273011	0.680114	
-0.198122	0.226155	0.892159	
-0.130723	0.131802	0.876531	
-0.114718	0.198983	0.815635	
-0.104561	0.217724	0.908588	
0.153328	0.47591	0.59237	
0.191342	0.46194	0.5	
0.235698	0.440961	0.568569	
0.124929	0.414525	0.5	
-0.115841	0.288513	0.837108	
-0.198122	0.226155	0.892159	
-0.114718	0.198983	0.815635	
-0.104561	0.217724	0.908588	
-0.112672	-0.0704426	0.5	
-0.110253	-0.0221958	0.5	
-0.166581	-0.0467287	0.5	
-0.122493	-0.0457662	0.591275	
0.0653714	0.061152	0.872444	
-0.00109612	-0.0173781	0.904468	
0.0170666	-0.00404371	0.815416	
0.0906227	-0.0186438	0.910454	
-0.386498	-0.317206	0.700322	
-0.386792	-0.316847	0.801384	
-0.328716	-0.376757	0.753532	
-0.290901	-0.287972	0.800889	
0.46194	0.191342	1	
0.476114	0.152694	0.90246	
0.414183	0.131147	1	
0.370295	0.150924	0.906655	
-0.0136448	-0.0115771	0.733329	
0.0259112	-0.0811505	0.774009	
0.0831208	-0.00188727	0.757361	
0.0170666	-0.00404371	0.815416	
0.277785	-0.415735	1	
0.317233	-0.386476	0.909527	
0.235698	-0.440961	0.931431	
0.268393	-0.334301	1	
0.415735	0.277785	1	
0.328092	0.270243	1	
0.388274	0.315029	0.920807	
0.331523	0.239691	0.896553	
0.0505063	0.178091	0.883857	
0.0271447	0.258379	0.801291	
0.124154	0.245419	0.824268	
0.0617642	0.177547	0.776817	
0.0807477	0.493437	0.654224	
0	0.5	0.6	
0.0704482	0.495012	0.571845	
0.0755103	0.388608	0.610372	
0.092572	-0.0674004	0.832552	
0.0831208	-0.00188727	0.757361	
0.0259112	-0.0811505	0.774009	
0.0170666	-0.00404371	0.815416	
0.495293	-0.0684459	0.931403	
0.493389	-0.0810399	0.85285	
0.478555	-0.144862	0.921652	
0.371732	-0.09396	0.880254	
-0.043412	0.246202	0.5	
0.043412	0.246202	0.5	
5.51091e-17	0.3	0.5	
0.00262968	0.233117	0.59891	
-0.323938	-0.380873	0.847739	
-0.317197	-0.386505	0.931175	
-0.243391	-0.436762	0.903062	
-0.208529	-0.319219	0.867558	
-0.18644	0.1823	1	
-0.26105	0.203399	1	
-0.214341	0.273759	1	
-0.198122	0.226155	0.892159	
0.197278	0.0487031	0.829069	
0.245664	0.104793	0.903539	
0.150575	0.144679	0.883538	
0.151755	0.0498946	0.914333	
0.115537	0.0107471	1	
0.210156	-0.0147965	1	
0.181192	-0.0401295	0.895026	
0.151755	0.0498946	0.914333	
-0.363128	-0.216258	0.5	
-0.325698	-0.286034	0.5	
-0.30356	-0.231708	0.5	
-0.295665	-0.266599	0.586027	
0.017794	0.149684	0.5	
-0.0305981	0.141799	0.5	
0.00365932	0.104584	0.5	
-0.0203138	0.116891	0.566619	
0.146853	-0.477948	0.584008	
0.0728232	-0.494668	0.573541	
0.0814864	-0.493315	0.652319	
0.0667763	-0.376719	0.620641	
-0.361276	-0.0455918	0.5	
-0.364062	-0.132817	0.5	
-0.289778	-0.0776457	0.5	
-0.293992	-0.0575398	0.588141	
0.277785	-0.415735	1	
0.235698	-0.440961	0.931431	
0.194604	-0.371188	1	
0.268393	-0.334301	1	
-0.0262407	0.173818	0.811595	
0.0271447	0.258379	0.801291	
0.0505063	0.178091	0.883857	
0.0617642	0.177547	0.776817	
-0.242822	0.437078	0.847009	
-0.153328	0.47591	0.90763	
-0.235698	0.440961	0.931431	
-0.202396	0.33987	0.890246	
-0.316847	0.386792	0.801384	
-0.317206	0.386498	0.700322	
-0.247057	0.434698	0.749501	
-0.220027	0.322099	0.738771	
-0.331632	-0.374193	0.665357	
-0.386498	-0.317206	0.700322	
-0.328716	-0.376757	0.753532	
-0.253586	-0.309787	0.710553	
0	-0.5	1	
0	-0.5	0.9	
0.0404524	-0.41072	1	
0.0704482	-0.495012	0.928155	
0.274666	-0.249265	0.5	
0.2	-0.259808	0.5	
0.231749	-0.30504	0.5	
0.213897	-0.237657	0.568565	
0.259808	0.15	0.5	
0.216156	0.175607	0.5	
0.216506	0.125	0.5	
0.230707	0.150403	0.598384	
-0.0497612	-0.177788	0.5	
0.00155464	-0.188347	0.5	
-0.0228356	-0.132115	0.5	
0.00148161	-0.13757	0.564688	
0.169426	0.205971	0.5	
0.125	0.216506	0.5	
0.118461	0.161044	0.5	
0.146959	0.210165	0.588072	
-0.318983	0.261743	1	
-0.415735	0.277785	1	
-0.386505	0.317197	0.931175	
-0.389036	0.207425	1	
-0.0442266	-0.432186	0.5	
0.0431128	-0.437731	0.5	
-0.0152603	-0.363012	0.5	
-0.029629	-0.397647	0.594827	
-0.389036	0.207425	1	
-0.46194	0.191342	1	
-0.478555	0.144862	0.921652	
-0.404541	0.126945	1	
0.46194	-0.191342	1	
0.380207	-0.19708	1	
0.478555	-0.144862	0.921652	
0.436762	-0.243391	0.903062	
-0.316208	0.0903343	0.672767	
-0.384891	0.157961	0.659274	
-0.346884	0.118257	0.588594	
-0.405387	0.0525253	0.685554	
-0.495293	0.0684459	0.931403	
-0.5	0	0.9	
-0.493389	0.0810399	0.85285	
-0.384543	0.0457703	0.887922	
0.177945	-0.20787	0.5	
0.15	-0.259808	0.5	
0.2	-0.259808	0.5	
0.213897	-0.237657	0.568565	
-0.386498	-0.317206	0.700322	
-0.386831	-0.3168	0.604097	
-0.429146	-0.25658	0.66876	
-0.350556	-0.203398	0.639466	
-0.323938	-0.380873	0.847739	
-0.386792	-0.316847	0.801384	
-0.386476	-0.317233	0.909527	
-0.290901	-0.287972	0.800889	
-0.243391	-0.436762	0.903062	
-0.258165	-0.428195	0.798245	
-0.323938	-0.380873	0.847739	
-0.208529	-0.319219	0.867558	
0.0704482	-0.495012	0.928155	
0.153328	-0.47591	0.90763	
0.0807477	-0.493437	0.845776	
0.108507	-0.396912	0.833758	
-0.386476	-0.317233	0.909527	
-0.386792	-0.316847	0.801384	
-0.437078	-0.242822	0.847009	
-0.328462	-0.228271	0.903506	
-0.0497612	-0.177788	0.5	
-0.0934074	-0.183691	0.5	
-0.043412	-0.246202	0.5	
-0.0782828	-0.218112	0.590988	
-0.15	-0.259808	0.5	
-0.172766	-0.209666	0.5	
-0.192742	-0.261282	0.5	
-0.17146	-0.257962	0.580515	
-0.302044	-0.0506462	1	
-0.211369	-0.0761151	1	
-0.278713	-0.14304	1	
-0.247755	-0.0727414	0.89259	
-0.323938	-0.380873	0.847739	
-0.258165	-0.428195	0.798245	
-0.328716	-0.376757	0.753532	
-0.290901	-0.287972	0.800889	
0.201164	-0.273578	1	
0.194604	-0.371188	1	
0.162257	-0.333773	0.890843	
0.250375	-0.286672	0.911571	
0.185145	-0.220341	0.859684	
0.263974	-0.284246	0.810467	
0.313777	-0.208405	0.877459	
0.250375	-0.286672	0.911571	
-0.317206	0.386498	0.700322	
-0.25658	0.429146	0.66876	
-0.247057	0.434698	0.749501	
-0.220027	0.322099	0.738771	
0.317206	-0.386498	0.700322	
0.376757	-0.328716	0.753532	
0.374193	-0.331632	0.665357	
0.316563	-0.261412	0.680038	
0.191342	-0.46194	0.5	
0.146853	-0.477948	0.584008	
0.228991	-0.444481	0.591901	
0.130932	-0.431625	0.5	
-0.428195	0.258165	0.798245	
-0.460548	0.194667	0.76567	
-0.4284	0.257824	0.704976	
-0.338342	0.189085	0.729139	
0.365268	-0.183537	0.674475	
0.295498	-0.153797	0.576613	
0.338019	-0.101245	0.632718	
0.385165	-0.157061	0.580489	
-0.315029	-0.388274	0.579193	
-0.386831	-0.3168	0.604097	
-0.331632	-0.374193	0.665357	
-0.295665	-0.266599	0.586027	
0.228991	-0.444481	0.591901	
0.146853	-0.477948	0.584008	
0.174678	-0.468495	0.682891	
0.184871	-0.357405	0.649244	
-0.444481	-0.228991	0.591901	
-0.386831	-0.3168	0.604097	
-0.415735	-0.277785	0.5	
-0.363128	-0.216258	0.5	
0.436762	0.243391	0.596938	
0.380873	0.323938	0.652261	
0.386505	0.317197	0.568825	
0.320995	0.210811	0.605402	
0.432186	-0.0442266	0.5	
0.366186	-0.0790357	0.5	
0.416563	-0.126305	0.5	
0.390858	-0.0458412	0.581997	
0.317233	0.386476	0.590473	
0.380873	0.323938	0.652261	
0.316847	0.386792	0.698616	
0.298958	0.273011	0.680114	
-0.404541	0.126945	1	
-0.490393	0.0975452	1	
-0.495293	0.0684459	0.931403	
-0.426463	0.0441363	1	
0.386505	0.317197	0.568825	
0.325794	0.291996	0.5	
0.415735	0.277785	0.5	
0.369217	0.203769	0.5	
0.375572	-0.195731	0.5	
0.326126	-0.135086	0.5	
0.304695	-0.194694	0.5	
0.295498	-0.153797	0.576613	
0.00155464	-0.188347	0.5	
0.0208735	-0.153224	0.5	
-0.0228356	-0.132115	0.5	
0.00148161	-0.13757	0.564688	
0.277785	0.415735	0.5	
0.270443	0.334367	0.5	
0.317233	0.386476	0.590473	
0.235698	0.440961	0.568569	
-0.114467	-0.386332	1	
-0.144862	-0.478555	0.921652	
-0.191342	-0.46194	1	
-0.203173	-0.373024	1	
-0.243391	-0.436762	0.903062	
-0.317197	-0.386505	0.931175	
-0.277785	-0.415735	1	
-0.203173	-0.373024	1	
-0.142648	-0.00714059	1	
-0.048473	-0.0328568	1	
-0.117671	-0.10197	1	
-0.0991242	-0.0135691	0.909138	
-0.261345	-0.230036	1	
-0.356684	-0.19351	1	
-0.278713	-0.14304	1	
-0.328462	-0.228271	0.903506	
0.436762	0.243391	0.596938	
0.386505	0.317197	0.568825	
0.415735	0.277785	0.5	
0.369217	0.203769	0.5	
-0.470916	0.168043	0.699874	
-0.493012	0.0833019	0.655211	
-0.384891	0.157961	0.659274	
-0.405387	0.0525253	0.685554	
-0.263582	-0.319413	1	
-0.277785	-0.415735	1	
-0.317197	-0.386505	0.931175	
-0.203173	-0.373024	1	
-0.24957	-0.20227	0.837053	
-0.198796	-0.256159	0.777791	
-0.208529	-0.319219	0.867558	
-0.290901	-0.287972	0.800889	
-0.253586	-0.309787	0.710553	
-0.198796	-0.256159	0.777791	
-0.307152	-0.222724	0.726676	
-0.290901	-0.287972	0.800889	
0.136333	-0.0203798	0.5	
0.102519	0.0330131	0.5	
0.0854359	-0.0267855	0.5	
0.0965515	-0.0251853	0.583435	
-0.15	-0.259808	0.5	
-0.194694	-0.304695	0.5	
-0.135086	-0.326126	0.5	
-0.17146	-0.257962	0.580515	
-0.436762	0.243391	0.903062	
-0.386505	0.317197	0.931175	
-0.415735	0.277785	1	
-0.389036	0.207425	1	
0.316847	0.386792	0.698616	
0.376757	0.328716	0.746468	
0.284059	0.282644	0.778361	
0.298958	0.273011	0.680114	
-0.0422582	-0.437473	1	
-0.114467	-0.386332	1	
-0.0684459	-0.495293	0.931403	
-0.0975452	-0.490393	1	
0.185145	-0.220341	0.859684	
0.165332	-0.129906	0.808096	
0.103648	-0.156441	0.895396	
0.198682	-0.135756	0.90724	
-0.0776457	-0.289778	0.5	
-0.043412	-0.246202	0.5	
-0.125	-0.216506	0.5	
-0.0782828	-0.218112	0.590988	
0.0975452	0.490393	1	
0.114055	0.374109	1	
0.0728232	0.494668	0.926459	
0.146853	0.477948	0.915992	
-0.478555	0.144862	0.921652	
-0.436762	0.243391	0.903062	
-0.46194	0.191342	1	
-0.389036	0.207425	1	
-0.415735	-0.277785	1	
-0.386476	-0.317233	0.909527	
-0.440961	-0.235698	0.931431	
-0.328462	-0.228271	0.903506	
0.174678	0.468495	0.817109	
0.25658	0.429146	0.83124	
0.228991	0.444481	0.908099	
0.141859	0.360078	0.864623	
0.30356	0.231708	0.5	
0.308042	0.167631	0.5	
0.369217	0.203769	0.5	
0.320995	0.210811	0.605402	
-0.0704482	0.495012	0.928155	
0	0.5	0.9	
0	0.5	1	
-0.0372406	0.417791	1	
0.195731	0.375572	0.5	
0.135086	0.326126	0.5	
0.194694	0.304695	0.5	
0.187975	0.355336	0.600929	
0.470916	0.168043	0.800126	
0.385025	0.1139	0.812458	
0.460548	0.194667	0.73433	
0.393123	0.117954	0.711669	
0.102519	0.0330131	0.5	
0.175681	0.0639425	0.5	
0.113554	0.0989266	0.5	
0.145725	0.0491975	0.586984	
-0.353553	0.353553	0.5	
-0.325943	0.285613	0.5	
-0.270443	0.334367	0.5	
-0.285935	0.290775	0.588479	
0.0461078	-0.0584269	1	
0.0209546	0.0362755	1	
0.115537	0.0107471	1	
0.0906227	-0.0186438	0.910454	
0.388274	-0.315029	0.579193	
0.415735	-0.277785	0.634138	
0.439458	-0.238488	0.575692	
0.331891	-0.227727	0.595789	
-0.444481	-0.228991	0.591901	
-0.468495	-0.174678	0.682891	
-0.350556	-0.203398	0.639466	
-0.392935	-0.114355	0.653897	
0.18228	-0.160584	0.5	
0.139746	-0.170777	0.5	
0.177945	-0.20787	0.5	
0.165128	-0.182854	0.566814	
0.428195	-0.258165	0.798245	
0.436762	-0.243391	0.903062	
0.469721	-0.171353	0.838334	
0.375849	-0.159302	0.804904	
-0.249565	0.273325	0.5	
-0.325943	0.285613	0.5	
-0.303998	0.231686	0.5	
-0.285935	0.290775	0.588479	
0.4284	-0.257824	0.704976	
0.460548	-0.194667	0.76567	
0.470916	-0.168043	0.699874	
0.365268	-0.183537	0.674475	
0.335831	0.198146	0.73463	
0.385025	0.1139	0.812458	
0.30555	0.0888144	0.75317	
0.393123	0.117954	0.711669	
-0.125	-0.216506	0.5	
-0.172766	-0.209666	0.5	
-0.15	-0.259808	0.5	
-0.17146	-0.257962	0.580515	
-0.289778	-0.0776457	0.5	
-0.208135	-0.0860903	0.586046	
-0.246202	-0.043412	0.5	
-0.293992	-0.0575398	0.588141	
0.317206	0.386498	0.799678	
0.316847	0.386792	0.698616	
0.376757	0.328716	0.746468	
0.284059	0.282644	0.778361	
-0.118648	0.167764	0.5	
-0.067279	0.181403	0.5	
-0.125	0.216506	0.5	
-0.0939263	0.178211	0.579293	
0.043412	-0.246202	0.5	
0.0949827	-0.187358	0.5	
0.0583087	-0.173273	0.5	
0.0645865	-0.210943	0.590313	
0.376757	-0.328716	0.753532	
0.316847	-0.386792	0.801384	
0.380873	-0.323938	0.847739	
0.263974	-0.284246	0.810467	
-0.426463	0.0441363	1	
-0.5	0	1	
-0.495293	0.0684459	0.931403	
-0.5	0	0.9	
-0.289778	-0.0776457	0.5	
-0.216506	-0.125	0.5	
-0.246202	-0.043412	0.5	
-0.208135	-0.0860903	0.586046	
0.0153159	0.363557	1	
0.114055	0.374109	1	
0.0401436	0.291204	1	
0.0767997	0.290568	0.903715	
0.102519	0.0330131	0.5	
0.136333	-0.0203798	0.5	
0.175681	0.0639425	0.5	
0.145725	0.0491975	0.586984	
0.469721	-0.171353	0.838334	
0.478555	-0.144862	0.921652	
0.493389	-0.0810399	0.85285	
0.371732	-0.09396	0.880254	
0.439458	0.238488	0.924308	
0.476114	0.152694	0.90246	
0.46194	0.191342	1	
0.370295	0.150924	0.906655	
-0.048473	-0.0328568	1	
0.0209546	0.0362755	1	
0.0461078	-0.0584269	1	
-0.00109612	-0.0173781	0.904468	
0.112799	-0.33356	1	
0.201164	-0.273578	1	
0.194604	-0.371188	1	
0.162257	-0.333773	0.890843	
-0.0810399	-0.493389	0.85285	
-0.144862	-0.478555	0.921652	
-0.0684459	-0.495293	0.931403	
-0.0973131	-0.377708	0.878415	
0.0854359	-0.0267855	0.5	
0.0454237	0.00960241	0.5	
0.0376566	-0.0505847	0.5	
0.0268659	-0.0185974	0.564249	
-0.019486	0.256762	0.89034	
0.0271447	0.258379	0.801291	
0.0206391	0.354311	0.845617	
0.0767997	0.290568	0.903715	
0.450285	-0.217356	0.644698	
0.415735	-0.277785	0.634138	
0.4284	-0.257824	0.704976	
0.365268	-0.183537	0.674475	
0.478555	-0.144862	0.921652	
0.380207	-0.19708	1	
0.46194	-0.191342	1	
0.394936	-0.119803	1	
-0.353553	-0.353553	0.5	
-0.270443	-0.334367	0.5	
-0.325698	-0.286034	0.5	
-0.315029	-0.388274	0.579193	
0	-0.5	0.7	
0	-0.5	0.8	
0.0854243	-0.492649	0.748597	
0.0564693	-0.387133	0.748139	
0.035935	-0.11426	0.5	
-0.0228356	-0.132115	0.5	
0.0208735	-0.153224	0.5	
0.00148161	-0.13757	0.564688	
-0.3168	0.386831	0.604097	
-0.353553	0.353553	0.5	
-0.270443	0.334367	0.5	
-0.285935	0.290775	0.588479	
0.276476	0.0535537	1	
0.247868	0.146306	1	
0.337634	0.115561	1	
0.245664	0.104793	0.903539	
0.232997	-0.11062	1	
0.210156	-0.0147965	1	
0.314271	-0.0501881	1	
0.283042	-0.0276105	0.90443	
0.373926	0.198925	1	
0.337634	0.115561	1	
0.300884	0.198715	1	
0.370295	0.150924	0.906655	
0.274666	-0.249265	0.5	
0.228406	-0.215902	0.5	
0.2	-0.259808	0.5	
0.213897	-0.237657	0.568565	
0.201164	-0.273578	1	
0.268393	-0.334301	1	
0.194604	-0.371188	1	
0.250375	-0.286672	0.911571	
-0.494668	-0.0728232	0.573541	
-0.493315	-0.0814864	0.652319	
-0.477948	-0.146853	0.584008	
-0.392935	-0.114355	0.653897	
-0.192742	-0.261282	0.5	
-0.194694	-0.304695	0.5	
-0.15	-0.259808	0.5	
-0.17146	-0.257962	0.580515	
-0.5	0	0.6	
-0.493012	0.0833019	0.655211	
-0.5	0	0.7	
-0.405387	0.0525253	0.685554	
-0.119993	0.246691	1	
-0.0983601	0.156434	1	
-0.18644	0.1823	1	
-0.104561	0.217724	0.908588	
-0.043412	-0.246202	0.5	
-0.0934074	-0.183691	0.5	
-0.125	-0.216506	0.5	
-0.0782828	-0.218112	0.590988	
-0.328307	0.16356	1	
-0.389036	0.207425	1	
-0.318983	0.261743	1	
-0.312269	0.206869	0.893833	
0.0461078	-0.0584269	1	
0.115537	0.0107471	1	
0.14072	-0.0839746	1	
0.0906227	-0.0186438	0.910454	
-0.368394	0.141973	0.5	
-0.46194	0.191342	0.5	
-0.419906	0.0889586	0.5	
-0.476114	0.152694	0.59754	
0.428195	0.258165	0.701755	
0.460548	0.194667	0.73433	
0.4284	0.257824	0.795024	
0.335831	0.198146	0.73463	
0.228991	0.444481	0.908099	
0.146853	0.477948	0.915992	
0.174678	0.468495	0.817109	
0.141859	0.360078	0.864623	
-0.194694	0.304695	0.5	
-0.135086	0.326126	0.5	
-0.195731	0.375572	0.5	
-0.1727	0.337134	0.60049	
0.5	0	0.6	
0.5	0	0.5	
0.495101	-0.0698189	0.572379	
0.432186	-0.0442266	0.5	
-0.0734441	0.0616893	1	
-0.048473	-0.0328568	1	
-0.142648	-0.00714059	1	
-0.0991242	-0.0135691	0.909138	
-0.315029	-0.388274	0.579193	
-0.325698	-0.286034	0.5	
-0.353553	-0.353553	0.5	
-0.386831	-0.3168	0.604097	
-0.257824	-0.4284	0.704976	
-0.331632	-0.374193	0.665357	
-0.328716	-0.376757	0.753532	
-0.253586	-0.309787	0.710553	
-0.0728232	0.494668	0.573541	
-0.124938	0.414491	0.5	
-0.0975452	0.490393	0.5	
-0.0426444	0.431636	0.5	
-0.216506	-0.125	0.5	
-0.149626	-0.106257	0.5	
-0.166581	-0.0467287	0.5	
-0.208135	-0.0860903	0.586046	
0.431625	0.130932	0.5	
0.437731	0.0431128	0.5	
0.495293	0.0684459	0.568597	
0.399716	0.0593288	0.591749	
-0.415735	0.277785	0.5	
-0.439458	0.238488	0.575692	
-0.363589	0.21739	0.5	
-0.388274	0.315029	0.579193	
0.242822	0.437078	0.652991	
0.316847	0.386792	0.698616	
0.247057	0.434698	0.750499	
0.215007	0.321027	0.704259	
0.0565057	-0.147787	0.722206	
0.103299	-0.191976	0.670856	
0.0851242	-0.244368	0.731714	
0.023726	-0.214303	0.683566	
0.394936	-0.119803	1	
0.490393	-0.0975452	1	
0.495293	-0.0684459	0.931403	
0.409478	-0.032947	1	
-0.316208	0.0903343	0.672767	
-0.346884	0.118257	0.588594	
-0.253577	0.121423	0.598057	
-0.299226	0.0393938	0.583455	
-0.118932	0.39861	1	
-0.0704482	0.495012	0.928155	
-0.0975452	0.490393	1	
-0.0372406	0.417791	1	
0.0420691	0.427134	1	
0	0.5	0.9	
0	0.5	1	
0.0728232	0.494668	0.926459	
0.0704482	0.495012	0.571845	
0	0.5	0.6	
0	0.5	0.5	
0.042537	0.432039	0.5	
0.4284	-0.257824	0.704976	
0.415735	-0.277785	0.634138	
0.374193	-0.331632	0.665357	
0.316563	-0.261412	0.680038	
-0.0698189	-0.495101	0.572379	
0	-0.5	0.5	
-0.0442266	-0.432186	0.5	
0	-0.5	0.6	
0.242822	0.437078	0.652991	
0.235698	0.440961	0.568569	
0.317233	0.386476	0.590473	
0.187975	0.355336	0.600929	
-0.444481	-0.228991	0.591901	
-0.477948	-0.146853	0.584008	
-0.468495	-0.174678	0.682891	
-0.392935	-0.114355	0.653897	
-0.493315	-0.0814864	0.652319	
-0.492649	-0.0854243	0.748597	
-0.468495	-0.174678	0.682891	
-0.392935	-0.114355	0.653897	
-0.0638367	-0.295761	1	
0.00183684	-0.222331	1	
0.0248177	-0.313374	1	
-0.0124705	-0.26219	0.899433	
-0.374193	0.331632	0.665357	
-0.376757	0.328716	0.753532	
-0.4284	0.257824	0.704976	
-0.303077	0.2787	0.708341	
-0.173205	-0.15	0.5	
-0.216156	-0.175607	0.5	
-0.172766	-0.209666	0.5	
-0.167688	-0.179794	0.560998	
0.469721	-0.171353	0.838334	
0.490343	-0.0977967	0.758774	
0.460548	-0.194667	0.76567	
0.375849	-0.159302	0.804904	
0.153328	-0.47591	0.90763	
0.242822	-0.437078	0.847009	
0.168734	-0.470668	0.798219	
0.108507	-0.396912	0.833758	
0.4284	-0.257824	0.704976	
0.374193	-0.331632	0.665357	
0.376757	-0.328716	0.753532	
0.316563	-0.261412	0.680038	
0	0.5	0.5	
-0.0728232	0.494668	0.573541	
-0.0426444	0.431636	0.5	
0	0.5	0.6	
-0.289778	0.0776457	0.5	
-0.31598	0.119651	0.5	
-0.351551	0.0541915	0.5	
-0.346884	0.118257	0.588594	
-0.388274	0.315029	0.579193	
-0.363589	0.21739	0.5	
-0.415735	0.277785	0.5	
-0.325943	0.285613	0.5	
0.017794	0.149684	0.5	
0.0609049	0.128365	0.5	
0.0594834	0.18279	0.5	
0.0473696	0.155243	0.576019	
-0.470916	0.168043	0.699874	
-0.490343	0.0977967	0.758774	
-0.493012	0.0833019	0.655211	
-0.405387	0.0525253	0.685554	
0.326126	-0.135086	0.5	
0.295498	-0.153797	0.576613	
0.375572	-0.195731	0.5	
0.385165	-0.157061	0.580489	
-0.248409	-0.277977	0.5	
-0.325698	-0.286034	0.5	
-0.270443	-0.334367	0.5	
-0.295665	-0.266599	0.586027	
0.328092	0.270243	1	
0.373926	0.198925	1	
0.300884	0.198715	1	
0.331523	0.239691	0.896553	
0.476114	0.152694	0.90246	
0.470916	0.168043	0.800126	
0.493012	0.0833019	0.844789	
0.385025	0.1139	0.812458	
0.437731	0.0431128	0.5	
0.363184	0.0579886	0.5	
0.363012	-0.0152603	0.5	
0.399716	0.0593288	0.591749	
0	-0.5	0.9	
-0.0684459	-0.495293	0.931403	
0	-0.5	1	
-0.0422582	-0.437473	1	
0.184962	0.0799289	1	
0.115537	0.0107471	1	
0.0903521	0.10545	1	
0.151755	0.0498946	0.914333	
-0.257956	0.116321	1	
-0.26105	0.203399	1	
-0.18644	0.1823	1	
-0.222536	0.133159	0.91035	
-0.0854243	0.492649	0.748597	
0	0.5	0.7	
0	0.5	0.8	
-0.0187025	0.397023	0.746774	
-0.0975452	-0.490393	1	
-0.114467	-0.386332	1	
-0.0684459	-0.495293	0.931403	
-0.144862	-0.478555	0.921652	
0.363184	0.0579886	0.5	
0.431625	0.130932	0.5	
0.364062	0.132817	0.5	
0.399716	0.0593288	0.591749	
-0.353553	0.353553	0.5	
-0.388274	0.315029	0.579193	
-0.325943	0.285613	0.5	
-0.285935	0.290775	0.588479	
0.326126	-0.135086	0.5	
0.416563	-0.126305	0.5	
0.366186	-0.0790357	0.5	
0.385165	-0.157061	0.580489	
-0.478555	0.144862	0.921652	
-0.404541	0.126945	1	
-0.490393	0.0975452	1	
-0.495293	0.0684459	0.931403	
0.490393	0.0975452	1	
0.495101	0.0698189	0.927621	
0.414991	0.0495125	1	
0.414183	0.131147	1	
0.353553	0.353553	0.5	
0.270443	0.334367	0.5	
0.325794	0.291996	0.5	
0.317233	0.386476	0.590473	
0.124929	0.414525	0.5	
0.0704482	0.495012	0.571845	
0.0975452	0.490393	0.5	
0.042537	0.432039	0.5	
-0.477948	-0.146853	0.584008	
-0.46194	-0.191342	0.5	
-0.419906	-0.0889586	0.5	
-0.364062	-0.132817	0.5	
0	-0.5	0.6	
-0.0698189	-0.495101	0.572379	
-0.0833019	-0.493012	0.655211	
-0.029629	-0.397647	0.594827	
-0.171353	-0.469721	0.838334	
-0.144862	-0.478555	0.921652	
-0.0810399	-0.493389	0.85285	
-0.0973131	-0.377708	0.878415	
-0.0152603	-0.363012	0.5	
-0.0790357	-0.366186	0.5	
-0.0442266	-0.432186	0.5	
-0.029629	-0.397647	0.594827	
0.490393	-0.0975452	1	
0.495293	-0.0684459	0.931403	
0.478555	-0.144862	0.921652	
0.394936	-0.119803	1	
-0.216506	-0.125	0.5	
-0.166581	-0.0467287	0.5	
-0.246202	-0.043412	0.5	
-0.208135	-0.0860903	0.586046	
0.431625	0.130932	0.5	
0.495293	0.0684459	0.568597	
0.478555	0.144862	0.578348	
0.399716	0.0593288	0.591749	
-0.0507575	0.0878249	0.5	
0.00365932	0.104584	0.5	
-0.0305981	0.141799	0.5	
-0.0203138	0.116891	0.566619	
-0.0704482	0.495012	0.928155	
-0.0975452	0.490393	1	
-0.153328	0.47591	0.90763	
-0.118932	0.39861	1	
0.380873	0.323938	0.652261	
0.428195	0.258165	0.701755	
0.376757	0.328716	0.746468	
0.298958	0.273011	0.680114	
0.120744	-0.0747732	0.5	
0.176544	-0.0644028	0.5	
0.136333	-0.0203798	0.5	
0.149744	-0.0894982	0.564748	
-0.444481	-0.228991	0.591901	
-0.468495	-0.174678	0.682891	
-0.429146	-0.25658	0.66876	
-0.350556	-0.203398	0.639466	
0.470916	0.168043	0.800126	
0.490343	0.0977967	0.741226	
0.493012	0.0833019	0.844789	
0.385025	0.1139	0.812458	
-0.318983	0.261743	1	
-0.26105	0.203399	1	
-0.328307	0.16356	1	
-0.312269	0.206869	0.893833	
-0.368394	0.141973	0.5	
-0.31598	0.119651	0.5	
-0.31037	0.174447	0.5	
-0.346884	0.118257	0.588594	
0.346509	0.0237889	1	
0.314271	-0.0501881	1	
0.276476	0.0535537	1	
0.283042	-0.0276105	0.90443	
0.495293	0.0684459	0.568597	
0.5	0	0.5	
0.5	0	0.6	
0.437731	0.0431128	0.5	
0.14072	-0.0839746	1	
0.232997	-0.11062	1	
0.164797	-0.177585	1	
0.198682	-0.135756	0.90724	
-0.16685	0.0883447	1	
-0.257956	0.116321	1	
-0.18644	0.1823	1	
-0.222536	0.133159	0.91035	
0.0975452	-0.490393	1	
0.0404524	-0.41072	1	
0.125573	-0.41396	1	
0.0704482	-0.495012	0.928155	
0.490343	0.0977967	0.741226	
0.385025	0.1139	0.812458	
0.470916	0.168043	0.800126	
0.393123	0.117954	0.711669	
-0.289778	-0.0776457	0.5	
-0.3	7.34788e-17	0.5	
-0.361276	-0.0455918	0.5	
-0.293992	-0.0575398	0.588141	
-0.450285	0.217356	0.644698	
-0.4284	0.257824	0.704976	
-0.470916	0.168043	0.699874	
-0.384891	0.157961	0.659274	
-0.172766	-0.209666	0.5	
-0.13744	-0.178022	0.5	
-0.173205	-0.15	0.5	
-0.167688	-0.179794	0.560998	
-0.118648	0.167764	0.5	
-0.161262	0.177195	0.5	
-0.154439	0.124228	0.5	
-0.159007	0.150563	0.559172	
-0.351551	0.0541915	0.5	
-0.289778	0.0776457	0.5	
-0.346884	0.118257	0.588594	
-0.299226	0.0393938	0.583455	
0.276476	0.0535537	1	
0.184962	0.0799289	1	
0.247868	0.146306	1	
0.245664	0.104793	0.903539	
0.242822	0.437078	0.652991	
0.153328	0.47591	0.59237	
0.235698	0.440961	0.568569	
0.187975	0.355336	0.600929	
0.414183	0.131147	1	
0.490393	0.0975452	1	
0.495101	0.0698189	0.927621	
0.476114	0.152694	0.90246	
0.115537	0.0107471	1	
0.184962	0.0799289	1	
0.210156	-0.0147965	1	
0.151755	0.0498946	0.914333	
0.0401436	0.291204	1	
0.133074	0.264097	1	
0.0651412	0.200096	1	
0.0767997	0.290568	0.903715	
0.5	0	0.6	
0.493389	0.0810399	0.64715	
0.495293	0.0684459	0.568597	
0.399716	0.0593288	0.591749	
-0.242822	0.437078	0.847009	
-0.235698	0.440961	0.931431	
-0.317233	0.386476	0.909527	
-0.202396	0.33987	0.890246	
0.470916	-0.168043	0.699874	
0.450285	-0.217356	0.644698	
0.4284	-0.257824	0.704976	
0.365268	-0.183537	0.674475	
0.374193	0.331632	0.834643	
0.415735	0.277785	0.865862	
0.388274	0.315029	0.920807	
0.331523	0.239691	0.896553	
-0.476114	0.152694	0.59754	
-0.470916	0.168043	0.699874	
-0.493012	0.0833019	0.655211	
-0.384891	0.157961	0.659274	
-0.119993	0.246691	1	
-0.0295403	0.225144	1	
-0.0983601	0.156434	1	
-0.104561	0.217724	0.908588	
0.388274	-0.315029	0.579193	
0.353553	-0.353553	0.5	
0.3168	-0.386831	0.604097	
0.29185	-0.325871	0.5	
0.363184	0.0579886	0.5	
0.437731	0.0431128	0.5	
0.431625	0.130932	0.5	
0.399716	0.0593288	0.591749	
0.125	0.216506	0.5	
0.169426	0.205971	0.5	
0.15	0.259808	0.5	
0.146959	0.210165	0.588072	
-0.261345	-0.230036	1	
-0.331361	-0.272953	1	
-0.356684	-0.19351	1	
-0.328462	-0.228271	0.903506	
-0.470916	0.168043	0.699874	
-0.460548	0.194667	0.76567	
-0.490343	0.0977967	0.758774	
-0.388856	0.122276	0.792585	
-0.0442266	-0.432186	0.5	
-0.126305	-0.416563	0.5	
-0.0975452	-0.490393	0.5	
-0.0698189	-0.495101	0.572379	
0.432186	-0.0442266	0.5	
0.490393	-0.0975452	0.5	
0.495101	-0.0698189	0.572379	
0.416563	-0.126305	0.5	
0.210156	-0.0147965	1	
0.276476	0.0535537	1	
0.314271	-0.0501881	1	
0.283042	-0.0276105	0.90443	
-0.353553	0.353553	0.5	
-0.3168	0.386831	0.604097	
-0.388274	0.315029	0.579193	
-0.285935	0.290775	0.588479	
-0.248409	-0.277977	0.5	
-0.30356	-0.231708	0.5	
-0.325698	-0.286034	0.5	
-0.295665	-0.266599	0.586027	
-0.154439	0.124228	0.5	
-0.161262	0.177195	0.5	
-0.185713	0.151649	0.5	
-0.159007	0.150563	0.559172	
0.228406	-0.215902	0.5	
0.177945	-0.20787	0.5	
0.2	-0.259808	0.5	
0.213897	-0.237657	0.568565	
-0.401548	-0.0423374	1	
-0.41072	-0.12459	1	
-0.490393	-0.0975452	1	
-0.495012	-0.0704482	0.928155	
0.133074	0.264097	1	
0.0401436	0.291204	1	
0.114055	0.374109	1	
0.0767997	0.290568	0.903715	
-0.172766	-0.209666	0.5	
-0.125	-0.216506	0.5	
-0.13744	-0.178022	0.5	
-0.167688	-0.179794	0.560998	
0.450285	0.217356	0.855302	
0.476114	0.152694	0.90246	
0.439458	0.238488	0.924308	
0.370295	0.150924	0.906655	
0.3168	0.386831	0.895903	
0.277785	0.415735	1	
0.261819	0.319027	1	
0.353553	0.353553	1	
-0.3168	0.386831	0.604097	
-0.374193	0.331632	0.665357	
-0.388274	0.315029	0.579193	
-0.285935	0.290775	0.588479	
0.386505	0.317197	0.568825	
0.353553	0.353553	0.5	
0.325794	0.291996	0.5	
0.317233	0.386476	0.590473	
0.177945	-0.20787	0.5	
0.139746	-0.170777	0.5	
0.125	-0.216506	0.5	
0.165128	-0.182854	0.566814	
0.353553	-0.353553	0.5	
0.388274	-0.315029	0.579193	
0.334367	-0.270443	0.5	
0.29185	-0.325871	0.5	
0.317206	0.386498	0.799678	
0.376757	0.328716	0.746468	
0.374193	0.331632	0.834643	
0.284059	0.282644	0.778361	
0.245477	-0.191651	1	
0.314857	-0.257449	1	
0.201164	-0.273578	1	
0.250375	-0.286672	0.911571	
-0.270443	0.334367	0.5	
-0.325943	0.285613	0.5	
-0.249565	0.273325	0.5	
-0.285935	0.290775	0.588479	
-0.3	7.34788e-17	0.5	
-0.289778	-0.0776457	0.5	
-0.246202	-0.043412	0.5	
-0.293992	-0.0575398	0.588141	
-0.490343	0.0977967	0.758774	
-0.469721	0.171353	0.838334	
-0.493389	0.0810399	0.85285	
-0.388856	0.122276	0.792585	
-0.429146	-0.25658	0.66876	
-0.386831	-0.3168	0.604097	
-0.444481	-0.228991	0.591901	
-0.350556	-0.203398	0.639466	
-0.41072	-0.12459	1	
-0.490393	-0.0975452	1	
-0.495012	-0.0704482	0.928155	
-0.47591	-0.153328	0.90763	
0.373926	0.198925	1	
0.414183	0.131147	1	
0.337634	0.115561	1	
0.370295	0.150924	0.906655	
-0.153328	0.47591	0.90763	
-0.0807477	0.493437	0.845776	
-0.0704482	0.495012	0.928155	
-0.081646	0.385636	0.890794	
0.0535528	0.0702068	0.5	
0.102519	0.0330131	0.5	
0.113554	0.0989266	0.5	
0.0803667	0.0912248	0.564492	
0.478555	0.144862	0.578348	
0.495293	0.0684459	0.568597	
0.493389	0.0810399	0.64715	
0.399716	0.0593288	0.591749	
-0.0728232	0.494668	0.573541	
-0.0975452	0.490393	0.5	
-0.124938	0.414491	0.5	
-0.146853	0.477948	0.584008	
0.388274	0.315029	0.920807	
0.415735	0.277785	0.865862	
0.439458	0.238488	0.924308	
0.331523	0.239691	0.896553	
0.174678	-0.468495	0.682891	
0.25658	-0.429146	0.66876	
0.228991	-0.444481	0.591901	
0.184871	-0.357405	0.649244	
0.46194	-0.191342	0.5	
0.375572	-0.195731	0.5	
0.439458	-0.238488	0.575692	
0.385165	-0.157061	0.580489	
-0.440961	-0.235698	0.931431	
-0.386476	-0.317233	0.909527	
-0.437078	-0.242822	0.847009	
-0.328462	-0.228271	0.903506	
0.153328	0.47591	0.59237	
0.0807477	0.493437	0.654224	
0.0704482	0.495012	0.571845	
0.0755103	0.388608	0.610372	
0.125573	-0.41396	1	
0.153328	-0.47591	0.90763	
0.0975452	-0.490393	1	
0.0704482	-0.495012	0.928155	
0	-0.5	0.5	
0	-0.5	0.6	
0.0728232	-0.494668	0.573541	
0.0431128	-0.437731	0.5	
0.176544	-0.0644028	0.5	
0.120744	-0.0747732	0.5	
0.155716	-0.12147	0.5	
0.149744	-0.0894982	0.564748	
0.146853	0.477948	0.915992	
0.0975452	0.490393	1	
0.114055	0.374109	1	
0.191342	0.46194	1	
-0.191342	0.46194	1	
-0.153328	0.47591	0.90763	
-0.0975452	0.490393	1	
-0.118932	0.39861	1	
0.326126	-0.135086	0.5	
0.289778	-0.0776457	0.5	
0.259808	-0.15	0.5	
0.295498	-0.153797	0.576613	
0.232997	-0.11062	1	
0.245477	-0.191651	1	
0.164797	-0.177585	1	
0.198682	-0.135756	0.90724	
-0.493012	0.0833019	0.655211	
-0.490343	0.0977967	0.758774	
-0.5	0	0.7	
-0.405387	0.0525253	0.685554	
0.493389	0.0810399	0.64715	
0.490343	0.0977967	0.741226	
0.469721	0.171353	0.661666	
0.393123	0.117954	0.711669	
0.0704482	0.495012	0.571845	
0.0975452	0.490393	0.5	
0.153328	0.47591	0.59237	
0.124929	0.414525	0.5	
-0.152694	-0.476114	0.59754	
-0.0975452	-0.490393	0.5	
-0.126305	-0.416563	0.5	
-0.0698189	-0.495101	0.572379	
0.476114	-0.152694	0.59754	
0.495101	-0.0698189	0.572379	
0.490393	-0.0975452	0.5	
0.416563	-0.126305	0.5	
0.0807477	-0.493437	0.845776	
0.168734	-0.470668	0.798219	
0.0854243	-0.492649	0.748597	
0.108507	-0.396912	0.833758	
0.259808	-0.15	0.5	
0.260383	-0.192244	0.5	
0.304695	-0.194694	0.5	
0.295498	-0.153797	0.576613	
-0.494668	-0.0728232	0.573541	
-0.428192	0.000626804	0.5	
-0.5	0	0.5	
-0.5	0	0.6	
0.476114	-0.152694	0.59754	
0.416563	-0.126305	0.5	
0.46194	-0.191342	0.5	
0.385165	-0.157061	0.580489	
0.130932	-0.431625	0.5	
0.0975452	-0.490393	0.5	
0.0728232	-0.494668	0.573541	
0.0431128	-0.437731	0.5	
0.490343	0.0977967	0.741226	
0.470916	0.168043	0.800126	
0.460548	0.194667	0.73433	
0.393123	0.117954	0.711669	
0.316847	0.386792	0.698616	
0.380873	0.323938	0.652261	
0.376757	0.328716	0.746468	
0.298958	0.273011	0.680114	
-0.270443	0.334367	0.5	
-0.277785	0.415735	0.5	
-0.353553	0.353553	0.5	
-0.3168	0.386831	0.604097	
-0.331361	-0.272953	1	
-0.415735	-0.277785	1	
-0.386476	-0.317233	0.909527	
-0.353553	-0.353553	1	
-0.3	7.34788e-17	0.5	
-0.246202	0.043412	0.5	
-0.289778	0.0776457	0.5	
-0.299226	0.0393938	0.583455	
0.416563	-0.126305	0.5	
0.375572	-0.195731	0.5	
0.46194	-0.191342	0.5	
0.385165	-0.157061	0.580489	
-0.495101	0.0698189	0.572379	
-0.5	0	0.5	
-0.428192	0.000626804	0.5	
-0.5	0	0.6	
0.436762	0.243391	0.596938	
0.415735	0.277785	0.5	
0.46194	0.191342	0.5	
0.369217	0.203769	0.5	
0.113554	0.0989266	0.5	
0.0609049	0.128365	0.5	
0.0535528	0.0702068	0.5	
0.0803667	0.0912248	0.564492	
0.380207	-0.19708	1	
0.46194	-0.191342	1	
0.415735	-0.277785	1	
0.436762	-0.243391	0.903062	
-0.195731	0.375572	0.5	
-0.191342	0.46194	0.5	
-0.277785	0.415735	0.5	
-0.228991	0.444481	0.591901	
0.289778	-0.0776457	0.5	
0.3	-3.67394e-17	0.5	
0.246202	-0.043412	0.5	
0.277454	-0.0417897	0.589806	
0.490393	0.0975452	1	
0.414183	0.131147	1	
0.46194	0.191342	1	
0.476114	0.152694	0.90246	
-0.477948	-0.146853	0.584008	
-0.493315	-0.0814864	0.652319	
-0.468495	-0.174678	0.682891	
-0.392935	-0.114355	0.653897	
0.439458	-0.238488	0.575692	
0.476114	-0.152694	0.59754	
0.46194	-0.191342	0.5	
0.385165	-0.157061	0.580489	
0.268393	-0.334301	1	
0.201164	-0.273578	1	
0.314857	-0.257449	1	
0.250375	-0.286672	0.911571	
-0.374193	0.331632	0.665357	
-0.317206	0.386498	0.700322	
-0.376757	0.328716	0.753532	
-0.303077	0.2787	0.708341	
0.0376566	-0.0505847	0.5	
0.0454237	0.00960241	0.5	
-0.0081622	-0.0144392	0.5	
0.0268659	-0.0185974	0.564249	
-0.351551	0.0541915	0.5	
-0.31598	0.119651	0.5	
-0.368394	0.141973	0.5	
-0.346884	0.118257	0.588594	
0.228991	-0.444481	0.591901	
0.277785	-0.415735	0.5	
0.191342	-0.46194	0.5	
0.203679	-0.368672	0.5	
-0.243391	-0.436762	0.903062	
-0.277785	-0.415735	1	
-0.191342	-0.46194	1	
-0.203173	-0.373024	1	
0.490393	-0.0975452	1	
0.5	0	1	
0.495293	-0.0684459	0.931403	
0.409478	-0.032947	1	
0.317233	-0.386476	0.909527	
0.277785	-0.415735	1	
0.353553	-0.353553	1	
0.268393	-0.334301	1	
-0.325698	-0.286034	0.5	
-0.415735	-0.277785	0.5	
-0.353553	-0.353553	0.5	
-0.386831	-0.3168	0.604097	
-0.273315	0.334955	1	
-0.353553	0.353553	1	
-0.277785	0.415735	1	
-0.317233	0.386476	0.909527	
-0.419906	0.0889586	0.5	
-0.46194	0.191342	0.5	
-0.490393	0.0975452	0.5	
-0.476114	0.152694	0.59754	
-0.450285	0.217356	0.644698	
-0.470916	0.168043	0.699874	
-0.476114	0.152694	0.59754	
-0.384891	0.157961	0.659274	
0.326126	-0.135086	0.5	
0.375572	-0.195731	0.5	
0.416563	-0.126305	0.5	
0.385165	-0.157061	0.580489	
-0.351551	0.0541915	0.5	
-0.3	7.34788e-17	0.5	
-0.289778	0.0776457	0.5	
-0.299226	0.0393938	0.583455	
0.0807477	-0.493437	0.845776	
0.153328	-0.47591	0.90763	
0.168734	-0.470668	0.798219	
0.108507	-0.396912	0.833758	
0.191342	-0.46194	1	
0.153328	-0.47591	0.90763	
0.0975452	-0.490393	1	
0.125573	-0.41396	1	
0.495293	0.0684459	0.568597	
0.431625	0.130932	0.5	
0.490393	0.0975452	0.5	
0.437731	0.0431128	0.5	
-0.46194	-0.191342	1	
-0.440961	-0.235698	0.931431	
-0.356684	-0.19351	1	
-0.415735	-0.277785	1	
-0.0975452	0.490393	0.5	
-0.191342	0.46194	0.5	
-0.124938	0.414491	0.5	
-0.146853	0.477948	0.584008	
-0.41072	-0.12459	1	
-0.490393	-0.0975452	1	
-0.47591	-0.153328	0.90763	
-0.46194	-0.191342	1	
-0.490393	0.0975452	0.5	
-0.495101	0.0698189	0.572379	
-0.419906	0.0889586	0.5	
-0.476114	0.152694	0.59754	
0.46194	0.191342	1	
0.439458	0.238488	0.924308	
0.373926	0.198925	1	
0.415735	0.277785	1	
0.439458	-0.238488	0.575692	
0.46194	-0.191342	0.5	
0.415735	-0.277785	0.5	
0.375572	-0.195731	0.5	
-0.5	0	1	
-0.401548	-0.0423374	1	
-0.490393	-0.0975452	1	
-0.495012	-0.0704482	0.928155	
0.490393	-0.0975452	0.5	
0.46194	-0.191342	0.5	
0.476114	-0.152694	0.59754	
0.416563	-0.126305	0.5	
0.153328	0.47591	0.59237	
0.0975452	0.490393	0.5	
0.191342	0.46194	0.5	
0.124929	0.414525	0.5	
-0.469721	0.171353	0.838334	
-0.490343	0.0977967	0.758774	
-0.460548	0.194667	0.76567	
-0.388856	0.122276	0.792585	
-0.323938	-0.380873	0.847739	
-0.328716	-0.376757	0.753532	
-0.386792	-0.316847	0.801384	
-0.290901	-0.287972	0.800889	
0.450285	-0.217356	0.644698	
0.476114	-0.152694	0.59754	
0.439458	-0.238488	0.575692	
0.385165	-0.157061	0.580489	
0.0404524	-0.41072	1	
0.0975452	-0.490393	1	
0	-0.5	1	
0.0704482	-0.495012	0.928155	
0.3168	-0.386831	0.604097	
0.353553	-0.353553	0.5	
0.277785	-0.415735	0.5	
0.29185	-0.325871	0.5	
-0.46194	0.191342	1	
-0.436762	0.243391	0.903062	
-0.415735	0.277785	1	
-0.389036	0.207425	1	
0.428195	-0.258165	0.798245	
0.469721	-0.171353	0.838334	
0.460548	-0.194667	0.76567	
0.375849	-0.159302	0.804904	
-0.419906	0.0889586	0.5	
-0.351551	0.0541915	0.5	
-0.368394	0.141973	0.5	
-0.346884	0.118257	0.588594	
-0.444481	-0.228991	0.591901	
-0.415735	-0.277785	0.5	
-0.46194	-0.191342	0.5	
-0.363128	-0.216258	0.5	
-0.144862	-0.478555	0.921652	
-0.0975452	-0.490393	1	
-0.114467	-0.386332	1	
-0.191342	-0.46194	1	
-0.126305	-0.416563	0.5	
-0.191342	-0.46194	0.5	
-0.0975452	-0.490393	0.5	
-0.152694	-0.476114	0.59754	
0.366186	-0.0790357	0.5	
0.432186	-0.0442266	0.5	
0.363012	-0.0152603	0.5	
0.390858	-0.0458412	0.581997	
-0.439458	0.238488	0.575692	
-0.46194	0.191342	0.5	
-0.415735	0.277785	0.5	
-0.363589	0.21739	0.5	
-0.0704482	0.495012	0.928155	
0	0.5	1	
-0.0975452	0.490393	1	
-0.0372406	0.417791	1	
0.490343	0.0977967	0.741226	
0.460548	0.194667	0.73433	
0.469721	0.171353	0.661666	
0.393123	0.117954	0.711669	
0.386505	-0.317197	0.931175	
0.314857	-0.257449	1	
0.353553	-0.353553	1	
0.415735	-0.277785	1	
-0.5	0	0.5	
-0.490393	-0.0975452	0.5	
-0.428192	0.000626804	0.5	
-0.494668	-0.0728232	0.573541	
-0.0728232	0.494668	0.573541	
-0.0975452	0.490393	0.5	
0	0.5	0.5	
-0.0426444	0.431636	0.5	
0.202324	0.378521	1	
0.228991	0.444481	0.908099	
0.191342	0.46194	1	
0.277785	0.415735	1	
0.495101	0.0698189	0.927621	
0.414991	0.0495125	1	
0.5	0	1	
0.490393	0.0975452	1	
-0.353553	0.353553	1	
-0.318983	0.261743	1	
-0.415735	0.277785	1	
-0.386505	0.317197	0.931175	
-0.277785	-0.415735	1	
-0.353553	-0.353553	1	
-0.263582	-0.319413	1	
-0.317197	-0.386505	0.931175	
-0.428192	0.000626804	0.5	
-0.490393	0.0975452	0.5	
-0.5	0	0.5	
-0.495101	0.0698189	0.572379	
0.270443	0.334367	0.5	
0.353553	0.353553	0.5	
0.277785	0.415735	0.5	
0.317233	0.386476	0.590473	
0.490393	-0.0975452	1	
0.478555	-0.144862	0.921652	
0.46194	-0.191342	1	
0.394936	-0.119803	1	
-0.277785	-0.415735	0.5	
-0.191342	-0.46194	0.5	
-0.195731	-0.375572	0.5	
-0.238488	-0.439458	0.575692	
0.146853	-0.477948	0.584008	
0.0975452	-0.490393	0.5	
0.0728232	-0.494668	0.573541	
0.130932	-0.431625	0.5	
0.191342	-0.46194	1	
0.235698	-0.440961	0.931431	
0.194604	-0.371188	1	
0.277785	-0.415735	1	
-0.490393	-0.0975452	0.5	
-0.419906	-0.0889586	0.5	
-0.428192	0.000626804	0.5	
-0.494668	-0.0728232	0.573541	
0.415735	-0.277785	0.5	
0.353553	-0.353553	0.5	
0.388274	-0.315029	0.579193	
0.334367	-0.270443	0.5	
-0.419906	-0.0889586	0.5	
-0.490393	-0.0975452	0.5	
-0.46194	-0.191342	0.5	
-0.477948	-0.146853	0.584008	
-0.495293	0.0684459	0.931403	
-0.490393	0.0975452	1	
-0.5	0	1	
-0.426463	0.0441363	1	
-0.495101	0.0698189	0.572379	
-0.428192	0.000626804	0.5	
-0.490393	0.0975452	0.5	
-0.419906	0.0889586	0.5	
-0.235698	0.440961	0.931431	
-0.191342	0.46194	1	
-0.277785	0.415735	1	
-0.201912	0.369986	1	
0.259808	-0.15	0.5	
0.304695	-0.194694	0.5	
0.326126	-0.135086	0.5	
0.295498	-0.153797	0.576613	
0.146853	-0.477948	0.584008	
0.191342	-0.46194	0.5	
0.0975452	-0.490393	0.5	
0.130932	-0.431625	0.5	
-0.404541	0.126945	1	
-0.46194	0.191342	1	
-0.478555	0.144862	0.921652	
-0.490393	0.0975452	1	
-0.415735	0.277785	0.5	
-0.353553	0.353553	0.5	
-0.388274	0.315029	0.579193	
-0.325943	0.285613	0.5	
-0.353553	-0.353553	0.5	
-0.277785	-0.415735	0.5	
-0.270443	-0.334367	0.5	
-0.315029	-0.388274	0.579193	
0.328092	0.270243	1	
0.415735	0.277785	1	
0.388274	0.315029	0.920807	
0.353553	0.353553	1	
0.0704482	0.495012	0.571845	
0	0.5	0.5	
0.0975452	0.490393	0.5	
0.042537	0.432039	0.5	
0.490393	0.0975452	0.5	
0.478555	0.144862	0.578348	
0.431625	0.130932	0.5	
0.495293	0.0684459	0.568597	
0.0728232	0.494668	0.926459	
0	0.5	1	
0.0420691	0.427134	1	
0.0975452	0.490393	1	
0.0975452	-0.490393	0.5	
0	-0.5	0.5	
0.0728232	-0.494668	0.573541	
0.0431128	-0.437731	0.5	
-0.419906	-0.0889586	0.5	
-0.490393	-0.0975452	0.5	
-0.477948	-0.146853	0.584008	
-0.494668	-0.0728232	0.573541	
0.495101	-0.0698189	0.572379	
0.5	0	0.5	
0.490393	-0.0975452	0.5	
0.432186	-0.0442266	0.5	
0.235698	0.440961	0.568569	
0.191342	0.46194	0.5	
0.277785	0.415735	0.5	
0.195731	0.375572	0.5	
-0.0975452	-0.490393	0.5	
0	-0.5	0.5	
-0.0442266	-0.432186	0.5	
-0.0698189	-0.495101	0.572379	
-0.0422582	-0.437473	1	
-0.0684459	-0.495293	0.931403	
0	-0.5	1	
-0.0975452	-0.490393	1	
0.495293	0.0684459	0.568597	
0.490393	0.0975452	0.5	
0.5	0	0.5	
0.437731	0.0431128	0.5	
0.415735	0.277785	0.5	
0.353553	0.353553	0.5	
0.325794	0.291996	0.5	
0.386505	0.317197	0.568825	
0.46194	0.191342	0.5	
0.490393	0.0975452	0.5	
0.478555	0.144862	0.578348	
0.431625	0.130932	0.5	
-0.307152	-0.222724	0.726676	
-0.470668	-0.168734	0.798219	
-0.437078	-0.242822	0.847009	
-0.351812	-0.111075	0.861116	
-0.307152	-0.222724	0.726676	
-0.437078	-0.242822	0.847009	
-0.470668	-0.168734	0.798219	
-0.434698	-0.247057	0.749501	
0.149744	-0.0894982	0.564748	
0.0682711	-0.052186	0.660923	
0.0543934	-0.098021	0.585709	
0.128497	-0.139894	0.612276	
0.149744	-0.0894982	0.564748	
0.0543934	-0.098021	0.585709	
0.0682711	-0.052186	0.660923	
0.0965515	-0.0251853	0.583435	
0.393123	0.117954	0.711669	
0.349701	0.023511	0.844749	
0.5	0	0.8	
0.385025	0.1139	0.812458	
0.393123	0.117954	0.711669	
0.5	0	0.8	
0.349701	0.023511	0.844749	
0.376828	0.00465276	0.670748	
0.141859	0.360078	0.864623	
0.284059	0.282644	0.778361	
0.124154	0.245419	0.824268	
0.215007	0.321027	0.704259	
0.124154	0.245419	0.824268	
0.284059	0.282644	0.778361	
0.141859	0.360078	0.864623	
0.237861	0.283786	0.876325	
0.346509	0.0237889	1	
0.370295	0.150924	0.906655	
0.245664	0.104793	0.903539	
0.337634	0.115561	1	
0.245664	0.104793	0.903539	
0.370295	0.150924	0.906655	
0.346509	0.0237889	1	
0.349701	0.023511	0.844749	
-0.175601	0.220525	0.5	
-0.159007	0.150563	0.559172	
-0.210645	0.180174	0.5	
-0.161262	0.177195	0.5	
-0.210645	0.180174	0.5	
-0.159007	0.150563	0.559172	
-0.175601	0.220525	0.5	
-0.1997	0.206062	0.577949	
0.371732	-0.09396	0.880254	
0.5	0	0.8	
0.5	0	0.9	
0.493389	-0.0810399	0.85285	
0.371732	-0.09396	0.880254	
0.5	0	0.9	
0.5	0	0.8	
0.349701	0.023511	0.844749	
-0.202396	0.33987	0.890246	
-0.380873	0.323938	0.847739	
-0.316847	0.386792	0.801384	
-0.262727	0.245322	0.796513	
-0.202396	0.33987	0.890246	
-0.316847	0.386792	0.801384	
-0.380873	0.323938	0.847739	
-0.317233	0.386476	0.909527	
0.245664	0.104793	0.903539	
0.346509	0.0237889	1	
0.283042	-0.0276105	0.90443	
0.349701	0.023511	0.844749	
0.245664	0.104793	0.903539	
0.283042	-0.0276105	0.90443	
0.346509	0.0237889	1	
0.276476	0.0535537	1	
-0.222536	0.133159	0.91035	
-0.337562	0.0547633	1	
-0.237047	0.0201392	1	
-0.257956	0.116321	1	
-0.222536	0.133159	0.91035	
-0.237047	0.0201392	1	
-0.337562	0.0547633	1	
-0.29588	0.00863916	0.858008	
-0.24121	-0.14299	0.745605	
-0.247755	-0.0727414	0.89259	
-0.351812	-0.111075	0.861116	
-0.24957	-0.20227	0.837053	
-0.24121	-0.14299	0.745605	
-0.351812	-0.111075	0.861116	
-0.247755	-0.0727414	0.89259	
-0.257157	-0.0458854	0.782759	
-0.160124	0.0403748	0.589251	
-0.166581	-0.0467287	0.5	
-0.208135	-0.0860903	0.586046	
-0.196783	0.00504363	0.5	
-0.160124	0.0403748	0.589251	
-0.208135	-0.0860903	0.586046	
-0.166581	-0.0467287	0.5	
-0.122493	-0.0457662	0.591275	
0.495101	0.0698189	0.927621	
0.385025	0.1139	0.812458	
0.476114	0.152694	0.90246	
0.493012	0.0833019	0.844789	
0.476114	0.152694	0.90246	
0.385025	0.1139	0.812458	
0.495101	0.0698189	0.927621	
0.370295	0.150924	0.906655	
-0.222536	0.133159	0.91035	
-0.337562	0.0547633	1	
-0.328307	0.16356	1	
-0.295069	0.107196	0.837498	
-0.222536	0.133159	0.91035	
-0.328307	0.16356	1	
-0.337562	0.0547633	1	
-0.257956	0.116321	1	
-0.318983	0.261743	1	
-0.317233	0.386476	0.909527	
-0.353553	0.353553	1	
-0.273315	0.334955	1	
-0.353553	0.353553	1	
-0.317233	0.386476	0.909527	
-0.318983	0.261743	1	
-0.386505	0.317197	0.931175	
-0.0939263	0.178211	0.579293	
-0.00447954	0.190881	0.5	
-0.043412	0.246202	0.5	
0.00262968	0.233117	0.59891	
-0.0939263	0.178211	0.579293	
-0.043412	0.246202	0.5	
-0.00447954	0.190881	0.5	
-0.067279	0.181403	0.5	
0.289778	0.0776457	0.5	
0.399716	0.0593288	0.591749	
0.3	-3.67394e-17	0.5	
0.363184	0.0579886	0.5	
0.3	-3.67394e-17	0.5	
0.399716	0.0593288	0.591749	
0.289778	0.0776457	0.5	
0.245674	0.0465287	0.605115	
-0.392935	-0.114355	0.653897	
-0.307152	-0.222724	0.726676	
-0.293675	-0.122789	0.650858	
-0.358174	-0.0931631	0.744866	
-0.392935	-0.114355	0.653897	
-0.293675	-0.122789	0.650858	
-0.307152	-0.222724	0.726676	
-0.350556	-0.203398	0.639466	
-0.434698	-0.247057	0.749501	
-0.392935	-0.114355	0.653897	
-0.350556	-0.203398	0.639466	
-0.468495	-0.174678	0.682891	
-0.350556	-0.203398	0.639466	
-0.392935	-0.114355	0.653897	
-0.434698	-0.247057	0.749501	
-0.307152	-0.222724	0.726676	
-0.356684	-0.19351	1	
-0.47591	-0.153328	0.90763	
-0.46194	-0.191342	1	
-0.41072	-0.12459	1	
-0.46194	-0.191342	1	
-0.47591	-0.153328	0.90763	
-0.356684	-0.19351	1	
-0.440961	-0.235698	0.931431	
0.15	-0.259808	0.5	
0.0645865	-0.210943	0.590313	
0.165128	-0.182854	0.566814	
0.125	-0.216506	0.5	
0.165128	-0.182854	0.566814	
0.0645865	-0.210943	0.590313	
0.15	-0.259808	0.5	
0.128689	-0.272515	0.631723	
0.365268	-0.183537	0.674475	
0.493012	-0.0833019	0.655211	
0.356094	-0.0732678	0.7583	
0.470916	-0.168043	0.699874	
0.365268	-0.183537	0.674475	
0.356094	-0.0732678	0.7583	
0.493012	-0.0833019	0.655211	
0.338019	-0.101245	0.632718	
-0.358174	-0.0931631	0.744866	
-0.405387	0.0525253	0.685554	
-0.303266	-0.0059886	0.701726	
-0.373013	-0.0200173	0.628673	
-0.303266	-0.0059886	0.701726	
-0.405387	0.0525253	0.685554	
-0.358174	-0.0931631	0.744866	
-0.371727	0.0207537	0.771598	
-0.24121	-0.14299	0.745605	
-0.303266	-0.0059886	0.701726	
-0.358174	-0.0931631	0.744866	
-0.257157	-0.0458854	0.782759	
-0.358174	-0.0931631	0.744866	
-0.303266	-0.0059886	0.701726	
-0.24121	-0.14299	0.745605	
-0.293675	-0.122789	0.650858	
0.263974	-0.284246	0.810467	
0.317206	-0.386498	0.700322	
0.247057	-0.434698	0.749501	
0.229446	-0.281388	0.703137	
0.263974	-0.284246	0.810467	
0.247057	-0.434698	0.749501	
0.317206	-0.386498	0.700322	
0.316847	-0.386792	0.801384	
-0.096592	-0.0392798	0.774507	
-0.113733	0.0934406	0.798152	
-0.187544	0.023283	0.887465	
-0.0619448	0.0316562	0.830282	
-0.187544	0.023283	0.887465	
-0.113733	0.0934406	0.798152	
-0.096592	-0.0392798	0.774507	
-0.16493	0.0307641	0.766812	
-0.220027	0.322099	0.738771	
-0.243141	0.175788	0.70528	
-0.303077	0.2787	0.708341	
-0.222708	0.258636	0.655001	
-0.303077	0.2787	0.708341	
-0.243141	0.175788	0.70528	
-0.220027	0.322099	0.738771	
-0.262727	0.245322	0.796513	
0.0733876	-0.0824124	0.5	
0.0268659	-0.0185974	0.564249	
0.0854359	-0.0267855	0.5	
0.0376566	-0.0505847	0.5	
0.0854359	-0.0267855	0.5	
0.0268659	-0.0185974	0.564249	
0.0733876	-0.0824124	0.5	
0.0965515	-0.0251853	0.583435	
-0.0810226	-0.0861052	0.668473	
-0.179806	-0.00389189	0.693003	
-0.096592	-0.0392798	0.774507	
-0.104054	0.0128374	0.663816	
-0.096592	-0.0392798	0.774507	
-0.179806	-0.00389189	0.693003	
-0.0810226	-0.0861052	0.668473	
-0.161265	-0.08127	0.716218	
-0.478555	0.144862	0.921652	
-0.388856	0.122276	0.792585	
-0.493389	0.0810399	0.85285	
-0.469721	0.171353	0.838334	
-0.493389	0.0810399	0.85285	
-0.388856	0.122276	0.792585	
-0.478555	0.144862	0.921652	
-0.384543	0.0457703	0.887922	
0.363012	-0.0152603	0.5	
0.277454	-0.0417897	0.589806	
0.399716	0.0593288	0.591749	
0.3	-3.67394e-17	0.5	
0.363012	-0.0152603	0.5	
0.399716	0.0593288	0.591749	
0.277454	-0.0417897	0.589806	
0.390858	-0.0458412	0.581997	
-0.0688906	-0.12049	0.582378	
-0.167688	-0.179794	0.560998	
-0.149626	-0.106257	0.5	
-0.113226	-0.140086	0.5	
-0.149626	-0.106257	0.5	
-0.167688	-0.179794	0.560998	
-0.0688906	-0.12049	0.582378	
-0.142736	-0.147946	0.615788	
0.118003	-0.110167	0.68636	
0.000554419	-0.0943553	0.688478	
0.0259112	-0.0811505	0.774009	
0.0682711	-0.052186	0.660923	
0.118003	-0.110167	0.68636	
0.0259112	-0.0811505	0.774009	
0.000554419	-0.0943553	0.688478	
0.0565057	-0.147787	0.722206	
-0.122368	-0.153617	0.697369	
-0.188087	-0.23341	0.686349	
-0.17146	-0.257962	0.580515	
-0.0741769	-0.222661	0.70095	
-0.17146	-0.257962	0.580515	
-0.188087	-0.23341	0.686349	
-0.122368	-0.153617	0.697369	
-0.142736	-0.147946	0.615788	
-0.17146	-0.257962	0.580515	
-0.0782828	-0.218112	0.590988	
-0.122368	-0.153617	0.697369	
-0.0741769	-0.222661	0.70095	
-0.122368	-0.153617	0.697369	
-0.0782828	-0.218112	0.590988	
-0.17146	-0.257962	0.580515	
-0.142736	-0.147946	0.615788	
0.250375	-0.286672	0.911571	
0.198682	-0.135756	0.90724	
0.201164	-0.273578	1	
0.245477	-0.191651	1	
0.250375	-0.286672	0.911571	
0.201164	-0.273578	1	
0.198682	-0.135756	0.90724	
0.185145	-0.220341	0.859684	
0.164797	-0.177585	1	
0.201164	-0.273578	1	
0.198682	-0.135756	0.90724	
0.245477	-0.191651	1	
0.164797	-0.177585	1	
0.198682	-0.135756	0.90724	
0.201164	-0.273578	1	
0.185145	-0.220341	0.859684	
0.249893	-0.118387	0.700681	
0.295498	-0.153797	0.576613	
0.365268	-0.183537	0.674475	
0.236451	-0.193336	0.622526	
0.365268	-0.183537	0.674475	
0.295498	-0.153797	0.576613	
0.249893	-0.118387	0.700681	
0.338019	-0.101245	0.632718	
0.490343	-0.0977967	0.758774	
0.376828	0.00465276	0.670748	
0.5	0	0.8	
0.5	0	0.7	
0.5	0	0.8	
0.376828	0.00465276	0.670748	
0.490343	-0.0977967	0.758774	
0.356094	-0.0732678	0.7583	
-0.0203138	0.116891	0.566619	
-0.067279	0.181403	0.5	
-0.0892693	0.13018	0.5	
-0.0939263	0.178211	0.579293	
-0.0203138	0.116891	0.566619	
-0.0892693	0.13018	0.5	
-0.067279	0.181403	0.5	
-0.0305981	0.141799	0.5	
0.184871	-0.357405	0.649244	
0.317206	-0.386498	0.700322	
0.247057	-0.434698	0.749501	
0.25658	-0.429146	0.66876	
0.184871	-0.357405	0.649244	
0.247057	-0.434698	0.749501	
0.317206	-0.386498	0.700322	
0.229446	-0.281388	0.703137	
-0.295665	-0.266599	0.586027	
-0.215641	-0.22714	0.5	
-0.17146	-0.257962	0.580515	
-0.248409	-0.277977	0.5	
-0.295665	-0.266599	0.586027	
-0.17146	-0.257962	0.580515	
-0.215641	-0.22714	0.5	
-0.230141	-0.201516	0.598323	
0.0473369	0.0172976	0.690385	
0.0831208	-0.00188727	0.757361	
0.0259112	-0.0811505	0.774009	
0.0682711	-0.052186	0.660923	
0.0259112	-0.0811505	0.774009	
0.0831208	-0.00188727	0.757361	
0.0473369	0.0172976	0.690385	
-0.0136448	-0.0115771	0.733329	
0.0259112	-0.0811505	0.774009	
0.000554419	-0.0943553	0.688478	
0.0473369	0.0172976	0.690385	
0.0682711	-0.052186	0.660923	
0.0473369	0.0172976	0.690385	
0.000554419	-0.0943553	0.688478	
0.0259112	-0.0811505	0.774009	
-0.0136448	-0.0115771	0.733329	
0.385165	-0.157061	0.580489	
0.493012	-0.0833019	0.655211	
0.365268	-0.183537	0.674475	
0.476114	-0.152694	0.59754	
0.385165	-0.157061	0.580489	
0.365268	-0.183537	0.674475	
0.493012	-0.0833019	0.655211	
0.338019	-0.101245	0.632718	
0.284059	0.282644	0.778361	
0.247057	0.434698	0.750499	
0.316847	0.386792	0.698616	
0.215007	0.321027	0.704259	
0.284059	0.282644	0.778361	
0.316847	0.386792	0.698616	
0.247057	0.434698	0.750499	
0.317206	0.386498	0.799678	
-0.0516032	-0.38053	0.763919	
-0.194667	-0.460548	0.76567	
-0.168043	-0.470916	0.699874	
-0.0977967	-0.490343	0.758774	
-0.0516032	-0.38053	0.763919	
-0.168043	-0.470916	0.699874	
-0.194667	-0.460548	0.76567	
-0.162672	-0.339378	0.750157	
-0.405387	0.0525253	0.685554	
-0.476114	0.152694	0.59754	
-0.495101	0.0698189	0.572379	
-0.493012	0.0833019	0.655211	
-0.405387	0.0525253	0.685554	
-0.495101	0.0698189	0.572379	
-0.476114	0.152694	0.59754	
-0.346884	0.118257	0.588594	
0.399716	0.0593288	0.591749	
0.289778	0.0776457	0.5	
0.364062	0.132817	0.5	
0.363184	0.0579886	0.5	
0.399716	0.0593288	0.591749	
0.364062	0.132817	0.5	
0.289778	0.0776457	0.5	
0.325802	0.106737	0.636954	
-0.392935	-0.114355	0.653897	
-0.444481	-0.228991	0.591901	
-0.364062	-0.132817	0.5	
-0.350556	-0.203398	0.639466	
-0.392935	-0.114355	0.653897	
-0.364062	-0.132817	0.5	
-0.444481	-0.228991	0.591901	
-0.477948	-0.146853	0.584008	
0.393123	0.117954	0.711669	
0.428195	0.258165	0.701755	
0.320995	0.210811	0.605402	
0.335831	0.198146	0.73463	
0.393123	0.117954	0.711669	
0.320995	0.210811	0.605402	
0.428195	0.258165	0.701755	
0.469721	0.171353	0.661666	
0.245664	0.104793	0.903539	
0.158056	0.171884	1	
0.231243	0.24169	1	
0.150575	0.144679	0.883538	
0.245664	0.104793	0.903539	
0.231243	0.24169	1	
0.158056	0.171884	1	
0.247868	0.146306	1	
0.125573	-0.41396	1	
0.235698	-0.440961	0.931431	
0.162257	-0.333773	0.890843	
0.194604	-0.371188	1	
0.125573	-0.41396	1	
0.162257	-0.333773	0.890843	
0.235698	-0.440961	0.931431	
0.153328	-0.47591	0.90763	
0.212248	-0.110857	0.594534	
0.18228	-0.160584	0.5	
0.221044	-0.17499	0.5	
0.165128	-0.182854	0.566814	
0.212248	-0.110857	0.594534	
0.221044	-0.17499	0.5	
0.18228	-0.160584	0.5	
0.216506	-0.125	0.5	
-0.126305	-0.416563	0.5	
-0.238488	-0.439458	0.575692	
-0.108579	-0.348279	0.636398	
-0.195731	-0.375572	0.5	
-0.108579	-0.348279	0.636398	
-0.238488	-0.439458	0.575692	
-0.126305	-0.416563	0.5	
-0.152694	-0.476114	0.59754	
0.151755	0.0498946	0.914333	
0.276476	0.0535537	1	
0.283042	-0.0276105	0.90443	
0.245664	0.104793	0.903539	
0.151755	0.0498946	0.914333	
0.283042	-0.0276105	0.90443	
0.276476	0.0535537	1	
0.210156	-0.0147965	1	
0.184871	-0.357405	0.649244	
0.3168	-0.386831	0.604097	
0.317206	-0.386498	0.700322	
0.25658	-0.429146	0.66876	
0.184871	-0.357405	0.649244	
0.317206	-0.386498	0.700322	
0.3168	-0.386831	0.604097	
0.251869	-0.294586	0.601969	
0.0473696	0.155243	0.576019	
0.043412	0.246202	0.5	
-0.00447954	0.190881	0.5	
0.00262968	0.233117	0.59891	
0.0473696	0.155243	0.576019	
-0.00447954	0.190881	0.5	
0.043412	0.246202	0.5	
0.0594834	0.18279	0.5	
0.0999474	-0.256123	0.897299	
0.0712814	-0.153152	1	
0.164797	-0.177585	1	
0.103648	-0.156441	0.895396	
0.0999474	-0.256123	0.897299	
0.164797	-0.177585	1	
0.0712814	-0.153152	1	
0.0943468	-0.245334	1	
0.331523	0.239691	0.896553	
0.261819	0.319027	1	
0.231243	0.24169	1	
0.328092	0.270243	1	
0.331523	0.239691	0.896553	
0.231243	0.24169	1	
0.261819	0.319027	1	
0.237861	0.283786	0.876325	
0.316563	-0.261412	0.680038	
0.3168	-0.386831	0.604097	
0.388274	-0.315029	0.579193	
0.374193	-0.331632	0.665357	
0.316563	-0.261412	0.680038	
0.388274	-0.315029	0.579193	
0.3168	-0.386831	0.604097	
0.251869	-0.294586	0.601969	
0.331891	-0.227727	0.595789	
0.415735	-0.277785	0.5	
0.375572	-0.195731	0.5	
0.439458	-0.238488	0.575692	
0.331891	-0.227727	0.595789	
0.375572	-0.195731	0.5	
0.415735	-0.277785	0.5	
0.334367	-0.270443	0.5	
0.393123	0.117954	0.711669	
0.5	0	0.7	
0.5	0	0.8	
0.376828	0.00465276	0.670748	
0.393123	0.117954	0.711669	
0.5	0	0.8	
0.5	0	0.7	
0.490343	0.0977967	0.741226	
0.316563	-0.261412	0.680038	
0.388274	-0.315029	0.579193	
0.415735	-0.277785	0.634138	
0.374193	-0.331632	0.665357	
0.316563	-0.261412	0.680038	
0.415735	-0.277785	0.634138	
0.388274	-0.315029	0.579193	
0.331891	-0.227727	0.595789	
0.0999474	-0.256123	0.897299	
0.00183684	-0.222331	1	
0.0248177	-0.313374	1	
0.0943468	-0.245334	1	
0.0999474	-0.256123	0.897299	
0.0248177	-0.313374	1	
0.00183684	-0.222331	1	
-0.0124705	-0.26219	0.899433	
-0.328462	-0.228271	0.903506	
-0.415735	-0.277785	1	
-0.356684	-0.19351	1	
-0.440961	-0.235698	0.931431	
-0.328462	-0.228271	0.903506	
-0.356684	-0.19351	1	
-0.415735	-0.277785	1	
-0.331361	-0.272953	1	
CELLS 5769 28845
4	0	1	2	3	
4	4	5	6	7	
4	8	9	10	11	
4	12	13	14	15	
4	16	17	18	19	
4	20	21	22	23	
4	24	25	26	27	
4	28	29	30	31	
4	32	33	34	35	
4	36	37	38	39	
4	40	41	42	43	
4	44	45	46	47	
4	48	49	50	51	
4	52	53	54	55	
4	56	57	58	59	
4	60	61	62	63	
4	64	65	66	67	
4	68	69	70	71	
4	72	73	74	75	
4	76	77	78	79	
4	80	81	82	83	
4	84	85	86	87	
4	88	89	90	91	
4	92	93	94	95	
4	96	97	98	99	
4	100	101	102	103	
4	104	105	106	107	
4	108	109	110	111	
4	112	113	114	115	
4	116	117	118	119	
4	120	121	122	123	
4	124	125	126	127	
4	128	129	130	131	
4	132	133	134	135	
4	136	137	138	139	
4	140	141	142	143	
4	144	145	146	147	
4	148	149	150	151	
4	152	153	154	155	
4	156	157	158	159	
4	160	161	162	163	
4	164	165	166	167	
4	168	169	170	171	
4	172	173	174	175	
4	176	177	178	179	
4	180	181	182	183	
4	184	185	186	187	
4	188	189	190	191	
4	192	193	194	195	
4	196	197	198	199	
4	200	201	202	203	
4	204	205	206	207	
4	208	209	210	211	
4	212	213	214	215	
4	216	217	218	219	
4	220	221	222	223	
4	224	225	226	227	
4	228	229	230	231	
4	232	233	234	235	
4	236	237	238	239	
4	240	241	242	243	
4	244	245	246	247	
4	248	249	250	251	
4	252	253	254	255	
4	256	257	258	259	
4	260	261	262	263	
4	264	265	266	267	
4	268	269	270	271	
4	272	273	274	275	
4	276	277	278	279	
4	280	281	282	283	
4	284	285	286	287	
4	288	289	290	291	
4	292	293	294	295	
4	296	297	298	299	
4	300	301	302	303	
4	304	305	306	307	
4	308	309	310	311	
4	312	313	314	315	
4	316	317	318	319	
4	320	321	322	323	
4	324	325	326	327	
4	328	329	330	331	
4	332	333	334	335	
4	336	337	338	339	
4	340	341	342	343	
4	344	345	346	347	
4	348	349	350	351	
4	352	353	354	355	
4	356	357	358	359	
4	360	361	362	363	
4	364	365	366	367	
4	368	369	370	371	
4	372	373	374	375	
4	376	377	378	379	
4	380	381	382	383	
4	384	385	386	387	
4	388	389	390	391	
4	392	393	394	395	
4	396	397	398	399	
4	400	401	402	403	
4	404	405	406	407	
4	408	409	410	411	
4	412	413	414	415	
4	416	417	418	419	
4	420	421	422	423	
4	424	425	426	427	
4	428	429	430	431	
4	432	433	434	435	
4	436	437	438	439	
4	440	441	442	443	
4	444	445	446	447	
4	448	449	450	451	
4	452	453	454	455	
4	456	457	458	459	
4	460	461	462	463	
4	464	465	466	467	
4	468	469	470	471	
4	472	473	474	475	
4	476	477	478	479	
4	480	481	482	483	
4	484	485	486	487	
4	488	489	490	491	
4	492	493	494	495	
4	496	497	498	499	
4	500	501	502	503	
4	504	505	506	507	
4	508	509	510	511	
4	512	513	514	515	
4	516	517	518	519	
4	520	521	522	523	
4	524	525	526	527	
4	528	529	530	531	
4	532	533	534	535	
4	536	537	538	539	
4	540	541	542	543	
4	544	545	546	547	
4	548	549	550	551	
4	552	553	554	555	
4	556	557	558	559	
4	560	561	562	563	
4	564	565	566	567	
4	568	569	570	571	
4	572	573	574	575	
4	576	577	578	579	
4	580	581	582	583	
4	584	585	586	587	
4	588	589	590	591	
4	592	593	594	595	
4	596	597	598	599	
4	600	601	602	603	
4	604	605	606	607	
4	608	609	610	611	
4	612	613	614	615	
4	616	617	618	619	
4	620	621	622	623	
4	624	625	626	627	
4	628	629	630	631	
4	632	633	634	635	
4	636	637	638	639	
4	640	641	642	643	
4	644	645	646	647	
4	648	649	650	651	
4	652	653	654	655	
4	656	657	658	659	
4	660	661	662	663	
4	664	665	666	667	
4	668	669	670	671	
4	672	673	674	675	
4	676	677	678	679	
4	680	681	682	683	
4	684	685	686	687	
4	688	689	690	691	
4	692	693	694	695	
4	696	697	698	699	
4	700	701	702	703	
4	704	705	706	707	
4	708	709	710	711	
4	712	713	714	715	
4	716	717	718	719	
4	720	721	722	723	
4	724	725	726	727	
4	728	729	730	731	
4	732	733	734	735	
4	736	737	738	739	
4	740	741	742	743	
4	744	745	746	747	
4	748	749	750	751	
4	752	753	754	755	
4	756	757	758	759	
4	760	761	762	763	
4	764	765	766	767	
4	768	769	770	771	
4	772	773	774	775	
4	776	777	778	779	
4	780	781	782	783	
4	784	785	786	787	
4	788	789	790	791	
4	792	793	794	795	
4	796	797	798	799	
4	800	801	802	803	
4	804	805	806	807	
4	808	809	810	811	
4	812	813	814	815	
4	816	817	818	819	
4	820	821	822	823	
4	824	825	826	827	
4	828	829	830	831	
4	832	833	834	835	
4	836	837	838	839	
4	840	841	842	843	
4	844	845	846	847	
4	848	849	850	851	
4	852	853	854	855	
4	856	857	858	859	
4	860	861	862	863	
4	864	865	866	867	
4	868	869	870	871	
4	872	873	874	875	
4	876	877	878	879	
4	880	881	882	883	
4	884	885	886	887	
4	888	889	890	891	
4	892	893	894	895	
4	896	897	898	899	
4	900	901	902	903	
4	904	905	906	907	
4	908	909	910	911	
4	912	913	914	915	
4	916	917	918	919	
4	920	921	922	923	
4	924	925	926	927	
4	928	929	930	931	
4	932	933	934	935	
4	936	937	938	939	
4	940	941	942	943	
4	944	945	946	947	
4	948	949	950	951	
4	952	953	954	955	
4	956	957	958	959	
4	960	961	962	963	
4	964	965	966	967	
4	968	969	970	971	
4	972	973	974	975	
4	976	977	978	979	
4	980	981	982	983	
4	984	985	986	987	
4	988	989	990	991	
4	992	993	994	995	
4	996	997	998	999	
4	1000	1001	1002	1003	
4	1004	1005	1006	1007	
4	1008	1009	1010	1011	
4	1012	1013	1014	1015	
4	1016	1017	1018	1019	
4	1020	1021	1022	1023	
4	1024	1025	1026	1027	
4	1028	1029	1030	1031	
4	1032	1033	1034	1035	
4	1036	1037	1038	1039	
4	1040	1041	1042	1043	
4	1044	1045	1046	1047	
4	1048	1049	1050	1051	
4	1052	1053	1054	1055	
4	1056	1057	1058	1059	
4	1060	1061	1062	1063	
4	1064	1065	1066	1067	
4	1068	1069	1070	1071	
4	1072	1073	1074	1075	
4	1076	1077	1078	1079	
4	1080	1081	1082	1083	
4	1084	1085	1086	1087	
4	1088	1089	1090	1091	
4	1092	1093	1094	1095	
4	1096	1097	1098	1099	
4	1100	1101	1102	1103	
4	1104	1105	1106	1107	
4	1108	1109	1110	1111	
4	1112	1113	1114	1115	
4	1116	1117	1118	1119	
4	1120	1121	1122	1123	
4	1124	1125	1126	1127	
4	1128	1129	1130	1131	
4	1132	1133	1134	1135	
4	1136	1137	1138	1139	
4	1140	1141	1142	1143	
4	1144	1145	1146	1147	
4	1148	1149	1150	1151	
4	1152	1153	1154	1155	
4	1156	1157	1158	1159	
4	1160	1161	1162	1163	
4	1164	1165	1166	1167	
4	1168	1169	1170	1171	
4	1172	1173	1174	1175	
4	1176	1177	1178	1179	
4	1180	1181	1182	1183	
4	1184	1185	1186	1187	
4	1188	1189	1190	1191	
4	1192	1193	1194	1195	
4	1196	1197	1198	1199	
4	1200	1201	1202	1203	
4	1204	1205	1206	1207	
4	1208	1209	1210	1211	
4	1212	1213	1214	1215	
4	1216	1217	1218	1219	
4	1220	1221	1222	1223	
4	1224	1225	1226	1227	
4	1228	1229	1230	1231	
4	1232	1233	1234	1235	
4	1236	1237	1238	1239	
4	1240	1241	1242	1243	
4	1244	1245	1246	1247	
4	1248	1249	1250	1251	
4	1252	1253	1254	1255	
4	1256	1257	1258	1259	
4	1260	1261	1262	1263	
4	1264	1265	1266	1267	
4	1268	1269	1270	1271	
4	1272	1273	1274	1275	
4	1276	1277	1278	1279	
4	1280	1281	1282	1283	
4	1284	1285	1286	1287	
4	1288	1289	1290	1291	
4	1292	1293	1294	1295	
4	1296	1297	1298	1299	
4	1300	1301	1302	1303	
4	1304	1305	1306	1307	
4	1308	1309	1310	1311	
4	1312	1313	1314	1315	
4	1316	1317	1318	1319	
4	1320	1321	1322	1323	
4	1324	1325	1326	1327	
4	1328	1329	1330	1331	
4	1332	1333	1334	1335	
4	1336	1337	1338	1339	
4	1340	1341	1342	1343	
4	1344	1345	1346	1347	
4	1348	1349	1350	1351	
4	1352	1353	1354	1355	
4	1356	1357	1358	1359	
4	1360	1361	1362	1363	
4	1364	1365	1366	1367	
4	1368	1369	1370	1371	
4	1372	1373	1374	1375	
4	1376	1377	1378	1379	
4	1380	1381	1382	1383	
4	1384	1385	1386	1387	
4	1388	1389	1390	1391	
4	1392	1393	1394	1395	
4	1396	1397	1398	1399	
4	1400	1401	1402	1403	
4	1404	1405	1406	1407	
4	1408	1409	1410	1411	
4	1412	1413	1414	1415	
4	1416	1417	1418	1419	
4	1420	1421	1422	1423	
4	1424	1425	1426	1427	
4	1428	1429	1430	1431	
4	1432	1433	1434	1435	
4	1436	1437	1438	1439	
4	1440	1441	1442	1443	
4	1444	1445	1446	1447	
4	1448	1449	1450	1451	
4	1452	1453	1454	1455	
4	1456	1457	1458	1459	
4	1460	1461	1462	1463	
4	1464	1465	1466	1467	
4	1468	1469	1470	1471	
4	1472	1473	1474	1475	
4	1476	1477	1478	1479	
4	1480	1481	1482	1483	
4	1484	1485	1486	1487	
4	1488	1489	1490	1491	
4	1492	1493	1494	1495	
4	1496	1497	1498	1499	
4	1500	1501	1502	1503	
4	1504	1505	1506	1507	
4	1508	1509	1510	1511	
4	1512	1513	1514	1515	
4	1516	1517	1518	1519	
4	1520	1521	1522	1523	
4	1524	1525	1526	1527	
4	1528	1529	1530	1531	
4	1532	1533	1534	1535	
4	1536	1537	1538	1539	
4	1540	1541	1542	1543	
4	1544	1545	1546	1547	
4	1548	1549	1550	1551	
4	1552	1553	1554	1555	
4	1556	1557	1558	1559	
4	1560	1561	1562	1563	
4	1564	1565	1566	1567	
4	1568	1569	1570	1571	
4	1572	1573	1574	1575	
4	1576	1577	1578	1579	
4	1580	1581	1582	1583	
4	1584	1585	1586	1587	
4	1588	1589	1590	1591	
4	1592	1593	1594	1595	
4	1596	1597	1598	1599	
4	1600	1601	1602	1603	
4	1604	1605	1606	1607	
4	1608	1609	1610	1611	
4	1612	1613	1614	1615	
4	1616	1617	1618	1619	
4	1620	1621	1622	1623	
4	1624	1625	1626	1627	
4	1628	1629	1630	1631	
4	1632	1633	1634	1635	
4	1636	1637	1638	1639	
4	1640	1641	1642	1643	
4	1644	1645	1646	1647	
4	1648	1649	1650	1651	
4	1652	1653	1654	1655	
4	1656	1657	1658	1659	
4	1660	1661	1662	1663	
4	1664	1665	1666	1667	
4	1668	1669	1670	1671	
4	1672	1673	1674	1675	
4	1676	1677	1678	1679	
4	1680	1681	1682	1683	
4	1684	1685	1686	1687	
4	1688	1689	1690	1691	
4	1692	1693	1694	1695	
4	1696	1697	1698	1699	
4	1700	1701	1702	1703	
4	1704	1705	1706	1707	
4	1708	1709	1710	1711	
4	1712	1713	1714	1715	
4	1716	1717	1718	1719	
4	1720	1721	1722	1723	
4	1724	1725	1726	1727	
4	1728	1729	1730	1731	
4	1732	1733	1734	1735	
4	1736	1737	1738	1739	
4	1740	1741	1742	1743	
4	1744	1745	1746	1747	
4	1748	1749	1750	1751	
4	1752	1753	1754	1755	
4	1756	1757	1758	1759	
4	1760	1761	1762	1763	
4	1764	1765	1766	1767	
4	1768	1769	1770	1771	
4	1772	1773	1774	1775	
4	1776	1777	1778	1779	
4	1780	1781	1782	1783	
4	1784	1785	1786	1787	
4	1788	1789	1790	1791	
4	1792	1793	1794	1795	
4	1796	1797	1798	1799	
4	1800	1801	1802	1803	
4	1804	1805	1806	1807	
4	1808	1809	1810	1811	
4	1812	1813	1814	1815	
4	1816	1817	1818	1819	
4	1820	1821	1822	1823	
4	1824	1825	1826	1827	
4	1828	1829	1830	1831	
4	1832	1833	1834	1835	
4	1836	1837	1838	1839	
4	1840	1841	1842	1843	
4	1844	1845	1846	1847	
4	1848	1849	1850	1851	
4	1852	1853	1854	1855	
4	1856	1857	1858	1859	
4	1860	1861	1862	1863	
4	1864	1865	1866	1867	
4	1868	1869	1870	1871	
4	1872	1873	1874	1875	
4	1876	1877	1878	1879	
4	1880	1881	1882	1883	
4	1884	1885	1886	1887	
4	1888	1889	1890	1891	
4	1892	1893	1894	1895	
4	1896	1897	1898	1899	
4	1900	1901	1902	1903	
4	1904	1905	1906	1907	
4	1908	1909	1910	1911	
4	1912	1913	1914	1915	
4	1916	1917	1918	1919	
4	1920	1921	1922	1923	
4	1924	1925	1926	1927	
4	1928	1929	1930	1931	
4	1932	1933	1934	1935	
4	1936	1937	1938	1939	
4	1940	1941	1942	1943	
4	1944	1945	1946	1947	
4	1948	1949	1950	1951	
4	1952	1953	1954	1955	
4	1956	1957	1958	1959	
4	1960	1961	1962	1963	
4	1964	1965	1966	1967	
4	1968	1969	1970	1971	
4	1972	1973	1974	1975	
4	1976	1977	1978	1979	
4	1980	1981	1982	1983	
4	1984	1985	1986	1987	
4	1988	1989	1990	1991	
4	1992	1993	1994	1995	
4	1996	1997	1998	1999	
4	2000	2001	2002	2003	
4	2004	2005	2006	2007	
4	2008	2009	2010	2011	
4	2012	2013	2014	2015	
4	2016	2017	2018	2019	
4	2020	2021	2022	2023	
4	2024	2025	2026	2027	
4	2028	2029	2030	2031	
4	2032	2033	2034	2035	
4	2036	2037	2038	2039	
4	2040	2041	2042	2043	
4	2044	2045	2046	2047	
4	2048	2049	2050	2051	
4	2052	2053	2054	2055	
4	2056	2057	2058	2059	
4	2060	2061	2062	2063	
4	2064	2065	2066	2067	
4	2068	2069	2070	2071	
4	2072	2073	2074	2075	
4	2076	2077	2078	2079	
4	2080	2081	2082	2083	
4	2084	2085	2086	2087	
4	2088	2089	2090	2091	
4	2092	2093	2094	2095	
4	2096	2097	2098	2099	
4	2100	2101	2102	2103	
4	2104	2105	2106	2107	
4	2108	2109	2110	2111	
4	2112	2113	2114	2115	
4	2116	2117	2118	2119	
4	2120	2121	2122	2123	
4	2124	2125	2126	2127	
4	2128	2129	2130	2131	
4	2132	2133	2134	2135	
4	2136	2137	2138	2139	
4	2140	2141	2142	2143	
4	2144	2145	2146	2147	
4	2148	2149	2150	2151	
4	2152	2153	2154	2155	
4	2156	2157	2158	2159	
4	2160	2161	2162	2163	
4	2164	2165	2166	2167	
4	2168	2169	2170	2171	
4	2172	2173	2174	2175	
4	2176	2177	2178	2179	
4	2180	2181	2182	2183	
4	2184	2185	2186	2187	
4	2188	2189	2190	2191	
4	2192	2193	2194	2195	
4	2196	2197	2198	2199	
4	2200	2201	2202	2203	
4	2204	2205	2206	2207	
4	2208	2209	2210	2211	
4	2212	2213	2214	2215	
4	2216	2217	2218	2219	
4	2220	2221	2222	2223	
4	2224	2225	2226	2227	
4	2228	2229	2230	2231	
4	2232	2233	2234	2235	
4	2236	2237	2238	2239	
4	2240	2241	2242	2243	
4	2244	2245	2246	2247	
4	2248	2249	2250	2251	
4	2252	2253	2254	2255	
4	2256	2257	2258	2259	
4	2260	2261	2262	2263	
4	2264	2265	2266	2267	
4	2268	2269	2270	2271	
4	2272	2273	2274	2275	
4	2276	2277	2278	2279	
4	2280	2281	2282	2283	
4	2284	2285	2286	2287	
4	2288	2289	2290	2291	
4	2292	2293	2294	2295	
4	2296	2297	2298	2299	
4	2300	2301	2302	2303	
4	2304	2305	2306	2307	
4	2308	2309	2310	2311	
4	2312	2313	2314	2315	
4	2316	2317	2318	2319	
4	2320	2321	2322	2323	
4	2324	2325	2326	2327	
4	2328	2329	2330	2331	
4	2332	2333	2334	2335	
4	2336	2337	2338	2339	
4	2340	2341	2342	2343	
4	2344	2345	2346	2347	
4	2348	2349	2350	2351	
4	2352	2353	2354	2355	
4	2356	2357	2358	2359	
4	2360	2361	2362	2363	
4	2364	2365	2366	2367	
4	2368	2369	2370	2371	
4	2372	2373	2374	2375	
4	2376	2377	2378	2379	
4	2380	2381	2382	2383	
4	2384	2385	2386	2387	
4	2388	2389	2390	2391	
4	2392	2393	2394	2395	
4	2396	2397	2398	2399	
4	2400	2401	2402	2403	
4	2404	2405	2406	2407	
4	2408	2409	2410	2411	
4	2412	2413	2414	2415	
4	2416	2417	2418	2419	
4	2420	2421	2422	2423	
4	2424	2425	2426	2427	
4	2428	2429	2430	2431	
4	2432	2433	2434	2435	
4	2436	2437	2438	2439	
4	2440	2441	2442	2443	
4	2444	2445	2446	2447	
4	2448	2449	2450	2451	
4	2452	2453	2454	2455	
4	2456	2457	2458	2459	
4	2460	2461	2462	2463	
4	2464	2465	2466	2467	
4	2468	2469	2470	2471	
4	2472	2473	2474	2475	
4	2476	2477	2478	2479	
4	2480	2481	2482	2483	
4	2484	2485	2486	2487	
4	2488	2489	2490	2491	
4	2492	2493	2494	2495	
4	2496	2497	2498	2499	
4	2500	2501	2502	2503	
4	2504	2505	2506	2507	
4	2508	2509	2510	2511	
4	2512	2513	2514	2515	
4	2516	2517	2518	2519	
4	2520	2521	2522	2523	
4	2524	2525	2526	2527	
4	2528	2529	2530	2531	
4	2532	2533	2534	2535	
4	2536	2537	2538	2539	
4	2540	2541	2542	2543	
4	2544	2545	2546	2547	
4	2548	2549	2550	2551	
4	2552	2553	2554	2555	
4	2556	2557	2558	2559	
4	2560	2561	2562	2563	
4	2564	2565	2566	2567	
4	2568	2569	2570	2571	
4	2572	2573	2574	2575	
4	2576	2577	2578	2579	
4	2580	2581	2582	2583	
4	2584	2585	2586	2587	
4	2588	2589	2590	2591	
4	2592	2593	2594	2595	
4	2596	2597	2598	2599	
4	2600	2601	2602	2603	
4	2604	2605	2606	2607	
4	2608	2609	2610	2611	
4	2612	2613	2614	2615	
4	2616	2617	2618	2619	
4	2620	2621	2622	2623	
4	2624	2625	2626	2627	
4	2628	2629	2630	2631	
4	2632	2633	2634	2635	
4	2636	2637	2638	2639	
4	2640	2641	2642	2643	
4	2644	2645	2646	2647	
4	2648	2649	2650	2651	
4	2652	2653	2654	2655	
4	2656	2657	2658	2659	
4	2660	2661	2662	2663	
4	2664	2665	2666	2667	
4	2668	2669	2670	2671	
4	2672	2673	2674	2675	
4	2676	2677	2678	2679	
4	2680	2681	2682	2683	
4	2684	2685	2686	2687	
4	2688	2689	2690	2691	
4	2692	2693	2694	2695	
4	2696	2697	2698	2699	
4	2700	2701	2702	2703	
4	2704	2705	2706	2707	
4	2708	2709	2710	2711	
4	2712	2713	2714	2715	
4	2716	2717	2718	2719	
4	2720	2721	2722	2723	
4	2724	2725	2726	2727	
4	2728	2729	2730	2731	
4	2732	2733	2734	2735	
4	2736	2737	2738	2739	
4	2740	2741	2742	2743	
4	2744	2745	2746	2747	
4	2748	2749	2750	2751	
4	2752	2753	2754	2755	
4	2756	2757	2758	2759	
4	2760	2761	2762	2763	
4	2764	2765	2766	2767	
4	2768	2769	2770	2771	
4	2772	2773	2774	2775	
4	2776	2777	2778	2779	
4	2780	2781	2782	2783	
4	2784	2785	2786	2787	
4	2788	2789	2790	2791	
4	2792	2793	2794	2795	
4	2796	2797	2798	2799	
4	2800	2801	2802	2803	
4	2804	2805	2806	2807	
4	2808	2809	2810	2811	
4	2812	2813	2814	2815	
4	2816	2817	2818	2819	
4	2820	2821	2822	2823	
4	2824	2825	2826	2827	
4	2828	2829	2830	2831	
4	2832	2833	2834	2835	
4	2836	2837	2838	2839	
4	2840	2841	2842	2843	
4	2844	2845	2846	2847	
4	2848	2849	2850	2851	
4	2852	2853	2854	2855	
4	2856	2857	2858	2859	
4	2860	2861	2862	2863	
4	2864	2865	2866	2867	
4	2868	2869	2870	2871	
4	2872	2873	2874	2875	
4	2876	2877	2878	2879	
4	2880	2881	2882	2883	
4	2884	2885	2886	2887	
4	2888	2889	2890	2891	
4	2892	2893	2894	2895	
4	2896	2897	2898	2899	
4	2900	2901	2902	2903	
4	2904	2905	2906	2907	
4	2908	2909	2910	2911	
4	2912	2913	2914	2915	
4	2916	2917	2918	2919	
4	2920	2921	2922	2923	
4	2924	2925	2926	2927	
4	2928	2929	2930	2931	
4	2932	2933	2934	2935	
4	2936	2937	2938	2939	
4	2940	2941	2942	2943	
4	2944	2945	2946	2947	
4	2948	2949	2950	2951	
4	2952	2953	2954	2955	
4	2956	2957	2958	2959	
4	2960	2961	2962	2963	
4	2964	2965	2966	2967	
4	2968	2969	2970	2971	
4	2972	2973	2974	2975	
4	2976	2977	2978	2979	
4	2980	2981	2982	2983	
4	2984	2985	2986	2987	
4	2988	2989	2990	2991	
4	2992	2993	2994	2995	
4	2996	2997	2998	2999	
4	3000	3001	3002	3003	
4	3004	3005	3006	3007	
4	3008	3009	3010	3011	
4	3012	3013	3014	3015	
4	3016	3017	3018	3019	
4	3020	3021	3022	3023	
4	3024	3025	3026	3027	
4	3028	3029	3030	3031	
4	3032	3033	3034	3035	
4	3036	3037	3038	3039	
4	3040	3041	3042	3043	
4	3044	3045	3046	3047	
4	3048	3049	3050	3051	
4	3052	3053	3054	3055	
4	3056	3057	3058	3059	
4	3060	3061	3062	3063	
4	3064	3065	3066	3067	
4	3068	3069	3070	3071	
4	3072	3073	3074	3075	
4	3076	3077	3078	3079	
4	3080	3081	3082	3083	
4	3084	3085	3086	3087	
4	3088	3089	3090	3091	
4	3092	3093	3094	3095	
4	3096	3097	3098	3099	
4	3100	3101	3102	3103	
4	3104	3105	3106	3107	
4	3108	3109	3110	3111	
4	3112	3113	3114	3115	
4	3116	3117	3118	3119	
4	3120	3121	3122	3123	
4	3124	3125	3126	3127	
4	3128	3129	3130	3131	
4	3132	3133	3134	3135	
4	3136	3137	3138	3139	
4	3140	3141	3142	3143	
4	3144	3145	3146	3147	
4	3148	3149	3150	3151	
4	3152	3153	3154	3155	
4	3156	3157	3158	3159	
4	3160	3161	3162	3163	
4	3164	3165	3166	3167	
4	3168	3169	3170	3171	
4	3172	3173	3174	3175	
4	3176	3177	3178	3179	
4	3180	3181	3182	3183	
4	3184	3185	3186	3187	
4	3188	3189	3190	3191	
4	3192	3193	3194	3195	
4	3196	3197	3198	3199	
4	3200	3201	3202	3203	
4	3204	3205	3206	3207	
4	3208	3209	3210	3211	
4	3212	3213	3214	3215	
4	3216	3217	3218	3219	
4	3220	3221	3222	3223	
4	3224	3225	3226	3227	
4	3228	3229	3230	3231	
4	3232	3233	3234	3235	
4	3236	3237	3238	3239	
4	3240	3241	3242	3243	
4	3244	3245	3246	3247	
4	3248	3249	3250	3251	
4	3252	3253	3254	3255	
4	3256	3257	3258	3259	
4	3260	3261	3262	3263	
4	3264	3265	3266	3267	
4	3268	3269	3270	3271	
4	3272	3273	3274	3275	
4	3276	3277	3278	3279	
4	3280	3281	3282	3283	
4	3284	3285	3286	3287	
4	3288	3289	3290	3291	
4	3292	3293	3294	3295	
4	3296	3297	3298	3299	
4	3300	3301	3302	3303	
4	3304	3305	3306	3307	
4	3308	3309	3310	3311	
4	3312	3313	3314	3315	
4	3316	3317	3318	3319	
4	3320	3321	3322	3323	
4	3324	3325	3326	3327	
4	3328	3329	3330	3331	
4	3332	3333	3334	3335	
4	3336	3337	3338	3339	
4	3340	3341	3342	3343	
4	3344	3345	3346	3347	
4	3348	3349	3350	3351	
4	3352	3353	3354	3355	
4	3356	3357	3358	3359	
4	3360	3361	3362	3363	
4	3364	3365	3366	3367	
4	3368	3369	3370	3371	
4	3372	3373	3374	3375	
4	3376	3377	3378	3379	
4	3380	3381	3382	3383	
4	3384	3385	3386	3387	
4	3388	3389	3390	3391	
4	3392	3393	3394	3395	
4	3396	3397	3398	3399	
4	3400	3401	3402	3403	
4	3404	3405	3406	3407	
4	3408	3409	3410	3411	
4	3412	3413	3414	3415	
4	3416	3417	3418	3419	
4	3420	3421	3422	3423	
4	3424	3425	3426	3427	
4	3428	3429	3430	3431	
4	3432	3433	3434	3435	
4	3436	3437	3438	3439	
4	3440	3441	3442	3443	
4	3444	3445	3446	3447	
4	3448	3449	3450	3451	
4	3452	3453	3454	3455	
4	3456	3457	3458	3459	
4	3460	3461	3462	3463	
4	3464	3465	3466	3467	
4	3468	3469	3470	3471	
4	3472	3473	3474	3475	
4	3476	3477	3478	3479	
4	3480	3481	3482	3483	
4	3484	3485	3486	3487	
4	3488	3489	3490	3491	
4	3492	3493	3494	3495	
4	3496	3497	3498	3499	
4	3500	3501	3502	3503	
4	3504	3505	3506	3507	
4	3508	3509	3510	3511	
4	3512	3513	3514	3515	
4	3516	3517	3518	3519	
4	3520	3521	3522	3523	
4	3524	3525	3526	3527	
4	3528	3529	3530	3531	
4	3532	3533	3534	3535	
4	3536	3537	3538	3539	
4	3540	3541	3542	3543	
4	3544	3545	3546	3547	
4	3548	3549	3550	3551	
4	3552	3553	3554	3555	
4	3556	3557	3558	3559	
4	3560	3561	3562	3563	
4	3564	3565	3566	3567	
4	3568	3569	3570	3571	
4	3572	3573	3574	3575	
4	3576	3577	3578	3579	
4	3580	3581	3582	3583	
4	3584	3585	3586	3587	
4	3588	3589	3590	3591	
4	3592	3593	3594	3595	
4	3596	3597	3598	3599	
4	3600	3601	3602	3603	
4	3604	3605	3606	3607	
4	3608	3609	3610	3611	
4	3612	3613	3614	3615	
4	3616	3617	3618	3619	
4	3620	3621	3622	3623	
4	3624	3625	3626	3627	
4	3628	3629	3630	3631	
4	3632	3633	3634	3635	
4	3636	3637	3638	3639	
4	3640	3641	3642	3643	
4	3644	3645	3646	3647	
4	3648	3649	3650	3651	
4	3652	3653	3654	3655	
4	3656	3657	3658	3659	
4	3660	3661	3662	3663	
4	3664	3665	3666	3667	
4	3668	3669	3670	3671	
4	3672	3673	3674	3675	
4	3676	3677	3678	3679	
4	3680	3681	3682	3683	
4	3684	3685	3686	3687	
4	3688	3689	3690	3691	
4	3692	3693	3694	3695	
4	3696	3697	3698	3699	
4	3700	3701	3702	3703	
4	3704	3705	3706	3707	
4	3708	3709	3710	3711	
4	3712	3713	3714	3715	
4	3716	3717	3718	3719	
4	3720	3721	3722	3723	
4	3724	3725	3726	3727	
4	3728	3729	3730	3731	
4	3732	3733	3734	3735	
4	3736	3737	3738	3739	
4	3740	3741	3742	3743	
4	3744	3745	3746	3747	
4	3748	3749	3750	3751	
4	3752	3753	3754	3755	
4	3756	3757	3758	3759	
4	3760	3761	3762	3763	
4	3764	3765	3766	3767	
4	3768	3769	3770	3771	
4	3772	3773	3774	3775	
4	3776	3777	3778	3779	
4	3780	3781	3782	3783	
4	3784	3785	3786	3787	
4	3788	3789	3790	3791	
4	3792	3793	3794	3795	
4	3796	3797	3798	3799	
4	3800	3801	3802	3803	
4	3804	3805	3806	3807	
4	3808	3809	3810	3811	
4	3812	3813	3814	3815	
4	3816	3817	3818	3819	
4	3820	3821	3822	3823	
4	3824	3825	3826	3827	
4	3828	3829	3830	3831	
4	3832	3833	3834	3835	
4	3836	3837	3838	3839	
4	3840	3841	3842	3843	
4	3844	3845	3846	3847	
4	3848	3849	3850	3851	
4	3852	3853	3854	3855	
4	3856	3857	3858	3859	
4	3860	3861	3862	3863	
4	3864	3865	3866	3867	
4	3868	3869	3870	3871	
4	3872	3873	3874	3875	
4	3876	3877	3878	3879	
4	3880	3881	3882	3883	
4	3884	3885	3886	3887	
4	3888	3889	3890	3891	
4	3892	3893	3894	3895	
4	3896	3897	3898	3899	
4	3900	3901	3902	3903	
4	3904	3905	3906	3907	
4	3908	3909	3910	3911	
4	3912	3913	3914	3915	
4	3916	3917	3918	3919	
4	3920	3921	3922	3923	
4	3924	3925	3926	3927	
4	3928	3929	3930	3931	
4	3932	3933	3934	3935	
4	3936	3937	3938	3939	
4	3940	3941	3942	3943	
4	3944	3945	3946	3947	
4	3948	3949	3950	3951	
4	3952	3953	3954	3955	
4	3956	3957	3958	3959	
4	3960	3961	3962	3963	
4	3964	3965	3966	3967	
4	3968	3969	3970	3971	
4	3972	3973	3974	3975	
4	3976	3977	3978	3979	
4	3980	3981	3982	3983	
4	3984	3985	3986	3987	
4	3988	3989	3990	3991	
4	3992	3993	3994	3995	
4	3996	3997	3998	3999	
4	4000	4001	4002	4003	
4	4004	4005	4006	4007	
4	4008	4009	4010	4011	
4	4012	4013	4014	4015	
4	4016	4017	4018	4019	
4	4020	4021	4022	4023	
4	4024	4025	4026	4027	
4	4028	4029	4030	4031	
4	4032	4033	4034	4035	
4	4036	4037	4038	4039	
4	4040	4041	4042	4043	
4	4044	4045	4046	4047	
4	4048	4049	4050	4051	
4	4052	4053	4054	4055	
4	4056	4057	4058	4059	
4	4060	4061	4062	4063	
4	4064	4065	4066	4067	
4	4068	4069	4070	4071	
4	4072	4073	4074	4075	
4	4076	4077	4078	4079	
4	4080	4081	4082	4083	
4	4084	4085	4086	4087	
4	4088	4089	4090	4091	
4	4092	4093	4094	4095	
4	4096	4097	4098	4099	
4	4100	4101	4102	4103	
4	4104	4105	4106	4107	
4	4108	4109	4110	4111	
4	4112	4113	4114	4115	
4	4116	4117	4118	4119	
4	4120	4121	4122	4123	
4	4124	4125	4126	4127	
4	4128	4129	4130	4131	
4	4132	4133	4134	4135	
4	4136	4137	4138	4139	
4	4140	4141	4142	4143	
4	4144	4145	4146	4147	
4	4148	4149	4150	4151	
4	4152	4153	4154	4155	
4	4156	4157	4158	4159	
4	4160	4161	4162	4163	
4	4164	4165	4166	4167	
4	4168	4169	4170	4171	
4	4172	4173	4174	4175	
4	4176	4177	4178	4179	
4	4180	4181	4182	4183	
4	4184	4185	4186	4187	
4	4188	4189	4190	4191	
4	4192	4193	4194	4195	
4	4196	4197	4198	4199	
4	4200	4201	4202	4203	
4	4204	4205	4206	4207	
4	4208	4209	4210	4211	
4	4212	4213	4214	4215	
4	4216	4217	4218	4219	
4	4220	4221	4222	4223	
4	4224	4225	4226	4227	
4	4228	4229	4230	4231	
4	4232	4233	4234	4235	
4	4236	4237	4238	4239	
4	4240	4241	4242	4243	
4	4244	4245	4246	4247	
4	4248	4249	4250	4251	
4	4252	4253	4254	4255	
4	4256	4257	4258	4259	
4	4260	4261	4262	4263	
4	4264	4265	4266	4267	
4	4268	4269	4270	4271	
4	4272	4273	4274	4275	
4	4276	4277	4278	4279	
4	4280	4281	4282	4283	
4	4284	4285	4286	4287	
4	4288	4289	4290	4291	
4	4292	4293	4294	4295	
4	4296	4297	4298	4299	
4	4300	4301	4302	4303	
4	4304	4305	4306	4307	
4	4308	4309	4310	4311	
4	4312	4313	4314	4315	
4	4316	4317	4318	4319	
4	4320	4321	4322	4323	
4	4324	4325	4326	4327	
4	4328	4329	4330	4331	
4	4332	4333	4334	4335	
4	4336	4337	4338	4339	
4	4340	4341	4342	4343	
4	4344	4345	4346	4347	
4	4348	4349	4350	4351	
4	4352	4353	4354	4355	
4	4356	4357	4358	4359	
4	4360	4361	4362	4363	
4	4364	4365	4366	4367	
4	4368	4369	4370	4371	
4	4372	4373	4374	4375	
4	4376	4377	4378	4379	
4	4380	4381	4382	4383	
4	4384	4385	4386	4387	
4	4388	4389	4390	4391	
4	4392	4393	4394	4395	
4	4396	4397	4398	4399	
4	4400	4401	4402	4403	
4	4404	4405	4406	4407	
4	4408	4409	4410	4411	
4	4412	4413	4414	4415	
4	4416	4417	4418	4419	
4	4420	4421	4422	4423	
4	4424	4425	4426	4427	
4	4428	4429	4430	4431	
4	4432	4433	4434	4435	
4	4436	4437	4438	4439	
4	4440	4441	4442	4443	
4	4444	4445	4446	4447	
4	4448	4449	4450	4451	
4	4452	4453	4454	4455	
4	4456	4457	4458	4459	
4	4460	4461	4462	4463	
4	4464	4465	4466	4467	
4	4468	4469	4470	4471	
4	4472	4473	4474	4475	
4	4476	4477	4478	4479	
4	4480	4481	4482	4483	
4	4484	4485	4486	4487	
4	4488	4489	4490	4491	
4	4492	4493	4494	4495	
4	4496	4497	4498	4499	
4	4500	4501	4502	4503	
4	4504	4505	4506	4507	
4	4508	4509	4510	4511	
4	4512	4513	4514	4515	
4	4516	4517	4518	4519	
4	4520	4521	4522	4523	
4	4524	4525	4526	4527	
4	4528	4529	4530	4531	
4	4532	4533	4534	4535	
4	4536	4537	4538	4539	
4	4540	4541	4542	4543	
4	4544	4545	4546	4547	
4	4548	4549	4550	4551	
4	4552	4553	4554	4555	
4	4556	4557	4558	4559	
4	4560	4561	4562	4563	
4	4564	4565	4566	4567	
4	4568	4569	4570	4571	
4	4572	4573	4574	4575	
4	4576	4577	4578	4579	
4	4580	4581	4582	4583	
4	4584	4585	4586	4587	
4	4588	4589	4590	4591	
4	4592	4593	4594	4595	
4	4596	4597	4598	4599	
4	4600	4601	4602	4603	
4	4604	4605	4606	4607	
4	4608	4609	4610	4611	
4	4612	4613	4614	4615	
4	4616	4617	4618	4619	
4	4620	4621	4622	4623	
4	4624	4625	4626	4627	
4	4628	4629	4630	4631	
4	4632	4633	4634	4635	
4	4636	4637	4638	4639	
4	4640	4641	4642	4643	
4	4644	4645	4646	4647	
4	4648	4649	4650	4651	
4	4652	4653	4654	4655	
4	4656	4657	4658	4659	
4	4660	4661	4662	4663	
4	4664	4665	4666	4667	
4	4668	4669	4670	4671	
4	4672	4673	4674	4675	
4	4676	4677	4678	4679	
4	4680	4681	4682	4683	
4	4684	4685	4686	4687	
4	4688	4689	4690	4691	
4	4692	4693	4694	4695	
4	4696	4697	4698	4699	
4	4700	4701	4702	4703	
4	4704	4705	4706	4707	
4	4708	4709	4710	4711	
4	4712	4713	4714	4715	
4	4716	4717	4718	4719	
4	4720	4721	4722	4723	
4	4724	4725	4726	4727	
4	4728	4729	4730	4731	
4	4732	4733	4734	4735	
4	4736	4737	4738	4739	
4	4740	4741	4742	4743	
4	4744	4745	4746	4747	
4	4748	4749	4750	4751	
4	4752	4753	4754	4755	
4	4756	4757	4758	4759	
4	4760	4761	4762	4763	
4	4764	4765	4766	4767	
4	4768	4769	4770	4771	
4	4772	4773	4774	4775	
4	4776	4777	4778	4779	
4	4780	4781	4782	4783	
4	4784	4785	4786	4787	
4	4788	4789	4790	4791	
4	4792	4793	4794	4795	
4	4796	4797	4798	4799	
4	4800	4801	4802	4803	
4	4804	4805	4806	4807	
4	4808	4809	4810	4811	
4	4812	4813	4814	4815	
4	4816	4817	4818	4819	
4	4820	4821	4822	4823	
4	4824	4825	4826	4827	
4	4828	4829	4830	4831	
4	4832	4833	4834	4835	
4	4836	4837	4838	4839	
4	4840	4841	4842	4843	
4	4844	4845	4846	4847	
4	4848	4849	4850	4851	
4	4852	4853	4854	4855	
4	4856	4857	4858	4859	
4	4860	4861	4862	4863	
4	4864	4865	4866	4867	
4	4868	4869	4870	4871	
4	4872	4873	4874	4875	
4	4876	4877	4878	4879	
4	4880	4881	4882	4883	
4	4884	4885	4886	4887	
4	4888	4889	4890	4891	
4	4892	4893	4894	4895	
4	4896	4897	4898	4899	
4	4900	4901	4902	4903	
4	4904	4905	4906	4907	
4	4908	4909	4910	4911	
4	4912	4913	4914	4915	
4	4916	4917	4918	4919	
4	4920	4921	4922	4923	
4	4924	4925	4926	4927	
4	4928	4929	4930	4931	
4	4932	4933	4934	4935	
4	4936	4937	4938	4939	
4	4940	4941	4942	4943	
4	4944	4945	4946	4947	
4	4948	4949	4950	4951	
4	4952	4953	4954	4955	
4	4956	4957	4958	4959	
4	4960	4961	4962	4963	
4	4964	4965	4966	4967	
4	4968	4969	4970	4971	
4	4972	4973	4974	4975	
4	4976	4977	4978	4979	
4	4980	4981	4982	4983	
4	4984	4985	4986	4987	
4	4988	4989	4990	4991	
4	4992	4993	4994	4995	
4	4996	4997	4998	4999	
4	5000	5001	5002	5003	
4	5004	5005	5006	5007	
4	5008	5009	5010	5011	
4	5012	5013	5014	5015	
4	5016	5017	5018	5019	
4	5020	5021	5022	5023	
4	5024	5025	5026	5027	
4	5028	5029	5030	5031	
4	5032	5033	5034	5035	
4	5036	5037	5038	5039	
4	5040	5041	5042	5043	
4	5044	5045	5046	5047	
4	5048	5049	5050	5051	
4	5052	5053	5054	5055	
4	5056	5057	5058	5059	
4	5060	5061	5062	5063	
4	5064	5065	5066	5067	
4	5068	5069	5070	5071	
4	5072	5073	5074	5075	
4	5076	5077	5078	5079	
4	5080	5081	5082	5083	
4	5084	5085	5086	5087	
4	5088	5089	5090	5091	
4	5092	5093	5094	5095	
4	5096	5097	5098	5099	
4	5100	5101	5102	5103	
4	5104	5105	5106	5107	
4	5108	5109	5110	5111	
4	5112	5113	5114	5115	
4	5116	5117	5118	5119	
4	5120	5121	5122	5123	
4	5124	5125	5126	5127	
4	5128	5129	5130	5131	
4	5132	5133	5134	5135	
4	5136	5137	5138	5139	
4	5140	5141	5142	5143	
4	5144	5145	5146	5147	
4	5148	5149	5150	5151	
4	5152	5153	5154	5155	
4	5156	5157	5158	5159	
4	5160	5161	5162	5163	
4	5164	5165	5166	5167	
4	5168	5169	5170	5171	
4	5172	5173	5174	5175	
4	5176	5177	5178	5179	
4	5180	5181	5182	5183	
4	5184	5185	5186	5187	
4	5188	5189	5190	5191	
4	5192	5193	5194	5195	
4	5196	5197	5198	5199	
4	5200	5201	5202	5203	
4	5204	5205	5206	5207	
4	5208	5209	5210	5211	
4	5212	5213	5214	5215	
4	5216	5217	5218	5219	
4	5220	5221	5222	5223	
4	5224	5225	5226	5227	
4	5228	5229	5230	5231	
4	5232	5233	5234	5235	
4	5236	5237	5238	5239	
4	5240	5241	5242	5243	
4	5244	5245	5246	5247	
4	5248	5249	5250	5251	
4	5252	5253	5254	5255	
4	5256	5257	5258	5259	
4	5260	5261	5262	5263	
4	5264	5265	5266	5267	
4	5268	5269	5270	5271	
4	5272	5273	5274	5275	
4	5276	5277	5278	5279	
4	5280	5281	5282	5283	
4	5284	5285	5286	5287	
4	5288	5289	5290	5291	
4	5292	5293	5294	5295	
4	5296	5297	5298	5299	
4	5300	5301	5302	5303	
4	5304	5305	5306	5307	
4	5308	5309	5310	5311	
4	5312	5313	5314	5315	
4	5316	5317	5318	5319	
4	5320	5321	5322	5323	
4	5324	5325	5326	5327	
4	5328	5329	5330	5331	
4	5332	5333	5334	5335	
4	5336	5337	5338	5339	
4	5340	5341	5342	5343	
4	5344	5345	5346	5347	
4	5348	5349	5350	5351	
4	5352	5353	5354	5355	
4	5356	5357	5358	5359	
4	5360	5361	5362	5363	
4	5364	5365	5366	5367	
4	5368	5369	5370	5371	
4	5372	5373	5374	5375	
4	5376	5377	5378	5379	
4	5380	5381	5382	5383	
4	5384	5385	5386	5387	
4	5388	5389	5390	5391	
4	5392	5393	5394	5395	
4	5396	5397	5398	5399	
4	5400	5401	5402	5403	
4	5404	5405	5406	5407	
4	5408	5409	5410	5411	
4	5412	5413	5414	5415	
4	5416	5417	5418	5419	
4	5420	5421	5422	5423	
4	5424	5425	5426	5427	
4	5428	5429	5430	5431	
4	5432	5433	5434	5435	
4	5436	5437	5438	5439	
4	5440	5441	5442	5443	
4	5444	5445	5446	5447	
4	5448	5449	5450	5451	
4	5452	5453	5454	5455	
4	5456	5457	5458	5459	
4	5460	5461	5462	5463	
4	5464	5465	5466	5467	
4	5468	5469	5470	5471	
4	5472	5473	5474	5475	
4	5476	5477	5478	5479	
4	5480	5481	5482	5483	
4	5484	5485	5486	5487	
4	5488	5489	5490	5491	
4	5492	5493	5494	5495	
4	5496	5497	5498	5499	
4	5500	5501	5502	5503	
4	5504	5505	5506	5507	
4	5508	5509	5510	5511	
4	5512	5513	5514	5515	
4	5516	5517	5518	5519	
4	5520	5521	5522	5523	
4	5524	5525	5526	5527	
4	5528	5529	5530	5531	
4	5532	5533	5534	5535	
4	5536	5537	5538	5539	
4	5540	5541	5542	5543	
4	5544	5545	5546	5547	
4	5548	5549	5550	5551	
4	5552	5553	5554	5555	
4	5556	5557	5558	5559	
4	5560	5561	5562	5563	
4	5564	5565	5566	5567	
4	5568	5569	5570	5571	
4	5572	5573	5574	5575	
4	5576	5577	5578	5579	
4	5580	5581	5582	5583	
4	5584	5585	5586	5587	
4	5588	5589	5590	5591	
4	5592	5593	5594	5595	
4	5596	5597	5598	5599	
4	5600	5601	5602	5603	
4	5604	5605	5606	5607	
4	5608	5609	5610	5611	
4	5612	5613	5614	5615	
4	5616	5617	5618	5619	
4	5620	5621	5622	5623	
4	5624	5625	5626	5627	
4	5628	5629	5630	5631	
4	5632	5633	5634	5635	
4	5636	5637	5638	5639	
4	5640	5641	5642	5643	
4	5644	5645	5646	5647	
4	5648	5649	5650	5651	
4	5652	5653	5654	5655	
4	5656	5657	5658	5659	
4	5660	5661	5662	5663	
4	5664	5665	5666	5667	
4	5668	5669	5670	5671	
4	5672	5673	5674	5675	
4	5676	5677	5678	5679	
4	5680	5681	5682	5683	
4	5684	5685	5686	5687	
4	5688	5689	5690	5691	
4	5692	5693	5694	5695	
4	5696	5697	5698	5699	
4	5700	5701	5702	5703	
4	5704	5705	5706	5707	
4	5708	5709	5710	5711	
4	5712	5713	5714	5715	
4	5716	5717	5718	5719	
4	5720	5721	5722	5723	
4	5724	5725	5726	5727	
4	5728	5729	5730	5731	
4	5732	5733	5734	5735	
4	5736	5737	5738	5739	
4	5740	5741	5742	5743	
4	5744	5745	5746	5747	
4	5748	5749	5750	5751	
4	5752	5753	5754	5755	
4	5756	5757	5758	5759	
4	5760	5761	5762	5763	
4	5764	5765	5766	5767	
4	5768	5769	5770	5771	
4	5772	5773	5774	5775	
4	5776	5777	5778	5779	
4	5780	5781	5782	5783	
4	5784	5785	5786	5787	
4	5788	5789	5790	5791	
4	5792	5793	5794	5795	
4	5796	5797	5798	5799	
4	5800	5801	5802	5803	
4	5804	5805	5806	5807	
4	5808	5809	5810	5811	
4	5812	5813	5814	5815	
4	5816	5817	5818	5819	
4	5820	5821	5822	5823	
4	5824	5825	5826	5827	
4	5828	5829	5830	5831	
4	5832	5833	5834	5835	
4	5836	5837	5838	5839	
4	5840	5841	5842	5843	
4	5844	5845	5846	5847	
4	5848	5849	5850	5851	
4	5852	5853	5854	5855	
4	5856	5857	5858	5859	
4	5860	5861	5862	5863	
4	5864	5865	5866	5867	
4	5868	5869	5870	5871	
4	5872	5873	5874	5875	
4	5876	5877	5878	5879	
4	5880	5881	5882	5883	
4	5884	5885	5886	5887	
4	5888	5889	5890	5891	
4	5892	5893	5894	5895	
4	5896	5897	5898	5899	
4	5900	5901	5902	5903	
4	5904	5905	5906	5907	
4	5908	5909	5910	5911	
4	5912	5913	5914	5915	
4	5916	5917	5918	5919	
4	5920	5921	5922	5923	
4	5924	5925	5926	5927	
4	5928	5929	5930	5931	
4	5932	5933	5934	5935	
4	5936	5937	5938	5939	
4	5940	5941	5942	5943	
4	5944	5945	5946	5947	
4	5948	5949	5950	5951	
4	5952	5953	5954	5955	
4	5956	5957	5958	5959	
4	5960	5961	5962	5963	
4	5964	5965	5966	5967	
4	5968	5969	5970	5971	
4	5972	5973	5974	5975	
4	5976	5977	5978	5979	
4	5980	5981	5982	5983	
4	5984	5985	5986	5987	
4	5988	5989	5990	5991	
4	5992	5993	5994	5995	
4	5996	5997	5998	5999	
4	6000	6001	6002	6003	
4	6004	6005	6006	6007	
4	6008	6009	6010	6011	
4	6012	6013	6014	6015	
4	6016	6017	6018	6019	
4	6020	6021	6022	6023	
4	6024	6025	6026	6027	
4	6028	6029	6030	6031	
4	6032	6033	6034	6035	
4	6036	6037	6038	6039	
4	6040	6041	6042	6043	
4	6044	6045	6046	6047	
4	6048	6049	6050	6051	
4	6052	6053	6054	6055	
4	6056	6057	6058	6059	
4	6060	6061	6062	6063	
4	6064	6065	6066	6067	
4	6068	6069	6070	6071	
4	6072	6073	6074	6075	
4	6076	6077	6078	6079	
4	6080	6081	6082	6083	
4	6084	6085	6086	6087	
4	6088	6089	6090	6091	
4	6092	6093	6094	6095	
4	6096	6097	6098	6099	
4	6100	6101	6102	6103	
4	6104	6105	6106	6107	
4	6108	6109	6110	6111	
4	6112	6113	6114	6115	
4	6116	6117	6118	6119	
4	6120	6121	6122	6123	
4	6124	6125	6126	6127	
4	6128	6129	6130	6131	
4	6132	6133	6134	6135	
4	6136	6137	6138	6139	
4	6140	6141	6142	6143	
4	6144	6145	6146	6147	
4	6148	6149	6150	6151	
4	6152	6153	6154	6155	
4	6156	6157	6158	6159	
4	6160	6161	6162	6163	
4	6164	6165	6166	6167	
4	6168	6169	6170	6171	
4	6172	6173	6174	6175	
4	6176	6177	6178	6179	
4	6180	6181	6182	6183	
4	6184	6185	6186	6187	
4	6188	6189	6190	6191	
4	6192	6193	6194	6195	
4	6196	6197	6198	6199	
4	6200	6201	6202	6203	
4	6204	6205	6206	6207	
4	6208	6209	6210	6211	
4	6212	6213	6214	6215	
4	6216	6217	6218	6219	
4	6220	6221	6222	6223	
4	6224	6225	6226	6227	
4	6228	6229	6230	6231	
4	6232	6233	6234	6235	
4	6236	6237	6238	6239	
4	6240	6241	6242	6243	
4	6244	6245	6246	6247	
4	6248	6249	6250	6251	
4	6252	6253	6254	6255	
4	6256	6257	6258	6259	
4	6260	6261	6262	6263	
4	6264	6265	6266	6267	
4	6268	6269	6270	6271	
4	6272	6273	6274	6275	
4	6276	6277	6278	6279	
4	6280	6281	6282	6283	
4	6284	6285	6286	6287	
4	6288	6289	6290	6291	
4	6292	6293	6294	6295	
4	6296	6297	6298	6299	
4	6300	6301	6302	6303	
4	6304	6305	6306	6307	
4	6308	6309	6310	6311	
4	6312	6313	6314	6315	
4	6316	6317	6318	6319	
4	6320	6321	6322	6323	
4	6324	6325	6326	6327	
4	6328	6329	6330	6331	
4	6332	6333	6334	6335	
4	6336	6337	6338	6339	
4	6340	6341	6342	6343	
4	6344	6345	6346	6347	
4	6348	6349	6350	6351	
4	6352	6353	6354	6355	
4	6356	6357	6358	6359	
4	6360	6361	6362	6363	
4	6364	6365	6366	6367	
4	6368	6369	6370	6371	
4	6372	6373	6374	6375	
4	6376	6377	6378	6379	
4	6380	6381	6382	6383	
4	6384	6385	6386	6387	
4	6388	6389	6390	6391	
4	6392	6393	6394	6395	
4	6396	6397	6398	6399	
4	6400	6401	6402	6403	
4	6404	6405	6406	6407	
4	6408	6409	6410	6411	
4	6412	6413	6414	6415	
4	6416	6417	6418	6419	
4	6420	6421	6422	6423	
4	6424	6425	6426	6427	
4	6428	6429	6430	6431	
4	6432	6433	6434	6435	
4	6436	6437	6438	6439	
4	6440	6441	6442	6443	
4	6444	6445	6446	6447	
4	6448	6449	6450	6451	
4	6452	6453	6454	6455	
4	6456	6457	6458	6459	
4	6460	6461	6462	6463	
4	6464	6465	6466	6467	
4	6468	6469	6470	6471	
4	6472	6473	6474	6475	
4	6476	6477	6478	6479	
4	6480	6481	6482	6483	
4	6484	6485	6486	6487	
4	6488	6489	6490	6491	
4	6492	6493	6494	6495	
4	6496	6497	6498	6499	
4	6500	6501	6502	6503	
4	6504	6505	6506	6507	
4	6508	6509	6510	6511	
4	6512	6513	6514	6515	
4	6516	6517	6518	6519	
4	6520	6521	6522	6523	
4	6524	6525	6526	6527	
4	6528	6529	6530	6531	
4	6532	6533	6534	6535	
4	6536	6537	6538	6539	
4	6540	6541	6542	6543	
4	6544	6545	6546	6547	
4	6548	6549	6550	6551	
4	6552	6553	6554	6555	
4	6556	6557	6558	6559	
4	6560	6561	6562	6563	
4	6564	6565	6566	6567	
4	6568	6569	6570	6571	
4	6572	6573	6574	6575	
4	6576	6577	6578	6579	
4	6580	6581	6582	6583	
4	6584	6585	6586	6587	
4	6588	6589	6590	6591	
4	6592	6593	6594	6595	
4	6596	6597	6598	6599	
4	6600	6601	6602	6603	
4	6604	6605	6606	6607	
4	6608	6609	6610	6611	
4	6612	6613	6614	6615	
4	6616	6617	6618	6619	
4	6620	6621	6622	6623	
4	6624	6625	6626	6627	
4	6628	6629	6630	6631	
4	6632	6633	6634	6635	
4	6636	6637	6638	6639	
4	6640	6641	6642	6643	
4	6644	6645	6646	6647	
4	6648	6649	6650	6651	
4	6652	6653	6654	6655	
4	6656	6657	6658	6659	
4	6660	6661	6662	6663	
4	6664	6665	6666	6667	
4	6668	6669	6670	6671	
4	6672	6673	6674	6675	
4	6676	6677	6678	6679	
4	6680	6681	6682	6683	
4	6684	6685	6686	6687	
4	6688	6689	6690	6691	
4	6692	6693	6694	6695	
4	6696	6697	6698	6699	
4	6700	6701	6702	6703	
4	6704	6705	6706	6707	
4	6708	6709	6710	6711	
4	6712	6713	6714	6715	
4	6716	6717	6718	6719	
4	6720	6721	6722	6723	
4	6724	6725	6726	6727	
4	6728	6729	6730	6731	
4	6732	6733	6734	6735	
4	6736	6737	6738	6739	
4	6740	6741	6742	6743	
4	6744	6745	6746	6747	
4	6748	6749	6750	6751	
4	6752	6753	6754	6755	
4	6756	6757	6758	6759	
4	6760	6761	6762	6763	
4	6764	6765	6766	6767	
4	6768	6769	6770	6771	
4	6772	6773	6774	6775	
4	6776	6777	6778	6779	
4	6780	6781	6782	6783	
4	6784	6785	6786	6787	
4	6788	6789	6790	6791	
4	6792	6793	6794	6795	
4	6796	6797	6798	6799	
4	6800	6801	6802	6803	
4	6804	6805	6806	6807	
4	6808	6809	6810	6811	
4	6812	6813	6814	6815	
4	6816	6817	6818	6819	
4	6820	6821	6822	6823	
4	6824	6825	6826	6827	
4	6828	6829	6830	6831	
4	6832	6833	6834	6835	
4	6836	6837	6838	6839	
4	6840	6841	6842	6843	
4	6844	6845	6846	6847	
4	6848	6849	6850	6851	
4	6852	6853	6854	6855	
4	6856	6857	6858	6859	
4	6860	6861	6862	6863	
4	6864	6865	6866	6867	
4	6868	6869	6870	6871	
4	6872	6873	6874	6875	
4	6876	6877	6878	6879	
4	6880	6881	6882	6883	
4	6884	6885	6886	6887	
4	6888	6889	6890	6891	
4	6892	6893	6894	6895	
4	6896	6897	6898	6899	
4	6900	6901	6902	6903	
4	6904	6905	6906	6907	
4	6908	6909	6910	6911	
4	6912	6913	6914	6915	
4	6916	6917	6918	6919	
4	6920	6921	6922	6923	
4	6924	6925	6926	6927	
4	6928	6929	6930	6931	
4	6932	6933	6934	6935	
4	6936	6937	6938	6939	
4	6940	6941	6942	6943	
4	6944	6945	6946	6947	
4	6948	6949	6950	6951	
4	6952	6953	6954	6955	
4	6956	6957	6958	6959	
4	6960	6961	6962	6963	
4	6964	6965	6966	6967	
4	6968	6969	6970	6971	
4	6972	6973	6974	6975	
4	6976	6977	6978	6979	
4	6980	6981	6982	6983	
4	6984	6985	6986	6987	
4	6988	6989	6990	6991	
4	6992	6993	6994	6995	
4	6996	6997	6998	6999	
4	7000	7001	7002	7003	
4	7004	7005	7006	7007	
4	7008	7009	7010	7011	
4	7012	7013	7014	7015	
4	7016	7017	7018	7019	
4	7020	7021	7022	7023	
4	7024	7025	7026	7027	
4	7028	7029	7030	7031	
4	7032	7033	7034	7035	
4	7036	7037	7038	7039	
4	7040	7041	7042	7043	
4	7044	7045	7046	7047	
4	7048	7049	7050	7051	
4	7052	7053	7054	7055	
4	7056	7057	7058	7059	
4	7060	7061	7062	7063	
4	7064	7065	7066	7067	
4	7068	7069	7070	7071	
4	7072	7073	7074	7075	
4	7076	7077	7078	7079	
4	7080	7081	7082	7083	
4	7084	7085	7086	7087	
4	7088	7089	7090	7091	
4	7092	7093	7094	7095	
4	7096	7097	7098	7099	
4	7100	7101	7102	7103	
4	7104	7105	7106	7107	
4	7108	7109	7110	7111	
4	7112	7113	7114	7115	
4	7116	7117	7118	7119	
4	7120	7121	7122	7123	
4	7124	7125	7126	7127	
4	7128	7129	7130	7131	
4	7132	7133	7134	7135	
4	7136	7137	7138	7139	
4	7140	7141	7142	7143	
4	7144	7145	7146	7147	
4	7148	7149	7150	7151	
4	7152	7153	7154	7155	
4	7156	7157	7158	7159	
4	7160	7161	7162	7163	
4	7164	7165	7166	7167	
4	7168	7169	7170	7171	
4	7172	7173	7174	7175	
4	7176	7177	7178	7179	
4	7180	7181	7182	7183	
4	7184	7185	7186	7187	
4	7188	7189	7190	7191	
4	7192	7193	7194	7195	
4	7196	7197	7198	7199	
4	7200	7201	7202	7203	
4	7204	7205	7206	7207	
4	7208	7209	7210	7211	
4	7212	7213	7214	7215	
4	7216	7217	7218	7219	
4	7220	7221	7222	7223	
4	7224	7225	7226	7227	
4	7228	7229	7230	7231	
4	7232	7233	7234	7235	
4	7236	7237	7238	7239	
4	7240	7241	7242	7243	
4	7244	7245	7246	7247	
4	7248	7249	7250	7251	
4	7252	7253	7254	7255	
4	7256	7257	7258	7259	
4	7260	7261	7262	7263	
4	7264	7265	7266	7267	
4	7268	7269	7270	7271	
4	7272	7273	7274	7275	
4	7276	7277	7278	7279	
4	7280	7281	7282	7283	
4	7284	7285	7286	7287	
4	7288	7289	7290	7291	
4	7292	7293	7294	7295	
4	7296	7297	7298	7299	
4	7300	7301	7302	7303	
4	7304	7305	7306	7307	
4	7308	7309	7310	7311	
4	7312	7313	7314	7315	
4	7316	7317	7318	7319	
4	7320	7321	7322	7323	
4	7324	7325	7326	7327	
4	7328	7329	7330	7331	
4	7332	7333	7334	7335	
4	7336	7337	7338	7339	
4	7340	7341	7342	7343	
4	7344	7345	7346	7347	
4	7348	7349	7350	7351	
4	7352	7353	7354	7355	
4	7356	7357	7358	7359	
4	7360	7361	7362	7363	
4	7364	7365	7366	7367	
4	7368	7369	7370	7371	
4	7372	7373	7374	7375	
4	7376	7377	7378	7379	
4	7380	7381	7382	7383	
4	7384	7385	7386	7387	
4	7388	7389	7390	7391	
4	7392	7393	7394	7395	
4	7396	7397	7398	7399	
4	7400	7401	7402	7403	
4	7404	7405	7406	7407	
4	7408	7409	7410	7411	
4	7412	7413	7414	7415	
4	7416	7417	7418	7419	
4	7420	7421	7422	7423	
4	7424	7425	7426	7427	
4	7428	7429	7430	7431	
4	7432	7433	7434	7435	
4	7436	7437	7438	7439	
4	7440	7441	7442	7443	
4	7444	7445	7446	7447	
4	7448	7449	7450	7451	
4	7452	7453	7454	7455	
4	7456	7457	7458	7459	
4	7460	7461	7462	7463	
4	7464	7465	7466	7467	
4	7468	7469	7470	7471	
4	7472	7473	7474	7475	
4	7476	7477	7478	7479	
4	7480	7481	7482	7483	
4	7484	7485	7486	7487	
4	7488	7489	7490	7491	
4	7492	7493	7494	7495	
4	7496	7497	7498	7499	
4	7500	7501	7502	7503	
4	7504	7505	7506	7507	
4	7508	7509	7510	7511	
4	7512	7513	7514	7515	
4	7516	7517	7518	7519	
4	7520	7521	7522	7523	
4	7524	7525	7526	7527	
4	7528	7529	7530	7531	
4	7532	7533	7534	7535	
4	7536	7537	7538	7539	
4	7540	7541	7542	7543	
4	7544	7545	7546	7547	
4	7548	7549	7550	7551	
4	7552	7553	7554	7555	
4	7556	7557	7558	7559	
4	7560	7561	7562	7563	
4	7564	7565	7566	7567	
4	7568	7569	7570	7571	
4	7572	7573	7574	7575	
4	7576	7577	7578	7579	
4	7580	7581	7582	7583	
4	7584	7585	7586	7587	
4	7588	7589	7590	7591	
4	7592	7593	7594	7595	
4	7596	7597	7598	7599	
4	7600	7601	7602	7603	
4	7604	7605	7606	7607	
4	7608	7609	7610	7611	
4	7612	7613	7614	7615	
4	7616	7617	7618	7619	
4	7620	7621	7622	7623	
4	7624	7625	7626	7627	
4	7628	7629	7630	7631	
4	7632	7633	7634	7635	
4	7636	7637	7638	7639	
4	7640	7641	7642	7643	
4	7644	7645	7646	7647	
4	7648	7649	7650	7651	
4	7652	7653	7654	7655	
4	7656	7657	7658	7659	
4	7660	7661	7662	7663	
4	7664	7665	7666	7667	
4	7668	7669	7670	7671	
4	7672	7673	7674	7675	
4	7676	7677	7678	7679	
4	7680	7681	7682	7683	
4	7684	7685	7686	7687	
4	7688	7689	7690	7691	
4	7692	7693	7694	7695	
4	7696	7697	7698	7699	
4	7700	7701	7702	7703	
4	7704	7705	7706	7707	
4	7708	7709	7710	7711	
4	7712	7713	7714	7715	
4	7716	7717	7718	7719	
4	7720	7721	7722	7723	
4	7724	7725	7726	7727	
4	7728	7729	7730	7731	
4	7732	7733	7734	7735	
4	7736	7737	7738	7739	
4	7740	7741	7742	7743	
4	7744	7745	7746	7747	
4	7748	7749	7750	7751	
4	7752	7753	7754	7755	
4	7756	7757	7758	7759	
4	7760	7761	7762	7763	
4	7764	7765	7766	7767	
4	7768	7769	7770	7771	
4	7772	7773	7774	7775	
4	7776	7777	7778	7779	
4	7780	7781	7782	7783	
4	7784	7785	7786	7787	
4	7788	7789	7790	7791	
4	7792	7793	7794	7795	
4	7796	7797	7798	7799	
4	7800	7801	7802	7803	
4	7804	7805	7806	7807	
4	7808	7809	7810	7811	
4	7812	7813	7814	7815	
4	7816	7817	7818	7819	
4	7820	7821	7822	7823	
4	7824	7825	7826	7827	
4	7828	7829	7830	7831	
4	7832	7833	7834	7835	
4	7836	7837	7838	7839	
4	7840	7841	7842	7843	
4	7844	7845	7846	7847	
4	7848	7849	7850	7851	
4	7852	7853	7854	7855	
4	7856	7857	7858	7859	
4	7860	7861	7862	7863	
4	7864	7865	7866	7867	
4	7868	7869	7870	7871	
4	7872	7873	7874	7875	
4	7876	7877	7878	7879	
4	7880	7881	7882	7883	
4	7884	7885	7886	7887	
4	7888	7889	7890	7891	
4	7892	7893	7894	7895	
4	7896	7897	7898	7899	
4	7900	7901	7902	7903	
4	7904	7905	7906	7907	
4	7908	7909	7910	7911	
4	7912	7913	7914	7915	
4	7916	7917	7918	7919	
4	7920	7921	7922	7923	
4	7924	7925	7926	7927	
4	7928	7929	7930	7931	
4	7932	7933	7934	7935	
4	7936	7937	7938	7939	
4	7940	7941	7942	7943	
4	7944	7945	7946	7947	
4	7948	7949	7950	7951	
4	7952	7953	7954	7955	
4	7956	7957	7958	7959	
4	7960	7961	7962	7963	
4	7964	7965	7966	7967	
4	7968	7969	7970	7971	
4	7972	7973	7974	7975	
4	7976	7977	7978	7979	
4	7980	7981	7982	7983	
4	7984	7985	7986	7987	
4	7988	7989	7990	7991	
4	7992	7993	7994	7995	
4	7996	7997	7998	7999	
4	8000	8001	8002	8003	
4	8004	8005	8006	8007	
4	8008	8009	8010	8011	
4	8012	8013	8014	8015	
4	8016	8017	8018	8019	
4	8020	8021	8022	8023	
4	8024	8025	8026	8027	
4	8028	8029	8030	8031	
4	8032	8033	8034	8035	
4	8036	8037	8038	8039	
4	8040	8041	8042	8043	
4	8044	8045	8046	8047	
4	8048	8049	8050	8051	
4	8052	8053	8054	8055	
4	8056	8057	8058	8059	
4	8060	8061	8062	8063	
4	8064	8065	8066	8067	
4	8068	8069	8070	8071	
4	8072	8073	8074	8075	
4	8076	8077	8078	8079	
4	8080	8081	8082	8083	
4	8084	8085	8086	8087	
4	8088	8089	8090	8091	
4	8092	8093	8094	8095	
4	8096	8097	8098	8099	
4	8100	8101	8102	8103	
4	8104	8105	8106	8107	
4	8108	8109	8110	8111	
4	8112	8113	8114	8115	
4	8116	8117	8118	8119	
4	8120	8121	8122	8123	
4	8124	8125	8126	8127	
4	8128	8129	8130	8131	
4	8132	8133	8134	8135	
4	8136	8137	8138	8139	
4	8140	8141	8142	8143	
4	8144	8145	8146	8147	
4	8148	8149	8150	8151	
4	8152	8153	8154	8155	
4	8156	8157	8158	8159	
4	8160	8161	8162	8163	
4	8164	8165	8166	8167	
4	8168	8169	8170	8171	
4	8172	8173	8174	8175	
4	8176	8177	8178	8179	
4	8180	8181	8182	8183	
4	8184	8185	8186	8187	
4	8188	8189	8190	8191	
4	8192	8193	8194	8195	
4	8196	8197	8198	8199	
4	8200	8201	8202	8203	
4	8204	8205	8206	8207	
4	8208	8209	8210	8211	
4	8212	8213	8214	8215	
4	8216	8217	8218	8219	
4	8220	8221	8222	8223	
4	8224	8225	8226	8227	
4	8228	8229	8230	8231	
4	8232	8233	8234	8235	
4	8236	8237	8238	8239	
4	8240	8241	8242	8243	
4	8244	8245	8246	8247	
4	8248	8249	8250	8251	
4	8252	8253	8254	8255	
4	8256	8257	8258	8259	
4	8260	8261	8262	8263	
4	8264	8265	8266	8267	
4	8268	8269	8270	8271	
4	8272	8273	8274	8275	
4	8276	8277	8278	8279	
4	8280	8281	8282	8283	
4	8284	8285	8286	8287	
4	8288	8289	8290	8291	
4	8292	8293	8294	8295	
4	8296	8297	8298	8299	
4	8300	8301	8302	8303	
4	8304	8305	8306	8307	
4	8308	8309	8310	8311	
4	8312	8313	8314	8315	
4	8316	8317	8318	8319	
4	8320	8321	8322	8323	
4	8324	8325	8326	8327	
4	8328	8329	8330	8331	
4	8332	8333	8334	8335	
4	8336	8337	8338	8339	
4	8340	8341	8342	8343	
4	8344	8345	8346	8347	
4	8348	8349	8350	8351	
4	8352	8353	8354	8355	
4	8356	8357	8358	8359	
4	8360	8361	8362	8363	
4	8364	8365	8366	8367	
4	8368	8369	8370	8371	
4	8372	8373	8374	8375	
4	8376	8377	8378	8379	
4	8380	8381	8382	8383	
4	8384	8385	8386	8387	
4	8388	8389	8390	8391	
4	8392	8393	8394	8395	
4	8396	8397	8398	8399	
4	8400	8401	8402	8403	
4	8404	8405	8406	8407	
4	8408	8409	8410	8411	
4	8412	8413	8414	8415	
4	8416	8417	8418	8419	
4	8420	8421	8422	8423	
4	8424	8425	8426	8427	
4	8428	8429	8430	8431	
4	8432	8433	8434	8435	
4	8436	8437	8438	8439	
4	8440	8441	8442	8443	
4	8444	8445	8446	8447	
4	8448	8449	8450	8451	
4	8452	8453	8454	8455	
4	8456	8457	8458	8459	
4	8460	8461	8462	8463	
4	8464	8465	8466	8467	
4	8468	8469	8470	8471	
4	8472	8473	8474	8475	
4	8476	8477	8478	8479	
4	8480	8481	8482	8483	
4	8484	8485	8486	8487	
4	8488	8489	8490	8491	
4	8492	8493	8494	8495	
4	8496	8497	8498	8499	
4	8500	8501	8502	8503	
4	8504	8505	8506	8507	
4	8508	8509	8510	8511	
4	8512	8513	8514	8515	
4	8516	8517	8518	8519	
4	8520	8521	8522	8523	
4	8524	8525	8526	8527	
4	8528	8529	8530	8531	
4	8532	8533	8534	8535	
4	8536	8537	8538	8539	
4	8540	8541	8542	8543	
4	8544	8545	8546	8547	
4	8548	8549	8550	8551	
4	8552	8553	8554	8555	
4	8556	8557	8558	8559	
4	8560	8561	8562	8563	
4	8564	8565	8566	8567	
4	8568	8569	8570	8571	
4	8572	8573	8574	8575	
4	8576	8577	8578	8579	
4	8580	8581	8582	8583	
4	8584	8585	8586	8587	
4	8588	8589	8590	8591	
4	8592	8593	8594	8595	
4	8596	8597	8598	8599	
4	8600	8601	8602	8603	
4	8604	8605	8606	8607	
4	8608	8609	8610	8611	
4	8612	8613	8614	8615	
4	8616	8617	8618	8619	
4	8620	8621	8622	8623	
4	8624	8625	8626	8627	
4	8628	8629	8630	8631	
4	8632	8633	8634	8635	
4	8636	8637	8638	8639	
4	8640	8641	8642	8643	
4	8644	8645	8646	8647	
4	8648	8649	8650	8651	
4	8652	8653	8654	8655	
4	8656	8657	8658	8659	
4	8660	8661	8662	8663	
4	8664	8665	8666	8667	
4	8668	8669	8670	8671	
4	8672	8673	8674	8675	
4	8676	8677	8678	8679	
4	8680	8681	8682	8683	
4	8684	8685	8686	8687	
4	8688	8689	8690	8691	
4	8692	8693	8694	8695	
4	8696	8697	8698	8699	
4	8700	8701	8702	8703	
4	8704	8705	8706	8707	
4	8708	8709	8710	8711	
4	8712	8713	8714	8715	
4	8716	8717	8718	8719	
4	8720	8721	8722	8723	
4	8724	8725	8726	8727	
4	8728	8729	8730	8731	
4	8732	8733	8734	8735	
4	8736	8737	8738	8739	
4	8740	8741	8742	8743	
4	8744	8745	8746	8747	
4	8748	8749	8750	8751	
4	8752	8753	8754	8755	
4	8756	8757	8758	8759	
4	8760	8761	8762	8763	
4	8764	8765	8766	8767	
4	8768	8769	8770	8771	
4	8772	8773	8774	8775	
4	8776	8777	8778	8779	
4	8780	8781	8782	8783	
4	8784	8785	8786	8787	
4	8788	8789	8790	8791	
4	8792	8793	8794	8795	
4	8796	8797	8798	8799	
4	8800	8801	8802	8803	
4	8804	8805	8806	8807	
4	8808	8809	8810	8811	
4	8812	8813	8814	8815	
4	8816	8817	8818	8819	
4	8820	8821	8822	8823	
4	8824	8825	8826	8827	
4	8828	8829	8830	8831	
4	8832	8833	8834	8835	
4	8836	8837	8838	8839	
4	8840	8841	8842	8843	
4	8844	8845	8846	8847	
4	8848	8849	8850	8851	
4	8852	8853	8854	8855	
4	8856	8857	8858	8859	
4	8860	8861	8862	8863	
4	8864	8865	8866	8867	
4	8868	8869	8870	8871	
4	8872	8873	8874	8875	
4	8876	8877	8878	8879	
4	8880	8881	8882	8883	
4	8884	8885	8886	8887	
4	8888	8889	8890	8891	
4	8892	8893	8894	8895	
4	8896	8897	8898	8899	
4	8900	8901	8902	8903	
4	8904	8905	8906	8907	
4	8908	8909	8910	8911	
4	8912	8913	8914	8915	
4	8916	8917	8918	8919	
4	8920	8921	8922	8923	
4	8924	8925	8926	8927	
4	8928	8929	8930	8931	
4	8932	8933	8934	8935	
4	8936	8937	8938	8939	
4	8940	8941	8942	8943	
4	8944	8945	8946	8947	
4	8948	8949	8950	8951	
4	8952	8953	8954	8955	
4	8956	8957	8958	8959	
4	8960	8961	8962	8963	
4	8964	8965	8966	8967	
4	8968	8969	8970	8971	
4	8972	8973	8974	8975	
4	8976	8977	8978	8979	
4	8980	8981	8982	8983	
4	8984	8985	8986	8987	
4	8988	8989	8990	8991	
4	8992	8993	8994	8995	
4	8996	8997	8998	8999	
4	9000	9001	9002	9003	
4	9004	9005	9006	9007	
4	9008	9009	9010	9011	
4	9012	9013	9014	9015	
4	9016	9017	9018	9019	
4	9020	9021	9022	9023	
4	9024	9025	9026	9027	
4	9028	9029	9030	9031	
4	9032	9033	9034	9035	
4	9036	9037	9038	9039	
4	9040	9041	9042	9043	
4	9044	9045	9046	9047	
4	9048	9049	9050	9051	
4	9052	9053	9054	9055	
4	9056	9057	9058	9059	
4	9060	9061	9062	9063	
4	9064	9065	9066	9067	
4	9068	9069	9070	9071	
4	9072	9073	9074	9075	
4	9076	9077	9078	9079	
4	9080	9081	9082	9083	
4	9084	9085	9086	9087	
4	9088	9089	9090	9091	
4	9092	9093	9094	9095	
4	9096	9097	9098	9099	
4	9100	9101	9102	9103	
4	9104	9105	9106	9107	
4	9108	9109	9110	9111	
4	9112	9113	9114	9115	
4	9116	9117	9118	9119	
4	9120	9121	9122	9123	
4	9124	9125	9126	9127	
4	9128	9129	9130	9131	
4	9132	9133	9134	9135	
4	9136	9137	9138	9139	
4	9140	9141	9142	9143	
4	9144	9145	9146	9147	
4	9148	9149	9150	9151	
4	9152	9153	9154	9155	
4	9156	9157	9158	9159	
4	9160	9161	9162	9163	
4	9164	9165	9166	9167	
4	9168	9169	9170	9171	
4	9172	9173	9174	9175	
4	9176	9177	9178	9179	
4	9180	9181	9182	9183	
4	9184	9185	9186	9187	
4	9188	9189	9190	9191	
4	9192	9193	9194	9195	
4	9196	9197	9198	9199	
4	9200	9201	9202	9203	
4	9204	9205	9206	9207	
4	9208	9209	9210	9211	
4	9212	9213	9214	9215	
4	9216	9217	9218	9219	
4	9220	9221	9222	9223	
4	9224	9225	9226	9227	
4	9228	9229	9230	9231	
4	9232	9233	9234	9235	
4	9236	9237	9238	9239	
4	9240	9241	9242	9243	
4	9244	9245	9246	9247	
4	9248	9249	9250	9251	
4	9252	9253	9254	9255	
4	9256	9257	9258	9259	
4	9260	9261	9262	9263	
4	9264	9265	9266	9267	
4	9268	9269	9270	9271	
4	9272	9273	9274	9275	
4	9276	9277	9278	9279	
4	9280	9281	9282	9283	
4	9284	9285	9286	9287	
4	9288	9289	9290	9291	
4	9292	9293	9294	9295	
4	9296	9297	9298	9299	
4	9300	9301	9302	9303	
4	9304	9305	9306	9307	
4	9308	9309	9310	9311	
4	9312	9313	9314	9315	
4	9316	9317	9318	9319	
4	9320	9321	9322	9323	
4	9324	9325	9326	9327	
4	9328	9329	9330	9331	
4	9332	9333	9334	9335	
4	9336	9337	9338	9339	
4	9340	9341	9342	9343	
4	9344	9345	9346	9347	
4	9348	9349	9350	9351	
4	9352	9353	9354	9355	
4	9356	9357	9358	9359	
4	9360	9361	9362	9363	
4	9364	9365	9366	9367	
4	9368	9369	9370	9371	
4	9372	9373	9374	9375	
4	9376	9377	9378	9379	
4	9380	9381	9382	9383	
4	9384	9385	9386	9387	
4	9388	9389	9390	9391	
4	9392	9393	9394	9395	
4	9396	9397	9398	9399	
4	9400	9401	9402	9403	
4	9404	9405	9406	9407	
4	9408	9409	9410	9411	
4	9412	9413	9414	9415	
4	9416	9417	9418	9419	
4	9420	9421	9422	9423	
4	9424	9425	9426	9427	
4	9428	9429	9430	9431	
4	9432	9433	9434	9435	
4	9436	9437	9438	9439	
4	9440	9441	9442	9443	
4	9444	9445	9446	9447	
4	9448	9449	9450	9451	
4	9452	9453	9454	9455	
4	9456	9457	9458	9459	
4	9460	9461	9462	9463	
4	9464	9465	9466	9467	
4	9468	9469	9470	9471	
4	9472	9473	9474	9475	
4	9476	9477	9478	9479	
4	9480	9481	9482	9483	
4	9484	9485	9486	9487	
4	9488	9489	9490	9491	
4	9492	9493	9494	9495	
4	9496	9497	9498	9499	
4	9500	9501	9502	9503	
4	9504	9505	9506	9507	
4	9508	9509	9510	9511	
4	9512	9513	9514	9515	
4	9516	9517	9518	9519	
4	9520	9521	9522	9523	
4	9524	9525	9526	9527	
4	9528	9529	9530	9531	
4	9532	9533	9534	9535	
4	9536	9537	9538	9539	
4	9540	9541	9542	9543	
4	9544	9545	9546	9547	
4	9548	9549	9550	9551	
4	9552	9553	9554	9555	
4	9556	9557	9558	9559	
4	9560	9561	9562	9563	
4	9564	9565	9566	9567	
4	9568	9569	9570	9571	
4	9572	9573	9574	9575	
4	9576	9577	9578	9579	
4	9580	9581	9582	9583	
4	9584	9585	9586	9587	
4	9588	9589	9590	9591	
4	9592	9593	9594	9595	
4	9596	9597	9598	9599	
4	9600	9601	9602	9603	
4	9604	9605	9606	9607	
4	9608	9609	9610	9611	
4	9612	9613	9614	9615	
4	9616	9617	9618	9619	
4	9620	9621	9622	9623	
4	9624	9625	9626	9627	
4	9628	9629	9630	9631	
4	9632	9633	9634	9635	
4	9636	9637	9638	9639	
4	9640	9641	9642	9643	
4	9644	9645	9646	9647	
4	9648	9649	9650	9651	
4	9652	9653	9654	9655	
4	9656	9657	9658	9659	
4	9660	9661	9662	9663	
4	9664	9665	9666	9667	
4	9668	9669	9670	9671	
4	9672	9673	9674	9675	
4	9676	9677	9678	9679	
4	9680	9681	9682	9683	
4	9684	9685	9686	9687	
4	9688	9689	9690	9691	
4	9692	9693	9694	9695	
4	9696	9697	9698	9699	
4	9700	9701	9702	9703	
4	9704	9705	9706	9707	
4	9708	9709	9710	9711	
4	9712	9713	9714	9715	
4	9716	9717	9718	9719	
4	9720	9721	9722	9723	
4	9724	9725	9726	9727	
4	9728	9729	9730	9731	
4	9732	9733	9734	9735	
4	9736	9737	9738	9739	
4	9740	9741	9742	9743	
4	9744	9745	9746	9747	
4	9748	9749	9750	9751	
4	9752	9753	9754	9755	
4	9756	9757	9758	9759	
4	9760	9761	9762	9763	
4	9764	9765	9766	9767	
4	9768	9769	9770	9771	
4	9772	9773	9774	9775	
4	9776	9777	9778	9779	
4	9780	9781	9782	9783	
4	9784	9785	9786	9787	
4	9788	9789	9790	9791	
4	9792	9793	9794	9795	
4	9796	9797	9798	9799	
4	9800	9801	9802	9803	
4	9804	9805	9806	9807	
4	9808	9809	9810	9811	
4	9812	9813	9814	9815	
4	9816	9817	9818	9819	
4	9820	9821	9822	9823	
4	9824	9825	9826	9827	
4	9828	9829	9830	9831	
4	9832	9833	9834	9835	
4	9836	9837	9838	9839	
4	9840	9841	9842	9843	
4	9844	9845	9846	9847	
4	9848	9849	9850	9851	
4	9852	9853	9854	9855	
4	9856	9857	9858	9859	
4	9860	9861	9862	9863	
4	9864	9865	9866	9867	
4	9868	9869	9870	9871	
4	9872	9873	9874	9875	
4	9876	9877	9878	9879	
4	9880	9881	9882	9883	
4	9884	9885	9886	9887	
4	9888	9889	9890	9891	
4	9892	9893	9894	9895	
4	9896	9897	9898	9899	
4	9900	9901	9902	9903	
4	9904	9905	9906	9907	
4	9908	9909	9910	9911	
4	9912	9913	9914	9915	
4	9916	9917	9918	9919	
4	9920	9921	9922	9923	
4	9924	9925	9926	9927	
4	9928	9929	9930	9931	
4	9932	9933	9934	9935	
4	9936	9937	9938	9939	
4	9940	9941	9942	9943	
4	9944	9945	9946	9947	
4	9948	9949	9950	9951	
4	9952	9953	9954	9955	
4	9956	9957	9958	9959	
4	9960	9961	9962	9963	
4	9964	9965	9966	9967	
4	9968	9969	9970	9971	
4	9972	9973	9974	9975	
4	9976	9977	9978	9979	
4	9980	9981	9982	9983	
4	9984	9985	9986	9987	
4	9988	9989	9990	9991	
4	9992	9993	9994	9995	
4	9996	9997	9998	9999	
4	10000	10001	10002	10003	
4	10004	10005	10006	10007	
4	10008	10009	10010	10011	
4	10012	10013	10014	10015	
4	10016	10017	10018	10019	
4	10020	10021	10022	10023	
4	10024	10025	10026	10027	
4	10028	10029	10030	10031	
4	10032	10033	10034	10035	
4	10036	10037	10038	10039	
4	10040	10041	10042	10043	
4	10044	10045	10046	10047	
4	10048	10049	10050	10051	
4	10052	10053	10054	10055	
4	10056	10057	10058	10059	
4	10060	10061	10062	10063	
4	10064	10065	10066	10067	
4	10068	10069	10070	10071	
4	10072	10073	10074	10075	
4	10076	10077	10078	10079	
4	10080	10081	10082	10083	
4	10084	10085	10086	10087	
4	10088	10089	10090	10091	
4	10092	10093	10094	10095	
4	10096	10097	10098	10099	
4	10100	10101	10102	10103	
4	10104	10105	10106	10107	
4	10108	10109	10110	10111	
4	10112	10113	10114	10115	
4	10116	10117	10118	10119	
4	10120	10121	10122	10123	
4	10124	10125	10126	10127	
4	10128	10129	10130	10131	
4	10132	10133	10134	10135	
4	10136	10137	10138	10139	
4	10140	10141	10142	10143	
4	10144	10145	10146	10147	
4	10148	10149	10150	10151	
4	10152	10153	10154	10155	
4	10156	10157	10158	10159	
4	10160	10161	10162	10163	
4	10164	10165	10166	10167	
4	10168	10169	10170	10171	
4	10172	10173	10174	10175	
4	10176	10177	10178	10179	
4	10180	10181	10182	10183	
4	10184	10185	10186	10187	
4	10188	10189	10190	10191	
4	10192	10193	10194	10195	
4	10196	10197	10198	10199	
4	10200	10201	10202	10203	
4	10204	10205	10206	10207	
4	10208	10209	10210	10211	
4	10212	10213	10214	10215	
4	10216	10217	10218	10219	
4	10220	10221	10222	10223	
4	10224	10225	10226	10227	
4	10228	10229	10230	10231	
4	10232	10233	10234	10235	
4	10236	10237	10238	10239	
4	10240	10241	10242	10243	
4	10244	10245	10246	10247	
4	10248	10249	10250	10251	
4	10252	10253	10254	10255	
4	10256	10257	10258	10259	
4	10260	10261	10262	10263	
4	10264	10265	10266	10267	
4	10268	10269	10270	10271	
4	10272	10273	10274	10275	
4	10276	10277	10278	10279	
4	10280	10281	10282	10283	
4	10284	10285	10286	10287	
4	10288	10289	10290	10291	
4	10292	10293	10294	10295	
4	10296	10297	10298	10299	
4	10300	10301	10302	10303	
4	10304	10305	10306	10307	
4	10308	10309	10310	10311	
4	10312	10313	10314	10315	
4	10316	10317	10318	10319	
4	10320	10321	10322	10323	
4	10324	10325	10326	10327	
4	10328	10329	10330	10331	
4	10332	10333	10334	10335	
4	10336	10337	10338	10339	
4	10340	10341	10342	10343	
4	10344	10345	10346	10347	
4	10348	10349	10350	10351	
4	10352	10353	10354	10355	
4	10356	10357	10358	10359	
4	10360	10361	10362	10363	
4	10364	10365	10366	10367	
4	10368	10369	10370	10371	
4	10372	10373	10374	10375	
4	10376	10377	10378	10379	
4	10380	10381	10382	10383	
4	10384	10385	10386	10387	
4	10388	10389	10390	10391	
4	10392	10393	10394	10395	
4	10396	10397	10398	10399	
4	10400	10401	10402	10403	
4	10404	10405	10406	10407	
4	10408	10409	10410	10411	
4	10412	10413	10414	10415	
4	10416	10417	10418	10419	
4	10420	10421	10422	10423	
4	10424	10425	10426	10427	
4	10428	10429	10430	10431	
4	10432	10433	10434	10435	
4	10436	10437	10438	10439	
4	10440	10441	10442	10443	
4	10444	10445	10446	10447	
4	10448	10449	10450	10451	
4	10452	10453	10454	10455	
4	10456	10457	10458	10459	
4	10460	10461	10462	10463	
4	10464	10465	10466	10467	
4	10468	10469	10470	10471	
4	10472	10473	10474	10475	
4	10476	10477	10478	10479	
4	10480	10481	10482	10483	
4	10484	10485	10486	10487	
4	10488	10489	10490	10491	
4	10492	10493	10494	10495	
4	10496	10497	10498	10499	
4	10500	10501	10502	10503	
4	10504	10505	10506	10507	
4	10508	10509	10510	10511	
4	10512	10513	10514	10515	
4	10516	10517	10518	10519	
4	10520	10521	10522	10523	
4	10524	10525	10526	10527	
4	10528	10529	10530	10531	
4	10532	10533	10534	10535	
4	10536	10537	10538	10539	
4	10540	10541	10542	10543	
4	10544	10545	10546	10547	
4	10548	10549	10550	10551	
4	10552	10553	10554	10555	
4	10556	10557	10558	10559	
4	10560	10561	10562	10563	
4	10564	10565	10566	10567	
4	10568	10569	10570	10571	
4	10572	10573	10574	10575	
4	10576	10577	10578	10579	
4	10580	10581	10582	10583	
4	10584	10585	10586	10587	
4	10588	10589	10590	10591	
4	10592	10593	10594	10595	
4	10596	10597	10598	10599	
4	10600	10601	10602	10603	
4	10604	10605	10606	10607	
4	10608	10609	10610	10611	
4	10612	10613	10614	10615	
4	10616	10617	10618	10619	
4	10620	10621	10622	10623	
4	10624	10625	10626	10627	
4	10628	10629	10630	10631	
4	10632	10633	10634	10635	
4	10636	10637	10638	10639	
4	10640	10641	10642	10643	
4	10644	10645	10646	10647	
4	10648	10649	10650	10651	
4	10652	10653	10654	10655	
4	10656	10657	10658	10659	
4	10660	10661	10662	10663	
4	10664	10665	10666	10667	
4	10668	10669	10670	10671	
4	10672	10673	10674	10675	
4	10676	10677	10678	10679	
4	10680	10681	10682	10683	
4	10684	10685	10686	10687	
4	10688	10689	10690	10691	
4	10692	10693	10694	10695	
4	10696	10697	10698	10699	
4	10700	10701	10702	10703	
4	10704	10705	10706	10707	
4	10708	10709	10710	10711	
4	10712	10713	10714	10715	
4	10716	10717	10718	10719	
4	10720	10721	10722	10723	
4	10724	10725	10726	10727	
4	10728	10729	10730	10731	
4	10732	10733	10734	10735	
4	10736	10737	10738	10739	
4	10740	10741	10742	10743	
4	10744	10745	10746	10747	
4	10748	10749	10750	10751	
4	10752	10753	10754	10755	
4	10756	10757	10758	10759	
4	10760	10761	10762	10763	
4	10764	10765	10766	10767	
4	10768	10769	10770	10771	
4	10772	10773	10774	10775	
4	10776	10777	10778	10779	
4	10780	10781	10782	10783	
4	10784	10785	10786	10787	
4	10788	10789	10790	10791	
4	10792	10793	10794	10795	
4	10796	10797	10798	10799	
4	10800	10801	10802	10803	
4	10804	10805	10806	10807	
4	10808	10809	10810	10811	
4	10812	10813	10814	10815	
4	10816	10817	10818	10819	
4	10820	10821	10822	10823	
4	10824	10825	10826	10827	
4	10828	10829	10830	10831	
4	10832	10833	10834	10835	
4	10836	10837	10838	10839	
4	10840	10841	10842	10843	
4	10844	10845	10846	10847	
4	10848	10849	10850	10851	
4	10852	10853	10854	10855	
4	10856	10857	10858	10859	
4	10860	10861	10862	10863	
4	10864	10865	10866	10867	
4	10868	10869	10870	10871	
4	10872	10873	10874	10875	
4	10876	10877	10878	10879	
4	10880	10881	10882	10883	
4	10884	10885	10886	10887	
4	10888	10889	10890	10891	
4	10892	10893	10894	10895	
4	10896	10897	10898	10899	
4	10900	10901	10902	10903	
4	10904	10905	10906	10907	
4	10908	10909	10910	10911	
4	10912	10913	10914	10915	
4	10916	10917	10918	10919	
4	10920	10921	10922	10923	
4	10924	10925	10926	10927	
4	10928	10929	10930	10931	
4	10932	10933	10934	10935	
4	10936	10937	10938	10939	
4	10940	10941	10942	10943	
4	10944	10945	10946	10947	
4	10948	10949	10950	10951	
4	10952	10953	10954	10955	
4	10956	10957	10958	10959	
4	10960	10961	10962	10963	
4	10964	10965	10966	10967	
4	10968	10969	10970	10971	
4	10972	10973	10974	10975	
4	10976	10977	10978	10979	
4	10980	10981	10982	10983	
4	10984	10985	10986	10987	
4	10988	10989	10990	10991	
4	10992	10993	10994	10995	
4	10996	10997	10998	10999	
4	11000	11001	11002	11003	
4	11004	11005	11006	11007	
4	11008	11009	11010	11011	
4	11012	11013	11014	11015	
4	11016	11017	11018	11019	
4	11020	11021	11022	11023	
4	11024	11025	11026	11027	
4	11028	11029	11030	11031	
4	11032	11033	11034	11035	
4	11036	11037	11038	11039	
4	11040	11041	11042	11043	
4	11044	11045	11046	11047	
4	11048	11049	11050	11051	
4	11052	11053	11054	11055	
4	11056	11057	11058	11059	
4	11060	11061	11062	11063	
4	11064	11065	11066	11067	
4	11068	11069	11070	11071	
4	11072	11073	11074	11075	
4	11076	11077	11078	11079	
4	11080	11081	11082	11083	
4	11084	11085	11086	11087	
4	11088	11089	11090	11091	
4	11092	11093	11094	11095	
4	11096	11097	11098	11099	
4	11100	11101	11102	11103	
4	11104	11105	11106	11107	
4	11108	11109	11110	11111	
4	11112	11113	11114	11115	
4	11116	11117	11118	11119	
4	11120	11121	11122	11123	
4	11124	11125	11126	11127	
4	11128	11129	11130	11131	
4	11132	11133	11134	11135	
4	11136	11137	11138	11139	
4	11140	11141	11142	11143	
4	11144	11145	11146	11147	
4	11148	11149	11150	11151	
4	11152	11153	11154	11155	
4	11156	11157	11158	11159	
4	11160	11161	11162	11163	
4	11164	11165	11166	11167	
4	11168	11169	11170	11171	
4	11172	11173	11174	11175	
4	11176	11177	11178	11179	
4	11180	11181	11182	11183	
4	11184	11185	11186	11187	
4	11188	11189	11190	11191	
4	11192	11193	11194	11195	
4	11196	11197	11198	11199	
4	11200	11201	11202	11203	
4	11204	11205	11206	11207	
4	11208	11209	11210	11211	
4	11212	11213	11214	11215	
4	11216	11217	11218	11219	
4	11220	11221	11222	11223	
4	11224	11225	11226	11227	
4	11228	11229	11230	11231	
4	11232	11233	11234	11235	
4	11236	11237	11238	11239	
4	11240	11241	11242	11243	
4	11244	11245	11246	11247	
4	11248	11249	11250	11251	
4	11252	11253	11254	11255	
4	11256	11257	11258	11259	
4	11260	11261	11262	11263	
4	11264	11265	11266	11267	
4	11268	11269	11270	11271	
4	11272	11273	11274	11275	
4	11276	11277	11278	11279	
4	11280	11281	11282	11283	
4	11284	11285	11286	11287	
4	11288	11289	11290	11291	
4	11292	11293	11294	11295	
4	11296	11297	11298	11299	
4	11300	11301	11302	11303	
4	11304	11305	11306	11307	
4	11308	11309	11310	11311	
4	11312	11313	11314	11315	
4	11316	11317	11318	11319	
4	11320	11321	11322	11323	
4	11324	11325	11326	11327	
4	11328	11329	11330	11331	
4	11332	11333	11334	11335	
4	11336	11337	11338	11339	
4	11340	11341	11342	11343	
4	11344	11345	11346	11347	
4	11348	11349	11350	11351	
4	11352	11353	11354	11355	
4	11356	11357	11358	11359	
4	11360	11361	11362	11363	
4	11364	11365	11366	11367	
4	11368	11369	11370	11371	
4	11372	11373	11374	11375	
4	11376	11377	11378	11379	
4	11380	11381	11382	11383	
4	11384	11385	11386	11387	
4	11388	11389	11390	11391	
4	11392	11393	11394	11395	
4	11396	11397	11398	11399	
4	11400	11401	11402	11403	
4	11404	11405	11406	11407	
4	11408	11409	11410	11411	
4	11412	11413	11414	11415	
4	11416	11417	11418	11419	
4	11420	11421	11422	11423	
4	11424	11425	11426	11427	
4	11428	11429	11430	11431	
4	11432	11433	11434	11435	
4	11436	11437	11438	11439	
4	11440	11441	11442	11443	
4	11444	11445	11446	11447	
4	11448	11449	11450	11451	
4	11452	11453	11454	11455	
4	11456	11457	11458	11459	
4	11460	11461	11462	11463	
4	11464	11465	11466	11467	
4	11468	11469	11470	11471	
4	11472	11473	11474	11475	
4	11476	11477	11478	11479	
4	11480	11481	11482	11483	
4	11484	11485	11486	11487	
4	11488	11489	11490	11491	
4	11492	11493	11494	11495	
4	11496	11497	11498	11499	
4	11500	11501	11502	11503	
4	11504	11505	11506	11507	
4	11508	11509	11510	11511	
4	11512	11513	11514	11515	
4	11516	11517	11518	11519	
4	11520	11521	11522	11523	
4	11524	11525	11526	11527	
4	11528	11529	11530	11531	
4	11532	11533	11534	11535	
4	11536	11537	11538	11539	
4	11540	11541	11542	11543	
4	11544	11545	11546	11547	
4	11548	11549	11550	11551	
4	11552	11553	11554	11555	
4	11556	11557	11558	11559	
4	11560	11561	11562	11563	
4	11564	11565	11566	11567	
4	11568	11569	11570	11571	
4	11572	11573	11574	11575	
4	11576	11577	11578	11579	
4	11580	11581	11582	11583	
4	11584	11585	11586	11587	
4	11588	11589	11590	11591	
4	11592	11593	11594	11595	
4	11596	11597	11598	11599	
4	11600	11601	11602	11603	
4	11604	11605	11606	11607	
4	11608	11609	11610	11611	
4	11612	11613	11614	11615	
4	11616	11617	11618	11619	
4	11620	11621	11622	11623	
4	11624	11625	11626	11627	
4	11628	11629	11630	11631	
4	11632	11633	11634	11635	
4	11636	11637	11638	11639	
4	11640	11641	11642	11643	
4	11644	11645	11646	11647	
4	11648	11649	11650	11651	
4	11652	11653	11654	11655	
4	11656	11657	11658	11659	
4	11660	11661	11662	11663	
4	11664	11665	11666	11667	
4	11668	11669	11670	11671	
4	11672	11673	11674	11675	
4	11676	11677	11678	11679	
4	11680	11681	11682	11683	
4	11684	11685	11686	11687	
4	11688	11689	11690	11691	
4	11692	11693	11694	11695	
4	11696	11697	11698	11699	
4	11700	11701	11702	11703	
4	11704	11705	11706	11707	
4	11708	11709	11710	11711	
4	11712	11713	11714	11715	
4	11716	11717	11718	11719	
4	11720	11721	11722	11723	
4	11724	11725	11726	11727	
4	11728	11729	11730	11731	
4	11732	11733	11734	11735	
4	11736	11737	11738	11739	
4	11740	11741	11742	11743	
4	11744	11745	11746	11747	
4	11748	11749	11750	11751	
4	11752	11753	11754	11755	
4	11756	11757	11758	11759	
4	11760	11761	11762	11763	
4	11764	11765	11766	11767	
4	11768	11769	11770	11771	
4	11772	11773	11774	11775	
4	11776	11777	11778	11779	
4	11780	11781	11782	11783	
4	11784	11785	11786	11787	
4	11788	11789	11790	11791	
4	11792	11793	11794	11795	
4	11796	11797	11798	11799	
4	11800	11801	11802	11803	
4	11804	11805	11806	11807	
4	11808	11809	11810	11811	
4	11812	11813	11814	11815	
4	11816	11817	11818	11819	
4	11820	11821	11822	11823	
4	11824	11825	11826	11827	
4	11828	11829	11830	11831	
4	11832	11833	11834	11835	
4	11836	11837	11838	11839	
4	11840	11841	11842	11843	
4	11844	11845	11846	11847	
4	11848	11849	11850	11851	
4	11852	11853	11854	11855	
4	11856	11857	11858	11859	
4	11860	11861	11862	11863	
4	11864	11865	11866	11867	
4	11868	11869	11870	11871	
4	11872	11873	11874	11875	
4	11876	11877	11878	11879	
4	11880	11881	11882	11883	
4	11884	11885	11886	11887	
4	11888	11889	11890	11891	
4	11892	11893	11894	11895	
4	11896	11897	11898	11899	
4	11900	11901	11902	11903	
4	11904	11905	11906	11907	
4	11908	11909	11910	11911	
4	11912	11913	11914	11915	
4	11916	11917	11918	11919	
4	11920	11921	11922	11923	
4	11924	11925	11926	11927	
4	11928	11929	11930	11931	
4	11932	11933	11934	11935	
4	11936	11937	11938	11939	
4	11940	11941	11942	11943	
4	11944	11945	11946	11947	
4	11948	11949	11950	11951	
4	11952	11953	11954	11955	
4	11956	11957	11958	11959	
4	11960	11961	11962	11963	
4	11964	11965	11966	11967	
4	11968	11969	11970	11971	
4	11972	11973	11974	11975	
4	11976	11977	11978	11979	
4	11980	11981	11982	11983	
4	11984	11985	11986	11987	
4	11988	11989	11990	11991	
4	11992	11993	11994	11995	
4	11996	11997	11998	11999	
4	12000	12001	12002	12003	
4	12004	12005	12006	12007	
4	12008	12009	12010	12011	
4	12012	12013	12014	12015	
4	12016	12017	12018	12019	
4	12020	12021	12022	12023	
4	12024	12025	12026	12027	
4	12028	12029	12030	12031	
4	12032	12033	12034	12035	
4	12036	12037	12038	12039	
4	12040	12041	12042	12043	
4	12044	12045	12046	12047	
4	12048	12049	12050	12051	
4	12052	12053	12054	12055	
4	12056	12057	12058	12059	
4	12060	12061	12062	12063	
4	12064	12065	12066	12067	
4	12068	12069	12070	12071	
4	12072	12073	12074	12075	
4	12076	12077	12078	12079	
4	12080	12081	12082	12083	
4	12084	12085	12086	12087	
4	12088	12089	12090	12091	
4	12092	12093	12094	12095	
4	12096	12097	12098	12099	
4	12100	12101	12102	12103	
4	12104	12105	12106	12107	
4	12108	12109	12110	12111	
4	12112	12113	12114	12115	
4	12116	12117	12118	12119	
4	12120	12121	12122	12123	
4	12124	12125	12126	12127	
4	12128	12129	12130	12131	
4	12132	12133	12134	12135	
4	12136	12137	12138	12139	
4	12140	12141	12142	12143	
4	12144	12145	12146	12147	
4	12148	12149	12150	12151	
4	12152	12153	12154	12155	
4	12156	12157	12158	12159	
4	12160	12161	12162	12163	
4	12164	12165	12166	12167	
4	12168	12169	12170	12171	
4	12172	12173	12174	12175	
4	12176	12177	12178	12179	
4	12180	12181	12182	12183	
4	12184	12185	12186	12187	
4	12188	12189	12190	12191	
4	12192	12193	12194	12195	
4	12196	12197	12198	12199	
4	12200	12201	12202	12203	
4	12204	12205	12206	12207	
4	12208	12209	12210	12211	
4	12212	12213	12214	12215	
4	12216	12217	12218	12219	
4	12220	12221	12222	12223	
4	12224	12225	12226	12227	
4	12228	12229	12230	12231	
4	12232	12233	12234	12235	
4	12236	12237	12238	12239	
4	12240	12241	12242	12243	
4	12244	12245	12246	12247	
4	12248	12249	12250	12251	
4	12252	12253	12254	12255	
4	12256	12257	12258	12259	
4	12260	12261	12262	12263	
4	12264	12265	12266	12267	
4	12268	12269	12270	12271	
4	12272	12273	12274	12275	
4	12276	12277	12278	12279	
4	12280	12281	12282	12283	
4	12284	12285	12286	12287	
4	12288	12289	12290	12291	
4	12292	12293	12294	12295	
4	12296	12297	12298	12299	
4	12300	12301	12302	12303	
4	12304	12305	12306	12307	
4	12308	12309	12310	12311	
4	12312	12313	12314	12315	
4	12316	12317	12318	12319	
4	12320	12321	12322	12323	
4	12324	12325	12326	12327	
4	12328	12329	12330	12331	
4	12332	12333	12334	12335	
4	12336	12337	12338	12339	
4	12340	12341	12342	12343	
4	12344	12345	12346	12347	
4	12348	12349	12350	12351	
4	12352	12353	12354	12355	
4	12356	12357	12358	12359	
4	12360	12361	12362	12363	
4	12364	12365	12366	12367	
4	12368	12369	12370	12371	
4	12372	12373	12374	12375	
4	12376	12377	12378	12379	
4	12380	12381	12382	12383	
4	12384	12385	12386	12387	
4	12388	12389	12390	12391	
4	12392	12393	12394	12395	
4	12396	12397	12398	12399	
4	12400	12401	12402	12403	
4	12404	12405	12406	12407	
4	12408	12409	12410	12411	
4	12412	12413	12414	12415	
4	12416	12417	12418	12419	
4	12420	12421	12422	12423	
4	12424	12425	12426	12427	
4	12428	12429	12430	12431	
4	12432	12433	12434	12435	
4	12436	12437	12438	12439	
4	12440	12441	12442	12443	
4	12444	12445	12446	12447	
4	12448	12449	12450	12451	
4	12452	12453	12454	12455	
4	12456	12457	12458	12459	
4	12460	12461	12462	12463	
4	12464	12465	12466	12467	
4	12468	12469	12470	12471	
4	12472	12473	12474	12475	
4	12476	12477	12478	12479	
4	12480	12481	12482	12483	
4	12484	12485	12486	12487	
4	12488	12489	12490	12491	
4	12492	12493	12494	12495	
4	12496	12497	12498	12499	
4	12500	12501	12502	12503	
4	12504	12505	12506	12507	
4	12508	12509	12510	12511	
4	12512	12513	12514	12515	
4	12516	12517	12518	12519	
4	12520	12521	12522	12523	
4	12524	12525	12526	12527	
4	12528	12529	12530	12531	
4	12532	12533	12534	12535	
4	12536	12537	12538	12539	
4	12540	12541	12542	12543	
4	12544	12545	12546	12547	
4	12548	12549	12550	12551	
4	12552	12553	12554	12555	
4	12556	12557	12558	12559	
4	12560	12561	12562	12563	
4	12564	12565	12566	12567	
4	12568	12569	12570	12571	
4	12572	12573	12574	12575	
4	12576	12577	12578	12579	
4	12580	12581	12582	12583	
4	12584	12585	12586	12587	
4	12588	12589	12590	12591	
4	12592	12593	12594	12595	
4	12596	12597	12598	12599	
4	12600	12601	12602	12603	
4	12604	12605	12606	12607	
4	12608	12609	12610	12611	
4	12612	12613	12614	12615	
4	12616	12617	12618	12619	
4	12620	12621	12622	12623	
4	12624	12625	12626	12627	
4	12628	12629	12630	12631	
4	12632	12633	12634	12635	
4	12636	12637	12638	12639	
4	12640	12641	12642	12643	
4	12644	12645	12646	12647	
4	12648	12649	12650	12651	
4	12652	12653	12654	12655	
4	12656	12657	12658	12659	
4	12660	12661	12662	12663	
4	12664	12665	12666	12667	
4	12668	12669	12670	12671	
4	12672	12673	12674	12675	
4	12676	12677	12678	12679	
4	12680	12681	12682	12683	
4	12684	12685	12686	12687	
4	12688	12689	12690	12691	
4	12692	12693	12694	12695	
4	12696	12697	12698	12699	
4	12700	12701	12702	12703	
4	12704	12705	12706	12707	
4	12708	12709	12710	12711	
4	12712	12713	12714	12715	
4	12716	12717	12718	12719	
4	12720	12721	12722	12723	
4	12724	12725	12726	12727	
4	12728	12729	12730	12731	
4	12732	12733	12734	12735	
4	12736	12737	12738	12739	
4	12740	12741	12742	12743	
4	12744	12745	12746	12747	
4	12748	12749	12750	12751	
4	12752	12753	12754	12755	
4	12756	12757	12758	12759	
4	12760	12761	12762	12763	
4	12764	12765	12766	12767	
4	12768	12769	12770	12771	
4	12772	12773	12774	12775	
4	12776	12777	12778	12779	
4	12780	12781	12782	12783	
4	12784	12785	12786	12787	
4	12788	12789	12790	12791	
4	12792	12793	12794	12795	
4	12796	12797	12798	12799	
4	12800	12801	12802	12803	
4	12804	12805	12806	12807	
4	12808	12809	12810	12811	
4	12812	12813	12814	12815	
4	12816	12817	12818	12819	
4	12820	12821	12822	12823	
4	12824	12825	12826	12827	
4	12828	12829	12830	12831	
4	12832	12833	12834	12835	
4	12836	12837	12838	12839	
4	12840	12841	12842	12843	
4	12844	12845	12846	12847	
4	12848	12849	12850	12851	
4	12852	12853	12854	12855	
4	12856	12857	12858	12859	
4	12860	12861	12862	12863	
4	12864	12865	12866	12867	
4	12868	12869	12870	12871	
4	12872	12873	12874	12875	
4	12876	12877	12878	12879	
4	12880	12881	12882	12883	
4	12884	12885	12886	12887	
4	12888	12889	12890	12891	
4	12892	12893	12894	12895	
4	12896	12897	12898	12899	
4	12900	12901	12902	12903	
4	12904	12905	12906	12907	
4	12908	12909	12910	12911	
4	12912	12913	12914	12915	
4	12916	12917	12918	12919	
4	12920	12921	12922	12923	
4	12924	12925	12926	12927	
4	12928	12929	12930	12931	
4	12932	12933	12934	12935	
4	12936	12937	12938	12939	
4	12940	12941	12942	12943	
4	12944	12945	12946	12947	
4	12948	12949	12950	12951	
4	12952	12953	12954	12955	
4	12956	12957	12958	12959	
4	12960	12961	12962	12963	
4	12964	12965	12966	12967	
4	12968	12969	12970	12971	
4	12972	12973	12974	12975	
4	12976	12977	12978	12979	
4	12980	12981	12982	12983	
4	12984	12985	12986	12987	
4	12988	12989	12990	12991	
4	12992	12993	12994	12995	
4	12996	12997	12998	12999	
4	13000	13001	13002	13003	
4	13004	13005	13006	13007	
4	13008	13009	13010	13011	
4	13012	13013	13014	13015	
4	13016	13017	13018	13019	
4	13020	13021	13022	13023	
4	13024	13025	13026	13027	
4	13028	13029	13030	13031	
4	13032	13033	13034	13035	
4	13036	13037	13038	13039	
4	13040	13041	13042	13043	
4	13044	13045	13046	13047	
4	13048	13049	13050	13051	
4	13052	13053	13054	13055	
4	13056	13057	13058	13059	
4	13060	13061	13062	13063	
4	13064	13065	13066	13067	
4	13068	13069	13070	13071	
4	13072	13073	13074	13075	
4	13076	13077	13078	13079	
4	13080	13081	13082	13083	
4	13084	13085	13086	13087	
4	13088	13089	13090	13091	
4	13092	13093	13094	13095	
4	13096	13097	13098	13099	
4	13100	13101	13102	13103	
4	13104	13105	13106	13107	
4	13108	13109	13110	13111	
4	13112	13113	13114	13115	
4	13116	13117	13118	13119	
4	13120	13121	13122	13123	
4	13124	13125	13126	13127	
4	13128	13129	13130	13131	
4	13132	13133	13134	13135	
4	13136	13137	13138	13139	
4	13140	13141	13142	13143	
4	13144	13145	13146	13147	
4	13148	13149	13150	13151	
4	13152	13153	13154	13155	
4	13156	13157	13158	13159	
4	13160	13161	13162	13163	
4	13164	13165	13166	13167	
4	13168	13169	13170	13171	
4	13172	13173	13174	13175	
4	13176	13177	13178	13179	
4	13180	13181	13182	13183	
4	13184	13185	13186	13187	
4	13188	13189	13190	13191	
4	13192	13193	13194	13195	
4	13196	13197	13198	13199	
4	13200	13201	13202	13203	
4	13204	13205	13206	13207	
4	13208	13209	13210	13211	
4	13212	13213	13214	13215	
4	13216	13217	13218	13219	
4	13220	13221	13222	13223	
4	13224	13225	13226	13227	
4	13228	13229	13230	13231	
4	13232	13233	13234	13235	
4	13236	13237	13238	13239	
4	13240	13241	13242	13243	
4	13244	13245	13246	13247	
4	13248	13249	13250	13251	
4	13252	13253	13254	13255	
4	13256	13257	13258	13259	
4	13260	13261	13262	13263	
4	13264	13265	13266	13267	
4	13268	13269	13270	13271	
4	13272	13273	13274	13275	
4	13276	13277	13278	13279	
4	13280	13281	13282	13283	
4	13284	13285	13286	13287	
4	13288	13289	13290	13291	
4	13292	13293	13294	13295	
4	13296	13297	13298	13299	
4	13300	13301	13302	13303	
4	13304	13305	13306	13307	
4	13308	13309	13310	13311	
4	13312	13313	13314	13315	
4	13316	13317	13318	13319	
4	13320	13321	13322	13323	
4	13324	13325	13326	13327	
4	13328	13329	13330	13331	
4	13332	13333	13334	13335	
4	13336	13337	13338	13339	
4	13340	13341	13342	13343	
4	13344	13345	13346	13347	
4	13348	13349	13350	13351	
4	13352	13353	13354	13355	
4	13356	13357	13358	13359	
4	13360	13361	13362	13363	
4	13364	13365	13366	13367	
4	13368	13369	13370	13371	
4	13372	13373	13374	13375	
4	13376	13377	13378	13379	
4	13380	13381	13382	13383	
4	13384	13385	13386	13387	
4	13388	13389	13390	13391	
4	13392	13393	13394	13395	
4	13396	13397	13398	13399	
4	13400	13401	13402	13403	
4	13404	13405	13406	13407	
4	13408	13409	13410	13411	
4	13412	13413	13414	13415	
4	13416	13417	13418	13419	
4	13420	13421	13422	13423	
4	13424	13425	13426	13427	
4	13428	13429	13430	13431	
4	13432	13433	13434	13435	
4	13436	13437	13438	13439	
4	13440	13441	13442	13443	
4	13444	13445	13446	13447	
4	13448	13449	13450	13451	
4	13452	13453	13454	13455	
4	13456	13457	13458	13459	
4	13460	13461	13462	13463	
4	13464	13465	13466	13467	
4	13468	13469	13470	13471	
4	13472	13473	13474	13475	
4	13476	13477	13478	13479	
4	13480	13481	13482	13483	
4	13484	13485	13486	13487	
4	13488	13489	13490	13491	
4	13492	13493	13494	13495	
4	13496	13497	13498	13499	
4	13500	13501	13502	13503	
4	13504	13505	13506	13507	
4	13508	13509	13510	13511	
4	13512	13513	13514	13515	
4	13516	13517	13518	13519	
4	13520	13521	13522	13523	
4	13524	13525	13526	13527	
4	13528	13529	13530	13531	
4	13532	13533	13534	13535	
4	13536	13537	13538	13539	
4	13540	13541	13542	13543	
4	13544	13545	13546	13547	
4	13548	13549	13550	13551	
4	13552	13553	13554	13555	
4	13556	13557	13558	13559	
4	13560	13561	13562	13563	
4	13564	13565	13566	13567	
4	13568	13569	13570	13571	
4	13572	13573	13574	13575	
4	13576	13577	13578	13579	
4	13580	13581	13582	13583	
4	13584	13585	13586	13587	
4	13588	13589	13590	13591	
4	13592	13593	13594	13595	
4	13596	13597	13598	13599	
4	13600	13601	13602	13603	
4	13604	13605	13606	13607	
4	13608	13609	13610	13611	
4	13612	13613	13614	13615	
4	13616	13617	13618	13619	
4	13620	13621	13622	13623	
4	13624	13625	13626	13627	
4	13628	13629	13630	13631	
4	13632	13633	13634	13635	
4	13636	13637	13638	13639	
4	13640	13641	13642	13643	
4	13644	13645	13646	13647	
4	13648	13649	13650	13651	
4	13652	13653	13654	13655	
4	13656	13657	13658	13659	
4	13660	13661	13662	13663	
4	13664	13665	13666	13667	
4	13668	13669	13670	13671	
4	13672	13673	13674	13675	
4	13676	13677	13678	13679	
4	13680	13681	13682	13683	
4	13684	13685	13686	13687	
4	13688	13689	13690	13691	
4	13692	13693	13694	13695	
4	13696	13697	13698	13699	
4	13700	13701	13702	13703	
4	13704	13705	13706	13707	
4	13708	13709	13710	13711	
4	13712	13713	13714	13715	
4	13716	13717	13718	13719	
4	13720	13721	13722	13723	
4	13724	13725	13726	13727	
4	13728	13729	13730	13731	
4	13732	13733	13734	13735	
4	13736	13737	13738	13739	
4	13740	13741	13742	13743	
4	13744	13745	13746	13747	
4	13748	13749	13750	13751	
4	13752	13753	13754	13755	
4	13756	13757	13758	13759	
4	13760	13761	13762	13763	
4	13764	13765	13766	13767	
4	13768	13769	13770	13771	
4	13772	13773	13774	13775	
4	13776	13777	13778	13779	
4	13780	13781	13782	13783	
4	13784	13785	13786	13787	
4	13788	13789	13790	13791	
4	13792	13793	13794	13795	
4	13796	13797	13798	13799	
4	13800	13801	13802	13803	
4	13804	13805	13806	13807	
4	13808	13809	13810	13811	
4	13812	13813	13814	13815	
4	13816	13817	13818	13819	
4	13820	13821	13822	13823	
4	13824	13825	13826	13827	
4	13828	13829	13830	13831	
4	13832	13833	13834	13835	
4	13836	13837	13838	13839	
4	13840	13841	13842	13843	
4	13844	13845	13846	13847	
4	13848	13849	13850	13851	
4	13852	13853	13854	13855	
4	13856	13857	13858	13859	
4	13860	13861	13862	13863	
4	13864	13865	13866	13867	
4	13868	13869	13870	13871	
4	13872	13873	13874	13875	
4	13876	13877	13878	13879	
4	13880	13881	13882	13883	
4	13884	13885	13886	13887	
4	13888	13889	13890	13891	
4	13892	13893	13894	13895	
4	13896	13897	13898	13899	
4	13900	13901	13902	13903	
4	13904	13905	13906	13907	
4	13908	13909	13910	13911	
4	13912	13913	13914	13915	
4	13916	13917	13918	13919	
4	13920	13921	13922	13923	
4	13924	13925	13926	13927	
4	13928	13929	13930	13931	
4	13932	13933	13934	13935	
4	13936	13937	13938	13939	
4	13940	13941	13942	13943	
4	13944	13945	13946	13947	
4	13948	13949	13950	13951	
4	13952	13953	13954	13955	
4	13956	13957	13958	13959	
4	13960	13961	13962	13963	
4	13964	13965	13966	13967	
4	13968	13969	13970	13971	
4	13972	13973	13974	13975	
4	13976	13977	13978	13979	
4	13980	13981	13982	13983	
4	13984	13985	13986	13987	
4	13988	13989	13990	13991	
4	13992	13993	13994	13995	
4	13996	13997	13998	13999	
4	14000	14001	14002	14003	
4	14004	14005	14006	14007	
4	14008	14009	14010	14011	
4	14012	14013	14014	14015	
4	14016	14017	14018	14019	
4	14020	14021	14022	14023	
4	14024	14025	14026	14027	
4	14028	14029	14030	14031	
4	14032	14033	14034	14035	
4	14036	14037	14038	14039	
4	14040	14041	14042	14043	
4	14044	14045	14046	14047	
4	14048	14049	14050	14051	
4	14052	14053	14054	14055	
4	14056	14057	14058	14059	
4	14060	14061	14062	14063	
4	14064	14065	14066	14067	
4	14068	14069	14070	14071	
4	14072	14073	14074	14075	
4	14076	14077	14078	14079	
4	14080	14081	14082	14083	
4	14084	14085	14086	14087	
4	14088	14089	14090	14091	
4	14092	14093	14094	14095	
4	14096	14097	14098	14099	
4	14100	14101	14102	14103	
4	14104	14105	14106	14107	
4	14108	14109	14110	14111	
4	14112	14113	14114	14115	
4	14116	14117	14118	14119	
4	14120	14121	14122	14123	
4	14124	14125	14126	14127	
4	14128	14129	14130	14131	
4	14132	14133	14134	14135	
4	14136	14137	14138	14139	
4	14140	14141	14142	14143	
4	14144	14145	14146	14147	
4	14148	14149	14150	14151	
4	14152	14153	14154	14155	
4	14156	14157	14158	14159	
4	14160	14161	14162	14163	
4	14164	14165	14166	14167	
4	14168	14169	14170	14171	
4	14172	14173	14174	14175	
4	14176	14177	14178	14179	
4	14180	14181	14182	14183	
4	14184	14185	14186	14187	
4	14188	14189	14190	14191	
4	14192	14193	14194	14195	
4	14196	14197	14198	14199	
4	14200	14201	14202	14203	
4	14204	14205	14206	14207	
4	14208	14209	14210	14211	
4	14212	14213	14214	14215	
4	14216	14217	14218	14219	
4	14220	14221	14222	14223	
4	14224	14225	14226	14227	
4	14228	14229	14230	14231	
4	14232	14233	14234	14235	
4	14236	14237	14238	14239	
4	14240	14241	14242	14243	
4	14244	14245	14246	14247	
4	14248	14249	14250	14251	
4	14252	14253	14254	14255	
4	14256	14257	14258	14259	
4	14260	14261	14262	14263	
4	14264	14265	14266	14267	
4	14268	14269	14270	14271	
4	14272	14273	14274	14275	
4	14276	14277	14278	14279	
4	14280	14281	14282	14283	
4	14284	14285	14286	14287	
4	14288	14289	14290	14291	
4	14292	14293	14294	14295	
4	14296	14297	14298	14299	
4	14300	14301	14302	14303	
4	14304	14305	14306	14307	
4	14308	14309	14310	14311	
4	14312	14313	14314	14315	
4	14316	14317	14318	14319	
4	14320	14321	14322	14323	
4	14324	14325	14326	14327	
4	14328	14329	14330	14331	
4	14332	14333	14334	14335	
4	14336	14337	14338	14339	
4	14340	14341	14342	14343	
4	14344	14345	14346	14347	
4	14348	14349	14350	14351	
4	14352	14353	14354	14355	
4	14356	14357	14358	14359	
4	14360	14361	14362	14363	
4	14364	14365	14366	14367	
4	14368	14369	14370	14371	
4	14372	14373	14374	14375	
4	14376	14377	14378	14379	
4	14380	14381	14382	14383	
4	14384	14385	14386	14387	
4	14388	14389	14390	14391	
4	14392	14393	14394	14395	
4	14396	14397	14398	14399	
4	14400	14401	14402	14403	
4	14404	14405	14406	14407	
4	14408	14409	14410	14411	
4	14412	14413	14414	14415	
4	14416	14417	14418	14419	
4	14420	14421	14422	14423	
4	14424	14425	14426	14427	
4	14428	14429	14430	14431	
4	14432	14433	14434	14435	
4	14436	14437	14438	14439	
4	14440	14441	14442	14443	
4	14444	14445	14446	14447	
4	14448	14449	14450	14451	
4	14452	14453	14454	14455	
4	14456	14457	14458	14459	
4	14460	14461	14462	14463	
4	14464	14465	14466	14467	
4	14468	14469	14470	14471	
4	14472	14473	14474	14475	
4	14476	14477	14478	14479	
4	14480	14481	14482	14483	
4	14484	14485	14486	14487	
4	14488	14489	14490	14491	
4	14492	14493	14494	14495	
4	14496	14497	14498	14499	
4	14500	14501	14502	14503	
4	14504	14505	14506	14507	
4	14508	14509	14510	14511	
4	14512	14513	14514	14515	
4	14516	14517	14518	14519	
4	14520	14521	14522	14523	
4	14524	14525	14526	14527	
4	14528	14529	14530	14531	
4	14532	14533	14534	14535	
4	14536	14537	14538	14539	
4	14540	14541	14542	14543	
4	14544	14545	14546	14547	
4	14548	14549	14550	14551	
4	14552	14553	14554	14555	
4	14556	14557	14558	14559	
4	14560	14561	14562	14563	
4	14564	14565	14566	14567	
4	14568	14569	14570	14571	
4	14572	14573	14574	14575	
4	14576	14577	14578	14579	
4	14580	14581	14582	14583	
4	14584	14585	14586	14587	
4	14588	14589	14590	14591	
4	14592	14593	14594	14595	
4	14596	14597	14598	14599	
4	14600	14601	14602	14603	
4	14604	14605	14606	14607	
4	14608	14609	14610	14611	
4	14612	14613	14614	14615	
4	14616	14617	14618	14619	
4	14620	14621	14622	14623	
4	14624	14625	14626	14627	
4	14628	14629	14630	14631	
4	14632	14633	14634	14635	
4	14636	14637	14638	14639	
4	14640	14641	14642	14643	
4	14644	14645	14646	14647	
4	14648	14649	14650	14651	
4	14652	14653	14654	14655	
4	14656	14657	14658	14659	
4	14660	14661	14662	14663	
4	14664	14665	14666	14667	
4	14668	14669	14670	14671	
4	14672	14673	14674	14675	
4	14676	14677	14678	14679	
4	14680	14681	14682	14683	
4	14684	14685	14686	14687	
4	14688	14689	14690	14691	
4	14692	14693	14694	14695	
4	14696	14697	14698	14699	
4	14700	14701	14702	14703	
4	14704	14705	14706	14707	
4	14708	14709	14710	14711	
4	14712	14713	14714	14715	
4	14716	14717	14718	14719	
4	14720	14721	14722	14723	
4	14724	14725	14726	14727	
4	14728	14729	14730	14731	
4	14732	14733	14734	14735	
4	14736	14737	14738	14739	
4	14740	14741	14742	14743	
4	14744	14745	14746	14747	
4	14748	14749	14750	14751	
4	14752	14753	14754	14755	
4	14756	14757	14758	14759	
4	14760	14761	14762	14763	
4	14764	14765	14766	14767	
4	14768	14769	14770	14771	
4	14772	14773	14774	14775	
4	14776	14777	14778	14779	
4	14780	14781	14782	14783	
4	14784	14785	14786	14787	
4	14788	14789	14790	14791	
4	14792	14793	14794	14795	
4	14796	14797	14798	14799	
4	14800	14801	14802	14803	
4	14804	14805	14806	14807	
4	14808	14809	14810	14811	
4	14812	14813	14814	14815	
4	14816	14817	14818	14819	
4	14820	14821	14822	14823	
4	14824	14825	14826	14827	
4	14828	14829	14830	14831	
4	14832	14833	14834	14835	
4	14836	14837	14838	14839	
4	14840	14841	14842	14843	
4	14844	14845	14846	14847	
4	14848	14849	14850	14851	
4	14852	14853	14854	14855	
4	14856	14857	14858	14859	
4	14860	14861	14862	14863	
4	14864	14865	14866	14867	
4	14868	14869	14870	14871	
4	14872	14873	14874	14875	
4	14876	14877	14878	14879	
4	14880	14881	14882	14883	
4	14884	14885	14886	14887	
4	14888	14889	14890	14891	
4	14892	14893	14894	14895	
4	14896	14897	14898	14899	
4	14900	14901	14902	14903	
4	14904	14905	14906	14907	
4	14908	14909	14910	14911	
4	14912	14913	14914	14915	
4	14916	14917	14918	14919	
4	14920	14921	14922	14923	
4	14924	14925	14926	14927	
4	14928	14929	14930	14931	
4	14932	14933	14934	14935	
4	14936	14937	14938	14939	
4	14940	14941	14942	14943	
4	14944	14945	14946	14947	
4	14948	14949	14950	14951	
4	14952	14953	14954	14955	
4	14956	14957	14958	14959	
4	14960	14961	14962	14963	
4	14964	14965	14966	14967	
4	14968	14969	14970	14971	
4	14972	14973	14974	14975	
4	14976	14977	14978	14979	
4	14980	14981	14982	14983	
4	14984	14985	14986	14987	
4	14988	14989	14990	14991	
4	14992	14993	14994	14995	
4	14996	14997	14998	14999	
4	15000	15001	15002	15003	
4	15004	15005	15006	15007	
4	15008	15009	15010	15011	
4	15012	15013	15014	15015	
4	15016	15017	15018	15019	
4	15020	15021	15022	15023	
4	15024	15025	15026	15027	
4	15028	15029	15030	15031	
4	15032	15033	15034	15035	
4	15036	15037	15038	15039	
4	15040	15041	15042	15043	
4	15044	15045	15046	15047	
4	15048	15049	15050	15051	
4	15052	15053	15054	15055	
4	15056	15057	15058	15059	
4	15060	15061	15062	15063	
4	15064	15065	15066	15067	
4	15068	15069	15070	15071	
4	15072	15073	15074	15075	
4	15076	15077	15078	15079	
4	15080	15081	15082	15083	
4	15084	15085	15086	15087	
4	15088	15089	15090	15091	
4	15092	15093	15094	15095	
4	15096	15097	15098	15099	
4	15100	15101	15102	15103	
4	15104	15105	15106	15107	
4	15108	15109	15110	15111	
4	15112	15113	15114	15115	
4	15116	15117	15118	15119	
4	15120	15121	15122	15123	
4	15124	15125	15126	15127	
4	15128	15129	15130	15131	
4	15132	15133	15134	15135	
4	15136	15137	15138	15139	
4	15140	15141	15142	15143	
4	15144	15145	15146	15147	
4	15148	15149	15150	15151	
4	15152	15153	15154	15155	
4	15156	15157	15158	15159	
4	15160	15161	15162	15163	
4	15164	15165	15166	15167	
4	15168	15169	15170	15171	
4	15172	15173	15174	15175	
4	15176	15177	15178	15179	
4	15180	15181	15182	15183	
4	15184	15185	15186	15187	
4	15188	15189	15190	15191	
4	15192	15193	15194	15195	
4	15196	15197	15198	15199	
4	15200	15201	15202	15203	
4	15204	15205	15206	15207	
4	15208	15209	15210	15211	
4	15212	15213	15214	15215	
4	15216	15217	15218	15219	
4	15220	15221	15222	15223	
4	15224	15225	15226	15227	
4	15228	15229	15230	15231	
4	15232	15233	15234	15235	
4	15236	15237	15238	15239	
4	15240	15241	15242	15243	
4	15244	15245	15246	15247	
4	15248	15249	15250	15251	
4	15252	15253	15254	15255	
4	15256	15257	15258	15259	
4	15260	15261	15262	15263	
4	15264	15265	15266	15267	
4	15268	15269	15270	15271	
4	15272	15273	15274	15275	
4	15276	15277	15278	15279	
4	15280	15281	15282	15283	
4	15284	15285	15286	15287	
4	15288	15289	15290	15291	
4	15292	15293	15294	15295	
4	15296	15297	15298	15299	
4	15300	15301	15302	15303	
4	15304	15305	15306	15307	
4	15308	15309	15310	15311	
4	15312	15313	15314	15315	
4	15316	15317	15318	15319	
4	15320	15321	15322	15323	
4	15324	15325	15326	15327	
4	15328	15329	15330	15331	
4	15332	15333	15334	15335	
4	15336	15337	15338	15339	
4	15340	15341	15342	15343	
4	15344	15345	15346	15347	
4	15348	15349	15350	15351	
4	15352	15353	15354	15355	
4	15356	15357	15358	15359	
4	15360	15361	15362	15363	
4	15364	15365	15366	15367	
4	15368	15369	15370	15371	
4	15372	15373	15374	15375	
4	15376	15377	15378	15379	
4	15380	15381	15382	15383	
4	15384	15385	15386	15387	
4	15388	15389	15390	15391	
4	15392	15393	15394	15395	
4	15396	15397	15398	15399	
4	15400	15401	15402	15403	
4	15404	15405	15406	15407	
4	15408	15409	15410	15411	
4	15412	15413	15414	15415	
4	15416	15417	15418	15419	
4	15420	15421	15422	15423	
4	15424	15425	15426	15427	
4	15428	15429	15430	15431	
4	15432	15433	15434	15435	
4	15436	15437	15438	15439	
4	15440	15441	15442	15443	
4	15444	15445	15446	15447	
4	15448	15449	15450	15451	
4	15452	15453	15454	15455	
4	15456	15457	15458	15459	
4	15460	15461	15462	15463	
4	15464	15465	15466	15467	
4	15468	15469	15470	15471	
4	15472	15473	15474	15475	
4	15476	15477	15478	15479	
4	15480	15481	15482	15483	
4	15484	15485	15486	15487	
4	15488	15489	15490	15491	
4	15492	15493	15494	15495	
4	15496	15497	15498	15499	
4	15500	15501	15502	15503	
4	15504	15505	15506	15507	
4	15508	15509	15510	15511	
4	15512	15513	15514	15515	
4	15516	15517	15518	15519	
4	15520	15521	15522	15523	
4	15524	15525	15526	15527	
4	15528	15529	15530	15531	
4	15532	15533	15534	15535	
4	15536	15537	15538	15539	
4	15540	15541	15542	15543	
4	15544	15545	15546	15547	
4	15548	15549	15550	15551	
4	15552	15553	15554	15555	
4	15556	15557	15558	15559	
4	15560	15561	15562	15563	
4	15564	15565	15566	15567	
4	15568	15569	15570	15571	
4	15572	15573	15574	15575	
4	15576	15577	15578	15579	
4	15580	15581	15582	15583	
4	15584	15585	15586	15587	
4	15588	15589	15590	15591	
4	15592	15593	15594	15595	
4	15596	15597	15598	15599	
4	15600	15601	15602	15603	
4	15604	15605	15606	15607	
4	15608	15609	15610	15611	
4	15612	15613	15614	15615	
4	15616	15617	15618	15619	
4	15620	15621	15622	15623	
4	15624	15625	15626	15627	
4	15628	15629	15630	15631	
4	15632	15633	15634	15635	
4	15636	15637	15638	15639	
4	15640	15641	15642	15643	
4	15644	15645	15646	15647	
4	15648	15649	15650	15651	
4	15652	15653	15654	15655	
4	15656	15657	15658	15659	
4	15660	15661	15662	15663	
4	15664	15665	15666	15667	
4	15668	15669	15670	15671	
4	15672	15673	15674	15675	
4	15676	15677	15678	15679	
4	15680	15681	15682	15683	
4	15684	15685	15686	15687	
4	15688	15689	15690	15691	
4	15692	15693	15694	15695	
4	15696	15697	15698	15699	
4	15700	15701	15702	15703	
4	15704	15705	15706	15707	
4	15708	15709	15710	15711	
4	15712	15713	15714	15715	
4	15716	15717	15718	15719	
4	15720	15721	15722	15723	
4	15724	15725	15726	15727	
4	15728	15729	15730	15731	
4	15732	15733	15734	15735	
4	15736	15737	15738	15739	
4	15740	15741	15742	15743	
4	15744	15745	15746	15747	
4	15748	15749	15750	15751	
4	15752	15753	15754	15755	
4	15756	15757	15758	15759	
4	15760	15761	15762	15763	
4	15764	15765	15766	15767	
4	15768	15769	15770	15771	
4	15772	15773	15774	15775	
4	15776	15777	15778	15779	
4	15780	15781	15782	15783	
4	15784	15785	15786	15787	
4	15788	15789	15790	15791	
4	15792	15793	15794	15795	
4	15796	15797	15798	15799	
4	15800	15801	15802	15803	
4	15804	15805	15806	15807	
4	15808	15809	15810	15811	
4	15812	15813	15814	15815	
4	15816	15817	15818	15819	
4	15820	15821	15822	15823	
4	15824	15825	15826	15827	
4	15828	15829	15830	15831	
4	15832	15833	15834	15835	
4	15836	15837	15838	15839	
4	15840	15841	15842	15843	
4	15844	15845	15846	15847	
4	15848	15849	15850	15851	
4	15852	15853	15854	15855	
4	15856	15857	15858	15859	
4	15860	15861	15862	15863	
4	15864	15865	15866	15867	
4	15868	15869	15870	15871	
4	15872	15873	15874	15875	
4	15876	15877	15878	15879	
4	15880	15881	15882	15883	
4	15884	15885	15886	15887	
4	15888	15889	15890	15891	
4	15892	15893	15894	15895	
4	15896	15897	15898	15899	
4	15900	15901	15902	15903	
4	15904	15905	15906	15907	
4	15908	15909	15910	15911	
4	15912	15913	15914	15915	
4	15916	15917	15918	15919	
4	15920	15921	15922	15923	
4	15924	15925	15926	15927	
4	15928	15929	15930	15931	
4	15932	15933	15934	15935	
4	15936	15937	15938	15939	
4	15940	15941	15942	15943	
4	15944	15945	15946	15947	
4	15948	15949	15950	15951	
4	15952	15953	15954	15955	
4	15956	15957	15958	15959	
4	15960	15961	15962	15963	
4	15964	15965	15966	15967	
4	15968	15969	15970	15971	
4	15972	15973	15974	15975	
4	15976	15977	15978	15979	
4	15980	15981	15982	15983	
4	15984	15985	15986	15987	
4	15988	15989	15990	15991	
4	15992	15993	15994	15995	
4	15996	15997	15998	15999	
4	16000	16001	16002	16003	
4	16004	16005	16006	16007	
4	16008	16009	16010	16011	
4	16012	16013	16014	16015	
4	16016	16017	16018	16019	
4	16020	16021	16022	16023	
4	16024	16025	16026	16027	
4	16028	16029	16030	16031	
4	16032	16033	16034	16035	
4	16036	16037	16038	16039	
4	16040	16041	16042	16043	
4	16044	16045	16046	16047	
4	16048	16049	16050	16051	
4	16052	16053	16054	16055	
4	16056	16057	16058	16059	
4	16060	16061	16062	16063	
4	16064	16065	16066	16067	
4	16068	16069	16070	16071	
4	16072	16073	16074	16075	
4	16076	16077	16078	16079	
4	16080	16081	16082	16083	
4	16084	16085	16086	16087	
4	16088	16089	16090	16091	
4	16092	16093	16094	16095	
4	16096	16097	16098	16099	
4	16100	16101	16102	16103	
4	16104	16105	16106	16107	
4	16108	16109	16110	16111	
4	16112	16113	16114	16115	
4	16116	16117	16118	16119	
4	16120	16121	16122	16123	
4	16124	16125	16126	16127	
4	16128	16129	16130	16131	
4	16132	16133	16134	16135	
4	16136	16137	16138	16139	
4	16140	16141	16142	16143	
4	16144	16145	16146	16147	
4	16148	16149	16150	16151	
4	16152	16153	16154	16155	
4	16156	16157	16158	16159	
4	16160	16161	16162	16163	
4	16164	16165	16166	16167	
4	16168	16169	16170	16171	
4	16172	16173	16174	16175	
4	16176	16177	16178	16179	
4	16180	16181	16182	16183	
4	16184	16185	16186	16187	
4	16188	16189	16190	16191	
4	16192	16193	16194	16195	
4	16196	16197	16198	16199	
4	16200	16201	16202	16203	
4	16204	16205	16206	16207	
4	16208	16209	16210	16211	
4	16212	16213	16214	16215	
4	16216	16217	16218	16219	
4	16220	16221	16222	16223	
4	16224	16225	16226	16227	
4	16228	16229	16230	16231	
4	16232	16233	16234	16235	
4	16236	16237	16238	16239	
4	16240	16241	16242	16243	
4	16244	16245	16246	16247	
4	16248	16249	16250	16251	
4	16252	16253	16254	16255	
4	16256	16257	16258	16259	
4	16260	16261	16262	16263	
4	16264	16265	16266	16267	
4	16268	16269	16270	16271	
4	16272	16273	16274	16275	
4	16276	16277	16278	16279	
4	16280	16281	16282	16283	
4	16284	16285	16286	16287	
4	16288	16289	16290	16291	
4	16292	16293	16294	16295	
4	16296	16297	16298	16299	
4	16300	16301	16302	16303	
4	16304	16305	16306	16307	
4	16308	16309	16310	16311	
4	16312	16313	16314	16315	
4	16316	16317	16318	16319	
4	16320	16321	16322	16323	
4	16324	16325	16326	16327	
4	16328	16329	16330	16331	
4	16332	16333	16334	16335	
4	16336	16337	16338	16339	
4	16340	16341	16342	16343	
4	16344	16345	16346	16347	
4	16348	16349	16350	16351	
4	16352	16353	16354	16355	
4	16356	16357	16358	16359	
4	16360	16361	16362	16363	
4	16364	16365	16366	16367	
4	16368	16369	16370	16371	
4	16372	16373	16374	16375	
4	16376	16377	16378	16379	
4	16380	16381	16382	16383	
4	16384	16385	16386	16387	
4	16388	16389	16390	16391	
4	16392	16393	16394	16395	
4	16396	16397	16398	16399	
4	16400	16401	16402	16403	
4	16404	16405	16406	16407	
4	16408	16409	16410	16411	
4	16412	16413	16414	16415	
4	16416	16417	16418	16419	
4	16420	16421	16422	16423	
4	16424	16425	16426	16427	
4	16428	16429	16430	16431	
4	16432	16433	16434	16435	
4	16436	16437	16438	16439	
4	16440	16441	16442	16443	
4	16444	16445	16446	16447	
4	16448	16449	16450	16451	
4	16452	16453	16454	16455	
4	16456	16457	16458	16459	
4	16460	16461	16462	16463	
4	16464	16465	16466	16467	
4	16468	16469	16470	16471	
4	16472	16473	16474	16475	
4	16476	16477	16478	16479	
4	16480	16481	16482	16483	
4	16484	16485	16486	16487	
4	16488	16489	16490	16491	
4	16492	16493	16494	16495	
4	16496	16497	16498	16499	
4	16500	16501	16502	16503	
4	16504	16505	16506	16507	
4	16508	16509	16510	16511	
4	16512	16513	16514	16515	
4	16516	16517	16518	16519	
4	16520	16521	16522	16523	
4	16524	16525	16526	16527	
4	16528	16529	16530	16531	
4	16532	16533	16534	16535	
4	16536	16537	16538	16539	
4	16540	16541	16542	16543	
4	16544	16545	16546	16547	
4	16548	16549	16550	16551	
4	16552	16553	16554	16555	
4	16556	16557	16558	16559	
4	16560	16561	16562	16563	
4	16564	16565	16566	16567	
4	16568	16569	16570	16571	
4	16572	16573	16574	16575	
4	16576	16577	16578	16579	
4	16580	16581	16582	16583	
4	16584	16585	16586	16587	
4	16588	16589	16590	16591	
4	16592	16593	16594	16595	
4	16596	16597	16598	16599	
4	16600	16601	16602	16603	
4	16604	16605	16606	16607	
4	16608	16609	16610	16611	
4	16612	16613	16614	16615	
4	16616	16617	16618	16619	
4	16620	16621	16622	16623	
4	16624	16625	16626	16627	
4	16628	16629	16630	16631	
4	16632	16633	16634	16635	
4	16636	16637	16638	16639	
4	16640	16641	16642	16643	
4	16644	16645	16646	16647	
4	16648	16649	16650	16651	
4	16652	16653	16654	16655	
4	16656	16657	16658	16659	
4	16660	16661	16662	16663	
4	16664	16665	16666	16667	
4	16668	16669	16670	16671	
4	16672	16673	16674	16675	
4	16676	16677	16678	16679	
4	16680	16681	16682	16683	
4	16684	16685	16686	16687	
4	16688	16689	16690	16691	
4	16692	16693	16694	16695	
4	16696	16697	16698	16699	
4	16700	16701	16702	16703	
4	16704	16705	16706	16707	
4	16708	16709	16710	16711	
4	16712	16713	16714	16715	
4	16716	16717	16718	16719	
4	16720	16721	16722	16723	
4	16724	16725	16726	16727	
4	16728	16729	16730	16731	
4	16732	16733	16734	16735	
4	16736	16737	16738	16739	
4	16740	16741	16742	16743	
4	16744	16745	16746	16747	
4	16748	16749	16750	16751	
4	16752	16753	16754	16755	
4	16756	16757	16758	16759	
4	16760	16761	16762	16763	
4	16764	16765	16766	16767	
4	16768	16769	16770	16771	
4	16772	16773	16774	16775	
4	16776	16777	16778	16779	
4	16780	16781	16782	16783	
4	16784	16785	16786	16787	
4	16788	16789	16790	16791	
4	16792	16793	16794	16795	
4	16796	16797	16798	16799	
4	16800	16801	16802	16803	
4	16804	16805	16806	16807	
4	16808	16809	16810	16811	
4	16812	16813	16814	16815	
4	16816	16817	16818	16819	
4	16820	16821	16822	16823	
4	16824	16825	16826	16827	
4	16828	16829	16830	16831	
4	16832	16833	16834	16835	
4	16836	16837	16838	16839	
4	16840	16841	16842	16843	
4	16844	16845	16846	16847	
4	16848	16849	16850	16851	
4	16852	16853	16854	16855	
4	16856	16857	16858	16859	
4	16860	16861	16862	16863	
4	16864	16865	16866	16867	
4	16868	16869	16870	16871	
4	16872	16873	16874	16875	
4	16876	16877	16878	16879	
4	16880	16881	16882	16883	
4	16884	16885	16886	16887	
4	16888	16889	16890	16891	
4	16892	16893	16894	16895	
4	16896	16897	16898	16899	
4	16900	16901	16902	16903	
4	16904	16905	16906	16907	
4	16908	16909	16910	16911	
4	16912	16913	16914	16915	
4	16916	16917	16918	16919	
4	16920	16921	16922	16923	
4	16924	16925	16926	16927	
4	16928	16929	16930	16931	
4	16932	16933	16934	16935	
4	16936	16937	16938	16939	
4	16940	16941	16942	16943	
4	16944	16945	16946	16947	
4	16948	16949	16950	16951	
4	16952	16953	16954	16955	
4	16956	16957	16958	16959	
4	16960	16961	16962	16963	
4	16964	16965	16966	16967	
4	16968	16969	16970	16971	
4	16972	16973	16974	16975	
4	16976	16977	16978	16979	
4	16980	16981	16982	16983	
4	16984	16985	16986	16987	
4	16988	16989	16990	16991	
4	16992	16993	16994	16995	
4	16996	16997	16998	16999	
4	17000	17001	17002	17003	
4	17004	17005	17006	17007	
4	17008	17009	17010	17011	
4	17012	17013	17014	17015	
4	17016	17017	17018	17019	
4	17020	17021	17022	17023	
4	17024	17025	17026	17027	
4	17028	17029	17030	17031	
4	17032	17033	17034	17035	
4	17036	17037	17038	17039	
4	17040	17041	17042	17043	
4	17044	17045	17046	17047	
4	17048	17049	17050	17051	
4	17052	17053	17054	17055	
4	17056	17057	17058	17059	
4	17060	17061	17062	17063	
4	17064	17065	17066	17067	
4	17068	17069	17070	17071	
4	17072	17073	17074	17075	
4	17076	17077	17078	17079	
4	17080	17081	17082	17083	
4	17084	17085	17086	17087	
4	17088	17089	17090	17091	
4	17092	17093	17094	17095	
4	17096	17097	17098	17099	
4	17100	17101	17102	17103	
4	17104	17105	17106	17107	
4	17108	17109	17110	17111	
4	17112	17113	17114	17115	
4	17116	17117	17118	17119	
4	17120	17121	17122	17123	
4	17124	17125	17126	17127	
4	17128	17129	17130	17131	
4	17132	17133	17134	17135	
4	17136	17137	17138	17139	
4	17140	17141	17142	17143	
4	17144	17145	17146	17147	
4	17148	17149	17150	17151	
4	17152	17153	17154	17155	
4	17156	17157	17158	17159	
4	17160	17161	17162	17163	
4	17164	17165	17166	17167	
4	17168	17169	17170	17171	
4	17172	17173	17174	17175	
4	17176	17177	17178	17179	
4	17180	17181	17182	17183	
4	17184	17185	17186	17187	
4	17188	17189	17190	17191	
4	17192	17193	17194	17195	
4	17196	17197	17198	17199	
4	17200	17201	17202	17203	
4	17204	17205	17206	17207	
4	17208	17209	17210	17211	
4	17212	17213	17214	17215	
4	17216	17217	17218	17219	
4	17220	17221	17222	17223	
4	17224	17225	17226	17227	
4	17228	17229	17230	17231	
4	17232	17233	17234	17235	
4	17236	17237	17238	17239	
4	17240	17241	17242	17243	
4	17244	17245	17246	17247	
4	17248	17249	17250	17251	
4	17252	17253	17254	17255	
4	17256	17257	17258	17259	
4	17260	17261	17262	17263	
4	17264	17265	17266	17267	
4	17268	17269	17270	17271	
4	17272	17273	17274	17275	
4	17276	17277	17278	17279	
4	17280	17281	17282	17283	
4	17284	17285	17286	17287	
4	17288	17289	17290	17291	
4	17292	17293	17294	17295	
4	17296	17297	17298	17299	
4	17300	17301	17302	17303	
4	17304	17305	17306	17307	
4	17308	17309	17310	17311	
4	17312	17313	17314	17315	
4	17316	17317	17318	17319	
4	17320	17321	17322	17323	
4	17324	17325	17326	17327	
4	17328	17329	17330	17331	
4	17332	17333	17334	17335	
4	17336	17337	17338	17339	
4	17340	17341	17342	17343	
4	17344	17345	17346	17347	
4	17348	17349	17350	17351	
4	17352	17353	17354	17355	
4	17356	17357	17358	17359	
4	17360	17361	17362	17363	
4	17364	17365	17366	17367	
4	17368	17369	17370	17371	
4	17372	17373	17374	17375	
4	17376	17377	17378	17379	
4	17380	17381	17382	17383	
4	17384	17385	17386	17387	
4	17388	17389	17390	17391	
4	17392	17393	17394	17395	
4	17396	17397	17398	17399	
4	17400	17401	17402	17403	
4	17404	17405	17406	17407	
4	17408	17409	17410	17411	
4	17412	17413	17414	17415	
4	17416	17417	17418	17419	
4	17420	17421	17422	17423	
4	17424	17425	17426	17427	
4	17428	17429	17430	17431	
4	17432	17433	17434	17435	
4	17436	17437	17438	17439	
4	17440	17441	17442	17443	
4	17444	17445	17446	17447	
4	17448	17449	17450	17451	
4	17452	17453	17454	17455	
4	17456	17457	17458	17459	
4	17460	17461	17462	17463	
4	17464	17465	17466	17467	
4	17468	17469	17470	17471	
4	17472	17473	17474	17475	
4	17476	17477	17478	17479	
4	17480	17481	17482	17483	
4	17484	17485	17486	17487	
4	17488	17489	17490	17491	
4	17492	17493	17494	17495	
4	17496	17497	17498	17499	
4	17500	17501	17502	17503	
4	17504	17505	17506	17507	
4	17508	17509	17510	17511	
4	17512	17513	17514	17515	
4	17516	17517	17518	17519	
4	17520	17521	17522	17523	
4	17524	17525	17526	17527	
4	17528	17529	17530	17531	
4	17532	17533	17534	17535	
4	17536	17537	17538	17539	
4	17540	17541	17542	17543	
4	17544	17545	17546	17547	
4	17548	17549	17550	17551	
4	17552	17553	17554	17555	
4	17556	17557	17558	17559	
4	17560	17561	17562	17563	
4	17564	17565	17566	17567	
4	17568	17569	17570	17571	
4	17572	17573	17574	17575	
4	17576	17577	17578	17579	
4	17580	17581	17582	17583	
4	17584	17585	17586	17587	
4	17588	17589	17590	17591	
4	17592	17593	17594	17595	
4	17596	17597	17598	17599	
4	17600	17601	17602	17603	
4	17604	17605	17606	17607	
4	17608	17609	17610	17611	
4	17612	17613	17614	17615	
4	17616	17617	17618	17619	
4	17620	17621	17622	17623	
4	17624	17625	17626	17627	
4	17628	17629	17630	17631	
4	17632	17633	17634	17635	
4	17636	17637	17638	17639	
4	17640	17641	17642	17643	
4	17644	17645	17646	17647	
4	17648	17649	17650	17651	
4	17652	17653	17654	17655	
4	17656	17657	17658	17659	
4	17660	17661	17662	17663	
4	17664	17665	17666	17667	
4	17668	17669	17670	17671	
4	17672	17673	17674	17675	
4	17676	17677	17678	17679	
4	17680	17681	17682	17683	
4	17684	17685	17686	17687	
4	17688	17689	17690	17691	
4	17692	17693	17694	17695	
4	17696	17697	17698	17699	
4	17700	17701	17702	17703	
4	17704	17705	17706	17707	
4	17708	17709	17710	17711	
4	17712	17713	17714	17715	
4	17716	17717	17718	17719	
4	17720	17721	17722	17723	
4	17724	17725	17726	17727	
4	17728	17729	17730	17731	
4	17732	17733	17734	17735	
4	17736	17737	17738	17739	
4	17740	17741	17742	17743	
4	17744	17745	17746	17747	
4	17748	17749	17750	17751	
4	17752	17753	17754	17755	
4	17756	17757	17758	17759	
4	17760	17761	17762	17763	
4	17764	17765	17766	17767	
4	17768	17769	17770	17771	
4	17772	17773	17774	17775	
4	17776	17777	17778	17779	
4	17780	17781	17782	17783	
4	17784	17785	17786	17787	
4	17788	17789	17790	17791	
4	17792	17793	17794	17795	
4	17796	17797	17798	17799	
4	17800	17801	17802	17803	
4	17804	17805	17806	17807	
4	17808	17809	17810	17811	
4	17812	17813	17814	17815	
4	17816	17817	17818	17819	
4	17820	17821	17822	17823	
4	17824	17825	17826	17827	
4	17828	17829	17830	17831	
4	17832	17833	17834	17835	
4	17836	17837	17838	17839	
4	17840	17841	17842	17843	
4	17844	17845	17846	17847	
4	17848	17849	17850	17851	
4	17852	17853	17854	17855	
4	17856	17857	17858	17859	
4	17860	17861	17862	17863	
4	17864	17865	17866	17867	
4	17868	17869	17870	17871	
4	17872	17873	17874	17875	
4	17876	17877	17878	17879	
4	17880	17881	17882	17883	
4	17884	17885	17886	17887	
4	17888	17889	17890	17891	
4	17892	17893	17894	17895	
4	17896	17897	17898	17899	
4	17900	17901	17902	17903	
4	17904	17905	17906	17907	
4	17908	17909	17910	17911	
4	17912	17913	17914	17915	
4	17916	17917	17918	17919	
4	17920	17921	17922	17923	
4	17924	17925	17926	17927	
4	17928	17929	17930	17931	
4	17932	17933	17934	17935	
4	17936	17937	17938	17939	
4	17940	17941	17942	17943	
4	17944	17945	17946	17947	
4	17948	17949	17950	17951	
4	17952	17953	17954	17955	
4	17956	17957	17958	17959	
4	17960	17961	17962	17963	
4	17964	17965	17966	17967	
4	17968	17969	17970	17971	
4	17972	17973	17974	17975	
4	17976	17977	17978	17979	
4	17980	17981	17982	17983	
4	17984	17985	17986	17987	
4	17988	17989	17990	17991	
4	17992	17993	17994	17995	
4	17996	17997	17998	17999	
4	18000	18001	18002	18003	
4	18004	18005	18006	18007	
4	18008	18009	18010	18011	
4	18012	18013	18014	18015	
4	18016	18017	18018	18019	
4	18020	18021	18022	18023	
4	18024	18025	18026	18027	
4	18028	18029	18030	18031	
4	18032	18033	18034	18035	
4	18036	18037	18038	18039	
4	18040	18041	18042	18043	
4	18044	18045	18046	18047	
4	18048	18049	18050	18051	
4	18052	18053	18054	18055	
4	18056	18057	18058	18059	
4	18060	18061	18062	18063	
4	18064	18065	18066	18067	
4	18068	18069	18070	18071	
4	18072	18073	18074	18075	
4	18076	18077	18078	18079	
4	18080	18081	18082	18083	
4	18084	18085	18086	18087	
4	18088	18089	18090	18091	
4	18092	18093	18094	18095	
4	18096	18097	18098	18099	
4	18100	18101	18102	18103	
4	18104	18105	18106	18107	
4	18108	18109	18110	18111	
4	18112	18113	18114	18115	
4	18116	18117	18118	18119	
4	18120	18121	18122	18123	
4	18124	18125	18126	18127	
4	18128	18129	18130	18131	
4	18132	18133	18134	18135	
4	18136	18137	18138	18139	
4	18140	18141	18142	18143	
4	18144	18145	18146	18147	
4	18148	18149	18150	18151	
4	18152	18153	18154	18155	
4	18156	18157	18158	18159	
4	18160	18161	18162	18163	
4	18164	18165	18166	18167	
4	18168	18169	18170	18171	
4	18172	18173	18174	18175	
4	18176	18177	18178	18179	
4	18180	18181	18182	18183	
4	18184	18185	18186	18187	
4	18188	18189	18190	18191	
4	18192	18193	18194	18195	
4	18196	18197	18198	18199	
4	18200	18201	18202	18203	
4	18204	18205	18206	18207	
4	18208	18209	18210	18211	
4	18212	18213	18214	18215	
4	18216	18217	18218	18219	
4	18220	18221	18222	18223	
4	18224	18225	18226	18227	
4	18228	18229	18230	18231	
4	18232	18233	18234	18235	
4	18236	18237	18238	18239	
4	18240	18241	18242	18243	
4	18244	18245	18246	18247	
4	18248	18249	18250	18251	
4	18252	18253	18254	18255	
4	18256	18257	18258	18259	
4	18260	18261	18262	18263	
4	18264	18265	18266	18267	
4	18268	18269	18270	18271	
4	18272	18273	18274	18275	
4	18276	18277	18278	18279	
4	18280	18281	18282	18283	
4	18284	18285	18286	18287	
4	18288	18289	18290	18291	
4	18292	18293	18294	18295	
4	18296	18297	18298	18299	
4	18300	18301	18302	18303	
4	18304	18305	18306	18307	
4	18308	18309	18310	18311	
4	18312	18313	18314	18315	
4	18316	18317	18318	18319	
4	18320	18321	18322	18323	
4	18324	18325	18326	18327	
4	18328	18329	18330	18331	
4	18332	18333	18334	18335	
4	18336	18337	18338	18339	
4	18340	18341	18342	18343	
4	18344	18345	18346	18347	
4	18348	18349	18350	18351	
4	18352	18353	18354	18355	
4	18356	18357	18358	18359	
4	18360	18361	18362	18363	
4	18364	18365	18366	18367	
4	18368	18369	18370	18371	
4	18372	18373	18374	18375	
4	18376	18377	18378	18379	
4	18380	18381	18382	18383	
4	18384	18385	18386	18387	
4	18388	18389	18390	18391	
4	18392	18393	18394	18395	
4	18396	18397	18398	18399	
4	18400	18401	18402	18403	
4	18404	18405	18406	18407	
4	18408	18409	18410	18411	
4	18412	18413	18414	18415	
4	18416	18417	18418	18419	
4	18420	18421	18422	18423	
4	18424	18425	18426	18427	
4	18428	18429	18430	18431	
4	18432	18433	18434	18435	
4	18436	18437	18438	18439	
4	18440	18441	18442	18443	
4	18444	18445	18446	18447	
4	18448	18449	18450	18451	
4	18452	18453	18454	18455	
4	18456	18457	18458	18459	
4	18460	18461	18462	18463	
4	18464	18465	18466	18467	
4	18468	18469	18470	18471	
4	18472	18473	18474	18475	
4	18476	18477	18478	18479	
4	18480	18481	18482	18483	
4	18484	18485	18486	18487	
4	18488	18489	18490	18491	
4	18492	18493	18494	18495	
4	18496	18497	18498	18499	
4	18500	18501	18502	18503	
4	18504	18505	18506	18507	
4	18508	18509	18510	18511	
4	18512	18513	18514	18515	
4	18516	18517	18518	18519	
4	18520	18521	18522	18523	
4	18524	18525	18526	18527	
4	18528	18529	18530	18531	
4	18532	18533	18534	18535	
4	18536	18537	18538	18539	
4	18540	18541	18542	18543	
4	18544	18545	18546	18547	
4	18548	18549	18550	18551	
4	18552	18553	18554	18555	
4	18556	18557	18558	18559	
4	18560	18561	18562	18563	
4	18564	18565	18566	18567	
4	18568	18569	18570	18571	
4	18572	18573	18574	18575	
4	18576	18577	18578	18579	
4	18580	18581	18582	18583	
4	18584	18585	18586	18587	
4	18588	18589	18590	18591	
4	18592	18593	18594	18595	
4	18596	18597	18598	18599	
4	18600	18601	18602	18603	
4	18604	18605	18606	18607	
4	18608	18609	18610	18611	
4	18612	18613	18614	18615	
4	18616	18617	18618	18619	
4	18620	18621	18622	18623	
4	18624	18625	18626	18627	
4	18628	18629	18630	18631	
4	18632	18633	18634	18635	
4	18636	18637	18638	18639	
4	18640	18641	18642	18643	
4	18644	18645	18646	18647	
4	18648	18649	18650	18651	
4	18652	18653	18654	18655	
4	18656	18657	18658	18659	
4	18660	18661	18662	18663	
4	18664	18665	18666	18667	
4	18668	18669	18670	18671	
4	18672	18673	18674	18675	
4	18676	18677	18678	18679	
4	18680	18681	18682	18683	
4	18684	18685	18686	18687	
4	18688	18689	18690	18691	
4	18692	18693	18694	18695	
4	18696	18697	18698	18699	
4	18700	18701	18702	18703	
4	18704	18705	18706	18707	
4	18708	18709	18710	18711	
4	18712	18713	18714	18715	
4	18716	18717	18718	18719	
4	18720	18721	18722	18723	
4	18724	18725	18726	18727	
4	18728	18729	18730	18731	
4	18732	18733	18734	18735	
4	18736	18737	18738	18739	
4	18740	18741	18742	18743	
4	18744	18745	18746	18747	
4	18748	18749	18750	18751	
4	18752	18753	18754	18755	
4	18756	18757	18758	18759	
4	18760	18761	18762	18763	
4	18764	18765	18766	18767	
4	18768	18769	18770	18771	
4	18772	18773	18774	18775	
4	18776	18777	18778	18779	
4	18780	18781	18782	18783	
4	18784	18785	18786	18787	
4	18788	18789	18790	18791	
4	18792	18793	18794	18795	
4	18796	18797	18798	18799	
4	18800	18801	18802	18803	
4	18804	18805	18806	18807	
4	18808	18809	18810	18811	
4	18812	18813	18814	18815	
4	18816	18817	18818	18819	
4	18820	18821	18822	18823	
4	18824	18825	18826	18827	
4	18828	18829	18830	18831	
4	18832	18833	18834	18835	
4	18836	18837	18838	18839	
4	18840	18841	18842	18843	
4	18844	18845	18846	18847	
4	18848	18849	18850	18851	
4	18852	18853	18854	18855	
4	18856	18857	18858	18859	
4	18860	18861	18862	18863	
4	18864	18865	18866	18867	
4	18868	18869	18870	18871	
4	18872	18873	18874	18875	
4	18876	18877	18878	18879	
4	18880	18881	18882	18883	
4	18884	18885	18886	18887	
4	18888	18889	18890	18891	
4	18892	18893	18894	18895	
4	18896	18897	18898	18899	
4	18900	18901	18902	18903	
4	18904	18905	18906	18907	
4	18908	18909	18910	18911	
4	18912	18913	18914	18915	
4	18916	18917	18918	18919	
4	18920	18921	18922	18923	
4	18924	18925	18926	18927	
4	18928	18929	18930	18931	
4	18932	18933	18934	18935	
4	18936	18937	18938	18939	
4	18940	18941	18942	18943	
4	18944	18945	18946	18947	
4	18948	18949	18950	18951	
4	18952	18953	18954	18955	
4	18956	18957	18958	18959	
4	18960	18961	18962	18963	
4	18964	18965	18966	18967	
4	18968	18969	18970	18971	
4	18972	18973	18974	18975	
4	18976	18977	18978	18979	
4	18980	18981	18982	18983	
4	18984	18985	18986	18987	
4	18988	18989	18990	18991	
4	18992	18993	18994	18995	
4	18996	18997	18998	18999	
4	19000	19001	19002	19003	
4	19004	19005	19006	19007	
4	19008	19009	19010	19011	
4	19012	19013	19014	19015	
4	19016	19017	19018	19019	
4	19020	19021	19022	19023	
4	19024	19025	19026	19027	
4	19028	19029	19030	19031	
4	19032	19033	19034	19035	
4	19036	19037	19038	19039	
4	19040	19041	19042	19043	
4	19044	19045	19046	19047	
4	19048	19049	19050	19051	
4	19052	19053	19054	19055	
4	19056	19057	19058	19059	
4	19060	19061	19062	19063	
4	19064	19065	19066	19067	
4	19068	19069	19070	19071	
4	19072	19073	19074	19075	
4	19076	19077	19078	19079	
4	19080	19081	19082	19083	
4	19084	19085	19086	19087	
4	19088	19089	19090	19091	
4	19092	19093	19094	19095	
4	19096	19097	19098	19099	
4	19100	19101	19102	19103	
4	19104	19105	19106	19107	
4	19108	19109	19110	19111	
4	19112	19113	19114	19115	
4	19116	19117	19118	19119	
4	19120	19121	19122	19123	
4	19124	19125	19126	19127	
4	19128	19129	19130	19131	
4	19132	19133	19134	19135	
4	19136	19137	19138	19139	
4	19140	19141	19142	19143	
4	19144	19145	19146	19147	
4	19148	19149	19150	19151	
4	19152	19153	19154	19155	
4	19156	19157	19158	19159	
4	19160	19161	19162	19163	
4	19164	19165	19166	19167	
4	19168	19169	19170	19171	
4	19172	19173	19174	19175	
4	19176	19177	19178	19179	
4	19180	19181	19182	19183	
4	19184	19185	19186	19187	
4	19188	19189	19190	19191	
4	19192	19193	19194	19195	
4	19196	19197	19198	19199	
4	19200	19201	19202	19203	
4	19204	19205	19206	19207	
4	19208	19209	19210	19211	
4	19212	19213	19214	19215	
4	19216	19217	19218	19219	
4	19220	19221	19222	19223	
4	19224	19225	19226	19227	
4	19228	19229	19230	19231	
4	19232	19233	19234	19235	
4	19236	19237	19238	19239	
4	19240	19241	19242	19243	
4	19244	19245	19246	19247	
4	19248	19249	19250	19251	
4	19252	19253	19254	19255	
4	19256	19257	19258	19259	
4	19260	19261	19262	19263	
4	19264	19265	19266	19267	
4	19268	19269	19270	19271	
4	19272	19273	19274	19275	
4	19276	19277	19278	19279	
4	19280	19281	19282	19283	
4	19284	19285	19286	19287	
4	19288	19289	19290	19291	
4	19292	19293	19294	19295	
4	19296	19297	19298	19299	
4	19300	19301	19302	19303	
4	19304	19305	19306	19307	
4	19308	19309	19310	19311	
4	19312	19313	19314	19315	
4	19316	19317	19318	19319	
4	19320	19321	19322	19323	
4	19324	19325	19326	19327	
4	19328	19329	19330	19331	
4	19332	19333	19334	19335	
4	19336	19337	19338	19339	
4	19340	19341	19342	19343	
4	19344	19345	19346	19347	
4	19348	19349	19350	19351	
4	19352	19353	19354	19355	
4	19356	19357	19358	19359	
4	19360	19361	19362	19363	
4	19364	19365	19366	19367	
4	19368	19369	19370	19371	
4	19372	19373	19374	19375	
4	19376	19377	19378	19379	
4	19380	19381	19382	19383	
4	19384	19385	19386	19387	
4	19388	19389	19390	19391	
4	19392	19393	19394	19395	
4	19396	19397	19398	19399	
4	19400	19401	19402	19403	
4	19404	19405	19406	19407	
4	19408	19409	19410	19411	
4	19412	19413	19414	19415	
4	19416	19417	19418	19419	
4	19420	19421	19422	19423	
4	19424	19425	19426	19427	
4	19428	19429	19430	19431	
4	19432	19433	19434	19435	
4	19436	19437	19438	19439	
4	19440	19441	19442	19443	
4	19444	19445	19446	19447	
4	19448	19449	19450	19451	
4	19452	19453	19454	19455	
4	19456	19457	19458	19459	
4	19460	19461	19462	19463	
4	19464	19465	19466	19467	
4	19468	19469	19470	19471	
4	19472	19473	19474	19475	
4	19476	19477	19478	19479	
4	19480	19481	19482	19483	
4	19484	19485	19486	19487	
4	19488	19489	19490	19491	
4	19492	19493	19494	19495	
4	19496	19497	19498	19499	
4	19500	19501	19502	19503	
4	19504	19505	19506	19507	
4	19508	19509	19510	19511	
4	19512	19513	19514	19515	
4	19516	19517	19518	19519	
4	19520	19521	19522	19523	
4	19524	19525	19526	19527	
4	19528	19529	19530	19531	
4	19532	19533	19534	19535	
4	19536	19537	19538	19539	
4	19540	19541	19542	19543	
4	19544	19545	19546	19547	
4	19548	19549	19550	19551	
4	19552	19553	19554	19555	
4	19556	19557	19558	19559	
4	19560	19561	19562	19563	
4	19564	19565	19566	19567	
4	19568	19569	19570	19571	
4	19572	19573	19574	19575	
4	19576	19577	19578	19579	
4	19580	19581	19582	19583	
4	19584	19585	19586	19587	
4	19588	19589	19590	19591	
4	19592	19593	19594	19595	
4	19596	19597	19598	19599	
4	19600	19601	19602	19603	
4	19604	19605	19606	19607	
4	19608	19609	19610	19611	
4	19612	19613	19614	19615	
4	19616	19617	19618	19619	
4	19620	19621	19622	19623	
4	19624	19625	19626	19627	
4	19628	19629	19630	19631	
4	19632	19633	19634	19635	
4	19636	19637	19638	19639	
4	19640	19641	19642	19643	
4	19644	19645	19646	19647	
4	19648	19649	19650	19651	
4	19652	19653	19654	19655	
4	19656	19657	19658	19659	
4	19660	19661	19662	19663	
4	19664	19665	19666	19667	
4	19668	19669	19670	19671	
4	19672	19673	19674	19675	
4	19676	19677	19678	19679	
4	19680	19681	19682	19683	
4	19684	19685	19686	19687	
4	19688	19689	19690	19691	
4	19692	19693	19694	19695	
4	19696	19697	19698	19699	
4	19700	19701	19702	19703	
4	19704	19705	19706	19707	
4	19708	19709	19710	19711	
4	19712	19713	19714	19715	
4	19716	19717	19718	19719	
4	19720	19721	19722	19723	
4	19724	19725	19726	19727	
4	19728	19729	19730	19731	
4	19732	19733	19734	19735	
4	19736	19737	19738	19739	
4	19740	19741	19742	19743	
4	19744	19745	19746	19747	
4	19748	19749	19750	19751	
4	19752	19753	19754	19755	
4	19756	19757	19758	19759	
4	19760	19761	19762	19763	
4	19764	19765	19766	19767	
4	19768	19769	19770	19771	
4	19772	19773	19774	19775	
4	19776	19777	19778	19779	
4	19780	19781	19782	19783	
4	19784	19785	19786	19787	
4	19788	19789	19790	19791	
4	19792	19793	19794	19795	
4	19796	19797	19798	19799	
4	19800	19801	19802	19803	
4	19804	19805	19806	19807	
4	19808	19809	19810	19811	
4	19812	19813	19814	19815	
4	19816	19817	19818	19819	
4	19820	19821	19822	19823	
4	19824	19825	19826	19827	
4	19828	19829	19830	19831	
4	19832	19833	19834	19835	
4	19836	19837	19838	19839	
4	19840	19841	19842	19843	
4	19844	19845	19846	19847	
4	19848	19849	19850	19851	
4	19852	19853	19854	19855	
4	19856	19857	19858	19859	
4	19860	19861	19862	19863	
4	19864	19865	19866	19867	
4	19868	19869	19870	19871	
4	19872	19873	19874	19875	
4	19876	19877	19878	19879	
4	19880	19881	19882	19883	
4	19884	19885	19886	19887	
4	19888	19889	19890	19891	
4	19892	19893	19894	19895	
4	19896	19897	19898	19899	
4	19900	19901	19902	19903	
4	19904	19905	19906	19907	
4	19908	19909	19910	19911	
4	19912	19913	19914	19915	
4	19916	19917	19918	19919	
4	19920	19921	19922	19923	
4	19924	19925	19926	19927	
4	19928	19929	19930	19931	
4	19932	19933	19934	19935	
4	19936	19937	19938	19939	
4	19940	19941	19942	19943	
4	19944	19945	19946	19947	
4	19948	19949	19950	19951	
4	19952	19953	19954	19955	
4	19956	19957	19958	19959	
4	19960	19961	19962	19963	
4	19964	19965	19966	19967	
4	19968	19969	19970	19971	
4	19972	19973	19974	19975	
4	19976	19977	19978	19979	
4	19980	19981	19982	19983	
4	19984	19985	19986	19987	
4	19988	19989	19990	19991	
4	19992	19993	19994	19995	
4	19996	19997	19998	19999	
4	20000	20001	20002	20003	
4	20004	20005	20006	20007	
4	20008	20009	20010	20011	
4	20012	20013	20014	20015	
4	20016	20017	20018	20019	
4	20020	20021	20022	20023	
4	20024	20025	20026	20027	
4	20028	20029	20030	20031	
4	20032	20033	20034	20035	
4	20036	20037	20038	20039	
4	20040	20041	20042	20043	
4	20044	20045	20046	20047	
4	20048	20049	20050	20051	
4	20052	20053	20054	20055	
4	20056	20057	20058	20059	
4	20060	20061	20062	20063	
4	20064	20065	20066	20067	
4	20068	20069	20070	20071	
4	20072	20073	20074	20075	
4	20076	20077	20078	20079	
4	20080	20081	20082	20083	
4	20084	20085	20086	20087	
4	20088	20089	20090	20091	
4	20092	20093	20094	20095	
4	20096	20097	20098	20099	
4	20100	20101	20102	20103	
4	20104	20105	20106	20107	
4	20108	20109	20110	20111	
4	20112	20113	20114	20115	
4	20116	20117	20118	20119	
4	20120	20121	20122	20123	
4	20124	20125	20126	20127	
4	20128	20129	20130	20131	
4	20132	20133	20134	20135	
4	20136	20137	20138	20139	
4	20140	20141	20142	20143	
4	20144	20145	20146	20147	
4	20148	20149	20150	20151	
4	20152	20153	20154	20155	
4	20156	20157	20158	20159	
4	20160	20161	20162	20163	
4	20164	20165	20166	20167	
4	20168	20169	20170	20171	
4	20172	20173	20174	20175	
4	20176	20177	20178	20179	
4	20180	20181	20182	20183	
4	20184	20185	20186	20187	
4	20188	20189	20190	20191	
4	20192	20193	20194	20195	
4	20196	20197	20198	20199	
4	20200	20201	20202	20203	
4	20204	20205	20206	20207	
4	20208	20209	20210	20211	
4	20212	20213	20214	20215	
4	20216	20217	20218	20219	
4	20220	20221	20222	20223	
4	20224	20225	20226	20227	
4	20228	20229	20230	20231	
4	20232	20233	20234	20235	
4	20236	20237	20238	20239	
4	20240	20241	20242	20243	
4	20244	20245	20246	20247	
4	20248	20249	20250	20251	
4	20252	20253	20254	20255	
4	20256	20257	20258	20259	
4	20260	20261	20262	20263	
4	20264	20265	20266	20267	
4	20268	20269	20270	20271	
4	20272	20273	20274	20275	
4	20276	20277	20278	20279	
4	20280	20281	20282	20283	
4	20284	20285	20286	20287	
4	20288	20289	20290	20291	
4	20292	20293	20294	20295	
4	20296	20297	20298	20299	
4	20300	20301	20302	20303	
4	20304	20305	20306	20307	
4	20308	20309	20310	20311	
4	20312	20313	20314	20315	
4	20316	20317	20318	20319	
4	20320	20321	20322	20323	
4	20324	20325	20326	20327	
4	20328	20329	20330	20331	
4	20332	20333	20334	20335	
4	20336	20337	20338	20339	
4	20340	20341	20342	20343	
4	20344	20345	20346	20347	
4	20348	20349	20350	20351	
4	20352	20353	20354	20355	
4	20356	20357	20358	20359	
4	20360	20361	20362	20363	
4	20364	20365	20366	20367	
4	20368	20369	20370	20371	
4	20372	20373	20374	20375	
4	20376	20377	20378	20379	
4	20380	20381	20382	20383	
4	20384	20385	20386	20387	
4	20388	20389	20390	20391	
4	20392	20393	20394	20395	
4	20396	20397	20398	20399	
4	20400	20401	20402	20403	
4	20404	20405	20406	20407	
4	20408	20409	20410	20411	
4	20412	20413	20414	20415	
4	20416	20417	20418	20419	
4	20420	20421	20422	20423	
4	20424	20425	20426	20427	
4	20428	20429	20430	20431	
4	20432	20433	20434	20435	
4	20436	20437	20438	20439	
4	20440	20441	20442	20443	
4	20444	20445	20446	20447	
4	20448	20449	20450	20451	
4	20452	20453	20454	20455	
4	20456	20457	20458	20459	
4	20460	20461	20462	20463	
4	20464	20465	20466	20467	
4	20468	20469	20470	20471	
4	20472	20473	20474	20475	
4	20476	20477	20478	20479	
4	20480	20481	20482	20483	
4	20484	20485	20486	20487	
4	20488	20489	20490	20491	
4	20492	20493	20494	20495	
4	20496	20497	20498	20499	
4	20500	20501	20502	20503	
4	20504	20505	20506	20507	
4	20508	20509	20510	20511	
4	20512	20513	20514	20515	
4	20516	20517	20518	20519	
4	20520	20521	20522	20523	
4	20524	20525	20526	20527	
4	20528	20529	20530	20531	
4	20532	20533	20534	20535	
4	20536	20537	20538	20539	
4	20540	20541	20542	20543	
4	20544	20545	20546	20547	
4	20548	20549	20550	20551	
4	20552	20553	20554	20555	
4	20556	20557	20558	20559	
4	20560	20561	20562	20563	
4	20564	20565	20566	20567	
4	20568	20569	20570	20571	
4	20572	20573	20574	20575	
4	20576	20577	20578	20579	
4	20580	20581	20582	20583	
4	20584	20585	20586	20587	
4	20588	20589	20590	20591	
4	20592	20593	20594	20595	
4	20596	20597	20598	20599	
4	20600	20601	20602	20603	
4	20604	20605	20606	20607	
4	20608	20609	20610	20611	
4	20612	20613	20614	20615	
4	20616	20617	20618	20619	
4	20620	20621	20622	20623	
4	20624	20625	20626	20627	
4	20628	20629	20630	20631	
4	20632	20633	20634	20635	
4	20636	20637	20638	20639	
4	20640	20641	20642	20643	
4	20644	20645	20646	20647	
4	20648	20649	20650	20651	
4	20652	20653	20654	20655	
4	20656	20657	20658	20659	
4	20660	20661	20662	20663	
4	20664	20665	20666	20667	
4	20668	20669	20670	20671	
4	20672	20673	20674	20675	
4	20676	20677	20678	20679	
4	20680	20681	20682	20683	
4	20684	20685	20686	20687	
4	20688	20689	20690	20691	
4	20692	20693	20694	20695	
4	20696	20697	20698	20699	
4	20700	20701	20702	20703	
4	20704	20705	20706	20707	
4	20708	20709	20710	20711	
4	20712	20713	20714	20715	
4	20716	20717	20718	20719	
4	20720	20721	20722	20723	
4	20724	20725	20726	20727	
4	20728	20729	20730	20731	
4	20732	20733	20734	20735	
4	20736	20737	20738	20739	
4	20740	20741	20742	20743	
4	20744	20745	20746	20747	
4	20748	20749	20750	20751	
4	20752	20753	20754	20755	
4	20756	20757	20758	20759	
4	20760	20761	20762	20763	
4	20764	20765	20766	20767	
4	20768	20769	20770	20771	
4	20772	20773	20774	20775	
4	20776	20777	20778	20779	
4	20780	20781	20782	20783	
4	20784	20785	20786	20787	
4	20788	20789	20790	20791	
4	20792	20793	20794	20795	
4	20796	20797	20798	20799	
4	20800	20801	20802	20803	
4	20804	20805	20806	20807	
4	20808	20809	20810	20811	
4	20812	20813	20814	20815	
4	20816	20817	20818	20819	
4	20820	20821	20822	20823	
4	20824	20825	20826	20827	
4	20828	20829	20830	20831	
4	20832	20833	20834	20835	
4	20836	20837	20838	20839	
4	20840	20841	20842	20843	
4	20844	20845	20846	20847	
4	20848	20849	20850	20851	
4	20852	20853	20854	20855	
4	20856	20857	20858	20859	
4	20860	20861	20862	20863	
4	20864	20865	20866	20867	
4	20868	20869	20870	20871	
4	20872	20873	20874	20875	
4	20876	20877	20878	20879	
4	20880	20881	20882	20883	
4	20884	20885	20886	20887	
4	20888	20889	20890	20891	
4	20892	20893	20894	20895	
4	20896	20897	20898	20899	
4	20900	20901	20902	20903	
4	20904	20905	20906	20907	
4	20908	20909	20910	20911	
4	20912	20913	20914	20915	
4	20916	20917	20918	20919	
4	20920	20921	20922	20923	
4	20924	20925	20926	20927	
4	20928	20929	20930	20931	
4	20932	20933	20934	20935	
4	20936	20937	20938	20939	
4	20940	20941	20942	20943	
4	20944	20945	20946	20947	
4	20948	20949	20950	20951	
4	20952	20953	20954	20955	
4	20956	20957	20958	20959	
4	20960	20961	20962	20963	
4	20964	20965	20966	20967	
4	20968	20969	20970	20971	
4	20972	20973	20974	20975	
4	20976	20977	20978	20979	
4	20980	20981	20982	20983	
4	20984	20985	20986	20987	
4	20988	20989	20990	20991	
4	20992	20993	20994	20995	
4	20996	20997	20998	20999	
4	21000	21001	21002	21003	
4	21004	21005	21006	21007	
4	21008	21009	21010	21011	
4	21012	21013	21014	21015	
4	21016	21017	21018	21019	
4	21020	21021	21022	21023	
4	21024	21025	21026	21027	
4	21028	21029	21030	21031	
4	21032	21033	21034	21035	
4	21036	21037	21038	21039	
4	21040	21041	21042	21043	
4	21044	21045	21046	21047	
4	21048	21049	21050	21051	
4	21052	21053	21054	21055	
4	21056	21057	21058	21059	
4	21060	21061	21062	21063	
4	21064	21065	21066	21067	
4	21068	21069	21070	21071	
4	21072	21073	21074	21075	
4	21076	21077	21078	21079	
4	21080	21081	21082	21083	
4	21084	21085	21086	21087	
4	21088	21089	21090	21091	
4	21092	21093	21094	21095	
4	21096	21097	21098	21099	
4	21100	21101	21102	21103	
4	21104	21105	21106	21107	
4	21108	21109	21110	21111	
4	21112	21113	21114	21115	
4	21116	21117	21118	21119	
4	21120	21121	21122	21123	
4	21124	21125	21126	21127	
4	21128	21129	21130	21131	
4	21132	21133	21134	21135	
4	21136	21137	21138	21139	
4	21140	21141	21142	21143	
4	21144	21145	21146	21147	
4	21148	21149	21150	21151	
4	21152	21153	21154	21155	
4	21156	21157	21158	21159	
4	21160	21161	21162	21163	
4	21164	21165	21166	21167	
4	21168	21169	21170	21171	
4	21172	21173	21174	21175	
4	21176	21177	21178	21179	
4	21180	21181	21182	21183	
4	21184	21185	21186	21187	
4	21188	21189	21190	21191	
4	21192	21193	21194	21195	
4	21196	21197	21198	21199	
4	21200	21201	21202	21203	
4	21204	21205	21206	21207	
4	21208	21209	21210	21211	
4	21212	21213	21214	21215	
4	21216	21217	21218	21219	
4	21220	21221	21222	21223	
4	21224	21225	21226	21227	
4	21228	21229	21230	21231	
4	21232	21233	21234	21235	
4	21236	21237	21238	21239	
4	21240	21241	21242	21243	
4	21244	21245	21246	21247	
4	21248	21249	21250	21251	
4	21252	21253	21254	21255	
4	21256	21257	21258	21259	
4	21260	21261	21262	21263	
4	21264	21265	21266	21267	
4	21268	21269	21270	21271	
4	21272	21273	21274	21275	
4	21276	21277	21278	21279	
4	21280	21281	21282	21283	
4	21284	21285	21286	21287	
4	21288	21289	21290	21291	
4	21292	21293	21294	21295	
4	21296	21297	21298	21299	
4	21300	21301	21302	21303	
4	21304	21305	21306	21307	
4	21308	21309	21310	21311	
4	21312	21313	21314	21315	
4	21316	21317	21318	21319	
4	21320	21321	21322	21323	
4	21324	21325	21326	21327	
4	21328	21329	21330	21331	
4	21332	21333	21334	21335	
4	21336	21337	21338	21339	
4	21340	21341	21342	21343	
4	21344	21345	21346	21347	
4	21348	21349	21350	21351	
4	21352	21353	21354	21355	
4	21356	21357	21358	21359	
4	21360	21361	21362	21363	
4	21364	21365	21366	21367	
4	21368	21369	21370	21371	
4	21372	21373	21374	21375	
4	21376	21377	21378	21379	
4	21380	21381	21382	21383	
4	21384	21385	21386	21387	
4	21388	21389	21390	21391	
4	21392	21393	21394	21395	
4	21396	21397	21398	21399	
4	21400	21401	21402	21403	
4	21404	21405	21406	21407	
4	21408	21409	21410	21411	
4	21412	21413	21414	21415	
4	21416	21417	21418	21419	
4	21420	21421	21422	21423	
4	21424	21425	21426	21427	
4	21428	21429	21430	21431	
4	21432	21433	21434	21435	
4	21436	21437	21438	21439	
4	21440	21441	21442	21443	
4	21444	21445	21446	21447	
4	21448	21449	21450	21451	
4	21452	21453	21454	21455	
4	21456	21457	21458	21459	
4	21460	21461	21462	21463	
4	21464	21465	21466	21467	
4	21468	21469	21470	21471	
4	21472	21473	21474	21475	
4	21476	21477	21478	21479	
4	21480	21481	21482	21483	
4	21484	21485	21486	21487	
4	21488	21489	21490	21491	
4	21492	21493	21494	21495	
4	21496	21497	21498	21499	
4	21500	21501	21502	21503	
4	21504	21505	21506	21507	
4	21508	21509	21510	21511	
4	21512	21513	21514	21515	
4	21516	21517	21518	21519	
4	21520	21521	21522	21523	
4	21524	21525	21526	21527	
4	21528	21529	21530	21531	
4	21532	21533	21534	21535	
4	21536	21537	21538	21539	
4	21540	21541	21542	21543	
4	21544	21545	21546	21547	
4	21548	21549	21550	21551	
4	21552	21553	21554	21555	
4	21556	21557	21558	21559	
4	21560	21561	21562	21563	
4	21564	21565	21566	21567	
4	21568	21569	21570	21571	
4	21572	21573	21574	21575	
4	21576	21577	21578	21579	
4	21580	21581	21582	21583	
4	21584	21585	21586	21587	
4	21588	21589	21590	21591	
4	21592	21593	21594	21595	
4	21596	21597	21598	21599	
4	21600	21601	21602	21603	
4	21604	21605	21606	21607	
4	21608	21609	21610	21611	
4	21612	21613	21614	21615	
4	21616	21617	21618	21619	
4	21620	21621	21622	21623	
4	21624	21625	21626	21627	
4	21628	21629	21630	21631	
4	21632	21633	21634	21635	
4	21636	21637	21638	21639	
4	21640	21641	21642	21643	
4	21644	21645	21646	21647	
4	21648	21649	21650	21651	
4	21652	21653	21654	21655	
4	21656	21657	21658	21659	
4	21660	21661	21662	21663	
4	21664	21665	21666	21667	
4	21668	21669	21670	21671	
4	21672	21673	21674	21675	
4	21676	21677	21678	21679	
4	21680	21681	21682	21683	
4	21684	21685	21686	21687	
4	21688	21689	21690	21691	
4	21692	21693	21694	21695	
4	21696	21697	21698	21699	
4	21700	21701	21702	21703	
4	21704	21705	21706	21707	
4	21708	21709	21710	21711	
4	21712	21713	21714	21715	
4	21716	21717	21718	21719	
4	21720	21721	21722	21723	
4	21724	21725	21726	21727	
4	21728	21729	21730	21731	
4	21732	21733	21734	21735	
4	21736	21737	21738	21739	
4	21740	21741	21742	21743	
4	21744	21745	21746	21747	
4	21748	21749	21750	21751	
4	21752	21753	21754	21755	
4	21756	21757	21758	21759	
4	21760	21761	21762	21763	
4	21764	21765	21766	21767	
4	21768	21769	21770	21771	
4	21772	21773	21774	21775	
4	21776	21777	21778	21779	
4	21780	21781	21782	21783	
4	21784	21785	21786	21787	
4	21788	21789	21790	21791	
4	21792	21793	21794	21795	
4	21796	21797	21798	21799	
4	21800	21801	21802	21803	
4	21804	21805	21806	21807	
4	21808	21809	21810	21811	
4	21812	21813	21814	21815	
4	21816	21817	21818	21819	
4	21820	21821	21822	21823	
4	21824	21825	21826	21827	
4	21828	21829	21830	21831	
4	21832	21833	21834	21835	
4	21836	21837	21838	21839	
4	21840	21841	21842	21843	
4	21844	21845	21846	21847	
4	21848	21849	21850	21851	
4	21852	21853	21854	21855	
4	21856	21857	21858	21859	
4	21860	21861	21862	21863	
4	21864	21865	21866	21867	
4	21868	21869	21870	21871	
4	21872	21873	21874	21875	
4	21876	21877	21878	21879	
4	21880	21881	21882	21883	
4	21884	21885	21886	21887	
4	21888	21889	21890	21891	
4	21892	21893	21894	21895	
4	21896	21897	21898	21899	
4	21900	21901	21902	21903	
4	21904	21905	21906	21907	
4	21908	21909	21910	21911	
4	21912	21913	21914	21915	
4	21916	21917	21918	21919	
4	21920	21921	21922	21923	
4	21924	21925	21926	21927	
4	21928	21929	21930	21931	
4	21932	21933	21934	21935	
4	21936	21937	21938	21939	
4	21940	21941	21942	21943	
4	21944	21945	21946	21947	
4	21948	21949	21950	21951	
4	21952	21953	21954	21955	
4	21956	21957	21958	21959	
4	21960	21961	21962	21963	
4	21964	21965	21966	21967	
4	21968	21969	21970	21971	
4	21972	21973	21974	21975	
4	21976	21977	21978	21979	
4	21980	21981	21982	21983	
4	21984	21985	21986	21987	
4	21988	21989	21990	21991	
4	21992	21993	21994	21995	
4	21996	21997	21998	21999	
4	22000	22001	22002	22003	
4	22004	22005	22006	22007	
4	22008	22009	22010	22011	
4	22012	22013	22014	22015	
4	22016	22017	22018	22019	
4	22020	22021	22022	22023	
4	22024	22025	22026	22027	
4	22028	22029	22030	22031	
4	22032	22033	22034	22035	
4	22036	22037	22038	22039	
4	22040	22041	22042	22043	
4	22044	22045	22046	22047	
4	22048	22049	22050	22051	
4	22052	22053	22054	22055	
4	22056	22057	22058	22059	
4	22060	22061	22062	22063	
4	22064	22065	22066	22067	
4	22068	22069	22070	22071	
4	22072	22073	22074	22075	
4	22076	22077	22078	22079	
4	22080	22081	22082	22083	
4	22084	22085	22086	22087	
4	22088	22089	22090	22091	
4	22092	22093	22094	22095	
4	22096	22097	22098	22099	
4	22100	22101	22102	22103	
4	22104	22105	22106	22107	
4	22108	22109	22110	22111	
4	22112	22113	22114	22115	
4	22116	22117	22118	22119	
4	22120	22121	22122	22123	
4	22124	22125	22126	22127	
4	22128	22129	22130	22131	
4	22132	22133	22134	22135	
4	22136	22137	22138	22139	
4	22140	22141	22142	22143	
4	22144	22145	22146	22147	
4	22148	22149	22150	22151	
4	22152	22153	22154	22155	
4	22156	22157	22158	22159	
4	22160	22161	22162	22163	
4	22164	22165	22166	22167	
4	22168	22169	22170	22171	
4	22172	22173	22174	22175	
4	22176	22177	22178	22179	
4	22180	22181	22182	22183	
4	22184	22185	22186	22187	
4	22188	22189	22190	22191	
4	22192	22193	22194	22195	
4	22196	22197	22198	22199	
4	22200	22201	22202	22203	
4	22204	22205	22206	22207	
4	22208	22209	22210	22211	
4	22212	22213	22214	22215	
4	22216	22217	22218	22219	
4	22220	22221	22222	22223	
4	22224	22225	22226	22227	
4	22228	22229	22230	22231	
4	22232	22233	22234	22235	
4	22236	22237	22238	22239	
4	22240	22241	22242	22243	
4	22244	22245	22246	22247	
4	22248	22249	22250	22251	
4	22252	22253	22254	22255	
4	22256	22257	22258	22259	
4	22260	22261	22262	22263	
4	22264	22265	22266	22267	
4	22268	22269	22270	22271	
4	22272	22273	22274	22275	
4	22276	22277	22278	22279	
4	22280	22281	22282	22283	
4	22284	22285	22286	22287	
4	22288	22289	22290	22291	
4	22292	22293	22294	22295	
4	22296	22297	22298	22299	
4	22300	22301	22302	22303	
4	22304	22305	22306	22307	
4	22308	22309	22310	22311	
4	22312	22313	22314	22315	
4	22316	22317	22318	22319	
4	22320	22321	22322	22323	
4	22324	22325	22326	22327	
4	22328	22329	22330	22331	
4	22332	22333	22334	22335	
4	22336	22337	22338	22339	
4	22340	22341	22342	22343	
4	22344	22345	22346	22347	
4	22348	22349	22350	22351	
4	22352	22353	22354	22355	
4	22356	22357	22358	22359	
4	22360	22361	22362	22363	
4	22364	22365	22366	22367	
4	22368	22369	22370	22371	
4	22372	22373	22374	22375	
4	22376	22377	22378	22379	
4	22380	22381	22382	22383	
4	22384	22385	22386	22387	
4	22388	22389	22390	22391	
4	22392	22393	22394	22395	
4	22396	22397	22398	22399	
4	22400	22401	22402	22403	
4	22404	22405	22406	22407	
4	22408	22409	22410	22411	
4	22412	22413	22414	22415	
4	22416	22417	22418	22419	
4	22420	22421	22422	22423	
4	22424	22425	22426	22427	
4	22428	22429	22430	22431	
4	22432	22433	22434	22435	
4	22436	22437	22438	22439	
4	22440	22441	22442	22443	
4	22444	22445	22446	22447	
4	22448	22449	22450	22451	
4	22452	22453	22454	22455	
4	22456	22457	22458	22459	
4	22460	22461	22462	22463	
4	22464	22465	22466	22467	
4	22468	22469	22470	22471	
4	22472	22473	22474	22475	
4	22476	22477	22478	22479	
4	22480	22481	22482	22483	
4	22484	22485	22486	22487	
4	22488	22489	22490	22491	
4	22492	22493	22494	22495	
4	22496	22497	22498	22499	
4	22500	22501	22502	22503	
4	22504	22505	22506	22507	
4	22508	22509	22510	22511	
4	22512	22513	22514	22515	
4	22516	22517	22518	22519	
4	22520	22521	22522	22523	
4	22524	22525	22526	22527	
4	22528	22529	22530	22531	
4	22532	22533	22534	22535	
4	22536	22537	22538	22539	
4	22540	22541	22542	22543	
4	22544	22545	22546	22547	
4	22548	22549	22550	22551	
4	22552	22553	22554	22555	
4	22556	22557	22558	22559	
4	22560	22561	22562	22563	
4	22564	22565	22566	22567	
4	22568	22569	22570	22571	
4	22572	22573	22574	22575	
4	22576	22577	22578	22579	
4	22580	22581	22582	22583	
4	22584	22585	22586	22587	
4	22588	22589	22590	22591	
4	22592	22593	22594	22595	
4	22596	22597	22598	22599	
4	22600	22601	22602	22603	
4	22604	22605	22606	22607	
4	22608	22609	22610	22611	
4	22612	22613	22614	22615	
4	22616	22617	22618	22619	
4	22620	22621	22622	22623	
4	22624	22625	22626	22627	
4	22628	22629	22630	22631	
4	22632	22633	22634	22635	
4	22636	22637	22638	22639	
4	22640	22641	22642	22643	
4	22644	22645	22646	22647	
4	22648	22649	22650	22651	
4	22652	22653	22654	22655	
4	22656	22657	22658	22659	
4	22660	22661	22662	22663	
4	22664	22665	22666	22667	
4	22668	22669	22670	22671	
4	22672	22673	22674	22675	
4	22676	22677	22678	22679	
4	22680	22681	22682	22683	
4	22684	22685	22686	22687	
4	22688	22689	22690	22691	
4	22692	22693	22694	22695	
4	22696	22697	22698	22699	
4	22700	22701	22702	22703	
4	22704	22705	22706	22707	
4	22708	22709	22710	22711	
4	22712	22713	22714	22715	
4	22716	22717	22718	22719	
4	22720	22721	22722	22723	
4	22724	22725	22726	22727	
4	22728	22729	22730	22731	
4	22732	22733	22734	22735	
4	22736	22737	22738	22739	
4	22740	22741	22742	22743	
4	22744	22745	22746	22747	
4	22748	22749	22750	22751	
4	22752	22753	22754	22755	
4	22756	22757	22758	22759	
4	22760	22761	22762	22763	
4	22764	22765	22766	22767	
4	22768	22769	22770	22771	
4	22772	22773	22774	22775	
4	22776	22777	22778	22779	
4	22780	22781	22782	22783	
4	22784	22785	22786	22787	
4	22788	22789	22790	22791	
4	22792	22793	22794	22795	
4	22796	22797	22798	22799	
4	22800	22801	22802	22803	
4	22804	22805	22806	22807	
4	22808	22809	22810	22811	
4	22812	22813	22814	22815	
4	22816	22817	22818	22819	
4	22820	22821	22822	22823	
4	22824	22825	22826	22827	
4	22828	22829	22830	22831	
4	22832	22833	22834	22835	
4	22836	22837	22838	22839	
4	22840	22841	22842	22843	
4	22844	22845	22846	22847	
4	22848	22849	22850	22851	
4	22852	22853	22854	22855	
4	22856	22857	22858	22859	
4	22860	22861	22862	22863	
4	22864	22865	22866	22867	
4	22868	22869	22870	22871	
4	22872	22873	22874	22875	
4	22876	22877	22878	22879	
4	22880	22881	22882	22883	
4	22884	22885	22886	22887	
4	22888	22889	22890	22891	
4	22892	22893	22894	22895	
4	22896	22897	22898	22899	
4	22900	22901	22902	22903	
4	22904	22905	22906	22907	
4	22908	22909	22910	22911	
4	22912	22913	22914	22915	
4	22916	22917	22918	22919	
4	22920	22921	22922	22923	
4	22924	22925	22926	22927	
4	22928	22929	22930	22931	
4	22932	22933	22934	22935	
4	22936	22937	22938	22939	
4	22940	22941	22942	22943	
4	22944	22945	22946	22947	
4	22948	22949	22950	22951	
4	22952	22953	22954	22955	
4	22956	22957	22958	22959	
4	22960	22961	22962	22963	
4	22964	22965	22966	22967	
4	22968	22969	22970	22971	
4	22972	22973	22974	22975	
4	22976	22977	22978	22979	
4	22980	22981	22982	22983	
4	22984	22985	22986	22987	
4	22988	22989	22990	22991	
4	22992	22993	22994	22995	
4	22996	22997	22998	22999	
4	23000	23001	23002	23003	
4	23004	23005	23006	23007	
4	23008	23009	23010	23011	
4	23012	23013	23014	23015	
4	23016	23017	23018	23019	
4	23020	23021	23022	23023	
4	23024	23025	23026	23027	
4	23028	23029	23030	23031	
4	23032	23033	23034	23035	
4	23036	23037	23038	23039	
4	23040	23041	23042	23043	
4	23044	23045	23046	23047	
4	23048	23049	23050	23051	
4	23052	23053	23054	23055	
4	23056	23057	23058	23059	
4	23060	23061	23062	23063	
4	23064	23065	23066	23067	
4	23068	23069	23070	23071	
4	23072	23073	23074	23075	
CELL_TYPES 5769
10
10
10
10
10
10
10
10
10
10
10
10
10
10
10
10
10
10
10
10
10
10
10
10
10
10
10
10
10
10
10
10
10
10
10
10
10
10
10
10
10
10
10
10
10
10
10
10
10
10
10
10
10
10
10
10
10
10
10
10
10
10
10
10
10
10
10
10
10
10
10
10
10
10
10
10
10
10
10
10
10
10
10
10
10
10
10
10
10
10
10
10
10
10
10
10
10
10
10
10
10
10
10
10
10
10
10
10
10
10
10
10
10
10
10
10
10
10
10
10
10
10
10
10
10
10
10
10
10
10
10
10
10
10
10
10
10
10
10
10
10
10
10
10
10
10
10
10
10
10
10
10
10
10
10
10
10
10
10
10
10
10
10
10
10
10
10
10
10
10
10
10
10
10
10
10
10
10
10
10
10
10
10
10
10
10
10
10
10
10
10
10
10
10
10
10
10
10
10
10
10
10
10
10
10
10
10
10
10
10
10
10
10
10
10
10
10
10
10
10
10
10
10
10
10
10
10
10
10
10
10
10
10
10
10
10
10
10
10
10
10
10
10
10
10
10
10
10
10
10
10
10
10
10
10
10
10
10
10
10
10
10
10
10
10
10
10
10
10
10
10
10
10
10
10
10
10
10
10
10
10
10
10
10
10
10
10
10
10
10
10
10
10
10
10
10
10
10
10
10
10
10
10
10
10
10
10
10
10
10
10
10
10
10
10
10
10
10
10
10
10
10
10
10
10
10
10
10
10
10
10
10
10
10
10
10
10
10
10
10
10
10
10
10
10
10
10
10
10
10
10
10
10
10
10
10
10
10
10
10
10
10
10
10
10
10
10
10
10
10
10
10
10
10
10
10
10
10
10
10
10
10
10
10
10
10
10
10
10
10
10
10
10
10
10
10
10
10
10
10
10
10
10
10
10
10
10
10
10
10
10
10
10
10
10
10
10
10
10
10
10
10
10
10
10
10
10
10
10
10
10
10
10
10
10
10
10
10
10
10
10
10
10
10
10
10
10
10
10
10
10
10
10
10
10
10
10
10
10
10
10
10
10
10
10
10
10
10
10
10
10
10
10
10
10
10
10
10
10
10
10
10
10
10
10
10
10
10
10
10
10
10
10
10
10
10
10
10
10
10
10
10
10
10
10
10
10
10
10
10
10
10
10
10
10
10
10
10
10
10
10
10
10
10
10
10
10
10
10
10
10
10
10
10
10
10
10
10
10
10
10
10
10
10
10
10
10
10
10
10
10
10
10
10
10
10
10
10
10
10
10
10
10
10
10
10
10
10
10
10
10
10
10
10
10
10
10
10
10
10
10
10
10
10
10
10
10
10
10
10
10
10
10
10
10
10
10
10
10
10
10
10
10
10
10
10
10
10
10
10
10
10
10
10
10
10
10
10
10
10
10
10
10
10
10
10
10
10
10
10
10
10
10
10
10
10
10
10
10
10
10
10
10
10
10
10
10
10
10
10
10
10
10
10
10
10
10
10
10
10
10
10
10
10
10
10
10
10
10
10
10
10
10
10
10
10
10
10
10
10
10
10
10
10
10
10
10
10
10
10
10
10
10
10
10
10
10
10
10
10
10
10
10
10
10
10
10
10
10
10
10
10
10
10
10
10
10
10
10
10
10
10
10
10
10
10
10
10
10
10
10
10
10
10
10
10
10
10
10
10
10
10
10
10
10
10
10
10
10
10
10
10
10
10
10
10
10
10
10
10
10
10
10
10
10
10
10
10
10
10
10
10
10
10
10
10
10
10
10
10
10
10
10
10
10
10
10
10
10
10
10
10
10
10
10
10
10
10
10
10
10
10
10
10
10
10
10
10
10
10
10
10
10
10
10
10
10
10
10
10
10
10
10
10
10
10
10
10
10
10
10
10
10
10
10
10
10
10
10
10
10
10
10
10
10
10
10
10
10
10
10
10
10
10
10
10
10
10
10
10
10
10
10
10
10
10
10
10
10
10
10
10
10
10
10
10
10
10
10
10
10
10
10
10
10
10
10
10
10
10
10
10
10
10
10
10
10
10
10
10
10
10
10
10
10
10
10
10
10
10
10
10
10
10
10
10
10
10
10
10
10
10
10
10
10
10
10
10
10
10
10
10
10
10
10
10
10
10
10
10
10
10
10
10
10
10
10
10
10
10
10
10
10
10
10
10
10
10
10
10
10
10
10
10
10
10
10
10
10
10
10
10
10
10
10
10
10
10
10
10
10
10
10
10
10
10
10
10
10
10
10
10
10
10
10
10
10
10
10
10
10
10
10
10
10
10
10
10
10
10
10
10
10
10
10
10
10
10
10
10
10
10
10
10
10
10
10
10
10
10
10
10
10
10
10
10
10
10
10
10
10
10
10
10
10
10
10
10
10
10
10
10
10
10
10
10
10
10
10
10
10
10
10
10
10
10
10
10
10
10
10
10
10
10
10
10
10
10
10
10
10
10
10
10
10
10
10
10
10
10
10
10
10
10
10
10
10
10
10
10
10
10
10
10
10
10
10
10
10
10
10
10
10
10
10
10
10
10
10
10
10
10
10
10
10
10
10
10
10
10
10
10
10
10
10
10
10
10
10
10
10
10
10
10
10
10
10
10
10
10
10
10
10
10
10
10
10
10
10
10
10
10
10
10
10
10
10
10
10
10
10
10
10
10
10
10
10
10
10
10
10
10
10
10
10
10
10
10
10
10
10
10
10
10
10
10
10
10
10
10
10
10
10
10
10
10
10
10
10
10
10
10
10
10
10
10
10
10
10
10
10
10
10
10
10
10
10
10
10
10
10
10
10
10
10
10
10
10
10
10
10
10
10
10
10
10
10
10
10
10
10
10
10
10
10
10
10
10
10
10
10
10
10
10
10
10
10
10
10
10
10
10
10
10
10
10
10
10
10
10
10
10
10
10
10
10
10
10
10
10
10
10
10
10
10
10
10
10
10
10
10
10
10
10
10
10
10
10
10
10
10
10
10
10
10
10
10
10
10
10
10
10
10
10
10
10
10
10
10
10
10
10
10
10
10
10
10
10
10
10
10
10
10
10
10
10
10
10
10
10
10
10
10
10
10
10
10
10
10
10
10
10
10
10
10
10
10
10
10
10
10
10
10
10
10
10
10
10
10
10
10
10
10
10
10
10
10
10
10
10
10
10
10
10
10
10
10
10
10
10
10
10
10
10
10
10
10
10
10
10
10
10
10
10
10
10
10
10
10
10
10
10
10
10
10
10
10
10
10
10
10
10
10
10
10
10
10
10
10
10
10
10
10
10
10
10
10
10
10
10
10
10
10
10
10
10
10
10
10
10
10
10
10
10
10
10
10
10
10
10
10
10
10
10
10
10
10
10
10
10
10
10
10
10
10
10
10
10
10
10
10
10
10
10
10
10
10
10
10
10
10
10
10
10
10
10
10
10
10
10
10
10
10
10
10
10
10
10
10
10
10
10
10
10
10
10
10
10
10
10
10
10
10
10
10
10
10
10
10
10
10
10
10
10
10
10
10
10
10
10
10
10
10
10
10
10
10
10
10
10
10
10
10
10
10
10
10
10
10
10
10
10
10
10
10
10
10
10
10
10
10
10
10
10
10
10
10
10
10
10
10
10
10
10
10
10
10
10
10
10
10
10
10
10
10
10
10
10
10
10
10
10
10
10
10
10
10
10
10
10
10
10
10
10
10
10
10
10
10
10
10
10
10
10
10
10
10
10
10
10
10
10
10
10
10
10
10
10
10
10
10
10
10
10
10
10
10
10
10
10
10
10
10
10
10
10
10
10
10
10
10
10
10
10
10
10
10
10
10
10
10
10
10
10
10
10
10
10
10
10
10
10
10
10
10
10
10
10
10
10
10
10
10
10
10
10
10
10
10
10
10
10
10
10
10
10
10
10
10
10
10
10
10
10
10
10
10
10
10
10
10
10
10
10
10
10
10
10
10
10
10
10
10
10
10
10
10
10
10
10
10
10
10
10
10
10
10
10
10
10
10
10
10
10
10
10
10
10
10
10
10
10
10
10
10
10
10
10
10
10
10
10
10
10
10
10
10
10
10
10
10
10
10
10
10
10
10
10
10
10
10
10
10
10
10
10
10
10
10
10
10
10
10
10
10
10
10
10
10
10
10
10
10
10
10
10
10
10
10
10
10
10
10
10
10
10
10
10
10
10
10
10
10
10
10
10
10
10
10
10
10
10
10
10
10
10
10
10
10
10
10
10
10
10
10
10
10
10
10
10
10
10
10
10
10
10
10
10
10
10
10
10
10
10
10
10
10
10
10
10
10
10
10
10
10
10
10
10
10
10
10
10
10
10
10
10
10
10
10
10
10
10
10
10
10
10
10
10
10
10
10
10
10
10
10
10
10
10
10
10
10
10
10
10
10
10
10
10
10
10
10
10
10
10
10
10
10
10
10
10
10
10
10
10
10
10
10
10
10
10
10
10
10
10
10
10
10
10
10
10
10
10
10
10
10
10
10
10
10
10
10
10
10
10
10
10
10
10
10
10
10
10
10
10
10
10
10
10
10
10
10
10
10
10
10
10
10
10
10
10
10
10
10
10
10
10
10
10
10
10
10
10
10
10
10
10
10
10
10
10
10
10
10
10
10
10
10
10
10
10
10
10
10
10
10
10
10
10
10
10
10
10
10
10
10
10
10
10
10
10
10
10
10
10
10
10
10
10
10
10
10
10
10
10
10
10
10
10
10
10
10
10
10
10
10
10
10
10
10
10
10
10
10
10
10
10
10
10
10
10
10
10
10
10
10
10
10
10
10
10
10
10
10
10
10
10
10
10
10
10
10
10
10
10
10
10
10
10
10
10
10
10
10
10
10
10
10
10
10
10
10
10
10
10
10
10
10
10
10
10
10
10
10
10
10
10
10
10
10
10
10
10
10
10
10
10
10
10
10
10
10
10
10
10
10
10
10
10
10
10
10
10
10
10
10
10
10
10
10
10
10
10
10
10
10
10
10
10
10
10
10
10
10
10
10
10
10
10
10
10
10
10
10
10
10
10
10
10
10
10
10
10
10
10
10
10
10
10
10
10
10
10
10
10
10
10
10
10
10
10
10
10
10
10
10
10
10
10
10
10
10
10
10
10
10
10
10
10
10
10
10
10
10
10
10
10
10
10
10
10
10
10
10
10
10
10
10
10
10
10
10
10
10
10
10
10
10
10
10
10
10
10
10
10
10
10
10
10
10
10
10
10
10
10
10
10
10
10
10
10
10
10
10
10
10
10
10
10
10
10
10
10
10
10
10
10
10
10
10
10
10
10
10
10
10
10
10
10
10
10
10
10
10
10
10
10
10
10
10
10
10
10
10
10
10
10
10
10
10
10
10
10
10
10
10
10
10
10
10
10
10
10
10
10
10
10
10
10
10
10
10
10
10
10
10
10
10
10
10
10
10
10
10
10
10
10
10
10
10
10
10
10
10
10
10
10
10
10
10
10
10
10
10
10
10
10
10
10
10
10
10
10
10
10
10
10
10
10
10
10
10
10
10
10
10
10
10
10
10
10
10
10
10
10
10
10
10
10
10
10
10
10
10
10
10
10
10
10
10
10
10
10
10
10
10
10
10
10
10
10
10
10
10
10
10
10
10
10
10
10
10
10
10
10
10
10
10
10
10
10
10
10
10
10
10
10
10
10
10
10
10
10
10
10
10
10
10
10
10
10
10
10
10
10
10
10
10
10
10
10
10
10
10
10
10
10
10
10
10
10
10
10
10
10
10
10
10
10
10
10
10
10
10
10
10
10
10
10
10
10
10
10
10
10
10
10
10
10
10
10
10
10
10
10
10
10
10
10
10
10
10
10
10
10
10
10
10
10
10
10
10
10
10
10
10
10
10
10
10
10
10
10
10
10
10
10
10
10
10
10
10
10
10
10
10
10
10
10
10
10
10
10
10
10
10
10
10
10
10
10
10
10
10
10
10
10
10
10
10
10
10
10
10
10
10
10
10
10
10
10
10
10
10
10
10
10
10
10
10
10
10
10
10
10
10
10
10
10
10
10
10
10
10
10
10
10
10
10
10
10
10
10
10
10
10
10
10
10
10
10
10
10
10
10
10
10
10
10
10
10
10
10
10
10
10
10
10
10
10
10
10
10
10
10
10
10
10
10
10
10
10
10
10
10
10
10
10
10
10
10
10
10
10
10
10
10
10
10
10
10
10
10
10
10
10
10
10
10
10
10
10
10
10
10
10
10
10
10
10
10
10
10
10
10
10
10
10
10
10
10
10
10
10
10
10
10
10
10
10
10
10
10
10
10
10
10
10
10
10
10
10
10
10
10
10
10
10
10
10
10
10
10
10
10
10
10
10
10
10
10
10
10
10
10
10
10
10
10
10
10
10
10
10
10
10
10
10
10
10
10
10
10
10
10
10
10
10
10
10
10
10
10
10
10
10
10
10
10
10
10
10
10
10
10
10
10
10
10
10
10
10
10
10
10
10
10
10
10
10
10
10
10
10
10
10
10
10
10
10
10
10
10
10
10
10
10
10
10
10
10
10
10
10
10
10
10
10
10
10
10
10
10
10
10
10
10
10
10
10
10
10
10
10
10
10
10
10
10
10
10
10
10
10
10
10
10
10
10
10
10
10
10
10
10
10
10
10
10
10
10
10
10
10
10
10
10
10
10
10
10
10
10
10
10
10
10
10
10
10
10
10
10
10
10
10
10
10
10
10
10
10
10
10
10
10
10
10
10
10
10
10
10
10
10
10
10
10
10
10
10
10
10
10
10
10
10
10
10
10
10
10
10
10
10
10
10
10
10
10
10
10
10
10
10
10
10
10
10
10
10
10
10
10
10
10
10
10
10
10
10
10
10
10
10
10
10
10
10
10
10
10
10
10
10
10
10
10
10
10
10
10
10
10
10
10
10
10
10
10
10
10
10
10
10
10
10
10
10
10
10
10
10
10
10
10
10
10
10
10
10
10
10
10
10
10
10
10
10
10
10
10
10
10
10
10
10
10
10
10
10
10
10
10
10
10
10
10
10
10
10
10
10
10
10
10
10
10
10
10
10
10
10
10
10
10
10
10
10
10
10
10
10
10
10
10
10
10
10
10
10
10
10
10
10
10
10
10
10
10
10
10
10
10
10
10
10
10
10
10
10
10
10
10
10
10
10
10
10
10
10
10
10
10
10
10
10
10
10
10
10
10
10
10
10
10
10
10
10
10
10
10
10
10
10
10
10
10
10
10
10
10
10
10
10
10
10
10
10
10
10
10
10
10
10
10
10
10
10
10
10
10
10
10
10
10
10
10
10
10
10
10
10
10
10
10
10
10
10
10
10
10
10
10
10
10
10
10
10
10
10
10
10
10
10
10
10
10
10
10
10
10
10
10
10
10
10
10
10
10
10
10
10
10
10
10
10
10
10
10
10
10
10
10
10
10
10
10
10
10
10
10
10
10
10
10
10
10
10
10
10
10
10
10
10
10
10
10
10
10
10
10
10
10
10
10
10
10
10
10
10
10
10
10
10
10
10
10
10
10
10
10
10
10
10
10
10
10
10
10
10
10
10
10
10
10
10
10
10
10
10
10
10
10
10
10
10
10
10
10
10
10
10
10
10
10
10
10
10
10
10
10
10
10
10
10
10
10
10
10
10
10
10
10
10
10
10
10
10
10
10
10
10
10
10
10
10
10
10
10
10
10
10
10
10
10
10
10
10
10
10
10
10
10
10
10
10
10
10
10
10
10
10
10
10
10
10
10
10
10
10
10
10
10
10
10
10
10
10
10
10
10
10
10
10
10
10
10
10
10
10
10
10
10
10
10
10
10
10
10
10
10
10
10
10
10
10
10
10
10
10
10
10
10
10
10
10
10
10
10
10
10
10
10
10
10
10
10
10
10
10
10
10
10
10
10
10
10
10
10
10
10
10
10
10
10
10
10
10
10
10
10
10
10
10
10
10
10
10
10
10
10
10
10
10
10
10
10
10
10
10
10
10
10
10
10
10
10
10
10
10
10
10
10
10
10
10
10
10
10
10
10
10
10
10
10
10
10
10
10
10
10
10
10
10
10
10
10
10
10
10
10
10
10
10
10
10
10
10
10
10
10
10
10
10
10
10
10
10
10
10
10
10
10
10
10
10
10
10
10
10
10
10
10
10
10
10
10
10
10
10
10
10
10
10
10
10
10
10
10
10
10
10
10
10
10
10
10
10
10
10
10
10
10
10
10
10
10
10
10
10
10
10
10
10
10
10
10
10
10
10
10
10
10
10
10
10
10
10
10
10
10
10
10
10
10
10
10
10
10
10
10
10
10
10
10
10
10
10
10
10
10
10
10
10
10
10
10
10
10
10
10
10
10
10
10
10
10
10
10
10
10
10
10
10
10
10
10
10
10
10
10
10
10
10
10
10
10
10
10
10
10
10
10
10
10
10
10
10
10
10
10
10
10
10
10
10
10
10
10
10
10
10
10
10
10
10
10
10
10
10
10
10
10
10
10
10
10
10
10
10
10
10
10
10
10
10
10
10
10
10
10
10
10
10
10
10
10
10
10
10
10
10
10
10
10
10
10
10
10
10
10
10
10
10
10
10
10
10
10
10
10
10
10
10
10
10
10
10
10
10
10
10
10
10
10
10
10
10
10
10
10
10
10
10
10
10
10
10
10
10
10
10
10
10
10
10
10
10
10
10
10
10
10
10
10
10
10
10
10
10
10
10
10
10
10
10
10
10
10
10
10
10
10
10
10
10
10
10
10
10
10
10
10
10
10
10
10
10
10
10
10
10
10
10
10
10
10
10
10
10
10
10
10
10
10
10
10
10
10
10
10
10
10
10
10
10
10
10
10
10
10
10
10
10
10
10
10
10
10
10
10
10
10
10
10
10
10
10
10
10
10
10
10
10
10
10
10
10
10
10
10
10
10
10
10
10
10
10
10
10
10
10
10
10
10
10
10
10
10
10
10
10
10
10
10
10
10
10
10
10
10
10
10
10
10
10
10
10
10
10
10
10
10
10
10
10
10
10
10
10
10
10
10
10
10
10
10
10
10
10
10
10
10
10
10
10
10
10
10
10
10
10
10
10
10
10
10
10
10
10
10
10
10
10
10
10
10
10
10
10
10
10
10
10
10
10
10
10
10
10
10
10
10
10
10
10
10
10
10
10
10
10
10
10
10
10
10
10
10
10
10
10
10
10
10
10
10
10
10
10
10
10
10
10
10
10
10
10
10
10
10
10
10
10
10
10
10
10
10
10
10
10
10
10
10
10
10
10
10
10
10
10
10
10
10
10
10
10
10
10
10
10
10
10
10
10
10
10
10
10
10
10
10
10
10
10
10
10
10
10
10
10
10
10
10
10
10
10
10
10
10
10
10
10
10
10
10
10
10
10
10
10
10
10
10
10
10
10
10
10
10
10
10
10
10
10
10
10
10
10
10
10
10
10
10
10
10
10
10
10
10
10
10
10
10
10
10
10
10
10
10
10
10
10
10
10
10
10
10
10
10
10
10
10
10
10
10
10
10
10
10
10
10
10
10
10
10
10
10
10
10
10
10
10
10
10
10
10
10
10
10
10
10
10
10
10
10
10
10
10
10
10
10
10
10
10
10
10
10
10
10
10
10
10
10
10
10
10
10
10
10
10
10
10
10
10
10
10
10
10
10
10
10
10
10
10
10
10
10
10
10
10
10
10
10
10
10
10
10
10
10
10
10
10
10
10
10
10
10
10
10
10
10
10
10
10
10
10
10
10
10
10
10
10
10
10
10
10
10
10
10
10
10
10
10
10
10
10
10
10
10
10
10
10
10
10
10
10
10
10
10
10
10
10
10
10
10
10
10
10
10
10
10
10
10
10
10
10
10
10
10
10
10
10
10
10
10
10
10
10
10
10
10
10
10
10
10
10
10
10
10
10
10
10
10
10
10
10
10
10
10
10
10
10
10
10
10
10
10
10
10
10
10
10
10
10
10
10
10
10
10
10
10
10
10
10
10
10
10
10
10
10
10
10
10
10
10
10
10
10
10
10
10
10
10
10
10
10
10
10
10
10
10
10
10
10
10
10
10
10
10
10
10
10
10
10
10
10
10
10
10
10
10
10
10
10
10
10
10
10
10
10
10
10
10
10
10
10
10
10
10
10
10
10
10
10
10
10
10
10
10
10
10
10
10
10
10
10
10
10
10
10
10
10
10
10
10
10
10
10
10
10
10
10
10
10
10
10
10
10
10
10
10
10
10
10
10
10
10
10
10
10
10
10
10
10
10
10
10
10
10
10
10
10
10
10
10
10
10
10
10
10
10
10
10
10
10
10
10
10
10
10
10
10
10
10
10
10
10
10
10
10
10
10
10
10
10
10
10
10
10
10
10
10
10
10
10
10
10
10
10
10
10
10
10
10
10
10
10
10
10
10
10
10
10
10
10
10
10
10
10
10
10
10
10
10
10
10
10
10
10
10
10
10
10
10
10
10
10
10
10
10
10
10
10
10
10
10
10
10
10
10
10
10
10
10
10
10
10
10
10
10
10
10
10
10
10
10
10
10
10
10
10
10
10
10
10
10
10
10
10
10
10
10
10
10
10
10
10
10
10
10
10
10
10
10
10
10
10
10
10
10
10
10
10
10
10
10
10
10
10
10
10
10
10
10
10
10
10
10
10
10
10
10
10
10
10
10
10
10
10
10
10
10
10
10
10
10
10
10
10
10
10
10
10
10
10
10
10
10
10
10
10
10
10
10
10
10
10
10
10
10
10
10
10
10
10
10
10
10
10
10
10
10
10
10
10
10
10
10
10
10
10
10
10
10
10
10
10
10
10
10
10
10
10
10
10
10
10
10
10
10
10
10
10
10
10
10
10
10
10
10
10
10
10
10
10
10
10
10
10
10
10
10
10
10
10
10
10
10
10
10
10
10
10
10
10
10
10
10
10
10
10
10
10
10
10
10
10
10
10
10
10
10
10
10
10
10
10
10
10
10
10
10
10
10
10
10
10
10
10
10
10
10
10
10
10
10
10
10
10
10
10
10
10
10
10
10
10
10
10
10
10
10
10
10
10
10
10
10
10
10
10
10
10
10
10
10
10
10
10
10
10
10
10
10
10
10
10
10
10
10
10
10
10
10
10
10
10
10
10
10
10
10
10
10
10
10
10
10
10
10
10
10
10
10
10
10
10
10
10
10
10
10
10
10
10
10
10
10
10
10
10
10
10
10
10
10
10
10
10
10
10
10
10
10
10
10
10
10
10
10
10
10
10
10
10
10
10
10
10
10
10
10
10
10
10
10
10
10
10
10
10
10
10
10
10
10
10
10
10
10
10
10
10
10
10
10
10
10
10
10
10
10
10
10
10
10
10
10
10
10
10
10
10
10
10
10
10
10
10
10
10
10
10
10
10
10
10
10
10
10
10
10
10
10
10
10
10
10
10
10
10
10
10
10
10
10
10
10
10
10
10
10
10
10
10
10
10
10
10
10
10
10
10
10
10
10
10
10
10
10
10
10
10
10
10
10
10
10
10
10
10
10
10
10
10
10
10
10
10
10
10
10
10
10
10
10
10
10
10
10
10
10
10
10
10
10
10
10
10
10
10
10
10
10
10
10
10
10
10
10
10
10
10
10
10
10
10
10
10
10
10
10
10
10
10
10
10
10
10
10
10
10
10
10
10
10
10
10
10
10
10
10
10
10
10
10
10
10
10
10
10
10
10
10
10
10
10
10
10
10
10
10
10
10
10
10
10
10
10
10
10
10
10
10
10
10
10
10
10
10
10
10
10
10
10
10
10
10
10
10
10
10
10
10
10
10
10
10
10
10
10
10
10
10
10
10
10
10
10
10
10
10
10
10
10
10
10
10
10
10
10
10
10
10
10
10
10
10
10
10
10
10
10
10
10
10
10
10
10
10
10
10
10
10
10
10
10
10
10
10
10
10
10
10
10
10
10
10
10
10
10
10
10
10
10
10
10
10
10
10
10
10
10
10
10
10
10
10
10
10
10
10
10
10
10
10
10
10
10
10
10
10
10
10
10
10
10
10
10
10
10
10
10
10
10
10
10
10
10
10
10
10
10
10
10
10
10
10
10
10
10
10
10
10
10
10
10
10
10
10
10
10
10
10
10
10
10
10
10
10
10
10
10
10
10
10
10
10
10
10
10
10
10
10
10
10
10
10
10
10
10
10
10
10
10
10
10
10
10
10
10
10
10
10
10
10
10
10
10
10
10
10
10
10
10
10
10
10
10
10
10
10
10
10
10
10
10
10
10
10
10
10
10
10
10
10
10
10
10
10
10
10
10
10
10
10
10
10
10
10
10
10
10
10
10
10
10
10
10
10
10
10
10
10
10
10
10
10
10
10
10
10
10
10
10
10
10
10
10
10
10
10
10
10
10
10
10
10
10
10
10
10
10
10
10
10
10
10
10
10
10
10
10
10
10
10
10
10
10
10
10
10
10
10
10
10
10
10
10
10
10
10
10
10
10
10
10
10
10
10
10
10
10
10
10
10
10
10
10
10
10
10
10
10
10
10
10
10
10
10
10
10
10
10
10
10
10
10
10
10
10
10
10
10
10
10
10
10
10
10
10
10
10
10
10
10
10
10
10
10
10
10
10
10
10
10
10
10
10
10
10
10
10
10
10
10
10
10
10
10
10
10
10
10
10
10
10
10
10
10
10
10
10
10
10
10
10
10
10
10
10
10
10
10
10
10
10
10
10
10
10
10
10
10
10
10
10
10
10
10
10
10
10
10
10
10
10
10
10
10
10
10
10
10
10
10
10
10
10
10
10
10
10
10
10
10
10
10
10
10
10
10
10
10
10
10
10
10
10
10
10
10
10
10
10
10
10
10
10
10
10
10
10
10
10
10
10
10
10
10
10
10
10
10
10
10
10
10
10
10
10
10
10
10
10
10
10
10
10
10
10
10
10
10
10
10
10
10
10
10
10
10
10
10
10
10
10
10
10
10
10
10
10
10
10
10
10
10
10
10
10
10
10
10
10
10
10
10
10
10
10
10
10
10
10
10
10
10
10
10
10
10
10
10
10
10
10
10
10
10
10
10
10
10
10
10
10
CELL_DATA 5769
POINT_DATA 23076
SCALARS Pressure float 
LOOKUP_TABLE default
9.92868 9.92868 9.92868 9.92868 10.1609 10.1609 10.1609 10.1609 10.2749 10.2749 10.2749 10.2749 10.0744 10.0744 10.0744 10.0744 9.98942 9.98942 9.98942 9.98942 9.94515 9.94515 9.94515 9.94515 10.174 10.174 10.174 10.174 9.93116 9.93116 9.93116 9.93116 9.9316 9.9316 9.9316 9.9316 10.4077 10.4077 10.4077 10.4077 9.91951 9.91951 9.91951 9.91951 10.2168 10.2168 10.2168 10.2168 9.92557 9.92557 9.92557 9.92557 10.4592 10.4592 10.4592 10.4592 9.93544 9.93544 9.93544 9.93544 9.92933 9.92933 9.92933 9.92933 9.86535 9.86535 9.86535 9.86535 9.92425 9.92425 9.92425 9.92425 9.93476 9.93476 9.93476 9.93476 9.92838 9.92838 9.92838 9.92838 9.94081 9.94081 9.94081 9.94081 9.94256 9.94256 9.94256 9.94256 9.88205 9.88205 9.88205 9.88205 9.99085 9.99085 9.99085 9.99085 9.95255 9.95255 9.95255 9.95255 10.0457 10.0457 10.0457 10.0457 9.94011 9.94011 9.94011 9.94011 9.97909 9.97909 9.97909 9.97909 10.0187 10.0187 10.0187 10.0187 9.97081 9.97081 9.97081 9.97081 9.98157 9.98157 9.98157 9.98157 9.97777 9.97777 9.97777 9.97777 10.0217 10.0217 10.0217 10.0217 10.2701 10.2701 10.2701 10.2701 9.96151 9.96151 9.96151 9.96151 10.0067 10.0067 10.0067 10.0067 9.97998 9.97998 9.97998 9.97998 10.0998 10.0998 10.0998 10.0998 9.97092 9.97092 9.97092 9.97092 10.0062 10.0062 10.0062 10.0062 10.2006 10.2006 10.2006 10.2006 9.94623 9.94623 9.94623 9.94623 9.89798 9.89798 9.89798 9.89798 10.1794 10.1794 10.1794 10.1794 10.1742 10.1742 10.1742 10.1742 9.92912 9.92912 9.92912 9.92912 9.97792 9.97792 9.97792 9.97792 9.97134 9.97134 9.97134 9.97134 9.84945 9.84945 9.84945 9.84945 10.0037 10.0037 10.0037 10.0037 9.96797 9.96797 9.96797 9.96797 10.0599 10.0599 10.0599 10.0599 9.92371 9.92371 9.92371 9.92371 10.3303 10.3303 10.3303 10.3303 9.96403 9.96403 9.96403 9.96403 9.94405 9.94405 9.94405 9.94405 9.93122 9.93122 9.93122 9.93122 10.168 10.168 10.168 10.168 9.9602 9.9602 9.9602 9.9602 9.90903 9.90903 9.90903 9.90903 9.93539 9.93539 9.93539 9.93539 9.9523 9.9523 9.9523 9.9523 9.97649 9.97649 9.97649 9.97649 10.0801 10.0801 10.0801 10.0801 9.9624 9.9624 9.9624 9.9624 9.96765 9.96765 9.96765 9.96765 9.93459 9.93459 9.93459 9.93459 9.95794 9.95794 9.95794 9.95794 9.9423 9.9423 9.9423 9.9423 9.92493 9.92493 9.92493 9.92493 9.97247 9.97247 9.97247 9.97247 9.9525 9.9525 9.9525 9.9525 9.96057 9.96057 9.96057 9.96057 9.91577 9.91577 9.91577 9.91577 9.91779 9.91779 9.91779 9.91779 9.98825 9.98825 9.98825 9.98825 9.94002 9.94002 9.94002 9.94002 9.78958 9.78958 9.78958 9.78958 10.2511 10.2511 10.2511 10.2511 9.99782 9.99782 9.99782 9.99782 9.97493 9.97493 9.97493 9.97493 10.1829 10.1829 10.1829 10.1829 9.93921 9.93921 9.93921 9.93921 9.91697 9.91697 9.91697 9.91697 9.93563 9.93563 9.93563 9.93563 9.93368 9.93368 9.93368 9.93368 10.1756 10.1756 10.1756 10.1756 10.0152 10.0152 10.0152 10.0152 9.96325 9.96325 9.96325 9.96325 9.94805 9.94805 9.94805 9.94805 9.96701 9.96701 9.96701 9.96701 9.94128 9.94128 9.94128 9.94128 10.5128 10.5128 10.5128 10.5128 10.1698 10.1698 10.1698 10.1698 9.96249 9.96249 9.96249 9.96249 9.93747 9.93747 9.93747 9.93747 9.85926 9.85926 9.85926 9.85926 9.88574 9.88574 9.88574 9.88574 9.94101 9.94101 9.94101 9.94101 9.94909 9.94909 9.94909 9.94909 9.86378 9.86378 9.86378 9.86378 10.0116 10.0116 10.0116 10.0116 10.1469 10.1469 10.1469 10.1469 9.97793 9.97793 9.97793 9.97793 9.94357 9.94357 9.94357 9.94357 10.132 10.132 10.132 10.132 9.96616 9.96616 9.96616 9.96616 9.92873 9.92873 9.92873 9.92873 9.93553 9.93553 9.93553 9.93553 9.92086 9.92086 9.92086 9.92086 9.97596 9.97596 9.97596 9.97596 9.92827 9.92827 9.92827 9.92827 9.9435 9.9435 9.9435 9.9435 9.97391 9.97391 9.97391 9.97391 10.2718 10.2718 10.2718 10.2718 9.96018 9.96018 9.96018 9.96018 9.92133 9.92133 9.92133 9.92133 10.145 10.145 10.145 10.145 9.94098 9.94098 9.94098 9.94098 9.9361 9.9361 9.9361 9.9361 9.92327 9.92327 9.92327 9.92327 9.91884 9.91884 9.91884 9.91884 9.96354 9.96354 9.96354 9.96354 9.94048 9.94048 9.94048 9.94048 9.90687 9.90687 9.90687 9.90687 9.9562 9.9562 9.9562 9.9562 9.93351 9.93351 9.93351 9.93351 9.90658 9.90658 9.90658 9.90658 9.94989 9.94989 9.94989 9.94989 9.91186 9.91186 9.91186 9.91186 9.94081 9.94081 9.94081 9.94081 9.97378 9.97378 9.97378 9.97378 9.90868 9.90868 9.90868 9.90868 10.1691 10.1691 10.1691 10.1691 9.94127 9.94127 9.94127 9.94127 9.92374 9.92374 9.92374 9.92374 9.9772 9.9772 9.9772 9.9772 9.93891 9.93891 9.93891 9.93891 9.91511 9.91511 9.91511 9.91511 9.92126 9.92126 9.92126 9.92126 10.4498 10.4498 10.4498 10.4498 10.0078 10.0078 10.0078 10.0078 9.89804 9.89804 9.89804 9.89804 9.96843 9.96843 9.96843 9.96843 9.91309 9.91309 9.91309 9.91309 9.91803 9.91803 9.91803 9.91803 9.8771 9.8771 9.8771 9.8771 9.80552 9.80552 9.80552 9.80552 9.94252 9.94252 9.94252 9.94252 9.91417 9.91417 9.91417 9.91417 9.95002 9.95002 9.95002 9.95002 9.94776 9.94776 9.94776 9.94776 9.92227 9.92227 9.92227 9.92227 9.9788 9.9788 9.9788 9.9788 9.92698 9.92698 9.92698 9.92698 10.0248 10.0248 10.0248 10.0248 9.52516 9.52516 9.52516 9.52516 9.8955 9.8955 9.8955 9.8955 9.90714 9.90714 9.90714 9.90714 9.91577 9.91577 9.91577 9.91577 10.1185 10.1185 10.1185 10.1185 9.9481 9.9481 9.9481 9.9481 9.97115 9.97115 9.97115 9.97115 10.0986 10.0986 10.0986 10.0986 10.0485 10.0485 10.0485 10.0485 9.89912 9.89912 9.89912 9.89912 9.91585 9.91585 9.91585 9.91585 9.97347 9.97347 9.97347 9.97347 10.0736 10.0736 10.0736 10.0736 9.8973 9.8973 9.8973 9.8973 9.91535 9.91535 9.91535 9.91535 9.98025 9.98025 9.98025 9.98025 10.0225 10.0225 10.0225 10.0225 9.87281 9.87281 9.87281 9.87281 9.99063 9.99063 9.99063 9.99063 9.99152 9.99152 9.99152 9.99152 10.1023 10.1023 10.1023 10.1023 9.93093 9.93093 9.93093 9.93093 9.87366 9.87366 9.87366 9.87366 9.94378 9.94378 9.94378 9.94378 9.92111 9.92111 9.92111 9.92111 9.96467 9.96467 9.96467 9.96467 9.92366 9.92366 9.92366 9.92366 9.94803 9.94803 9.94803 9.94803 9.85654 9.85654 9.85654 9.85654 9.95508 9.95508 9.95508 9.95508 9.93768 9.93768 9.93768 9.93768 10.1908 10.1908 10.1908 10.1908 9.88723 9.88723 9.88723 9.88723 9.95938 9.95938 9.95938 9.95938 9.94424 9.94424 9.94424 9.94424 9.96977 9.96977 9.96977 9.96977 9.96166 9.96166 9.96166 9.96166 9.71143 9.71143 9.71143 9.71143 7.72419 7.72419 7.72419 7.72419 9.96668 9.96668 9.96668 9.96668 9.96918 9.96918 9.96918 9.96918 9.94976 9.94976 9.94976 9.94976 10.474 10.474 10.474 10.474 9.93518 9.93518 9.93518 9.93518 9.94047 9.94047 9.94047 9.94047 9.92453 9.92453 9.92453 9.92453 10.1197 10.1197 10.1197 10.1197 9.97191 9.97191 9.97191 9.97191 9.9571 9.9571 9.9571 9.9571 10.125 10.125 10.125 10.125 10.1088 10.1088 10.1088 10.1088 9.93234 9.93234 9.93234 9.93234 9.96211 9.96211 9.96211 9.96211 9.9524 9.9524 9.9524 9.9524 10.1381 10.1381 10.1381 10.1381 9.93377 9.93377 9.93377 9.93377 9.96932 9.96932 9.96932 9.96932 9.87023 9.87023 9.87023 9.87023 9.96044 9.96044 9.96044 9.96044 9.91141 9.91141 9.91141 9.91141 9.94739 9.94739 9.94739 9.94739 9.6899 9.6899 9.6899 9.6899 9.96039 9.96039 9.96039 9.96039 9.93509 9.93509 9.93509 9.93509 9.98457 9.98457 9.98457 9.98457 9.97549 9.97549 9.97549 9.97549 9.93985 9.93985 9.93985 9.93985 9.96721 9.96721 9.96721 9.96721 9.84589 9.84589 9.84589 9.84589 9.92533 9.92533 9.92533 9.92533 10.1229 10.1229 10.1229 10.1229 10.076 10.076 10.076 10.076 9.97673 9.97673 9.97673 9.97673 9.92915 9.92915 9.92915 9.92915 9.98543 9.98543 9.98543 9.98543 10.1055 10.1055 10.1055 10.1055 9.98354 9.98354 9.98354 9.98354 9.88495 9.88495 9.88495 9.88495 9.95643 9.95643 9.95643 9.95643 9.97506 9.97506 9.97506 9.97506 10.3044 10.3044 10.3044 10.3044 9.96361 9.96361 9.96361 9.96361 9.9023 9.9023 9.9023 9.9023 9.95906 9.95906 9.95906 9.95906 10.0565 10.0565 10.0565 10.0565 10.0499 10.0499 10.0499 10.0499 9.94099 9.94099 9.94099 9.94099 9.97451 9.97451 9.97451 9.97451 9.9319 9.9319 9.9319 9.9319 9.97896 9.97896 9.97896 9.97896 9.9387 9.9387 9.9387 9.9387 9.94111 9.94111 9.94111 9.94111 9.88567 9.88567 9.88567 9.88567 10.0124 10.0124 10.0124 10.0124 9.9696 9.9696 9.9696 9.9696 9.92127 9.92127 9.92127 9.92127 9.93761 9.93761 9.93761 9.93761 9.94842 9.94842 9.94842 9.94842 9.92041 9.92041 9.92041 9.92041 10.3569 10.3569 10.3569 10.3569 10.1077 10.1077 10.1077 10.1077 9.94797 9.94797 9.94797 9.94797 9.90795 9.90795 9.90795 9.90795 9.92295 9.92295 9.92295 9.92295 9.92667 9.92667 9.92667 9.92667 9.96731 9.96731 9.96731 9.96731 10.1641 10.1641 10.1641 10.1641 9.98255 9.98255 9.98255 9.98255 9.8864 9.8864 9.8864 9.8864 9.95385 9.95385 9.95385 9.95385 9.93176 9.93176 9.93176 9.93176 9.85709 9.85709 9.85709 9.85709 9.93825 9.93825 9.93825 9.93825 9.89039 9.89039 9.89039 9.89039 10.3324 10.3324 10.3324 10.3324 10.4294 10.4294 10.4294 10.4294 9.93988 9.93988 9.93988 9.93988 9.7554 9.7554 9.7554 9.7554 9.94996 9.94996 9.94996 9.94996 9.97835 9.97835 9.97835 9.97835 9.90531 9.90531 9.90531 9.90531 10.0498 10.0498 10.0498 10.0498 9.98075 9.98075 9.98075 9.98075 9.86661 9.86661 9.86661 9.86661 9.9414 9.9414 9.9414 9.9414 9.98549 9.98549 9.98549 9.98549 9.94493 9.94493 9.94493 9.94493 9.97686 9.97686 9.97686 9.97686 9.93755 9.93755 9.93755 9.93755 9.89035 9.89035 9.89035 9.89035 9.75281 9.75281 9.75281 9.75281 9.89878 9.89878 9.89878 9.89878 9.90253 9.90253 9.90253 9.90253 9.90388 9.90388 9.90388 9.90388 9.93078 9.93078 9.93078 9.93078 9.9788 9.9788 9.9788 9.9788 9.90939 9.90939 9.90939 9.90939 10.0487 10.0487 10.0487 10.0487 9.99089 9.99089 9.99089 9.99089 9.9034 9.9034 9.9034 9.9034 9.93547 9.93547 9.93547 9.93547 9.99298 9.99298 9.99298 9.99298 9.83523 9.83523 9.83523 9.83523 9.44897 9.44897 9.44897 9.44897 9.95884 9.95884 9.95884 9.95884 9.85619 9.85619 9.85619 9.85619 9.95976 9.95976 9.95976 9.95976 9.89213 9.89213 9.89213 9.89213 9.73321 9.73321 9.73321 9.73321 9.96623 9.96623 9.96623 9.96623 9.9796 9.9796 9.9796 9.9796 9.79862 9.79862 9.79862 9.79862 9.94756 9.94756 9.94756 9.94756 9.28694 9.28694 9.28694 9.28694 9.98992 9.98992 9.98992 9.98992 9.91553 9.91553 9.91553 9.91553 9.94149 9.94149 9.94149 9.94149 9.91703 9.91703 9.91703 9.91703 9.9707 9.9707 9.9707 9.9707 9.2505 9.2505 9.2505 9.2505 10.1219 10.1219 10.1219 10.1219 10.1737 10.1737 10.1737 10.1737 9.93173 9.93173 9.93173 9.93173 9.96706 9.96706 9.96706 9.96706 9.94757 9.94757 9.94757 9.94757 10.0308 10.0308 10.0308 10.0308 9.82882 9.82882 9.82882 9.82882 9.95243 9.95243 9.95243 9.95243 10.126 10.126 10.126 10.126 9.92104 9.92104 9.92104 9.92104 9.99193 9.99193 9.99193 9.99193 9.95484 9.95484 9.95484 9.95484 9.94143 9.94143 9.94143 9.94143 9.84764 9.84764 9.84764 9.84764 9.96521 9.96521 9.96521 9.96521 9.96572 9.96572 9.96572 9.96572 9.96199 9.96199 9.96199 9.96199 9.93781 9.93781 9.93781 9.93781 9.97216 9.97216 9.97216 9.97216 9.92547 9.92547 9.92547 9.92547 9.93624 9.93624 9.93624 9.93624 9.91639 9.91639 9.91639 9.91639 8.00214 8.00214 8.00214 8.00214 9.93143 9.93143 9.93143 9.93143 9.88524 9.88524 9.88524 9.88524 9.96586 9.96586 9.96586 9.96586 9.94167 9.94167 9.94167 9.94167 9.93326 9.93326 9.93326 9.93326 9.93022 9.93022 9.93022 9.93022 9.89741 9.89741 9.89741 9.89741 9.9511 9.9511 9.9511 9.9511 9.87693 9.87693 9.87693 9.87693 9.96085 9.96085 9.96085 9.96085 9.89418 9.89418 9.89418 9.89418 9.90952 9.90952 9.90952 9.90952 9.94825 9.94825 9.94825 9.94825 9.92214 9.92214 9.92214 9.92214 10.0437 10.0437 10.0437 10.0437 9.97601 9.97601 9.97601 9.97601 9.57382 9.57382 9.57382 9.57382 9.95296 9.95296 9.95296 9.95296 9.81183 9.81183 9.81183 9.81183 9.90528 9.90528 9.90528 9.90528 9.91574 9.91574 9.91574 9.91574 10.1631 10.1631 10.1631 10.1631 10.0822 10.0822 10.0822 10.0822 9.83218 9.83218 9.83218 9.83218 9.92951 9.92951 9.92951 9.92951 9.93019 9.93019 9.93019 9.93019 5.88484 5.88484 5.88484 5.88484 10.0266 10.0266 10.0266 10.0266 10.0752 10.0752 10.0752 10.0752 9.96074 9.96074 9.96074 9.96074 9.91969 9.91969 9.91969 9.91969 9.93642 9.93642 9.93642 9.93642 9.9473 9.9473 9.9473 9.9473 9.95885 9.95885 9.95885 9.95885 9.96241 9.96241 9.96241 9.96241 9.93416 9.93416 9.93416 9.93416 9.9437 9.9437 9.9437 9.9437 9.96957 9.96957 9.96957 9.96957 9.87477 9.87477 9.87477 9.87477 9.86871 9.86871 9.86871 9.86871 9.97737 9.97737 9.97737 9.97737 9.91581 9.91581 9.91581 9.91581 10.0293 10.0293 10.0293 10.0293 9.94356 9.94356 9.94356 9.94356 9.56819 9.56819 9.56819 9.56819 9.8265 9.8265 9.8265 9.8265 9.97149 9.97149 9.97149 9.97149 9.98669 9.98669 9.98669 9.98669 9.13739 9.13739 9.13739 9.13739 9.89651 9.89651 9.89651 9.89651 10.2468 10.2468 10.2468 10.2468 9.89144 9.89144 9.89144 9.89144 10.1881 10.1881 10.1881 10.1881 9.93919 9.93919 9.93919 9.93919 9.95684 9.95684 9.95684 9.95684 10.2578 10.2578 10.2578 10.2578 9.89861 9.89861 9.89861 9.89861 9.95975 9.95975 9.95975 9.95975 9.96485 9.96485 9.96485 9.96485 10.0733 10.0733 10.0733 10.0733 9.90941 9.90941 9.90941 9.90941 9.949 9.949 9.949 9.949 9.97299 9.97299 9.97299 9.97299 9.93493 9.93493 9.93493 9.93493 10.0234 10.0234 10.0234 10.0234 9.92547 9.92547 9.92547 9.92547 9.95567 9.95567 9.95567 9.95567 9.87925 9.87925 9.87925 9.87925 9.93613 9.93613 9.93613 9.93613 9.53069 9.53069 9.53069 9.53069 10.5377 10.5377 10.5377 10.5377 9.56993 9.56993 9.56993 9.56993 9.9617 9.9617 9.9617 9.9617 9.93608 9.93608 9.93608 9.93608 9.98263 9.98263 9.98263 9.98263 9.96978 9.96978 9.96978 9.96978 9.98154 9.98154 9.98154 9.98154 10.0945 10.0945 10.0945 10.0945 9.93982 9.93982 9.93982 9.93982 9.97308 9.97308 9.97308 9.97308 10.1269 10.1269 10.1269 10.1269 9.96176 9.96176 9.96176 9.96176 9.98996 9.98996 9.98996 9.98996 9.93104 9.93104 9.93104 9.93104 9.9486 9.9486 9.9486 9.9486 9.98023 9.98023 9.98023 9.98023 10.3294 10.3294 10.3294 10.3294 9.95554 9.95554 9.95554 9.95554 9.91126 9.91126 9.91126 9.91126 9.97285 9.97285 9.97285 9.97285 9.80177 9.80177 9.80177 9.80177 9.81337 9.81337 9.81337 9.81337 9.98315 9.98315 9.98315 9.98315 9.98421 9.98421 9.98421 9.98421 9.87355 9.87355 9.87355 9.87355 9.98453 9.98453 9.98453 9.98453 9.78802 9.78802 9.78802 9.78802 9.8359 9.8359 9.8359 9.8359 10.1541 10.1541 10.1541 10.1541 9.8833 9.8833 9.8833 9.8833 9.84518 9.84518 9.84518 9.84518 9.91696 9.91696 9.91696 9.91696 9.97836 9.97836 9.97836 9.97836 9.93539 9.93539 9.93539 9.93539 10.1153 10.1153 10.1153 10.1153 9.94163 9.94163 9.94163 9.94163 10.6758 10.6758 10.6758 10.6758 10.6257 10.6257 10.6257 10.6257 9.07343 9.07343 9.07343 9.07343 9.92727 9.92727 9.92727 9.92727 9.98308 9.98308 9.98308 9.98308 10.0774 10.0774 10.0774 10.0774 9.42673 9.42673 9.42673 9.42673 10.4341 10.4341 10.4341 10.4341 10.0875 10.0875 10.0875 10.0875 10.1851 10.1851 10.1851 10.1851 9.85301 9.85301 9.85301 9.85301 9.97773 9.97773 9.97773 9.97773 9.95977 9.95977 9.95977 9.95977 9.8841 9.8841 9.8841 9.8841 9.87254 9.87254 9.87254 9.87254 9.93289 9.93289 9.93289 9.93289 9.9413 9.9413 9.9413 9.9413 9.96277 9.96277 9.96277 9.96277 10.0423 10.0423 10.0423 10.0423 9.94545 9.94545 9.94545 9.94545 9.91643 9.91643 9.91643 9.91643 9.85409 9.85409 9.85409 9.85409 10.1354 10.1354 10.1354 10.1354 9.82398 9.82398 9.82398 9.82398 9.91539 9.91539 9.91539 9.91539 9.90952 9.90952 9.90952 9.90952 9.96465 9.96465 9.96465 9.96465 7.74168 7.74168 7.74168 7.74168 9.92622 9.92622 9.92622 9.92622 9.9595 9.9595 9.9595 9.9595 10.3563 10.3563 10.3563 10.3563 9.99021 9.99021 9.99021 9.99021 8.83 8.83 8.83 8.83 9.89114 9.89114 9.89114 9.89114 9.83812 9.83812 9.83812 9.83812 9.92494 9.92494 9.92494 9.92494 9.92197 9.92197 9.92197 9.92197 9.93445 9.93445 9.93445 9.93445 9.70648 9.70648 9.70648 9.70648 10.0062 10.0062 10.0062 10.0062 9.92441 9.92441 9.92441 9.92441 9.94358 9.94358 9.94358 9.94358 9.96387 9.96387 9.96387 9.96387 9.85966 9.85966 9.85966 9.85966 10.1252 10.1252 10.1252 10.1252 10.1863 10.1863 10.1863 10.1863 9.98505 9.98505 9.98505 9.98505 9.93274 9.93274 9.93274 9.93274 9.84432 9.84432 9.84432 9.84432 9.99206 9.99206 9.99206 9.99206 9.93462 9.93462 9.93462 9.93462 9.87765 9.87765 9.87765 9.87765 9.94161 9.94161 9.94161 9.94161 9.95096 9.95096 9.95096 9.95096 9.83851 9.83851 9.83851 9.83851 9.88746 9.88746 9.88746 9.88746 9.93221 9.93221 9.93221 9.93221 9.99402 9.99402 9.99402 9.99402 9.98332 9.98332 9.98332 9.98332 9.93055 9.93055 9.93055 9.93055 9.97271 9.97271 9.97271 9.97271 9.94755 9.94755 9.94755 9.94755 9.98151 9.98151 9.98151 9.98151 10.1373 10.1373 10.1373 10.1373 9.96234 9.96234 9.96234 9.96234 11.4576 11.4576 11.4576 11.4576 10.1244 10.1244 10.1244 10.1244 10.014 10.014 10.014 10.014 9.91484 9.91484 9.91484 9.91484 11.0081 11.0081 11.0081 11.0081 9.95022 9.95022 9.95022 9.95022 9.87656 9.87656 9.87656 9.87656 9.95901 9.95901 9.95901 9.95901 9.9195 9.9195 9.9195 9.9195 9.97809 9.97809 9.97809 9.97809 9.93231 9.93231 9.93231 9.93231 9.93107 9.93107 9.93107 9.93107 9.68787 9.68787 9.68787 9.68787 10.0941 10.0941 10.0941 10.0941 9.92227 9.92227 9.92227 9.92227 9.93914 9.93914 9.93914 9.93914 9.91839 9.91839 9.91839 9.91839 9.96474 9.96474 9.96474 9.96474 9.96392 9.96392 9.96392 9.96392 9.68949 9.68949 9.68949 9.68949 9.97561 9.97561 9.97561 9.97561 9.91128 9.91128 9.91128 9.91128 10.037 10.037 10.037 10.037 9.93439 9.93439 9.93439 9.93439 9.95282 9.95282 9.95282 9.95282 10.1251 10.1251 10.1251 10.1251 10.0503 10.0503 10.0503 10.0503 10.5649 10.5649 10.5649 10.5649 9.87621 9.87621 9.87621 9.87621 10.3349 10.3349 10.3349 10.3349 9.94198 9.94198 9.94198 9.94198 9.95799 9.95799 9.95799 9.95799 9.9473 9.9473 9.9473 9.9473 9.98579 9.98579 9.98579 9.98579 9.91816 9.91816 9.91816 9.91816 9.91327 9.91327 9.91327 9.91327 9.96095 9.96095 9.96095 9.96095 10.2286 10.2286 10.2286 10.2286 9.96038 9.96038 9.96038 9.96038 9.93806 9.93806 9.93806 9.93806 10.0899 10.0899 10.0899 10.0899 9.94831 9.94831 9.94831 9.94831 10.3125 10.3125 10.3125 10.3125 9.94821 9.94821 9.94821 9.94821 9.95873 9.95873 9.95873 9.95873 9.96094 9.96094 9.96094 9.96094 9.93928 9.93928 9.93928 9.93928 9.97235 9.97235 9.97235 9.97235 9.9599 9.9599 9.9599 9.9599 9.92318 9.92318 9.92318 9.92318 9.96277 9.96277 9.96277 9.96277 10.206 10.206 10.206 10.206 9.99568 9.99568 9.99568 9.99568 9.7958 9.7958 9.7958 9.7958 9.91077 9.91077 9.91077 9.91077 9.95463 9.95463 9.95463 9.95463 9.95428 9.95428 9.95428 9.95428 9.88213 9.88213 9.88213 9.88213 9.93154 9.93154 9.93154 9.93154 9.87012 9.87012 9.87012 9.87012 9.91741 9.91741 9.91741 9.91741 10.2533 10.2533 10.2533 10.2533 9.94852 9.94852 9.94852 9.94852 10.0259 10.0259 10.0259 10.0259 9.94035 9.94035 9.94035 9.94035 10.1711 10.1711 10.1711 10.1711 9.93952 9.93952 9.93952 9.93952 10.0205 10.0205 10.0205 10.0205 9.97853 9.97853 9.97853 9.97853 9.91024 9.91024 9.91024 9.91024 10.5081 10.5081 10.5081 10.5081 9.88922 9.88922 9.88922 9.88922 9.88541 9.88541 9.88541 9.88541 9.9661 9.9661 9.9661 9.9661 9.9752 9.9752 9.9752 9.9752 9.66062 9.66062 9.66062 9.66062 9.95953 9.95953 9.95953 9.95953 9.97378 9.97378 9.97378 9.97378 9.92961 9.92961 9.92961 9.92961 10.1126 10.1126 10.1126 10.1126 9.87861 9.87861 9.87861 9.87861 9.91609 9.91609 9.91609 9.91609 10.2021 10.2021 10.2021 10.2021 10.2277 10.2277 10.2277 10.2277 9.88256 9.88256 9.88256 9.88256 9.94487 9.94487 9.94487 9.94487 9.55531 9.55531 9.55531 9.55531 9.92063 9.92063 9.92063 9.92063 9.94963 9.94963 9.94963 9.94963 9.97596 9.97596 9.97596 9.97596 9.84246 9.84246 9.84246 9.84246 10.0103 10.0103 10.0103 10.0103 9.98323 9.98323 9.98323 9.98323 9.92362 9.92362 9.92362 9.92362 9.89749 9.89749 9.89749 9.89749 9.92306 9.92306 9.92306 9.92306 9.9706 9.9706 9.9706 9.9706 9.94848 9.94848 9.94848 9.94848 10.1367 10.1367 10.1367 10.1367 9.8989 9.8989 9.8989 9.8989 9.91529 9.91529 9.91529 9.91529 9.96649 9.96649 9.96649 9.96649 9.90811 9.90811 9.90811 9.90811 9.97311 9.97311 9.97311 9.97311 9.92774 9.92774 9.92774 9.92774 9.94413 9.94413 9.94413 9.94413 9.90349 9.90349 9.90349 9.90349 9.67536 9.67536 9.67536 9.67536 9.9387 9.9387 9.9387 9.9387 10.0861 10.0861 10.0861 10.0861 9.97276 9.97276 9.97276 9.97276 9.90715 9.90715 9.90715 9.90715 9.95607 9.95607 9.95607 9.95607 9.97247 9.97247 9.97247 9.97247 9.86652 9.86652 9.86652 9.86652 10.1319 10.1319 10.1319 10.1319 9.94573 9.94573 9.94573 9.94573 9.91339 9.91339 9.91339 9.91339 10.1614 10.1614 10.1614 10.1614 9.90675 9.90675 9.90675 9.90675 10.1508 10.1508 10.1508 10.1508 7.99651 7.99651 7.99651 7.99651 9.92776 9.92776 9.92776 9.92776 9.97217 9.97217 9.97217 9.97217 9.70303 9.70303 9.70303 9.70303 10.0843 10.0843 10.0843 10.0843 9.93409 9.93409 9.93409 9.93409 9.89943 9.89943 9.89943 9.89943 9.92174 9.92174 9.92174 9.92174 9.91193 9.91193 9.91193 9.91193 10.6278 10.6278 10.6278 10.6278 10.0315 10.0315 10.0315 10.0315 9.88615 9.88615 9.88615 9.88615 9.95838 9.95838 9.95838 9.95838 10.3974 10.3974 10.3974 10.3974 9.9624 9.9624 9.9624 9.9624 9.93178 9.93178 9.93178 9.93178 9.92024 9.92024 9.92024 9.92024 9.92568 9.92568 9.92568 9.92568 10.0288 10.0288 10.0288 10.0288 9.94968 9.94968 9.94968 9.94968 9.33825 9.33825 9.33825 9.33825 10.147 10.147 10.147 10.147 10.0537 10.0537 10.0537 10.0537 10.5247 10.5247 10.5247 10.5247 10.008 10.008 10.008 10.008 9.7724 9.7724 9.7724 9.7724 9.83798 9.83798 9.83798 9.83798 10.025 10.025 10.025 10.025 9.97441 9.97441 9.97441 9.97441 9.92015 9.92015 9.92015 9.92015 9.90878 9.90878 9.90878 9.90878 9.94551 9.94551 9.94551 9.94551 10.1255 10.1255 10.1255 10.1255 9.8973 9.8973 9.8973 9.8973 9.70879 9.70879 9.70879 9.70879 10.1225 10.1225 10.1225 10.1225 9.65983 9.65983 9.65983 9.65983 9.82212 9.82212 9.82212 9.82212 10.1031 10.1031 10.1031 10.1031 10.0046 10.0046 10.0046 10.0046 9.97821 9.97821 9.97821 9.97821 10.164 10.164 10.164 10.164 9.93048 9.93048 9.93048 9.93048 9.70412 9.70412 9.70412 9.70412 9.73858 9.73858 9.73858 9.73858 9.92095 9.92095 9.92095 9.92095 10.0509 10.0509 10.0509 10.0509 9.96193 9.96193 9.96193 9.96193 9.9926 9.9926 9.9926 9.9926 9.91889 9.91889 9.91889 9.91889 9.98325 9.98325 9.98325 9.98325 9.95365 9.95365 9.95365 9.95365 9.88415 9.88415 9.88415 9.88415 9.99493 9.99493 9.99493 9.99493 9.98021 9.98021 9.98021 9.98021 9.9568 9.9568 9.9568 9.9568 10.8306 10.8306 10.8306 10.8306 9.97735 9.97735 9.97735 9.97735 9.88586 9.88586 9.88586 9.88586 9.96642 9.96642 9.96642 9.96642 9.68631 9.68631 9.68631 9.68631 9.99384 9.99384 9.99384 9.99384 9.87694 9.87694 9.87694 9.87694 10.3831 10.3831 10.3831 10.3831 10.2495 10.2495 10.2495 10.2495 9.88637 9.88637 9.88637 9.88637 9.9216 9.9216 9.9216 9.9216 10.2593 10.2593 10.2593 10.2593 9.97848 9.97848 9.97848 9.97848 9.93206 9.93206 9.93206 9.93206 10.0505 10.0505 10.0505 10.0505 10.1927 10.1927 10.1927 10.1927 9.92399 9.92399 9.92399 9.92399 9.95212 9.95212 9.95212 9.95212 9.99432 9.99432 9.99432 9.99432 10.1068 10.1068 10.1068 10.1068 10.1719 10.1719 10.1719 10.1719 10.0781 10.0781 10.0781 10.0781 9.89274 9.89274 9.89274 9.89274 9.96688 9.96688 9.96688 9.96688 10.2989 10.2989 10.2989 10.2989 9.97926 9.97926 9.97926 9.97926 9.86289 9.86289 9.86289 9.86289 9.94469 9.94469 9.94469 9.94469 9.9746 9.9746 9.9746 9.9746 10.1403 10.1403 10.1403 10.1403 9.92338 9.92338 9.92338 9.92338 9.97343 9.97343 9.97343 9.97343 9.92234 9.92234 9.92234 9.92234 9.96187 9.96187 9.96187 9.96187 9.97035 9.97035 9.97035 9.97035 10.0275 10.0275 10.0275 10.0275 9.95441 9.95441 9.95441 9.95441 10.1072 10.1072 10.1072 10.1072 9.88378 9.88378 9.88378 9.88378 9.896 9.896 9.896 9.896 9.96986 9.96986 9.96986 9.96986 9.89161 9.89161 9.89161 9.89161 9.8522 9.8522 9.8522 9.8522 9.95957 9.95957 9.95957 9.95957 9.92051 9.92051 9.92051 9.92051 10.0805 10.0805 10.0805 10.0805 9.93068 9.93068 9.93068 9.93068 11.2131 11.2131 11.2131 11.2131 9.97968 9.97968 9.97968 9.97968 9.9349 9.9349 9.9349 9.9349 10.1229 10.1229 10.1229 10.1229 9.92827 9.92827 9.92827 9.92827 9.88973 9.88973 9.88973 9.88973 9.97093 9.97093 9.97093 9.97093 9.93656 9.93656 9.93656 9.93656 9.31962 9.31962 9.31962 9.31962 10.3037 10.3037 10.3037 10.3037 10.1337 10.1337 10.1337 10.1337 10.4051 10.4051 10.4051 10.4051 9.96778 9.96778 9.96778 9.96778 10.0269 10.0269 10.0269 10.0269 9.8549 9.8549 9.8549 9.8549 10.1582 10.1582 10.1582 10.1582 9.97096 9.97096 9.97096 9.97096 10.0529 10.0529 10.0529 10.0529 9.98281 9.98281 9.98281 9.98281 9.9246 9.9246 9.9246 9.9246 10.0713 10.0713 10.0713 10.0713 9.90875 9.90875 9.90875 9.90875 10.0693 10.0693 10.0693 10.0693 10.0942 10.0942 10.0942 10.0942 9.88743 9.88743 9.88743 9.88743 10.6955 10.6955 10.6955 10.6955 9.9521 9.9521 9.9521 9.9521 10.0918 10.0918 10.0918 10.0918 10.7674 10.7674 10.7674 10.7674 9.94587 9.94587 9.94587 9.94587 9.9561 9.9561 9.9561 9.9561 9.5113 9.5113 9.5113 9.5113 9.96244 9.96244 9.96244 9.96244 9.97427 9.97427 9.97427 9.97427 9.89926 9.89926 9.89926 9.89926 10.0126 10.0126 10.0126 10.0126 9.92119 9.92119 9.92119 9.92119 9.91245 9.91245 9.91245 9.91245 9.9258 9.9258 9.9258 9.9258 10.2398 10.2398 10.2398 10.2398 9.91392 9.91392 9.91392 9.91392 8.94676 8.94676 8.94676 8.94676 9.94051 9.94051 9.94051 9.94051 9.87156 9.87156 9.87156 9.87156 9.94088 9.94088 9.94088 9.94088 9.79213 9.79213 9.79213 9.79213 10.2093 10.2093 10.2093 10.2093 9.36036 9.36036 9.36036 9.36036 10.2924 10.2924 10.2924 10.2924 9.99167 9.99167 9.99167 9.99167 9.96307 9.96307 9.96307 9.96307 9.97124 9.97124 9.97124 9.97124 9.96391 9.96391 9.96391 9.96391 10.0315 10.0315 10.0315 10.0315 10.0007 10.0007 10.0007 10.0007 9.97533 9.97533 9.97533 9.97533 9.96913 9.96913 9.96913 9.96913 9.9207 9.9207 9.9207 9.9207 9.89576 9.89576 9.89576 9.89576 9.97281 9.97281 9.97281 9.97281 9.97621 9.97621 9.97621 9.97621 9.91788 9.91788 9.91788 9.91788 9.97497 9.97497 9.97497 9.97497 9.93497 9.93497 9.93497 9.93497 9.97934 9.97934 9.97934 9.97934 9.90351 9.90351 9.90351 9.90351 9.98381 9.98381 9.98381 9.98381 10.0503 10.0503 10.0503 10.0503 9.83534 9.83534 9.83534 9.83534 9.8711 9.8711 9.8711 9.8711 9.97082 9.97082 9.97082 9.97082 9.97315 9.97315 9.97315 9.97315 9.95458 9.95458 9.95458 9.95458 10.5081 10.5081 10.5081 10.5081 9.95912 9.95912 9.95912 9.95912 9.92236 9.92236 9.92236 9.92236 9.92772 9.92772 9.92772 9.92772 9.91501 9.91501 9.91501 9.91501 9.88257 9.88257 9.88257 9.88257 9.93938 9.93938 9.93938 9.93938 9.91432 9.91432 9.91432 9.91432 9.91171 9.91171 9.91171 9.91171 9.97725 9.97725 9.97725 9.97725 9.93812 9.93812 9.93812 9.93812 9.9427 9.9427 9.9427 9.9427 9.66514 9.66514 9.66514 9.66514 9.99316 9.99316 9.99316 9.99316 10.3866 10.3866 10.3866 10.3866 9.92235 9.92235 9.92235 9.92235 9.91299 9.91299 9.91299 9.91299 9.97548 9.97548 9.97548 9.97548 9.93891 9.93891 9.93891 9.93891 9.85347 9.85347 9.85347 9.85347 10.1393 10.1393 10.1393 10.1393 10.1991 10.1991 10.1991 10.1991 9.86312 9.86312 9.86312 9.86312 10.313 10.313 10.313 10.313 9.96501 9.96501 9.96501 9.96501 9.89685 9.89685 9.89685 9.89685 9.92789 9.92789 9.92789 9.92789 9.90702 9.90702 9.90702 9.90702 9.97122 9.97122 9.97122 9.97122 9.87929 9.87929 9.87929 9.87929 7.12482 7.12482 7.12482 7.12482 9.89903 9.89903 9.89903 9.89903 9.9482 9.9482 9.9482 9.9482 9.92442 9.92442 9.92442 9.92442 9.94214 9.94214 9.94214 9.94214 9.98228 9.98228 9.98228 9.98228 9.95934 9.95934 9.95934 9.95934 10.0305 10.0305 10.0305 10.0305 9.80572 9.80572 9.80572 9.80572 9.94977 9.94977 9.94977 9.94977 10.021 10.021 10.021 10.021 9.91441 9.91441 9.91441 9.91441 9.94048 9.94048 9.94048 9.94048 8.65356 8.65356 8.65356 8.65356 9.94062 9.94062 9.94062 9.94062 9.94769 9.94769 9.94769 9.94769 10.5979 10.5979 10.5979 10.5979 9.9621 9.9621 9.9621 9.9621 9.99707 9.99707 9.99707 9.99707 10.1718 10.1718 10.1718 10.1718 9.93963 9.93963 9.93963 9.93963 9.99284 9.99284 9.99284 9.99284 9.88468 9.88468 9.88468 9.88468 9.84114 9.84114 9.84114 9.84114 9.9383 9.9383 9.9383 9.9383 9.93199 9.93199 9.93199 9.93199 9.92103 9.92103 9.92103 9.92103 9.81305 9.81305 9.81305 9.81305 9.90523 9.90523 9.90523 9.90523 9.98428 9.98428 9.98428 9.98428 10.1978 10.1978 10.1978 10.1978 9.8039 9.8039 9.8039 9.8039 9.92025 9.92025 9.92025 9.92025 10.3319 10.3319 10.3319 10.3319 10.1036 10.1036 10.1036 10.1036 9.88251 9.88251 9.88251 9.88251 9.9317 9.9317 9.9317 9.9317 9.95727 9.95727 9.95727 9.95727 9.91129 9.91129 9.91129 9.91129 9.61166 9.61166 9.61166 9.61166 9.60239 9.60239 9.60239 9.60239 9.95004 9.95004 9.95004 9.95004 9.86308 9.86308 9.86308 9.86308 9.91354 9.91354 9.91354 9.91354 9.92838 9.92838 9.92838 9.92838 9.88428 9.88428 9.88428 9.88428 9.99279 9.99279 9.99279 9.99279 10.7007 10.7007 10.7007 10.7007 9.985 9.985 9.985 9.985 9.94603 9.94603 9.94603 9.94603 10.3397 10.3397 10.3397 10.3397 9.97806 9.97806 9.97806 9.97806 9.9866 9.9866 9.9866 9.9866 10.1817 10.1817 10.1817 10.1817 9.9271 9.9271 9.9271 9.9271 9.99269 9.99269 9.99269 9.99269 10.1577 10.1577 10.1577 10.1577 9.98294 9.98294 9.98294 9.98294 9.91409 9.91409 9.91409 9.91409 9.936 9.936 9.936 9.936 10.0794 10.0794 10.0794 10.0794 9.94259 9.94259 9.94259 9.94259 9.92988 9.92988 9.92988 9.92988 10.0122 10.0122 10.0122 10.0122 10.138 10.138 10.138 10.138 9.9605 9.9605 9.9605 9.9605 9.90523 9.90523 9.90523 9.90523 10.4894 10.4894 10.4894 10.4894 10.5806 10.5806 10.5806 10.5806 9.89799 9.89799 9.89799 9.89799 9.92905 9.92905 9.92905 9.92905 9.8916 9.8916 9.8916 9.8916 9.89953 9.89953 9.89953 9.89953 10.0883 10.0883 10.0883 10.0883 10.3848 10.3848 10.3848 10.3848 9.90171 9.90171 9.90171 9.90171 9.92586 9.92586 9.92586 9.92586 9.93132 9.93132 9.93132 9.93132 9.89903 9.89903 9.89903 9.89903 9.95682 9.95682 9.95682 9.95682 10.002 10.002 10.002 10.002 9.96689 9.96689 9.96689 9.96689 9.85581 9.85581 9.85581 9.85581 9.98273 9.98273 9.98273 9.98273 9.94366 9.94366 9.94366 9.94366 9.96341 9.96341 9.96341 9.96341 9.95205 9.95205 9.95205 9.95205 9.94166 9.94166 9.94166 9.94166 9.96622 9.96622 9.96622 9.96622 9.93864 9.93864 9.93864 9.93864 9.9943 9.9943 9.9943 9.9943 9.96313 9.96313 9.96313 9.96313 9.88255 9.88255 9.88255 9.88255 9.98175 9.98175 9.98175 9.98175 10.5464 10.5464 10.5464 10.5464 10.2012 10.2012 10.2012 10.2012 9.94103 9.94103 9.94103 9.94103 9.95505 9.95505 9.95505 9.95505 10.6544 10.6544 10.6544 10.6544 9.97918 9.97918 9.97918 9.97918 9.99176 9.99176 9.99176 9.99176 9.89128 9.89128 9.89128 9.89128 9.9571 9.9571 9.9571 9.9571 10.2619 10.2619 10.2619 10.2619 9.88776 9.88776 9.88776 9.88776 9.98182 9.98182 9.98182 9.98182 9.87416 9.87416 9.87416 9.87416 9.9353 9.9353 9.9353 9.9353 9.78913 9.78913 9.78913 9.78913 10.4747 10.4747 10.4747 10.4747 9.93318 9.93318 9.93318 9.93318 9.94185 9.94185 9.94185 9.94185 9.93907 9.93907 9.93907 9.93907 9.89853 9.89853 9.89853 9.89853 9.91125 9.91125 9.91125 9.91125 9.90899 9.90899 9.90899 9.90899 9.76484 9.76484 9.76484 9.76484 9.92495 9.92495 9.92495 9.92495 9.87917 9.87917 9.87917 9.87917 10.196 10.196 10.196 10.196 9.92322 9.92322 9.92322 9.92322 9.96722 9.96722 9.96722 9.96722 9.92072 9.92072 9.92072 9.92072 9.93677 9.93677 9.93677 9.93677 9.9285 9.9285 9.9285 9.9285 9.92387 9.92387 9.92387 9.92387 10.3052 10.3052 10.3052 10.3052 9.94085 9.94085 9.94085 9.94085 10.0524 10.0524 10.0524 10.0524 9.81297 9.81297 9.81297 9.81297 9.97922 9.97922 9.97922 9.97922 10.2396 10.2396 10.2396 10.2396 9.87361 9.87361 9.87361 9.87361 9.90167 9.90167 9.90167 9.90167 9.97232 9.97232 9.97232 9.97232 9.98156 9.98156 9.98156 9.98156 10.3495 10.3495 10.3495 10.3495 9.98172 9.98172 9.98172 9.98172 9.91539 9.91539 9.91539 9.91539 9.90179 9.90179 9.90179 9.90179 9.94053 9.94053 9.94053 9.94053 9.95922 9.95922 9.95922 9.95922 9.87116 9.87116 9.87116 9.87116 9.52451 9.52451 9.52451 9.52451 9.83919 9.83919 9.83919 9.83919 9.70273 9.70273 9.70273 9.70273 9.98481 9.98481 9.98481 9.98481 9.99228 9.99228 9.99228 9.99228 9.96463 9.96463 9.96463 9.96463 10.0347 10.0347 10.0347 10.0347 9.9214 9.9214 9.9214 9.9214 9.96992 9.96992 9.96992 9.96992 9.90802 9.90802 9.90802 9.90802 9.90744 9.90744 9.90744 9.90744 9.92338 9.92338 9.92338 9.92338 9.91468 9.91468 9.91468 9.91468 9.90588 9.90588 9.90588 9.90588 9.92833 9.92833 9.92833 9.92833 9.95907 9.95907 9.95907 9.95907 6.13327 6.13327 6.13327 6.13327 9.87632 9.87632 9.87632 9.87632 9.84558 9.84558 9.84558 9.84558 9.93393 9.93393 9.93393 9.93393 9.95495 9.95495 9.95495 9.95495 10.0214 10.0214 10.0214 10.0214 10.195 10.195 10.195 10.195 9.93826 9.93826 9.93826 9.93826 9.98764 9.98764 9.98764 9.98764 9.96216 9.96216 9.96216 9.96216 9.98261 9.98261 9.98261 9.98261 9.91294 9.91294 9.91294 9.91294 9.95693 9.95693 9.95693 9.95693 9.9445 9.9445 9.9445 9.9445 10.0084 10.0084 10.0084 10.0084 10.3128 10.3128 10.3128 10.3128 9.91482 9.91482 9.91482 9.91482 9.84988 9.84988 9.84988 9.84988 9.97122 9.97122 9.97122 9.97122 9.9971 9.9971 9.9971 9.9971 9.98622 9.98622 9.98622 9.98622 9.96042 9.96042 9.96042 9.96042 9.90689 9.90689 9.90689 9.90689 9.96912 9.96912 9.96912 9.96912 9.98112 9.98112 9.98112 9.98112 9.97987 9.97987 9.97987 9.97987 9.91947 9.91947 9.91947 9.91947 9.9818 9.9818 9.9818 9.9818 9.95898 9.95898 9.95898 9.95898 9.91751 9.91751 9.91751 9.91751 4.82401 4.82401 4.82401 4.82401 9.9826 9.9826 9.9826 9.9826 10.2737 10.2737 10.2737 10.2737 10.1481 10.1481 10.1481 10.1481 9.93253 9.93253 9.93253 9.93253 9.93345 9.93345 9.93345 9.93345 9.61996 9.61996 9.61996 9.61996 9.90866 9.90866 9.90866 9.90866 10.0515 10.0515 10.0515 10.0515 9.90294 9.90294 9.90294 9.90294 9.92629 9.92629 9.92629 9.92629 10.5474 10.5474 10.5474 10.5474 9.98397 9.98397 9.98397 9.98397 9.79241 9.79241 9.79241 9.79241 9.97229 9.97229 9.97229 9.97229 9.86094 9.86094 9.86094 9.86094 9.90758 9.90758 9.90758 9.90758 10.0189 10.0189 10.0189 10.0189 9.92694 9.92694 9.92694 9.92694 9.85171 9.85171 9.85171 9.85171 9.98582 9.98582 9.98582 9.98582 9.99962 9.99962 9.99962 9.99962 9.97938 9.97938 9.97938 9.97938 9.91314 9.91314 9.91314 9.91314 9.99171 9.99171 9.99171 9.99171 9.8605 9.8605 9.8605 9.8605 10.0046 10.0046 10.0046 10.0046 9.91129 9.91129 9.91129 9.91129 4.93791 4.93791 4.93791 4.93791 9.9253 9.9253 9.9253 9.9253 9.85628 9.85628 9.85628 9.85628 10.1227 10.1227 10.1227 10.1227 9.95461 9.95461 9.95461 9.95461 10.4332 10.4332 10.4332 10.4332 9.99265 9.99265 9.99265 9.99265 9.87377 9.87377 9.87377 9.87377 9.91415 9.91415 9.91415 9.91415 9.94372 9.94372 9.94372 9.94372 9.94215 9.94215 9.94215 9.94215 9.92589 9.92589 9.92589 9.92589 9.98429 9.98429 9.98429 9.98429 10.1301 10.1301 10.1301 10.1301 9.90551 9.90551 9.90551 9.90551 9.91579 9.91579 9.91579 9.91579 9.91274 9.91274 9.91274 9.91274 9.91973 9.91973 9.91973 9.91973 10.041 10.041 10.041 10.041 9.93431 9.93431 9.93431 9.93431 9.97674 9.97674 9.97674 9.97674 9.90709 9.90709 9.90709 9.90709 9.95886 9.95886 9.95886 9.95886 9.95755 9.95755 9.95755 9.95755 9.95954 9.95954 9.95954 9.95954 9.99201 9.99201 9.99201 9.99201 9.99216 9.99216 9.99216 9.99216 9.91471 9.91471 9.91471 9.91471 10.0455 10.0455 10.0455 10.0455 10.0919 10.0919 10.0919 10.0919 9.88942 9.88942 9.88942 9.88942 9.94726 9.94726 9.94726 9.94726 9.95115 9.95115 9.95115 9.95115 9.94786 9.94786 9.94786 9.94786 9.84931 9.84931 9.84931 9.84931 9.94233 9.94233 9.94233 9.94233 9.93689 9.93689 9.93689 9.93689 9.93438 9.93438 9.93438 9.93438 9.79857 9.79857 9.79857 9.79857 9.88747 9.88747 9.88747 9.88747 9.97002 9.97002 9.97002 9.97002 9.94748 9.94748 9.94748 9.94748 9.9742 9.9742 9.9742 9.9742 9.88862 9.88862 9.88862 9.88862 9.99329 9.99329 9.99329 9.99329 10.0245 10.0245 10.0245 10.0245 9.97581 9.97581 9.97581 9.97581 9.93546 9.93546 9.93546 9.93546 9.92234 9.92234 9.92234 9.92234 10.0188 10.0188 10.0188 10.0188 9.8921 9.8921 9.8921 9.8921 9.92898 9.92898 9.92898 9.92898 10.4623 10.4623 10.4623 10.4623 9.87495 9.87495 9.87495 9.87495 9.91242 9.91242 9.91242 9.91242 9.98201 9.98201 9.98201 9.98201 9.94296 9.94296 9.94296 9.94296 9.82293 9.82293 9.82293 9.82293 10.1344 10.1344 10.1344 10.1344 9.98761 9.98761 9.98761 9.98761 9.98332 9.98332 9.98332 9.98332 9.98076 9.98076 9.98076 9.98076 9.8835 9.8835 9.8835 9.8835 10.0041 10.0041 10.0041 10.0041 10.0482 10.0482 10.0482 10.0482 9.98941 9.98941 9.98941 9.98941 9.88707 9.88707 9.88707 9.88707 10.2678 10.2678 10.2678 10.2678 9.84655 9.84655 9.84655 9.84655 9.93252 9.93252 9.93252 9.93252 9.96053 9.96053 9.96053 9.96053 9.93487 9.93487 9.93487 9.93487 9.95675 9.95675 9.95675 9.95675 10.0537 10.0537 10.0537 10.0537 10.5947 10.5947 10.5947 10.5947 9.91885 9.91885 9.91885 9.91885 9.93491 9.93491 9.93491 9.93491 9.81166 9.81166 9.81166 9.81166 9.98372 9.98372 9.98372 9.98372 9.945 9.945 9.945 9.945 10.0212 10.0212 10.0212 10.0212 9.99261 9.99261 9.99261 9.99261 10.028 10.028 10.028 10.028 4.38622 4.38622 4.38622 4.38622 9.88063 9.88063 9.88063 9.88063 9.94445 9.94445 9.94445 9.94445 11.2327 11.2327 11.2327 11.2327 9.91981 9.91981 9.91981 9.91981 11.2255 11.2255 11.2255 11.2255 9.92799 9.92799 9.92799 9.92799 9.94539 9.94539 9.94539 9.94539 9.94792 9.94792 9.94792 9.94792 9.92482 9.92482 9.92482 9.92482 9.95864 9.95864 9.95864 9.95864 9.92419 9.92419 9.92419 9.92419 9.88885 9.88885 9.88885 9.88885 9.9548 9.9548 9.9548 9.9548 9.90603 9.90603 9.90603 9.90603 9.70373 9.70373 9.70373 9.70373 9.99111 9.99111 9.99111 9.99111 9.94468 9.94468 9.94468 9.94468 9.87459 9.87459 9.87459 9.87459 9.93301 9.93301 9.93301 9.93301 9.87499 9.87499 9.87499 9.87499 9.8465 9.8465 9.8465 9.8465 9.94599 9.94599 9.94599 9.94599 9.93779 9.93779 9.93779 9.93779 9.88426 9.88426 9.88426 9.88426 9.9757 9.9757 9.9757 9.9757 10.0693 10.0693 10.0693 10.0693 9.91955 9.91955 9.91955 9.91955 9.94901 9.94901 9.94901 9.94901 9.9756 9.9756 9.9756 9.9756 9.98573 9.98573 9.98573 9.98573 9.81889 9.81889 9.81889 9.81889 9.96749 9.96749 9.96749 9.96749 9.95301 9.95301 9.95301 9.95301 10.0015 10.0015 10.0015 10.0015 9.96069 9.96069 9.96069 9.96069 9.96194 9.96194 9.96194 9.96194 10.0293 10.0293 10.0293 10.0293 9.89924 9.89924 9.89924 9.89924 10.242 10.242 10.242 10.242 9.91361 9.91361 9.91361 9.91361 9.97323 9.97323 9.97323 9.97323 10.1357 10.1357 10.1357 10.1357 9.9507 9.9507 9.9507 9.9507 10.3382 10.3382 10.3382 10.3382 10.1068 10.1068 10.1068 10.1068 9.67116 9.67116 9.67116 9.67116 9.90227 9.90227 9.90227 9.90227 10.1237 10.1237 10.1237 10.1237 10.3313 10.3313 10.3313 10.3313 9.89784 9.89784 9.89784 9.89784 9.96516 9.96516 9.96516 9.96516 9.99226 9.99226 9.99226 9.99226 9.95386 9.95386 9.95386 9.95386 9.94363 9.94363 9.94363 9.94363 9.6199 9.6199 9.6199 9.6199 9.99216 9.99216 9.99216 9.99216 10.0987 10.0987 10.0987 10.0987 9.96978 9.96978 9.96978 9.96978 9.94901 9.94901 9.94901 9.94901 9.97434 9.97434 9.97434 9.97434 9.95162 9.95162 9.95162 9.95162 9.97088 9.97088 9.97088 9.97088 9.99415 9.99415 9.99415 9.99415 9.92893 9.92893 9.92893 9.92893 9.9533 9.9533 9.9533 9.9533 9.95849 9.95849 9.95849 9.95849 9.98548 9.98548 9.98548 9.98548 9.99342 9.99342 9.99342 9.99342 9.96693 9.96693 9.96693 9.96693 10.6726 10.6726 10.6726 10.6726 9.94538 9.94538 9.94538 9.94538 10.0873 10.0873 10.0873 10.0873 9.45405 9.45405 9.45405 9.45405 9.88515 9.88515 9.88515 9.88515 9.88406 9.88406 9.88406 9.88406 9.98008 9.98008 9.98008 9.98008 9.8982 9.8982 9.8982 9.8982 9.93988 9.93988 9.93988 9.93988 11.1489 11.1489 11.1489 11.1489 9.94502 9.94502 9.94502 9.94502 9.98656 9.98656 9.98656 9.98656 9.98829 9.98829 9.98829 9.98829 9.94941 9.94941 9.94941 9.94941 9.90101 9.90101 9.90101 9.90101 9.87774 9.87774 9.87774 9.87774 9.95145 9.95145 9.95145 9.95145 9.92424 9.92424 9.92424 9.92424 9.99175 9.99175 9.99175 9.99175 9.84846 9.84846 9.84846 9.84846 9.93491 9.93491 9.93491 9.93491 10.0539 10.0539 10.0539 10.0539 9.97074 9.97074 9.97074 9.97074 9.97341 9.97341 9.97341 9.97341 10.6071 10.6071 10.6071 10.6071 9.77013 9.77013 9.77013 9.77013 9.94786 9.94786 9.94786 9.94786 9.90843 9.90843 9.90843 9.90843 9.94566 9.94566 9.94566 9.94566 9.92539 9.92539 9.92539 9.92539 9.53953 9.53953 9.53953 9.53953 10.0443 10.0443 10.0443 10.0443 9.95396 9.95396 9.95396 9.95396 9.9881 9.9881 9.9881 9.9881 9.96881 9.96881 9.96881 9.96881 9.97393 9.97393 9.97393 9.97393 9.87288 9.87288 9.87288 9.87288 9.95184 9.95184 9.95184 9.95184 9.95884 9.95884 9.95884 9.95884 9.88396 9.88396 9.88396 9.88396 10.4051 10.4051 10.4051 10.4051 10.035 10.035 10.035 10.035 9.95679 9.95679 9.95679 9.95679 9.91014 9.91014 9.91014 9.91014 9.89778 9.89778 9.89778 9.89778 9.53591 9.53591 9.53591 9.53591 10.2217 10.2217 10.2217 10.2217 9.90435 9.90435 9.90435 9.90435 9.99405 9.99405 9.99405 9.99405 10.0463 10.0463 10.0463 10.0463 4.30884 4.30884 4.30884 4.30884 9.92891 9.92891 9.92891 9.92891 9.89589 9.89589 9.89589 9.89589 9.91116 9.91116 9.91116 9.91116 9.87769 9.87769 9.87769 9.87769 5.34774 5.34774 5.34774 5.34774 9.99277 9.99277 9.99277 9.99277 9.95175 9.95175 9.95175 9.95175 9.90058 9.90058 9.90058 9.90058 9.91389 9.91389 9.91389 9.91389 9.98057 9.98057 9.98057 9.98057 10.0027 10.0027 10.0027 10.0027 9.91766 9.91766 9.91766 9.91766 9.94484 9.94484 9.94484 9.94484 9.94596 9.94596 9.94596 9.94596 9.20752 9.20752 9.20752 9.20752 9.94618 9.94618 9.94618 9.94618 9.93092 9.93092 9.93092 9.93092 9.86052 9.86052 9.86052 9.86052 9.92179 9.92179 9.92179 9.92179 9.98212 9.98212 9.98212 9.98212 9.94284 9.94284 9.94284 9.94284 9.95066 9.95066 9.95066 9.95066 10.0375 10.0375 10.0375 10.0375 10.1281 10.1281 10.1281 10.1281 9.91411 9.91411 9.91411 9.91411 9.94048 9.94048 9.94048 9.94048 9.9359 9.9359 9.9359 9.9359 9.90688 9.90688 9.90688 9.90688 9.95897 9.95897 9.95897 9.95897 10.2321 10.2321 10.2321 10.2321 9.94225 9.94225 9.94225 9.94225 9.89873 9.89873 9.89873 9.89873 9.96129 9.96129 9.96129 9.96129 10.2374 10.2374 10.2374 10.2374 10.0495 10.0495 10.0495 10.0495 9.94698 9.94698 9.94698 9.94698 10.0486 10.0486 10.0486 10.0486 9.96064 9.96064 9.96064 9.96064 9.93439 9.93439 9.93439 9.93439 10.1939 10.1939 10.1939 10.1939 9.829 9.829 9.829 9.829 9.93609 9.93609 9.93609 9.93609 9.92271 9.92271 9.92271 9.92271 9.83764 9.83764 9.83764 9.83764 9.94137 9.94137 9.94137 9.94137 10.2514 10.2514 10.2514 10.2514 10.2884 10.2884 10.2884 10.2884 9.91653 9.91653 9.91653 9.91653 9.92688 9.92688 9.92688 9.92688 9.94858 9.94858 9.94858 9.94858 10.1135 10.1135 10.1135 10.1135 9.9565 9.9565 9.9565 9.9565 10.0516 10.0516 10.0516 10.0516 9.92775 9.92775 9.92775 9.92775 9.97665 9.97665 9.97665 9.97665 9.94372 9.94372 9.94372 9.94372 10.0214 10.0214 10.0214 10.0214 9.98398 9.98398 9.98398 9.98398 9.92702 9.92702 9.92702 9.92702 9.91172 9.91172 9.91172 9.91172 10.0187 10.0187 10.0187 10.0187 10.2488 10.2488 10.2488 10.2488 9.92641 9.92641 9.92641 9.92641 9.96776 9.96776 9.96776 9.96776 9.95461 9.95461 9.95461 9.95461 9.86223 9.86223 9.86223 9.86223 9.90187 9.90187 9.90187 9.90187 9.91997 9.91997 9.91997 9.91997 9.9536 9.9536 9.9536 9.9536 9.98113 9.98113 9.98113 9.98113 9.82692 9.82692 9.82692 9.82692 9.92359 9.92359 9.92359 9.92359 9.99159 9.99159 9.99159 9.99159 9.95314 9.95314 9.95314 9.95314 9.92365 9.92365 9.92365 9.92365 10.0976 10.0976 10.0976 10.0976 9.9406 9.9406 9.9406 9.9406 9.94949 9.94949 9.94949 9.94949 10.1246 10.1246 10.1246 10.1246 9.96063 9.96063 9.96063 9.96063 9.98408 9.98408 9.98408 9.98408 9.92706 9.92706 9.92706 9.92706 9.99338 9.99338 9.99338 9.99338 10.0056 10.0056 10.0056 10.0056 9.96114 9.96114 9.96114 9.96114 9.95382 9.95382 9.95382 9.95382 9.86442 9.86442 9.86442 9.86442 9.98512 9.98512 9.98512 9.98512 9.96078 9.96078 9.96078 9.96078 10.1555 10.1555 10.1555 10.1555 9.78514 9.78514 9.78514 9.78514 9.97249 9.97249 9.97249 9.97249 9.90744 9.90744 9.90744 9.90744 9.98005 9.98005 9.98005 9.98005 9.97846 9.97846 9.97846 9.97846 9.89577 9.89577 9.89577 9.89577 9.99106 9.99106 9.99106 9.99106 10.0082 10.0082 10.0082 10.0082 9.9923 9.9923 9.9923 9.9923 9.97415 9.97415 9.97415 9.97415 10.2325 10.2325 10.2325 10.2325 9.92483 9.92483 9.92483 9.92483 10.0883 10.0883 10.0883 10.0883 9.21767 9.21767 9.21767 9.21767 10.2404 10.2404 10.2404 10.2404 10.0173 10.0173 10.0173 10.0173 9.98143 9.98143 9.98143 9.98143 10.0511 10.0511 10.0511 10.0511 9.89099 9.89099 9.89099 9.89099 10.6889 10.6889 10.6889 10.6889 9.96157 9.96157 9.96157 9.96157 9.89451 9.89451 9.89451 9.89451 9.96304 9.96304 9.96304 9.96304 9.92127 9.92127 9.92127 9.92127 9.70041 9.70041 9.70041 9.70041 9.96823 9.96823 9.96823 9.96823 9.91354 9.91354 9.91354 9.91354 9.97759 9.97759 9.97759 9.97759 9.92317 9.92317 9.92317 9.92317 9.93944 9.93944 9.93944 9.93944 9.99466 9.99466 9.99466 9.99466 9.98651 9.98651 9.98651 9.98651 9.95295 9.95295 9.95295 9.95295 9.92068 9.92068 9.92068 9.92068 9.9414 9.9414 9.9414 9.9414 10.0473 10.0473 10.0473 10.0473 9.91658 9.91658 9.91658 9.91658 10.4484 10.4484 10.4484 10.4484 9.90679 9.90679 9.90679 9.90679 9.91156 9.91156 9.91156 9.91156 9.93145 9.93145 9.93145 9.93145 9.97124 9.97124 9.97124 9.97124 10.1304 10.1304 10.1304 10.1304 10.0593 10.0593 10.0593 10.0593 9.94187 9.94187 9.94187 9.94187 9.94692 9.94692 9.94692 9.94692 9.94689 9.94689 9.94689 9.94689 9.81277 9.81277 9.81277 9.81277 9.96481 9.96481 9.96481 9.96481 10.109 10.109 10.109 10.109 9.98627 9.98627 9.98627 9.98627 9.59812 9.59812 9.59812 9.59812 9.85991 9.85991 9.85991 9.85991 9.91919 9.91919 9.91919 9.91919 9.98714 9.98714 9.98714 9.98714 10.2908 10.2908 10.2908 10.2908 9.91398 9.91398 9.91398 9.91398 9.93789 9.93789 9.93789 9.93789 9.87968 9.87968 9.87968 9.87968 9.97627 9.97627 9.97627 9.97627 9.9126 9.9126 9.9126 9.9126 10.1516 10.1516 10.1516 10.1516 9.98205 9.98205 9.98205 9.98205 9.93769 9.93769 9.93769 9.93769 9.96168 9.96168 9.96168 9.96168 10.1512 10.1512 10.1512 10.1512 9.86657 9.86657 9.86657 9.86657 9.98552 9.98552 9.98552 9.98552 9.44552 9.44552 9.44552 9.44552 10.1622 10.1622 10.1622 10.1622 9.76289 9.76289 9.76289 9.76289 9.93105 9.93105 9.93105 9.93105 9.97124 9.97124 9.97124 9.97124 9.96722 9.96722 9.96722 9.96722 9.96853 9.96853 9.96853 9.96853 10.0287 10.0287 10.0287 10.0287 9.97931 9.97931 9.97931 9.97931 9.9074 9.9074 9.9074 9.9074 9.90297 9.90297 9.90297 9.90297 9.91135 9.91135 9.91135 9.91135 9.88957 9.88957 9.88957 9.88957 9.97871 9.97871 9.97871 9.97871 9.92961 9.92961 9.92961 9.92961 9.86865 9.86865 9.86865 9.86865 9.9117 9.9117 9.9117 9.9117 9.96615 9.96615 9.96615 9.96615 9.9334 9.9334 9.9334 9.9334 9.95224 9.95224 9.95224 9.95224 10.233 10.233 10.233 10.233 9.9492 9.9492 9.9492 9.9492 9.99322 9.99322 9.99322 9.99322 9.96092 9.96092 9.96092 9.96092 9.93637 9.93637 9.93637 9.93637 9.95166 9.95166 9.95166 9.95166 9.94618 9.94618 9.94618 9.94618 9.87351 9.87351 9.87351 9.87351 10.0447 10.0447 10.0447 10.0447 10.4255 10.4255 10.4255 10.4255 9.9786 9.9786 9.9786 9.9786 9.95118 9.95118 9.95118 9.95118 9.91315 9.91315 9.91315 9.91315 9.95262 9.95262 9.95262 9.95262 9.58176 9.58176 9.58176 9.58176 9.98044 9.98044 9.98044 9.98044 10.0542 10.0542 10.0542 10.0542 9.95568 9.95568 9.95568 9.95568 9.8599 9.8599 9.8599 9.8599 9.88949 9.88949 9.88949 9.88949 9.90044 9.90044 9.90044 9.90044 10.1931 10.1931 10.1931 10.1931 9.97573 9.97573 9.97573 9.97573 9.95903 9.95903 9.95903 9.95903 9.91543 9.91543 9.91543 9.91543 9.92531 9.92531 9.92531 9.92531 10.0966 10.0966 10.0966 10.0966 9.97732 9.97732 9.97732 9.97732 9.90452 9.90452 9.90452 9.90452 9.90387 9.90387 9.90387 9.90387 9.37156 9.37156 9.37156 9.37156 9.93715 9.93715 9.93715 9.93715 9.98393 9.98393 9.98393 9.98393 10.3181 10.3181 10.3181 10.3181 10.6843 10.6843 10.6843 10.6843 9.9389 9.9389 9.9389 9.9389 9.88257 9.88257 9.88257 9.88257 9.88913 9.88913 9.88913 9.88913 9.86678 9.86678 9.86678 9.86678 9.89125 9.89125 9.89125 9.89125 10.2733 10.2733 10.2733 10.2733 9.94933 9.94933 9.94933 9.94933 9.95821 9.95821 9.95821 9.95821 9.98779 9.98779 9.98779 9.98779 9.93964 9.93964 9.93964 9.93964 9.91948 9.91948 9.91948 9.91948 9.99279 9.99279 9.99279 9.99279 9.78767 9.78767 9.78767 9.78767 9.73446 9.73446 9.73446 9.73446 9.92322 9.92322 9.92322 9.92322 9.96014 9.96014 9.96014 9.96014 9.9929 9.9929 9.9929 9.9929 9.98295 9.98295 9.98295 9.98295 9.95181 9.95181 9.95181 9.95181 9.96059 9.96059 9.96059 9.96059 9.84936 9.84936 9.84936 9.84936 8.47583 8.47583 8.47583 8.47583 9.97904 9.97904 9.97904 9.97904 10.005 10.005 10.005 10.005 9.9559 9.9559 9.9559 9.9559 9.90156 9.90156 9.90156 9.90156 10.0332 10.0332 10.0332 10.0332 9.93398 9.93398 9.93398 9.93398 9.9834 9.9834 9.9834 9.9834 10.1393 10.1393 10.1393 10.1393 9.89438 9.89438 9.89438 9.89438 9.95525 9.95525 9.95525 9.95525 9.86542 9.86542 9.86542 9.86542 9.98391 9.98391 9.98391 9.98391 9.89881 9.89881 9.89881 9.89881 9.93006 9.93006 9.93006 9.93006 9.9009 9.9009 9.9009 9.9009 9.97083 9.97083 9.97083 9.97083 9.90879 9.90879 9.90879 9.90879 10.4132 10.4132 10.4132 10.4132 9.97037 9.97037 9.97037 9.97037 10.2494 10.2494 10.2494 10.2494 10.7931 10.7931 10.7931 10.7931 9.93917 9.93917 9.93917 9.93917 9.99344 9.99344 9.99344 9.99344 9.89803 9.89803 9.89803 9.89803 9.94559 9.94559 9.94559 9.94559 9.97291 9.97291 9.97291 9.97291 10.1924 10.1924 10.1924 10.1924 4.7436 4.7436 4.7436 4.7436 10.3639 10.3639 10.3639 10.3639 9.96565 9.96565 9.96565 9.96565 9.93023 9.93023 9.93023 9.93023 9.95658 9.95658 9.95658 9.95658 9.97451 9.97451 9.97451 9.97451 9.92738 9.92738 9.92738 9.92738 9.96408 9.96408 9.96408 9.96408 9.85078 9.85078 9.85078 9.85078 9.97849 9.97849 9.97849 9.97849 10.7904 10.7904 10.7904 10.7904 9.9172 9.9172 9.9172 9.9172 9.91163 9.91163 9.91163 9.91163 9.85993 9.85993 9.85993 9.85993 9.91987 9.91987 9.91987 9.91987 9.89687 9.89687 9.89687 9.89687 9.93124 9.93124 9.93124 9.93124 9.9517 9.9517 9.9517 9.9517 9.81628 9.81628 9.81628 9.81628 9.92314 9.92314 9.92314 9.92314 9.99277 9.99277 9.99277 9.99277 10.0245 10.0245 10.0245 10.0245 9.95914 9.95914 9.95914 9.95914 10.0472 10.0472 10.0472 10.0472 9.99194 9.99194 9.99194 9.99194 9.9166 9.9166 9.9166 9.9166 10.7119 10.7119 10.7119 10.7119 9.97197 9.97197 9.97197 9.97197 9.92918 9.92918 9.92918 9.92918 9.88331 9.88331 9.88331 9.88331 9.98395 9.98395 9.98395 9.98395 9.90747 9.90747 9.90747 9.90747 10.5656 10.5656 10.5656 10.5656 9.98051 9.98051 9.98051 9.98051 10.2153 10.2153 10.2153 10.2153 9.98302 9.98302 9.98302 9.98302 9.93255 9.93255 9.93255 9.93255 9.95348 9.95348 9.95348 9.95348 9.90181 9.90181 9.90181 9.90181 9.96548 9.96548 9.96548 9.96548 10.6298 10.6298 10.6298 10.6298 9.98428 9.98428 9.98428 9.98428 9.95317 9.95317 9.95317 9.95317 9.90729 9.90729 9.90729 9.90729 10.8464 10.8464 10.8464 10.8464 10.2358 10.2358 10.2358 10.2358 10.1041 10.1041 10.1041 10.1041 9.98119 9.98119 9.98119 9.98119 9.92741 9.92741 9.92741 9.92741 9.80829 9.80829 9.80829 9.80829 9.97843 9.97843 9.97843 9.97843 9.95625 9.95625 9.95625 9.95625 9.95234 9.95234 9.95234 9.95234 9.89329 9.89329 9.89329 9.89329 9.97678 9.97678 9.97678 9.97678 9.90734 9.90734 9.90734 9.90734 9.99416 9.99416 9.99416 9.99416 9.99101 9.99101 9.99101 9.99101 10.0314 10.0314 10.0314 10.0314 9.9779 9.9779 9.9779 9.9779 9.99311 9.99311 9.99311 9.99311 9.96232 9.96232 9.96232 9.96232 10.0259 10.0259 10.0259 10.0259 9.96464 9.96464 9.96464 9.96464 9.96657 9.96657 9.96657 9.96657 9.98089 9.98089 9.98089 9.98089 9.98937 9.98937 9.98937 9.98937 10.3383 10.3383 10.3383 10.3383 10.0546 10.0546 10.0546 10.0546 9.95775 9.95775 9.95775 9.95775 9.96429 9.96429 9.96429 9.96429 10.7188 10.7188 10.7188 10.7188 9.96179 9.96179 9.96179 9.96179 9.96366 9.96366 9.96366 9.96366 9.97667 9.97667 9.97667 9.97667 9.99259 9.99259 9.99259 9.99259 9.96754 9.96754 9.96754 9.96754 10.1312 10.1312 10.1312 10.1312 9.92206 9.92206 9.92206 9.92206 9.96721 9.96721 9.96721 9.96721 9.99353 9.99353 9.99353 9.99353 9.12065 9.12065 9.12065 9.12065 9.95683 9.95683 9.95683 9.95683 9.89802 9.89802 9.89802 9.89802 9.96336 9.96336 9.96336 9.96336 8.90538 8.90538 8.90538 8.90538 10.2951 10.2951 10.2951 10.2951 9.95713 9.95713 9.95713 9.95713 9.82155 9.82155 9.82155 9.82155 9.95641 9.95641 9.95641 9.95641 9.98941 9.98941 9.98941 9.98941 9.89631 9.89631 9.89631 9.89631 9.92237 9.92237 9.92237 9.92237 9.93374 9.93374 9.93374 9.93374 9.74519 9.74519 9.74519 9.74519 9.86546 9.86546 9.86546 9.86546 9.93633 9.93633 9.93633 9.93633 9.77733 9.77733 9.77733 9.77733 9.97319 9.97319 9.97319 9.97319 10.0162 10.0162 10.0162 10.0162 9.97746 9.97746 9.97746 9.97746 9.96005 9.96005 9.96005 9.96005 10.1263 10.1263 10.1263 10.1263 9.94766 9.94766 9.94766 9.94766 10.172 10.172 10.172 10.172 9.96044 9.96044 9.96044 9.96044 6.98863 6.98863 6.98863 6.98863 7.00234 7.00234 7.00234 7.00234 9.90473 9.90473 9.90473 9.90473 9.95559 9.95559 9.95559 9.95559 9.96087 9.96087 9.96087 9.96087 9.87904 9.87904 9.87904 9.87904 9.94844 9.94844 9.94844 9.94844 9.97983 9.97983 9.97983 9.97983 10.173 10.173 10.173 10.173 9.91011 9.91011 9.91011 9.91011 9.90612 9.90612 9.90612 9.90612 9.92821 9.92821 9.92821 9.92821 9.90185 9.90185 9.90185 9.90185 10.2464 10.2464 10.2464 10.2464 9.99297 9.99297 9.99297 9.99297 9.75864 9.75864 9.75864 9.75864 9.95096 9.95096 9.95096 9.95096 9.96026 9.96026 9.96026 9.96026 9.98296 9.98296 9.98296 9.98296 10.1922 10.1922 10.1922 10.1922 9.93095 9.93095 9.93095 9.93095 9.96623 9.96623 9.96623 9.96623 9.93323 9.93323 9.93323 9.93323 9.99222 9.99222 9.99222 9.99222 10.2293 10.2293 10.2293 10.2293 9.96098 9.96098 9.96098 9.96098 9.97392 9.97392 9.97392 9.97392 9.92967 9.92967 9.92967 9.92967 9.97891 9.97891 9.97891 9.97891 9.92603 9.92603 9.92603 9.92603 9.96375 9.96375 9.96375 9.96375 9.9406 9.9406 9.9406 9.9406 9.94612 9.94612 9.94612 9.94612 9.83017 9.83017 9.83017 9.83017 9.96523 9.96523 9.96523 9.96523 10.3636 10.3636 10.3636 10.3636 9.90884 9.90884 9.90884 9.90884 10.0009 10.0009 10.0009 10.0009 9.98317 9.98317 9.98317 9.98317 9.91814 9.91814 9.91814 9.91814 9.89185 9.89185 9.89185 9.89185 9.9721 9.9721 9.9721 9.9721 9.98993 9.98993 9.98993 9.98993 9.96534 9.96534 9.96534 9.96534 9.96032 9.96032 9.96032 9.96032 10.0877 10.0877 10.0877 10.0877 9.9328 9.9328 9.9328 9.9328 9.89118 9.89118 9.89118 9.89118 10.2985 10.2985 10.2985 10.2985 9.99294 9.99294 9.99294 9.99294 10.2576 10.2576 10.2576 10.2576 9.94225 9.94225 9.94225 9.94225 9.91565 9.91565 9.91565 9.91565 10.0041 10.0041 10.0041 10.0041 10.0211 10.0211 10.0211 10.0211 10.0006 10.0006 10.0006 10.0006 9.93561 9.93561 9.93561 9.93561 9.98364 9.98364 9.98364 9.98364 10.0195 10.0195 10.0195 10.0195 9.95407 9.95407 9.95407 9.95407 9.93446 9.93446 9.93446 9.93446 9.98135 9.98135 9.98135 9.98135 9.96398 9.96398 9.96398 9.96398 9.98923 9.98923 9.98923 9.98923 10.1339 10.1339 10.1339 10.1339 10.4646 10.4646 10.4646 10.4646 9.95027 9.95027 9.95027 9.95027 9.89984 9.89984 9.89984 9.89984 9.92599 9.92599 9.92599 9.92599 9.99195 9.99195 9.99195 9.99195 9.97827 9.97827 9.97827 9.97827 10.1569 10.1569 10.1569 10.1569 9.98568 9.98568 9.98568 9.98568 9.87516 9.87516 9.87516 9.87516 9.92682 9.92682 9.92682 9.92682 9.81375 9.81375 9.81375 9.81375 9.87529 9.87529 9.87529 9.87529 9.92515 9.92515 9.92515 9.92515 9.92331 9.92331 9.92331 9.92331 9.95387 9.95387 9.95387 9.95387 9.91244 9.91244 9.91244 9.91244 9.91372 9.91372 9.91372 9.91372 9.92283 9.92283 9.92283 9.92283 9.85236 9.85236 9.85236 9.85236 9.94332 9.94332 9.94332 9.94332 10.0193 10.0193 10.0193 10.0193 9.99734 9.99734 9.99734 9.99734 9.93975 9.93975 9.93975 9.93975 9.98334 9.98334 9.98334 9.98334 9.90303 9.90303 9.90303 9.90303 9.97152 9.97152 9.97152 9.97152 10.2258 10.2258 10.2258 10.2258 9.94004 9.94004 9.94004 9.94004 9.98212 9.98212 9.98212 9.98212 9.96381 9.96381 9.96381 9.96381 10.2745 10.2745 10.2745 10.2745 9.95487 9.95487 9.95487 9.95487 9.90561 9.90561 9.90561 9.90561 9.92104 9.92104 9.92104 9.92104 9.95196 9.95196 9.95196 9.95196 9.86171 9.86171 9.86171 9.86171 9.95432 9.95432 9.95432 9.95432 10.6499 10.6499 10.6499 10.6499 9.8634 9.8634 9.8634 9.8634 9.93732 9.93732 9.93732 9.93732 9.983 9.983 9.983 9.983 10.291 10.291 10.291 10.291 9.94933 9.94933 9.94933 9.94933 10.0374 10.0374 10.0374 10.0374 9.92041 9.92041 9.92041 9.92041 9.98298 9.98298 9.98298 9.98298 9.95471 9.95471 9.95471 9.95471 9.97364 9.97364 9.97364 9.97364 9.92935 9.92935 9.92935 9.92935 9.96533 9.96533 9.96533 9.96533 10.0906 10.0906 10.0906 10.0906 9.93001 9.93001 9.93001 9.93001 9.91977 9.91977 9.91977 9.91977 10.0931 10.0931 10.0931 10.0931 7.51499 7.51499 7.51499 7.51499 9.95901 9.95901 9.95901 9.95901 9.95184 9.95184 9.95184 9.95184 9.94597 9.94597 9.94597 9.94597 9.9762 9.9762 9.9762 9.9762 10.1138 10.1138 10.1138 10.1138 10.1377 10.1377 10.1377 10.1377 9.96304 9.96304 9.96304 9.96304 9.93674 9.93674 9.93674 9.93674 9.98403 9.98403 9.98403 9.98403 9.88763 9.88763 9.88763 9.88763 10.131 10.131 10.131 10.131 9.8648 9.8648 9.8648 9.8648 9.86022 9.86022 9.86022 9.86022 9.91797 9.91797 9.91797 9.91797 9.90755 9.90755 9.90755 9.90755 10.1803 10.1803 10.1803 10.1803 9.96802 9.96802 9.96802 9.96802 9.91267 9.91267 9.91267 9.91267 9.94963 9.94963 9.94963 9.94963 9.9546 9.9546 9.9546 9.9546 10.1997 10.1997 10.1997 10.1997 10.0935 10.0935 10.0935 10.0935 9.88701 9.88701 9.88701 9.88701 9.99334 9.99334 9.99334 9.99334 9.93643 9.93643 9.93643 9.93643 9.91593 9.91593 9.91593 9.91593 9.98016 9.98016 9.98016 9.98016 9.97276 9.97276 9.97276 9.97276 9.94375 9.94375 9.94375 9.94375 10.2746 10.2746 10.2746 10.2746 10.0165 10.0165 10.0165 10.0165 10.0112 10.0112 10.0112 10.0112 9.92196 9.92196 9.92196 9.92196 9.88271 9.88271 9.88271 9.88271 9.93044 9.93044 9.93044 9.93044 9.99513 9.99513 9.99513 9.99513 5.14667 5.14667 5.14667 5.14667 9.95815 9.95815 9.95815 9.95815 9.90332 9.90332 9.90332 9.90332 9.94046 9.94046 9.94046 9.94046 9.95173 9.95173 9.95173 9.95173 9.97642 9.97642 9.97642 9.97642 9.95732 9.95732 9.95732 9.95732 10.1418 10.1418 10.1418 10.1418 9.90401 9.90401 9.90401 9.90401 9.91348 9.91348 9.91348 9.91348 9.97481 9.97481 9.97481 9.97481 9.9847 9.9847 9.9847 9.9847 10.0479 10.0479 10.0479 10.0479 10.1285 10.1285 10.1285 10.1285 9.97489 9.97489 9.97489 9.97489 10.0441 10.0441 10.0441 10.0441 10.0765 10.0765 10.0765 10.0765 9.9534 9.9534 9.9534 9.9534 9.78527 9.78527 9.78527 9.78527 9.98062 9.98062 9.98062 9.98062 9.91198 9.91198 9.91198 9.91198 9.98383 9.98383 9.98383 9.98383 9.94942 9.94942 9.94942 9.94942 9.91633 9.91633 9.91633 9.91633 9.96104 9.96104 9.96104 9.96104 10.023 10.023 10.023 10.023 9.97068 9.97068 9.97068 9.97068 9.87981 9.87981 9.87981 9.87981 9.94637 9.94637 9.94637 9.94637 9.98467 9.98467 9.98467 9.98467 9.93512 9.93512 9.93512 9.93512 10.0483 10.0483 10.0483 10.0483 9.96033 9.96033 9.96033 9.96033 10.7041 10.7041 10.7041 10.7041 9.88106 9.88106 9.88106 9.88106 9.83276 9.83276 9.83276 9.83276 9.91376 9.91376 9.91376 9.91376 9.89795 9.89795 9.89795 9.89795 10.2275 10.2275 10.2275 10.2275 10.9913 10.9913 10.9913 10.9913 10.4022 10.4022 10.4022 10.4022 9.97049 9.97049 9.97049 9.97049 9.93807 9.93807 9.93807 9.93807 9.95631 9.95631 9.95631 9.95631 10.0064 10.0064 10.0064 10.0064 9.95221 9.95221 9.95221 9.95221 9.97656 9.97656 9.97656 9.97656 9.96313 9.96313 9.96313 9.96313 10.012 10.012 10.012 10.012 10.0002 10.0002 10.0002 10.0002 9.97954 9.97954 9.97954 9.97954 9.91426 9.91426 9.91426 9.91426 9.93687 9.93687 9.93687 9.93687 10.0129 10.0129 10.0129 10.0129 9.99505 9.99505 9.99505 9.99505 10.5252 10.5252 10.5252 10.5252 10.0094 10.0094 10.0094 10.0094 11.3034 11.3034 11.3034 11.3034 9.92184 9.92184 9.92184 9.92184 10.1139 10.1139 10.1139 10.1139 9.94865 9.94865 9.94865 9.94865 9.94605 9.94605 9.94605 9.94605 9.88485 9.88485 9.88485 9.88485 9.98065 9.98065 9.98065 9.98065 10.1371 10.1371 10.1371 10.1371 9.97845 9.97845 9.97845 9.97845 9.92651 9.92651 9.92651 9.92651 9.87106 9.87106 9.87106 9.87106 9.91458 9.91458 9.91458 9.91458 6.66026 6.66026 6.66026 6.66026 10.1637 10.1637 10.1637 10.1637 9.93462 9.93462 9.93462 9.93462 9.95641 9.95641 9.95641 9.95641 9.94338 9.94338 9.94338 9.94338 10.2914 10.2914 10.2914 10.2914 9.98004 9.98004 9.98004 9.98004 9.9731 9.9731 9.9731 9.9731 9.99467 9.99467 9.99467 9.99467 9.89529 9.89529 9.89529 9.89529 9.95688 9.95688 9.95688 9.95688 9.92685 9.92685 9.92685 9.92685 9.96065 9.96065 9.96065 9.96065 9.98218 9.98218 9.98218 9.98218 9.97761 9.97761 9.97761 9.97761 9.913 9.913 9.913 9.913 9.90055 9.90055 9.90055 9.90055 9.92304 9.92304 9.92304 9.92304 9.96188 9.96188 9.96188 9.96188 9.92849 9.92849 9.92849 9.92849 9.90939 9.90939 9.90939 9.90939 9.97217 9.97217 9.97217 9.97217 9.93313 9.93313 9.93313 9.93313 9.77908 9.77908 9.77908 9.77908 9.07749 9.07749 9.07749 9.07749 10.1509 10.1509 10.1509 10.1509 9.99328 9.99328 9.99328 9.99328 9.96385 9.96385 9.96385 9.96385 10.0427 10.0427 10.0427 10.0427 9.98683 9.98683 9.98683 9.98683 10.3033 10.3033 10.3033 10.3033 9.9028 9.9028 9.9028 9.9028 9.95065 9.95065 9.95065 9.95065 9.93038 9.93038 9.93038 9.93038 9.96518 9.96518 9.96518 9.96518 9.99455 9.99455 9.99455 9.99455 10.0405 10.0405 10.0405 10.0405 10.1682 10.1682 10.1682 10.1682 10.315 10.315 10.315 10.315 9.97529 9.97529 9.97529 9.97529 10.1012 10.1012 10.1012 10.1012 9.92964 9.92964 9.92964 9.92964 9.92147 9.92147 9.92147 9.92147 9.94934 9.94934 9.94934 9.94934 9.97986 9.97986 9.97986 9.97986 9.90794 9.90794 9.90794 9.90794 9.93863 9.93863 9.93863 9.93863 9.94101 9.94101 9.94101 9.94101 9.95354 9.95354 9.95354 9.95354 10.1165 10.1165 10.1165 10.1165 9.9359 9.9359 9.9359 9.9359 9.99302 9.99302 9.99302 9.99302 9.7772 9.7772 9.7772 9.7772 9.67078 9.67078 9.67078 9.67078 9.92935 9.92935 9.92935 9.92935 5.09582 5.09582 5.09582 5.09582 9.89829 9.89829 9.89829 9.89829 10.1426 10.1426 10.1426 10.1426 9.87618 9.87618 9.87618 9.87618 9.97932 9.97932 9.97932 9.97932 9.98089 9.98089 9.98089 9.98089 9.9927 9.9927 9.9927 9.9927 10.275 10.275 10.275 10.275 9.99377 9.99377 9.99377 9.99377 10.0626 10.0626 10.0626 10.0626 9.92386 9.92386 9.92386 9.92386 9.92368 9.92368 9.92368 9.92368 9.98521 9.98521 9.98521 9.98521 9.95293 9.95293 9.95293 9.95293 10.0555 10.0555 10.0555 10.0555 10.4786 10.4786 10.4786 10.4786 9.98222 9.98222 9.98222 9.98222 9.9427 9.9427 9.9427 9.9427 9.99335 9.99335 9.99335 9.99335 10.3226 10.3226 10.3226 10.3226 9.99128 9.99128 9.99128 9.99128 9.98129 9.98129 9.98129 9.98129 9.95787 9.95787 9.95787 9.95787 9.92026 9.92026 9.92026 9.92026 9.92669 9.92669 9.92669 9.92669 10.0044 10.0044 10.0044 10.0044 10.0289 10.0289 10.0289 10.0289 9.9019 9.9019 9.9019 9.9019 9.89283 9.89283 9.89283 9.89283 9.87371 9.87371 9.87371 9.87371 9.85694 9.85694 9.85694 9.85694 9.93764 9.93764 9.93764 9.93764 9.99295 9.99295 9.99295 9.99295 9.97958 9.97958 9.97958 9.97958 11.0332 11.0332 11.0332 11.0332 11.0434 11.0434 11.0434 11.0434 10.1771 10.1771 10.1771 10.1771 9.98409 9.98409 9.98409 9.98409 9.92659 9.92659 9.92659 9.92659 9.99276 9.99276 9.99276 9.99276 9.98088 9.98088 9.98088 9.98088 9.9783 9.9783 9.9783 9.9783 10.5791 10.5791 10.5791 10.5791 9.94361 9.94361 9.94361 9.94361 9.95644 9.95644 9.95644 9.95644 10.2018 10.2018 10.2018 10.2018 9.86364 9.86364 9.86364 9.86364 9.96702 9.96702 9.96702 9.96702 9.94436 9.94436 9.94436 9.94436 9.95714 9.95714 9.95714 9.95714 11.4068 11.4068 11.4068 11.4068 9.94723 9.94723 9.94723 9.94723 9.96469 9.96469 9.96469 9.96469 9.95695 9.95695 9.95695 9.95695 9.90715 9.90715 9.90715 9.90715 10.0692 10.0692 10.0692 10.0692 9.7309 9.7309 9.7309 9.7309 10.0068 10.0068 10.0068 10.0068 9.90074 9.90074 9.90074 9.90074 9.97776 9.97776 9.97776 9.97776 9.85217 9.85217 9.85217 9.85217 10.685 10.685 10.685 10.685 9.90909 9.90909 9.90909 9.90909 9.89312 9.89312 9.89312 9.89312 9.96042 9.96042 9.96042 9.96042 10.697 10.697 10.697 10.697 9.75905 9.75905 9.75905 9.75905 9.96764 9.96764 9.96764 9.96764 10.3569 10.3569 10.3569 10.3569 9.9452 9.9452 9.9452 9.9452 9.99306 9.99306 9.99306 9.99306 9.88727 9.88727 9.88727 9.88727 9.94413 9.94413 9.94413 9.94413 10.0111 10.0111 10.0111 10.0111 10.1894 10.1894 10.1894 10.1894 9.93501 9.93501 9.93501 9.93501 10.6158 10.6158 10.6158 10.6158 9.96332 9.96332 9.96332 9.96332 11.1088 11.1088 11.1088 11.1088 9.9075 9.9075 9.9075 9.9075 9.96447 9.96447 9.96447 9.96447 10.0352 10.0352 10.0352 10.0352 9.97803 9.97803 9.97803 9.97803 9.86095 9.86095 9.86095 9.86095 9.87375 9.87375 9.87375 9.87375 9.98726 9.98726 9.98726 9.98726 9.94527 9.94527 9.94527 9.94527 9.90697 9.90697 9.90697 9.90697 9.98139 9.98139 9.98139 9.98139 9.92617 9.92617 9.92617 9.92617 10.4394 10.4394 10.4394 10.4394 9.98036 9.98036 9.98036 9.98036 9.95299 9.95299 9.95299 9.95299 10.0997 10.0997 10.0997 10.0997 9.98422 9.98422 9.98422 9.98422 9.96882 9.96882 9.96882 9.96882 9.98451 9.98451 9.98451 9.98451 9.99428 9.99428 9.99428 9.99428 9.96819 9.96819 9.96819 9.96819 9.85074 9.85074 9.85074 9.85074 9.99465 9.99465 9.99465 9.99465 9.93172 9.93172 9.93172 9.93172 9.9275 9.9275 9.9275 9.9275 9.94053 9.94053 9.94053 9.94053 9.9556 9.9556 9.9556 9.9556 9.96141 9.96141 9.96141 9.96141 9.70563 9.70563 9.70563 9.70563 8.62156 8.62156 8.62156 8.62156 9.99457 9.99457 9.99457 9.99457 10.025 10.025 10.025 10.025 9.95859 9.95859 9.95859 9.95859 9.82463 9.82463 9.82463 9.82463 9.99443 9.99443 9.99443 9.99443 6.57697 6.57697 6.57697 6.57697 9.91809 9.91809 9.91809 9.91809 10.1928 10.1928 10.1928 10.1928 10.3631 10.3631 10.3631 10.3631 9.89767 9.89767 9.89767 9.89767 9.90208 9.90208 9.90208 9.90208 9.95996 9.95996 9.95996 9.95996 9.97292 9.97292 9.97292 9.97292 9.90435 9.90435 9.90435 9.90435 9.85728 9.85728 9.85728 9.85728 9.92137 9.92137 9.92137 9.92137 11.1995 11.1995 11.1995 11.1995 9.9194 9.9194 9.9194 9.9194 9.94854 9.94854 9.94854 9.94854 9.90587 9.90587 9.90587 9.90587 9.96463 9.96463 9.96463 9.96463 9.95229 9.95229 9.95229 9.95229 9.89859 9.89859 9.89859 9.89859 9.93412 9.93412 9.93412 9.93412 9.88536 9.88536 9.88536 9.88536 10.0178 10.0178 10.0178 10.0178 9.98516 9.98516 9.98516 9.98516 9.9623 9.9623 9.9623 9.9623 10.1326 10.1326 10.1326 10.1326 9.8698 9.8698 9.8698 9.8698 10.0124 10.0124 10.0124 10.0124 10.0031 10.0031 10.0031 10.0031 9.8104 9.8104 9.8104 9.8104 9.91544 9.91544 9.91544 9.91544 9.99454 9.99454 9.99454 9.99454 9.98374 9.98374 9.98374 9.98374 9.96 9.96 9.96 9.96 9.94019 9.94019 9.94019 9.94019 10.0081 10.0081 10.0081 10.0081 9.97606 9.97606 9.97606 9.97606 9.92647 9.92647 9.92647 9.92647 9.99376 9.99376 9.99376 9.99376 9.98877 9.98877 9.98877 9.98877 9.98333 9.98333 9.98333 9.98333 9.9643 9.9643 9.9643 9.9643 9.92191 9.92191 9.92191 9.92191 9.9868 9.9868 9.9868 9.9868 9.99989 9.99989 9.99989 9.99989 9.90896 9.90896 9.90896 9.90896 9.90844 9.90844 9.90844 9.90844 9.90869 9.90869 9.90869 9.90869 10.106 10.106 10.106 10.106 9.95023 9.95023 9.95023 9.95023 9.91816 9.91816 9.91816 9.91816 9.97597 9.97597 9.97597 9.97597 9.8929 9.8929 9.8929 9.8929 9.99163 9.99163 9.99163 9.99163 11.1597 11.1597 11.1597 11.1597 9.79325 9.79325 9.79325 9.79325 9.9937 9.9937 9.9937 9.9937 9.93151 9.93151 9.93151 9.93151 9.9854 9.9854 9.9854 9.9854 9.94523 9.94523 9.94523 9.94523 10.6446 10.6446 10.6446 10.6446 9.93471 9.93471 9.93471 9.93471 9.9114 9.9114 9.9114 9.9114 9.97813 9.97813 9.97813 9.97813 10.2724 10.2724 10.2724 10.2724 9.92362 9.92362 9.92362 9.92362 9.8756 9.8756 9.8756 9.8756 9.98708 9.98708 9.98708 9.98708 9.79639 9.79639 9.79639 9.79639 9.96274 9.96274 9.96274 9.96274 9.99732 9.99732 9.99732 9.99732 11.0827 11.0827 11.0827 11.0827 4.35261 4.35261 4.35261 4.35261 9.91242 9.91242 9.91242 9.91242 9.99798 9.99798 9.99798 9.99798 9.99916 9.99916 9.99916 9.99916 9.93887 9.93887 9.93887 9.93887 9.98524 9.98524 9.98524 9.98524 9.99296 9.99296 9.99296 9.99296 9.86284 9.86284 9.86284 9.86284 9.99308 9.99308 9.99308 9.99308 9.89123 9.89123 9.89123 9.89123 10.0055 10.0055 10.0055 10.0055 9.97581 9.97581 9.97581 9.97581 9.83783 9.83783 9.83783 9.83783 11.1851 11.1851 11.1851 11.1851 9.9851 9.9851 9.9851 9.9851 9.95533 9.95533 9.95533 9.95533 9.9938 9.9938 9.9938 9.9938 9.8414 9.8414 9.8414 9.8414 9.98275 9.98275 9.98275 9.98275 9.99146 9.99146 9.99146 9.99146 9.93461 9.93461 9.93461 9.93461 9.95382 9.95382 9.95382 9.95382 9.93755 9.93755 9.93755 9.93755 10.0698 10.0698 10.0698 10.0698 9.9982 9.9982 9.9982 9.9982 9.88766 9.88766 9.88766 9.88766 10.1746 10.1746 10.1746 10.1746 9.99204 9.99204 9.99204 9.99204 10.7792 10.7792 10.7792 10.7792 9.99469 9.99469 9.99469 9.99469 10.3621 10.3621 10.3621 10.3621 9.92676 9.92676 9.92676 9.92676 9.96563 9.96563 9.96563 9.96563 9.98613 9.98613 9.98613 9.98613 9.98302 9.98302 9.98302 9.98302 9.9125 9.9125 9.9125 9.9125 9.93285 9.93285 9.93285 9.93285 9.96716 9.96716 9.96716 9.96716 10.1419 10.1419 10.1419 10.1419 9.93493 9.93493 9.93493 9.93493 9.99217 9.99217 9.99217 9.99217 9.99764 9.99764 9.99764 9.99764 10.1002 10.1002 10.1002 10.1002 9.99331 9.99331 9.99331 9.99331 9.98684 9.98684 9.98684 9.98684 11.4097 11.4097 11.4097 11.4097 9.95594 9.95594 9.95594 9.95594 10.3019 10.3019 10.3019 10.3019 5.69471 5.69471 5.69471 5.69471 9.87506 9.87506 9.87506 9.87506 9.9599 9.9599 9.9599 9.9599 9.94052 9.94052 9.94052 9.94052 9.92373 9.92373 9.92373 9.92373 9.96582 9.96582 9.96582 9.96582 9.95013 9.95013 9.95013 9.95013 9.91631 9.91631 9.91631 9.91631 9.9978 9.9978 9.9978 9.9978 9.94776 9.94776 9.94776 9.94776 9.94819 9.94819 9.94819 9.94819 9.81196 9.81196 9.81196 9.81196 9.99531 9.99531 9.99531 9.99531 9.93796 9.93796 9.93796 9.93796 10.143 10.143 10.143 10.143 10.1786 10.1786 10.1786 10.1786 10.113 10.113 10.113 10.113 10.1783 10.1783 10.1783 10.1783 9.91458 9.91458 9.91458 9.91458 9.94527 9.94527 9.94527 9.94527 10.0213 10.0213 10.0213 10.0213 9.92333 9.92333 9.92333 9.92333 9.93051 9.93051 9.93051 9.93051 9.98203 9.98203 9.98203 9.98203 9.97569 9.97569 9.97569 9.97569 9.88122 9.88122 9.88122 9.88122 10.767 10.767 10.767 10.767 9.93159 9.93159 9.93159 9.93159 9.96883 9.96883 9.96883 9.96883 9.96689 9.96689 9.96689 9.96689 9.89379 9.89379 9.89379 9.89379 9.96052 9.96052 9.96052 9.96052 9.92397 9.92397 9.92397 9.92397 9.90688 9.90688 9.90688 9.90688 9.90107 9.90107 9.90107 9.90107 9.91613 9.91613 9.91613 9.91613 9.90545 9.90545 9.90545 9.90545 9.98007 9.98007 9.98007 9.98007 9.99609 9.99609 9.99609 9.99609 9.99662 9.99662 9.99662 9.99662 3.88458 3.88458 3.88458 3.88458 9.99382 9.99382 9.99382 9.99382 9.718 9.718 9.718 9.718 9.98491 9.98491 9.98491 9.98491 9.99296 9.99296 9.99296 9.99296 9.86092 9.86092 9.86092 9.86092 5.42875 5.42875 5.42875 5.42875 9.91584 9.91584 9.91584 9.91584 9.99386 9.99386 9.99386 9.99386 4.52701 4.52701 4.52701 4.52701 10.2708 10.2708 10.2708 10.2708 10.0637 10.0637 10.0637 10.0637 9.93392 9.93392 9.93392 9.93392 10.1119 10.1119 10.1119 10.1119 9.92312 9.92312 9.92312 9.92312 9.98299 9.98299 9.98299 9.98299 9.98707 9.98707 9.98707 9.98707 10.0465 10.0465 10.0465 10.0465 10.0104 10.0104 10.0104 10.0104 9.94664 9.94664 9.94664 9.94664 9.95157 9.95157 9.95157 9.95157 10.2922 10.2922 10.2922 10.2922 9.95878 9.95878 9.95878 9.95878 12.3056 12.3056 12.3056 12.3056 9.994 9.994 9.994 9.994 9.90545 9.90545 9.90545 9.90545 10.87 10.87 10.87 10.87 9.89937 9.89937 9.89937 9.89937 10.8011 10.8011 10.8011 10.8011 9.97526 9.97526 9.97526 9.97526 9.99468 9.99468 9.99468 9.99468 9.98925 9.98925 9.98925 9.98925 9.80892 9.80892 9.80892 9.80892 9.98261 9.98261 9.98261 9.98261 9.9931 9.9931 9.9931 9.9931 9.9943 9.9943 9.9943 9.9943 9.94593 9.94593 9.94593 9.94593 9.99484 9.99484 9.99484 9.99484 9.93741 9.93741 9.93741 9.93741 10.1945 10.1945 10.1945 10.1945 9.90576 9.90576 9.90576 9.90576 9.94227 9.94227 9.94227 9.94227 9.98891 9.98891 9.98891 9.98891 11.4966 11.4966 11.4966 11.4966 11.116 11.116 11.116 11.116 9.92576 9.92576 9.92576 9.92576 9.86963 9.86963 9.86963 9.86963 10.1152 10.1152 10.1152 10.1152 5.2744 5.2744 5.2744 5.2744 9.99728 9.99728 9.99728 9.99728 9.94073 9.94073 9.94073 9.94073 9.99318 9.99318 9.99318 9.99318 9.99292 9.99292 9.99292 9.99292 9.9941 9.9941 9.9941 9.9941 9.98085 9.98085 9.98085 9.98085 9.94914 9.94914 9.94914 9.94914 10.4132 10.4132 10.4132 10.4132 9.99257 9.99257 9.99257 9.99257 9.81416 9.81416 9.81416 9.81416 9.93195 9.93195 9.93195 9.93195 9.98424 9.98424 9.98424 9.98424 9.98403 9.98403 9.98403 9.98403 9.963 9.963 9.963 9.963 9.90294 9.90294 9.90294 9.90294 9.9856 9.9856 9.9856 9.9856 4.49829 4.49829 4.49829 4.49829 9.98194 9.98194 9.98194 9.98194 9.92555 9.92555 9.92555 9.92555 9.96285 9.96285 9.96285 9.96285 9.94009 9.94009 9.94009 9.94009 9.93748 9.93748 9.93748 9.93748 9.98906 9.98906 9.98906 9.98906 4.38296 4.38296 4.38296 4.38296 9.99497 9.99497 9.99497 9.99497 9.98357 9.98357 9.98357 9.98357 9.89725 9.89725 9.89725 9.89725 10.1396 10.1396 10.1396 10.1396 9.91334 9.91334 9.91334 9.91334 9.92485 9.92485 9.92485 9.92485 9.98583 9.98583 9.98583 9.98583 9.98718 9.98718 9.98718 9.98718 9.99272 9.99272 9.99272 9.99272 9.94235 9.94235 9.94235 9.94235 10.1642 10.1642 10.1642 10.1642 9.98115 9.98115 9.98115 9.98115 9.96719 9.96719 9.96719 9.96719 9.99465 9.99465 9.99465 9.99465 9.92925 9.92925 9.92925 9.92925 10.0174 10.0174 10.0174 10.0174 10.0663 10.0663 10.0663 10.0663 10.0211 10.0211 10.0211 10.0211 9.92646 9.92646 9.92646 9.92646 9.90005 9.90005 9.90005 9.90005 10.2374 10.2374 10.2374 10.2374 10.0326 10.0326 10.0326 10.0326 9.9378 9.9378 9.9378 9.9378 9.91072 9.91072 9.91072 9.91072 9.88517 9.88517 9.88517 9.88517 10.915 10.915 10.915 10.915 9.94627 9.94627 9.94627 9.94627 9.99446 9.99446 9.99446 9.99446 9.99922 9.99922 9.99922 9.99922 4.37977 4.37977 4.37977 4.37977 9.86964 9.86964 9.86964 9.86964 10.1173 10.1173 10.1173 10.1173 9.95669 9.95669 9.95669 9.95669 9.96175 9.96175 9.96175 9.96175 9.96482 9.96482 9.96482 9.96482 9.99377 9.99377 9.99377 9.99377 9.98269 9.98269 9.98269 9.98269 9.96664 9.96664 9.96664 9.96664 9.84067 9.84067 9.84067 9.84067 10.0433 10.0433 10.0433 10.0433 9.91661 9.91661 9.91661 9.91661 9.98456 9.98456 9.98456 9.98456 9.98602 9.98602 9.98602 9.98602 9.92741 9.92741 9.92741 9.92741 10.5003 10.5003 10.5003 10.5003 9.91768 9.91768 9.91768 9.91768 9.95391 9.95391 9.95391 9.95391 9.89939 9.89939 9.89939 9.89939 9.98656 9.98656 9.98656 9.98656 9.98633 9.98633 9.98633 9.98633 10.4642 10.4642 10.4642 10.4642 9.9606 9.9606 9.9606 9.9606 9.99178 9.99178 9.99178 9.99178 10.2975 10.2975 10.2975 10.2975 9.95134 9.95134 9.95134 9.95134 9.94968 9.94968 9.94968 9.94968 9.99453 9.99453 9.99453 9.99453 10.0122 10.0122 10.0122 10.0122 4.41202 4.41202 4.41202 4.41202 11.3634 11.3634 11.3634 11.3634 9.99229 9.99229 9.99229 9.99229 10.021 10.021 10.021 10.021 9.98463 9.98463 9.98463 9.98463 9.99359 9.99359 9.99359 9.99359 9.99485 9.99485 9.99485 9.99485 10.0092 10.0092 10.0092 10.0092 10.7324 10.7324 10.7324 10.7324 9.99401 9.99401 9.99401 9.99401 9.97666 9.97666 9.97666 9.97666 10.0859 10.0859 10.0859 10.0859 9.94394 9.94394 9.94394 9.94394 9.98795 9.98795 9.98795 9.98795 9.99601 9.99601 9.99601 9.99601 9.87413 9.87413 9.87413 9.87413 9.99586 9.99586 9.99586 9.99586 9.99927 9.99927 9.99927 9.99927 9.94387 9.94387 9.94387 9.94387 9.92821 9.92821 9.92821 9.92821 9.96007 9.96007 9.96007 9.96007 9.99412 9.99412 9.99412 9.99412 9.95607 9.95607 9.95607 9.95607 9.9946 9.9946 9.9946 9.9946 10.0328 10.0328 10.0328 10.0328 9.99103 9.99103 9.99103 9.99103 10.9544 10.9544 10.9544 10.9544 10.0886 10.0886 10.0886 10.0886 10.049 10.049 10.049 10.049 9.99388 9.99388 9.99388 9.99388 9.96188 9.96188 9.96188 9.96188 9.94323 9.94323 9.94323 9.94323 9.90172 9.90172 9.90172 9.90172 9.87529 9.87529 9.87529 9.87529 3.50321 3.50321 3.50321 3.50321 9.99464 9.99464 9.99464 9.99464 9.96192 9.96192 9.96192 9.96192 10.1387 10.1387 10.1387 10.1387 9.99364 9.99364 9.99364 9.99364 9.99475 9.99475 9.99475 9.99475 9.99198 9.99198 9.99198 9.99198 9.98679 9.98679 9.98679 9.98679 9.99325 9.99325 9.99325 9.99325 9.99503 9.99503 9.99503 9.99503 9.85749 9.85749 9.85749 9.85749 10.191 10.191 10.191 10.191 10.0445 10.0445 10.0445 10.0445 10.043 10.043 10.043 10.043 9.99501 9.99501 9.99501 9.99501 9.97187 9.97187 9.97187 9.97187 9.9047 9.9047 9.9047 9.9047 10.0052 10.0052 10.0052 10.0052 9.9862 9.9862 9.9862 9.9862 9.93628 9.93628 9.93628 9.93628 9.91795 9.91795 9.91795 9.91795 9.99324 9.99324 9.99324 9.99324 11.97 11.97 11.97 11.97 9.97326 9.97326 9.97326 9.97326 10.1196 10.1196 10.1196 10.1196 10.9643 10.9643 10.9643 10.9643 10.0031 10.0031 10.0031 10.0031 9.95187 9.95187 9.95187 9.95187 9.99414 9.99414 9.99414 9.99414 9.99887 9.99887 9.99887 9.99887 9.97375 9.97375 9.97375 9.97375 9.95873 9.95873 9.95873 9.95873 9.96781 9.96781 9.96781 9.96781 9.99541 9.99541 9.99541 9.99541 9.99543 9.99543 9.99543 9.99543 9.97296 9.97296 9.97296 9.97296 10.0178 10.0178 10.0178 10.0178 9.8778 9.8778 9.8778 9.8778 4.81357 4.81357 4.81357 4.81357 9.99537 9.99537 9.99537 9.99537 11.7125 11.7125 11.7125 11.7125 9.89887 9.89887 9.89887 9.89887 9.91188 9.91188 9.91188 9.91188 10.0277 10.0277 10.0277 10.0277 9.88103 9.88103 9.88103 9.88103 9.98181 9.98181 9.98181 9.98181 9.98644 9.98644 9.98644 9.98644 9.96138 9.96138 9.96138 9.96138 9.98968 9.98968 9.98968 9.98968 10.0477 10.0477 10.0477 10.0477 9.99402 9.99402 9.99402 9.99402 9.99631 9.99631 9.99631 9.99631 9.9867 9.9867 9.9867 9.9867 9.98571 9.98571 9.98571 9.98571 9.9849 9.9849 9.9849 9.9849 9.99628 9.99628 9.99628 9.99628 10.0044 10.0044 10.0044 10.0044 10.0371 10.0371 10.0371 10.0371 9.90723 9.90723 9.90723 9.90723 9.99487 9.99487 9.99487 9.99487 9.96146 9.96146 9.96146 9.96146 9.98602 9.98602 9.98602 9.98602 9.94149 9.94149 9.94149 9.94149 9.95169 9.95169 9.95169 9.95169 10.0802 10.0802 10.0802 10.0802 9.98943 9.98943 9.98943 9.98943 9.91791 9.91791 9.91791 9.91791 9.99453 9.99453 9.99453 9.99453 10.0123 10.0123 10.0123 10.0123 10.0188 10.0188 10.0188 10.0188 10.8314 10.8314 10.8314 10.8314 10.2121 10.2121 10.2121 10.2121 10.041 10.041 10.041 10.041 9.99338 9.99338 9.99338 9.99338 9.99535 9.99535 9.99535 9.99535 10.0195 10.0195 10.0195 10.0195 9.92846 9.92846 9.92846 9.92846 9.8657 9.8657 9.8657 9.8657 9.99478 9.99478 9.99478 9.99478 9.99487 9.99487 9.99487 9.99487 9.92157 9.92157 9.92157 9.92157 9.96489 9.96489 9.96489 9.96489 9.98689 9.98689 9.98689 9.98689 9.99143 9.99143 9.99143 9.99143 9.95112 9.95112 9.95112 9.95112 9.99407 9.99407 9.99407 9.99407 9.91872 9.91872 9.91872 9.91872 9.9439 9.9439 9.9439 9.9439 9.98194 9.98194 9.98194 9.98194 9.823 9.823 9.823 9.823 10.9609 10.9609 10.9609 10.9609 9.92919 9.92919 9.92919 9.92919 9.98462 9.98462 9.98462 9.98462 10.7737 10.7737 10.7737 10.7737 9.99535 9.99535 9.99535 9.99535 9.90175 9.90175 9.90175 9.90175 9.97835 9.97835 9.97835 9.97835 9.99412 9.99412 9.99412 9.99412 9.91324 9.91324 9.91324 9.91324 9.95904 9.95904 9.95904 9.95904 9.88063 9.88063 9.88063 9.88063 9.94051 9.94051 9.94051 9.94051 9.938 9.938 9.938 9.938 9.98549 9.98549 9.98549 9.98549 9.99466 9.99466 9.99466 9.99466 9.95526 9.95526 9.95526 9.95526 9.99932 9.99932 9.99932 9.99932 9.97958 9.97958 9.97958 9.97958 9.98067 9.98067 9.98067 9.98067 9.98475 9.98475 9.98475 9.98475 9.994 9.994 9.994 9.994 9.91148 9.91148 9.91148 9.91148 10.1644 10.1644 10.1644 10.1644 10.0878 10.0878 10.0878 10.0878 9.94517 9.94517 9.94517 9.94517 9.99429 9.99429 9.99429 9.99429 9.96871 9.96871 9.96871 9.96871 9.92571 9.92571 9.92571 9.92571 9.98559 9.98559 9.98559 9.98559 9.99651 9.99651 9.99651 9.99651 9.96355 9.96355 9.96355 9.96355 9.98259 9.98259 9.98259 9.98259 9.99447 9.99447 9.99447 9.99447 9.98704 9.98704 9.98704 9.98704 9.95519 9.95519 9.95519 9.95519 9.91233 9.91233 9.91233 9.91233 9.93076 9.93076 9.93076 9.93076 9.98645 9.98645 9.98645 9.98645 9.97815 9.97815 9.97815 9.97815 10.1678 10.1678 10.1678 10.1678 9.98666 9.98666 9.98666 9.98666 9.9444 9.9444 9.9444 9.9444 9.8917 9.8917 9.8917 9.8917 10.0241 10.0241 10.0241 10.0241 9.98573 9.98573 9.98573 9.98573 9.8998 9.8998 9.8998 9.8998 9.96339 9.96339 9.96339 9.96339 9.91863 9.91863 9.91863 9.91863 10.1457 10.1457 10.1457 10.1457 10.2178 10.2178 10.2178 10.2178 10.3259 10.3259 10.3259 10.3259 9.97421 9.97421 9.97421 9.97421 10.1035 10.1035 10.1035 10.1035 9.92305 9.92305 9.92305 9.92305 4.39928 4.39928 4.39928 4.39928 9.99489 9.99489 9.99489 9.99489 9.94759 9.94759 9.94759 9.94759 9.98612 9.98612 9.98612 9.98612 9.97062 9.97062 9.97062 9.97062 7.62124 7.62124 7.62124 7.62124 9.98484 9.98484 9.98484 9.98484 10.6064 10.6064 10.6064 10.6064 10.2371 10.2371 10.2371 10.2371 9.99652 9.99652 9.99652 9.99652 9.92083 9.92083 9.92083 9.92083 9.99365 9.99365 9.99365 9.99365 9.99456 9.99456 9.99456 9.99456 9.98805 9.98805 9.98805 9.98805 9.91456 9.91456 9.91456 9.91456 4.96782 4.96782 4.96782 4.96782 9.98458 9.98458 9.98458 9.98458 10.8031 10.8031 10.8031 10.8031 9.65527 9.65527 9.65527 9.65527 9.90321 9.90321 9.90321 9.90321 9.91558 9.91558 9.91558 9.91558 9.9195 9.9195 9.9195 9.9195 9.96068 9.96068 9.96068 9.96068 9.96876 9.96876 9.96876 9.96876 4.39102 4.39102 4.39102 4.39102 10.0226 10.0226 10.0226 10.0226 9.94894 9.94894 9.94894 9.94894 9.89262 9.89262 9.89262 9.89262 9.98669 9.98669 9.98669 9.98669 9.96041 9.96041 9.96041 9.96041 10.0102 10.0102 10.0102 10.0102 10.0349 10.0349 10.0349 10.0349 9.99374 9.99374 9.99374 9.99374 10.3731 10.3731 10.3731 10.3731 5.51861 5.51861 5.51861 5.51861 11.5787 11.5787 11.5787 11.5787 10.1012 10.1012 10.1012 10.1012 9.99464 9.99464 9.99464 9.99464 9.99616 9.99616 9.99616 9.99616 9.94257 9.94257 9.94257 9.94257 9.95209 9.95209 9.95209 9.95209 9.99412 9.99412 9.99412 9.99412 9.9794 9.9794 9.9794 9.9794 9.8741 9.8741 9.8741 9.8741 10.4962 10.4962 10.4962 10.4962 9.99495 9.99495 9.99495 9.99495 9.98528 9.98528 9.98528 9.98528 9.9552 9.9552 9.9552 9.9552 9.99412 9.99412 9.99412 9.99412 9.87804 9.87804 9.87804 9.87804 9.99372 9.99372 9.99372 9.99372 9.98475 9.98475 9.98475 9.98475 10.1048 10.1048 10.1048 10.1048 9.99307 9.99307 9.99307 9.99307 9.97247 9.97247 9.97247 9.97247 10.2843 10.2843 10.2843 10.2843 10.4065 10.4065 10.4065 10.4065 10.0211 10.0211 10.0211 10.0211 9.87715 9.87715 9.87715 9.87715 9.98248 9.98248 9.98248 9.98248 9.95225 9.95225 9.95225 9.95225 9.9946 9.9946 9.9946 9.9946 9.98449 9.98449 9.98449 9.98449 10.0146 10.0146 10.0146 10.0146 9.98952 9.98952 9.98952 9.98952 9.99647 9.99647 9.99647 9.99647 9.99086 9.99086 9.99086 9.99086 9.9572 9.9572 9.9572 9.9572 9.95956 9.95956 9.95956 9.95956 9.99588 9.99588 9.99588 9.99588 10.0061 10.0061 10.0061 10.0061 9.98073 9.98073 9.98073 9.98073 9.98208 9.98208 9.98208 9.98208 9.99574 9.99574 9.99574 9.99574 9.99335 9.99335 9.99335 9.99335 4.62935 4.62935 4.62935 4.62935 9.96305 9.96305 9.96305 9.96305 9.96177 9.96177 9.96177 9.96177 10.2537 10.2537 10.2537 10.2537 11.5434 11.5434 11.5434 11.5434 9.97401 9.97401 9.97401 9.97401 10.1637 10.1637 10.1637 10.1637 10.8062 10.8062 10.8062 10.8062 9.5018 9.5018 9.5018 9.5018 10.0049 10.0049 10.0049 10.0049 9.99287 9.99287 9.99287 9.99287 9.91146 9.91146 9.91146 9.91146 9.99421 9.99421 9.99421 9.99421 9.95905 9.95905 9.95905 9.95905 10.392 10.392 10.392 10.392 11.0057 11.0057 11.0057 11.0057 10.2397 10.2397 10.2397 10.2397 9.99552 9.99552 9.99552 9.99552 9.93335 9.93335 9.93335 9.93335 9.99072 9.99072 9.99072 9.99072 9.91729 9.91729 9.91729 9.91729 9.98645 9.98645 9.98645 9.98645 9.9885 9.9885 9.9885 9.9885 9.99215 9.99215 9.99215 9.99215 9.99561 9.99561 9.99561 9.99561 9.93779 9.93779 9.93779 9.93779 10.1244 10.1244 10.1244 10.1244 9.987 9.987 9.987 9.987 9.92349 9.92349 9.92349 9.92349 9.91878 9.91878 9.91878 9.91878 9.92816 9.92816 9.92816 9.92816 9.91883 9.91883 9.91883 9.91883 10.7063 10.7063 10.7063 10.7063 9.97865 9.97865 9.97865 9.97865 10.1967 10.1967 10.1967 10.1967 9.96397 9.96397 9.96397 9.96397 9.9703 9.9703 9.9703 9.9703 9.94312 9.94312 9.94312 9.94312 10.0313 10.0313 10.0313 10.0313 9.9864 9.9864 9.9864 9.9864 9.9921 9.9921 9.9921 9.9921 9.98416 9.98416 9.98416 9.98416 10.1477 10.1477 10.1477 10.1477 9.9533 9.9533 9.9533 9.9533 9.98641 9.98641 9.98641 9.98641 10.2431 10.2431 10.2431 10.2431 10.1783 10.1783 10.1783 10.1783 9.96272 9.96272 9.96272 9.96272 9.96447 9.96447 9.96447 9.96447 9.99494 9.99494 9.99494 9.99494 9.96035 9.96035 9.96035 9.96035 9.98547 9.98547 9.98547 9.98547 10.0187 10.0187 10.0187 10.0187 9.90941 9.90941 9.90941 9.90941 10.0168 10.0168 10.0168 10.0168 9.99394 9.99394 9.99394 9.99394 9.99452 9.99452 9.99452 9.99452 4.67619 4.67619 4.67619 4.67619 10.2506 10.2506 10.2506 10.2506 9.96484 9.96484 9.96484 9.96484 9.95407 9.95407 9.95407 9.95407 9.9955 9.9955 9.9955 9.9955 9.99545 9.99545 9.99545 9.99545 9.97297 9.97297 9.97297 9.97297 9.99552 9.99552 9.99552 9.99552 9.98828 9.98828 9.98828 9.98828 9.97946 9.97946 9.97946 9.97946 9.99415 9.99415 9.99415 9.99415 9.99165 9.99165 9.99165 9.99165 9.99342 9.99342 9.99342 9.99342 10.1513 10.1513 10.1513 10.1513 9.97657 9.97657 9.97657 9.97657 10.0026 10.0026 10.0026 10.0026 9.91929 9.91929 9.91929 9.91929 9.98841 9.98841 9.98841 9.98841 9.97839 9.97839 9.97839 9.97839 10.1446 10.1446 10.1446 10.1446 9.93044 9.93044 9.93044 9.93044 9.99643 9.99643 9.99643 9.99643 9.85663 9.85663 9.85663 9.85663 9.99516 9.99516 9.99516 9.99516 9.96615 9.96615 9.96615 9.96615 9.95893 9.95893 9.95893 9.95893 9.98949 9.98949 9.98949 9.98949 9.99516 9.99516 9.99516 9.99516 10.0286 10.0286 10.0286 10.0286 9.99626 9.99626 9.99626 9.99626 10.9298 10.9298 10.9298 10.9298 9.89413 9.89413 9.89413 9.89413 9.99659 9.99659 9.99659 9.99659 9.98603 9.98603 9.98603 9.98603 9.95644 9.95644 9.95644 9.95644 10.2226 10.2226 10.2226 10.2226 10.5484 10.5484 10.5484 10.5484 10.2333 10.2333 10.2333 10.2333 10.2208 10.2208 10.2208 10.2208 9.99499 9.99499 9.99499 9.99499 9.99424 9.99424 9.99424 9.99424 9.99379 9.99379 9.99379 9.99379 9.99733 9.99733 9.99733 9.99733 10.4315 10.4315 10.4315 10.4315 10.1022 10.1022 10.1022 10.1022 9.98487 9.98487 9.98487 9.98487 9.96448 9.96448 9.96448 9.96448 9.99648 9.99648 9.99648 9.99648 10.7368 10.7368 10.7368 10.7368 9.99728 9.99728 9.99728 9.99728 10.971 10.971 10.971 10.971 9.92594 9.92594 9.92594 9.92594 10.851 10.851 10.851 10.851 9.99449 9.99449 9.99449 9.99449 9.93053 9.93053 9.93053 9.93053 9.96725 9.96725 9.96725 9.96725 9.9837 9.9837 9.9837 9.9837 9.89661 9.89661 9.89661 9.89661 9.95059 9.95059 9.95059 9.95059 9.99198 9.99198 9.99198 9.99198 9.99507 9.99507 9.99507 9.99507 10.9054 10.9054 10.9054 10.9054 10.0137 10.0137 10.0137 10.0137 9.91536 9.91536 9.91536 9.91536 11.4358 11.4358 11.4358 11.4358 9.99453 9.99453 9.99453 9.99453 10.7995 10.7995 10.7995 10.7995 9.99548 9.99548 9.99548 9.99548 11.4801 11.4801 11.4801 11.4801 9.99451 9.99451 9.99451 9.99451 9.98778 9.98778 9.98778 9.98778 10 10 10 10 9.99294 9.99294 9.99294 9.99294 10.0073 10.0073 10.0073 10.0073 9.96931 9.96931 9.96931 9.96931 9.93987 9.93987 9.93987 9.93987 10.0146 10.0146 10.0146 10.0146 10.0072 10.0072 10.0072 10.0072 9.90407 9.90407 9.90407 9.90407 9.99584 9.99584 9.99584 9.99584 10.0032 10.0032 10.0032 10.0032 9.99574 9.99574 9.99574 9.99574 10.0027 10.0027 10.0027 10.0027 9.99544 9.99544 9.99544 9.99544 9.99477 9.99477 9.99477 9.99477 10.0158 10.0158 10.0158 10.0158 9.99554 9.99554 9.99554 9.99554 9.90518 9.90518 9.90518 9.90518 10.2157 10.2157 10.2157 10.2157 9.98836 9.98836 9.98836 9.98836 9.99542 9.99542 9.99542 9.99542 9.99626 9.99626 9.99626 9.99626 9.99479 9.99479 9.99479 9.99479 9.99091 9.99091 9.99091 9.99091 9.99597 9.99597 9.99597 9.99597 9.99323 9.99323 9.99323 9.99323 10.1724 10.1724 10.1724 10.1724 9.9957 9.9957 9.9957 9.9957 10.208 10.208 10.208 10.208 3.86474 3.86474 3.86474 3.86474 9.90787 9.90787 9.90787 9.90787 9.92934 9.92934 9.92934 9.92934 9.99545 9.99545 9.99545 9.99545 9.99543 9.99543 9.99543 9.99543 9.9816 9.9816 9.9816 9.9816 9.99679 9.99679 9.99679 9.99679 9.99588 9.99588 9.99588 9.99588 9.99492 9.99492 9.99492 9.99492 9.97971 9.97971 9.97971 9.97971 9.9851 9.9851 9.9851 9.9851 10.2528 10.2528 10.2528 10.2528 9.9954 9.9954 9.9954 9.9954 10.1331 10.1331 10.1331 10.1331 9.97882 9.97882 9.97882 9.97882 9.99983 9.99983 9.99983 9.99983 9.99681 9.99681 9.99681 9.99681 9.99657 9.99657 9.99657 9.99657 9.98828 9.98828 9.98828 9.98828 9.99716 9.99716 9.99716 9.99716 10.0025 10.0025 10.0025 10.0025 9.9971 9.9971 9.9971 9.9971 10.0092 10.0092 10.0092 10.0092 9.99604 9.99604 9.99604 9.99604 9.9984 9.9984 9.9984 9.9984 9.98722 9.98722 9.98722 9.98722 9.99614 9.99614 9.99614 9.99614 9.9967 9.9967 9.9967 9.9967 9.96705 9.96705 9.96705 9.96705 9.99575 9.99575 9.99575 9.99575 10.0438 10.0438 10.0438 10.0438 9.99269 9.99269 9.99269 9.99269 10.0102 10.0102 10.0102 10.0102 9.98895 9.98895 9.98895 9.98895 9.93963 9.93963 9.93963 9.93963 9.98692 9.98692 9.98692 9.98692 9.99664 9.99664 9.99664 9.99664 10.0189 10.0189 10.0189 10.0189 9.98961 9.98961 9.98961 9.98961 9.99637 9.99637 9.99637 9.99637 9.99529 9.99529 9.99529 9.99529 9.97422 9.97422 9.97422 9.97422 9.9978 9.9978 9.9978 9.9978 9.98985 9.98985 9.98985 9.98985 9.9955 9.9955 9.9955 9.9955 9.99271 9.99271 9.99271 9.99271 10.0049 10.0049 10.0049 10.0049 10.0147 10.0147 10.0147 10.0147 9.98438 9.98438 9.98438 9.98438 9.99712 9.99712 9.99712 9.99712 10.0093 10.0093 10.0093 10.0093 10.0096 10.0096 10.0096 10.0096 9.99126 9.99126 9.99126 9.99126 9.97594 9.97594 9.97594 9.97594 9.93969 9.93969 9.93969 9.93969 9.93417 9.93417 9.93417 9.93417 9.93768 9.93768 9.93768 9.93768 9.94289 9.94289 9.94289 9.94289 9.90729 9.90729 9.90729 9.90729 9.93578 9.93578 9.93578 9.93578 10.0989 10.0989 10.0989 10.0989 9.98553 9.98553 9.98553 9.98553 9.99824 9.99824 9.99824 9.99824 9.96911 9.96911 9.96911 9.96911 10.1875 10.1875 10.1875 10.1875 10.1345 10.1345 10.1345 10.1345 10.1688 10.1688 10.1688 10.1688 9.69297 9.69297 9.69297 9.69297 10.722 10.722 10.722 10.722 9.99291 9.99291 9.99291 9.99291 9.87372 9.87372 9.87372 9.87372 9.86713 9.86713 9.86713 9.86713 9.86398 9.86398 9.86398 9.86398 10.1763 10.1763 10.1763 10.1763 9.96468 9.96468 9.96468 9.96468 9.96188 9.96188 9.96188 9.96188 9.93522 9.93522 9.93522 9.93522 11.1465 11.1465 11.1465 11.1465 9.91282 9.91282 9.91282 9.91282 9.92611 9.92611 9.92611 9.92611 9.93522 9.93522 9.93522 9.93522 9.94037 9.94037 9.94037 9.94037 9.93851 9.93851 9.93851 9.93851 9.94104 9.94104 9.94104 9.94104 9.64319 9.64319 9.64319 9.64319 9.67496 9.67496 9.67496 9.67496 9.9411 9.9411 9.9411 9.9411 9.94102 9.94102 9.94102 9.94102 9.99313 9.99313 9.99313 9.99313 9.97998 9.97998 9.97998 9.97998 9.94027 9.94027 9.94027 9.94027 10.3182 10.3182 10.3182 10.3182 9.64285 9.64285 9.64285 9.64285 9.61073 9.61073 9.61073 9.61073 9.93154 9.93154 9.93154 9.93154 9.93331 9.93331 9.93331 9.93331 9.93282 9.93282 9.93282 9.93282 9.69531 9.69531 9.69531 9.69531 9.98936 9.98936 9.98936 9.98936 10.8378 10.8378 10.8378 10.8378 9.91773 9.91773 9.91773 9.91773 9.88304 9.88304 9.88304 9.88304 9.98583 9.98583 9.98583 9.98583 9.97621 9.97621 9.97621 9.97621 9.95914 9.95914 9.95914 9.95914 9.96085 9.96085 9.96085 9.96085 8.46485 8.46485 8.46485 8.46485 9.60015 9.60015 9.60015 9.60015 10.0137 10.0137 10.0137 10.0137 10.0271 10.0271 10.0271 10.0271 9.9302 9.9302 9.9302 9.9302 9.94183 9.94183 9.94183 9.94183 9.92677 9.92677 9.92677 9.92677 9.94516 9.94516 9.94516 9.94516 9.95237 9.95237 9.95237 9.95237 9.87257 9.87257 9.87257 9.87257 9.91671 9.91671 9.91671 9.91671 9.89109 9.89109 9.89109 9.89109 9.88779 9.88779 9.88779 9.88779 9.89776 9.89776 9.89776 9.89776 10.2368 10.2368 10.2368 10.2368 10.2281 10.2281 10.2281 10.2281 9.94434 9.94434 9.94434 9.94434 9.93805 9.93805 9.93805 9.93805 9.90193 9.90193 9.90193 9.90193 9.88194 9.88194 9.88194 9.88194 11.2978 11.2978 11.2978 11.2978 10.5708 10.5708 10.5708 10.5708 9.96913 9.96913 9.96913 9.96913 10.7792 10.7792 10.7792 10.7792 9.94082 9.94082 9.94082 9.94082 9.94432 9.94432 9.94432 9.94432 10.1987 10.1987 10.1987 10.1987 10.0964 10.0964 10.0964 10.0964 9.85962 9.85962 9.85962 9.85962 9.92688 9.92688 9.92688 9.92688 9.87841 9.87841 9.87841 9.87841 9.88644 9.88644 9.88644 9.88644 10.7085 10.7085 10.7085 10.7085 9.92096 9.92096 9.92096 9.92096 9.91161 9.91161 9.91161 9.91161 9.93279 9.93279 9.93279 9.93279 9.90747 9.90747 9.90747 9.90747 9.92385 9.92385 9.92385 9.92385 9.99244 9.99244 9.99244 9.99244 9.98548 9.98548 9.98548 9.98548 9.97537 9.97537 9.97537 9.97537 9.92884 9.92884 9.92884 9.92884 11.0024 11.0024 11.0024 11.0024 9.56204 9.56204 9.56204 9.56204 11.5949 11.5949 11.5949 11.5949 10.1653 10.1653 10.1653 10.1653 9.838 9.838 9.838 9.838 9.87626 9.87626 9.87626 9.87626 9.93114 9.93114 9.93114 9.93114 9.90329 9.90329 9.90329 9.90329 9.99218 9.99218 9.99218 9.99218 9.98614 9.98614 9.98614 9.98614 9.95566 9.95566 9.95566 9.95566 9.98631 9.98631 9.98631 9.98631 9.99166 9.99166 9.99166 9.99166 9.98669 9.98669 9.98669 9.98669 9.93791 9.93791 9.93791 9.93791 9.92701 9.92701 9.92701 9.92701 10.8519 10.8519 10.8519 10.8519 10.0637 10.0637 10.0637 10.0637 9.87364 9.87364 9.87364 9.87364 9.98899 9.98899 9.98899 9.98899 9.97618 9.97618 9.97618 9.97618 9.98552 9.98552 9.98552 9.98552 9.986 9.986 9.986 9.986 9.99206 9.99206 9.99206 9.99206 8.74439 8.74439 8.74439 8.74439 9.73955 9.73955 9.73955 9.73955 10.0786 10.0786 10.0786 10.0786 10.0141 10.0141 10.0141 10.0141 9.98397 9.98397 9.98397 9.98397 9.97405 9.97405 9.97405 9.97405 -9.8323 -9.8323 -9.8323 -9.8323 -9.88244 -9.88244 -9.88244 -9.88244 -9.93052 -9.93052 -9.93052 -9.93052 -9.89982 -9.89982 -9.89982 -9.89982 -9.93538 -9.93538 -9.93538 -9.93538 -9.91569 -9.91569 -9.91569 -9.91569 -9.90827 -9.90827 -9.90827 -9.90827 -9.90166 -9.90166 -9.90166 -9.90166 -9.91082 -9.91082 -9.91082 -9.91082 -9.91818 -9.91818 -9.91818 -9.91818 -9.91838 -9.91838 -9.91838 -9.91838 -9.97654 -9.97654 -9.97654 -9.97654 -10.1409 -10.1409 -10.1409 -10.1409 -9.85736 -9.85736 -9.85736 -9.85736 -9.94866 -9.94866 -9.94866 -9.94866 -9.94475 -9.94475 -9.94475 -9.94475 -9.93739 -9.93739 -9.93739 -9.93739 -9.93938 -9.93938 -9.93938 -9.93938 -9.94442 -9.94442 -9.94442 -9.94442 -9.91219 -9.91219 -9.91219 -9.91219 -10.0085 -10.0085 -10.0085 -10.0085 -9.92678 -9.92678 -9.92678 -9.92678 -10.4742 -10.4742 -10.4742 -10.4742 -9.93568 -9.93568 -9.93568 -9.93568 -10.0154 -10.0154 -10.0154 -10.0154 -9.94857 -9.94857 -9.94857 -9.94857 -9.97744 -9.97744 -9.97744 -9.97744 -9.89756 -9.89756 -9.89756 -9.89756 -9.94785 -9.94785 -9.94785 -9.94785 -9.86975 -9.86975 -9.86975 -9.86975 -9.93004 -9.93004 -9.93004 -9.93004 -9.93822 -9.93822 -9.93822 -9.93822 -9.94305 -9.94305 -9.94305 -9.94305 -10.1765 -10.1765 -10.1765 -10.1765 -9.94496 -9.94496 -9.94496 -9.94496 -10.2062 -10.2062 -10.2062 -10.2062 -9.94266 -9.94266 -9.94266 -9.94266 -9.93637 -9.93637 -9.93637 -9.93637 -9.93641 -9.93641 -9.93641 -9.93641 -9.84188 -9.84188 -9.84188 -9.84188 -9.43779 -9.43779 -9.43779 -9.43779 -9.96587 -9.96587 -9.96587 -9.96587 -9.90056 -9.90056 -9.90056 -9.90056 -9.93566 -9.93566 -9.93566 -9.93566 -9.96424 -9.96424 -9.96424 -9.96424 -9.97766 -9.97766 -9.97766 -9.97766 -9.95153 -9.95153 -9.95153 -9.95153 -9.93492 -9.93492 -9.93492 -9.93492 -7.88887 -7.88887 -7.88887 -7.88887 -9.91827 -9.91827 -9.91827 -9.91827 -9.92168 -9.92168 -9.92168 -9.92168 -9.93828 -9.93828 -9.93828 -9.93828 -9.95346 -9.95346 -9.95346 -9.95346 -10.1542 -10.1542 -10.1542 -10.1542 -9.93772 -9.93772 -9.93772 -9.93772 -9.99246 -9.99246 -9.99246 -9.99246 -9.42486 -9.42486 -9.42486 -9.42486 -9.57561 -9.57561 -9.57561 -9.57561 -9.98053 -9.98053 -9.98053 -9.98053 -9.8588 -9.8588 -9.8588 -9.8588 -9.93895 -9.93895 -9.93895 -9.93895 -9.9398 -9.9398 -9.9398 -9.9398 -9.97041 -9.97041 -9.97041 -9.97041 -9.97617 -9.97617 -9.97617 -9.97617 -9.96771 -9.96771 -9.96771 -9.96771 -9.77036 -9.77036 -9.77036 -9.77036 -9.90206 -9.90206 -9.90206 -9.90206 -9.90569 -9.90569 -9.90569 -9.90569 -9.95832 -9.95832 -9.95832 -9.95832 -9.89821 -9.89821 -9.89821 -9.89821 -9.92921 -9.92921 -9.92921 -9.92921 -9.99232 -9.99232 -9.99232 -9.99232 -9.96944 -9.96944 -9.96944 -9.96944 -10.2267 -10.2267 -10.2267 -10.2267 -9.90566 -9.90566 -9.90566 -9.90566 -9.9515 -9.9515 -9.9515 -9.9515 -9.94154 -9.94154 -9.94154 -9.94154 -9.96925 -9.96925 -9.96925 -9.96925 -9.88146 -9.88146 -9.88146 -9.88146 -9.89707 -9.89707 -9.89707 -9.89707 -9.89648 -9.89648 -9.89648 -9.89648 -9.90931 -9.90931 -9.90931 -9.90931 -9.91858 -9.91858 -9.91858 -9.91858 -9.95718 -9.95718 -9.95718 -9.95718 -9.94313 -9.94313 -9.94313 -9.94313 -9.85954 -9.85954 -9.85954 -9.85954 -9.83772 -9.83772 -9.83772 -9.83772 -10.1304 -10.1304 -10.1304 -10.1304 -10.0803 -10.0803 -10.0803 -10.0803 -9.88844 -9.88844 -9.88844 -9.88844 -9.92579 -9.92579 -9.92579 -9.92579 -9.95618 -9.95618 -9.95618 -9.95618 -9.92935 -9.92935 -9.92935 -9.92935 -9.96712 -9.96712 -9.96712 -9.96712 -9.92249 -9.92249 -9.92249 -9.92249 -9.94936 -9.94936 -9.94936 -9.94936 -10.0065 -10.0065 -10.0065 -10.0065 -9.90939 -9.90939 -9.90939 -9.90939 -10.1217 -10.1217 -10.1217 -10.1217 -9.97093 -9.97093 -9.97093 -9.97093 -9.97273 -9.97273 -9.97273 -9.97273 -9.97753 -9.97753 -9.97753 -9.97753 -9.93957 -9.93957 -9.93957 -9.93957 -10.0544 -10.0544 -10.0544 -10.0544 -9.92602 -9.92602 -9.92602 -9.92602 -9.90515 -9.90515 -9.90515 -9.90515 -9.87158 -9.87158 -9.87158 -9.87158 -9.93218 -9.93218 -9.93218 -9.93218 -6.69405 -6.69405 -6.69405 -6.69405 -10.1532 -10.1532 -10.1532 -10.1532 -9.90351 -9.90351 -9.90351 -9.90351 -9.96096 -9.96096 -9.96096 -9.96096 -9.88391 -9.88391 -9.88391 -9.88391 -10.0169 -10.0169 -10.0169 -10.0169 -9.95098 -9.95098 -9.95098 -9.95098 -9.95298 -9.95298 -9.95298 -9.95298 -9.88692 -9.88692 -9.88692 -9.88692 -9.96543 -9.96543 -9.96543 -9.96543 -9.94008 -9.94008 -9.94008 -9.94008 -9.90785 -9.90785 -9.90785 -9.90785 -9.94479 -9.94479 -9.94479 -9.94479 -9.92734 -9.92734 -9.92734 -9.92734 -9.92021 -9.92021 -9.92021 -9.92021 -9.96874 -9.96874 -9.96874 -9.96874 -9.88685 -9.88685 -9.88685 -9.88685 -9.90465 -9.90465 -9.90465 -9.90465 -9.83184 -9.83184 -9.83184 -9.83184 -9.39903 -9.39903 -9.39903 -9.39903 -9.90967 -9.90967 -9.90967 -9.90967 -9.96536 -9.96536 -9.96536 -9.96536 -9.99798 -9.99798 -9.99798 -9.99798 -9.79721 -9.79721 -9.79721 -9.79721 -9.89132 -9.89132 -9.89132 -9.89132 -9.90624 -9.90624 -9.90624 -9.90624 -9.9168 -9.9168 -9.9168 -9.9168 -9.90278 -9.90278 -9.90278 -9.90278 -9.90864 -9.90864 -9.90864 -9.90864 -9.89904 -9.89904 -9.89904 -9.89904 -9.91645 -9.91645 -9.91645 -9.91645 -9.92401 -9.92401 -9.92401 -9.92401 -10.1645 -10.1645 -10.1645 -10.1645 -9.99013 -9.99013 -9.99013 -9.99013 -9.88544 -9.88544 -9.88544 -9.88544 -9.92765 -9.92765 -9.92765 -9.92765 -9.99262 -9.99262 -9.99262 -9.99262 -9.9334 -9.9334 -9.9334 -9.9334 -10.1152 -10.1152 -10.1152 -10.1152 -9.95235 -9.95235 -9.95235 -9.95235 -9.96888 -9.96888 -9.96888 -9.96888 -9.96848 -9.96848 -9.96848 -9.96848 -9.88414 -9.88414 -9.88414 -9.88414 -9.93563 -9.93563 -9.93563 -9.93563 -9.91697 -9.91697 -9.91697 -9.91697 -9.93551 -9.93551 -9.93551 -9.93551 -9.90847 -9.90847 -9.90847 -9.90847 -9.91129 -9.91129 -9.91129 -9.91129 -9.94522 -9.94522 -9.94522 -9.94522 -9.96688 -9.96688 -9.96688 -9.96688 -10.1277 -10.1277 -10.1277 -10.1277 -9.9149 -9.9149 -9.9149 -9.9149 -9.81241 -9.81241 -9.81241 -9.81241 -9.95838 -9.95838 -9.95838 -9.95838 -9.84694 -9.84694 -9.84694 -9.84694 -9.85311 -9.85311 -9.85311 -9.85311 -9.95305 -9.95305 -9.95305 -9.95305 -9.961 -9.961 -9.961 -9.961 -9.92139 -9.92139 -9.92139 -9.92139 -9.93387 -9.93387 -9.93387 -9.93387 -9.96487 -9.96487 -9.96487 -9.96487 -9.90962 -9.90962 -9.90962 -9.90962 -9.96228 -9.96228 -9.96228 -9.96228 -9.9628 -9.9628 -9.9628 -9.9628 -9.95942 -9.95942 -9.95942 -9.95942 -9.94644 -9.94644 -9.94644 -9.94644 -9.95861 -9.95861 -9.95861 -9.95861 -9.97632 -9.97632 -9.97632 -9.97632 -9.95159 -9.95159 -9.95159 -9.95159 -10.3132 -10.3132 -10.3132 -10.3132 -9.93945 -9.93945 -9.93945 -9.93945 -9.32405 -9.32405 -9.32405 -9.32405 -9.8701 -9.8701 -9.8701 -9.8701 -9.87487 -9.87487 -9.87487 -9.87487 -9.98138 -9.98138 -9.98138 -9.98138 -9.96644 -9.96644 -9.96644 -9.96644 -9.94056 -9.94056 -9.94056 -9.94056 -9.96542 -9.96542 -9.96542 -9.96542 -9.86647 -9.86647 -9.86647 -9.86647 -9.96786 -9.96786 -9.96786 -9.96786 -9.95219 -9.95219 -9.95219 -9.95219 -10.0165 -10.0165 -10.0165 -10.0165 -10.6443 -10.6443 -10.6443 -10.6443 -10.1599 -10.1599 -10.1599 -10.1599 -9.95988 -9.95988 -9.95988 -9.95988 -9.24441 -9.24441 -9.24441 -9.24441 -9.98316 -9.98316 -9.98316 -9.98316 -9.93359 -9.93359 -9.93359 -9.93359 -9.92828 -9.92828 -9.92828 -9.92828 -9.92656 -9.92656 -9.92656 -9.92656 -10.1178 -10.1178 -10.1178 -10.1178 -9.95178 -9.95178 -9.95178 -9.95178 -9.74197 -9.74197 -9.74197 -9.74197 -9.91371 -9.91371 -9.91371 -9.91371 -9.92872 -9.92872 -9.92872 -9.92872 -9.69339 -9.69339 -9.69339 -9.69339 -10.3589 -10.3589 -10.3589 -10.3589 -9.87763 -9.87763 -9.87763 -9.87763 -9.93911 -9.93911 -9.93911 -9.93911 -9.93132 -9.93132 -9.93132 -9.93132 -10.2208 -10.2208 -10.2208 -10.2208 -9.957 -9.957 -9.957 -9.957 -9.93572 -9.93572 -9.93572 -9.93572 -9.96772 -9.96772 -9.96772 -9.96772 -9.96862 -9.96862 -9.96862 -9.96862 -9.92537 -9.92537 -9.92537 -9.92537 -9.95663 -9.95663 -9.95663 -9.95663 -10.021 -10.021 -10.021 -10.021 -9.95222 -9.95222 -9.95222 -9.95222 -10.1214 -10.1214 -10.1214 -10.1214 -9.90831 -9.90831 -9.90831 -9.90831 -9.93534 -9.93534 -9.93534 -9.93534 -9.98188 -9.98188 -9.98188 -9.98188 -9.9564 -9.9564 -9.9564 -9.9564 -9.92373 -9.92373 -9.92373 -9.92373 -9.96241 -9.96241 -9.96241 -9.96241 -9.93105 -9.93105 -9.93105 -9.93105 -9.97768 -9.97768 -9.97768 -9.97768 -9.9109 -9.9109 -9.9109 -9.9109 -9.86177 -9.86177 -9.86177 -9.86177 -9.9464 -9.9464 -9.9464 -9.9464 -9.98109 -9.98109 -9.98109 -9.98109 -9.95434 -9.95434 -9.95434 -9.95434 -9.97486 -9.97486 -9.97486 -9.97486 -10.1777 -10.1777 -10.1777 -10.1777 -9.95692 -9.95692 -9.95692 -9.95692 -9.92685 -9.92685 -9.92685 -9.92685 -9.9286 -9.9286 -9.9286 -9.9286 -9.89697 -9.89697 -9.89697 -9.89697 -9.94022 -9.94022 -9.94022 -9.94022 -9.97817 -9.97817 -9.97817 -9.97817 -9.9418 -9.9418 -9.9418 -9.9418 -9.92824 -9.92824 -9.92824 -9.92824 -9.96929 -9.96929 -9.96929 -9.96929 -9.92672 -9.92672 -9.92672 -9.92672 -9.97671 -9.97671 -9.97671 -9.97671 -9.99959 -9.99959 -9.99959 -9.99959 -9.96106 -9.96106 -9.96106 -9.96106 -9.95252 -9.95252 -9.95252 -9.95252 -9.96742 -9.96742 -9.96742 -9.96742 -9.98382 -9.98382 -9.98382 -9.98382 -9.92358 -9.92358 -9.92358 -9.92358 -9.97589 -9.97589 -9.97589 -9.97589 -9.905 -9.905 -9.905 -9.905 -9.95819 -9.95819 -9.95819 -9.95819 -9.9419 -9.9419 -9.9419 -9.9419 -9.98324 -9.98324 -9.98324 -9.98324 -9.95162 -9.95162 -9.95162 -9.95162 -9.95316 -9.95316 -9.95316 -9.95316 -9.82826 -9.82826 -9.82826 -9.82826 -9.93995 -9.93995 -9.93995 -9.93995 -10.5138 -10.5138 -10.5138 -10.5138 -9.99083 -9.99083 -9.99083 -9.99083 -9.98034 -9.98034 -9.98034 -9.98034 -9.8296 -9.8296 -9.8296 -9.8296 -9.97743 -9.97743 -9.97743 -9.97743 -9.96745 -9.96745 -9.96745 -9.96745 -9.96793 -9.96793 -9.96793 -9.96793 -9.97496 -9.97496 -9.97496 -9.97496 -9.82029 -9.82029 -9.82029 -9.82029 -9.90511 -9.90511 -9.90511 -9.90511 -9.87937 -9.87937 -9.87937 -9.87937 -10.0547 -10.0547 -10.0547 -10.0547 -10.1772 -10.1772 -10.1772 -10.1772 -9.92642 -9.92642 -9.92642 -9.92642 -10.1919 -10.1919 -10.1919 -10.1919 -9.97279 -9.97279 -9.97279 -9.97279 -10.098 -10.098 -10.098 -10.098 -9.98392 -9.98392 -9.98392 -9.98392 -9.86792 -9.86792 -9.86792 -9.86792 -9.94567 -9.94567 -9.94567 -9.94567 -9.96419 -9.96419 -9.96419 -9.96419 -9.92619 -9.92619 -9.92619 -9.92619 -9.93485 -9.93485 -9.93485 -9.93485 -9.90189 -9.90189 -9.90189 -9.90189 -9.93346 -9.93346 -9.93346 -9.93346 -10.2755 -10.2755 -10.2755 -10.2755 -9.9233 -9.9233 -9.9233 -9.9233 -9.92427 -9.92427 -9.92427 -9.92427 -9.97276 -9.97276 -9.97276 -9.97276 -9.9302 -9.9302 -9.9302 -9.9302 -9.98188 -9.98188 -9.98188 -9.98188 -9.85579 -9.85579 -9.85579 -9.85579 -10.4833 -10.4833 -10.4833 -10.4833 -10.1175 -10.1175 -10.1175 -10.1175 -9.87884 -9.87884 -9.87884 -9.87884 -9.93411 -9.93411 -9.93411 -9.93411 -9.96428 -9.96428 -9.96428 -9.96428 -9.99077 -9.99077 -9.99077 -9.99077 -10.3251 -10.3251 -10.3251 -10.3251 -9.96316 -9.96316 -9.96316 -9.96316 -9.97975 -9.97975 -9.97975 -9.97975 -9.96888 -9.96888 -9.96888 -9.96888 -10.4026 -10.4026 -10.4026 -10.4026 -10.0313 -10.0313 -10.0313 -10.0313 -9.9979 -9.9979 -9.9979 -9.9979 -9.96785 -9.96785 -9.96785 -9.96785 -9.93845 -9.93845 -9.93845 -9.93845 -9.92477 -9.92477 -9.92477 -9.92477 -9.93588 -9.93588 -9.93588 -9.93588 -9.93947 -9.93947 -9.93947 -9.93947 -9.99277 -9.99277 -9.99277 -9.99277 -9.82243 -9.82243 -9.82243 -9.82243 -10.121 -10.121 -10.121 -10.121 -9.9811 -9.9811 -9.9811 -9.9811 -10.1579 -10.1579 -10.1579 -10.1579 -8.88575 -8.88575 -8.88575 -8.88575 -9.64853 -9.64853 -9.64853 -9.64853 -9.86421 -9.86421 -9.86421 -9.86421 -9.93295 -9.93295 -9.93295 -9.93295 -9.9103 -9.9103 -9.9103 -9.9103 -9.92956 -9.92956 -9.92956 -9.92956 -9.82451 -9.82451 -9.82451 -9.82451 -9.96428 -9.96428 -9.96428 -9.96428 -9.91009 -9.91009 -9.91009 -9.91009 -9.97156 -9.97156 -9.97156 -9.97156 -10.212 -10.212 -10.212 -10.212 -9.99242 -9.99242 -9.99242 -9.99242 -9.96514 -9.96514 -9.96514 -9.96514 -9.9392 -9.9392 -9.9392 -9.9392 -9.979 -9.979 -9.979 -9.979 -9.87451 -9.87451 -9.87451 -9.87451 -9.95209 -9.95209 -9.95209 -9.95209 -10.1882 -10.1882 -10.1882 -10.1882 -10.155 -10.155 -10.155 -10.155 -9.95501 -9.95501 -9.95501 -9.95501 -10.2169 -10.2169 -10.2169 -10.2169 -10.4784 -10.4784 -10.4784 -10.4784 -10.5408 -10.5408 -10.5408 -10.5408 -9.76087 -9.76087 -9.76087 -9.76087 -9.72632 -9.72632 -9.72632 -9.72632 -9.96547 -9.96547 -9.96547 -9.96547 -9.81455 -9.81455 -9.81455 -9.81455 -9.96481 -9.96481 -9.96481 -9.96481 -9.98211 -9.98211 -9.98211 -9.98211 -10.2382 -10.2382 -10.2382 -10.2382 -9.9393 -9.9393 -9.9393 -9.9393 -10.1203 -10.1203 -10.1203 -10.1203 -10.2406 -10.2406 -10.2406 -10.2406 -10.1484 -10.1484 -10.1484 -10.1484 -9.96134 -9.96134 -9.96134 -9.96134 -9.71667 -9.71667 -9.71667 -9.71667 -9.97941 -9.97941 -9.97941 -9.97941 -9.87275 -9.87275 -9.87275 -9.87275 -10.26 -10.26 -10.26 -10.26 -10.0828 -10.0828 -10.0828 -10.0828 -9.96903 -9.96903 -9.96903 -9.96903 -10.0749 -10.0749 -10.0749 -10.0749 -9.88781 -9.88781 -9.88781 -9.88781 -9.95055 -9.95055 -9.95055 -9.95055 -10.0268 -10.0268 -10.0268 -10.0268 -10.093 -10.093 -10.093 -10.093 -10.1539 -10.1539 -10.1539 -10.1539 -10.1736 -10.1736 -10.1736 -10.1736 -10.1374 -10.1374 -10.1374 -10.1374 -9.82612 -9.82612 -9.82612 -9.82612 -9.95458 -9.95458 -9.95458 -9.95458 -9.92864 -9.92864 -9.92864 -9.92864 -9.98263 -9.98263 -9.98263 -9.98263 -9.82041 -9.82041 -9.82041 -9.82041 -9.86968 -9.86968 -9.86968 -9.86968 -9.91798 -9.91798 -9.91798 -9.91798 -9.88796 -9.88796 -9.88796 -9.88796 -10.1628 -10.1628 -10.1628 -10.1628 -9.86962 -9.86962 -9.86962 -9.86962 -9.89628 -9.89628 -9.89628 -9.89628 -10.1268 -10.1268 -10.1268 -10.1268 -9.97511 -9.97511 -9.97511 -9.97511 -9.89317 -9.89317 -9.89317 -9.89317 -9.83667 -9.83667 -9.83667 -9.83667 -9.99324 -9.99324 -9.99324 -9.99324 -9.97009 -9.97009 -9.97009 -9.97009 -9.96157 -9.96157 -9.96157 -9.96157 -10.1483 -10.1483 -10.1483 -10.1483 -9.93889 -9.93889 -9.93889 -9.93889 -9.97244 -9.97244 -9.97244 -9.97244 -9.9005 -9.9005 -9.9005 -9.9005 -10.0686 -10.0686 -10.0686 -10.0686 -9.82622 -9.82622 -9.82622 -9.82622 -9.97218 -9.97218 -9.97218 -9.97218 -9.99573 -9.99573 -9.99573 -9.99573 -9.93866 -9.93866 -9.93866 -9.93866 -9.98034 -9.98034 -9.98034 -9.98034 -10.0284 -10.0284 -10.0284 -10.0284 -9.96591 -9.96591 -9.96591 -9.96591 -9.87551 -9.87551 -9.87551 -9.87551 -10.1317 -10.1317 -10.1317 -10.1317 -9.97828 -9.97828 -9.97828 -9.97828 -9.91085 -9.91085 -9.91085 -9.91085 -9.93929 -9.93929 -9.93929 -9.93929 -10.259 -10.259 -10.259 -10.259 -9.90346 -9.90346 -9.90346 -9.90346 -9.95876 -9.95876 -9.95876 -9.95876 -9.95114 -9.95114 -9.95114 -9.95114 -9.91381 -9.91381 -9.91381 -9.91381 -9.9219 -9.9219 -9.9219 -9.9219 -9.95472 -9.95472 -9.95472 -9.95472 -9.89017 -9.89017 -9.89017 -9.89017 -9.94506 -9.94506 -9.94506 -9.94506 -9.9429 -9.9429 -9.9429 -9.9429 -9.86022 -9.86022 -9.86022 -9.86022 -9.96151 -9.96151 -9.96151 -9.96151 -10.0529 -10.0529 -10.0529 -10.0529 -10.1543 -10.1543 -10.1543 -10.1543 -9.93508 -9.93508 -9.93508 -9.93508 -10.0123 -10.0123 -10.0123 -10.0123 -9.9371 -9.9371 -9.9371 -9.9371 -9.96186 -9.96186 -9.96186 -9.96186 -9.94218 -9.94218 -9.94218 -9.94218 -9.9164 -9.9164 -9.9164 -9.9164 -9.96764 -9.96764 -9.96764 -9.96764 -10.26 -10.26 -10.26 -10.26 -9.88142 -9.88142 -9.88142 -9.88142 -9.70306 -9.70306 -9.70306 -9.70306 -9.93088 -9.93088 -9.93088 -9.93088 -9.83195 -9.83195 -9.83195 -9.83195 -9.97843 -9.97843 -9.97843 -9.97843 -9.93283 -9.93283 -9.93283 -9.93283 -9.81305 -9.81305 -9.81305 -9.81305 -9.97982 -9.97982 -9.97982 -9.97982 -9.98708 -9.98708 -9.98708 -9.98708 -9.89608 -9.89608 -9.89608 -9.89608 -9.88373 -9.88373 -9.88373 -9.88373 -9.9641 -9.9641 -9.9641 -9.9641 -9.98603 -9.98603 -9.98603 -9.98603 -9.93611 -9.93611 -9.93611 -9.93611 -9.10025 -9.10025 -9.10025 -9.10025 -9.91051 -9.91051 -9.91051 -9.91051 -9.85354 -9.85354 -9.85354 -9.85354 -9.9951 -9.9951 -9.9951 -9.9951 -9.87305 -9.87305 -9.87305 -9.87305 -9.93613 -9.93613 -9.93613 -9.93613 -9.91602 -9.91602 -9.91602 -9.91602 -9.96355 -9.96355 -9.96355 -9.96355 -9.90395 -9.90395 -9.90395 -9.90395 -9.99626 -9.99626 -9.99626 -9.99626 -10.1306 -10.1306 -10.1306 -10.1306 -9.93329 -9.93329 -9.93329 -9.93329 -9.89266 -9.89266 -9.89266 -9.89266 -9.98215 -9.98215 -9.98215 -9.98215 -9.99098 -9.99098 -9.99098 -9.99098 -9.98386 -9.98386 -9.98386 -9.98386 -9.87244 -9.87244 -9.87244 -9.87244 -9.217 -9.217 -9.217 -9.217 -9.92271 -9.92271 -9.92271 -9.92271 -9.9837 -9.9837 -9.9837 -9.9837 -9.91681 -9.91681 -9.91681 -9.91681 -9.92382 -9.92382 -9.92382 -9.92382 -10.1352 -10.1352 -10.1352 -10.1352 -10.0018 -10.0018 -10.0018 -10.0018 -9.81926 -9.81926 -9.81926 -9.81926 -9.97178 -9.97178 -9.97178 -9.97178 -9.98983 -9.98983 -9.98983 -9.98983 -9.90116 -9.90116 -9.90116 -9.90116 -9.55405 -9.55405 -9.55405 -9.55405 -9.98035 -9.98035 -9.98035 -9.98035 -9.92649 -9.92649 -9.92649 -9.92649 -9.82176 -9.82176 -9.82176 -9.82176 -9.96126 -9.96126 -9.96126 -9.96126 -9.96275 -9.96275 -9.96275 -9.96275 -10.1384 -10.1384 -10.1384 -10.1384 -10.0443 -10.0443 -10.0443 -10.0443 -9.97929 -9.97929 -9.97929 -9.97929 -9.96028 -9.96028 -9.96028 -9.96028 -10.2065 -10.2065 -10.2065 -10.2065 -9.91352 -9.91352 -9.91352 -9.91352 -9.93744 -9.93744 -9.93744 -9.93744 -9.79886 -9.79886 -9.79886 -9.79886 -9.94744 -9.94744 -9.94744 -9.94744 -9.93676 -9.93676 -9.93676 -9.93676 -9.94405 -9.94405 -9.94405 -9.94405 -9.89601 -9.89601 -9.89601 -9.89601 -9.97705 -9.97705 -9.97705 -9.97705 -9.993 -9.993 -9.993 -9.993 -9.42138 -9.42138 -9.42138 -9.42138 -9.91054 -9.91054 -9.91054 -9.91054 -9.9427 -9.9427 -9.9427 -9.9427 -10.1986 -10.1986 -10.1986 -10.1986 -10.4842 -10.4842 -10.4842 -10.4842 -9.96101 -9.96101 -9.96101 -9.96101 -9.95287 -9.95287 -9.95287 -9.95287 -9.96285 -9.96285 -9.96285 -9.96285 -9.99812 -9.99812 -9.99812 -9.99812 -9.77816 -9.77816 -9.77816 -9.77816 -10.0696 -10.0696 -10.0696 -10.0696 -10.0363 -10.0363 -10.0363 -10.0363 -9.96666 -9.96666 -9.96666 -9.96666 -9.83215 -9.83215 -9.83215 -9.83215 -9.94178 -9.94178 -9.94178 -9.94178 -10.0032 -10.0032 -10.0032 -10.0032 -9.92965 -9.92965 -9.92965 -9.92965 -9.83482 -9.83482 -9.83482 -9.83482 -9.97265 -9.97265 -9.97265 -9.97265 -9.2784 -9.2784 -9.2784 -9.2784 -9.89268 -9.89268 -9.89268 -9.89268 -9.92609 -9.92609 -9.92609 -9.92609 -9.97691 -9.97691 -9.97691 -9.97691 -9.97031 -9.97031 -9.97031 -9.97031 -9.91463 -9.91463 -9.91463 -9.91463 -9.89939 -9.89939 -9.89939 -9.89939 -9.96327 -9.96327 -9.96327 -9.96327 -10.0785 -10.0785 -10.0785 -10.0785 -9.96416 -9.96416 -9.96416 -9.96416 -10.0622 -10.0622 -10.0622 -10.0622 -9.97689 -9.97689 -9.97689 -9.97689 -9.88454 -9.88454 -9.88454 -9.88454 -10.6308 -10.6308 -10.6308 -10.6308 -10.4969 -10.4969 -10.4969 -10.4969 -9.97523 -9.97523 -9.97523 -9.97523 -10.2204 -10.2204 -10.2204 -10.2204 -9.94586 -9.94586 -9.94586 -9.94586 -9.79373 -9.79373 -9.79373 -9.79373 -9.88201 -9.88201 -9.88201 -9.88201 -9.96083 -9.96083 -9.96083 -9.96083 -9.9385 -9.9385 -9.9385 -9.9385 -9.95244 -9.95244 -9.95244 -9.95244 -9.90186 -9.90186 -9.90186 -9.90186 -9.94235 -9.94235 -9.94235 -9.94235 -10.0466 -10.0466 -10.0466 -10.0466 -9.99001 -9.99001 -9.99001 -9.99001 -9.99419 -9.99419 -9.99419 -9.99419 -10.0553 -10.0553 -10.0553 -10.0553 -9.88756 -9.88756 -9.88756 -9.88756 -9.96591 -9.96591 -9.96591 -9.96591 -9.97841 -9.97841 -9.97841 -9.97841 -9.75814 -9.75814 -9.75814 -9.75814 -9.91424 -9.91424 -9.91424 -9.91424 -9.96018 -9.96018 -9.96018 -9.96018 -9.97452 -9.97452 -9.97452 -9.97452 -9.92845 -9.92845 -9.92845 -9.92845 -9.93985 -9.93985 -9.93985 -9.93985 -9.98928 -9.98928 -9.98928 -9.98928 -9.9384 -9.9384 -9.9384 -9.9384 -10.0771 -10.0771 -10.0771 -10.0771 -10.1084 -10.1084 -10.1084 -10.1084 -9.91103 -9.91103 -9.91103 -9.91103 -9.93756 -9.93756 -9.93756 -9.93756 -9.8397 -9.8397 -9.8397 -9.8397 -9.9902 -9.9902 -9.9902 -9.9902 -9.95401 -9.95401 -9.95401 -9.95401 -9.94646 -9.94646 -9.94646 -9.94646 -9.90125 -9.90125 -9.90125 -9.90125 -9.9055 -9.9055 -9.9055 -9.9055 -9.94537 -9.94537 -9.94537 -9.94537 -10.0189 -10.0189 -10.0189 -10.0189 -10.5409 -10.5409 -10.5409 -10.5409 -9.8903 -9.8903 -9.8903 -9.8903 -9.91959 -9.91959 -9.91959 -9.91959 -9.92404 -9.92404 -9.92404 -9.92404 -9.87439 -9.87439 -9.87439 -9.87439 -9.9281 -9.9281 -9.9281 -9.9281 -9.93611 -9.93611 -9.93611 -9.93611 -9.91261 -9.91261 -9.91261 -9.91261 -9.73414 -9.73414 -9.73414 -9.73414 -9.98418 -9.98418 -9.98418 -9.98418 -9.93411 -9.93411 -9.93411 -9.93411 -9.97565 -9.97565 -9.97565 -9.97565 -10.0743 -10.0743 -10.0743 -10.0743 -9.95257 -9.95257 -9.95257 -9.95257 -9.90106 -9.90106 -9.90106 -9.90106 -9.94856 -9.94856 -9.94856 -9.94856 -10.7977 -10.7977 -10.7977 -10.7977 -9.90887 -9.90887 -9.90887 -9.90887 -10.2811 -10.2811 -10.2811 -10.2811 -9.92078 -9.92078 -9.92078 -9.92078 -9.93213 -9.93213 -9.93213 -9.93213 -9.94812 -9.94812 -9.94812 -9.94812 -9.87254 -9.87254 -9.87254 -9.87254 -9.96473 -9.96473 -9.96473 -9.96473 -9.8949 -9.8949 -9.8949 -9.8949 -9.96202 -9.96202 -9.96202 -9.96202 -9.91677 -9.91677 -9.91677 -9.91677 -9.94945 -9.94945 -9.94945 -9.94945 -9.98947 -9.98947 -9.98947 -9.98947 -9.87833 -9.87833 -9.87833 -9.87833 -10.3478 -10.3478 -10.3478 -10.3478 -9.93074 -9.93074 -9.93074 -9.93074 -9.94631 -9.94631 -9.94631 -9.94631 -9.89032 -9.89032 -9.89032 -9.89032 -10.1433 -10.1433 -10.1433 -10.1433 -9.83395 -9.83395 -9.83395 -9.83395 -9.87714 -9.87714 -9.87714 -9.87714 -9.90222 -9.90222 -9.90222 -9.90222 -9.94718 -9.94718 -9.94718 -9.94718 -9.76157 -9.76157 -9.76157 -9.76157 -10.9712 -10.9712 -10.9712 -10.9712 -9.96578 -9.96578 -9.96578 -9.96578 -9.91178 -9.91178 -9.91178 -9.91178 -9.9571 -9.9571 -9.9571 -9.9571 -9.92883 -9.92883 -9.92883 -9.92883 -9.8822 -9.8822 -9.8822 -9.8822 -9.93762 -9.93762 -9.93762 -9.93762 -9.96344 -9.96344 -9.96344 -9.96344 -9.93586 -9.93586 -9.93586 -9.93586 -9.87478 -9.87478 -9.87478 -9.87478 -10.0984 -10.0984 -10.0984 -10.0984 -10.1036 -10.1036 -10.1036 -10.1036 -9.99733 -9.99733 -9.99733 -9.99733 -9.92455 -9.92455 -9.92455 -9.92455 -9.95541 -9.95541 -9.95541 -9.95541 -10.1514 -10.1514 -10.1514 -10.1514 -10.1757 -10.1757 -10.1757 -10.1757 -9.9229 -9.9229 -9.9229 -9.9229 -9.89931 -9.89931 -9.89931 -9.89931 -9.8954 -9.8954 -9.8954 -9.8954 -9.85112 -9.85112 -9.85112 -9.85112 -9.92603 -9.92603 -9.92603 -9.92603 -9.98479 -9.98479 -9.98479 -9.98479 -9.92735 -9.92735 -9.92735 -9.92735 -9.90572 -9.90572 -9.90572 -9.90572 -9.92175 -9.92175 -9.92175 -9.92175 -9.97451 -9.97451 -9.97451 -9.97451 -9.95706 -9.95706 -9.95706 -9.95706 -9.88602 -9.88602 -9.88602 -9.88602 -9.97923 -9.97923 -9.97923 -9.97923 -10.3758 -10.3758 -10.3758 -10.3758 -9.88749 -9.88749 -9.88749 -9.88749 -9.96349 -9.96349 -9.96349 -9.96349 -9.91631 -9.91631 -9.91631 -9.91631 -9.92536 -9.92536 -9.92536 -9.92536 -9.96459 -9.96459 -9.96459 -9.96459 -10.0341 -10.0341 -10.0341 -10.0341 -10.3301 -10.3301 -10.3301 -10.3301 -9.9044 -9.9044 -9.9044 -9.9044 -9.89907 -9.89907 -9.89907 -9.89907 -9.91079 -9.91079 -9.91079 -9.91079 -9.98444 -9.98444 -9.98444 -9.98444 -9.93536 -9.93536 -9.93536 -9.93536 -9.9766 -9.9766 -9.9766 -9.9766 -9.97302 -9.97302 -9.97302 -9.97302 -9.23716 -9.23716 -9.23716 -9.23716 -9.74706 -9.74706 -9.74706 -9.74706 -9.94935 -9.94935 -9.94935 -9.94935 -9.96531 -9.96531 -9.96531 -9.96531 -10.0252 -10.0252 -10.0252 -10.0252 -9.93778 -9.93778 -9.93778 -9.93778 -10.0724 -10.0724 -10.0724 -10.0724 -9.95843 -9.95843 -9.95843 -9.95843 -10.686 -10.686 -10.686 -10.686 -10.0759 -10.0759 -10.0759 -10.0759 -9.78598 -9.78598 -9.78598 -9.78598 -9.89763 -9.89763 -9.89763 -9.89763 -9.91491 -9.91491 -9.91491 -9.91491 -9.91767 -9.91767 -9.91767 -9.91767 -10.1394 -10.1394 -10.1394 -10.1394 -9.97454 -9.97454 -9.97454 -9.97454 -9.93192 -9.93192 -9.93192 -9.93192 -9.94807 -9.94807 -9.94807 -9.94807 -9.96209 -9.96209 -9.96209 -9.96209 -10.0064 -10.0064 -10.0064 -10.0064 -9.35597 -9.35597 -9.35597 -9.35597 -9.91078 -9.91078 -9.91078 -9.91078 -10.0159 -10.0159 -10.0159 -10.0159 -9.96437 -9.96437 -9.96437 -9.96437 -9.89196 -9.89196 -9.89196 -9.89196 -9.93365 -9.93365 -9.93365 -9.93365 -9.89176 -9.89176 -9.89176 -9.89176 -10.1951 -10.1951 -10.1951 -10.1951 -9.86118 -9.86118 -9.86118 -9.86118 -9.99234 -9.99234 -9.99234 -9.99234 -9.7557 -9.7557 -9.7557 -9.7557 -9.95935 -9.95935 -9.95935 -9.95935 -9.95189 -9.95189 -9.95189 -9.95189 -9.96526 -9.96526 -9.96526 -9.96526 -9.95306 -9.95306 -9.95306 -9.95306 -9.97684 -9.97684 -9.97684 -9.97684 -9.97834 -9.97834 -9.97834 -9.97834 -9.919 -9.919 -9.919 -9.919 -9.94457 -9.94457 -9.94457 -9.94457 -9.47576 -9.47576 -9.47576 -9.47576 -10.0784 -10.0784 -10.0784 -10.0784 -10.1168 -10.1168 -10.1168 -10.1168 -10.0945 -10.0945 -10.0945 -10.0945 -10.1634 -10.1634 -10.1634 -10.1634 -9.85487 -9.85487 -9.85487 -9.85487 -9.93784 -9.93784 -9.93784 -9.93784 -10.1429 -10.1429 -10.1429 -10.1429 -9.97162 -9.97162 -9.97162 -9.97162 -9.97027 -9.97027 -9.97027 -9.97027 -9.94242 -9.94242 -9.94242 -9.94242 -9.94492 -9.94492 -9.94492 -9.94492 -9.88124 -9.88124 -9.88124 -9.88124 -11.4697 -11.4697 -11.4697 -11.4697 -10.1514 -10.1514 -10.1514 -10.1514 -10.9179 -10.9179 -10.9179 -10.9179 -9.93589 -9.93589 -9.93589 -9.93589 -9.91378 -9.91378 -9.91378 -9.91378 -9.94578 -9.94578 -9.94578 -9.94578 -9.98196 -9.98196 -9.98196 -9.98196 -9.87238 -9.87238 -9.87238 -9.87238 -9.92082 -9.92082 -9.92082 -9.92082 -10.2643 -10.2643 -10.2643 -10.2643 -9.87947 -9.87947 -9.87947 -9.87947 -9.97018 -9.97018 -9.97018 -9.97018 -9.93399 -9.93399 -9.93399 -9.93399 -9.92856 -9.92856 -9.92856 -9.92856 -9.88894 -9.88894 -9.88894 -9.88894 -10.6135 -10.6135 -10.6135 -10.6135 -9.92339 -9.92339 -9.92339 -9.92339 -9.97132 -9.97132 -9.97132 -9.97132 -10.2527 -10.2527 -10.2527 -10.2527 -9.91192 -9.91192 -9.91192 -9.91192 -10.5727 -10.5727 -10.5727 -10.5727 -9.76568 -9.76568 -9.76568 -9.76568 -9.94089 -9.94089 -9.94089 -9.94089 -9.98218 -9.98218 -9.98218 -9.98218 -9.87305 -9.87305 -9.87305 -9.87305 -10.5019 -10.5019 -10.5019 -10.5019 -10.0635 -10.0635 -10.0635 -10.0635 -9.93773 -9.93773 -9.93773 -9.93773 -9.93402 -9.93402 -9.93402 -9.93402 -9.96099 -9.96099 -9.96099 -9.96099 -9.9236 -9.9236 -9.9236 -9.9236 -9.8713 -9.8713 -9.8713 -9.8713 -9.92588 -9.92588 -9.92588 -9.92588 -9.06864 -9.06864 -9.06864 -9.06864 -9.60074 -9.60074 -9.60074 -9.60074 -8.0032 -8.0032 -8.0032 -8.0032 -9.52043 -9.52043 -9.52043 -9.52043 -10.0955 -10.0955 -10.0955 -10.0955 -10.1699 -10.1699 -10.1699 -10.1699 -9.91048 -9.91048 -9.91048 -9.91048 -9.96927 -9.96927 -9.96927 -9.96927 -9.94647 -9.94647 -9.94647 -9.94647 -10.2227 -10.2227 -10.2227 -10.2227 -9.90202 -9.90202 -9.90202 -9.90202 -9.9711 -9.9711 -9.9711 -9.9711 -10.4078 -10.4078 -10.4078 -10.4078 -9.98137 -9.98137 -9.98137 -9.98137 -10.0104 -10.0104 -10.0104 -10.0104 -9.81996 -9.81996 -9.81996 -9.81996 -9.93836 -9.93836 -9.93836 -9.93836 -10.1728 -10.1728 -10.1728 -10.1728 -9.92999 -9.92999 -9.92999 -9.92999 -9.93881 -9.93881 -9.93881 -9.93881 -9.9534 -9.9534 -9.9534 -9.9534 -10.0389 -10.0389 -10.0389 -10.0389 -9.91764 -9.91764 -9.91764 -9.91764 -9.97562 -9.97562 -9.97562 -9.97562 -9.8978 -9.8978 -9.8978 -9.8978 -10.0226 -10.0226 -10.0226 -10.0226 -9.96416 -9.96416 -9.96416 -9.96416 -9.93079 -9.93079 -9.93079 -9.93079 -9.75398 -9.75398 -9.75398 -9.75398 -9.97926 -9.97926 -9.97926 -9.97926 -9.9316 -9.9316 -9.9316 -9.9316 -9.97271 -9.97271 -9.97271 -9.97271 -9.99503 -9.99503 -9.99503 -9.99503 -6.59304 -6.59304 -6.59304 -6.59304 -9.97058 -9.97058 -9.97058 -9.97058 -9.9599 -9.9599 -9.9599 -9.9599 -9.91541 -9.91541 -9.91541 -9.91541 -10.0044 -10.0044 -10.0044 -10.0044 -10.4461 -10.4461 -10.4461 -10.4461 -9.97814 -9.97814 -9.97814 -9.97814 -10.1306 -10.1306 -10.1306 -10.1306 -10.3732 -10.3732 -10.3732 -10.3732 -9.91322 -9.91322 -9.91322 -9.91322 -10.2172 -10.2172 -10.2172 -10.2172 -10.0295 -10.0295 -10.0295 -10.0295 -9.99023 -9.99023 -9.99023 -9.99023 -9.97459 -9.97459 -9.97459 -9.97459 -10.0477 -10.0477 -10.0477 -10.0477 -9.86647 -9.86647 -9.86647 -9.86647 -9.92715 -9.92715 -9.92715 -9.92715 -9.95052 -9.95052 -9.95052 -9.95052 -10.3619 -10.3619 -10.3619 -10.3619 -9.93652 -9.93652 -9.93652 -9.93652 -9.96233 -9.96233 -9.96233 -9.96233 -10.317 -10.317 -10.317 -10.317 -9.87123 -9.87123 -9.87123 -9.87123 -9.92963 -9.92963 -9.92963 -9.92963 -9.92981 -9.92981 -9.92981 -9.92981 -9.9058 -9.9058 -9.9058 -9.9058 -9.88746 -9.88746 -9.88746 -9.88746 -10.197 -10.197 -10.197 -10.197 -9.9107 -9.9107 -9.9107 -9.9107 -9.95241 -9.95241 -9.95241 -9.95241 -10.016 -10.016 -10.016 -10.016 -9.74893 -9.74893 -9.74893 -9.74893 -9.981 -9.981 -9.981 -9.981 -10.0479 -10.0479 -10.0479 -10.0479 -9.97998 -9.97998 -9.97998 -9.97998 -9.94188 -9.94188 -9.94188 -9.94188 -9.9266 -9.9266 -9.9266 -9.9266 -10.0626 -10.0626 -10.0626 -10.0626 -9.95398 -9.95398 -9.95398 -9.95398 -9.92098 -9.92098 -9.92098 -9.92098 -9.87751 -9.87751 -9.87751 -9.87751 -9.95219 -9.95219 -9.95219 -9.95219 -10.3993 -10.3993 -10.3993 -10.3993 -9.98496 -9.98496 -9.98496 -9.98496 -9.93355 -9.93355 -9.93355 -9.93355 -9.91484 -9.91484 -9.91484 -9.91484 -9.98876 -9.98876 -9.98876 -9.98876 -10.3139 -10.3139 -10.3139 -10.3139 -9.9617 -9.9617 -9.9617 -9.9617 -9.83293 -9.83293 -9.83293 -9.83293 -9.63638 -9.63638 -9.63638 -9.63638 -9.39984 -9.39984 -9.39984 -9.39984 -9.96141 -9.96141 -9.96141 -9.96141 -9.95223 -9.95223 -9.95223 -9.95223 -9.9207 -9.9207 -9.9207 -9.9207 -9.92704 -9.92704 -9.92704 -9.92704 -10.7586 -10.7586 -10.7586 -10.7586 -9.89297 -9.89297 -9.89297 -9.89297 -10.253 -10.253 -10.253 -10.253 -10.104 -10.104 -10.104 -10.104 -9.97034 -9.97034 -9.97034 -9.97034 -10.3042 -10.3042 -10.3042 -10.3042 -9.97978 -9.97978 -9.97978 -9.97978 -9.98021 -9.98021 -9.98021 -9.98021 -10.1085 -10.1085 -10.1085 -10.1085 -7.6348 -7.6348 -7.6348 -7.6348 -9.85946 -9.85946 -9.85946 -9.85946 -9.95073 -9.95073 -9.95073 -9.95073 -9.93204 -9.93204 -9.93204 -9.93204 -9.99793 -9.99793 -9.99793 -9.99793 -9.9244 -9.9244 -9.9244 -9.9244 -9.99182 -9.99182 -9.99182 -9.99182 -8.70019 -8.70019 -8.70019 -8.70019 -9.91379 -9.91379 -9.91379 -9.91379 -9.969 -9.969 -9.969 -9.969 -9.9729 -9.9729 -9.9729 -9.9729 -10.1592 -10.1592 -10.1592 -10.1592 -9.94665 -9.94665 -9.94665 -9.94665 -10.0115 -10.0115 -10.0115 -10.0115 -9.97651 -9.97651 -9.97651 -9.97651 -9.98591 -9.98591 -9.98591 -9.98591 -10.0585 -10.0585 -10.0585 -10.0585 -9.95459 -9.95459 -9.95459 -9.95459 -10.1763 -10.1763 -10.1763 -10.1763 -10.1238 -10.1238 -10.1238 -10.1238 -9.95305 -9.95305 -9.95305 -9.95305 -9.93825 -9.93825 -9.93825 -9.93825 -10.5965 -10.5965 -10.5965 -10.5965 -10.2315 -10.2315 -10.2315 -10.2315 -10.1461 -10.1461 -10.1461 -10.1461 -9.81132 -9.81132 -9.81132 -9.81132 -9.94091 -9.94091 -9.94091 -9.94091 -9.72808 -9.72808 -9.72808 -9.72808 -10.0437 -10.0437 -10.0437 -10.0437 -9.96683 -9.96683 -9.96683 -9.96683 -9.89001 -9.89001 -9.89001 -9.89001 -9.92376 -9.92376 -9.92376 -9.92376 -9.92828 -9.92828 -9.92828 -9.92828 -9.96025 -9.96025 -9.96025 -9.96025 -9.98431 -9.98431 -9.98431 -9.98431 -9.9587 -9.9587 -9.9587 -9.9587 -9.99345 -9.99345 -9.99345 -9.99345 -9.91471 -9.91471 -9.91471 -9.91471 -10.0665 -10.0665 -10.0665 -10.0665 -10.0167 -10.0167 -10.0167 -10.0167 -9.76093 -9.76093 -9.76093 -9.76093 -9.93656 -9.93656 -9.93656 -9.93656 -9.86015 -9.86015 -9.86015 -9.86015 -9.91789 -9.91789 -9.91789 -9.91789 -9.99271 -9.99271 -9.99271 -9.99271 -10.1625 -10.1625 -10.1625 -10.1625 -9.97551 -9.97551 -9.97551 -9.97551 -10.0302 -10.0302 -10.0302 -10.0302 -9.96547 -9.96547 -9.96547 -9.96547 -9.87184 -9.87184 -9.87184 -9.87184 -9.99865 -9.99865 -9.99865 -9.99865 -10.0985 -10.0985 -10.0985 -10.0985 -9.94649 -9.94649 -9.94649 -9.94649 -9.97022 -9.97022 -9.97022 -9.97022 -9.94263 -9.94263 -9.94263 -9.94263 -10.0962 -10.0962 -10.0962 -10.0962 -10.4432 -10.4432 -10.4432 -10.4432 -9.92331 -9.92331 -9.92331 -9.92331 -9.9282 -9.9282 -9.9282 -9.9282 -9.92438 -9.92438 -9.92438 -9.92438 -9.29199 -9.29199 -9.29199 -9.29199 -9.83688 -9.83688 -9.83688 -9.83688 -9.80119 -9.80119 -9.80119 -9.80119 -9.97075 -9.97075 -9.97075 -9.97075 -10.0478 -10.0478 -10.0478 -10.0478 -9.92741 -9.92741 -9.92741 -9.92741 -9.94969 -9.94969 -9.94969 -9.94969 -9.96541 -9.96541 -9.96541 -9.96541 -10.0771 -10.0771 -10.0771 -10.0771 -9.9356 -9.9356 -9.9356 -9.9356 -9.94251 -9.94251 -9.94251 -9.94251 -9.94479 -9.94479 -9.94479 -9.94479 -9.91788 -9.91788 -9.91788 -9.91788 -10.1344 -10.1344 -10.1344 -10.1344 -9.93163 -9.93163 -9.93163 -9.93163 -9.93129 -9.93129 -9.93129 -9.93129 -9.89527 -9.89527 -9.89527 -9.89527 -10.2748 -10.2748 -10.2748 -10.2748 -9.92763 -9.92763 -9.92763 -9.92763 -9.61475 -9.61475 -9.61475 -9.61475 -9.96984 -9.96984 -9.96984 -9.96984 -9.90411 -9.90411 -9.90411 -9.90411 -9.85979 -9.85979 -9.85979 -9.85979 -9.98418 -9.98418 -9.98418 -9.98418 -9.96475 -9.96475 -9.96475 -9.96475 -9.9749 -9.9749 -9.9749 -9.9749 -9.93145 -9.93145 -9.93145 -9.93145 -9.91562 -9.91562 -9.91562 -9.91562 -9.98258 -9.98258 -9.98258 -9.98258 -10.0379 -10.0379 -10.0379 -10.0379 -9.91519 -9.91519 -9.91519 -9.91519 -9.98232 -9.98232 -9.98232 -9.98232 -9.95508 -9.95508 -9.95508 -9.95508 -10.079 -10.079 -10.079 -10.079 -10.0003 -10.0003 -10.0003 -10.0003 -9.88946 -9.88946 -9.88946 -9.88946 -9.96273 -9.96273 -9.96273 -9.96273 -9.90336 -9.90336 -9.90336 -9.90336 -5.81859 -5.81859 -5.81859 -5.81859 -9.95368 -9.95368 -9.95368 -9.95368 -9.88584 -9.88584 -9.88584 -9.88584 -9.94444 -9.94444 -9.94444 -9.94444 -10.3007 -10.3007 -10.3007 -10.3007 -9.87115 -9.87115 -9.87115 -9.87115 -9.97916 -9.97916 -9.97916 -9.97916 -9.95891 -9.95891 -9.95891 -9.95891 -9.95274 -9.95274 -9.95274 -9.95274 -9.91909 -9.91909 -9.91909 -9.91909 -10.7827 -10.7827 -10.7827 -10.7827 -10.5788 -10.5788 -10.5788 -10.5788 -10.5076 -10.5076 -10.5076 -10.5076 -9.92465 -9.92465 -9.92465 -9.92465 -9.92812 -9.92812 -9.92812 -9.92812 -9.84777 -9.84777 -9.84777 -9.84777 -9.97209 -9.97209 -9.97209 -9.97209 -9.91291 -9.91291 -9.91291 -9.91291 -9.99827 -9.99827 -9.99827 -9.99827 -9.84423 -9.84423 -9.84423 -9.84423 -10.3753 -10.3753 -10.3753 -10.3753 -9.95758 -9.95758 -9.95758 -9.95758 -9.95118 -9.95118 -9.95118 -9.95118 -9.90527 -9.90527 -9.90527 -9.90527 -9.95067 -9.95067 -9.95067 -9.95067 -4.98216 -4.98216 -4.98216 -4.98216 -9.93544 -9.93544 -9.93544 -9.93544 -10.1064 -10.1064 -10.1064 -10.1064 -10.2429 -10.2429 -10.2429 -10.2429 -9.93222 -9.93222 -9.93222 -9.93222 -9.96052 -9.96052 -9.96052 -9.96052 -9.91285 -9.91285 -9.91285 -9.91285 -9.97029 -9.97029 -9.97029 -9.97029 -9.94973 -9.94973 -9.94973 -9.94973 -9.964 -9.964 -9.964 -9.964 -10.4172 -10.4172 -10.4172 -10.4172 -9.9822 -9.9822 -9.9822 -9.9822 -10.0416 -10.0416 -10.0416 -10.0416 -9.89499 -9.89499 -9.89499 -9.89499 -9.97097 -9.97097 -9.97097 -9.97097 -9.94813 -9.94813 -9.94813 -9.94813 -10.4035 -10.4035 -10.4035 -10.4035 -9.32155 -9.32155 -9.32155 -9.32155 -10.1637 -10.1637 -10.1637 -10.1637 -9.95361 -9.95361 -9.95361 -9.95361 -9.88317 -9.88317 -9.88317 -9.88317 -10.4053 -10.4053 -10.4053 -10.4053 -9.97953 -9.97953 -9.97953 -9.97953 -10.7825 -10.7825 -10.7825 -10.7825 -10.0901 -10.0901 -10.0901 -10.0901 -9.92719 -9.92719 -9.92719 -9.92719 -9.97205 -9.97205 -9.97205 -9.97205 -9.92216 -9.92216 -9.92216 -9.92216 -4.59344 -4.59344 -4.59344 -4.59344 -9.91192 -9.91192 -9.91192 -9.91192 -10.8897 -10.8897 -10.8897 -10.8897 -9.99777 -9.99777 -9.99777 -9.99777 -9.96119 -9.96119 -9.96119 -9.96119 -9.93558 -9.93558 -9.93558 -9.93558 -9.88936 -9.88936 -9.88936 -9.88936 -9.93158 -9.93158 -9.93158 -9.93158 -9.97659 -9.97659 -9.97659 -9.97659 -9.93474 -9.93474 -9.93474 -9.93474 -10.2598 -10.2598 -10.2598 -10.2598 -9.97385 -9.97385 -9.97385 -9.97385 -9.9598 -9.9598 -9.9598 -9.9598 -9.92575 -9.92575 -9.92575 -9.92575 -9.96039 -9.96039 -9.96039 -9.96039 -10.0154 -10.0154 -10.0154 -10.0154 -9.88212 -9.88212 -9.88212 -9.88212 -10.5498 -10.5498 -10.5498 -10.5498 -9.94108 -9.94108 -9.94108 -9.94108 -10.1148 -10.1148 -10.1148 -10.1148 -9.92676 -9.92676 -9.92676 -9.92676 -10.9449 -10.9449 -10.9449 -10.9449 -9.58059 -9.58059 -9.58059 -9.58059 -9.99366 -9.99366 -9.99366 -9.99366 -10.1713 -10.1713 -10.1713 -10.1713 -9.98295 -9.98295 -9.98295 -9.98295 -9.98673 -9.98673 -9.98673 -9.98673 -10.0074 -10.0074 -10.0074 -10.0074 -9.95029 -9.95029 -9.95029 -9.95029 -9.95573 -9.95573 -9.95573 -9.95573 -9.86778 -9.86778 -9.86778 -9.86778 -10.0418 -10.0418 -10.0418 -10.0418 -9.98217 -9.98217 -9.98217 -9.98217 -10.1598 -10.1598 -10.1598 -10.1598 -9.8245 -9.8245 -9.8245 -9.8245 -9.90353 -9.90353 -9.90353 -9.90353 -9.86795 -9.86795 -9.86795 -9.86795 -9.96619 -9.96619 -9.96619 -9.96619 -10.1112 -10.1112 -10.1112 -10.1112 -9.93395 -9.93395 -9.93395 -9.93395 -9.90557 -9.90557 -9.90557 -9.90557 -10.0957 -10.0957 -10.0957 -10.0957 -10.0003 -10.0003 -10.0003 -10.0003 -9.87673 -9.87673 -9.87673 -9.87673 -10.0068 -10.0068 -10.0068 -10.0068 -9.92626 -9.92626 -9.92626 -9.92626 -9.9713 -9.9713 -9.9713 -9.9713 -9.99415 -9.99415 -9.99415 -9.99415 -9.88386 -9.88386 -9.88386 -9.88386 -9.9739 -9.9739 -9.9739 -9.9739 -10.1052 -10.1052 -10.1052 -10.1052 -9.9821 -9.9821 -9.9821 -9.9821 -9.96042 -9.96042 -9.96042 -9.96042 -9.96755 -9.96755 -9.96755 -9.96755 -10.8751 -10.8751 -10.8751 -10.8751 -9.92639 -9.92639 -9.92639 -9.92639 -9.91604 -9.91604 -9.91604 -9.91604 -9.70805 -9.70805 -9.70805 -9.70805 -9.96387 -9.96387 -9.96387 -9.96387 -9.96012 -9.96012 -9.96012 -9.96012 -9.89073 -9.89073 -9.89073 -9.89073 -9.97303 -9.97303 -9.97303 -9.97303 -10.0368 -10.0368 -10.0368 -10.0368 -9.95071 -9.95071 -9.95071 -9.95071 -9.96662 -9.96662 -9.96662 -9.96662 -10.0205 -10.0205 -10.0205 -10.0205 -9.96541 -9.96541 -9.96541 -9.96541 -9.96639 -9.96639 -9.96639 -9.96639 -9.98286 -9.98286 -9.98286 -9.98286 -9.91475 -9.91475 -9.91475 -9.91475 -9.97645 -9.97645 -9.97645 -9.97645 -9.9799 -9.9799 -9.9799 -9.9799 -9.90967 -9.90967 -9.90967 -9.90967 -9.80828 -9.80828 -9.80828 -9.80828 -9.96298 -9.96298 -9.96298 -9.96298 -9.74712 -9.74712 -9.74712 -9.74712 -9.94013 -9.94013 -9.94013 -9.94013 -10.3324 -10.3324 -10.3324 -10.3324 -9.91934 -9.91934 -9.91934 -9.91934 -9.99403 -9.99403 -9.99403 -9.99403 -9.35139 -9.35139 -9.35139 -9.35139 -9.9805 -9.9805 -9.9805 -9.9805 -10.2454 -10.2454 -10.2454 -10.2454 -10.0139 -10.0139 -10.0139 -10.0139 -9.90863 -9.90863 -9.90863 -9.90863 -10.0481 -10.0481 -10.0481 -10.0481 -9.3294 -9.3294 -9.3294 -9.3294 -9.89722 -9.89722 -9.89722 -9.89722 -9.99785 -9.99785 -9.99785 -9.99785 -9.95207 -9.95207 -9.95207 -9.95207 -9.944 -9.944 -9.944 -9.944 -10.1105 -10.1105 -10.1105 -10.1105 -9.82488 -9.82488 -9.82488 -9.82488 -9.93083 -9.93083 -9.93083 -9.93083 -9.90198 -9.90198 -9.90198 -9.90198 -9.93424 -9.93424 -9.93424 -9.93424 -9.89483 -9.89483 -9.89483 -9.89483 -9.91255 -9.91255 -9.91255 -9.91255 -10.0443 -10.0443 -10.0443 -10.0443 -10.9237 -10.9237 -10.9237 -10.9237 -9.93907 -9.93907 -9.93907 -9.93907 -10.1011 -10.1011 -10.1011 -10.1011 -9.9007 -9.9007 -9.9007 -9.9007 -9.90428 -9.90428 -9.90428 -9.90428 -9.95879 -9.95879 -9.95879 -9.95879 -9.93211 -9.93211 -9.93211 -9.93211 -9.90887 -9.90887 -9.90887 -9.90887 -9.92589 -9.92589 -9.92589 -9.92589 -9.94392 -9.94392 -9.94392 -9.94392 -9.92275 -9.92275 -9.92275 -9.92275 -9.93856 -9.93856 -9.93856 -9.93856 -9.98649 -9.98649 -9.98649 -9.98649 -9.86985 -9.86985 -9.86985 -9.86985 -9.98627 -9.98627 -9.98627 -9.98627 -9.93167 -9.93167 -9.93167 -9.93167 -9.99161 -9.99161 -9.99161 -9.99161 -9.98312 -9.98312 -9.98312 -9.98312 -9.91303 -9.91303 -9.91303 -9.91303 -10.0293 -10.0293 -10.0293 -10.0293 -9.87827 -9.87827 -9.87827 -9.87827 -9.99383 -9.99383 -9.99383 -9.99383 -9.99673 -9.99673 -9.99673 -9.99673 -9.92043 -9.92043 -9.92043 -9.92043 -9.78826 -9.78826 -9.78826 -9.78826 -10.3329 -10.3329 -10.3329 -10.3329 -5.24373 -5.24373 -5.24373 -5.24373 -9.86346 -9.86346 -9.86346 -9.86346 -10.4523 -10.4523 -10.4523 -10.4523 -9.95779 -9.95779 -9.95779 -9.95779 -9.88627 -9.88627 -9.88627 -9.88627 -9.78538 -9.78538 -9.78538 -9.78538 -10.1336 -10.1336 -10.1336 -10.1336 -9.90703 -9.90703 -9.90703 -9.90703 -9.99828 -9.99828 -9.99828 -9.99828 -10.5532 -10.5532 -10.5532 -10.5532 -10.1514 -10.1514 -10.1514 -10.1514 -9.73276 -9.73276 -9.73276 -9.73276 -9.99152 -9.99152 -9.99152 -9.99152 -9.93237 -9.93237 -9.93237 -9.93237 -9.88527 -9.88527 -9.88527 -9.88527 -9.95373 -9.95373 -9.95373 -9.95373 -10.1255 -10.1255 -10.1255 -10.1255 -9.97676 -9.97676 -9.97676 -9.97676 -8.23098 -8.23098 -8.23098 -8.23098 -9.91492 -9.91492 -9.91492 -9.91492 -10.0457 -10.0457 -10.0457 -10.0457 -9.9543 -9.9543 -9.9543 -9.9543 -9.95526 -9.95526 -9.95526 -9.95526 -4.95909 -4.95909 -4.95909 -4.95909 -9.91569 -9.91569 -9.91569 -9.91569 -9.90414 -9.90414 -9.90414 -9.90414 -10.0197 -10.0197 -10.0197 -10.0197 -9.88158 -9.88158 -9.88158 -9.88158 -10.1153 -10.1153 -10.1153 -10.1153 -9.9419 -9.9419 -9.9419 -9.9419 -9.9855 -9.9855 -9.9855 -9.9855 -9.91724 -9.91724 -9.91724 -9.91724 -9.93303 -9.93303 -9.93303 -9.93303 -9.94276 -9.94276 -9.94276 -9.94276 -9.91142 -9.91142 -9.91142 -9.91142 -9.92141 -9.92141 -9.92141 -9.92141 -10.112 -10.112 -10.112 -10.112 -9.97678 -9.97678 -9.97678 -9.97678 -9.92611 -9.92611 -9.92611 -9.92611 -9.98283 -9.98283 -9.98283 -9.98283 -10.0205 -10.0205 -10.0205 -10.0205 -9.97368 -9.97368 -9.97368 -9.97368 -9.93401 -9.93401 -9.93401 -9.93401 -9.96715 -9.96715 -9.96715 -9.96715 -9.99193 -9.99193 -9.99193 -9.99193 -10.0886 -10.0886 -10.0886 -10.0886 -9.96577 -9.96577 -9.96577 -9.96577 -10.2655 -10.2655 -10.2655 -10.2655 -10.1188 -10.1188 -10.1188 -10.1188 -9.93949 -9.93949 -9.93949 -9.93949 -10.5812 -10.5812 -10.5812 -10.5812 -9.95801 -9.95801 -9.95801 -9.95801 -10.0532 -10.0532 -10.0532 -10.0532 -9.95596 -9.95596 -9.95596 -9.95596 -9.87366 -9.87366 -9.87366 -9.87366 -10.1366 -10.1366 -10.1366 -10.1366 -9.98361 -9.98361 -9.98361 -9.98361 -9.93289 -9.93289 -9.93289 -9.93289 -9.98613 -9.98613 -9.98613 -9.98613 -9.9946 -9.9946 -9.9946 -9.9946 -9.94127 -9.94127 -9.94127 -9.94127 -9.96961 -9.96961 -9.96961 -9.96961 -9.94198 -9.94198 -9.94198 -9.94198 -10.4524 -10.4524 -10.4524 -10.4524 -9.80182 -9.80182 -9.80182 -9.80182 -9.98008 -9.98008 -9.98008 -9.98008 -9.88501 -9.88501 -9.88501 -9.88501 -9.98136 -9.98136 -9.98136 -9.98136 -9.90743 -9.90743 -9.90743 -9.90743 -9.98585 -9.98585 -9.98585 -9.98585 -9.96725 -9.96725 -9.96725 -9.96725 -9.84127 -9.84127 -9.84127 -9.84127 -9.89465 -9.89465 -9.89465 -9.89465 -10.0252 -10.0252 -10.0252 -10.0252 -9.95445 -9.95445 -9.95445 -9.95445 -9.86754 -9.86754 -9.86754 -9.86754 -9.76271 -9.76271 -9.76271 -9.76271 -9.98485 -9.98485 -9.98485 -9.98485 -9.96659 -9.96659 -9.96659 -9.96659 -9.88935 -9.88935 -9.88935 -9.88935 -9.98984 -9.98984 -9.98984 -9.98984 -9.93849 -9.93849 -9.93849 -9.93849 -9.99253 -9.99253 -9.99253 -9.99253 -9.94162 -9.94162 -9.94162 -9.94162 -9.93379 -9.93379 -9.93379 -9.93379 -9.89561 -9.89561 -9.89561 -9.89561 -9.95545 -9.95545 -9.95545 -9.95545 -9.91443 -9.91443 -9.91443 -9.91443 -10.1937 -10.1937 -10.1937 -10.1937 -9.81822 -9.81822 -9.81822 -9.81822 -10.048 -10.048 -10.048 -10.048 -9.99271 -9.99271 -9.99271 -9.99271 -9.84245 -9.84245 -9.84245 -9.84245 -10.3482 -10.3482 -10.3482 -10.3482 -4.26544 -4.26544 -4.26544 -4.26544 -9.78125 -9.78125 -9.78125 -9.78125 -10.098 -10.098 -10.098 -10.098 -10.0117 -10.0117 -10.0117 -10.0117 -9.96646 -9.96646 -9.96646 -9.96646 -9.91031 -9.91031 -9.91031 -9.91031 -10.0289 -10.0289 -10.0289 -10.0289 -9.93061 -9.93061 -9.93061 -9.93061 -10.2509 -10.2509 -10.2509 -10.2509 -9.93519 -9.93519 -9.93519 -9.93519 -10.0927 -10.0927 -10.0927 -10.0927 -10.0882 -10.0882 -10.0882 -10.0882 -9.93048 -9.93048 -9.93048 -9.93048 -9.94374 -9.94374 -9.94374 -9.94374 -9.95848 -9.95848 -9.95848 -9.95848 -10.3725 -10.3725 -10.3725 -10.3725 -9.92263 -9.92263 -9.92263 -9.92263 -9.94036 -9.94036 -9.94036 -9.94036 -9.83049 -9.83049 -9.83049 -9.83049 -9.98199 -9.98199 -9.98199 -9.98199 -9.92759 -9.92759 -9.92759 -9.92759 -9.97318 -9.97318 -9.97318 -9.97318 -9.94614 -9.94614 -9.94614 -9.94614 -5.84087 -5.84087 -5.84087 -5.84087 -10.3367 -10.3367 -10.3367 -10.3367 -9.70203 -9.70203 -9.70203 -9.70203 -9.79781 -9.79781 -9.79781 -9.79781 -10.4862 -10.4862 -10.4862 -10.4862 -9.92797 -9.92797 -9.92797 -9.92797 -9.98411 -9.98411 -9.98411 -9.98411 -9.94636 -9.94636 -9.94636 -9.94636 -9.98325 -9.98325 -9.98325 -9.98325 -9.98111 -9.98111 -9.98111 -9.98111 -9.948 -9.948 -9.948 -9.948 -9.80145 -9.80145 -9.80145 -9.80145 -9.8873 -9.8873 -9.8873 -9.8873 -10.4234 -10.4234 -10.4234 -10.4234 -9.89033 -9.89033 -9.89033 -9.89033 -10.1601 -10.1601 -10.1601 -10.1601 -9.94755 -9.94755 -9.94755 -9.94755 -9.34764 -9.34764 -9.34764 -9.34764 -9.96435 -9.96435 -9.96435 -9.96435 -9.8715 -9.8715 -9.8715 -9.8715 -9.82468 -9.82468 -9.82468 -9.82468 -9.91434 -9.91434 -9.91434 -9.91434 -9.93432 -9.93432 -9.93432 -9.93432 -8.27985 -8.27985 -8.27985 -8.27985 -9.87753 -9.87753 -9.87753 -9.87753 -9.89919 -9.89919 -9.89919 -9.89919 -9.93718 -9.93718 -9.93718 -9.93718 -10.2701 -10.2701 -10.2701 -10.2701 -9.92493 -9.92493 -9.92493 -9.92493 -9.97769 -9.97769 -9.97769 -9.97769 -9.99948 -9.99948 -9.99948 -9.99948 -9.89915 -9.89915 -9.89915 -9.89915 -9.85953 -9.85953 -9.85953 -9.85953 -9.93981 -9.93981 -9.93981 -9.93981 -10.0181 -10.0181 -10.0181 -10.0181 -9.95514 -9.95514 -9.95514 -9.95514 -9.96474 -9.96474 -9.96474 -9.96474 -9.63676 -9.63676 -9.63676 -9.63676 -9.92829 -9.92829 -9.92829 -9.92829 -9.92195 -9.92195 -9.92195 -9.92195 -9.91483 -9.91483 -9.91483 -9.91483 -10.0343 -10.0343 -10.0343 -10.0343 -10.5068 -10.5068 -10.5068 -10.5068 -9.92461 -9.92461 -9.92461 -9.92461 -10.0636 -10.0636 -10.0636 -10.0636 -10.0716 -10.0716 -10.0716 -10.0716 -9.96633 -9.96633 -9.96633 -9.96633 -9.89684 -9.89684 -9.89684 -9.89684 -9.91936 -9.91936 -9.91936 -9.91936 -9.79599 -9.79599 -9.79599 -9.79599 -9.95141 -9.95141 -9.95141 -9.95141 -9.90132 -9.90132 -9.90132 -9.90132 -9.94644 -9.94644 -9.94644 -9.94644 -9.9714 -9.9714 -9.9714 -9.9714 -9.90732 -9.90732 -9.90732 -9.90732 -10.103 -10.103 -10.103 -10.103 -9.91128 -9.91128 -9.91128 -9.91128 -9.9923 -9.9923 -9.9923 -9.9923 -10.3828 -10.3828 -10.3828 -10.3828 -9.92592 -9.92592 -9.92592 -9.92592 -9.89018 -9.89018 -9.89018 -9.89018 -10.2009 -10.2009 -10.2009 -10.2009 -9.90085 -9.90085 -9.90085 -9.90085 -10.0576 -10.0576 -10.0576 -10.0576 -10.765 -10.765 -10.765 -10.765 -10.0513 -10.0513 -10.0513 -10.0513 -10.672 -10.672 -10.672 -10.672 -10.0055 -10.0055 -10.0055 -10.0055 -9.98163 -9.98163 -9.98163 -9.98163 -9.87883 -9.87883 -9.87883 -9.87883 -10.0507 -10.0507 -10.0507 -10.0507 -11.0676 -11.0676 -11.0676 -11.0676 -10.0169 -10.0169 -10.0169 -10.0169 -9.87307 -9.87307 -9.87307 -9.87307 -9.90983 -9.90983 -9.90983 -9.90983 -9.98407 -9.98407 -9.98407 -9.98407 -10.0116 -10.0116 -10.0116 -10.0116 -9.83559 -9.83559 -9.83559 -9.83559 -9.90293 -9.90293 -9.90293 -9.90293 -9.95395 -9.95395 -9.95395 -9.95395 -9.93653 -9.93653 -9.93653 -9.93653 -9.96556 -9.96556 -9.96556 -9.96556 -10.0392 -10.0392 -10.0392 -10.0392 -9.95908 -9.95908 -9.95908 -9.95908 -10.0489 -10.0489 -10.0489 -10.0489 -9.91761 -9.91761 -9.91761 -9.91761 -9.93133 -9.93133 -9.93133 -9.93133 -10.0436 -10.0436 -10.0436 -10.0436 -9.79349 -9.79349 -9.79349 -9.79349 -10.4705 -10.4705 -10.4705 -10.4705 -9.81647 -9.81647 -9.81647 -9.81647 -9.88035 -9.88035 -9.88035 -9.88035 -11.4312 -11.4312 -11.4312 -11.4312 -9.83889 -9.83889 -9.83889 -9.83889 -9.95682 -9.95682 -9.95682 -9.95682 -9.97503 -9.97503 -9.97503 -9.97503 -9.932 -9.932 -9.932 -9.932 -9.93516 -9.93516 -9.93516 -9.93516 -9.82418 -9.82418 -9.82418 -9.82418 -10.0938 -10.0938 -10.0938 -10.0938 -9.93824 -9.93824 -9.93824 -9.93824 -9.89913 -9.89913 -9.89913 -9.89913 -9.9207 -9.9207 -9.9207 -9.9207 -9.89171 -9.89171 -9.89171 -9.89171 -9.97812 -9.97812 -9.97812 -9.97812 -9.95979 -9.95979 -9.95979 -9.95979 -9.91089 -9.91089 -9.91089 -9.91089 -9.94773 -9.94773 -9.94773 -9.94773 -9.95698 -9.95698 -9.95698 -9.95698 -9.96569 -9.96569 -9.96569 -9.96569 -10.1119 -10.1119 -10.1119 -10.1119 -9.91297 -9.91297 -9.91297 -9.91297 -10.0794 -10.0794 -10.0794 -10.0794 -10.643 -10.643 -10.643 -10.643 -9.99389 -9.99389 -9.99389 -9.99389 -10.1418 -10.1418 -10.1418 -10.1418 -9.93828 -9.93828 -9.93828 -9.93828 -9.95878 -9.95878 -9.95878 -9.95878 -9.93169 -9.93169 -9.93169 -9.93169 -9.97786 -9.97786 -9.97786 -9.97786 -9.96382 -9.96382 -9.96382 -9.96382 -9.92284 -9.92284 -9.92284 -9.92284 -9.97432 -9.97432 -9.97432 -9.97432 -10.0402 -10.0402 -10.0402 -10.0402 -9.98156 -9.98156 -9.98156 -9.98156 -10.0354 -10.0354 -10.0354 -10.0354 -9.93901 -9.93901 -9.93901 -9.93901 -9.99732 -9.99732 -9.99732 -9.99732 -9.93127 -9.93127 -9.93127 -9.93127 -9.90693 -9.90693 -9.90693 -9.90693 -9.95354 -9.95354 -9.95354 -9.95354 -9.92578 -9.92578 -9.92578 -9.92578 -9.93827 -9.93827 -9.93827 -9.93827 -9.92061 -9.92061 -9.92061 -9.92061 -9.90854 -9.90854 -9.90854 -9.90854 -9.88937 -9.88937 -9.88937 -9.88937 -9.95964 -9.95964 -9.95964 -9.95964 -9.98073 -9.98073 -9.98073 -9.98073 -10.8101 -10.8101 -10.8101 -10.8101 -9.94898 -9.94898 -9.94898 -9.94898 -9.95746 -9.95746 -9.95746 -9.95746 -9.9352 -9.9352 -9.9352 -9.9352 -10.114 -10.114 -10.114 -10.114 -9.98131 -9.98131 -9.98131 -9.98131 -9.99177 -9.99177 -9.99177 -9.99177 -10.288 -10.288 -10.288 -10.288 -9.98622 -9.98622 -9.98622 -9.98622 -9.901 -9.901 -9.901 -9.901 -9.88919 -9.88919 -9.88919 -9.88919 -9.96326 -9.96326 -9.96326 -9.96326 -9.87148 -9.87148 -9.87148 -9.87148 -9.99193 -9.99193 -9.99193 -9.99193 -9.96031 -9.96031 -9.96031 -9.96031 -11.2456 -11.2456 -11.2456 -11.2456 -10.0179 -10.0179 -10.0179 -10.0179 -9.98121 -9.98121 -9.98121 -9.98121 -9.74128 -9.74128 -9.74128 -9.74128 -10.5882 -10.5882 -10.5882 -10.5882 -10.5487 -10.5487 -10.5487 -10.5487 -9.95137 -9.95137 -9.95137 -9.95137 -9.94251 -9.94251 -9.94251 -9.94251 -9.92804 -9.92804 -9.92804 -9.92804 -9.99092 -9.99092 -9.99092 -9.99092 -9.99038 -9.99038 -9.99038 -9.99038 -10.2768 -10.2768 -10.2768 -10.2768 -9.81478 -9.81478 -9.81478 -9.81478 -9.37053 -9.37053 -9.37053 -9.37053 -9.99216 -9.99216 -9.99216 -9.99216 -9.97861 -9.97861 -9.97861 -9.97861 -9.93749 -9.93749 -9.93749 -9.93749 -9.93221 -9.93221 -9.93221 -9.93221 -9.89215 -9.89215 -9.89215 -9.89215 -9.92592 -9.92592 -9.92592 -9.92592 -9.85226 -9.85226 -9.85226 -9.85226 -9.92472 -9.92472 -9.92472 -9.92472 -9.9715 -9.9715 -9.9715 -9.9715 -9.98584 -9.98584 -9.98584 -9.98584 -9.96049 -9.96049 -9.96049 -9.96049 -9.98626 -9.98626 -9.98626 -9.98626 -9.97941 -9.97941 -9.97941 -9.97941 -9.93399 -9.93399 -9.93399 -9.93399 -10.0694 -10.0694 -10.0694 -10.0694 -9.91425 -9.91425 -9.91425 -9.91425 -9.94074 -9.94074 -9.94074 -9.94074 -10.0302 -10.0302 -10.0302 -10.0302 -10.1592 -10.1592 -10.1592 -10.1592 -9.93602 -9.93602 -9.93602 -9.93602 -10.6959 -10.6959 -10.6959 -10.6959 -11.2468 -11.2468 -11.2468 -11.2468 -9.98 -9.98 -9.98 -9.98 -10.1248 -10.1248 -10.1248 -10.1248 -9.94588 -9.94588 -9.94588 -9.94588 -9.92739 -9.92739 -9.92739 -9.92739 -10.1837 -10.1837 -10.1837 -10.1837 -10.1543 -10.1543 -10.1543 -10.1543 -9.94481 -9.94481 -9.94481 -9.94481 -9.95229 -9.95229 -9.95229 -9.95229 -9.99284 -9.99284 -9.99284 -9.99284 -9.92103 -9.92103 -9.92103 -9.92103 -9.86139 -9.86139 -9.86139 -9.86139 -10.5387 -10.5387 -10.5387 -10.5387 -9.93107 -9.93107 -9.93107 -9.93107 -9.9241 -9.9241 -9.9241 -9.9241 -9.9587 -9.9587 -9.9587 -9.9587 -9.99322 -9.99322 -9.99322 -9.99322 -9.76254 -9.76254 -9.76254 -9.76254 -10.1086 -10.1086 -10.1086 -10.1086 -9.6204 -9.6204 -9.6204 -9.6204 -9.10568 -9.10568 -9.10568 -9.10568 -9.72036 -9.72036 -9.72036 -9.72036 -9.94965 -9.94965 -9.94965 -9.94965 -9.95519 -9.95519 -9.95519 -9.95519 -9.97313 -9.97313 -9.97313 -9.97313 -10.1286 -10.1286 -10.1286 -10.1286 -7.71914 -7.71914 -7.71914 -7.71914 -10.0501 -10.0501 -10.0501 -10.0501 -9.99341 -9.99341 -9.99341 -9.99341 -9.92853 -9.92853 -9.92853 -9.92853 -9.91077 -9.91077 -9.91077 -9.91077 -10.2394 -10.2394 -10.2394 -10.2394 -9.93987 -9.93987 -9.93987 -9.93987 -9.84633 -9.84633 -9.84633 -9.84633 -9.93178 -9.93178 -9.93178 -9.93178 -8.88534 -8.88534 -8.88534 -8.88534 -9.95214 -9.95214 -9.95214 -9.95214 -9.91651 -9.91651 -9.91651 -9.91651 -9.96442 -9.96442 -9.96442 -9.96442 -9.97121 -9.97121 -9.97121 -9.97121 -9.96572 -9.96572 -9.96572 -9.96572 -9.99363 -9.99363 -9.99363 -9.99363 -10.0102 -10.0102 -10.0102 -10.0102 -9.91984 -9.91984 -9.91984 -9.91984 -9.91551 -9.91551 -9.91551 -9.91551 -9.97777 -9.97777 -9.97777 -9.97777 -9.97096 -9.97096 -9.97096 -9.97096 -9.93237 -9.93237 -9.93237 -9.93237 -9.9429 -9.9429 -9.9429 -9.9429 -9.93392 -9.93392 -9.93392 -9.93392 -9.98448 -9.98448 -9.98448 -9.98448 -10.015 -10.015 -10.015 -10.015 -9.9802 -9.9802 -9.9802 -9.9802 -9.92588 -9.92588 -9.92588 -9.92588 -9.92209 -9.92209 -9.92209 -9.92209 -9.90028 -9.90028 -9.90028 -9.90028 -9.99195 -9.99195 -9.99195 -9.99195 -9.91975 -9.91975 -9.91975 -9.91975 -9.74176 -9.74176 -9.74176 -9.74176 -9.80378 -9.80378 -9.80378 -9.80378 -9.70821 -9.70821 -9.70821 -9.70821 -9.98104 -9.98104 -9.98104 -9.98104 -9.65053 -9.65053 -9.65053 -9.65053 -9.92797 -9.92797 -9.92797 -9.92797 -10.0068 -10.0068 -10.0068 -10.0068 -10.0926 -10.0926 -10.0926 -10.0926 -9.95827 -9.95827 -9.95827 -9.95827 -9.98736 -9.98736 -9.98736 -9.98736 -9.91828 -9.91828 -9.91828 -9.91828 -10.1014 -10.1014 -10.1014 -10.1014 -10.0885 -10.0885 -10.0885 -10.0885 -10.1639 -10.1639 -10.1639 -10.1639 -9.9373 -9.9373 -9.9373 -9.9373 -9.95895 -9.95895 -9.95895 -9.95895 -9.98393 -9.98393 -9.98393 -9.98393 -9.88265 -9.88265 -9.88265 -9.88265 -9.97143 -9.97143 -9.97143 -9.97143 -9.90942 -9.90942 -9.90942 -9.90942 -10.1792 -10.1792 -10.1792 -10.1792 -9.98473 -9.98473 -9.98473 -9.98473 -9.90798 -9.90798 -9.90798 -9.90798 -9.82966 -9.82966 -9.82966 -9.82966 -9.99724 -9.99724 -9.99724 -9.99724 -9.98805 -9.98805 -9.98805 -9.98805 -9.95183 -9.95183 -9.95183 -9.95183 -9.95434 -9.95434 -9.95434 -9.95434 -9.95698 -9.95698 -9.95698 -9.95698 -9.96681 -9.96681 -9.96681 -9.96681 -9.91867 -9.91867 -9.91867 -9.91867 -9.97824 -9.97824 -9.97824 -9.97824 -9.96516 -9.96516 -9.96516 -9.96516 -9.96517 -9.96517 -9.96517 -9.96517 -10.8679 -10.8679 -10.8679 -10.8679 -9.84913 -9.84913 -9.84913 -9.84913 -10.1902 -10.1902 -10.1902 -10.1902 -10.1205 -10.1205 -10.1205 -10.1205 -9.94746 -9.94746 -9.94746 -9.94746 -10.0916 -10.0916 -10.0916 -10.0916 -10.1502 -10.1502 -10.1502 -10.1502 -9.97661 -9.97661 -9.97661 -9.97661 -9.95326 -9.95326 -9.95326 -9.95326 -10.0266 -10.0266 -10.0266 -10.0266 -10.1009 -10.1009 -10.1009 -10.1009 -10.3734 -10.3734 -10.3734 -10.3734 -9.99278 -9.99278 -9.99278 -9.99278 -9.97235 -9.97235 -9.97235 -9.97235 -10.0664 -10.0664 -10.0664 -10.0664 -9.98987 -9.98987 -9.98987 -9.98987 -9.95361 -9.95361 -9.95361 -9.95361 -10.1016 -10.1016 -10.1016 -10.1016 -9.93597 -9.93597 -9.93597 -9.93597 -9.98247 -9.98247 -9.98247 -9.98247 -9.96149 -9.96149 -9.96149 -9.96149 -9.95973 -9.95973 -9.95973 -9.95973 -9.99376 -9.99376 -9.99376 -9.99376 -5.53364 -5.53364 -5.53364 -5.53364 -9.97471 -9.97471 -9.97471 -9.97471 -9.95398 -9.95398 -9.95398 -9.95398 -10.0176 -10.0176 -10.0176 -10.0176 -9.9005 -9.9005 -9.9005 -9.9005 -10.0709 -10.0709 -10.0709 -10.0709 -9.93483 -9.93483 -9.93483 -9.93483 -9.95674 -9.95674 -9.95674 -9.95674 -9.95209 -9.95209 -9.95209 -9.95209 -9.95635 -9.95635 -9.95635 -9.95635 -9.93907 -9.93907 -9.93907 -9.93907 -9.95844 -9.95844 -9.95844 -9.95844 -9.99199 -9.99199 -9.99199 -9.99199 -9.95058 -9.95058 -9.95058 -9.95058 -9.99407 -9.99407 -9.99407 -9.99407 -10.0646 -10.0646 -10.0646 -10.0646 -9.96627 -9.96627 -9.96627 -9.96627 -9.95768 -9.95768 -9.95768 -9.95768 -9.97133 -9.97133 -9.97133 -9.97133 -9.92238 -9.92238 -9.92238 -9.92238 -9.90393 -9.90393 -9.90393 -9.90393 -9.85467 -9.85467 -9.85467 -9.85467 -9.95268 -9.95268 -9.95268 -9.95268 -10.2753 -10.2753 -10.2753 -10.2753 -9.97415 -9.97415 -9.97415 -9.97415 -9.9334 -9.9334 -9.9334 -9.9334 -10.3372 -10.3372 -10.3372 -10.3372 -9.98434 -9.98434 -9.98434 -9.98434 -10.0234 -10.0234 -10.0234 -10.0234 -9.9719 -9.9719 -9.9719 -9.9719 -9.95618 -9.95618 -9.95618 -9.95618 -9.5228 -9.5228 -9.5228 -9.5228 -9.95628 -9.95628 -9.95628 -9.95628 -9.9119 -9.9119 -9.9119 -9.9119 -9.98097 -9.98097 -9.98097 -9.98097 -10.2795 -10.2795 -10.2795 -10.2795 -8.42357 -8.42357 -8.42357 -8.42357 -9.89724 -9.89724 -9.89724 -9.89724 -10.2154 -10.2154 -10.2154 -10.2154 -9.94583 -9.94583 -9.94583 -9.94583 -9.96423 -9.96423 -9.96423 -9.96423 -9.98207 -9.98207 -9.98207 -9.98207 -9.92769 -9.92769 -9.92769 -9.92769 -9.99242 -9.99242 -9.99242 -9.99242 -9.98794 -9.98794 -9.98794 -9.98794 -9.85693 -9.85693 -9.85693 -9.85693 -9.94623 -9.94623 -9.94623 -9.94623 -9.99502 -9.99502 -9.99502 -9.99502 -9.92978 -9.92978 -9.92978 -9.92978 -9.81971 -9.81971 -9.81971 -9.81971 -9.97874 -9.97874 -9.97874 -9.97874 -9.91367 -9.91367 -9.91367 -9.91367 -10.0108 -10.0108 -10.0108 -10.0108 -10.2483 -10.2483 -10.2483 -10.2483 -9.91598 -9.91598 -9.91598 -9.91598 -10.0518 -10.0518 -10.0518 -10.0518 -9.92579 -9.92579 -9.92579 -9.92579 -10.1446 -10.1446 -10.1446 -10.1446 -10.2662 -10.2662 -10.2662 -10.2662 -9.98034 -9.98034 -9.98034 -9.98034 -10.6587 -10.6587 -10.6587 -10.6587 -9.91255 -9.91255 -9.91255 -9.91255 -7.01869 -7.01869 -7.01869 -7.01869 -9.9202 -9.9202 -9.9202 -9.9202 -9.96705 -9.96705 -9.96705 -9.96705 -9.92963 -9.92963 -9.92963 -9.92963 -9.93138 -9.93138 -9.93138 -9.93138 -9.92405 -9.92405 -9.92405 -9.92405 -9.98406 -9.98406 -9.98406 -9.98406 -10.3251 -10.3251 -10.3251 -10.3251 -9.94895 -9.94895 -9.94895 -9.94895 -9.97893 -9.97893 -9.97893 -9.97893 -10.0279 -10.0279 -10.0279 -10.0279 -4.46518 -4.46518 -4.46518 -4.46518 -9.25371 -9.25371 -9.25371 -9.25371 -11.4712 -11.4712 -11.4712 -11.4712 -9.98869 -9.98869 -9.98869 -9.98869 -9.91638 -9.91638 -9.91638 -9.91638 -9.92201 -9.92201 -9.92201 -9.92201 -9.92537 -9.92537 -9.92537 -9.92537 -9.91599 -9.91599 -9.91599 -9.91599 -9.9735 -9.9735 -9.9735 -9.9735 -10.5246 -10.5246 -10.5246 -10.5246 -9.92664 -9.92664 -9.92664 -9.92664 -9.91631 -9.91631 -9.91631 -9.91631 -9.97064 -9.97064 -9.97064 -9.97064 -10.167 -10.167 -10.167 -10.167 -9.98179 -9.98179 -9.98179 -9.98179 -9.86079 -9.86079 -9.86079 -9.86079 -9.89008 -9.89008 -9.89008 -9.89008 -9.91868 -9.91868 -9.91868 -9.91868 -9.97373 -9.97373 -9.97373 -9.97373 -9.99477 -9.99477 -9.99477 -9.99477 -9.97471 -9.97471 -9.97471 -9.97471 -9.90982 -9.90982 -9.90982 -9.90982 -10.1152 -10.1152 -10.1152 -10.1152 -9.94015 -9.94015 -9.94015 -9.94015 -10.0655 -10.0655 -10.0655 -10.0655 -10.7052 -10.7052 -10.7052 -10.7052 -9.99234 -9.99234 -9.99234 -9.99234 -9.93917 -9.93917 -9.93917 -9.93917 -9.93038 -9.93038 -9.93038 -9.93038 -9.96754 -9.96754 -9.96754 -9.96754 -9.92015 -9.92015 -9.92015 -9.92015 -9.96331 -9.96331 -9.96331 -9.96331 -10.2355 -10.2355 -10.2355 -10.2355 -9.92694 -9.92694 -9.92694 -9.92694 -9.95825 -9.95825 -9.95825 -9.95825 -10.2451 -10.2451 -10.2451 -10.2451 -9.90402 -9.90402 -9.90402 -9.90402 -9.96806 -9.96806 -9.96806 -9.96806 -9.95582 -9.95582 -9.95582 -9.95582 -9.95497 -9.95497 -9.95497 -9.95497 -10.3462 -10.3462 -10.3462 -10.3462 -9.92805 -9.92805 -9.92805 -9.92805 -10.1072 -10.1072 -10.1072 -10.1072 -10.1973 -10.1973 -10.1973 -10.1973 -9.97167 -9.97167 -9.97167 -9.97167 -9.96508 -9.96508 -9.96508 -9.96508 -10.1557 -10.1557 -10.1557 -10.1557 -8.70656 -8.70656 -8.70656 -8.70656 -9.93654 -9.93654 -9.93654 -9.93654 -9.97495 -9.97495 -9.97495 -9.97495 -9.89527 -9.89527 -9.89527 -9.89527 -9.95916 -9.95916 -9.95916 -9.95916 -9.91737 -9.91737 -9.91737 -9.91737 -9.98284 -9.98284 -9.98284 -9.98284 -9.97971 -9.97971 -9.97971 -9.97971 -9.81306 -9.81306 -9.81306 -9.81306 -9.99447 -9.99447 -9.99447 -9.99447 -10.135 -10.135 -10.135 -10.135 -9.96411 -9.96411 -9.96411 -9.96411 -9.92924 -9.92924 -9.92924 -9.92924 -9.98914 -9.98914 -9.98914 -9.98914 -10.0017 -10.0017 -10.0017 -10.0017 -9.99046 -9.99046 -9.99046 -9.99046 -9.96976 -9.96976 -9.96976 -9.96976 -10.0552 -10.0552 -10.0552 -10.0552 -10.0789 -10.0789 -10.0789 -10.0789 -11.0173 -11.0173 -11.0173 -11.0173 -9.89013 -9.89013 -9.89013 -9.89013 -9.95983 -9.95983 -9.95983 -9.95983 -11.3584 -11.3584 -11.3584 -11.3584 -9.67352 -9.67352 -9.67352 -9.67352 -9.92889 -9.92889 -9.92889 -9.92889 -9.92835 -9.92835 -9.92835 -9.92835 -9.84772 -9.84772 -9.84772 -9.84772 -9.90208 -9.90208 -9.90208 -9.90208 -10.2521 -10.2521 -10.2521 -10.2521 -9.91262 -9.91262 -9.91262 -9.91262 -10.2829 -10.2829 -10.2829 -10.2829 -10.0229 -10.0229 -10.0229 -10.0229 -9.97549 -9.97549 -9.97549 -9.97549 -9.91432 -9.91432 -9.91432 -9.91432 -9.9552 -9.9552 -9.9552 -9.9552 -9.89575 -9.89575 -9.89575 -9.89575 -9.95335 -9.95335 -9.95335 -9.95335 -9.95547 -9.95547 -9.95547 -9.95547 -9.9119 -9.9119 -9.9119 -9.9119 -10.1045 -10.1045 -10.1045 -10.1045 -9.91188 -9.91188 -9.91188 -9.91188 -9.9178 -9.9178 -9.9178 -9.9178 -9.89262 -9.89262 -9.89262 -9.89262 -9.99458 -9.99458 -9.99458 -9.99458 -10.0289 -10.0289 -10.0289 -10.0289 -10.2867 -10.2867 -10.2867 -10.2867 -9.98302 -9.98302 -9.98302 -9.98302 -9.95655 -9.95655 -9.95655 -9.95655 -9.95192 -9.95192 -9.95192 -9.95192 -9.99451 -9.99451 -9.99451 -9.99451 -10.0124 -10.0124 -10.0124 -10.0124 -10.083 -10.083 -10.083 -10.083 -9.80692 -9.80692 -9.80692 -9.80692 -9.97438 -9.97438 -9.97438 -9.97438 -10.4133 -10.4133 -10.4133 -10.4133 -9.94442 -9.94442 -9.94442 -9.94442 -9.96381 -9.96381 -9.96381 -9.96381 -9.99239 -9.99239 -9.99239 -9.99239 -10.2099 -10.2099 -10.2099 -10.2099 -9.90797 -9.90797 -9.90797 -9.90797 -9.94254 -9.94254 -9.94254 -9.94254 -9.95337 -9.95337 -9.95337 -9.95337 -9.94693 -9.94693 -9.94693 -9.94693 -9.97756 -9.97756 -9.97756 -9.97756 -10.2166 -10.2166 -10.2166 -10.2166 -9.83202 -9.83202 -9.83202 -9.83202 -9.91276 -9.91276 -9.91276 -9.91276 -10.1071 -10.1071 -10.1071 -10.1071 -9.96525 -9.96525 -9.96525 -9.96525 -9.93344 -9.93344 -9.93344 -9.93344 -9.85094 -9.85094 -9.85094 -9.85094 -9.8912 -9.8912 -9.8912 -9.8912 -10.0307 -10.0307 -10.0307 -10.0307 -9.92343 -9.92343 -9.92343 -9.92343 -4.96352 -4.96352 -4.96352 -4.96352 -9.9829 -9.9829 -9.9829 -9.9829 -9.99282 -9.99282 -9.99282 -9.99282 -9.29459 -9.29459 -9.29459 -9.29459 -9.93355 -9.93355 -9.93355 -9.93355 -9.959 -9.959 -9.959 -9.959 -9.88549 -9.88549 -9.88549 -9.88549 -9.95433 -9.95433 -9.95433 -9.95433 -9.84766 -9.84766 -9.84766 -9.84766 -9.92004 -9.92004 -9.92004 -9.92004 -9.94906 -9.94906 -9.94906 -9.94906 -9.90067 -9.90067 -9.90067 -9.90067 -9.96658 -9.96658 -9.96658 -9.96658 -9.92304 -9.92304 -9.92304 -9.92304 -9.91687 -9.91687 -9.91687 -9.91687 -9.89478 -9.89478 -9.89478 -9.89478 -10.1195 -10.1195 -10.1195 -10.1195 -10.0158 -10.0158 -10.0158 -10.0158 -9.94763 -9.94763 -9.94763 -9.94763 -9.95241 -9.95241 -9.95241 -9.95241 -10.2318 -10.2318 -10.2318 -10.2318 -9.85538 -9.85538 -9.85538 -9.85538 -9.92193 -9.92193 -9.92193 -9.92193 -11.1287 -11.1287 -11.1287 -11.1287 -9.94571 -9.94571 -9.94571 -9.94571 -9.9632 -9.9632 -9.9632 -9.9632 -9.97252 -9.97252 -9.97252 -9.97252 -10.2658 -10.2658 -10.2658 -10.2658 -9.99373 -9.99373 -9.99373 -9.99373 -10.2066 -10.2066 -10.2066 -10.2066 -10.1371 -10.1371 -10.1371 -10.1371 -9.95621 -9.95621 -9.95621 -9.95621 -9.9497 -9.9497 -9.9497 -9.9497 -9.92755 -9.92755 -9.92755 -9.92755 -10.0056 -10.0056 -10.0056 -10.0056 -9.93578 -9.93578 -9.93578 -9.93578 -9.93406 -9.93406 -9.93406 -9.93406 -9.96712 -9.96712 -9.96712 -9.96712 -6.49616 -6.49616 -6.49616 -6.49616 -9.84976 -9.84976 -9.84976 -9.84976 -10.1231 -10.1231 -10.1231 -10.1231 -9.94767 -9.94767 -9.94767 -9.94767 -9.97593 -9.97593 -9.97593 -9.97593 -9.90014 -9.90014 -9.90014 -9.90014 -9.99269 -9.99269 -9.99269 -9.99269 -9.54925 -9.54925 -9.54925 -9.54925 -10.3627 -10.3627 -10.3627 -10.3627 -10.096 -10.096 -10.096 -10.096 -9.9792 -9.9792 -9.9792 -9.9792 -9.94421 -9.94421 -9.94421 -9.94421 -9.93488 -9.93488 -9.93488 -9.93488 -9.8267 -9.8267 -9.8267 -9.8267 -9.94063 -9.94063 -9.94063 -9.94063 -9.93235 -9.93235 -9.93235 -9.93235 -10.2298 -10.2298 -10.2298 -10.2298 -9.99276 -9.99276 -9.99276 -9.99276 -10.3278 -10.3278 -10.3278 -10.3278 -9.94517 -9.94517 -9.94517 -9.94517 -10.1796 -10.1796 -10.1796 -10.1796 -9.97802 -9.97802 -9.97802 -9.97802 -10.0273 -10.0273 -10.0273 -10.0273 -9.99729 -9.99729 -9.99729 -9.99729 -10.0127 -10.0127 -10.0127 -10.0127 -9.98507 -9.98507 -9.98507 -9.98507 -9.88253 -9.88253 -9.88253 -9.88253 -9.97679 -9.97679 -9.97679 -9.97679 -9.96989 -9.96989 -9.96989 -9.96989 -9.93689 -9.93689 -9.93689 -9.93689 -11.0436 -11.0436 -11.0436 -11.0436 -9.9536 -9.9536 -9.9536 -9.9536 -9.93737 -9.93737 -9.93737 -9.93737 -9.94741 -9.94741 -9.94741 -9.94741 -10.1085 -10.1085 -10.1085 -10.1085 -10.0311 -10.0311 -10.0311 -10.0311 -9.90579 -9.90579 -9.90579 -9.90579 -9.91112 -9.91112 -9.91112 -9.91112 -9.9202 -9.9202 -9.9202 -9.9202 -9.92524 -9.92524 -9.92524 -9.92524 -9.94868 -9.94868 -9.94868 -9.94868 -9.87894 -9.87894 -9.87894 -9.87894 -9.9828 -9.9828 -9.9828 -9.9828 -9.91381 -9.91381 -9.91381 -9.91381 -9.91468 -9.91468 -9.91468 -9.91468 -10.0265 -10.0265 -10.0265 -10.0265 -9.73292 -9.73292 -9.73292 -9.73292 -10.0975 -10.0975 -10.0975 -10.0975 -9.65526 -9.65526 -9.65526 -9.65526 -9.98564 -9.98564 -9.98564 -9.98564 -9.91977 -9.91977 -9.91977 -9.91977 -9.93069 -9.93069 -9.93069 -9.93069 -9.8947 -9.8947 -9.8947 -9.8947 -9.97065 -9.97065 -9.97065 -9.97065 -9.94455 -9.94455 -9.94455 -9.94455 -9.9468 -9.9468 -9.9468 -9.9468 -9.91577 -9.91577 -9.91577 -9.91577 -10.0474 -10.0474 -10.0474 -10.0474 -9.97741 -9.97741 -9.97741 -9.97741 -9.95913 -9.95913 -9.95913 -9.95913 -9.99249 -9.99249 -9.99249 -9.99249 -9.89819 -9.89819 -9.89819 -9.89819 -10.1257 -10.1257 -10.1257 -10.1257 -9.94752 -9.94752 -9.94752 -9.94752 -9.93048 -9.93048 -9.93048 -9.93048 -9.99298 -9.99298 -9.99298 -9.99298 -9.99357 -9.99357 -9.99357 -9.99357 -9.74039 -9.74039 -9.74039 -9.74039 -9.95873 -9.95873 -9.95873 -9.95873 -9.74804 -9.74804 -9.74804 -9.74804 -9.91039 -9.91039 -9.91039 -9.91039 -9.99464 -9.99464 -9.99464 -9.99464 -10.0217 -10.0217 -10.0217 -10.0217 -9.9169 -9.9169 -9.9169 -9.9169 -9.98018 -9.98018 -9.98018 -9.98018 -9.95241 -9.95241 -9.95241 -9.95241 -10.0057 -10.0057 -10.0057 -10.0057 -9.94211 -9.94211 -9.94211 -9.94211 -9.99073 -9.99073 -9.99073 -9.99073 -9.93638 -9.93638 -9.93638 -9.93638 -9.91384 -9.91384 -9.91384 -9.91384 -9.99532 -9.99532 -9.99532 -9.99532 -9.92202 -9.92202 -9.92202 -9.92202 -10.3648 -10.3648 -10.3648 -10.3648 -10.3628 -10.3628 -10.3628 -10.3628 -9.98107 -9.98107 -9.98107 -9.98107 -9.87441 -9.87441 -9.87441 -9.87441 -9.6794 -9.6794 -9.6794 -9.6794 -9.87622 -9.87622 -9.87622 -9.87622 -9.95071 -9.95071 -9.95071 -9.95071 -10.1813 -10.1813 -10.1813 -10.1813 -9.95479 -9.95479 -9.95479 -9.95479 -9.94406 -9.94406 -9.94406 -9.94406 -9.95422 -9.95422 -9.95422 -9.95422 -10.2705 -10.2705 -10.2705 -10.2705 -9.91558 -9.91558 -9.91558 -9.91558 -9.97351 -9.97351 -9.97351 -9.97351 -9.99356 -9.99356 -9.99356 -9.99356 -9.96796 -9.96796 -9.96796 -9.96796 -9.85753 -9.85753 -9.85753 -9.85753 -10.1086 -10.1086 -10.1086 -10.1086 -9.97353 -9.97353 -9.97353 -9.97353 -10.7679 -10.7679 -10.7679 -10.7679 -9.90026 -9.90026 -9.90026 -9.90026 -9.89967 -9.89967 -9.89967 -9.89967 -9.96492 -9.96492 -9.96492 -9.96492 -9.91752 -9.91752 -9.91752 -9.91752 -8.99727 -8.99727 -8.99727 -8.99727 -9.98653 -9.98653 -9.98653 -9.98653 -9.9822 -9.9822 -9.9822 -9.9822 -8.45312 -8.45312 -8.45312 -8.45312 -10.5431 -10.5431 -10.5431 -10.5431 -10.0334 -10.0334 -10.0334 -10.0334 -9.9323 -9.9323 -9.9323 -9.9323 -9.94688 -9.94688 -9.94688 -9.94688 -9.90107 -9.90107 -9.90107 -9.90107 -9.98549 -9.98549 -9.98549 -9.98549 -9.9665 -9.9665 -9.9665 -9.9665 -9.98093 -9.98093 -9.98093 -9.98093 -9.94417 -9.94417 -9.94417 -9.94417 -9.91845 -9.91845 -9.91845 -9.91845 -9.99753 -9.99753 -9.99753 -9.99753 -9.9679 -9.9679 -9.9679 -9.9679 -9.99288 -9.99288 -9.99288 -9.99288 -9.9409 -9.9409 -9.9409 -9.9409 -12.2953 -12.2953 -12.2953 -12.2953 -9.93681 -9.93681 -9.93681 -9.93681 -9.97535 -9.97535 -9.97535 -9.97535 -9.99501 -9.99501 -9.99501 -9.99501 -9.95827 -9.95827 -9.95827 -9.95827 -9.93989 -9.93989 -9.93989 -9.93989 -9.99286 -9.99286 -9.99286 -9.99286 -9.93315 -9.93315 -9.93315 -9.93315 -10.1465 -10.1465 -10.1465 -10.1465 -9.98428 -9.98428 -9.98428 -9.98428 -10.0011 -10.0011 -10.0011 -10.0011 -10.7762 -10.7762 -10.7762 -10.7762 -9.96386 -9.96386 -9.96386 -9.96386 -9.91284 -9.91284 -9.91284 -9.91284 -9.9678 -9.9678 -9.9678 -9.9678 -11.1077 -11.1077 -11.1077 -11.1077 -9.94921 -9.94921 -9.94921 -9.94921 -10.8558 -10.8558 -10.8558 -10.8558 -9.98383 -9.98383 -9.98383 -9.98383 -9.89482 -9.89482 -9.89482 -9.89482 -9.99065 -9.99065 -9.99065 -9.99065 -10.041 -10.041 -10.041 -10.041 -9.92237 -9.92237 -9.92237 -9.92237 -9.8845 -9.8845 -9.8845 -9.8845 -9.95977 -9.95977 -9.95977 -9.95977 -9.89302 -9.89302 -9.89302 -9.89302 -9.94982 -9.94982 -9.94982 -9.94982 -9.99334 -9.99334 -9.99334 -9.99334 -9.97676 -9.97676 -9.97676 -9.97676 -9.84362 -9.84362 -9.84362 -9.84362 -9.9695 -9.9695 -9.9695 -9.9695 -9.86081 -9.86081 -9.86081 -9.86081 -10.6795 -10.6795 -10.6795 -10.6795 -9.98585 -9.98585 -9.98585 -9.98585 -9.92672 -9.92672 -9.92672 -9.92672 -9.94942 -9.94942 -9.94942 -9.94942 -4.50047 -4.50047 -4.50047 -4.50047 -9.93679 -9.93679 -9.93679 -9.93679 -9.93002 -9.93002 -9.93002 -9.93002 -9.90687 -9.90687 -9.90687 -9.90687 -9.91377 -9.91377 -9.91377 -9.91377 -9.94187 -9.94187 -9.94187 -9.94187 -10.5598 -10.5598 -10.5598 -10.5598 -5.16358 -5.16358 -5.16358 -5.16358 -10.0229 -10.0229 -10.0229 -10.0229 -9.94383 -9.94383 -9.94383 -9.94383 -9.92438 -9.92438 -9.92438 -9.92438 -10.2707 -10.2707 -10.2707 -10.2707 -9.90917 -9.90917 -9.90917 -9.90917 -9.93617 -9.93617 -9.93617 -9.93617 -10.0651 -10.0651 -10.0651 -10.0651 -9.92652 -9.92652 -9.92652 -9.92652 -9.94815 -9.94815 -9.94815 -9.94815 -9.95031 -9.95031 -9.95031 -9.95031 -9.90443 -9.90443 -9.90443 -9.90443 -10.2572 -10.2572 -10.2572 -10.2572 -9.92862 -9.92862 -9.92862 -9.92862 -9.9396 -9.9396 -9.9396 -9.9396 -9.99277 -9.99277 -9.99277 -9.99277 -9.95908 -9.95908 -9.95908 -9.95908 -9.92938 -9.92938 -9.92938 -9.92938 -9.89812 -9.89812 -9.89812 -9.89812 -9.96435 -9.96435 -9.96435 -9.96435 -9.99438 -9.99438 -9.99438 -9.99438 -9.91021 -9.91021 -9.91021 -9.91021 -9.98432 -9.98432 -9.98432 -9.98432 -11.0384 -11.0384 -11.0384 -11.0384 -9.88613 -9.88613 -9.88613 -9.88613 -9.87715 -9.87715 -9.87715 -9.87715 -10.0756 -10.0756 -10.0756 -10.0756 -9.88134 -9.88134 -9.88134 -9.88134 -9.89974 -9.89974 -9.89974 -9.89974 -9.91853 -9.91853 -9.91853 -9.91853 -9.95982 -9.95982 -9.95982 -9.95982 -9.90446 -9.90446 -9.90446 -9.90446 -9.98383 -9.98383 -9.98383 -9.98383 -10.0225 -10.0225 -10.0225 -10.0225 -9.91492 -9.91492 -9.91492 -9.91492 -9.94151 -9.94151 -9.94151 -9.94151 -9.9945 -9.9945 -9.9945 -9.9945 -10.6131 -10.6131 -10.6131 -10.6131 -9.99593 -9.99593 -9.99593 -9.99593 -9.92234 -9.92234 -9.92234 -9.92234 -9.91193 -9.91193 -9.91193 -9.91193 -9.97527 -9.97527 -9.97527 -9.97527 -10.0721 -10.0721 -10.0721 -10.0721 -9.94677 -9.94677 -9.94677 -9.94677 -9.973 -9.973 -9.973 -9.973 -11.1115 -11.1115 -11.1115 -11.1115 -10.0875 -10.0875 -10.0875 -10.0875 -9.96207 -9.96207 -9.96207 -9.96207 -10.2399 -10.2399 -10.2399 -10.2399 -9.95149 -9.95149 -9.95149 -9.95149 -10.1726 -10.1726 -10.1726 -10.1726 -9.60459 -9.60459 -9.60459 -9.60459 -9.94587 -9.94587 -9.94587 -9.94587 -9.91233 -9.91233 -9.91233 -9.91233 -9.97563 -9.97563 -9.97563 -9.97563 -9.95075 -9.95075 -9.95075 -9.95075 -6.86705 -6.86705 -6.86705 -6.86705 -9.9389 -9.9389 -9.9389 -9.9389 -9.89708 -9.89708 -9.89708 -9.89708 -10.1713 -10.1713 -10.1713 -10.1713 -9.91032 -9.91032 -9.91032 -9.91032 -9.91983 -9.91983 -9.91983 -9.91983 -10.0043 -10.0043 -10.0043 -10.0043 -9.97379 -9.97379 -9.97379 -9.97379 -9.92166 -9.92166 -9.92166 -9.92166 -9.89623 -9.89623 -9.89623 -9.89623 -9.83083 -9.83083 -9.83083 -9.83083 -10.3499 -10.3499 -10.3499 -10.3499 -9.91706 -9.91706 -9.91706 -9.91706 -9.98727 -9.98727 -9.98727 -9.98727 -10.2247 -10.2247 -10.2247 -10.2247 -9.91205 -9.91205 -9.91205 -9.91205 -9.98045 -9.98045 -9.98045 -9.98045 -9.51476 -9.51476 -9.51476 -9.51476 -9.92611 -9.92611 -9.92611 -9.92611 -9.9069 -9.9069 -9.9069 -9.9069 -9.99336 -9.99336 -9.99336 -9.99336 -6.93321 -6.93321 -6.93321 -6.93321 -9.99 -9.99 -9.99 -9.99 -9.90926 -9.90926 -9.90926 -9.90926 -10.1436 -10.1436 -10.1436 -10.1436 -10.1196 -10.1196 -10.1196 -10.1196 -9.87993 -9.87993 -9.87993 -9.87993 -9.94911 -9.94911 -9.94911 -9.94911 -9.88422 -9.88422 -9.88422 -9.88422 -10.4036 -10.4036 -10.4036 -10.4036 -9.9859 -9.9859 -9.9859 -9.9859 -9.97798 -9.97798 -9.97798 -9.97798 -9.90719 -9.90719 -9.90719 -9.90719 -9.91653 -9.91653 -9.91653 -9.91653 -4.85958 -4.85958 -4.85958 -4.85958 -9.95893 -9.95893 -9.95893 -9.95893 -9.99351 -9.99351 -9.99351 -9.99351 -10.006 -10.006 -10.006 -10.006 -9.92879 -9.92879 -9.92879 -9.92879 -10.2452 -10.2452 -10.2452 -10.2452 -10.1964 -10.1964 -10.1964 -10.1964 -9.89065 -9.89065 -9.89065 -9.89065 -9.71632 -9.71632 -9.71632 -9.71632 -9.97614 -9.97614 -9.97614 -9.97614 -9.89312 -9.89312 -9.89312 -9.89312 -9.99443 -9.99443 -9.99443 -9.99443 -10.02 -10.02 -10.02 -10.02 -9.9317 -9.9317 -9.9317 -9.9317 -10.025 -10.025 -10.025 -10.025 -9.99151 -9.99151 -9.99151 -9.99151 -9.90646 -9.90646 -9.90646 -9.90646 -9.8955 -9.8955 -9.8955 -9.8955 -9.91606 -9.91606 -9.91606 -9.91606 -9.87016 -9.87016 -9.87016 -9.87016 -9.99382 -9.99382 -9.99382 -9.99382 -10.051 -10.051 -10.051 -10.051 -9.98897 -9.98897 -9.98897 -9.98897 -9.98187 -9.98187 -9.98187 -9.98187 -9.93081 -9.93081 -9.93081 -9.93081 -9.88278 -9.88278 -9.88278 -9.88278 -9.94391 -9.94391 -9.94391 -9.94391 -9.92047 -9.92047 -9.92047 -9.92047 -9.91461 -9.91461 -9.91461 -9.91461 -9.95409 -9.95409 -9.95409 -9.95409 -5.13056 -5.13056 -5.13056 -5.13056 -9.9943 -9.9943 -9.9943 -9.9943 -10.2538 -10.2538 -10.2538 -10.2538 -9.95298 -9.95298 -9.95298 -9.95298 -9.86976 -9.86976 -9.86976 -9.86976 -9.8746 -9.8746 -9.8746 -9.8746 -9.81665 -9.81665 -9.81665 -9.81665 -9.92839 -9.92839 -9.92839 -9.92839 -9.94872 -9.94872 -9.94872 -9.94872 -9.90731 -9.90731 -9.90731 -9.90731 -9.92672 -9.92672 -9.92672 -9.92672 -9.93726 -9.93726 -9.93726 -9.93726 -9.92341 -9.92341 -9.92341 -9.92341 -9.94007 -9.94007 -9.94007 -9.94007 -9.90241 -9.90241 -9.90241 -9.90241 -10.227 -10.227 -10.227 -10.227 -9.98341 -9.98341 -9.98341 -9.98341 -9.99308 -9.99308 -9.99308 -9.99308 -9.88179 -9.88179 -9.88179 -9.88179 -9.91453 -9.91453 -9.91453 -9.91453 -9.91149 -9.91149 -9.91149 -9.91149 -9.90689 -9.90689 -9.90689 -9.90689 -9.92754 -9.92754 -9.92754 -9.92754 -9.95546 -9.95546 -9.95546 -9.95546 -10.5056 -10.5056 -10.5056 -10.5056 -9.92671 -9.92671 -9.92671 -9.92671 -4.32285 -4.32285 -4.32285 -4.32285 -9.91563 -9.91563 -9.91563 -9.91563 -9.99487 -9.99487 -9.99487 -9.99487 -10.7372 -10.7372 -10.7372 -10.7372 -9.95828 -9.95828 -9.95828 -9.95828 -9.80595 -9.80595 -9.80595 -9.80595 -9.92905 -9.92905 -9.92905 -9.92905 -9.91573 -9.91573 -9.91573 -9.91573 -9.95952 -9.95952 -9.95952 -9.95952 -10.0165 -10.0165 -10.0165 -10.0165 -10.1309 -10.1309 -10.1309 -10.1309 -9.95085 -9.95085 -9.95085 -9.95085 -9.99392 -9.99392 -9.99392 -9.99392 -9.97571 -9.97571 -9.97571 -9.97571 -9.92837 -9.92837 -9.92837 -9.92837 -4.62143 -4.62143 -4.62143 -4.62143 -10.4577 -10.4577 -10.4577 -10.4577 -9.9244 -9.9244 -9.9244 -9.9244 -9.99259 -9.99259 -9.99259 -9.99259 -10.0643 -10.0643 -10.0643 -10.0643 -9.90513 -9.90513 -9.90513 -9.90513 -6.62898 -6.62898 -6.62898 -6.62898 -9.93322 -9.93322 -9.93322 -9.93322 -9.90828 -9.90828 -9.90828 -9.90828 -9.93916 -9.93916 -9.93916 -9.93916 -9.9862 -9.9862 -9.9862 -9.9862 -10.0107 -10.0107 -10.0107 -10.0107 -10.28 -10.28 -10.28 -10.28 -9.99082 -9.99082 -9.99082 -9.99082 -9.97464 -9.97464 -9.97464 -9.97464 -9.8869 -9.8869 -9.8869 -9.8869 -9.90999 -9.90999 -9.90999 -9.90999 -10.0441 -10.0441 -10.0441 -10.0441 -9.86867 -9.86867 -9.86867 -9.86867 -10.5424 -10.5424 -10.5424 -10.5424 -9.91236 -9.91236 -9.91236 -9.91236 -9.96043 -9.96043 -9.96043 -9.96043 -9.94743 -9.94743 -9.94743 -9.94743 -9.88955 -9.88955 -9.88955 -9.88955 -10.3123 -10.3123 -10.3123 -10.3123 -9.97917 -9.97917 -9.97917 -9.97917 -9.99344 -9.99344 -9.99344 -9.99344 -9.91717 -9.91717 -9.91717 -9.91717 -9.91646 -9.91646 -9.91646 -9.91646 -9.90182 -9.90182 -9.90182 -9.90182 -9.9504 -9.9504 -9.9504 -9.9504 -10.0622 -10.0622 -10.0622 -10.0622 -9.89796 -9.89796 -9.89796 -9.89796 -9.94467 -9.94467 -9.94467 -9.94467 -9.99372 -9.99372 -9.99372 -9.99372 -9.93769 -9.93769 -9.93769 -9.93769 -9.97583 -9.97583 -9.97583 -9.97583 -9.98429 -9.98429 -9.98429 -9.98429 -10.5477 -10.5477 -10.5477 -10.5477 -10.1964 -10.1964 -10.1964 -10.1964 -10.0187 -10.0187 -10.0187 -10.0187 -9.99506 -9.99506 -9.99506 -9.99506 -10.0125 -10.0125 -10.0125 -10.0125 -9.95473 -9.95473 -9.95473 -9.95473 -9.93381 -9.93381 -9.93381 -9.93381 -9.94063 -9.94063 -9.94063 -9.94063 -6.75706 -6.75706 -6.75706 -6.75706 -5.46581 -5.46581 -5.46581 -5.46581 -4.81971 -4.81971 -4.81971 -4.81971 -9.9846 -9.9846 -9.9846 -9.9846 -9.98055 -9.98055 -9.98055 -9.98055 -9.97284 -9.97284 -9.97284 -9.97284 -10.6594 -10.6594 -10.6594 -10.6594 -9.90889 -9.90889 -9.90889 -9.90889 -9.9915 -9.9915 -9.9915 -9.9915 -9.92409 -9.92409 -9.92409 -9.92409 -9.99912 -9.99912 -9.99912 -9.99912 -10.2938 -10.2938 -10.2938 -10.2938 -9.96557 -9.96557 -9.96557 -9.96557 -4.43635 -4.43635 -4.43635 -4.43635 -10.0934 -10.0934 -10.0934 -10.0934 -9.99289 -9.99289 -9.99289 -9.99289 -9.90952 -9.90952 -9.90952 -9.90952 -9.9143 -9.9143 -9.9143 -9.9143 -9.89617 -9.89617 -9.89617 -9.89617 -9.93022 -9.93022 -9.93022 -9.93022 -10.1485 -10.1485 -10.1485 -10.1485 -9.99519 -9.99519 -9.99519 -9.99519 -9.99434 -9.99434 -9.99434 -9.99434 -9.88927 -9.88927 -9.88927 -9.88927 -9.90606 -9.90606 -9.90606 -9.90606 -9.96465 -9.96465 -9.96465 -9.96465 -9.90008 -9.90008 -9.90008 -9.90008 -9.99385 -9.99385 -9.99385 -9.99385 -10.1562 -10.1562 -10.1562 -10.1562 -9.99449 -9.99449 -9.99449 -9.99449 -9.94018 -9.94018 -9.94018 -9.94018 -9.95801 -9.95801 -9.95801 -9.95801 -9.94963 -9.94963 -9.94963 -9.94963 -9.98428 -9.98428 -9.98428 -9.98428 -9.99299 -9.99299 -9.99299 -9.99299 -10.1296 -10.1296 -10.1296 -10.1296 -9.99191 -9.99191 -9.99191 -9.99191 -9.99327 -9.99327 -9.99327 -9.99327 -9.99287 -9.99287 -9.99287 -9.99287 -10.6445 -10.6445 -10.6445 -10.6445 -9.92268 -9.92268 -9.92268 -9.92268 -9.98181 -9.98181 -9.98181 -9.98181 -10.0633 -10.0633 -10.0633 -10.0633 -10.2492 -10.2492 -10.2492 -10.2492 -9.92862 -9.92862 -9.92862 -9.92862 -9.89447 -9.89447 -9.89447 -9.89447 -9.92857 -9.92857 -9.92857 -9.92857 -11.2442 -11.2442 -11.2442 -11.2442 -9.99284 -9.99284 -9.99284 -9.99284 -10.0104 -10.0104 -10.0104 -10.0104 -9.94883 -9.94883 -9.94883 -9.94883 -9.90437 -9.90437 -9.90437 -9.90437 -9.9142 -9.9142 -9.9142 -9.9142 -9.95036 -9.95036 -9.95036 -9.95036 -9.9957 -9.9957 -9.9957 -9.9957 -9.98519 -9.98519 -9.98519 -9.98519 -9.91937 -9.91937 -9.91937 -9.91937 -4.5565 -4.5565 -4.5565 -4.5565 -9.94832 -9.94832 -9.94832 -9.94832 -9.91573 -9.91573 -9.91573 -9.91573 -9.96649 -9.96649 -9.96649 -9.96649 -9.96264 -9.96264 -9.96264 -9.96264 -9.95902 -9.95902 -9.95902 -9.95902 -10.0125 -10.0125 -10.0125 -10.0125 -9.98629 -9.98629 -9.98629 -9.98629 -9.93244 -9.93244 -9.93244 -9.93244 -10.0304 -10.0304 -10.0304 -10.0304 -9.99346 -9.99346 -9.99346 -9.99346 -9.98657 -9.98657 -9.98657 -9.98657 -9.98391 -9.98391 -9.98391 -9.98391 -9.93144 -9.93144 -9.93144 -9.93144 -9.93745 -9.93745 -9.93745 -9.93745 -10.1035 -10.1035 -10.1035 -10.1035 -9.99354 -9.99354 -9.99354 -9.99354 -9.99499 -9.99499 -9.99499 -9.99499 -9.95228 -9.95228 -9.95228 -9.95228 -10.1011 -10.1011 -10.1011 -10.1011 -9.91277 -9.91277 -9.91277 -9.91277 -9.94096 -9.94096 -9.94096 -9.94096 -10.033 -10.033 -10.033 -10.033 -9.96218 -9.96218 -9.96218 -9.96218 -9.98371 -9.98371 -9.98371 -9.98371 -9.9454 -9.9454 -9.9454 -9.9454 -9.99513 -9.99513 -9.99513 -9.99513 -9.98707 -9.98707 -9.98707 -9.98707 -9.98526 -9.98526 -9.98526 -9.98526 -9.92914 -9.92914 -9.92914 -9.92914 -11.5927 -11.5927 -11.5927 -11.5927 -9.90728 -9.90728 -9.90728 -9.90728 -9.98202 -9.98202 -9.98202 -9.98202 -9.99504 -9.99504 -9.99504 -9.99504 -9.98439 -9.98439 -9.98439 -9.98439 -9.92605 -9.92605 -9.92605 -9.92605 -9.94382 -9.94382 -9.94382 -9.94382 -10.8272 -10.8272 -10.8272 -10.8272 -10.1547 -10.1547 -10.1547 -10.1547 -9.95629 -9.95629 -9.95629 -9.95629 -10.197 -10.197 -10.197 -10.197 -10.007 -10.007 -10.007 -10.007 -9.95048 -9.95048 -9.95048 -9.95048 -9.89473 -9.89473 -9.89473 -9.89473 -9.94223 -9.94223 -9.94223 -9.94223 -9.82919 -9.82919 -9.82919 -9.82919 -9.96616 -9.96616 -9.96616 -9.96616 -9.98554 -9.98554 -9.98554 -9.98554 -9.9803 -9.9803 -9.9803 -9.9803 -9.97531 -9.97531 -9.97531 -9.97531 -10.0224 -10.0224 -10.0224 -10.0224 -9.97536 -9.97536 -9.97536 -9.97536 -9.96239 -9.96239 -9.96239 -9.96239 -9.98512 -9.98512 -9.98512 -9.98512 -9.82838 -9.82838 -9.82838 -9.82838 -9.92388 -9.92388 -9.92388 -9.92388 -10.0091 -10.0091 -10.0091 -10.0091 -9.98605 -9.98605 -9.98605 -9.98605 -9.91708 -9.91708 -9.91708 -9.91708 -9.99239 -9.99239 -9.99239 -9.99239 -10.3243 -10.3243 -10.3243 -10.3243 -9.99427 -9.99427 -9.99427 -9.99427 -9.95413 -9.95413 -9.95413 -9.95413 -4.42656 -4.42656 -4.42656 -4.42656 -9.94498 -9.94498 -9.94498 -9.94498 -9.93354 -9.93354 -9.93354 -9.93354 -10.442 -10.442 -10.442 -10.442 -10.1968 -10.1968 -10.1968 -10.1968 -10.0947 -10.0947 -10.0947 -10.0947 -9.99536 -9.99536 -9.99536 -9.99536 -10.0135 -10.0135 -10.0135 -10.0135 -9.91408 -9.91408 -9.91408 -9.91408 -9.92045 -9.92045 -9.92045 -9.92045 -9.86529 -9.86529 -9.86529 -9.86529 -9.94874 -9.94874 -9.94874 -9.94874 -9.95453 -9.95453 -9.95453 -9.95453 -9.99242 -9.99242 -9.99242 -9.99242 -9.99334 -9.99334 -9.99334 -9.99334 -9.91573 -9.91573 -9.91573 -9.91573 -9.91527 -9.91527 -9.91527 -9.91527 -9.95176 -9.95176 -9.95176 -9.95176 -10.1998 -10.1998 -10.1998 -10.1998 -9.99308 -9.99308 -9.99308 -9.99308 -11.0338 -11.0338 -11.0338 -11.0338 -9.9354 -9.9354 -9.9354 -9.9354 -9.99458 -9.99458 -9.99458 -9.99458 -9.99454 -9.99454 -9.99454 -9.99454 -9.97915 -9.97915 -9.97915 -9.97915 -9.90575 -9.90575 -9.90575 -9.90575 -9.96235 -9.96235 -9.96235 -9.96235 -9.99213 -9.99213 -9.99213 -9.99213 -9.9547 -9.9547 -9.9547 -9.9547 -9.997 -9.997 -9.997 -9.997 -9.96358 -9.96358 -9.96358 -9.96358 -9.91745 -9.91745 -9.91745 -9.91745 -9.99902 -9.99902 -9.99902 -9.99902 -9.9804 -9.9804 -9.9804 -9.9804 -9.96316 -9.96316 -9.96316 -9.96316 -9.99384 -9.99384 -9.99384 -9.99384 -9.89954 -9.89954 -9.89954 -9.89954 -9.90021 -9.90021 -9.90021 -9.90021 -9.91585 -9.91585 -9.91585 -9.91585 -9.97048 -9.97048 -9.97048 -9.97048 -10.1637 -10.1637 -10.1637 -10.1637 -10.0796 -10.0796 -10.0796 -10.0796 -9.90342 -9.90342 -9.90342 -9.90342 -9.94544 -9.94544 -9.94544 -9.94544 -9.9944 -9.9944 -9.9944 -9.9944 -9.95182 -9.95182 -9.95182 -9.95182 -10.0214 -10.0214 -10.0214 -10.0214 -9.98364 -9.98364 -9.98364 -9.98364 -10.3396 -10.3396 -10.3396 -10.3396 -9.98652 -9.98652 -9.98652 -9.98652 -10.0219 -10.0219 -10.0219 -10.0219 -9.93305 -9.93305 -9.93305 -9.93305 -9.97972 -9.97972 -9.97972 -9.97972 -9.86403 -9.86403 -9.86403 -9.86403 -9.97347 -9.97347 -9.97347 -9.97347 -9.98708 -9.98708 -9.98708 -9.98708 -9.87097 -9.87097 -9.87097 -9.87097 -9.97395 -9.97395 -9.97395 -9.97395 -10.089 -10.089 -10.089 -10.089 -9.98515 -9.98515 -9.98515 -9.98515 -9.98627 -9.98627 -9.98627 -9.98627 -9.95232 -9.95232 -9.95232 -9.95232 -9.89329 -9.89329 -9.89329 -9.89329 -9.98553 -9.98553 -9.98553 -9.98553 -9.95657 -9.95657 -9.95657 -9.95657 -9.97506 -9.97506 -9.97506 -9.97506 -9.97602 -9.97602 -9.97602 -9.97602 -9.91561 -9.91561 -9.91561 -9.91561 -9.91651 -9.91651 -9.91651 -9.91651 -9.92304 -9.92304 -9.92304 -9.92304 -9.91084 -9.91084 -9.91084 -9.91084 -10.0823 -10.0823 -10.0823 -10.0823 -9.92819 -9.92819 -9.92819 -9.92819 -10.0622 -10.0622 -10.0622 -10.0622 -9.93021 -9.93021 -9.93021 -9.93021 -9.96835 -9.96835 -9.96835 -9.96835 -9.56323 -9.56323 -9.56323 -9.56323 -9.9636 -9.9636 -9.9636 -9.9636 -9.99263 -9.99263 -9.99263 -9.99263 -10.0153 -10.0153 -10.0153 -10.0153 -9.93661 -9.93661 -9.93661 -9.93661 -9.99386 -9.99386 -9.99386 -9.99386 -9.93498 -9.93498 -9.93498 -9.93498 -9.99361 -9.99361 -9.99361 -9.99361 -9.99056 -9.99056 -9.99056 -9.99056 -9.99287 -9.99287 -9.99287 -9.99287 -9.94591 -9.94591 -9.94591 -9.94591 -9.99396 -9.99396 -9.99396 -9.99396 -9.99275 -9.99275 -9.99275 -9.99275 -4.46984 -4.46984 -4.46984 -4.46984 -10.4938 -10.4938 -10.4938 -10.4938 -9.93784 -9.93784 -9.93784 -9.93784 -11.7333 -11.7333 -11.7333 -11.7333 -9.90173 -9.90173 -9.90173 -9.90173 -9.95676 -9.95676 -9.95676 -9.95676 -9.98503 -9.98503 -9.98503 -9.98503 -9.99564 -9.99564 -9.99564 -9.99564 -9.99367 -9.99367 -9.99367 -9.99367 -9.96122 -9.96122 -9.96122 -9.96122 -9.99411 -9.99411 -9.99411 -9.99411 -9.98449 -9.98449 -9.98449 -9.98449 -9.98547 -9.98547 -9.98547 -9.98547 -9.94151 -9.94151 -9.94151 -9.94151 -10.1062 -10.1062 -10.1062 -10.1062 -9.88888 -9.88888 -9.88888 -9.88888 -10.8144 -10.8144 -10.8144 -10.8144 -9.92862 -9.92862 -9.92862 -9.92862 -9.94788 -9.94788 -9.94788 -9.94788 -9.93616 -9.93616 -9.93616 -9.93616 -10.0298 -10.0298 -10.0298 -10.0298 -9.99294 -9.99294 -9.99294 -9.99294 -11.1704 -11.1704 -11.1704 -11.1704 -9.9934 -9.9934 -9.9934 -9.9934 -10.0093 -10.0093 -10.0093 -10.0093 -9.89933 -9.89933 -9.89933 -9.89933 -9.99383 -9.99383 -9.99383 -9.99383 -9.97525 -9.97525 -9.97525 -9.97525 -9.91737 -9.91737 -9.91737 -9.91737 -9.91764 -9.91764 -9.91764 -9.91764 -9.98525 -9.98525 -9.98525 -9.98525 -9.88929 -9.88929 -9.88929 -9.88929 -9.98703 -9.98703 -9.98703 -9.98703 -9.99622 -9.99622 -9.99622 -9.99622 -10.0009 -10.0009 -10.0009 -10.0009 -9.92442 -9.92442 -9.92442 -9.92442 -9.96044 -9.96044 -9.96044 -9.96044 -9.98824 -9.98824 -9.98824 -9.98824 -9.94751 -9.94751 -9.94751 -9.94751 -10.2094 -10.2094 -10.2094 -10.2094 -9.96145 -9.96145 -9.96145 -9.96145 -9.92184 -9.92184 -9.92184 -9.92184 -9.98081 -9.98081 -9.98081 -9.98081 -9.96193 -9.96193 -9.96193 -9.96193 -9.98683 -9.98683 -9.98683 -9.98683 -9.98483 -9.98483 -9.98483 -9.98483 -9.92815 -9.92815 -9.92815 -9.92815 -9.91284 -9.91284 -9.91284 -9.91284 -9.9581 -9.9581 -9.9581 -9.9581 -9.96137 -9.96137 -9.96137 -9.96137 -4.99965 -4.99965 -4.99965 -4.99965 -9.96062 -9.96062 -9.96062 -9.96062 -9.99345 -9.99345 -9.99345 -9.99345 -9.96718 -9.96718 -9.96718 -9.96718 -9.98646 -9.98646 -9.98646 -9.98646 -10.0208 -10.0208 -10.0208 -10.0208 -10.2906 -10.2906 -10.2906 -10.2906 -9.9363 -9.9363 -9.9363 -9.9363 -10.7799 -10.7799 -10.7799 -10.7799 -9.99515 -9.99515 -9.99515 -9.99515 -9.93403 -9.93403 -9.93403 -9.93403 -9.9623 -9.9623 -9.9623 -9.9623 -9.91075 -9.91075 -9.91075 -9.91075 -9.92729 -9.92729 -9.92729 -9.92729 -9.98589 -9.98589 -9.98589 -9.98589 -10.1397 -10.1397 -10.1397 -10.1397 -9.91037 -9.91037 -9.91037 -9.91037 -10.586 -10.586 -10.586 -10.586 -11.093 -11.093 -11.093 -11.093 -9.99432 -9.99432 -9.99432 -9.99432 -10.1 -10.1 -10.1 -10.1 -9.9949 -9.9949 -9.9949 -9.9949 -9.98547 -9.98547 -9.98547 -9.98547 -9.869 -9.869 -9.869 -9.869 -9.9595 -9.9595 -9.9595 -9.9595 -10.5761 -10.5761 -10.5761 -10.5761 -9.9264 -9.9264 -9.9264 -9.9264 -9.94478 -9.94478 -9.94478 -9.94478 -9.95165 -9.95165 -9.95165 -9.95165 -9.95484 -9.95484 -9.95484 -9.95484 -9.95091 -9.95091 -9.95091 -9.95091 -11.5232 -11.5232 -11.5232 -11.5232 -10.9139 -10.9139 -10.9139 -10.9139 -9.99474 -9.99474 -9.99474 -9.99474 -9.93715 -9.93715 -9.93715 -9.93715 -9.98477 -9.98477 -9.98477 -9.98477 -9.94965 -9.94965 -9.94965 -9.94965 -9.91016 -9.91016 -9.91016 -9.91016 -9.92717 -9.92717 -9.92717 -9.92717 -9.99091 -9.99091 -9.99091 -9.99091 -9.92501 -9.92501 -9.92501 -9.92501 -9.87266 -9.87266 -9.87266 -9.87266 -9.94559 -9.94559 -9.94559 -9.94559 -9.93255 -9.93255 -9.93255 -9.93255 -9.98452 -9.98452 -9.98452 -9.98452 -9.96948 -9.96948 -9.96948 -9.96948 -10.1127 -10.1127 -10.1127 -10.1127 -9.91508 -9.91508 -9.91508 -9.91508 -9.99373 -9.99373 -9.99373 -9.99373 -9.98502 -9.98502 -9.98502 -9.98502 -10.1931 -10.1931 -10.1931 -10.1931 -10.4748 -10.4748 -10.4748 -10.4748 -9.98991 -9.98991 -9.98991 -9.98991 -9.99298 -9.99298 -9.99298 -9.99298 -9.98575 -9.98575 -9.98575 -9.98575 -9.99219 -9.99219 -9.99219 -9.99219 -9.99333 -9.99333 -9.99333 -9.99333 -9.99188 -9.99188 -9.99188 -9.99188 -9.86806 -9.86806 -9.86806 -9.86806 -9.99491 -9.99491 -9.99491 -9.99491 -9.94275 -9.94275 -9.94275 -9.94275 -9.92591 -9.92591 -9.92591 -9.92591 -10.1406 -10.1406 -10.1406 -10.1406 -10.5954 -10.5954 -10.5954 -10.5954 -9.98495 -9.98495 -9.98495 -9.98495 -9.91205 -9.91205 -9.91205 -9.91205 -9.99493 -9.99493 -9.99493 -9.99493 -9.95675 -9.95675 -9.95675 -9.95675 -5.27434 -5.27434 -5.27434 -5.27434 -9.9859 -9.9859 -9.9859 -9.9859 -9.98652 -9.98652 -9.98652 -9.98652 -9.97532 -9.97532 -9.97532 -9.97532 -9.9459 -9.9459 -9.9459 -9.9459 -10.1474 -10.1474 -10.1474 -10.1474 -9.98594 -9.98594 -9.98594 -9.98594 -10.2225 -10.2225 -10.2225 -10.2225 -9.91376 -9.91376 -9.91376 -9.91376 -10.2734 -10.2734 -10.2734 -10.2734 -10.0067 -10.0067 -10.0067 -10.0067 -9.99185 -9.99185 -9.99185 -9.99185 -9.96595 -9.96595 -9.96595 -9.96595 -9.92028 -9.92028 -9.92028 -9.92028 -10.395 -10.395 -10.395 -10.395 -9.94134 -9.94134 -9.94134 -9.94134 -10.0542 -10.0542 -10.0542 -10.0542 -9.90938 -9.90938 -9.90938 -9.90938 -9.89607 -9.89607 -9.89607 -9.89607 -10.223 -10.223 -10.223 -10.223 -7.03402 -7.03402 -7.03402 -7.03402 -9.92389 -9.92389 -9.92389 -9.92389 -11.0112 -11.0112 -11.0112 -11.0112 -11.5357 -11.5357 -11.5357 -11.5357 -9.93591 -9.93591 -9.93591 -9.93591 -9.98577 -9.98577 -9.98577 -9.98577 -4.9905 -4.9905 -4.9905 -4.9905 -9.99445 -9.99445 -9.99445 -9.99445 -10.235 -10.235 -10.235 -10.235 -9.94867 -9.94867 -9.94867 -9.94867 -9.97382 -9.97382 -9.97382 -9.97382 -9.99053 -9.99053 -9.99053 -9.99053 -9.99465 -9.99465 -9.99465 -9.99465 -9.96253 -9.96253 -9.96253 -9.96253 -10.1093 -10.1093 -10.1093 -10.1093 -9.95035 -9.95035 -9.95035 -9.95035 -9.92282 -9.92282 -9.92282 -9.92282 -9.99299 -9.99299 -9.99299 -9.99299 -9.97718 -9.97718 -9.97718 -9.97718 -9.90224 -9.90224 -9.90224 -9.90224 -10.2823 -10.2823 -10.2823 -10.2823 -9.99017 -9.99017 -9.99017 -9.99017 -9.99555 -9.99555 -9.99555 -9.99555 -9.99683 -9.99683 -9.99683 -9.99683 -9.99518 -9.99518 -9.99518 -9.99518 -10.1693 -10.1693 -10.1693 -10.1693 -9.99521 -9.99521 -9.99521 -9.99521 -9.91913 -9.91913 -9.91913 -9.91913 -10.7428 -10.7428 -10.7428 -10.7428 -9.87157 -9.87157 -9.87157 -9.87157 -9.99611 -9.99611 -9.99611 -9.99611 -11.5084 -11.5084 -11.5084 -11.5084 -9.99477 -9.99477 -9.99477 -9.99477 -9.99154 -9.99154 -9.99154 -9.99154 -10.0083 -10.0083 -10.0083 -10.0083 -9.91522 -9.91522 -9.91522 -9.91522 -9.95674 -9.95674 -9.95674 -9.95674 -10.2451 -10.2451 -10.2451 -10.2451 -9.96219 -9.96219 -9.96219 -9.96219 -9.99255 -9.99255 -9.99255 -9.99255 -9.97731 -9.97731 -9.97731 -9.97731 -9.91017 -9.91017 -9.91017 -9.91017 -9.9829 -9.9829 -9.9829 -9.9829 -10.8437 -10.8437 -10.8437 -10.8437 -9.88841 -9.88841 -9.88841 -9.88841 -10.004 -10.004 -10.004 -10.004 -9.92016 -9.92016 -9.92016 -9.92016 -9.91875 -9.91875 -9.91875 -9.91875 -9.99399 -9.99399 -9.99399 -9.99399 -9.68949 -9.68949 -9.68949 -9.68949 -9.99409 -9.99409 -9.99409 -9.99409 -9.98592 -9.98592 -9.98592 -9.98592 -9.95792 -9.95792 -9.95792 -9.95792 -9.92114 -9.92114 -9.92114 -9.92114 -9.97936 -9.97936 -9.97936 -9.97936 -9.97655 -9.97655 -9.97655 -9.97655 -9.92227 -9.92227 -9.92227 -9.92227 -9.89862 -9.89862 -9.89862 -9.89862 -9.99689 -9.99689 -9.99689 -9.99689 -9.91775 -9.91775 -9.91775 -9.91775 -10.3199 -10.3199 -10.3199 -10.3199 -9.9213 -9.9213 -9.9213 -9.9213 -9.94114 -9.94114 -9.94114 -9.94114 -9.9293 -9.9293 -9.9293 -9.9293 -9.95123 -9.95123 -9.95123 -9.95123 -11.3903 -11.3903 -11.3903 -11.3903 -10.0037 -10.0037 -10.0037 -10.0037 -10.3187 -10.3187 -10.3187 -10.3187 -9.88232 -9.88232 -9.88232 -9.88232 -9.98506 -9.98506 -9.98506 -9.98506 -9.99506 -9.99506 -9.99506 -9.99506 -9.99389 -9.99389 -9.99389 -9.99389 -9.93787 -9.93787 -9.93787 -9.93787 -9.94081 -9.94081 -9.94081 -9.94081 -9.98724 -9.98724 -9.98724 -9.98724 -9.99503 -9.99503 -9.99503 -9.99503 -9.99404 -9.99404 -9.99404 -9.99404 -9.89782 -9.89782 -9.89782 -9.89782 -9.98617 -9.98617 -9.98617 -9.98617 -9.99283 -9.99283 -9.99283 -9.99283 -9.99671 -9.99671 -9.99671 -9.99671 -10.1929 -10.1929 -10.1929 -10.1929 -9.98632 -9.98632 -9.98632 -9.98632 -9.99406 -9.99406 -9.99406 -9.99406 -9.99335 -9.99335 -9.99335 -9.99335 -9.97752 -9.97752 -9.97752 -9.97752 -10.0039 -10.0039 -10.0039 -10.0039 -9.9582 -9.9582 -9.9582 -9.9582 -9.95219 -9.95219 -9.95219 -9.95219 -10.3108 -10.3108 -10.3108 -10.3108 -9.98631 -9.98631 -9.98631 -9.98631 -11.5765 -11.5765 -11.5765 -11.5765 -9.92791 -9.92791 -9.92791 -9.92791 -10.2403 -10.2403 -10.2403 -10.2403 -9.98451 -9.98451 -9.98451 -9.98451 -9.91886 -9.91886 -9.91886 -9.91886 -10.3511 -10.3511 -10.3511 -10.3511 -9.9209 -9.9209 -9.9209 -9.9209 -9.92279 -9.92279 -9.92279 -9.92279 -9.99484 -9.99484 -9.99484 -9.99484 -10.5523 -10.5523 -10.5523 -10.5523 -9.9963 -9.9963 -9.9963 -9.9963 -9.89857 -9.89857 -9.89857 -9.89857 -9.99548 -9.99548 -9.99548 -9.99548 -9.99514 -9.99514 -9.99514 -9.99514 -9.99403 -9.99403 -9.99403 -9.99403 -9.90502 -9.90502 -9.90502 -9.90502 -11.2987 -11.2987 -11.2987 -11.2987 -9.89923 -9.89923 -9.89923 -9.89923 -10.3347 -10.3347 -10.3347 -10.3347 -10.3131 -10.3131 -10.3131 -10.3131 -10.2561 -10.2561 -10.2561 -10.2561 -9.99641 -9.99641 -9.99641 -9.99641 -9.96596 -9.96596 -9.96596 -9.96596 -9.98387 -9.98387 -9.98387 -9.98387 -9.99531 -9.99531 -9.99531 -9.99531 -9.99503 -9.99503 -9.99503 -9.99503 -9.90569 -9.90569 -9.90569 -9.90569 -9.96173 -9.96173 -9.96173 -9.96173 -9.91668 -9.91668 -9.91668 -9.91668 -9.95841 -9.95841 -9.95841 -9.95841 -9.90993 -9.90993 -9.90993 -9.90993 -9.99678 -9.99678 -9.99678 -9.99678 -9.99463 -9.99463 -9.99463 -9.99463 -9.89528 -9.89528 -9.89528 -9.89528 -10.2504 -10.2504 -10.2504 -10.2504 -9.99459 -9.99459 -9.99459 -9.99459 -9.90824 -9.90824 -9.90824 -9.90824 -9.98624 -9.98624 -9.98624 -9.98624 -10.0084 -10.0084 -10.0084 -10.0084 -9.99763 -9.99763 -9.99763 -9.99763 -9.98257 -9.98257 -9.98257 -9.98257 -10.0117 -10.0117 -10.0117 -10.0117 -10.3605 -10.3605 -10.3605 -10.3605 -10.2157 -10.2157 -10.2157 -10.2157 -9.99428 -9.99428 -9.99428 -9.99428 -9.99561 -9.99561 -9.99561 -9.99561 -10.8007 -10.8007 -10.8007 -10.8007 -9.96371 -9.96371 -9.96371 -9.96371 -9.99453 -9.99453 -9.99453 -9.99453 -9.95724 -9.95724 -9.95724 -9.95724 -9.99061 -9.99061 -9.99061 -9.99061 -10.9123 -10.9123 -10.9123 -10.9123 -9.99207 -9.99207 -9.99207 -9.99207 -9.9331 -9.9331 -9.9331 -9.9331 -9.9948 -9.9948 -9.9948 -9.9948 -10.0368 -10.0368 -10.0368 -10.0368 -4.6331 -4.6331 -4.6331 -4.6331 -9.92908 -9.92908 -9.92908 -9.92908 -9.93461 -9.93461 -9.93461 -9.93461 -9.98584 -9.98584 -9.98584 -9.98584 -9.99615 -9.99615 -9.99615 -9.99615 -9.95891 -9.95891 -9.95891 -9.95891 -10.1664 -10.1664 -10.1664 -10.1664 -9.9005 -9.9005 -9.9005 -9.9005 -9.99812 -9.99812 -9.99812 -9.99812 -9.96761 -9.96761 -9.96761 -9.96761 -9.92153 -9.92153 -9.92153 -9.92153 -9.97518 -9.97518 -9.97518 -9.97518 -9.96486 -9.96486 -9.96486 -9.96486 -9.93445 -9.93445 -9.93445 -9.93445 -9.98489 -9.98489 -9.98489 -9.98489 -9.98534 -9.98534 -9.98534 -9.98534 -10.4976 -10.4976 -10.4976 -10.4976 -9.99498 -9.99498 -9.99498 -9.99498 -9.99504 -9.99504 -9.99504 -9.99504 -10.7338 -10.7338 -10.7338 -10.7338 -9.9955 -9.9955 -9.9955 -9.9955 -9.88495 -9.88495 -9.88495 -9.88495 -9.8788 -9.8788 -9.8788 -9.8788 -9.98179 -9.98179 -9.98179 -9.98179 -9.98324 -9.98324 -9.98324 -9.98324 -9.99445 -9.99445 -9.99445 -9.99445 -9.92583 -9.92583 -9.92583 -9.92583 -10.5704 -10.5704 -10.5704 -10.5704 -9.97812 -9.97812 -9.97812 -9.97812 -9.97837 -9.97837 -9.97837 -9.97837 -9.97798 -9.97798 -9.97798 -9.97798 -9.89667 -9.89667 -9.89667 -9.89667 -9.92185 -9.92185 -9.92185 -9.92185 -9.99378 -9.99378 -9.99378 -9.99378 -9.99484 -9.99484 -9.99484 -9.99484 -4.76785 -4.76785 -4.76785 -4.76785 -9.99573 -9.99573 -9.99573 -9.99573 -9.97825 -9.97825 -9.97825 -9.97825 -10.0113 -10.0113 -10.0113 -10.0113 -10.1698 -10.1698 -10.1698 -10.1698 -9.99532 -9.99532 -9.99532 -9.99532 -10.0059 -10.0059 -10.0059 -10.0059 -3.76833 -3.76833 -3.76833 -3.76833 -9.99428 -9.99428 -9.99428 -9.99428 -9.91413 -9.91413 -9.91413 -9.91413 -9.96137 -9.96137 -9.96137 -9.96137 -9.99593 -9.99593 -9.99593 -9.99593 -9.92343 -9.92343 -9.92343 -9.92343 -10.1017 -10.1017 -10.1017 -10.1017 -10.4692 -10.4692 -10.4692 -10.4692 -10.0257 -10.0257 -10.0257 -10.0257 -9.99527 -9.99527 -9.99527 -9.99527 -9.99574 -9.99574 -9.99574 -9.99574 -9.99548 -9.99548 -9.99548 -9.99548 -9.98697 -9.98697 -9.98697 -9.98697 -9.99543 -9.99543 -9.99543 -9.99543 -10.009 -10.009 -10.009 -10.009 -9.90568 -9.90568 -9.90568 -9.90568 -10.0688 -10.0688 -10.0688 -10.0688 -11.2434 -11.2434 -11.2434 -11.2434 -9.94084 -9.94084 -9.94084 -9.94084 -9.99536 -9.99536 -9.99536 -9.99536 -9.91127 -9.91127 -9.91127 -9.91127 -9.99729 -9.99729 -9.99729 -9.99729 -10.0046 -10.0046 -10.0046 -10.0046 -9.99469 -9.99469 -9.99469 -9.99469 -10.001 -10.001 -10.001 -10.001 -9.99669 -9.99669 -9.99669 -9.99669 -9.97559 -9.97559 -9.97559 -9.97559 -9.9959 -9.9959 -9.9959 -9.9959 -9.9957 -9.9957 -9.9957 -9.9957 -9.98722 -9.98722 -9.98722 -9.98722 -9.91858 -9.91858 -9.91858 -9.91858 -9.93356 -9.93356 -9.93356 -9.93356 -9.93728 -9.93728 -9.93728 -9.93728 -9.99551 -9.99551 -9.99551 -9.99551 -10.0077 -10.0077 -10.0077 -10.0077 -9.99468 -9.99468 -9.99468 -9.99468 -9.93119 -9.93119 -9.93119 -9.93119 -10.1421 -10.1421 -10.1421 -10.1421 -9.99768 -9.99768 -9.99768 -9.99768 -9.99594 -9.99594 -9.99594 -9.99594 -9.97709 -9.97709 -9.97709 -9.97709 -10.2922 -10.2922 -10.2922 -10.2922 -10.0142 -10.0142 -10.0142 -10.0142 -9.99573 -9.99573 -9.99573 -9.99573 -9.88463 -9.88463 -9.88463 -9.88463 -9.99626 -9.99626 -9.99626 -9.99626 -9.99464 -9.99464 -9.99464 -9.99464 -9.96359 -9.96359 -9.96359 -9.96359 -9.99581 -9.99581 -9.99581 -9.99581 -9.99534 -9.99534 -9.99534 -9.99534 -9.99646 -9.99646 -9.99646 -9.99646 -9.99648 -9.99648 -9.99648 -9.99648 -9.9931 -9.9931 -9.9931 -9.9931 -9.98448 -9.98448 -9.98448 -9.98448 -9.99577 -9.99577 -9.99577 -9.99577 -10.0001 -10.0001 -10.0001 -10.0001 -9.97833 -9.97833 -9.97833 -9.97833 -9.99698 -9.99698 -9.99698 -9.99698 -10.0084 -10.0084 -10.0084 -10.0084 -9.98676 -9.98676 -9.98676 -9.98676 -9.98812 -9.98812 -9.98812 -9.98812 -9.99594 -9.99594 -9.99594 -9.99594 -9.99835 -9.99835 -9.99835 -9.99835 -9.99621 -9.99621 -9.99621 -9.99621 -10.692 -10.692 -10.692 -10.692 -9.98942 -9.98942 -9.98942 -9.98942 -9.99658 -9.99658 -9.99658 -9.99658 -9.99927 -9.99927 -9.99927 -9.99927 -9.97822 -9.97822 -9.97822 -9.97822 -9.99572 -9.99572 -9.99572 -9.99572 -9.96954 -9.96954 -9.96954 -9.96954 -9.94996 -9.94996 -9.94996 -9.94996 -9.99551 -9.99551 -9.99551 -9.99551 -9.98377 -9.98377 -9.98377 -9.98377 -9.99182 -9.99182 -9.99182 -9.99182 -9.99757 -9.99757 -9.99757 -9.99757 -10.0072 -10.0072 -10.0072 -10.0072 -9.99144 -9.99144 -9.99144 -9.99144 -9.99604 -9.99604 -9.99604 -9.99604 -9.91178 -9.91178 -9.91178 -9.91178 -9.98906 -9.98906 -9.98906 -9.98906 -9.98105 -9.98105 -9.98105 -9.98105 -9.92594 -9.92594 -9.92594 -9.92594 -9.92597 -9.92597 -9.92597 -9.92597 -10.0097 -10.0097 -10.0097 -10.0097 -10.0467 -10.0467 -10.0467 -10.0467 -9.9153 -9.9153 -9.9153 -9.9153 -9.90305 -9.90305 -9.90305 -9.90305 -9.93137 -9.93137 -9.93137 -9.93137 -9.93833 -9.93833 -9.93833 -9.93833 -9.97982 -9.97982 -9.97982 -9.97982 -9.96955 -9.96955 -9.96955 -9.96955 -10.4925 -10.4925 -10.4925 -10.4925 -10.2936 -10.2936 -10.2936 -10.2936 -9.94781 -9.94781 -9.94781 -9.94781 -9.94331 -9.94331 -9.94331 -9.94331 -9.94349 -9.94349 -9.94349 -9.94349 -9.9531 -9.9531 -9.9531 -9.9531 -9.96991 -9.96991 -9.96991 -9.96991 -9.98177 -9.98177 -9.98177 -9.98177 -9.99182 -9.99182 -9.99182 -9.99182 -9.98381 -9.98381 -9.98381 -9.98381 -9.94797 -9.94797 -9.94797 -9.94797 -9.93727 -9.93727 -9.93727 -9.93727 -10.506 -10.506 -10.506 -10.506 -10.0744 -10.0744 -10.0744 -10.0744 -9.94968 -9.94968 -9.94968 -9.94968 -9.96215 -9.96215 -9.96215 -9.96215 -9.98192 -9.98192 -9.98192 -9.98192 -9.99135 -9.99135 -9.99135 -9.99135 -9.9932 -9.9932 -9.9932 -9.9932 -9.98661 -9.98661 -9.98661 -9.98661 -10.3661 -10.3661 -10.3661 -10.3661 -11.3181 -11.3181 -11.3181 -11.3181 -11.0408 -11.0408 -11.0408 -11.0408 -9.27817 -9.27817 -9.27817 -9.27817 -9.9141 -9.9141 -9.9141 -9.9141 -9.9121 -9.9121 -9.9121 -9.9121 -9.89105 -9.89105 -9.89105 -9.89105 -9.8926 -9.8926 -9.8926 -9.8926 -9.99251 -9.99251 -9.99251 -9.99251 -9.98598 -9.98598 -9.98598 -9.98598 -8.47418 -8.47418 -8.47418 -8.47418 -9.60063 -9.60063 -9.60063 -9.60063 -9.87804 -9.87804 -9.87804 -9.87804 -9.9359 -9.9359 -9.9359 -9.9359 -9.84953 -9.84953 -9.84953 -9.84953 -9.87367 -9.87367 -9.87367 -9.87367 -9.92188 -9.92188 -9.92188 -9.92188 -9.90044 -9.90044 -9.90044 -9.90044 -9.92607 -9.92607 -9.92607 -9.92607 -9.92328 -9.92328 -9.92328 -9.92328 -9.95444 -9.95444 -9.95444 -9.95444 -9.96099 -9.96099 -9.96099 -9.96099 -9.90854 -9.90854 -9.90854 -9.90854 -9.9231 -9.9231 -9.9231 -9.9231 -10.1275 -10.1275 -10.1275 -10.1275 -10.1313 -10.1313 -10.1313 -10.1313 -9.94766 -9.94766 -9.94766 -9.94766 -9.93209 -9.93209 -9.93209 -9.93209 -9.93989 -9.93989 -9.93989 -9.93989 -9.9453 -9.9453 -9.9453 -9.9453 -10.2755 -10.2755 -10.2755 -10.2755 -9.84819 -9.84819 -9.84819 -9.84819 -10.1572 -10.1572 -10.1572 -10.1572 -10.0661 -10.0661 -10.0661 -10.0661 -9.95579 -9.95579 -9.95579 -9.95579 -9.94733 -9.94733 -9.94733 -9.94733 -9.88781 -9.88781 -9.88781 -9.88781 -9.9869 -9.9869 -9.9869 -9.9869 -9.74239 -9.74239 -9.74239 -9.74239 -9.80319 -9.80319 -9.80319 -9.80319 -9.98237 -9.98237 -9.98237 -9.98237 -9.97309 -9.97309 -9.97309 -9.97309 -9.99575 -9.99575 -9.99575 -9.99575 -9.98492 -9.98492 -9.98492 -9.98492 -9.9407 -9.9407 -9.9407 -9.9407 -9.88865 -9.88865 -9.88865 -9.88865 -9.89751 -9.89751 -9.89751 -9.89751 -9.89212 -9.89212 -9.89212 -9.89212 -10.0787 -10.0787 -10.0787 -10.0787 -10.313 -10.313 -10.313 -10.313 -9.91408 -9.91408 -9.91408 -9.91408 -9.91115 -9.91115 -9.91115 -9.91115 -10.019 -10.019 -10.019 -10.019 -10.024 -10.024 -10.024 -10.024 -9.96297 -9.96297 -9.96297 -9.96297 -9.9521 -9.9521 -9.9521 -9.9521 -9.97949 -9.97949 -9.97949 -9.97949 -9.97354 -9.97354 -9.97354 -9.97354 -9.90236 -9.90236 -9.90236 -9.90236 -9.91134 -9.91134 -9.91134 -9.91134 -9.92638 -9.92638 -9.92638 -9.92638 -9.92569 -9.92569 -9.92569 -9.92569 -9.90315 -9.90315 -9.90315 -9.90315 -9.90294 -9.90294 -9.90294 -9.90294 -9.87442 -9.87442 -9.87442 -9.87442 -9.9366 -9.9366 -9.9366 -9.9366 -10.5576 -10.5576 -10.5576 -10.5576 -10.3957 -10.3957 -10.3957 -10.3957 -9.92133 -9.92133 -9.92133 -9.92133 -9.93493 -9.93493 -9.93493 -9.93493 -9.89436 -9.89436 -9.89436 -9.89436 -9.89003 -9.89003 -9.89003 -9.89003 -9.98475 -9.98475 -9.98475 -9.98475 -9.99339 -9.99339 -9.99339 -9.99339 -9.98535 -9.98535 -9.98535 -9.98535 -9.97587 -9.97587 -9.97587 -9.97587 -10.0515 -10.0515 -10.0515 -10.0515 -10.4811 -10.4811 -10.4811 -10.4811 -9.95752 -9.95752 -9.95752 -9.95752 -9.94376 -9.94376 -9.94376 -9.94376 -9.97401 -9.97401 -9.97401 -9.97401 -9.98478 -9.98478 -9.98478 -9.98478 -9.91762 -9.91762 -9.91762 -9.91762 -9.93105 -9.93105 -9.93105 -9.93105 -10.5727 -10.5727 -10.5727 -10.5727 -11.3581 -11.3581 -11.3581 -11.3581 -9.98314 -9.98314 -9.98314 -9.98314 -9.99281 -9.99281 -9.99281 -9.99281 -9.99292 -9.99292 -9.99292 -9.99292 -9.98218 -9.98218 -9.98218 -9.98218 -9.94375 -9.94375 -9.94375 -9.94375 -9.95052 -9.95052 -9.95052 -9.95052 -9.97029 -9.97029 -9.97029 -9.97029 -9.98317 -9.98317 -9.98317 -9.98317 -9.89604 -9.89604 -9.89604 -9.89604 -9.88518 -9.88518 -9.88518 -9.88518 -9.93319 -9.93319 -9.93319 -9.93319 -9.95475 -9.95475 -9.95475 -9.95475 -9.99273 -9.99273 -9.99273 -9.99273 -9.98497 -9.98497 -9.98497 -9.98497 -9.98523 -9.98523 -9.98523 -9.98523 -9.99406 -9.99406 -9.99406 -9.99406 
VECTORS Velocity float 
0.000389776 -0.00057899 -0.00107767 
-0.000492833 0.00157402 0.00886545 
-0.000640239 0.000342671 0.00783459 
-0.00102381 0.00294482 0.002943 
0.000615192 -0.000806093 9.0939e-05 
-0.000303841 0.000300852 -0.00037919 
0.00312251 -0.00171444 0.0025921 
0.00212186 -0.00189836 0.00066267 
-0.000344783 -0.00586104 -0.00226212 
-0.000348836 -0.00320952 0.00692605 
-0.00166904 0.000570691 -0.00443355 
0.00335996 -0.00309474 0.0137615 
0.000267548 0.000877967 -0.000353334 
-6.05182e-06 -0.000893167 0.00049299 
0.000417431 0.000138118 -9.60007e-05 
0.000982271 -3.7349e-05 -0.000378101 
-0.00388287 -0.00019719 0.00665624 
-0.00363254 -0.000213851 0.0162063 
-0.00986778 -0.000632272 0.00995712 
-0.00483627 0.00117848 0.00995778 
-0.000296561 0.00130023 0.00536258 
-0.00218365 -0.013687 0.0342468 
0.0011528 -0.0116165 0.00583123 
0.000102081 -0.011867 0.0239272 
0.00376799 -0.00163116 -0.00326523 
-0.00430818 0.00147555 -0.00218373 
0.00191133 0.00249261 0.00976826 
0.00423903 0.00408804 0.009886 
0.00123789 -0.00026237 -0.000505468 
-0.00227268 0.000777005 0.00738932 
-0.00107442 0.000545358 0.00172119 
-0.000643721 0.00200282 0.00251811 
0.00229277 -0.00022564 0.00894484 
0.000123475 0.000854818 0.00704991 
0.00211387 0.000395518 0.0116514 
-0.000643949 -0.000714995 0.0152937 
0.00238768 0.00423037 -0.0025416 
-0.00177865 -0.0107523 0.00979533 
-0.00113184 0.00081759 -0.0010695 
0.0018582 -0.00130194 0.00163439 
0.00213953 -0.000376489 0.0130531 
0.00214577 0.000228679 0.00961826 
-0.000643307 4.05839e-05 0.0136293 
0.000169603 -0.0016734 0.0166771 
0.000372506 -0.000542153 0 
0.00017664 0.000597415 0 
0.000330675 -3.51903e-07 0 
0.0014936 -0.00130652 0.000393999 
0.000685582 0.000499095 0.0138988 
0.000193706 0.000171786 0.00833808 
0.000678516 8.46713e-05 0.00815913 
0.00129176 0.000320346 0.01107 
0.00970992 -0.000244712 -0.00029175 
0.00472365 0.00134946 0.0149072 
0.00126303 0.00140166 -0.00218972 
0.0040257 -0.00407012 0.0115902 
-0.000312092 0.000343853 -0.000962035 
0.00316554 -0.000793531 0.00738851 
0.00130641 0.000628597 0.00858322 
0.00417602 -0.00222133 0.00437018 
-2.53223e-05 0.00425933 0.00990528 
-0.00166366 -0.00042147 0.0074333 
-0.000639363 0.00112847 0.00999 
-0.000732569 0.00325074 0.00274612 
0.00322598 -0.0175864 0.0181046 
0.00860456 -0.0027114 0.00725042 
-0.00932791 0.00420813 -0.000290521 
0.00613037 -0.0181644 0.0335365 
0.00136897 0.000149556 -0.00159137 
-0.00429559 -0.00466067 0.00971757 
-0.00217101 -0.00286458 0.00342152 
0.000476418 -0.00163067 0.00701394 
-0.000444307 0.00120016 -0.00113738 
0.00155727 -0.0021485 0.0069523 
0.00141261 -0.00340577 0.00369909 
0.000236169 -0.000916528 0.00839472 
-0.000142781 -0.00019559 0.0113483 
0.000411237 -0.000821603 0.00849038 
9.04011e-07 -9.17632e-05 -3.35217e-05 
0.000274129 -0.00099575 0.00887631 
-0.00405818 -0.000105828 0.00644252 
-0.00271672 0.00178353 0.0137374 
-0.00390288 -0.00107414 0.0150898 
-0.00469355 0.00170862 0.010607 
0.000763545 0.000534641 0.0156662 
0.00334494 -0.000346428 0.0160486 
0.00122578 -0.000698685 0.0170765 
0.000411368 -0.00103163 0.0158254 
0.00323599 -0.000313245 0.0113693 
0.000346602 -0.000218557 0.00649915 
0.00345515 -0.000545271 0.0080273 
0.00558941 -0.00115896 0.00768897 
0.00113761 -0.00010121 -0.00202868 
-0.00739071 -0.0065242 0.00843555 
0.00194279 0.000636944 -0.00132617 
-0.000577162 -0.00311069 0.00372911 
-0.000906403 0.000161756 -0.00052156 
0.00130511 -0.00261875 0.00331377 
0.00254883 -0.00174375 0.00656794 
-0.000126046 -0.000235834 0.000565897 
-0.000533587 -0.000773793 -0.00623793 
0.000702103 -0.00551084 0.0102768 
0.00355235 -0.0166641 0.019615 
0.00128639 -0.00526115 0.00668226 
-0.00034402 -0.00261115 0.0150627 
-0.00020429 -0.000172421 0.016711 
3.72645e-05 -0.00178263 0.015278 
0.000130961 -0.00381577 0.0175832 
-0.00304842 -0.00193636 0.00565132 
-0.00136602 0.00536614 0.00881603 
-0.00358127 0.0017513 0.00257171 
0.000981034 0.00363418 0.0102941 
3.14811e-05 -0.000828798 -0.000214284 
0.000811454 0.000231921 -1.39058e-05 
0.000320036 0.000213772 -0.000511549 
0.000188801 -0.00165129 0.000941394 
1.96535e-05 2.57337e-05 0.00654011 
7.69477e-05 -3.82336e-05 0.0112556 
1.98761e-05 -3.68694e-05 0.000255006 
-1.41662e-05 -0.000168423 0.0107355 
-0.0116246 -0.000172739 0.0101123 
-0.00268276 -0.000287042 0.0165864 
-0.00300672 -0.000627 0.00604762 
-0.00670011 -0.00117507 0.0107008 
-0.00215928 0.0115415 0.0154649 
-0.00334618 -0.000684532 0.0146074 
0.000215608 0.00683384 -0.000371445 
0.00499099 0.00202369 0.00345857 
-8.57969e-05 -0.000930199 -0.00253418 
0.00464241 0.000712148 0.00264748 
0.00293901 -0.00614177 0.00953861 
0.0021767 -0.00551916 0.00727014 
0.000223446 0.00159916 0 
-0.00304401 0.000970582 0 
0.000238827 0.000695233 0 
0.00598285 -0.00441268 0.00232003 
3.8123e-05 8.55544e-05 0.00580158 
-2.88007e-05 -6.59867e-05 0.000371493 
-0.000224951 0.000166408 0.0122236 
-0.000322631 0.000227907 0.00948375 
0.00102988 0.000743929 0.00143823 
0.0045941 -0.00197978 0.00579678 
0.00441218 -0.00126927 0.00884725 
-0.00222305 -0.000642002 -0.00208091 
-4.42025e-06 4.10227e-05 0.014895 
-4.10414e-05 6.836e-05 0.0126861 
0.000655636 0.000164776 0.0144274 
0.000387053 -0.000169124 0.0167025 
0.000678802 -0.000537023 -0.00256245 
0.00206677 -0.0147191 0.0148989 
0.00252125 -0.00362073 0.00177677 
0.00146869 -0.00601539 0.00731 
0.000107483 -2.4581e-05 0.0118006 
9.80219e-06 0.000248027 0.0141669 
-8.84411e-05 0.000169702 0.0112426 
-0.000366749 0.000100497 0.0161244 
-0.00302632 -0.00037266 0.00626994 
-0.00347413 0.00166093 0.00209031 
-0.00141051 0.00428716 0.00850939 
-0.00584913 0.00120892 0.0100422 
0.000427896 0.0055692 -0.00710537 
0.00146153 0.00169817 -0.00796786 
0.00193346 -0.0101301 0.0030344 
-0.0125159 -0.0274306 0.0510043 
0.00264495 -0.00171563 0.00681026 
0.00349696 -0.00237857 0.00372416 
0.00045705 0.00109963 -0.000170507 
0.000537602 0.000653701 0.000309167 
-0.00043206 -4.83971e-05 0.0153275 
-0.00166441 -1.00706e-05 0.00860856 
-0.00173227 -0.000615802 0.010523 
0.000695859 0.000680706 0.0134171 
-0.00045441 -0.00946741 0.00856282 
-0.00103477 -0.00417454 0.00348787 
-0.0014868 0.000708026 0.000277326 
0.00160034 -0.00192375 0.000265956 
0.000758091 0.000880053 0 
-0.000599557 0.000664942 0 
-0.00150436 -0.00110027 0 
0.00460876 -0.00256664 0.00138061 
0.00202368 -0.00140385 0.00783885 
0.000138319 -0.0012266 0.00807374 
0.000398089 -0.000227391 -0.00196881 
0.001055 9.33791e-05 0.00770314 
-0.000132511 4.91018e-05 0.00602761 
0.000158033 0.000180351 0.000326292 
-9.16201e-05 -6.87678e-05 0.00665929 
4.74633e-05 3.33891e-05 0.00916448 
8.26264e-06 -3.73466e-05 0.0172701 
0.00026324 0.00111072 0.016304 
-0.000267057 0.000746548 0.0171005 
-0.000230329 0.000855584 0.0181869 
0.00306563 0.00407705 0.0145567 
0.00307322 -0.00350092 0.0230857 
0.000972033 0.00208522 0.020447 
0.000391207 0.000493698 0.00703339 
-0.00315818 -0.00103652 0.00638148 
0.000923662 0.00310922 0.0100432 
-0.00326727 0.00163495 0.0020449 
0.000190842 6.1863e-05 0.00658009 
-0.000291609 0.000725346 0.0171895 
0.000239465 0.00107529 0.0162059 
2.15345e-06 -4.29559e-05 0.0172881 
3.85036e-05 0.000421859 0.0144171 
0.000992645 -0.00083684 0.000377299 
0.00116975 -0.00363806 0.00184022 
0.00392975 -5.99883e-05 0.00140612 
0.00178106 -0.00593683 0.00657042 
0.000537446 0.00142264 -0.00119746 
-0.00338272 -0.00658188 0.00919762 
0.00107882 0.00122504 -0.0017777 
-0.00222734 -0.00369762 0.00329456 
-0.00105299 -0.00150347 -0.00170152 
4.99918e-05 -0.00335985 -0.00119643 
-0.000821177 0.00585932 0.00348828 
0.00113705 0.00549844 0.00349596 
-7.48041e-05 -6.04224e-05 0.0124482 
0.00030255 0.000187587 0.00950814 
0.000708262 0.000241145 0.0145789 
0.000377242 -5.26554e-05 0.0169048 
0.000128222 -0.00165229 0.0171334 
0.000249485 -0.00213634 0.01587 
-0.000152453 -0.000297798 0.0168827 
6.17627e-05 -0.00301165 0.0169122 
0.000229329 0.00130759 -0.000387478 
-0.00112876 -0.00244564 0.00224417 
-0.00185866 -0.00141925 0.00224015 
-7.59142e-06 -0.00149995 0.00566924 
5.84373e-05 -0.000671945 0 
-0.00290628 -0.00142402 0 
-0.00142751 -0.00184335 0 
0.0153187 0.00417079 0.00247069 
0.00066878 0.000366075 0.00948674 
-0.000131514 -0.000170635 0.0141965 
0.000527851 -0.000726802 0.0140627 
-0.000536564 -0.000660285 0.0167599 
-0.000307389 0.00100703 0.00871509 
-0.00111264 0.00330296 0.00316671 
0.000567085 -0.000856346 -0.000757347 
-0.000683919 0.0021401 0.00483748 
-0.000474178 0.00344903 0.00909019 
-0.00159701 0.000614581 0.000605345 
-0.00277729 0.000131073 0.00754433 
0.000773438 0.00318974 0.00316715 
0.00250325 0.00134753 0.0140041 
0.000813032 0.000606824 0.0176101 
0.00194638 0.00245669 0.0140805 
0.00359916 -0.000151891 0.0165671 
-0.00107871 0.00446119 0.00852741 
0.00151413 0.00320812 0.00985351 
-0.00368134 -0.000653731 0.00623327 
-0.00511694 0.00184987 0.0100774 
-0.00475233 0.00202379 0.00191557 
8.48303e-05 0.00604233 0.00397878 
0.00175907 0.0130729 0.0154905 
0.00372049 0.00346993 0.00154155 
-7.76294e-05 9.2973e-06 0.00593692 
-6.66649e-05 0.000128055 0.012185 
2.16897e-05 -1.35823e-05 0.000340885 
0.00016357 0.000179149 0.0091381 
-0.00083381 0.000100771 0.0155093 
-0.000634813 9.80378e-05 0.0178691 
-0.000968905 -6.23492e-05 0.0167704 
-0.00030891 -0.000112894 0.0178718 
0.000117653 2.46418e-05 5.73522e-05 
0.000625569 5.36249e-05 0.00837784 
0.000300951 0.000194582 0.0087615 
0.00108832 0.000262809 0.0105757 
0.000197291 -0.000418805 0.0145667 
-0.000283898 -0.000744905 0.014568 
0.000240701 -0.00028249 0.0106344 
0.000395983 0.000190763 0.00768297 
-0.000623387 -0.00264453 0.0154856 
-8.49405e-05 -0.000360712 0.0174341 
-0.000400242 -0.00203292 0.0162214 
-0.000849614 -0.000837188 0.0159391 
0.000276791 -0.00051181 0.0143081 
-0.00022957 -2.31587e-05 0.0139758 
0.00187496 -0.00084939 0.00993093 
0.000470499 -0.000765762 0.0164695 
-4.61968e-05 1.8032e-05 0.00031109 
0.000104414 -7.31134e-05 0.011053 
2.17658e-06 4.53844e-05 0.00663121 
0.000233354 8.76588e-05 0.00890118 
-0.000442502 -0.00289147 0.0157209 
0.000135336 -0.000200546 0.0173691 
-0.000184695 -0.000468547 0.0170732 
8.1496e-05 -0.00295755 0.0165138 
0.00172721 0.00199638 0.0146302 
-0.00290983 0.000581207 0.0172501 
-8.9114e-06 0.00867241 0.0156688 
0.00238005 0.00348144 0.0132467 
0.000192338 -0.000829277 0.00882988 
-0.000341088 -0.000274344 0.00845098 
0.000638867 -4.33504e-05 0.0121391 
0.000868374 -0.000293629 0.00779429 
0.000515885 0.00303187 0.00412356 
0.0176954 0.029809 0.035241 
-0.00267672 -0.0088491 -0.00257892 
0.00526148 -0.00487592 0.0167373 
9.0283e-05 -0.000234462 0.000290362 
0.000247424 -0.000584544 -6.65711e-05 
-8.39922e-05 0.000240947 -0.000609392 
0.000189783 -0.00161293 0.000955802 
-0.000436612 -0.000585107 0.0171427 
-4.4792e-05 -0.000287229 0.00952988 
-0.000589722 -0.00027968 0.0106655 
0.000137621 -0.000347642 0.0144333 
-0.00942488 0.00243542 0.0121874 
0.00620358 -0.0124754 0.034574 
-0.00384463 -0.012506 0.0235716 
0.00812806 -0.0177462 0.0592886 
-0.00278302 -0.00232144 -0.00211598 
-0.00107606 0.0201567 0.0207311 
-0.000631755 -0.00438108 -0.00386503 
0.00444825 0.00151827 0.00028699 
0.0109675 -0.0064895 0.0299757 
-0.0134994 -0.00281878 -0.03053 
0.00789069 0.00554255 0.00446109 
0.00638106 -0.0170142 0.0519252 
1.07153e-05 2.908e-05 0.00576527 
4.83471e-05 -0.000227655 0.00946603 
5.71332e-05 4.88186e-05 0.000337164 
-0.000236177 7.27123e-05 0.00976643 
-0.00269017 0.00196516 -0.00322143 
0.00938654 -0.0213163 0.0153842 
6.10633e-05 0.00063167 -0.000207349 
-2.65548e-05 -0.00306275 0.000190329 
0.00132391 -0.000734571 0.0169951 
0.00363514 -0.000277905 0.0166827 
0.000281831 0.000617977 0.0156007 
0.00130129 0.000381793 0.0171118 
0.00302621 0.00370226 0.0156685 
0.00336376 -0.000941803 0.0153948 
-0.00321687 0.00308715 0.0160626 
0.00223143 0.00104488 0.0138537 
0.00022794 -0.000385459 0.0117965 
4.74898e-05 -0.000618982 0.0110777 
-9.10715e-05 2.0677e-05 0.000239695 
6.05095e-05 -0.000149919 0.00773276 
4.44756e-05 -0.000729116 -0.00169729 
0.000425589 -0.000326609 0.000120856 
-0.0018256 -0.00311144 0.00998191 
-0.000468222 -0.00139217 0.00629168 
-0.000139765 -7.6801e-05 0 
0.000633248 -0.000309627 0 
0.000195321 -4.31218e-06 0 
-0.00148108 0.00130853 0.000827949 
-0.00290609 0.00130431 0.00170848 
0.000185293 0.00395111 0.0106509 
0.00118744 0.00139683 0.00330933 
0.000436605 -0.000107377 0.0063243 
-0.000100924 -4.13714e-05 0.000379747 
3.8678e-05 -0.000124854 0.00944182 
-0.000100546 -7.10214e-05 0.00985532 
-0.000134769 5.83583e-06 0.00976999 
0.0016303 0.00231138 0.0146169 
0.00241612 0.000608748 0.014271 
0.000356791 0.000458706 0.0179098 
0.000998305 0.00122222 0.0172053 
0.000291851 -0.000572601 0.0144487 
-3.29019e-05 5.835e-05 0.0127062 
4.3483e-05 -0.000505783 0.0145026 
0.000168018 -4.29917e-05 0.00769858 
0.000164218 -0.000306887 0.000404362 
0.00125574 0.000112227 0.00838462 
0.00015088 -0.000189009 0.00935603 
0.000430476 0.00046588 0.00723621 
-0.00143009 -0.002003 0 
-0.00125461 -0.000976279 0 
-3.56672e-05 -0.000956158 0 
3.98423e-05 0.0030458 -0.00245403 
-0.00019872 0.00024176 0 
-0.000181632 -0.000300464 0 
8.76285e-05 -0.000579628 0 
-0.00130052 0.00227072 0.000810168 
7.11568e-06 -0.000166088 0.000251494 
0.000196701 -2.32536e-05 0.0113359 
-4.54117e-05 -0.000127404 0.000200407 
-6.83916e-06 -7.11869e-05 0.0107367 
0.000173539 -0.000190384 0.00916991 
0.00032371 0.000541608 0.00718135 
0.00147125 -8.83527e-05 0.00913742 
0.000154895 -0.000146829 0.0146591 
0.00341471 0.00325369 0.0137331 
0.00215586 0.000104196 0.00897808 
0.00399177 -0.000421746 0.0212934 
-0.00072668 7.26447e-05 0.00945244 
0.00187284 0.00177898 0.0222554 
0.00458238 -0.000715585 0.015547 
0.000760578 0.000384422 0.0136255 
0.00178936 0.00202817 0.017843 
-0.00011573 0.000426334 -6.9973e-05 
0.0027873 -0.00190435 0.0066819 
0.000313027 0.000451322 0.000254939 
0.000474569 -0.000272284 0.000721553 
0.0179732 -0.0103063 0.0246636 
0.0150838 0.00879561 0.0349686 
0.00357584 0.0140807 0.00504097 
1.45139e-05 -0.0148076 0.00829737 
-0.00721075 -0.000580414 0.0207714 
-0.0124283 -0.000512026 0.0147418 
-0.00139999 0.000769897 0.0126599 
-0.0062047 -0.000640807 0.0114328 
0.000199731 0.0011993 0 
-0.00204398 0.00078395 0 
-0.00195052 -0.00315773 0 
0.00229705 -0.0101804 0.00557952 
8.49802e-05 0.000449963 -0.000432745 
0.00244823 -0.0018059 0.00506044 
-0.000391977 -0.000171451 -0.000803783 
-0.000290296 -0.00010424 0.00165898 
-9.33692e-05 3.28687e-06 0.016929 
0.00135533 8.89183e-05 0.0166528 
0.000621637 0.000242395 0.017264 
0.000580619 9.56906e-06 0.0182835 
2.36426e-05 -0.000223044 0.0113056 
0.000167557 -0.000898301 0.00887925 
6.14984e-05 -0.000150526 -3.41676e-05 
-0.000266955 -1.70069e-05 0.0107651 
-0.000538686 -0.000922023 -0.00195204 
0.00383324 -0.000893342 0.00328689 
-1.80283e-05 3.01227e-05 -0.00055897 
0.00908951 0.000954772 0.0068806 
6.83378e-05 5.50628e-05 0.0116083 
-6.10872e-05 6.25121e-05 0.0110947 
-0.000178839 -0.000210245 0.0106708 
-0.00035677 0.000111562 0.0163452 
-2.37081e-05 0.000280932 0.00087963 
-0.000381262 -0.000124198 0.00917493 
0.000237732 -0.000680963 0.00894937 
0.000877583 -0.000524867 0.00704804 
-0.000417327 0.000950091 0.0168983 
-0.000717808 0.00110756 0.01553 
-0.000898673 -0.000487324 0.0145552 
-0.00114096 0.00140782 0.0167832 
-0.00750831 -0.00240294 0.0196327 
-0.00311737 0.000982007 0.0132767 
-0.0026115 0.00173772 0.0133433 
-0.00524253 0.000753916 0.0121012 
-0.000110246 4.63479e-06 0.0169738 
0.000550929 -0.000301757 0.0166484 
0.00139056 9.30148e-05 0.0166561 
0.000558731 4.50284e-06 0.0182461 
0.000827093 0.00114887 0.0146621 
0.00377804 0.000391052 0.0175244 
0.0017008 -0.00028101 0.0194584 
0.00129456 8.63124e-05 0.0169149 
0.000235294 0.000723755 0.0172467 
0.00108642 0.00150547 0.0170491 
0.00245893 0.000460984 0.0145775 
0.00311398 0.00021486 0.0162852 
1.97609e-05 2.1081e-05 0.0150457 
0.000650389 0.000290891 0.0145287 
-5.00477e-05 -0.000108649 0.0124272 
0.000307179 0.000100273 0.00938063 
0.00113968 0.000726924 0 
-0.000675731 -0.000112325 0 
0.000425317 0.00150727 0 
0.00175036 -0.00752308 0.00191224 
0.00189189 0.00190701 0.00310271 
0.00120925 -0.00213235 -0.00363697 
0.021526 -0.000396017 0.0244593 
0.0130938 0.00044899 0.0145628 
0.000299706 0.00106994 0.0151226 
0.00151327 3.76092e-05 0.0171266 
0.00296611 -0.000469608 0.0179095 
0.00196219 0.000622205 0.016523 
0.00174726 -0.000263624 0 
-0.000865816 -0.000314791 0 
-0.000381726 8.1768e-05 0 
-0.00284094 0.00105971 0.000676907 
0.000355495 -0.00107324 0.0140718 
1.91685e-07 -9.17894e-05 0.0138115 
-0.00140054 -0.00170942 0.0165167 
0.00067861 -0.00145644 0.0160631 
-0.000232968 0.000957775 0.0167059 
-0.00122863 -0.000447515 0.0147394 
-0.00152701 3.89073e-05 0.0172065 
-0.00100271 0.00139728 0.0166877 
-0.000362877 -0.000469769 0.0150801 
-0.00157462 -0.000616793 0.0103471 
0.000462234 -0.000240321 0.0134729 
0.000478077 0.000490437 0.0135827 
0.00220411 0.00242334 0.015421 
-0.00179607 0.00336361 0.0162091 
0.00273791 0.00021217 0.0155158 
2.40283e-05 0.00282685 0.016883 
-8.33583e-05 -0.00131985 0.0162189 
0.000169633 -0.000978207 0.0177222 
1.18785e-05 -0.000121786 0.0139972 
-5.18463e-05 -0.000340758 0.0144033 
0.000370586 0.000767633 0.0172249 
0.00236449 0.000355027 0.0147413 
0.00182508 -9.46963e-05 0.0177051 
0.00324449 0.000184684 0.0164073 
0.000200404 -0.000540487 0.0131975 
0.00202094 -0.00212822 0.0202047 
0.00241889 0.000610546 0.00951979 
-5.83887e-05 -0.000743847 0.0157312 
0.000591348 -0.000474145 0.0113863 
-0.000217476 -0.000491065 0.0135395 
-0.000786094 0.00111766 0.0173813 
-0.000132894 0.00147122 0.0163544 
-0.000449296 0.000966506 0.0170101 
-0.000702801 -0.000611031 0.0137248 
-0.000799857 0.00116709 0.0159262 
0.000197417 0.0015881 0.0162647 
0.00238457 -0.000852071 0.0210722 
0.000589409 0.0011356 0.00991283 
0.00296538 0.000589788 0.00919515 
-0.000654617 -0.000992405 0.0158576 
0.00121789 0.000466611 0.0156438 
0.00111342 -0.000631988 0.0170598 
0.000615939 -0.000226375 0.0164418 
0.0007732 -0.000913347 0.0157306 
-7.74762e-05 0.000190208 0.000234292 
0.000626672 0.000122742 0.0113824 
-0.000418282 -0.000177649 0.00881408 
0.000930102 -0.000424106 0.00779086 
-0.000465296 -0.00286143 0.0156889 
-0.000138342 -0.00165003 0.016064 
0.00015944 -0.000437467 0.0167825 
0.000171696 -0.0028824 0.017227 
1.90728e-05 2.97437e-05 0.0159643 
-0.000596681 0.000218399 0.0152252 
-0.000812778 -9.34915e-05 0.0167882 
-0.000518526 -0.000192635 0.0180772 
0.000294603 0.000421352 0.00664784 
0.000156874 0.00231608 0.0082717 
0.000641459 0.00219123 0.00297644 
0.00028454 0.00215999 0.011927 
-0.00327875 -0.00132291 -0.00279355 
-0.00197594 -0.000622005 -0.000281985 
0.00278056 0.00979378 0.0112672 
-0.00225915 -0.00175539 -0.00055026 
0.00105697 -0.000395337 0.0168427 
0.00215408 1.36499e-05 0.017111 
0.000493115 0.00057251 0.017576 
0.00213434 0.000264719 0.0151922 
0.00222897 0.00339819 0.0151786 
-0.000879012 0.00728179 0.0167223 
-0.00218963 0.00166239 0.0162435 
0.000219183 0.0020546 0.0173134 
2.31037e-05 -9.68562e-07 0.0177093 
-0.000504542 0.000153937 0.0178427 
-0.000858644 -1.55275e-05 0.0155039 
-0.000395826 -7.00181e-06 0.0179034 
-3.28144e-05 -0.000107232 0.000278825 
7.15232e-05 0.000834543 0.0117776 
0.000330534 3.31967e-05 0.0119796 
5.04264e-05 0.000342123 0.0093674 
-0.000599717 0.000114566 -0.00180831 
0.00137958 0.000248612 0.00830029 
0.00336532 -0.000368978 0.0103308 
0.00426601 -0.00178777 0.00504622 
0.00166179 0.000749271 0.00863851 
0.000401483 -6.34078e-05 0.0071031 
6.03991e-05 -0.00036951 0.000363277 
0.00115714 0.000562487 0.00512572 
-0.000534309 -0.000377955 0 
-0.0017803 -0.00123158 0 
-0.000915009 -0.00161057 0 
0.00311604 0.00118169 -0.000913078 
-0.000706819 0.000665868 -0.00135806 
-0.000820532 -0.0111331 0.0129998 
-0.00377806 -0.0221964 0.0298452 
-0.00014612 -0.00293735 -0.00117329 
-7.95211e-05 0.00065487 -0.000827928 
0.00296515 -0.00424833 0.00741235 
0.00328649 -0.00153736 0.011649 
-0.00032857 -0.000221847 0.0115547 
0.000182128 -0.000231152 0.0140461 
0.000131796 -0.000687724 0.0177228 
-9.4362e-06 -4.0073e-05 0.0144878 
-0.000139709 -0.000478294 0.0143697 
-0.000529286 0.00334123 0.0118569 
-0.00118746 0.00214903 0.0102266 
0.00144143 -0.000992034 0.0137763 
0.00208822 0.00297519 0.0161848 
-0.000386152 9.02923e-05 0.000156836 
0.0031661 -0.00131661 0.00633602 
-0.000752443 -0.000373713 -0.000311318 
0.0012805 0.000319856 0.0068911 
0.00118427 0.00648434 0.00172985 
-0.00738374 0.00137996 0.00347917 
0.000486899 0.00971222 0.0246152 
-0.0153197 0.0149164 0.0298898 
0.00494549 0.0120928 0.00490851 
-0.00252383 0.00862009 0.0367974 
-0.00248804 0.0145325 0.031767 
0.00200071 0.00548427 0.0141555 
-0.000485216 -0.00254049 0.0162691 
-0.000246855 -0.000554272 0.0173939 
0.000209834 -0.00043305 0.0167166 
-0.000329282 -0.00191885 0.0158807 
-0.00051263 0.00337491 0.00977064 
0.00030892 -0.000882934 0.0155071 
0.000475361 0.00196653 0.00898868 
-0.00223677 -0.000411937 0.0084347 
0.000105607 0.000137106 0.000111997 
0.000616828 0.00027323 0.00898157 
0.000167792 0.000104977 0.0091398 
0.00079814 0.000222864 0.0103911 
-0.0020114 -0.000139927 0.0171764 
-0.000351253 -0.000460917 0.0147161 
-0.000942522 0.00110027 0.0154681 
-0.00183102 0.00150383 0.0167314 
-0.000437189 -0.000379204 -0.00081348 
0.00100124 0.00172006 0.00284506 
-1.09614e-05 0.000753062 0.0073822 
0.000264911 0.00229979 0.00709326 
3.76734e-05 -1.42229e-05 0.0104714 
-5.22732e-06 2.27701e-05 0.00539276 
-9.38892e-05 -0.000167208 0.00935057 
-0.000190709 -0.000166872 0.00710554 
-5.34772e-05 0.000145161 0.000254772 
0.000383005 -0.000240132 0.0121879 
-5.80718e-05 0.000137417 7.74126e-05 
-0.000254318 0.000557585 0.0122494 
0.000564572 0.00157062 0.00317121 
-0.002449 0.00128505 0.00129409 
-0.00158317 0.00574086 0.00889581 
0.000199429 0.00382117 0.0112541 
-0.000783866 -0.00948185 0.00434322 
-0.00120446 -0.0117857 0.0237141 
0.00283757 -0.0129184 0.0344364 
0.0022179 -0.0201809 0.058893 
0.000241489 0.00549218 0.0100894 
0.00289919 -0.00610907 -0.00157844 
-0.000371829 0.00310023 0.00250349 
0.00367391 0.0215674 0.0366374 
-0.00120134 0.000125069 -0.00244782 
0.000168543 0.00117136 0.0133852 
-0.00332364 0.00280518 0.0121976 
-0.00148185 0.000594659 0.0121756 
-0.000474804 -0.00127034 0.0151393 
0.000679257 -0.000175399 0.0123045 
-0.00153489 0.000543449 0.0109468 
-0.00160292 -0.00161796 0.0171381 
-0.00243323 0.000890557 -0.00251012 
0.00678424 -0.000660378 0.00495553 
0.000460255 0.00129955 0.000439152 
-0.00156121 -0.00172239 -0.000330905 
-0.000812553 -0.000182261 0.0104292 
0.000434317 -0.000478831 0.0146939 
-0.000143673 -0.000244251 0.00941581 
-0.000393627 -0.000188472 0.0075815 
0.000239477 -0.000431287 0.0140095 
0.000448175 -0.000253793 0.0163218 
-1.84421e-05 7.09977e-05 0.0154366 
0.000220434 -0.000543864 0.0175466 
0.0026541 -0.00432559 0.00840549 
0.00521131 -0.00189527 0.00365998 
-0.00021322 -0.000410628 -0.00268191 
0.00656456 0.00148688 0.00762259 
-0.00059869 0.0122821 0.0229096 
0.00187212 0.00666885 -0.00147678 
-0.000567621 0.00538223 0.000897645 
-0.00605299 0.0199735 0.0308856 
0.000969986 0.000309494 0.0133159 
0.00064931 0.000818539 0.0205647 
0.000972547 0.00242366 0.0194638 
-0.000832773 0.0021339 0.0175098 
-0.000352928 0.000163702 -0.000195262 
-0.000304158 0.000411731 -5.82276e-05 
0.00333891 -0.0017262 0.00696464 
0.00136132 0.000167294 0.00706386 
-5.4911e-05 -1.57583e-05 0.0108605 
0.000608576 0.000553555 0.0137615 
-0.0002278 3.97076e-05 0.0123461 
0.000338835 0.000280149 0.00900505 
-0.00413055 9.00383e-05 0.0101221 
-0.00606661 -0.00185533 -0.00155471 
-0.00392288 -0.00354199 0.00118697 
-0.00779392 0.00151889 0.0103326 
0.000241276 0.000699089 0.0194688 
0.00189706 0.00233618 0.00858609 
0.000965919 -0.00294987 0.0223419 
0.000205174 -0.000379679 0.0149475 
-0.000629672 -0.00295958 0.00255105 
-0.00188057 -0.00215141 0.0107655 
-0.00176714 -0.00150031 0.00220166 
-0.000603192 -0.00101428 0.00622067 
-4.34957e-05 1.75724e-05 0.0149615 
0.000761507 0.00021491 0.0145297 
-0.00015224 0.000101546 0.0110878 
0.000516092 3.84564e-05 0.0149557 
-0.00279354 0.0041905 0.00030774 
-0.00187472 -0.00520298 0.00130627 
-0.00671736 -0.00455173 0.00895032 
-0.00264949 -0.00158821 0.00103525 
-0.00635313 -0.000123665 0.0217617 
-0.000946933 5.93277e-06 0.0110261 
-0.0135458 7.05754e-05 0.0159785 
-0.00689268 -0.000407029 0.0109117 
2.16266e-05 -5.42156e-05 0.0106723 
3.49143e-05 8.50753e-06 0.00693632 
1.29686e-05 -2.5642e-05 0.00529856 
-0.000189385 -7.9459e-05 0.00696909 
-2.5265e-05 -1.21626e-05 0.0126021 
-6.65446e-06 -5.07611e-05 0.0110246 
-5.17688e-05 1.00232e-05 0.014802 
0.000447154 0.000676561 0.0131856 
0.00685694 0.000236256 0.000336873 
0.00706059 0.0078759 0.00706964 
-0.00376162 -0.00332948 0.0101701 
0.00411836 -0.00101725 0.0145391 
-0.000132269 7.30681e-05 -9.31861e-05 
0.00059964 -0.00087726 0.00782956 
-1.94102e-05 5.93187e-05 0.0110579 
0.000823871 -0.000115153 0.00765908 
0.000488428 0.00068555 0.00919418 
-0.00156739 0.000860471 0.00919371 
0.000943282 0.00276381 0.0184454 
0.00139022 0.00454285 0.00919395 
-0.000153738 -0.00087758 0.0167927 
-0.000157557 -0.000635199 0.0134101 
-0.000875247 1.63717e-05 0.0108801 
-9.009e-05 -0.000241277 0.00973234 
-7.96574e-05 -0.000106454 0.000474628 
0.000193067 0.000120675 0.00020945 
0.000178134 -0.00024769 0.0119032 
-0.00018101 -0.000884624 0.0109811 
0.000552434 0.000377809 0.0151131 
0.00021793 0.000340528 0.00936535 
5.31651e-06 1.97262e-05 0.0106352 
0.000480304 -0.000156343 0.0151258 
0.00222651 -0.000280626 0.0129611 
0.00161135 -0.00413818 0.0192822 
0.00286259 0.00221912 0.00917877 
-3.43276e-06 -0.0020642 0.016807 
-0.000270386 -9.15871e-05 0.0004379 
-0.000100304 6.05354e-05 0.00918629 
-9.86729e-06 0.000980362 0.0126551 
8.42629e-05 0.000407142 0.00788671 
-0.00390493 -0.00652549 0.0118064 
-0.00128442 0.000127853 0.0137705 
0.00131992 0.00310672 -0.00228518 
-0.00459792 -0.00511331 0.00671927 
-0.000109235 -0.000867199 0.0175061 
1.44365e-05 -0.000462049 0.0168281 
0.000229493 -0.00137026 0.0166371 
8.8001e-05 -0.00270659 0.0165027 
0.000234249 -0.000360485 0.000267866 
0.00017426 7.07649e-05 0.00927513 
-7.25618e-05 -7.94734e-05 3.44202e-05 
0.000287894 0.000464223 0.00752821 
0.00196425 0.000810872 0.000256428 
0.00197415 -0.0128922 0.0233031 
-0.00160362 -0.0108983 0.0113499 
0.00132688 -0.000871535 -0.00306249 
-0.00107092 0.0118723 0.00974711 
0.00479166 0.00633671 0.0311132 
-0.00144993 0.00649877 0.0168416 
0.000416637 0.00377327 0.0207226 
9.86375e-05 3.20272e-05 0.000112897 
5.81186e-05 -0.000115389 0.0110674 
4.4899e-05 1.42615e-05 0.000336616 
0.000146402 7.38476e-05 0.00888758 
-0.00118783 -0.000222563 0.016899 
-8.78914e-05 -0.00176349 0.0158253 
-0.000162542 -0.000604084 0.0174455 
-0.00105621 -0.000803786 0.0163054 
-0.00018726 -0.00246639 0.000212734 
0.00117433 -0.00285788 0.00711971 
0.000564955 -0.00401188 0.0039983 
0.000626397 0.00103061 -0.000406149 
-0.000257855 -0.000530639 0.0134713 
-0.000126874 -1.74148e-05 0.00981696 
-0.000272843 -0.000942858 0.0168019 
6.74805e-05 -0.000242493 0.0145176 
0.000706123 -0.0005083 0.00498872 
0.00805398 -0.0015228 0.0100763 
0.00107899 0.0133835 0.0150444 
0.0196755 -0.00766937 0.04591 
0.0616841 0.00311172 0.136297 
-0.0156617 -0.0191653 0.161823 
0.0294459 0.0231298 -0.0173563 
-0.0382443 -0.0171298 0.022089 
-2.18801e-05 -7.50388e-05 0.0057927 
-2.3402e-05 -1.04951e-05 2.85204e-05 
8.59073e-05 6.56706e-06 6.25734e-05 
-0.000189292 0.00021834 0.0125933 
-3.57537e-05 1.86616e-05 0.0115386 
0.000129504 -0.000113995 0.00960361 
0.000364012 -0.000494992 0.0138503 
-6.71116e-05 -0.000330502 0.0167161 
0.00111777 -0.000802067 0.0167955 
0.00209694 0.000223315 0.0145726 
0.00044946 0.000944826 0.0177885 
0.000498149 5.22247e-05 0.0164509 
-0.00157984 0.0023377 0 
-0.00389359 0.00143697 0 
-0.00100991 0.00428534 0 
0.00965296 -0.00859856 0.0012984 
1.98967e-05 -3.64324e-05 -4.60586e-05 
0.000437041 -0.0001591 0.00950773 
-0.00022404 -0.000184425 0.000409626 
-0.000164595 2.66291e-06 0.00910309 
0.000758746 0.000458533 0.0139371 
0.000196323 9.47865e-05 0.00929291 
0.00053481 0.000293989 0.00859628 
0.000770642 0.000164237 0.0106833 
0.000610078 -0.00033605 0.000100789 
0.000167953 -0.00104578 0.0108484 
-0.0020368 -0.00365755 0.010406 
-0.000614769 -0.00133583 0.00627245 
9.53291e-05 0.000103231 0 
-0.000150855 1.89346e-05 0 
-0.000355367 7.58628e-05 0 
0.00288087 -0.000709776 0.000641642 
0.000166388 -6.27062e-05 0.00609822 
-0.000346418 0.000370878 0.0118106 
4.2815e-05 -1.15095e-05 0.00848122 
-0.00040906 0.000299387 0.00934247 
-0.000497869 0.000744098 0.0174361 
-0.000456212 -0.00024332 0.0135394 
0.000263214 -7.4398e-05 0.0113427 
-0.000567989 8.70171e-05 0.0160532 
-0.000674994 0.000539493 0.00010302 
-0.00087613 0.00154836 0.00115077 
0.000178415 -0.000246712 -0.000388271 
-0.000145039 0.000769013 0.00101527 
7.36951e-05 0.000584763 -0.000211203 
0.00125306 -0.00113547 0.00140152 
3.00543e-05 0.000769323 -0.000412468 
0.00233143 -0.00164995 0.00123835 
0.000245069 0.00018619 -0.00137578 
-0.00262543 -0.00127795 0.00302082 
-0.00112935 -0.000130726 0.00674189 
9.40688e-05 -0.00121317 0.00583131 
0.000267669 0.000933008 0.0162426 
0.000287581 0.000305216 0.014482 
-0.000474312 0.00085981 0.0171307 
1.70721e-06 0.00134808 0.016174 
3.30445e-05 7.63606e-05 0.000271627 
0.000139826 -0.000265493 0.0112645 
-1.96634e-05 -2.08784e-05 5.52148e-05 
-0.000132072 -0.000130386 0.0106785 
-0.000892683 0.000711035 -0.000469976 
0.00309564 -0.00168759 0.00217845 
-0.000305829 0.00023688 0.000164728 
0.00228874 -0.00170242 7.31375e-05 
0.000106715 -2.56798e-06 -0.00143113 
-0.000275355 0.00130572 0.009032 
-4.96081e-05 8.41313e-05 3.01732e-06 
-0.000735125 0.000451512 0.00776687 
0.000229971 -0.000773976 0.0143283 
-3.75592e-05 -0.000676542 0.0165437 
-9.02373e-06 5.10007e-05 0.0156915 
-0.000152459 -0.000338156 0.0162039 
-0.000233365 -0.000978936 -0.00129844 
0.000486183 -0.00196428 0.0117113 
0.00382173 0.00560507 0.00979596 
0.00191905 0.00721896 0.00603309 
-1.2639e-07 -1.30927e-05 0.00672203 
-6.53917e-05 -7.07505e-06 0.000382552 
0.000118297 7.75189e-05 0.011909 
0.000156421 0.00016605 0.00942243 
-0.000771446 -0.00152971 -0.000691539 
-8.62704e-05 0.00137368 0.00166017 
0.00091179 0.00321814 0.0074664 
0.00140584 0.00360597 0.00292226 
0.000685167 0.0046493 0.0130096 
0.00194873 0.00265014 0.00232449 
0.000475407 0.00250365 0.00801541 
-0.000595097 0.00139345 0.0129545 
-0.00316785 0.00309351 0.0215221 
0.00733699 -0.00272 0.00579152 
0.00131584 0.00127331 0.0349943 
0.00649191 -0.0136246 0.0417547 
-0.000181067 -0.00857283 0.0114763 
0.000839214 -0.0044293 0.0157473 
-0.000422472 -0.00268831 0.0160073 
-0.000323724 -0.00364017 0.0100089 
0.000152655 0.000123179 0.000314539 
-0.0002374 0.0008521 0.0127325 
-0.000350046 -5.56846e-05 0.00924993 
0.00053402 0.00133011 0.00789322 
4.83137e-05 -1.95905e-05 0.0100038 
0.000144291 -0.000200419 0.00931743 
-6.30559e-05 -1.6977e-05 0.00590921 
-0.000237313 0.000128589 0.00970176 
-0.00392321 -0.000326776 0.00624466 
0.00129699 0.00310992 0.00995969 
-0.00265495 0.00156522 0.0142392 
-0.00464821 0.00175656 0.00992296 
-0.000267984 -4.38224e-05 0.000453183 
0.000334779 0.00134417 0.0072459 
9.06074e-05 0.000650079 0.00731783 
-0.000266467 0.000113506 0.00796119 
-1.34379e-05 -7.26392e-05 0.0125797 
0.00015317 -0.000121247 0.0134746 
0.000312563 0.000166366 0.00943554 
0.000347949 -3.5685e-05 0.0168965 
0.00286121 -0.000542799 -0.00221373 
-0.00288451 -0.000847704 0.0129484 
-0.00444334 0.0039082 0.0116641 
-0.00667654 0.00241848 0.00661119 
5.54711e-06 0.000341988 -0.000383708 
3.72896e-05 0.000895768 -0.000119761 
0.000552531 -0.00246997 0.00296389 
0.000197365 -0.0017212 0.00409459 
-0.000264488 -0.000220165 -0.00047118 
0.00138084 0.0014139 0.00220924 
-0.000782917 -0.000322916 -1.09612e-05 
0.000261808 0.00190577 0.000811743 
0.0117842 0.0373093 0.0129024 
0.00238888 -0.0104475 0.0114694 
0.00578686 0.00509178 0.0392453 
-0.00187047 -4.30287e-05 0.00462398 
-1.35002e-05 8.17181e-05 0.0130919 
2.61702e-06 1.10607e-05 0.0158148 
0.000236687 -0.000670201 0.014082 
6.88864e-05 -0.000659357 0.016714 
0.00318862 0.000234993 0.0167746 
0.00057625 -0.000799878 0.0159622 
0.000846842 0.00020267 0.0152557 
0.000438684 -4.79318e-05 0.0138708 
-3.09864e-05 2.28242e-05 0.0159444 
4.98826e-05 -5.93091e-05 0.0178165 
-0.000673307 0.000179888 0.0150726 
-0.000365063 -0.000158936 0.0181928 
-0.00050336 4.99088e-05 -0.00154415 
0.00324299 -0.00117488 0.00213651 
0.00122141 -0.000768549 0.0018968 
0.00302893 -7.79593e-05 0.0019466 
-1.59732e-05 -9.44795e-05 0.0145974 
-3.63541e-05 0.000136742 0.0175165 
0.000237457 0.000886821 0.0159725 
-5.018e-05 0.000384669 0.0143838 
0.00118921 0.000628769 0.0213761 
0.000182997 0.000750519 0.0119629 
0.00130567 0.0020066 0.0202752 
0.00100193 -0.00118662 0.0114317 
-0.000370149 0.000880537 0.0173339 
9.5323e-05 0.000361182 0.014157 
4.93042e-05 -0.000192828 0.011425 
7.58797e-05 0.00129382 0.016282 
-4.15141e-05 -4.2182e-07 0.00666567 
-8.44065e-06 0.000127929 0.000163534 
-7.7368e-05 1.64827e-05 0.000159873 
4.12151e-05 -0.00038917 0.0108286 
-0.0018371 -0.00154848 0 
0.000540522 -0.00282235 0 
0.000491949 -0.00241021 0 
0.00257299 0.00972793 0.000399142 
-0.000730564 -2.22779e-06 0.0147554 
-0.00064233 2.66229e-05 0.0152214 
9.79412e-05 -2.14144e-05 0.0151906 
-0.000481054 3.10622e-05 0.0160678 
-0.00263497 -0.00261288 0.00876461 
-0.00596913 -0.00431396 -0.000886543 
0.001564 -0.00254329 0.00845746 
0.00718019 -0.00950085 0.0333773 
3.60056e-05 -0.000851803 0.0169485 
0.000636286 -0.00202891 0.0156444 
0.000524361 -0.00378642 0.0151344 
0.0025166 -0.00283875 0.0130882 
-0.00271561 0.00197599 0.00232995 
-0.000126727 -0.000359438 0.00613204 
0.00128424 0.00119621 0.00311092 
-0.000151646 0.000288302 9.2323e-05 
0.000382337 -8.60273e-05 -6.38941e-05 
0.00013221 -0.00364665 0.00305719 
-0.000154956 0.00078709 -0.000861798 
0.000324915 -0.001289 0.000301534 
0.00335907 -0.00016195 0.0153265 
0.000496673 -0.00217658 0.01507 
0.000384801 -0.00118215 0.0167046 
0.00224653 -0.00246246 0.0135663 
-2.20415e-05 2.14745e-06 0.0146057 
-0.000113823 -0.000157885 0.0124367 
0.00043576 0.000791444 0.0137569 
0.000204315 0.000750647 0.0159942 
5.31528e-05 0.000679041 0.0071248 
0.000209961 0.00157414 0.00806148 
-8.47546e-05 0.000783825 0.012412 
-0.000203927 -3.22683e-06 0.00753608 
-9.84384e-05 2.53598e-05 0.0107328 
0.000677426 0.000273424 0.014627 
6.36263e-05 -9.23244e-06 0.0151982 
0.000218959 0.000170406 0.009107 
0.000292757 -9.70916e-05 0.00930457 
0.00176024 -0.000324507 0.00964287 
0.000497046 -0.000394887 0.0141147 
-0.000236636 -0.000279012 0.0141493 
0.000396325 0.000794924 0.0174119 
0.00187175 -0.000237654 0.0172175 
0.000713738 0.00124199 0.0166859 
0.00318834 0.00021111 0.0163687 
-0.00106157 0.0215626 0.0157842 
0.016012 0.0175135 0.0352642 
-0.00502084 0.00411265 0.00597477 
-0.00111491 0.000787899 0.00302509 
-0.000231987 0.00371075 -0.00464867 
-0.000456446 -0.0105488 0.0154939 
0.000447613 -0.00563524 -0.0018783 
0.0015924 -0.00571698 0.00768007 
8.82614e-06 0.000117711 0.00711136 
9.54774e-05 -5.29576e-05 0.0115203 
6.35341e-05 6.77403e-06 0.00042658 
9.43116e-05 -0.000231251 0.00794956 
-7.22247e-05 0.000126141 -2.1285e-05 
0.000209657 0.000244279 0.000334083 
0.000788742 -0.000101534 0.00848976 
0.00120681 0.000186387 0.0106333 
-0.000907608 0.000160231 -0.00053758 
0.00273371 -0.00182574 0.00664233 
-3.23374e-05 0.000298635 3.8869e-06 
0.000519163 -0.00048621 0.00109511 
-7.86391e-05 -0.00181631 0.0166682 
0.000301231 -0.000766626 0.0173484 
0.000245499 -0.000674011 0.0173303 
0.000305672 -0.00145177 0.0164101 
0.002375 -0.00055905 0.0102769 
0.00163417 0.000451229 0.00828676 
-0.000470356 0.000198523 0.000431383 
0.000897906 -0.000109286 0.010723 
0.00235396 -0.0024665 0 
0.00119994 -0.000571346 0 
0.00269959 -0.00119679 0 
-0.0060793 0.0043667 0.00123991 
-8.2393e-05 0.000119159 -0.00222247 
0.000853485 -0.000930493 0.00217862 
0.00133219 0.000948274 0.00325411 
0.0028877 -0.000165239 0.00197775 
0.000111852 0.00212775 0.017496 
-3.98119e-06 0.00070355 0.0163709 
-0.000346336 0.000830411 0.0169041 
2.99802e-05 0.00153771 0.0163609 
-0.000147066 0.000130009 5.27652e-05 
3.12649e-05 0.000634297 0.0124405 
-0.00105341 -0.000515903 0.0122916 
-0.000233403 -0.000403916 0.0102514 
-0.00017834 -0.00013068 -0.000254069 
1.06903e-05 -6.76242e-05 0.000418443 
0.000395288 0.000258155 0.00727922 
0.00116332 0.000387796 0.00503711 
-0.000539038 0.00111149 0.0161135 
0.000220054 -0.000276197 0.0110744 
0.00180761 0.000582694 0.0142246 
-0.000127965 0.00136056 0.0165378 
0.000180935 -0.00057435 0.014457 
4.63125e-05 9.65574e-05 0.012916 
-5.41674e-06 -0.000772641 0.0167499 
7.54542e-05 -0.000539444 0.0143008 
8.0154e-05 0.000373373 0 
-0.000400134 -0.000313898 0 
8.47883e-05 0.000166179 0 
-0.000957309 0.000278155 0.000397593 
1.16016e-05 -8.61326e-05 0.011135 
-7.59141e-05 7.1051e-05 0.0146953 
0.000466489 0.000609137 0.0132198 
0.000113833 0.000383003 0.0142029 
-0.0045296 -0.00248923 0.00984949 
0.001084 0.00272357 -0.00285143 
-0.00257471 -0.00206031 0.0142003 
-0.00358825 -0.00339662 0.00621487 
-5.38699e-05 7.03966e-05 0.0118352 
0.000429357 0.000555819 0.0143062 
7.70097e-05 0.00069274 0.0162914 
0.000245064 0.000145393 0.00921709 
0.00270095 -0.00184694 0.00957376 
-0.000278692 -0.00218769 0.0148013 
0.00242545 0.000501941 0.0133763 
0.00303539 -0.00266479 0.0134375 
0.00143321 -0.000686477 -0.00111776 
-0.001544 0.00272005 -0.00450406 
-0.00504429 -0.00105703 0.0200374 
-0.00691743 -0.0279533 0.0354891 
0.00270196 -0.000340294 0.013832 
-0.000628163 -0.00223009 0.0144914 
0.00407876 -0.000172363 0.015766 
0.00274996 -0.0019026 0.012993 
-0.00672356 0.00263398 0.0201442 
-0.000594125 -0.000549803 0.00975477 
-0.00467347 0.00250356 0.00404396 
-0.000344105 0.0018203 0.0104076 
0.000724547 -0.00524614 0.000131428 
0.00143968 -0.00529666 0.00791734 
0.00118 0.000838464 -0.00361682 
-0.000618484 -0.00307156 0.010328 
0.000973257 -0.00157285 0 
-0.00250918 0.00416819 0 
-0.0027123 0.00173438 0 
0.0069632 -0.0123991 0.00282335 
-0.000539521 0.000348255 -0.00137164 
0.00985949 -0.00288621 0.00970903 
-0.00170331 0.00401346 -0.00227457 
0.00341003 0.000788413 0.00713863 
0.0370902 0.0110349 0.0354359 
0.00307461 -0.000909673 0.0202919 
-0.001709 0.00934812 0.0215819 
-0.00231326 0.00178608 -0.000853077 
-0.00153977 8.52971e-05 0.0172025 
-0.000861748 6.17012e-05 0.0143246 
-0.000334852 0.000504911 0.0169109 
-0.000413958 6.21503e-05 0.0159185 
0.000110225 -3.37066e-05 0.00586705 
3.11688e-05 8.86012e-06 0.00870156 
-0.000102408 0.000123829 0.000331962 
-0.000292909 0.000223802 0.00952882 
-0.00136616 0.00125613 0.0198085 
-0.00119121 -0.00355194 0.0185686 
-0.00539347 -0.000980033 0.0223557 
-0.00113439 0.00583412 0.00831701 
0.001234 -0.0013425 -0.00212339 
-0.00385043 -0.000146849 -0.000193364 
-0.00580089 0.00545434 0.0086255 
0.000437653 0.00385988 0.00522829 
-8.1003e-06 -1.8123e-05 0.00536075 
6.3826e-05 -5.9235e-06 0.00681289 
-6.36123e-06 -5.18944e-05 0.000149135 
-0.00015046 -6.04261e-05 0.00715904 
0.00200101 0.000429936 0.0112618 
-0.00125512 0.0102736 0.0191697 
-9.91751e-05 0.00639363 0.0183247 
0.00185333 0.00619112 0.0110397 
0.000800131 -0.000627703 0.011511 
-0.000668563 0.00107017 0.0161699 
-0.000479277 -0.00039019 0.0134476 
7.18044e-05 0.00150482 0.0163473 
0.000118459 -2.49549e-05 0.0118133 
-1.474e-06 4.93466e-05 0.0148021 
3.23464e-05 0.000299197 0.0141755 
-0.000320266 8.332e-06 0.0162083 
0.000892958 -0.000620836 0.0170067 
0.00132104 0.000340566 0.0171098 
0.00145988 0.000378626 0.015572 
0.00069687 -0.000238026 0.0164483 
1.04188e-05 2.48163e-05 0.0146055 
0.000226774 -0.000391311 0.0138652 
7.99275e-05 5.63841e-05 0.0152693 
4.89107e-05 -0.000524236 0.0178639 
-3.18289e-05 2.48934e-05 -0.000328057 
0.000187793 -0.000138908 0.000302941 
4.56512e-06 -3.91719e-06 0.000118143 
0.000214603 0.000185681 0.00738246 
-0.000249732 -0.00106081 -0.000635808 
-0.000491995 0.000824646 0.00933469 
0.00128601 0.000561553 0.0104003 
0.000296952 0.00477403 0.00684857 
-0.00356567 0.00302305 -0.000314842 
0.00295763 0.0194384 0.0348704 
0.00466384 0.01896 0.0419215 
0.000371653 0.00431369 0.0042869 
0.000800393 -0.000585143 -4.19925e-05 
-0.00248091 -0.000273351 0.00810048 
-0.00132799 -0.000132856 0.0103796 
-0.003642 0.00221283 0.00586175 
6.02015e-05 -0.00039497 -0.000931229 
-0.00226392 -0.00399699 0.0124037 
0.000177893 -0.00105487 0.0109452 
-0.00156236 -0.00155975 0.0110172 
0.00365799 0.00599887 0.0165821 
0.00119206 0.00257586 0.00897253 
-0.000826128 0.00291404 -0.00158737 
0.00212363 0.00288885 0.00242391 
-9.82219e-05 -0.000248808 0.0109187 
0.000656144 0.000840279 0.0139083 
0.00171332 0.000525685 0.0139895 
1.58682e-05 0.00138134 0.0167044 
-8.57467e-06 -2.63059e-05 0.0116728 
-2.44599e-05 8.37882e-05 0.0109287 
0.000108809 -8.86463e-05 0.00683504 
-0.000113355 -0.000152636 0.0105256 
-0.000654771 0.00119573 -0.00057493 
-0.000316794 0.000335614 -0.000383184 
0.00234207 -0.00300834 0.00352311 
0.00103747 -0.00219403 0.00423882 
-0.000450399 -0.00232694 -0.00118146 
0.00321781 -0.00412589 0.00428733 
-0.00410219 -0.00273475 0.00764916 
0.00379849 -0.0131052 0.015929 
-0.000289715 -0.00016026 0.0128397 
0.000251704 0.00271642 0.0102929 
-0.0025469 -0.000662126 0.00614606 
0.00028565 -0.000276262 0.00673574 
0.000725604 -0.000724279 -0.00177717 
-0.0028634 0.000380096 -0.000459303 
0.00692692 -1.10537e-05 0.0107627 
0.003071 0.0017398 0.00744134 
0.000705093 0.000327582 -0.00159084 
0.00142385 0.000398257 0.0091715 
0.00370232 0.00264661 0.00909475 
0.000369636 -0.00020435 0.0106795 
-0.000723917 0.00667989 0.0084686 
0.000536585 0.013972 0.02397 
-0.000880371 0.00834118 0.00344813 
0.000970381 0.00775101 0.0203619 
0.00371102 -0.00129246 0.0121338 
0.00200397 -0.00282546 0.0199373 
0.00645151 0.0057076 0.0170849 
0.00131321 -0.000492042 0.00795904 
-0.0553878 0.0111383 0.0923835 
0.0547155 -0.00950519 0.0404487 
0.00415876 0.00145245 0.0442275 
-0.0271135 0.0144356 0.0358508 
1.33285e-05 1.70564e-05 0.000148576 
4.02097e-05 5.94208e-05 -5.21662e-05 
-5.71691e-05 -8.60621e-05 0.00017338 
0.000160286 -0.000157674 0.0114022 
0.00676219 0.00153151 0.0104749 
0.00316827 0.00833669 0.0160366 
0.00232024 -0.00416542 0.0205815 
0.00666791 -0.00828822 0.0347157 
2.19803e-06 0.00221104 0.0172857 
-0.00030334 0.000687586 0.0171035 
0.000101329 0.000863896 0.016318 
-9.58798e-05 0.000990423 0.0181717 
-0.000563297 -0.000290883 -0.000933344 
-0.00157999 -0.000710983 0.0132305 
-0.00126938 -0.00449496 0.010779 
0.000239369 -0.000421488 0.0108511 
0.0026965 -0.00237307 0.0214019 
0.00407937 -0.0158416 0.0473912 
0.00632674 0.0181567 0.00288459 
0.00107423 -0.00338742 0.0434286 
-8.17578e-05 -1.8645e-05 0.0148498 
0.000273443 3.43421e-05 0.00937017 
-0.000109875 -0.000202042 0.0144078 
-0.000187456 0.000127493 0.013692 
1.18196e-05 7.63624e-05 0.0164701 
3.83786e-05 0.000949788 0.0159805 
2.24975e-05 -3.88264e-05 0.0172906 
-3.17509e-05 0.00080442 0.0184741 
-0.0039099 -0.00289817 0.0107115 
-0.00564961 0.000980224 0.0155027 
-0.00263311 -0.00640559 0.0143646 
-0.00114352 -0.00579662 0.00527544 
-6.72262e-06 3.77229e-06 2.65935e-06 
-2.81024e-06 4.7306e-07 6.04538e-05 
1.21787e-05 -5.30839e-06 -8.68266e-05 
0.000401872 -0.000124595 0.00830005 
0.0440911 0.0152572 0.0851663 
-0.00681127 0.0164541 0.0155898 
0.00768882 -0.0121203 0.0114978 
-0.00923484 0.0041103 0.054286 
6.82225e-05 -5.47945e-05 0.00679045 
-3.00629e-05 -4.64694e-06 0.011673 
7.5332e-05 6.69827e-05 0.0109816 
1.03959e-05 3.74447e-05 0.0108574 
-0.000117028 -0.00022607 0.000381399 
0.000141747 -0.00126884 0.0107807 
0.000601073 0.000146774 0.0122777 
-0.00116822 -0.000879771 0.0106347 
-0.000112228 -0.000119178 0.000114353 
-0.000982666 0.000141257 0.00804705 
-0.000591204 0.00034014 0.00900841 
-0.000209332 0.000254946 0.00970315 
0.000866784 -0.000584989 -0.000373022 
-0.00247114 0.00373038 0.00954174 
-0.000150819 0.00118718 0.0125512 
-0.000660664 0.00194134 0.0055302 
8.62114e-05 -6.35661e-05 0.0100103 
-2.40752e-05 0.000176729 0.0145974 
0.000176551 -0.000226616 0.00945624 
-0.000256101 0.000151214 0.0097083 
-0.0087066 -0.0584258 0.070268 
0.00394916 -0.0499668 0.0498662 
-0.00283263 0.0160909 -0.0351982 
-0.00866022 0.0071374 0.0770103 
-0.0055959 -8.41632e-05 -0.010942 
-0.0115325 0.0253501 0.0129685 
-0.00383923 0.00943462 0.0526826 
-0.00135327 0.00400848 0.00623209 
0.000719188 -0.00710007 -4.58817e-05 
0.00130266 0.00255956 -0.00386407 
0.000253028 -0.00530561 0.0120695 
0.000474748 -0.0213145 0.0178143 
0.00125516 0.0032958 0.0180712 
0.000329651 0.00190197 0.0177178 
-0.000620009 0.00234909 0.0172937 
-0.000103298 0.00133214 0.0164864 
-6.12508e-05 -1.7484e-05 0.012974 
0.000282087 -0.000443799 0.0143451 
0.000379233 -0.000166725 0.00813085 
0.000210493 -0.000137855 0.00756088 
-0.000112344 -0.00130011 0.0165316 
-0.000990269 -0.00144541 0.0159354 
0.000107145 -0.000299113 0.0137541 
0.000459897 -0.00141769 0.0163118 
-0.0236124 -0.0135519 -0.0125734 
-0.0154525 -0.0490732 0.0253194 
0.00484849 -0.00701693 0.0391704 
0.0241513 0.0172239 0.104109 
0.00109931 0.00233259 0.0207181 
0.00506102 0.00478218 0.013392 
-0.00103359 -0.000945106 0.00626869 
0.00266899 0.00671318 0.00901335 
-0.000692474 0.00222098 0.0298252 
0.00293227 -0.00802018 0.00597839 
0.00397056 -0.00119917 0.0114637 
0.00433514 -0.0130649 0.0243401 
-8.49015e-05 -0.000645227 -0.00121249 
-0.00173017 0.0019306 0.00227196 
-0.00144483 0.00398165 0.00281139 
-1.55048e-05 -0.000244422 0.000497365 
0.000421421 0.000800053 0.0115877 
-0.00035025 0.000221763 0.0086973 
-0.000440956 0.000979712 0.012602 
0.000621303 0.001094 0.00831057 
-6.8547e-06 3.24699e-07 0.010535 
-0.000117321 -5.24503e-05 0.00875561 
3.92161e-05 -3.36818e-05 0.00620986 
-8.46913e-05 0.000441656 0.0113554 
-0.000105477 0.000521343 0.0173721 
-0.000342239 0.000239707 0.0114271 
3.15748e-05 0.000383728 0.0141857 
-0.000272861 -2.58778e-05 0.0160316 
-0.00104111 0.000861969 0.0188613 
-0.000676007 0.00217627 0.0178593 
0.0023827 0.000197051 0.0144252 
0.000945469 -0.000586161 0.0114011 
0.00480412 -0.000623369 0.0128039 
0.00200111 -0.003908 0.0113023 
-3.10728e-06 -0.00334742 0.0222632 
-0.000556568 -0.000811046 0.0091124 
-4.20043e-06 -1.69747e-06 0.0109254 
0.000178844 0.000180272 0.00957072 
0.000353462 -4.01845e-05 0.0115156 
0.000512544 8.46013e-05 0.0149732 
0.00131182 9.92002e-05 0.0172367 
0.0006126 -5.9792e-05 0.016727 
-3.00789e-05 -7.80172e-06 0.0163695 
0.000517361 1.64913e-05 0.014945 
-0.000431108 -0.000144351 0.0148861 
-2.80353e-05 -4.93354e-05 0.00893426 
-2.35642e-05 1.32181e-05 0.0107891 
-0.000500481 0.000180678 0.0154785 
-8.24584e-05 0.000149134 0.000269851 
-1.17864e-05 6.70933e-06 -0.000177622 
-0.00100354 5.04768e-05 0.00753971 
-0.000213836 0.000168656 0.0098665 
-7.20026e-05 -0.000106506 0.0105224 
-5.70111e-05 -0.000222531 0.0105515 
1.5131e-05 4.56171e-05 0.0067529 
-6.86873e-05 -9.41292e-05 0.00742094 
-7.25314e-05 0.000136633 9.4748e-05 
-0.00029548 3.92436e-05 0.00914184 
0.000364549 0.000894987 0.0111011 
0.000584408 0.0012758 0.00802669 
0.000719264 -0.000288176 0.0143054 
0.000134413 0.00183501 0.0179227 
0.000938822 0.00317626 0.0182441 
0.00016659 0.001439 0.0164091 
0.000134703 -0.000286903 -0.000335587 
0.000176445 -0.000636469 0.000129926 
-0.000701435 0.00248538 0.00231125 
-0.00035661 0.00189912 0.00410166 
-0.0211713 -0.0544733 0.134043 
0.0262159 0.051628 0.0610512 
-0.00842593 -0.0447527 0.148775 
-0.00175353 0.00233476 -0.0304119 
0.000394982 -0.000168854 0.0142406 
0.00235115 0.000542229 0.00966279 
0.0016124 -0.002873 0.0183089 
0.000185053 -0.00149894 0.0166693 
0.00182577 0.00131119 0.0215173 
0.0007015 -0.000150716 0.013059 
-0.00135059 0.0010791 0.0123116 
0.00185738 0.00256386 0.0179384 
-0.000921135 -8.1052e-05 0.0167673 
-0.000503906 -0.000877199 0.0176807 
-5.16311e-05 -0.00122954 0.0154348 
-0.000174452 -0.000172988 0.0165718 
-3.5273e-05 -0.000138314 -4.92618e-05 
8.85363e-05 -9.02747e-06 0.000250155 
9.71582e-05 -0.000695392 0.0108246 
-8.69436e-07 -6.53939e-05 0.0080084 
-4.16287e-05 3.26517e-05 0.000460993 
0.000189885 -0.000176094 0.0109857 
4.90898e-05 -2.84223e-05 -0.000317806 
0.000247546 -0.000567197 0.00808698 
-0.00021669 -5.66513e-05 5.68828e-05 
0.000157188 -0.000240924 0.0112072 
-9.19401e-05 0.000285074 -5.81837e-05 
0.00033734 -0.000804394 0.0084927 
0.000277083 -0.000166947 -0.000419813 
-0.000270776 -0.000755538 0.00039804 
0.00123497 0.000505945 0.00962272 
0.00042824 0.00409469 0.00545473 
-2.55145e-05 -1.48975e-07 3.28624e-05 
0.000330999 -0.00019905 0.00956145 
8.01656e-05 -1.9781e-06 -9.37999e-06 
0.000348636 -0.000125221 0.00823242 
0.00485653 0.0062338 0.0303902 
0.000703976 0.00272345 0.0212185 
-0.00135904 0.0129163 0.00930401 
0.000617855 0.00567109 0.0162441 
-0.0026895 0.00662491 0.00191918 
0.00484256 0.0197702 0.0275328 
-0.00382507 0.00473583 0.00580323 
0.0012498 0.00657519 0.00698909 
-0.00669891 0.00187694 0.0187915 
-0.00150574 -0.00193249 0.0174473 
-0.000298199 -0.000567138 0.00922224 
-0.000565264 0.00175497 0.01067 
0.00652502 -0.000477455 0.00182463 
-0.00481854 -0.00505181 0.00584461 
0.0181022 -0.00864846 0.0279123 
0.00494689 0.000586826 0.0137477 
0.00592442 -0.000256572 -0.000102493 
0.0159379 -0.00770898 0.0238007 
0.00441056 0.00647077 0.00315227 
0.00611927 3.97671e-05 0.015222 
-0.00190769 3.37647e-06 0.0114026 
-0.000342641 0.000522623 0.00939487 
-0.000474831 -0.000211559 -0.00044793 
-0.00154985 1.22541e-05 0.00762159 
-0.00333274 -0.000704876 0.0066697 
-9.83735e-05 -0.000371927 0.00635587 
-0.00256823 0.0018321 0.00197926 
-0.000282056 0.000393285 -2.56307e-05 
-0.000127244 5.87092e-05 0.007067 
0.000354629 -9.03478e-05 0.0112718 
-4.61631e-06 3.84034e-05 0.0111385 
0.000186463 9.3951e-05 0.00934759 
0.0284976 -0.0602277 0 
0.0218047 -0.0260267 0 
-0.00677915 0.0165689 0 
-0.00412847 0.031284 0.140687 
0.00161138 0.000366257 0.0109583 
-0.000601084 -0.000725873 0.0153996 
0.000398486 0.000917428 0.0072662 
0.000247902 0.00150307 0.0116924 
-0.00566599 0.00908478 0.0240318 
-0.00853575 0.00280897 0.0017404 
-0.00242729 0.00606901 0.0116081 
0.000874686 -0.000898525 0.00982745 
0.000415444 -0.000334862 -0.000211763 
-0.00225839 0.00353853 0.00974721 
5.32546e-05 -0.000339698 -4.89196e-05 
-0.000350546 0.00148322 0.011917 
-0.00143002 0.000258214 0.00874873 
-0.000432883 -1.75523e-05 0.00774322 
-0.00168104 -0.000324036 0.0103417 
0.000520344 0.000210852 0.0135568 
0.000480594 0.000151792 -0.000439521 
-9.9022e-05 0.00010701 -2.42646e-05 
-0.00279645 0.000755556 0.00199944 
-0.00174231 0.000213668 0.000274906 
0.000117772 -9.066e-05 -0.00113093 
0.00120376 0.000831244 0.00288657 
0.000868482 -0.000644602 0.00186146 
-0.000461026 0.000353538 0.000725133 
-0.00186551 0.00514213 0.00986828 
-0.0014294 0.00225751 0.0218485 
0.00117918 0.000285071 0.00588569 
0.000580513 0.00663213 0.00912558 
0.00182728 0.00291924 0.0135225 
-0.000488201 0.00579004 0.0174803 
-0.000888731 0.00749718 0.0167668 
0.000325355 0.00196243 0.0176696 
-0.000554039 -0.00224278 0.0150535 
-0.00258192 -0.00157733 0.016174 
-0.00256282 -0.00109038 0.0140189 
-0.000773811 -0.000571963 0.0154531 
0.0512911 0.000182154 0.116488 
0.0593778 -0.00263448 0.120363 
0.00105801 -0.00678014 0.216023 
-0.0132221 0.0120781 -0.11262 
0.00154551 0.000445106 0.0134655 
0.00109157 0.00271891 0.000663032 
0.00307467 0.00104384 0.00659213 
-0.000179861 0.00536648 0.00752561 
-0.0158735 0.00263739 0.0175616 
-0.00376834 -0.00285065 -0.000991677 
-0.0030256 0.000760207 -0.00344131 
-0.0106225 -0.0010121 0.0124535 
-8.28118e-05 1.85549e-05 0.0106791 
0.000388109 0.000119402 0.00866488 
0.000612095 0.000518036 0.013847 
0.00037732 0.000228667 0.00926356 
-0.00468547 -0.00163589 0.00926815 
-0.00335101 0.000435314 0.0120016 
0.00144236 -0.000965671 -0.000829097 
-0.00254788 4.28715e-05 0.00752551 
-0.00132915 0.000208628 0.0108742 
0.000103489 -7.25951e-05 0.0129215 
0.000119823 -0.00149687 0.0171641 
-0.000925262 -0.00155735 0.0163218 
-2.2511e-05 -3.23733e-05 -2.01599e-05 
4.84673e-05 7.59845e-05 0.000284176 
6.90747e-05 9.70773e-05 -2.47472e-05 
-7.37153e-05 -0.000230281 0.0112803 
0.000481728 0.000415847 0.0152416 
0.000190404 0.000303745 0.00895147 
1.68182e-05 -7.14695e-05 0.010399 
0.000235007 0.000337028 0.00934873 
3.15768e-06 -0.00036652 0.0122462 
-0.00333337 0.00191764 0.0136379 
-0.00283985 -0.000410216 0.00677198 
0.000213036 0.00241261 0.0101372 
0.000361547 3.74673e-05 0.000158345 
0.000211801 9.41244e-05 0.00910768 
3.76874e-05 0.000215268 0.000238603 
0.000730788 0.000242558 0.0104206 
1.87985e-05 -6.17538e-05 0.000172586 
0.00019019 -0.000984814 0.00999722 
-9.58033e-05 -0.000374686 0.00979419 
0.000232619 -0.000149877 0.00939375 
1.25474e-05 -4.04417e-05 0.0145932 
-0.000134444 -0.000225266 0.00976579 
3.2647e-05 -0.000253748 0.0136068 
-0.000134246 -0.000479917 0.0144128 
0.00362075 -0.000458159 0.0150961 
-0.00182192 -0.000125756 0.01435 
-0.00206522 -0.00288683 0.014356 
-0.00227715 -0.00546865 0.0148871 
0.000778735 0.000911346 0.000972427 
0.00304283 0.00712832 0.0111755 
-0.0148397 0.0135041 0.0243375 
-0.0063927 0.00264161 0.00161039 
-0.00062284 0.00023513 -0.000900041 
-0.000493696 9.42819e-05 -0.00127478 
-0.00139919 -0.00106809 -0.00168568 
0.00845016 0.000586336 0.00851514 
-9.35165e-05 -0.00245153 0.0148544 
-0.000304763 -0.00417635 0.0155843 
0.000338261 -0.0095942 0.0150643 
-0.000227505 -0.00326346 0.0183973 
-0.000516419 0.00217246 -0.00390385 
-0.00301089 -0.00413745 0.0106165 
0.00191914 0.00515139 0.00813159 
-0.00277198 -0.0010518 0.00369185 
-7.99448e-05 -4.57552e-05 1.22049e-05 
-0.000284209 -2.49975e-05 0.0098525 
-0.00110822 -7.52421e-05 0.00719378 
-6.87221e-05 0.000305109 0.00981182 
0.000224384 -0.0485567 0.0573877 
-0.0151187 -0.00605413 0.00464741 
0.00790965 0.0183574 0.0337348 
0.00319916 -0.0200354 0.0423367 
0.0135726 -0.00572057 0.0274466 
-0.0075074 0.00526796 -0.00388842 
0.0204603 -0.0134778 0.0663697 
-0.00121896 0.00144228 -0.0221621 
-8.19712e-05 -6.61898e-06 0.0147679 
-0.000115859 -0.000176539 0.0141558 
0.000280112 -1.61328e-05 0.00979577 
-0.000171606 -0.000256856 0.0165288 
-1.19727e-05 -2.12959e-05 0.0180969 
-9.29229e-05 -9.04846e-05 0.0161427 
0.000191695 0.000899877 0.0172245 
0.000582015 0.000279759 0.0172246 
0.00676077 -0.0494243 0.114736 
-0.0168625 0.0230862 0.0239753 
0.00937482 0.0224461 0.0550091 
0.0146196 -0.0222467 0.0423209 
-0.000401946 0.00067592 0.0215449 
0.00300291 -0.00574884 0.0240621 
0.00694989 0.00528433 0.0126272 
-0.00205862 0.0044715 0.0354543 
0.000410213 -0.000851657 0 
0.000821158 0.000370802 0 
-0.00273052 -0.000366861 0 
0.001367 0.00144345 0.002906 
-0.00196402 0.00160785 7.01732e-05 
-0.000856471 -0.00490415 0.00992711 
-0.00114374 -0.000230526 6.0384e-05 
-0.000854952 -0.000775811 0.0119934 
-1.4225e-05 0.00064848 0 
-3.64439e-06 -0.000284634 0 
6.80099e-05 0.000505043 0 
0.00170018 -0.00108048 0.0001369 
-0.000335946 0.000892711 -0.00308816 
0.00232985 -0.002652 0.00562118 
0.00450355 -0.00236238 0.00495954 
0.000459067 -0.00214317 0.00590146 
-0.00262318 0.00111537 0.0133932 
0.000238157 0.00327204 0.0105728 
-0.000233127 -0.000158762 0.012298 
5.82047e-05 0.00215748 0.0165132 
-0.00218637 -0.00237775 -0.00509414 
-0.00390312 0.00109845 -0.000716911 
-0.000935338 -0.00952717 -0.000188702 
0.00850626 0.00633686 0.0170084 
0.000444609 0.000484713 -0.000953776 
-0.00119149 0.00029668 -0.00107654 
0.00126896 0.000842033 -0.000793941 
0.000229533 -0.00945422 0.00719206 
-4.46344e-05 -0.00010937 4.75983e-05 
2.16705e-05 9.86622e-05 -0.000699095 
9.75845e-05 0.00020398 0.000417244 
0.000518906 -0.00182395 0.00213478 
0.00086282 0.000319664 0.0147161 
-0.000299015 0.000479844 0.00937546 
0.000159266 -0.000186808 0.0135009 
0.000942869 -0.000401287 0.01698 
-8.49544e-05 -0.00143098 -0.00116591 
-0.000828315 0.000330596 -0.000687611 
0.0026341 -0.00211379 0.00432348 
6.44338e-06 -0.000375546 0.00209262 
0.000687809 -0.00026818 0.0122703 
-0.000370717 0.000578713 0.0122085 
0.000240211 0.00021251 0.000247762 
-0.00150683 -0.000177122 0.0109927 
0.000765764 -0.00424664 0.0155621 
0.000281047 -0.00226412 0.0154535 
0.00236499 -0.0019984 0.00885156 
0.00259502 -0.0025498 0.0130164 
-4.26871e-07 -1.41555e-05 0.0159592 
0.000290193 0.000405943 0.0147632 
0.000179486 0.000786392 0.017348 
0.00048602 0.000295011 0.0173243 
0.000447564 0.00013318 0.000291178 
-0.00177637 -0.00283651 0.00187665 
0.000259031 0.000589362 -0.000396774 
0.000153252 -0.00156496 0.00516744 
0.000424975 0.00183176 -0.00293152 
0.00269992 0.00345119 -0.00227278 
0.00165396 -0.00551604 0.00232285 
0.00816794 -0.0145247 0.0167201 
-6.97779e-05 -0.000275508 0.00976322 
0.000144369 -0.00123732 0.0100799 
-0.000108233 -2.46032e-05 0.000135655 
-0.000106453 -0.00101829 0.00642227 
-2.23313e-05 2.81984e-05 0.000308757 
-2.11628e-05 -2.22171e-05 8.00455e-05 
-0.000197199 -0.000158621 0.00994261 
5.6324e-05 -0.000117885 0.00942585 
-0.00105674 0.00440517 0.0120913 
0.000338661 0.00093177 0.00820981 
0.00086779 0.00367746 0.0179927 
-0.00121595 0.00206263 0.00535931 
0.00299466 -0.0032457 0.00893799 
-0.00140822 0.00610903 0.0143909 
0.00281855 0.00556731 0.000877032 
-0.00191653 0.00694037 0.0107459 
-0.0118019 0.0487398 0.0557004 
-0.009862 -0.0134879 0.0308342 
0.0025091 0.00859225 0.00213251 
-0.00714377 0.00137511 0.0461841 
0.0010545 -0.00409712 0 
0.00378789 0.00406609 0 
0.0011103 0.00116904 0 
-0.00298797 -0.00592122 0.00267219 
-0.00326339 0.0146767 0.018079 
-0.00157116 0.0171291 0.0332878 
1.82341e-05 0.00379351 0.00709781 
-0.00877711 0.0154636 0.045062 
0.0199468 -0.00169136 0.0215774 
-9.2564e-06 -0.000213883 0.00098755 
0.00445218 0.000908767 0.00054388 
0.0145959 -0.00217618 0.0151833 
-0.00218046 0.00170662 0.0154813 
5.46654e-05 0.000317941 0.0144907 
0.00229364 0.00110608 0.0155431 
0.000865953 0.00258523 0.0172802 
-4.3257e-06 -1.33581e-05 0.00459964 
-7.92865e-05 -6.35207e-07 0.00669052 
-6.01027e-05 1.13961e-05 0.000153217 
0.000113965 -0.000315736 0.0107145 
-7.88149e-06 -5.85579e-05 0.0110016 
0.000527473 0.000612824 0.0134406 
0.000297837 0.000125896 0.00875019 
0.000140598 0.000388054 0.0142923 
-0.000120052 -0.00271898 0.0167675 
-0.000320939 -0.00867135 0.0111749 
-0.000567532 -0.00338573 0.00929401 
-0.00105245 -0.00491815 0.012929 
-0.000526893 0.00129404 0 
-0.000545524 0.00059709 0 
0.000735383 0.000343763 0 
0.0010455 -0.00509144 0.000223764 
-0.00338637 -0.00155919 0.00729374 
-0.00174794 0.000112832 0.00690079 
0.0001467 0.000690819 -0.000975389 
-0.00268904 -0.00164733 0.00373852 
-8.65128e-05 -2.35976e-06 0.0147174 
-0.000194952 0.000119535 0.0138115 
-0.000111565 -0.000177585 0.0141786 
-0.000184465 -0.000238733 0.0163356 
0.00121426 0.00191527 0.00296803 
-0.00266105 0.00100465 -0.00226355 
0.0209818 5.06936e-05 0.0194942 
0.00458362 -0.00241705 -0.000278033 
0.000516025 0.000799731 0.013849 
-0.0001206 -7.79133e-05 0.0142256 
0.000123246 0.000833201 0.0162484 
0.000155449 0.000439039 0.0142879 
-3.83063e-05 1.91448e-05 0.0106747 
9.87128e-05 -2.08405e-05 0.0151818 
-3.82693e-05 -3.92132e-05 0.0124694 
0.000234969 9.90897e-05 0.00924471 
0.000134185 -6.11924e-05 0.000486107 
-0.00131423 0.000172319 0.0116327 
-0.000198688 0.000276986 0.0123445 
-0.000654524 0.000254346 0.00941287 
-2.45067e-05 -0.00020505 0.000247729 
-1.56208e-05 0.00036359 0.0120265 
-0.000122769 -0.000336709 0.000318011 
0.000287129 0.000502518 0.00946416 
0.00632052 -0.00160955 -5.03744e-05 
0.00669738 -0.000253877 -0.000961825 
0.01145 -0.000305496 0.0240744 
0.00762656 -0.000882143 0.0147198 
0.000123492 0.000118109 0 
-6.92255e-05 -0.000922306 0 
0.000675215 -0.000404649 0 
-0.00293954 0.00107868 -0.00033265 
-0.00498941 -0.000320686 0.0188804 
-0.00169725 -0.000132654 0.018081 
-0.00379111 0.000852054 0.0137051 
-0.00371485 6.60648e-05 0.0134103 
-0.00137457 5.41645e-05 0.00706565 
-0.00278692 -0.00115569 0.00322902 
-0.00188695 -0.00165098 0.0113857 
0.000297822 -0.00133886 0.0052882 
0.000146363 0.000102919 2.52993e-05 
0.000222199 -0.000222005 0.000239679 
-0.000414578 0.000340987 -0.000510651 
0.00140864 -0.0019763 0.00186901 
0.00166144 -0.00266095 0.00415796 
0.00122125 0.00196066 0.00646503 
0.0177449 0.00458401 0.0342135 
0.00412832 -0.00281179 0.00624727 
-0.000156384 -0.000654625 0.0219512 
0.00192993 -0.00639584 0.0119731 
-0.00124069 -0.00615922 0.0145486 
0.000198205 0.000619003 0.00744385 
7.30455e-05 7.15906e-05 0.0178324 
7.29019e-05 -7.45769e-05 0.0156786 
-0.000790713 -7.69222e-05 0.0151579 
-0.000536768 0.000200565 0.018063 
-1.79776e-05 -0.000168963 0.000233907 
-2.58291e-05 -5.03453e-05 0.00633293 
1.50242e-05 6.22585e-05 0.00528276 
4.26024e-06 0.000244867 0.00807254 
-8.97071e-05 2.96915e-05 -0.00117317 
0.00239398 -0.00176666 0.0119313 
-0.000158956 0.00042131 -0.000245285 
0.000966072 -0.00105279 0.0104939 
-5.17031e-05 9.50081e-06 0.0159804 
0.000109714 0.000118335 0.011875 
0.000281619 -0.000567741 0.0136617 
-0.000191085 -0.000354496 0.0164222 
-0.000830411 -0.000278479 0.0262284 
0.00978148 -0.000792324 0.0296608 
0.0101002 0.000301913 0.0136566 
0.0161652 0.000718594 0.0253675 
0.00150868 -0.00182905 0.0249955 
2.37728e-05 0.015631 0.03568 
0.00545287 0.00245833 0.0281692 
-0.00162442 0.00840827 0.0183466 
-0.00130015 0.000286791 -0.000265504 
0.00295271 -0.000434205 -0.00196161 
-0.00671036 0.000818042 0.0039221 
-0.00216807 -0.000735642 0.00560158 
-0.00410616 -0.00357873 -0.00484865 
0.0140438 0.00496338 0.0115879 
-0.00213866 -0.00130161 -0.00144643 
0.00629936 0.00313565 0.00694649 
0.00216918 0.00093621 0.0239292 
-0.00237326 0.007406 0.0191733 
0.00493818 0.0056432 0.0280434 
0.000846547 0.0032109 0.0189494 
-0.000496341 0.00118422 -0.000761508 
0.000585848 -0.00137114 0.00764147 
0.00126614 -0.00314407 0.00378964 
0.000642456 -0.00139341 0.00469382 
-1.08477e-05 1.71864e-05 0.0156392 
-0.000637635 -5.72032e-05 0.0143772 
0.000257692 -7.56232e-06 0.0115748 
-0.000596368 1.1228e-06 0.0150339 
0.000585375 0.00351762 0.00235945 
0.00161482 -0.000327888 0.0110862 
0.00105785 0.000580245 0.00463008 
0.000325805 0.00203132 0.0115627 
0.00168098 0.00165665 0.00345907 
-6.74196e-05 0.00489266 0.00276658 
-0.000971137 -0.00167618 -0.00431799 
0.00299347 0.00342267 0.00382141 
1.33667e-05 -5.37696e-05 0.000504661 
-0.00037906 -3.4675e-05 0.0123505 
9.03763e-05 -2.09172e-05 0.000332294 
-0.000540777 0.000423364 0.00940725 
0.00143385 0.00598971 0 
-0.00446613 0.00279271 0 
0.00649596 -5.3846e-05 0 
0.0165987 4.64756e-05 0.0128794 
-0.0135785 0.0365708 0 
-0.00418195 -0.0115914 0 
0.000483664 -0.0154129 0 
-0.0113744 0.0170171 0.0566088 
-0.0179036 0.0427911 0.112094 
0.00743233 -0.0264623 0.0365899 
-0.0195556 -0.0124144 0.0103186 
0.0108967 0.00318935 0.044483 
0.000190113 0.000244661 -0.000125242 
-0.00108199 0.000265696 0.00794478 
-2.9835e-05 0.00102399 0.00897435 
-0.000273727 2.9882e-05 0.00766627 
-3.83535e-05 1.14037e-05 0.00710657 
1.26114e-05 1.28636e-05 0.00551936 
-8.7769e-05 -4.94915e-05 0.000181838 
-2.27714e-05 0.000298638 0.00905126 
-0.00135539 -0.00223162 -0.00314899 
0.0154175 0.00100283 0.00664469 
0.004054 -0.000165748 0.00122573 
0.00289526 0.00926321 0.0160983 
0.00198264 0.000988738 0.0214142 
-0.0028261 -0.000758014 0.0475197 
0.00918142 -0.00307607 0.0299954 
0.0125691 0.000916878 0.032147 
0.000361226 -0.00414173 -0.00517853 
0.00148829 0.0142441 0.0237541 
0.00438129 0.00887176 -0.00366614 
0.000444817 0.00842979 0.00805265 
0.000107156 0.000106405 0 
0.000761774 0.000101976 0 
0.000241654 0.000392379 0 
-0.00131344 -3.72576e-05 0.000149632 
0.0132098 -0.00336648 0.00484296 
-0.000274598 -0.00995516 -0.0136552 
0.0223205 0.0175373 0.041234 
0.00270337 0.0078506 0.00392377 
0.000466967 0.00166507 -0.000801129 
-0.000122544 0.00100202 -0.000432202 
-0.00276682 -0.0052327 0.0106415 
-0.00376428 -0.00395923 0.00559831 
-6.63224e-05 -5.95836e-05 0.0116704 
2.61572e-05 -2.02153e-05 0.0108764 
7.31519e-05 0.000146986 0.0109777 
9.4433e-05 0.000261597 0.014206 
0.00631317 -0.00172939 -0.0053551 
-0.0220465 0.0147639 0.035896 
0.000407412 -0.00359943 -0.000493743 
-0.00384887 0.0040321 -0.00526471 
0.00081406 0.00121281 -0.000576391 
-0.000166453 0.00115748 -0.000779818 
-0.00432803 -0.00678829 0.0122826 
-0.00103724 -0.0012525 0.0108353 
0.000351299 0.00328819 0.0126587 
0.00137137 0.00239956 0.0190595 
-0.00427967 0.00657635 0.0139051 
-0.00101255 0.00330305 0.00406272 
-0.00369001 -0.00130789 0.0268994 
0.00120367 -0.0104748 0.00897887 
-0.0320606 -0.00397883 0.0173653 
-0.00111037 -0.000275018 0.00353363 
0.00203391 0.000976475 0.0052863 
0.000305761 -0.00308979 0.00868526 
0.00180348 -0.00426975 0.00399449 
-0.000112419 -0.0090163 0.0144301 
0.000221348 -0.000806828 0.0165532 
-1.92293e-05 -0.00127804 0.0156469 
-0.000531185 -0.000908876 0.017699 
-0.000266858 -0.00018348 0.0163709 
0.000603875 0.00245074 -0.00481644 
-0.00396922 -0.013617 0.0163213 
0.00147133 0.0032256 -0.00378409 
-0.00195512 0.000631587 0.000925629 
0.00102306 -0.000400614 0.0167741 
0.00085984 -0.00171964 0.0164965 
0.00249984 -0.000583387 0.0149022 
0.000855023 -0.00168983 0.0154256 
0.000874761 0.000104849 -0.000242685 
0.00038419 0.000293864 0.000206999 
-0.00178694 -4.89743e-05 0.0055738 
-0.00265094 -0.00124409 0.0028292 
-0.000675892 0.00147815 0.0227528 
-0.0022814 0.00147033 0.0154991 
0.000384086 0.00493305 0.0206063 
-0.000925775 0.00222839 0.0167158 
0.000422875 0.000152725 -0.000238203 
-0.0026104 0.000842472 0.00137942 
0.000651118 0.000604504 -0.000459979 
-0.00200526 -0.000329446 0.00101597 
-0.00898605 -0.00592073 0.0130075 
0.000816952 -4.87702e-05 0.0121443 
0.00228196 0.000559211 -0.00130756 
-0.00756511 -0.00281142 0.00662897 
-0.00149133 -0.000268334 0.0101975 
-0.00180241 9.65031e-05 0.00877308 
9.56988e-05 0.00010863 -0.000271976 
-0.000353736 4.27151e-05 0.00786594 
-0.0042195 0.000651684 0.0132102 
-0.0020406 -7.332e-05 0.0164888 
-0.00452792 -0.000212962 0.0200013 
-0.00344035 -8.23617e-05 0.0190777 
-4.94709e-05 2.56841e-05 0.00016627 
3.79525e-06 -4.59965e-06 4.55336e-05 
2.42423e-05 -1.39008e-05 -5.23277e-05 
0.000267752 -5.88902e-05 0.00966504 
0.0647106 -0.00959245 0.140572 
0.0481831 -0.0197071 -0.0177579 
-0.035007 0.0155124 0.156012 
-0.0696727 0.0352367 0.0316119 
-0.000228698 0.000407659 -0.000699167 
-0.00318855 -0.00144258 0.00712186 
-1.60006e-05 0.000811825 0.000858013 
-0.00182493 -0.000391281 0.00659733 
-0.00596835 0.00012146 0.0150912 
0.000714117 -0.00182802 0.015356 
-0.00265547 0.000853115 0.00847259 
-0.00125031 -0.00168993 0.0175462 
-0.00285793 -0.00158091 0 
0.00335406 -0.000462555 0 
0.000653455 -0.000339602 0 
0.00691205 0.00224127 0.00365143 
0.000651359 0.000473422 -0.00213055 
0.000548864 0.00209342 -0.00149064 
-0.00502461 -0.00325054 0.00603327 
-0.00262575 -0.000322504 0.00358497 
0.0477364 0.0408988 0.063323 
0.054445 0.0195551 0.0589232 
-0.0369436 -0.0108656 0.05443 
-0.0126861 -0.00786329 -0.0359442 
-0.00716426 -0.00157751 0.0206837 
-0.00269062 0.00140969 0.012822 
-0.00342652 -0.000595295 0.0191912 
-0.00466776 0.0011851 0.0119394 
0.00248421 -0.00168443 0.0150934 
0.00320763 -0.0048602 0.0183622 
-0.00246191 -2.40963e-05 0.0138152 
-0.000893715 -0.00432585 0.0151259 
7.36195e-05 -8.99934e-05 0.000731098 
0.000136107 1.45508e-05 0.00897621 
-0.000109401 0.000419401 0.0123956 
0.000530275 0.00014881 0.0109686 
-0.0002606 0.000979496 0.0164046 
0.000136716 -0.000260746 0.0109781 
-0.000501072 -0.000530869 0.0135354 
0.00144341 0.000423254 0.0137178 
-0.00120647 0.00436945 0.0119948 
-0.00132098 0.00335331 0.00238258 
5.25142e-05 0.00104329 0.00937441 
-0.000820733 0.00206563 0.00492914 
-0.0289635 -0.00729785 0 
0.0439875 0.0111005 0 
0.022686 0.0205958 0 
-0.0117432 0.029551 0.0706301 
-0.000367366 0.000198302 0.000272431 
0.000322844 5.27646e-05 -0.000390794 
4.0114e-05 0.000248778 9.25517e-05 
-0.00126135 0.000512019 0.00026202 
2.92932e-07 2.11062e-05 -0.000102697 
-4.2684e-06 -2.14365e-05 -0.000142506 
1.03209e-05 3.60483e-05 0.000434997 
7.87398e-05 -0.000451812 0.00943711 
-1.62063e-05 0.000455353 0.0109564 
-3.91296e-05 0.000261013 0.00920394 
-6.19139e-05 9.32199e-05 0.000397245 
-2.64234e-05 -0.00036533 0.00904789 
0.00129225 0.000102303 0.0172549 
0.000472875 2.59907e-05 0.0150425 
-1.46747e-05 -1.71803e-05 0.0161964 
0.000679307 8.6555e-05 0.0174218 
0.00144188 -0.00237803 0.0228639 
0.00166349 0.00288171 0.0201026 
0.0027311 -0.000933322 0.0121427 
0.000416444 -4.3286e-05 0.0105705 
-9.55626e-05 -0.000608207 -0.00203104 
-0.000458163 0.00233284 0.00287046 
0.00111263 0.0016939 0.00292221 
-0.000319513 0.000345783 0.000620643 
-0.000251318 0.000225562 0 
-0.000139234 0.000831147 0 
-0.00036428 -0.000356714 0 
-0.0014371 0.00212982 0.00122246 
0.000219804 1.88495e-05 0.0116985 
-0.000552528 -0.000117616 0.0140893 
-7.88704e-05 5.45314e-05 0.015768 
-0.000408871 6.98815e-05 0.015984 
0.000642861 0.00220317 0.00272351 
0.00110512 0.000559884 0.00451974 
0.000288962 0.000386604 0.00725939 
0.000272707 0.00213803 0.0116543 
0.000231592 0.0022697 -0.000650884 
-0.000801622 -0.00583481 0.0115696 
0.00135086 -0.00588453 0.0087239 
0.000222949 0.000109281 0.0113115 
2.24111e-05 -3.0245e-05 0.0130684 
-3.56392e-05 -5.71746e-05 0.0161974 
-7.63479e-06 6.54797e-05 0.0116738 
0.00027699 -0.000525467 0.01354 
6.27076e-05 0.00066843 0.0143401 
0.00164309 0.000484963 0.00797498 
0.00278726 -0.000438228 0.0106674 
0.000720049 -0.000201289 0.0109649 
-0.00167627 0.00369611 0.0138458 
-0.00410412 0.00533608 0.0133097 
-0.000860826 0.00382508 0.00105526 
0.000145813 0.00264341 0.00321009 
-0.00161531 0.0210718 0.0180985 
-0.00379185 0.00208049 -0.000322512 
0.0147626 0.0217696 0.0424802 
-0.0102026 0.000908005 0.00760725 
-0.00308036 0.000138303 -0.00282354 
0.00370011 -0.00297129 0.00553733 
-0.000635754 0.000357025 -0.00104968 
0.00647238 -0.000528098 0.00468002 
-0.0168931 -0.043613 0.0330254 
-0.00736967 -0.00255371 0.0422682 
0.00724674 -9.29072e-05 0.0219964 
-0.00461111 -0.00506666 0.000769822 
-0.000700612 -0.0017595 0.0135382 
0.000598929 -0.00995488 0.0154161 
-0.000299026 -0.00508655 0.0131378 
-8.83039e-05 -0.00325202 0.01927 
0.000835443 0.00125487 0.0149461 
0.00169549 -0.000344206 0.0193058 
-0.000649323 0.000986947 0.0124707 
0.00127381 -0.000117806 0.0166056 
1.16056e-05 5.80422e-05 0.0163755 
7.19943e-05 -6.34353e-05 0.0147022 
1.74275e-05 3.96032e-06 0.0175406 
1.53187e-06 0.000860526 0.0157063 
2.37414e-05 -6.50419e-06 0.0173742 
0.000551969 -0.000226678 0.0165937 
8.57326e-05 8.91806e-05 0.0167986 
0.000342988 -0.000111814 0.0184557 
0.000315214 -0.00172631 0.0170646 
-0.00165888 0.00055797 0.0107581 
-0.000839618 -0.00152845 0.01725 
2.76355e-05 -0.000869438 0.0154687 
-6.09194e-05 5.73194e-06 0.000188393 
2.08902e-05 5.98696e-05 0.00543551 
1.18631e-05 1.05877e-05 -8.57117e-06 
-2.56674e-05 0.000226029 0.00924148 
-7.86597e-05 5.78173e-05 -4.08208e-05 
9.06599e-05 -6.52801e-05 8.79701e-05 
-8.53296e-06 8.81374e-06 7.21832e-05 
0.000295196 -0.000159824 0.00941687 
1.28469e-05 2.25123e-05 0.0110487 
0.000303762 -4.49125e-05 0.0110444 
-8.75829e-05 2.33704e-05 0.00729445 
0.000137227 -7.17958e-05 0.00791626 
0.00016028 -0.000243117 0 
0.000241769 -0.000199949 0 
-0.000170708 0.000173003 0 
-0.00214936 0.00172588 0.000797711 
0.000501032 -0.000467824 0.0141888 
0.000185713 -0.000115619 0.00935374 
-0.000112433 3.76039e-06 0.0113584 
0.000326517 -0.000133686 0.00821576 
-0.00193544 0.00529782 0 
0.000991479 -0.004042 0 
0.000139356 0.00324224 0 
-0.0072891 0.0206992 0.00952042 
-0.00119857 0.000711345 -0.000445641 
-0.000309013 0.000438504 -0.000110084 
0.00352329 -0.000963441 0.00176322 
0.00362162 -0.00114055 0.000937485 
-0.00409354 -0.000845037 0.00986793 
-0.0160262 0.00168645 0.0207559 
-0.00598809 0.00103174 -0.00461293 
-0.00780359 -0.000709986 0.0116778 
-0.000126235 0.000134913 -4.23923e-05 
0.000140874 0.000554388 0.000631521 
5.11087e-05 -0.000981226 0.00920963 
0.000475788 -0.000866578 0.00695403 
0.00119371 0.00993619 0 
-0.0120238 -0.0276897 0 
0.00632405 0.00577142 0 
-0.0116347 -0.0317749 0.0444668 
0.00152594 -0.000682733 -0.00189038 
-0.00613917 0.00471902 0.00834143 
0.00102312 -0.000309651 -0.00236386 
-0.000621422 0.00288464 0.00369948 
-0.0013866 -0.00208048 0.00963213 
-0.00262868 -0.00608973 0.0183414 
-0.00780313 -0.00400083 -0.00317506 
0.00478427 -0.0124163 0.0334655 
-0.000933957 0.000529054 0.0152007 
-0.00209737 0.000634223 0.017516 
-0.0027387 -0.00038221 0.0166053 
-0.000128316 -0.000845985 0.0146024 
0.0037879 0.0011273 -0.00135009 
-0.0116109 -0.00735581 0.0113039 
0.00393661 0.000408512 -0.00433715 
-0.00742893 -0.00280224 0.00614705 
1.93951e-05 -6.62175e-05 0.00681148 
8.74561e-05 4.39297e-05 0.0108659 
2.74273e-05 7.35477e-05 0.010938 
0.000232435 0.000193491 0.00875765 
0.000751074 0.000825105 0.0142012 
0.000985822 -0.000250089 0.00758523 
-2.37392e-05 -0.00018219 0.0107507 
0.00148039 0.000468929 0.013747 
-9.57745e-05 0.000255579 -0.000803575 
-0.000102953 0.000228637 0.000968965 
2.61454e-05 -2.62523e-05 -0.00151083 
-0.00197248 -0.00477455 0.00876632 
0.00628617 -0.00185291 0.0303483 
0.00130784 0.00468803 0.0142841 
0.00221611 -0.000279798 0.0223047 
-0.00215402 0.00463952 0.0380247 
-0.000272244 -0.000149892 0 
-3.86837e-06 -4.84564e-05 0 
1.90438e-05 -0.000170537 0 
0.00123482 0.00109954 0.000727468 
0.00200177 -0.000795639 0.0143822 
-0.000398286 7.29376e-05 0.0136991 
-0.00103372 -0.00123427 0.0149904 
6.66213e-05 -0.001419 0.0157332 
4.85469e-05 0.000101471 0.000313512 
-0.000105726 -2.55979e-05 0.0122205 
-3.18256e-05 -4.2119e-05 0.000691079 
0.000328687 0.000240746 0.00917416 
-0.000322067 3.01644e-05 0.000608063 
0.00205668 -6.77823e-05 0.00983514 
6.15884e-05 -3.81859e-06 -0.000297881 
0.0014889 0.000244328 0.00829265 
-6.12461e-06 -6.25055e-06 -1.34452e-05 
2.74537e-05 2.81079e-05 6.76651e-05 
6.14383e-08 2.17074e-06 0.00017398 
0.000196449 8.43263e-05 0.00902705 
-0.000632509 0.00759262 0.0142243 
0.00163826 0.00583836 0.0109134 
0.00158956 0.00264561 0.0151668 
0.00339626 0.00243719 0.0128981 
0.00868239 0.00214092 0.0338767 
0.00232425 0.000737474 0.00951984 
-0.00967099 0.00505947 0.0176183 
-0.00119683 0.0106461 0.0330063 
-4.90986e-05 4.50483e-05 0.0114866 
-8.35674e-05 -1.974e-05 0.0130417 
0.000385767 -0.000488119 0.013914 
0.000307888 -0.000225202 0.00823805 
0.000466391 0.000477297 -0.000148451 
0.000221177 0.00041248 -4.44558e-05 
-0.00190917 -0.000293146 0.00600104 
-0.00272677 -0.00141615 0.0031672 
0.00135857 0.00146833 0.00293258 
-0.000248402 0.00566103 0.00344463 
-0.0021349 0.00582547 0.00904898 
-0.00205469 0.000442139 0.00191647 
-1.86356e-05 1.1126e-05 0.00042455 
4.06872e-05 -8.73895e-06 -0.000155651 
0.000135853 -0.000140844 0.0108782 
0.000580705 -2.88038e-05 0.00771893 
-1.83563e-05 2.99213e-07 0.0119222 
8.34512e-05 0.000680056 0.0163078 
0.000113234 0.000511275 0.0122108 
0.000195415 0.000247752 0.0091718 
6.99321e-06 0.000577387 -0.00177164 
0.000653263 -0.00106203 0.00197594 
0.00289845 -0.00170306 0.0024015 
0.00100371 -0.00207774 0.00114483 
0.000951306 -0.0025546 -0.00140496 
-0.00606817 -0.0021821 0.00666601 
0.00150354 0.00114314 -0.0020235 
-0.00349872 0.000942259 0.00474237 
-0.00737648 -0.000752754 0 
0.00443545 -0.00291262 0 
-0.00649687 -0.000314569 0 
0.0224873 -0.00813943 0.0140404 
0.00238489 -5.67158e-05 0.0122243 
0.00148713 0.00148002 0.0209393 
0.000490125 0.000370502 0.0128535 
0.000693365 -0.000582041 0.0104353 
-0.00445907 -0.0025837 -0.00305756 
0.00781628 0.000746645 0.0100546 
0.00231953 -0.000316834 -0.000567498 
0.00403733 0.00329033 0.00437278 
-0.00146244 -0.000351008 0.0102645 
-0.000528933 0.000114138 0.00778182 
0.000492016 -0.000336414 0.0137368 
0.000320157 0.000159735 0.0136245 
-0.000935924 -1.24937e-05 0.0167503 
-0.000522907 0.000167259 0.0155146 
-0.00179909 -4.7429e-05 0.0172621 
-0.000606195 0.000155195 0.0178449 
0.000345442 -9.1337e-05 0.0095089 
0.00117285 -0.00016157 0.00849006 
2.4231e-05 -1.05721e-06 1.80873e-05 
0.000233345 -0.000249847 0.0083423 
0.00221507 0.00108522 -0.0012662 
-0.000600824 -0.00326466 0.00279651 
-0.0026524 -0.00368547 0.00877153 
-0.00358824 -9.59882e-05 0.00135085 
-0.0031524 -0.000586049 -0.00614095 
0.0232714 0.00127382 0.0217648 
0.0010851 -0.00278854 7.44736e-05 
0.0183747 0.00151524 0.0155257 
0.00177025 0.00694062 0.0204726 
-0.00204928 0.0026663 0.0154385 
-0.000366723 -0.000336929 0.0228235 
-0.0046112 0.00192337 0.0248684 
-4.01929e-05 -0.00153069 0.0163648 
-1.7656e-05 -0.000674255 0.0167621 
8.84875e-05 -0.000881206 0.0176827 
0.000276694 -0.000669903 0.0172841 
0.014033 0.039709 0.0407528 
-0.0192146 0.0223647 -0.0289806 
-0.00927716 0.0163706 0.0316474 
0.00492811 -0.011856 0.0927867 
0.00323639 -0.000485316 0.0154644 
0.00223275 -0.00038886 0.0136927 
0.00112265 -0.000430248 0.0172913 
0.000335191 -0.00174319 0.0148658 
-3.40092e-06 -4.16535e-05 0.000105212 
7.35465e-06 9.00775e-05 7.33258e-05 
2.47503e-06 3.03134e-05 0.00020503 
-2.7749e-05 4.40206e-05 0.0122055 
0.000540687 -0.000258374 0 
0.000138569 -0.000216526 0 
-0.000572054 0.000215213 0 
-0.000704981 -0.000627959 0.000385661 
2.31837e-05 -1.58568e-05 -2.28897e-05 
0.0001797 0.00041739 0.00762209 
0.000134896 6.01e-05 0.0093167 
-7.06022e-05 0.000143499 0.00796683 
0.0015747 0.00397556 -0.00191182 
0.00113899 0.00247446 -0.00406367 
0.00780309 -0.0201647 0.0196225 
-0.000861204 -0.000519502 0.000462327 
1.57034e-05 0.000219827 0.000118401 
-7.51923e-05 0.000143296 0.000400644 
-6.31451e-05 0.000193475 0.00922949 
-0.000124212 -0.000239841 0.00910278 
-0.000596394 0.00074666 0.0172628 
-0.00258321 0.00129337 0.0132875 
-0.000750942 1.27241e-07 0.0124648 
0.000572161 0.00228263 0.0162099 
-7.6465e-05 0.000102751 0.000231921 
0.000315356 -0.000160787 0.00956354 
-4.86349e-05 -2.0059e-05 3.50123e-05 
0.000403482 -9.65877e-05 0.00822709 
-8.59801e-06 -7.23699e-05 0.0108899 
7.85749e-05 0.000389447 0.0140336 
0.000721195 0.000824903 0.0139227 
0.000367973 0.00113992 0.0168216 
-0.000690806 -0.000117456 0.0153472 
-0.000694043 0.000144521 0.0180061 
9.19072e-05 -3.75201e-05 0.0156246 
-0.000444066 0.000140833 0.015934 
-7.63978e-06 0.000155455 0.0147632 
0.000812363 0.00100334 0.01681 
8.24669e-06 0.000946949 0.0173723 
0.000810959 0.000204428 0.0172952 
7.55645e-06 -0.000118626 0.000209986 
4.44324e-06 -2.70441e-05 -0.000122241 
-1.55152e-05 0.000145644 0.000132228 
-2.11181e-06 -0.000231969 0.0124011 
-5.28164e-05 1.15743e-05 0.006513 
1.06878e-05 -0.000137262 0.0109759 
-9.70946e-06 0.000107308 0.000151012 
-5.24598e-05 -0.000105172 0.00740901 
-0.000450218 -0.00704771 0 
0.000431178 -0.00252727 0 
-0.0017429 0.00139402 0 
0.00356535 0.0103894 0.00364271 
-0.00127016 0.000372269 0.000501189 
-0.00644297 -9.43763e-05 0.00494232 
0.00262187 0.000125288 -0.00318397 
-0.00281076 0.000597384 0.00320978 
-0.000445528 0.000667131 0.0198082 
-0.0081556 0.00496243 0.0249606 
-0.00241918 0.00612506 0.0119563 
0.00154814 -0.000268285 0.00558063 
0.00043089 -0.000832388 0.00840516 
8.19378e-05 -0.00101564 0.00940679 
0.000187777 -3.47406e-05 0.0107418 
-0.000197291 -0.00108747 0.014254 
-0.00148853 0.0151619 -0.0275025 
0.00842147 0.00263279 0.0255481 
0.0247205 0.023558 0.0261572 
-0.00675709 0.00149109 0.0578111 
-7.09465e-05 0.00030182 0.00900405 
-6.98627e-06 -0.000332346 0.00921147 
-2.76678e-05 0.000478556 0.0108905 
-0.000343471 0.000160817 0.015415 
0.00155422 0.00175216 -0.00338325 
-0.00155822 -0.0121529 0.0113279 
0.00212909 0.00402948 -0.00342108 
0.00100411 -0.00553509 0.00801935 
0.00036575 -0.000687279 0.0143932 
0.000512266 -0.00138691 0.0156015 
0.00365729 -0.000393514 0.0164822 
2.86738e-05 0.000659568 0.0142204 
-0.00083979 -0.00326224 -0.00114497 
-0.000311442 0.00533808 0.00811395 
-0.00144656 0.000107085 0.0102617 
0.00141433 0.00653633 0.00633129 
5.46817e-05 -0.000123468 0.000225017 
0.000112942 -0.000139854 0.0124854 
-9.13395e-05 0.000257216 0.000155542 
-0.000454928 -0.000459206 0.0102502 
-0.0015158 -2.53979e-06 0 
0.000514829 0.000789524 0 
-0.00133807 -0.001376 0 
0.00249086 0.00188078 0.00256126 
-0.00236575 -0.0018601 -0.0031369 
-0.00173828 -0.000393848 -0.000436206 
0.00201121 0.00202776 0.00257505 
0.00507792 0.00133975 0.00503565 
-0.000903499 -0.000183614 0.000681545 
0.000669546 0.000621701 -0.000643133 
-0.0007774 0.000197291 -0.000942821 
0.00514596 0.000758257 0.00378941 
4.14486e-05 -0.000125101 8.97607e-05 
-5.22646e-05 -0.000122515 -9.74883e-06 
0.000179669 0.000638705 0.00750308 
-6.69088e-05 0.000143478 0.00797775 
-0.000687411 -0.00287534 0.000598813 
-0.000196512 -0.00345081 -0.00127167 
0.000222129 0.00530712 0.00176251 
0.00107979 0.0051871 0.00150381 
-4.8533e-05 0.000159235 7.87756e-05 
3.58223e-05 7.80804e-05 4.36967e-05 
2.67242e-05 0.00050627 0.0110772 
-7.19273e-05 0.000310331 0.00920654 
-0.00286805 -0.000183265 0.00650033 
1.09934e-05 -0.00107652 0.00125541 
-0.00242195 -0.00392255 0.0028011 
0.000276365 -0.00386279 0.00976588 
-2.89255e-05 -5.72163e-06 0.0117446 
-0.000236881 -8.05629e-05 0.0105752 
4.86432e-05 -1.43763e-05 0.0139187 
-0.000119932 -1.62078e-05 0.0163074 
-0.00114243 0.00545847 0.018967 
-7.35379e-05 0.00145637 0.0182343 
-0.00116653 0.00160167 0.0160471 
-0.000176642 0.00250217 0.0164762 
0.000519941 0.00158964 0 
0.00273732 -0.000300267 0 
0.000829498 0.000556351 0 
0.000963636 -0.00403987 0.00710353 
0.000435048 -0.000314888 -0.000305091 
0.000548407 -0.000334314 -0.000407118 
-0.001641 0.000243312 0.0103703 
-0.00319381 0.00164112 0.00564744 
0.000260512 0.000499574 -0.000370417 
-0.00138616 -0.000682016 0.0125346 
-0.000137595 -9.55365e-05 -0.000122773 
-0.000319315 -0.000613786 0.0104403 
-8.55133e-05 -7.02026e-06 0.00899444 
0.000159211 -0.000240896 0.0104859 
0.000126657 -0.00034022 0.0147195 
9.15511e-05 -0.000121024 0.00758196 
0.000537612 0.00142739 0.0095979 
0.00196808 0.00309128 0.00219992 
0.000547566 0.00316648 0.0136579 
-0.000390794 0.00170693 0.0122633 
-0.015495 0.00950198 0.0163794 
-0.00371925 0.00114615 0.0353931 
0.0177916 -0.00281394 0.0337711 
-0.012599 0.012112 0.0379928 
-0.00155947 0.000126397 0.0173282 
-0.000662302 0.00015152 0.0180024 
-0.000725049 -6.57216e-06 0.0153317 
-0.000303851 2.72062e-05 0.0159415 
1.65885e-05 8.01662e-06 0.0105315 
-0.000101933 0.000426521 0.0117854 
0.000169463 8.85679e-05 0.0122864 
-1.0252e-05 0.000566351 0.0161612 
6.452e-05 7.47747e-05 -4.01404e-05 
0.000197374 5.26189e-05 0.00936053 
4.80009e-05 -6.74537e-05 0.000321206 
0.000561658 0.000205026 0.0109275 
-0.00925515 0.0031154 0.00662084 
-0.00297267 0.000718624 0.00224564 
0.00193059 0.00138172 -0.00279633 
-0.00267661 -0.00266254 0.00137949 
0.00882584 0.00236032 0.0134578 
0.0055793 0.00199848 0.0124079 
0.00167742 -0.00189038 0.0150865 
0.00341833 0.00658358 -0.00424915 
0.000699687 -0.00132625 0.0142472 
0.0009965 0.000351418 0.00966061 
0.000875614 0.000624106 0.00997122 
0.000930417 -0.000363201 0.0153819 
-0.000668365 -0.00112335 -0.000966059 
0.000484584 0.000449381 -0.00056528 
-0.00438757 -1.43869e-05 0.00301069 
-0.00248143 -0.000337226 0.00063182 
-0.00183335 -0.00357786 -0.00509282 
0.000659231 -8.24224e-05 0.000940292 
-0.0250413 0.00947213 0.0197594 
-0.00109714 0.00448375 0.00753393 
-0.00136664 -0.00156908 0.0116034 
0.000240016 0.000517935 -0.00111514 
-0.00295916 0.00264642 0.00632907 
-0.00158393 0.0015666 0.00920828 
-0.000218654 -0.00100365 0.0171967 
3.38077e-05 -0.000103287 0.0109111 
5.12803e-05 -0.000686861 0.0149011 
-4.48542e-05 -0.000406187 0.0137511 
0.0561437 -0.000781113 0.0810779 
-0.00179804 -0.000752547 0.0329995 
-0.0236724 -0.000548164 0.0538943 
0.0259526 0.00978143 0.0266178 
0.00205557 -0.000128123 0.0114878 
-0.000870444 -0.000416925 0.0162469 
-0.000487982 -0.000577318 0.014681 
-0.000123945 0.00151606 0.0124958 
0.00170371 -0.00156673 0.00909419 
0.00452352 0.000105693 0.00559112 
0.00333805 -0.00140294 0.00675454 
0.00141384 -0.00156113 -0.00227889 
0.000177608 8.72495e-05 0.0123509 
-0.000134319 0.000416352 0.0117039 
1.86539e-05 1.54522e-05 0.0104597 
5.93035e-05 0.000230957 0.00897497 
0.00137949 0.00787617 0.011234 
0.00515664 -0.00722815 -0.00396933 
0.00397967 0.0230919 0.0376495 
0.00871353 3.22962e-05 0.0161527 
0.0227676 -0.0459536 0.0241834 
-0.013827 0.0164086 0.0929643 
0.0220962 -0.00459801 -0.0065741 
0.000290673 -0.0158819 0.0393461 
-8.58194e-05 -7.96635e-06 0.00926261 
0.000228185 -0.000206982 0.0144698 
9.21683e-05 -7.42223e-05 0.0129369 
2.41641e-06 -0.000237737 0.00767276 
-0.00159191 0.000554346 0.0109602 
-0.00174842 0.000551334 0.00868773 
-0.000305503 -0.00132363 0.0150922 
-0.00227407 -0.00143563 0.0173148 
0.00506458 0.00102338 0.0155856 
-0.00343207 -0.00444584 0.0136707 
0.00494722 -0.00512177 0.017997 
-0.00330271 -0.00630126 0.0148509 
-0.00364511 -0.00608707 0.0137154 
0.00587279 -0.00262574 0.0078865 
-0.003359 0.0116454 0.00864708 
-0.00498807 0.00159842 0.0186018 
-0.000174519 0.000287431 0.00928285 
-9.67774e-06 0.000231831 0.00799239 
-6.19024e-05 1.85619e-05 0.00987219 
-0.00010452 0.00011669 0.0138189 
0.00269859 -0.000203547 0.00698263 
0.00150192 -0.000842462 0.00774764 
-0.00110255 -0.00855833 0.0130898 
0.000426413 -0.00295107 0.0153848 
-0.00162921 -0.00627047 -0.00557045 
0.00570208 0.0115801 0.00661885 
-0.0035676 -0.00164316 0.00299227 
0.0015813 0.00770573 0.00638012 
3.76906e-05 0.000781652 -0.0047226 
0.00923845 -0.00136552 0.0137327 
0.000478145 -0.00100464 0.0092379 
0.00603252 -0.00229804 0.00654667 
-0.000490613 0.00174292 0.0153888 
-0.00327977 0.00134712 0.014807 
-0.00363048 -0.000918303 0.0170089 
-0.000966257 0.00166072 0.0161048 
0.00359296 -0.00146499 0.00945718 
-0.00168024 0.00676621 0.0108086 
0.00286173 0.0012425 0.00783115 
-0.0028413 -0.000716757 0.0182948 
0.004046 -9.42162e-05 0.00946559 
0.00193994 -0.00293728 0.0112141 
0.00703261 0.00426542 0.0245902 
0.00133991 -0.000444859 0.0136043 
-5.08151e-05 2.3027e-05 0.0181097 
0.00017077 0.000954771 0.0173215 
0.000555111 0.000657002 0.0178735 
0.000643552 0.000221666 0.0172396 
-0.00026635 -0.000316878 -0.000369655 
5.36456e-06 0.000798642 0.00688045 
0.00100309 0.00172515 0.00278913 
0.000946614 0.000753897 0.00464048 
-0.000687351 -1.84639e-05 0.017711 
-0.00288902 -0.000914381 0.0145397 
-0.00193464 -0.00118299 0.0158209 
-0.00107728 -0.000831783 0.0155501 
-0.00557349 0.00131388 0.0212715 
-0.000780505 0.000555832 0.0207393 
-0.0142362 -0.00295197 0.0160799 
-0.00689037 -0.00137215 0.0108869 
0.00292703 -0.000269893 0.0214994 
-0.00659186 -0.00229981 0.0345188 
-0.00919479 -0.0105919 0.0121938 
0.0092722 0.00485956 0.0455521 
4.72972e-05 7.25972e-05 2.71026e-05 
0.000100048 -3.04712e-05 0.000256507 
-2.02311e-05 0.00044412 0.010927 
-0.000134319 0.000357088 0.00934045 
-0.000682878 -0.0021191 0.00421541 
-0.003911 -0.00344345 -0.00266241 
0.00243891 -0.026206 0.0318144 
0.00558444 0.0013383 0.00746366 
0.000149189 0.000179695 0.0145727 
0.000565378 0.000214173 0.0175734 
-2.72939e-05 1.70519e-05 0.0137379 
0.000438263 -0.000225508 0.0136257 
-0.0146079 -0.00136494 0.0139513 
-0.00107965 -0.00171307 0.0232525 
-0.0070715 -0.000448686 0.0141613 
-0.00528435 0.000882585 0.00922459 
-9.0833e-06 3.30436e-05 0.000270433 
-0.000194578 -0.000152385 0.00997529 
8.08979e-06 -9.10985e-06 1.37987e-05 
-0.000152804 2.09631e-05 0.00974517 
-0.000244007 0.000723392 0.000114143 
-0.000148522 -0.00346195 -0.00321047 
-0.00123585 0.00633784 0.00686968 
-0.0025619 0.00335019 0.00560954 
0.0096231 -0.000804076 0.0292829 
0.00222783 -0.00193947 0.0104075 
0.00587044 0.00224448 0.00774381 
0.00466638 -0.00282534 0.00639321 
0.000589479 -0.00118518 0.00172401 
-0.00103543 -0.00181671 0.00233646 
-0.000130797 0.000802861 -0.00206022 
-0.00248733 -0.000370308 0.00120102 
-0.000404931 -3.08091e-05 0.0149583 
0.000202075 2.2762e-06 0.0115663 
0.0001245 -0.000265883 0.00888091 
-0.000866238 0.000482745 0.0154891 
-0.000277678 -0.00123181 0.0106015 
-0.0010962 -0.00159093 0.0128814 
0.000841691 -5.11202e-05 0.014508 
0.00140166 -0.002144 0.0166772 
-0.000569122 0.000400921 -0.00345486 
0.00151235 0.000489113 0.00113493 
0.00376085 -0.000317173 0.0013828 
0.0128127 -0.00128068 0.0113254 
0.00333189 -0.000483594 0.0126426 
-0.00385883 -0.00769093 0.00904664 
0.0058405 -0.00154363 0.0119148 
0.0109605 -0.00775137 0.0311224 
-0.000246077 -0.000145001 0 
0.000210751 4.46578e-07 0 
0.000494253 -0.000472364 0 
0.00311467 -0.000755087 0.0014871 
-0.0397299 0.0422718 0.158196 
-0.0367723 0.0101816 0.107575 
-0.00751954 0.00264174 -0.037106 
0.0340571 -0.0513627 0.0183882 
0.00175244 0.00217287 0.0154806 
0.00277807 0.000576767 0.0153331 
0.00047214 0.00109005 0.0172312 
-0.000326754 0.0027984 0.0168431 
3.37705e-05 -8.16772e-05 0.0070231 
-2.71145e-05 8.02376e-05 -2.90488e-06 
8.93946e-05 0.000142382 0.000250188 
-5.47177e-06 6.5252e-06 0.00957131 
-0.00683964 -0.000381698 0.0158087 
-0.00466581 0.000476551 0.0422706 
0.019221 0.00151908 0.033013 
-0.0132708 0.00054577 0.0384715 
0.00177845 -0.00021328 0.00137451 
0.000279307 0.00195575 -0.00235217 
-0.000617194 -0.00257884 0.00180179 
-0.00279275 -0.000691082 0.000948582 
-0.00115841 -0.00161835 0.0127059 
-0.00154854 -0.00187217 0.00530782 
0.00038495 -0.00162118 0.0102364 
0.000856894 0.000290987 0.0156508 
0.000528027 -0.000399464 -0.00105291 
8.84198e-05 -8.11058e-06 0.000258836 
0.00139894 0.000297067 0.00924647 
0.0010631 0.00107507 0.00959148 
-0.000992725 9.46494e-05 0.0107152 
-0.00238321 9.02865e-05 0.00762238 
-0.00589453 0.00110149 0.0169103 
-0.00416664 0.00202434 0.00501217 
0.00035231 0.000332864 3.61649e-05 
-0.000722319 0.00105788 0.00832816 
0.000828497 5.85906e-05 -0.00064372 
-0.000744401 0.00147426 0.00487361 
-0.000190018 -0.000907146 -0.00272698 
-0.00386511 0.00561336 0.00355946 
-0.000181709 0.00500233 0.000343432 
-0.005299 0.00702447 0.0138812 
0.00611608 -0.00520414 0.0021098 
0.00876104 0.00413707 0.0101957 
0.00244518 -0.00369016 0.00868715 
0.00779838 -0.000382076 0.0136906 
0.00143087 -0.00652054 0.00179905 
-0.00322518 -0.026516 0.0298301 
0.00180233 -0.00272361 0.00305029 
-0.00292829 -0.00195786 0.0102901 
-0.000199817 0.0032281 0.0258688 
-0.00468436 -0.00503564 0.015698 
0.00430404 -0.0115361 0.00677606 
0.00461039 -0.015431 0.0276043 
0.00735819 0.00736767 0 
-0.00567104 -0.00491235 0 
0.00844909 0.00294312 0 
0.0310843 0.0186438 0.0266758 
-0.00295844 0.00109167 0.00552642 
-0.00475723 0.00589495 0.00335462 
-0.0161378 0.00620435 0.0215269 
-0.003534 -0.00689265 0.00329277 
0.00287214 -0.00641227 0.00218877 
0.00849234 -0.017247 0.0192533 
0.00296215 0.0072134 -0.00639264 
0.00553888 -0.000666105 0.0100984 
-0.00693711 -0.000808753 0.0165133 
-0.00304761 0.00167286 0.00818957 
0.00143365 -0.00165747 0.0146733 
-0.00158697 -0.0016898 0.014057 
-0.000122519 -0.000170721 0.000183016 
-1.87102e-05 -2.79451e-05 0.000240658 
1.98227e-05 2.92531e-05 -0.000214838 
0.000125414 -0.00037736 0.0080564 
-0.002317 -0.00385126 0.00261599 
-0.000576446 -0.00471465 0.00980282 
0.000568492 -0.00044815 0.00161617 
0.000864924 -0.00313359 0.00167237 
-0.000189564 -0.00149687 0.016425 
-0.000229629 -4.84104e-05 0.0139989 
0.000363328 -0.000816765 0.0175047 
0.000631293 -0.00129571 0.016347 
0.0124581 0.00134159 -0.00121896 
-0.00159498 -0.021919 0.0445817 
0.0174373 0.0596673 0.0899789 
-0.00909191 -0.00471708 0.0413138 
-0.000368654 -0.000916867 -0.0022505 
-0.000567691 0.0046394 0.00302512 
-0.00233847 0.00148333 0.0022701 
-0.000947567 0.00518048 0.00417955 
-0.000155675 -0.00100749 -0.00152493 
-0.000184609 0.00130506 -0.000485991 
-0.000586389 0.00236063 0.00422633 
-0.000683665 0.00160629 0.00257234 
0.000812634 -0.00450667 0 
0.00647881 0.00768804 0 
0.00278182 0.00948092 0 
-0.00229591 -0.0362535 0.0107579 
0.00591756 0.0010345 0.015411 
0.00279183 -0.0040318 0.01949 
-0.00143832 -0.00606524 0.0117147 
0.00343704 -0.00769504 0.0247402 
-0.00563568 -0.00258982 0.0141573 
-0.0217136 -0.00539147 0.00455178 
-0.00926146 0.00649437 0.0529003 
-0.0125113 0.0024984 0.0314264 
0.0106075 -0.00804352 0.0469572 
0.00458887 -0.00158926 -0.0101179 
0.00256646 -0.00223366 0.00914636 
0.00374572 -0.0104658 0.0437144 
-0.000777953 0.00520568 0.0108953 
0.000555127 0.00861055 0.0169247 
-0.000937613 0.0037394 0.00343541 
-0.000659743 0.00910278 0.00726306 
6.11472e-05 -0.000118454 0.000136872 
-4.5718e-05 -2.82205e-05 0.00574585 
5.05217e-05 -2.09423e-05 4.85655e-05 
0.000166205 0.000120005 0.00970819 
-0.00636349 -0.000853506 -0.00586995 
0.0182467 -0.000185712 0.0130839 
-0.00361706 0.000175308 -0.00447855 
0.00632188 -0.00321372 0.00638245 
0.0124603 0.00242734 0.0154584 
0.00876812 -0.00381689 0.0268563 
0.00111815 -0.00124571 0.0250985 
-0.00322702 -0.00424444 0.0214501 
4.79669e-05 3.89831e-06 -7.85395e-05 
-2.45212e-05 -1.99286e-06 0.000149568 
-2.20699e-06 -1.79364e-07 0.000322507 
0.000247754 0.000126146 0.00941807 
0.000242045 0.000655574 -0.000912437 
0.00160996 -0.000622802 -0.000664788 
-0.00418292 -0.000726634 0.00338544 
-0.0020192 -0.000616436 0.00448796 
0.000570705 0.000292076 -0.000456386 
0.00046229 0.000461008 -0.000478454 
-0.00352379 -0.000886428 0.0114313 
-0.002109 -3.30317e-05 0.00759467 
-0.00912724 0.00216766 0.0133253 
0.000843263 0.00327653 0.0129456 
0.00683897 0.00475468 0.0372941 
-0.00256267 0.00234831 0.0357072 
-0.000935092 0.00123686 -0.00372474 
0.0031074 -0.00124381 0.000560103 
0.00380897 0.000467829 0.00100633 
0.0138433 -0.00189549 0.0151746 
0.00544062 0.00222117 0.0110576 
0.0170175 0.0104178 0.0522256 
0.00275224 0.0352236 0.034866 
-0.00812551 0.00890232 -0.00425422 
0.00453326 -0.000423207 -0.00128616 
-0.00734249 -0.000758061 0.0066326 
-0.00103776 -0.00098894 0.0115568 
-0.00830416 0.00137929 0.00727744 
0.00160378 0.00161297 -0.00260308 
0.00275806 -0.00367222 -0.00220992 
0.0078993 -0.0197389 0.014023 
-0.00194295 0.000773222 0.00402243 
-0.000205819 0.0014085 -0.00147101 
0.000540944 0.00109078 -0.000850661 
0.000842028 -0.00169073 0.00214696 
0.000210894 -0.0011388 0.00128007 
-5.1993e-05 1.70377e-05 0.012456 
7.01463e-05 8.44615e-05 0.0107718 
0.000370787 0.000125428 0.0093057 
0.000267925 0.000151329 0.0152178 
0.000665001 0.000600727 -0.000168971 
0.00191348 0.000590494 9.09651e-05 
-0.00319136 -0.000435729 0.000650635 
-0.00259004 -0.000972273 0.000784327 
-1.20992e-05 -7.82543e-06 -0.000611767 
3.74511e-05 3.352e-05 0.000416564 
-0.000315251 -0.000303433 -0.000127061 
-0.000646426 0.000459499 0.00707956 
0.0081573 -0.0135184 0.0313847 
0.000246696 0.00756704 -0.00850289 
-0.00352232 -0.00209514 -0.018308 
0.0173869 -0.0234318 0.054122 
-0.00411796 -0.0040672 0.0155912 
0.00175857 0.00244467 0.0242991 
0.0040241 -0.00765226 0.037141 
-4.83668e-05 -0.00157239 0.0145779 
-0.000648299 0.00102826 0.0157838 
-0.000426202 0.000609037 0.00901637 
-0.00183603 -0.000150097 0.0122118 
-0.00177563 0.000108173 0.0074388 
0.00490626 -0.00122152 -0.00102053 
-0.00833572 0.00451865 0.0118537 
-0.00389318 5.20973e-05 -0.00114415 
-0.00618348 0.00160218 0.00405884 
0.00203567 -0.00208212 0.00800872 
0.00105265 -0.00467731 0.0161268 
-0.000179024 -0.00317445 0.00944417 
0.000472056 -0.00201691 0.0160092 
-5.15974e-05 -2.42845e-05 0.0124548 
7.38185e-05 4.98775e-05 0.0150416 
-6.66122e-05 1.18386e-05 0.0110517 
0.000373641 0.000170178 0.0150012 
-0.000255848 5.60768e-05 -0.000740508 
-0.000157668 -0.000393765 0.000508613 
-0.00159568 0.000287548 0.00815757 
-0.000285333 4.30141e-05 0.00766844 
-0.000134522 -4.23702e-05 0.0149556 
-1.69774e-05 -4.25384e-05 0.0103884 
0.000222286 -2.16701e-05 0.00948742 
-0.000134415 0.000107163 0.0136053 
0.000643197 0.00045319 -0.00213665 
-0.00391036 -0.000984996 0.00682421 
0.000443694 -0.000134162 -0.000444897 
-0.00282835 -0.00110939 0.00340979 
0.00514439 0.00592214 0.0283382 
0.00358811 -0.00645725 0.0114328 
0.00117653 -0.00017119 0.0231533 
0.00148085 0.00422303 0.0202769 
1.19341e-05 1.60637e-06 0.0158428 
-6.43042e-05 -2.98159e-05 0.0180442 
8.01697e-06 -3.63322e-05 0.0156493 
-0.000558284 0.000108967 0.0147781 
3.73075e-05 -2.68938e-05 0.00679214 
4.22021e-05 0.000118029 0.000271064 
0.000109739 4.60172e-05 0.00652035 
0.000282602 9.2748e-05 0.00883512 
-0.000205019 8.29064e-05 0.0124708 
0.000206696 0.00301587 0.0105637 
0.00239315 -0.000127538 0.013704 
4.92603e-05 0.00206782 0.0162943 
-0.00587203 0.000132069 0 
-0.00275858 -0.00378562 0 
0.000442425 0.00305793 0 
0.00391102 0.0134209 0.00457696 
-1.14961e-05 -1.34759e-05 0.0124191 
0.000370451 0.000118553 0.00951938 
-9.67476e-05 -0.000117945 0.0111107 
0.000276497 0.00015029 0.0150478 
-0.000669482 0.000143306 -0.000273156 
0.00108558 0.000537321 0.0118929 
0.00102921 2.80237e-06 0.00810328 
0.00215841 0.000793156 0.00735098 
0.00012884 5.41751e-05 0.000312653 
0.000227761 7.51524e-06 0.00905782 
-4.42722e-05 -4.33822e-05 0.00634755 
0.000482645 0.000198258 0.0090544 
-0.00645568 -0.00330053 0.0210671 
-0.00838408 -0.000784932 0.0377009 
0.00968085 0.00608708 0.030794 
0.000737343 0.00409419 0.0159831 
-3.83351e-05 1.75085e-06 0.00979271 
1.02434e-05 1.61336e-06 0.00550025 
1.57198e-05 2.53778e-05 0.00721765 
-9.07478e-05 0.000201374 0.0088049 
3.33013e-05 0.00594483 0.0185141 
-0.00227065 0.00144673 0.0171847 
7.13211e-05 0.00788898 0.0195784 
-0.000569787 0.00156898 0.0148088 
0.0098951 -0.00695717 -0.00422488 
0.00479231 0.0194579 0.0200187 
0.0107148 0.00825142 0.00601088 
-0.0081108 4.00367e-05 -0.00233757 
-0.000476684 -0.0058468 -0.00693648 
-0.0035617 -0.00484155 -0.00435866 
0.00115074 0.002698 -0.0027447 
-0.00253268 0.0422257 0.0370758 
0.00927825 0.00878644 0.027979 
0.00438766 -0.000919324 0.0104651 
0.00563251 -0.0050315 0.00759156 
-0.00162821 0.00904661 0.019645 
5.17521e-05 -0.00018487 0.000194842 
-1.15141e-05 4.02625e-05 -5.89497e-05 
-4.7267e-05 0.000196998 0.000327784 
0.000171834 -0.00100162 0.0107784 
0.0135963 -0.0023404 -0.0172757 
0.00260982 -0.00917139 0.020045 
0.00460524 -0.0381804 0.0241571 
-0.0188071 0.000867322 0.106955 
-7.52948e-06 1.93786e-06 0.0105112 
-0.00015743 -5.65156e-05 0.00875249 
-0.00011257 0.000421313 0.0116004 
-0.000154437 0.000434614 0.0141506 
-0.00101163 -0.00160978 0.0185462 
-0.00198264 0.00262626 0.00861421 
0.000105205 0.00131868 0.0191167 
0.000871285 -0.00106941 0.0160498 
-0.0217345 0.0132421 0 
0.0147887 -0.0155183 0 
-0.0326924 0.0405274 0 
-0.00979958 0.0059544 0.107428 
0.0173465 0.0056222 0.00919798 
0.00760174 0.00984141 0.0291094 
-0.00367089 -0.000262002 -0.00605641 
0.00316849 0.00274694 0.00515643 
-0.00352857 -0.000426785 0.00764975 
-0.00287726 0.00170865 0.0134039 
0.000232109 -0.000397043 0.0120113 
-0.00419394 -0.000923365 0.0144311 
-0.001855 0.00136545 0.0129861 
-0.000877964 0.00396109 0.0153631 
0.00014171 0.00317834 0.0108996 
-0.00027222 0.00203971 0.0167335 
0.000629684 0.00182515 -0.00396708 
0.00144337 -0.00470245 -0.00026193 
-0.00296955 0.000429536 -0.00273337 
0.00909158 -0.0167765 0.0221001 
-9.59822e-05 -0.000186161 -0.000391751 
-5.74779e-05 -0.000446627 -0.000210064 
0.00154016 0.00118305 0.00229219 
0.00223943 0.000350481 0.000506962 
-0.000239134 -0.00300811 -0.00327114 
0.000167998 -0.00424519 0.00233135 
0.00384367 0.00542241 0.00474855 
-0.000477289 0.00341752 0.00195307 
-0.00518519 0.00245876 -0.00246202 
0.000320496 0.00233252 -0.00780877 
-0.00323111 -0.000946133 -0.0015825 
0.0332489 -0.00243237 0.0372824 
0.0100742 -0.0206922 0.0301308 
-0.00897465 -0.00575962 -0.00131833 
-0.00203936 -0.00243384 0.00871075 
-0.00021669 -0.00355355 0.00862363 
0.000825763 -3.24028e-05 0.0154506 
0.000910178 0.000318926 0.017589 
3.93243e-05 0.000155033 0.0145682 
0.000330594 -0.000145398 0.0136277 
-0.000244187 -0.000364939 0 
-0.000764568 -0.000583558 0 
0.000316302 0.000557281 0 
0.00223803 -0.00142525 0.000718379 
-3.03058e-05 3.07627e-05 0.0123454 
0.000100917 -0.000334139 0.0104358 
-0.000148115 1.3417e-05 0.0105021 
4.19627e-05 -0.00027805 0.0142503 
0.00215644 0.000353605 0.0114774 
-0.00169277 -0.00567074 0.0188816 
-0.00773548 -0.00308514 0.0203641 
-0.00165528 -0.00153105 0.012325 
-0.00329896 0.000833262 0.00958697 
-0.00267761 -0.000357983 0.00467764 
0.000390674 0.00308246 0.00852474 
-0.00155596 -0.00118436 0.0124891 
0.000589293 0.00069433 0.0176837 
0.000148154 0.00106986 0.0173702 
-8.68109e-05 -2.99605e-05 0.0183171 
5.45117e-05 0.000822282 0.0180527 
-0.0102044 0.0382389 0.0288264 
-0.0124166 0.0296743 0.0248584 
0.0135613 0.00213836 0.0844489 
0.00654796 -0.00593874 -0.0158768 
-0.00247438 0.000483219 0.0168853 
-0.00268485 -0.000343686 0.0182947 
7.98871e-05 -0.000371836 0.0155492 
-0.001809 -0.000112365 0.0174345 
-2.68109e-06 -3.84922e-05 0.000219569 
0.000207491 9.77001e-06 0.00935525 
-3.04628e-05 8.17859e-07 0.00634487 
3.16078e-05 0.00012349 0.00801722 
0.000620169 -0.000121879 0.0120441 
0.000313558 -0.000605654 0.00944334 
-0.00062819 -0.00022598 0.0150705 
-0.000362721 -0.000134786 0.0083432 
0.00162742 0.000113973 0.0168271 
0.00041991 -0.000153257 0.016623 
0.000974332 -0.000487569 0.0170621 
0.000425817 -3.34925e-06 0.0181518 
-1.4189e-05 -2.31643e-05 0.00565027 
0.000182494 -1.70328e-05 0.00958673 
5.1647e-05 -3.30551e-05 0.000210533 
0.000320524 -8.69376e-05 0.00821384 
-0.0008739 0.00936687 0.00217879 
0.000938832 0.00644452 0.0224315 
0.000529566 0.0143609 0.0236729 
0.000841388 0.00615436 0.00968092 
-0.000870765 0.000423224 0.0167174 
-0.00195414 0.000607467 0.0170387 
-0.00104117 -0.000379099 0.0171851 
-0.00123928 -0.000566911 0.0157369 
-0.0014291 0.00266787 -0.00216191 
0.000378465 0.000939291 -0.00211993 
-0.00440246 -0.00117404 0.00503933 
-0.00250366 -0.00154324 0.00622644 
-0.00128895 0.00150207 0.0145365 
0.00540041 0.00390912 0.00278675 
-0.00339213 0.00993302 0.0156426 
0.00558116 -0.000258119 0.0131982 
0.00330665 0.00012902 0.0240686 
-0.0054415 0.00215233 0.0168951 
-0.00307497 -3.31907e-05 0.00989073 
-0.00829891 -0.00143166 0.0268446 
0.00167087 0.00254651 -0.00254793 
-0.00662099 -0.0065091 0.00744947 
0.00122183 0.00348701 -0.00330764 
-0.00290584 -0.00303034 0.00408094 
8.66071e-05 0.000314531 -0.000249089 
-6.46795e-06 -2.38688e-05 9.85144e-06 
-2.1068e-05 -8.07354e-05 -3.68716e-05 
-0.000510551 0.00116478 0.0116887 
0.000122324 0.00176977 -0.000288159 
-0.00109769 -0.00660112 0.0121546 
0.000362487 0.000678411 -0.0034153 
0.00193919 -0.00500313 0.00799526 
0.000875456 0.000657961 0.0176114 
0.000887567 0.000990568 0.0166985 
0.00151017 -9.56375e-05 0.0170784 
0.000691368 0.00015699 0.017315 
0.000228599 -0.00046599 0.00125237 
1.78468e-05 -3.25461e-05 -0.000770475 
-0.00241259 0.000147875 0.00794284 
-0.0027036 0.00146277 0.00374131 
0.000364326 0.000836414 0.000520712 
0.00165466 0.00143407 0.00414093 
-0.000949638 -9.01383e-05 -0.00179391 
0.000304117 0.00215907 0.00117529 
-0.000395318 0.00632535 0.00969601 
0.000729804 0.00859956 0.0180334 
-0.000615537 0.00723787 0.00642207 
0.000578209 0.005906 0.010751 
0.0265999 -0.0170414 0 
-0.0484362 0.00768357 0 
-0.0510298 0.0192245 0 
0.00285703 -0.016106 0.16347 
4.75656e-05 -5.04699e-05 0.0100512 
1.7124e-05 3.50004e-05 0.0113806 
-7.55562e-05 0.000140049 0.0146382 
-0.000193584 0.000178126 0.00965427 
0.0020266 0.00101659 0.0156034 
0.000238886 0.000295536 0.0145139 
0.000636053 0.000940067 0.0167392 
0.000287596 0.00252445 0.0173082 
4.97889e-05 -6.96672e-05 0 
-0.000103556 0.000481481 0 
-0.000106538 -6.01009e-05 0 
-0.000646438 0.00157737 -7.82656e-05 
-2.5556e-05 0.00017225 4.93428e-05 
-0.000106846 0.000824139 0.0073576 
-0.000140818 -8.39548e-05 0.00048362 
0.000130551 0.00117105 0.00701198 
-0.000826232 0.000489962 0.000578479 
0.00295715 -0.00322663 0.00683881 
-0.000177251 0.000316233 -0.000460598 
0.000540118 -0.000796792 0.0103516 
2.6693e-05 3.34141e-05 0.00531645 
5.67112e-05 4.23545e-05 7.10829e-05 
-1.15851e-05 -1.33804e-05 3.3153e-05 
-0.000228443 -0.000144564 0.00734434 
0.000105708 -4.58221e-05 0.000501916 
-2.66579e-05 0.000757466 0.0114701 
0.000144588 0.000335014 0.00930165 
7.55682e-05 0.000573383 0.00735048 
-0.00421253 -0.0127335 0.0108321 
0.00467349 0.0118391 0.0277482 
-0.0501253 -0.0243184 0.092024 
0.013631 0.00340207 0.0442799 
-3.27277e-05 -6.56465e-05 0 
0.000235511 -0.000409687 0 
-0.00043112 -0.00102895 0 
-0.00486476 -0.000638096 -0.000576881 
-0.000145723 0.000353362 -9.72727e-05 
0.000208829 -0.000917841 0.000924161 
9.61633e-06 0.000235714 -0.000226359 
-0.00100976 -0.000273003 0.000578028 
-0.000665396 0.00245746 -0.00208261 
0.00102622 -0.00326254 0.000535257 
-0.000279341 0.000682495 8.17491e-05 
-0.00327549 -0.00296581 0.00800133 
4.70761e-06 -1.30281e-05 0.0108718 
0.000248775 0.000229973 0.00874515 
0.000108476 0.000141662 0.0109683 
0.000105911 0.000242298 0.0142489 
-0.00123718 0.00491452 0.00882641 
-0.00209398 0.00155352 0.0140905 
-0.000503769 0.00317059 0.010517 
-0.0031503 0.00166278 0.00930968 
0.00380129 -0.00143764 -0.00420139 
-0.00828883 -0.00450269 0.0119609 
0.00141689 -0.000500558 -0.000452827 
-0.00741279 -0.00198896 0.00607514 
-0.000590328 -0.00215171 -0.00102973 
-0.000750272 -0.000969711 -0.000115539 
-0.000556629 0.00574093 0.00210096 
-0.00101891 0.00649413 0.00315206 
5.30713e-05 1.27862e-05 0.00697942 
-0.000119613 0.000294389 0.00918348 
-2.88803e-05 2.11405e-05 0.000161612 
1.67867e-05 0.000108724 0.00800951 
0.000517745 -0.000144043 -3.16411e-05 
3.98861e-05 -8.58595e-05 0 
-9.40087e-05 0.000252538 0 
0.000320164 -1.84938e-05 0 
2.14395e-05 7.3646e-05 0.0137904 
0.000231955 -0.000222927 0.00939357 
-1.68157e-05 -5.24878e-05 0.0100499 
3.83356e-05 0.000173781 0.0145573 
-0.00379675 -0.00164475 -0.00737889 
-0.0210785 0.00720906 0.0250466 
-0.00385981 -0.00185858 0.00722956 
-0.000795856 0.0013818 0.00673219 
-0.00120299 -0.00070941 -0.00158316 
-0.00138352 -0.000544377 -0.00209997 
0.000610009 0.00168888 0.000822458 
0.00160665 0.0098394 0.00890484 
-0.000282491 0.000146533 -4.20213e-05 
0.00029221 -0.000773856 0.00882906 
0.000381357 -0.00145932 0.00854907 
0.000565671 -0.00128029 0.00539024 
0.00313361 0.00243671 0.00695085 
0.000561286 0.00213447 0.000520608 
-0.000856 5.59292e-05 -0.00152875 
-0.000535477 0.00545351 0.00755377 
0.00140774 0.00376652 -0.0026364 
-0.00635149 -0.00757316 0.00573263 
0.00177886 0.00254487 0.00203317 
-0.00360582 -0.00339042 0.00282109 
-4.4865e-05 -0.000830645 0.000599321 
0.000137381 -0.00018234 -0.000324653 
0.00094375 0.0013298 0.0108631 
0.0017686 0.00113325 0.00719621 
0.000100237 -0.00140928 0 
2.66964e-05 0.00406539 0 
-0.0013239 0.00416979 0 
0.0149498 -0.0261284 0.00714326 
-0.0058165 0.000160563 0.0146898 
-0.001923 0.000647496 0.00869111 
-0.000786427 0.000313416 0.0111223 
-0.00189407 -0.00152061 0.0174165 
0.0003107 -0.000360003 -0.000200135 
-0.000203524 -0.000142557 -0.000323195 
0.000918485 0.00115918 0.00171916 
-8.50817e-05 0.000500404 0.00054363 
-0.00153393 -0.0169739 0 
0.00695549 0.0141091 0 
-0.00630825 -0.0132674 0 
-0.00404576 -0.033948 0.0423702 
-2.04041e-05 -2.16565e-05 0.000388257 
-9.73627e-05 -0.000268437 0.00954177 
-0.00082407 -0.000141699 0.00987285 
-0.000345408 2.3675e-05 0.00795278 
0.000145876 -0.000249306 0.00945829 
8.66015e-05 0.000263719 0.0145894 
-0.000118053 -5.30567e-05 0.00988129 
-0.000219699 0.000107956 0.00971422 
0.0052216 0.0180021 0.0550622 
0.011252 0.0134217 -0.0220691 
-0.0012572 -0.0108066 -0.0188976 
0.0109394 0.00852386 0.093638 
3.59305e-05 -6.90441e-06 0.012784 
-9.22169e-05 -1.18857e-05 0.00919621 
-9.95414e-05 0.000196986 0.00900869 
-0.000279069 0.000160442 0.0154154 
-2.4349e-05 -7.23048e-05 0.000235608 
1.77491e-05 3.15377e-05 0.00528873 
-7.10519e-05 -3.06196e-06 8.19691e-05 
-1.54424e-06 0.000229585 0.0080089 
-0.00216945 5.19218e-05 0.0102332 
5.02566e-05 0.000304627 0.0102891 
-0.00196337 -0.000397556 0.0177483 
0.00106002 -0.000416821 0.0161097 
-0.00182808 0.00596788 0.0093713 
3.2507e-05 0.00600656 0.00383755 
0.00113658 0.00104458 0.00255355 
0.0001436 0.00387509 0.0116187 
-0.00905117 -0.000736283 0.0179827 
-0.00281179 -8.43215e-05 0.00517531 
-0.00345779 0.000687521 0.00823989 
-0.000847703 -0.0017372 0.013538 
-0.00176844 0.000187186 0.0171896 
-0.00392961 -0.000875536 0.0170611 
-0.00301007 0.00120603 0.0149197 
-0.000811187 0.00165832 0.0160469 
0.000919336 3.9815e-05 0.0151974 
0.00155886 0.00249177 0.0157928 
0.00300653 -1.13849e-06 0.0170346 
0.000591839 1.35955e-05 0.0136763 
0.00107494 0.00101637 0 
0.000345267 -0.000263693 0 
0.00116192 -6.09696e-05 0 
-0.00662075 -0.000389132 0.000243358 
-0.00110828 -0.000289633 0.0104344 
-0.000781392 0.000736264 0.0100197 
0.000320774 -0.000184115 0.0159731 
-0.000356038 -0.000216257 0.00730338 
-0.00188693 0.0290095 0.0311301 
0.00392011 0.00623727 0.0102573 
-0.0144317 -0.048839 0.13027 
-0.0140081 0.00475189 0.0355051 
0.000170589 -0.000787394 0.0307921 
0.00838588 0.00106983 0.0135784 
0.00902493 0.000282282 0.0203498 
0.0152993 0.00117063 0.0205374 
0.000338515 0.000566354 -0.000149117 
-0.0019362 -0.00150389 0.0125662 
-0.000185726 -8.63198e-05 -0.000677786 
-0.000382258 -0.000738312 0.0104445 
-0.00131229 0.00370921 0.00877312 
0.00103445 -0.00134255 0.0163073 
-0.00200147 -0.000134561 0.00898008 
-0.00174498 -0.00113789 0.012497 
-0.00684345 -0.0042522 0.0139417 
-0.00353758 0.000633107 0.0183469 
-0.0152685 0.000587693 0.0128818 
-0.00772385 -0.0057991 0.0460486 
-0.000326887 5.21267e-05 0 
-0.000740851 -0.000525805 0 
0.00091986 -0.000507103 0 
-0.0010419 0.00110578 0.000510193 
-0.00191968 0.0133742 0.00364385 
-0.0129882 -0.00173023 0.0461118 
0.0395816 0.0288999 0.119014 
-0.0216478 0.00257887 -0.0162064 
0.00503002 0.0114516 -0.00294559 
-0.0180384 -0.00623092 0.0437778 
-0.0156086 0.00214938 0.0120627 
-0.000727346 -0.000435548 -0.00540151 
-0.00169789 -0.00251486 -0.00336289 
0.00410499 0.00509785 0.00519446 
-1.67603e-05 -0.0015959 -0.00222132 
0.00153274 0.00240476 0.0026852 
-0.00118351 -0.000287876 0.0170352 
-0.000846074 0.000325812 0.0167782 
-0.000960784 -0.000626429 0.0159794 
-0.000316036 -0.000116195 0.018289 
2.61805e-05 9.64208e-05 0.0166475 
2.59711e-05 0.000902236 0.0173418 
5.72532e-05 0.000962444 0.0162196 
-5.28235e-05 0.000946016 0.0181403 
0.000641432 0.000460919 0.0176342 
0.00186517 0.000142774 0.0170219 
0.00101756 -0.000296311 0.0168081 
0.000315218 -2.42055e-05 0.0180728 
0.00154557 0.000469467 -0.00143255 
0.000216725 -0.000462201 0.00102255 
6.64239e-05 -0.000191349 -0.000901435 
-0.00222225 -0.00157892 0.00184541 
0.00861481 -0.000462995 0.000902551 
0.0125049 -0.000443521 0.0159237 
0.0105418 -0.000801735 0.0219361 
0.00664028 -0.000701743 0.0139144 
-0.000165753 5.33827e-05 0.0167905 
1.49914e-05 0.000800518 0.0175787 
0.000123691 -3.95468e-05 0.0157007 
0.000317656 0.000396585 0.0146846 
-4.72782e-05 2.44437e-06 0.00979623 
-0.000204745 0.000192491 0.0150672 
-0.000126712 0.000259812 0.00923556 
-0.000230522 0.000170076 0.013788 
-0.00035012 -0.000119937 -0.000326156 
-0.00145356 0.000246196 0.0112348 
-1.38306e-06 8.79767e-05 0.000280342 
-0.000601636 0.000356569 0.00930501 
0.000286688 0.000550362 -9.14758e-05 
0.000301641 -0.000200443 -5.10901e-05 
-0.000500206 0.000976354 0.0125357 
-0.00169952 -9.82018e-05 0.0111513 
0.00241849 -0.00195571 0.00663925 
-0.000503234 -0.00591997 0.0129985 
0.00157068 -0.00375223 0.00378713 
0.000672239 -0.00300865 0.0144996 
4.3985e-05 1.3478e-05 0.00940464 
0.000108985 -0.000308763 0.0104247 
-3.58018e-05 2.5451e-05 0.0121887 
3.97637e-05 -0.000291439 0.0143421 
-7.95653e-05 0.000168775 -0.00289064 
-9.48042e-05 0.000377765 9.23138e-05 
1.66448e-05 -7.07417e-05 -0.000104641 
-0.00280275 -0.00545939 0.0112024 
0.00221344 -0.00201835 0.00802482 
-0.000280935 -0.00319394 0.00953623 
-0.000354651 0.000122989 0.0125049 
0.00039813 -0.00198397 0.0163553 
-6.1142e-05 1.29479e-05 -0.000206183 
0.000122499 -3.5253e-05 0.000318648 
-0.00101605 -8.14442e-08 0.0100062 
-0.000508719 -0.000155088 0.00796953 
5.67399e-05 0.000132785 0.0147667 
-3.01482e-05 -0.000283311 0.00971616 
-8.53988e-05 -2.79013e-05 0.0115821 
6.94732e-05 -0.000116964 0.0167154 
-0.000712745 -4.31228e-05 -0.000501707 
-0.000449944 -0.000415268 -8.35753e-05 
0.0026301 0.000716987 0.00802907 
0.00199933 0.000878378 0.00474743 
-2.00051e-05 -1.58341e-05 0.0182128 
-0.000101236 -6.99189e-05 0.0188338 
0.000507358 0.000665037 0.0178403 
5.2595e-05 0.000795614 0.0181187 
-0.00362391 -0.00101189 0.00662532 
-0.00153804 -0.00249016 0.00236994 
0.000970882 -0.000959977 0.00167217 
-0.00372187 -0.000313714 0.00144149 
0.000439545 -0.00456725 0.0180247 
-0.000498143 -0.000210997 0.0122348 
-0.00215944 -0.000833696 0.0194696 
4.04726e-05 -0.000128165 0.0191035 
0.00037378 0.000329574 -0.000430835 
0.00136849 -0.000410939 -0.000186599 
-0.00202504 -8.96477e-05 0.0104226 
-0.00485216 0.0011662 0.00640755 
0.000121175 3.75105e-05 0.0113147 
-0.000104009 -0.000105458 0.0106629 
-0.000499387 -0.000135724 0.0143533 
-0.000463939 1.97782e-05 0.0161996 
4.89651e-05 3.39125e-05 -4.69436e-05 
-4.48557e-05 -4.67578e-05 0.00635822 
0.000163321 0.00014274 0.000303216 
0.000212279 -4.89136e-05 0.0091554 
-0.00315236 0.000546902 0.00635165 
-0.000222582 -0.00272474 0.00960456 
-0.00223999 -0.00595125 0.00398119 
-0.00131904 -0.00555565 0.0124586 
-0.0051766 -0.0153778 0.00349863 
-0.00859605 -0.0139839 0.0319925 
0.00666883 0.00045754 -0.00544691 
-0.0019206 -0.00462332 0.0014329 
8.21801e-05 5.4054e-06 0.00835072 
-0.000403102 0.000305801 0.00929163 
-0.000425453 0.000329746 0.0121304 
-0.000180267 0.000605352 0.0141046 
-0.000185242 -0.000197952 -0.000240538 
-0.0015497 0.000448273 0.00754571 
0.000577184 9.99952e-05 0.000111337 
-0.000215562 2.18851e-05 0.0075017 
0.00150499 0.00118157 0.0145121 
0.000374992 0.000610184 0.0176031 
-0.000572928 6.97354e-05 0.0120889 
0.000272083 0.000247419 0.0114985 
9.12286e-05 -0.00010747 0.000718369 
-0.000304766 0.00073944 0.0125678 
0.000167957 -0.000482428 0.00982264 
0.000643657 -0.000140358 0.0108432 
-0.000495062 -0.000577603 0.0143496 
-0.00198959 0.00100689 0.0176651 
-0.00232346 -0.000599277 0.0188512 
-0.000340045 -0.000501835 0.0191746 
6.89495e-05 0.0010075 0.00893729 
0.000209494 0.000228278 0.00904178 
0.000108134 9.23658e-05 0.000333829 
-0.000178233 0.00018858 0.00779677 
-0.000203473 0.0010339 0.0155904 
-0.00472031 -0.000852582 0.0171673 
-0.00304639 0.00188163 0.0145801 
-0.00396355 0.00133337 0.0130761 
-2.02268e-05 -0.000223599 -2.36581e-05 
-8.65452e-06 -0.000116607 -0.000130049 
1.8072e-05 0.000207412 6.48696e-05 
-0.00027654 0.000946563 0.0125356 
-0.000107225 -0.00030643 0.000112921 
0.000315468 0.000789351 0.000330618 
0.000341507 -0.00027961 -0.000749808 
-0.000349957 0.00140003 0.000591436 
0.00130198 0.000599048 0.0149959 
0.000606915 -0.00102528 0.0160903 
0.000564955 -0.000244229 0.0164509 
0.000780325 4.79044e-05 0.0137923 
-7.16633e-05 5.58843e-05 0.000110668 
6.2122e-05 -1.93885e-05 -0.000152633 
0.00097987 -0.000239982 0.00875374 
0.000405589 -0.000126696 0.00829445 
-0.00231972 -0.00673826 0.0173383 
-0.00113686 -0.000745805 0.00852791 
-0.00821918 -0.000744732 0.00916196 
-0.00744014 -0.00480884 0.0358609 
1.87933e-05 -3.56665e-05 0.0118474 
5.6061e-05 9.66915e-07 0.0139362 
-3.20779e-05 3.79708e-05 0.0148197 
-0.000182585 1.13137e-05 0.0161716 
0.022255 -0.00713112 0.0137377 
-0.00579696 -0.00970328 -0.0116449 
0.024163 -0.00496652 0.0503417 
4.26836e-05 -0.00362972 0.00181449 
0.00022326 0.000128801 0.000200625 
-0.000204755 5.13627e-05 -0.00015718 
-0.000622625 0.000210006 0.00910484 
-0.00140693 -7.07522e-05 0.00783863 
0.00017594 -8.3208e-05 -7.64773e-05 
-0.00013526 7.47832e-05 -0.000816783 
-0.000473543 0.000221522 0.000402865 
-0.00152047 0.000292298 0.00703523 
-0.000632638 0.00138954 0.0181843 
-0.00308334 0.00202925 0.0140155 
0.000338989 0.00319541 0.0130152 
-0.00397934 0.00171725 0.0106747 
-0.00081515 0.00142402 0.0155912 
-0.0023254 -0.000314603 0.0160969 
-0.00228878 -0.000296698 0.0172001 
-0.00168815 0.00139707 0.0166194 
-0.002296 -0.0047458 0.0136773 
0.00343831 -0.000283046 0.0122406 
0.00374335 -0.00549566 0.00838429 
-0.00375712 0.00628274 0.0165548 
0.000500143 0.00144118 -0.00233994 
-0.00168402 -0.00245304 0.00232927 
0.000347606 -0.00143181 0.00185998 
0.000372295 -0.0024902 0.00139343 
0.00045661 5.09472e-05 0 
0.00201361 0.000931265 0 
0.000418944 0.000656165 0 
0.000260808 0.000780832 -0.00202527 
-0.00404673 -0.00322076 -0.00131408 
-0.00933155 -0.0201531 0.0214647 
0.00634754 0.00461984 0.00620669 
-0.00498935 0.00694993 0.00593213 
0.0033953 0.00081071 -0.000130494 
0.0194794 -0.00114114 0.0263435 
-0.000536819 0.0015356 -0.00916096 
0.0175282 0.00329524 0.0172508 
-7.25149e-05 2.11571e-05 0.0146987 
0.000559671 -0.000140408 0.0166234 
0.000789935 0.000203612 0.0148054 
0.000540922 6.08142e-05 0.0151208 
8.2095e-05 0.00206091 0.014725 
-0.00478885 -0.00111326 0.014782 
-0.00403672 -0.00286603 0.0196605 
-0.00523107 0.00232273 0.0112542 
0.000137573 0.000140289 0.0107184 
0.000539978 -0.00114609 0.00840321 
-0.000233748 -0.000668416 0.0140055 
0.000963779 4.21173e-05 0.0132829 
-0.000306853 8.21102e-06 8.5064e-05 
-0.000277533 -9.203e-05 -1.22281e-05 
0.000613194 0.00118933 0.0112266 
0.000625106 0.00131763 0.00804884 
-2.90148e-05 3.41796e-05 0.0136435 
0.000220055 -0.000182183 0.00950377 
0.000160719 0.000161631 0.0146014 
0.000408969 -0.000168868 0.0134857 
0.00153948 -0.00153248 0.0120229 
0.000553348 -0.000208646 -0.000240344 
0.00083602 -0.000622453 0.0104341 
0.000582393 0.000228877 0.0109628 
0.031888 0.000402844 0.185113 
-0.0446873 0.0198561 0.17784 
-0.0312894 0.0338355 -0.0177378 
0.04292 -0.0577869 0.00941025 
0.000922633 -0.00489725 0.0146409 
0.00513027 -0.0111593 0.0175187 
0.00327522 -0.00581127 0.00215697 
0.00567834 -0.000687428 0.0101287 
0.000243398 0.000849017 0.00714143 
0.0012103 0.000853854 0.00464064 
0.0014838 0.000477587 0.0108848 
0.000200969 0.00136915 0.011635 
0.000126493 0.000144706 -0.000504726 
-0.000161853 -0.000205416 0.000211111 
5.43145e-05 6.15141e-05 -0.000230042 
5.59295e-05 -0.00111088 0.00428001 
0.00243268 -8.18738e-05 0.0133992 
-0.000140539 0.00326134 0.0108402 
0.00177906 0.00245853 0.0146113 
7.03769e-05 0.00203159 0.0163566 
-1.46719e-05 -4.60681e-05 7.50686e-05 
-3.53768e-05 1.2073e-05 0.00578559 
-9.20212e-06 3.10577e-05 0.00627785 
0.000207187 4.22386e-07 0.00952767 
-0.00113886 -0.000499119 0.0171585 
-0.00159496 0.000226749 0.0168442 
-0.000993695 0.000701104 0.0168365 
-0.000567754 0.000205898 0.0177662 
0.000273471 -0.00881454 0.00990307 
-0.000612325 -0.00532736 0.0113875 
-0.00252411 -0.00407311 0.00318316 
0.000979171 -0.00227907 -0.000535503 
0.0429412 0.0765171 0 
-0.0123984 -0.0297474 0 
0.0247974 0.0326152 0 
-0.0274663 -0.0613438 0.166053 
1.64296e-05 2.31171e-05 0.00018707 
0.000245742 -0.000896085 0.0102959 
0.00019965 -0.000312856 0.00946309 
3.9906e-05 -5.43055e-05 0.00798357 
-0.000874668 -0.000409605 2.99151e-05 
0.00023345 0.000161456 -0.00011855 
-0.000497347 0.000377889 -0.000342921 
0.00126316 0.000832168 0.000581545 
-0.000722027 -0.000320563 -0.000511021 
0.0023412 0.0011322 0.002639 
0.000432047 -0.000685566 0.000326429 
0.00141495 0.000749569 0.00447028 
0.000214777 0.00013196 0.0110019 
0.000718666 8.58328e-05 0.00808443 
0.000837295 0.000479509 0.0137709 
0.000178782 0.000132248 0.00861774 
0.0035009 0.0647453 0.0664192 
0.0258091 0.0503939 0.140745 
-0.0248915 -0.0488366 0.0486918 
0.00212951 -0.000159359 -0.0452453 
-5.16188e-05 2.71821e-07 3.33042e-05 
9.53219e-06 -0.000519757 0.00878008 
2.53472e-05 5.87194e-05 0.000121598 
-8.5325e-05 -0.000372833 0.0107878 
5.24333e-05 -3.84948e-06 -6.93887e-06 
-1.05903e-05 -7.38557e-07 0.000156364 
0.000134153 -1.05036e-05 4.91454e-05 
-0.000318152 -1.61439e-05 0.0127492 
-9.66312e-05 0.00500518 -0.00247367 
-0.00436115 0.00790196 0.0100796 
-0.000213232 -0.0012193 -0.000620485 
-0.00220091 0.00342916 0.00601557 
-2.11471e-05 6.09091e-06 0.0108786 
-9.91129e-05 -5.96824e-05 0.00888765 
-0.000357005 -0.000119992 0.0147752 
-0.000104918 -0.000211416 0.0105634 
0.000692941 0.00181638 -0.000290917 
0.00404708 -0.00104823 -0.00483652 
-0.000217142 -0.00149235 -0.00621129 
-0.0235736 -0.00212093 0.0290372 
0.00191611 -0.000625488 0 
-0.000415702 -0.000463403 0 
-0.00178147 -0.00168544 0 
-0.00166233 -0.00104469 -0.000265035 
0.000580316 -0.00023481 0.0160255 
-0.000150398 -0.000303392 0.00979422 
0.000197918 -0.00109054 0.0103712 
0.00023161 -0.000138554 0.00935463 
7.00898e-05 1.28613e-05 0.0125289 
-0.000123938 -9.94884e-06 0.00714467 
7.46357e-06 -4.46386e-05 0.0112238 
0.000222128 0.000105331 0.00929613 
0.00256401 -0.000458861 0.0125179 
0.000372044 0.000706963 0.0133057 
0.00149023 0.00142958 0.020551 
0.00204336 0.000922183 0.0135291 
-0.000429287 0.00188331 0.0227429 
-0.00292254 0.00350493 0.0164189 
-0.000118609 0.000533831 0.0110594 
-0.00232845 -0.00245295 0.0112737 
0.000437692 0.000712876 0.014567 
5.98837e-05 0.0010266 0.016066 
-7.09854e-05 0.000208433 0.0121026 
0.00020772 0.00120255 0.0172899 
0.000187829 2.38584e-05 -0.000215685 
-0.000128687 0.000865976 0.00885242 
9.05419e-05 2.10482e-05 0.00028288 
-0.000114662 0.000288387 0.00786419 
-0.000152896 -6.98789e-05 2.07599e-05 
8.92007e-05 3.91832e-05 0.000344383 
0.000114442 5.36989e-05 -0.000329401 
0.00106083 0.000196525 0.00856549 
-0.00617634 0.00108007 0.0201282 
-0.014516 -0.000686567 0.0154397 
-0.00179208 -0.000121567 0.0188341 
-0.00804289 -0.00252041 0.0381882 
-0.000409627 -0.000132547 0.0153759 
0.000583491 0.00161904 0.00909635 
-0.00129998 0.000349189 0.00795354 
0.000347297 0.00037959 0.0140081 
0.00274263 -0.00445386 0.00895373 
0.00357151 -0.00171213 0.00898464 
0.00473958 -0.000984648 0.00241506 
0.00313518 -0.00343089 0.014423 
-0.000561492 -0.00566046 -0.0133205 
-0.000791727 -0.0057859 0.0252078 
0.000804888 -0.0273061 0.00805965 
-0.00495655 -0.0264925 0.0455216 
-0.00102025 0.00382358 0.0236137 
-0.00151805 0.000554626 0.0398978 
-0.00629688 -0.00467934 0.0207561 
-0.000466364 -0.00553411 0.0275003 
2.05958e-05 -9.71073e-05 0.0103953 
0.000299885 -0.000116658 0.015813 
-0.000353991 0.000451004 0.00947155 
-0.000481175 -0.000164978 0.00757649 
0.000147213 -0.000283784 0 
0.00106659 0.000886639 0 
0.0003016 0.000695415 0 
-0.00202737 0.000885892 -0.00115268 
-0.000410907 -0.00116796 -0.00362085 
0.00159518 0.00159308 0.00355038 
0.00265621 0.00307844 0.00287028 
0.00406466 0.000223331 0.00229388 
-0.00112618 0.00911587 0.0159281 
-0.00439152 -0.00405562 0.0150577 
0.00013321 -0.00044675 0.0138259 
0.00433446 0.00174045 0.014001 
0.000760828 -0.000302823 0.0139386 
0.0034442 -0.000702535 0.0167372 
0.00185241 0.00245045 0.0160888 
0.000275705 0.00058548 0.0139664 
-3.67561e-05 -0.000284332 0.0124865 
0.00247372 0.000533062 0.0135386 
0.00260337 -0.00182719 0.00892984 
-0.000134923 -0.00210183 0.0153107 
-0.00492974 -0.00763141 0.0160966 
0.000258205 -0.00165151 0.0110726 
-0.0019447 -0.00326993 0.001761 
0.000774963 -0.000703134 0.00420883 
0.00640081 0.00330598 0.0169019 
-0.00197364 0.0018313 0.056192 
-0.000548248 0.00795249 0.0147355 
0.00191356 0.00268636 0.0135772 
-0.0202216 -0.0507351 0.0457754 
-0.00565805 0.000570657 0.0464197 
-2.54363e-05 0.010724 0.0453808 
-0.00891132 -0.0127234 -0.00256083 
4.96865e-05 -0.000556013 0.00885738 
-0.000114129 6.49818e-05 0.00910599 
0.000113589 -9.76136e-06 0.000255352 
-0.00022002 -0.000295737 0.0106722 
0.000868068 4.76266e-05 0.0126322 
-0.00107418 -0.00174953 0.017866 
-0.00629887 -0.00267894 0.0190283 
-0.00160167 -0.00484557 0.0182041 
0.00285643 -4.64485e-06 0.0117449 
-0.00201297 -0.00286109 0.0145203 
-0.00151065 -0.000494624 0.0159251 
-0.00297399 0.00147837 0.0159022 
-0.00337546 0.0018165 0.0132393 
-0.000171816 0.00401814 0.0152792 
-0.00105246 0.000831387 0.0168495 
0.000643561 0.00453352 0.0147942 
-0.00651239 0.00643432 0.0135419 
0.00147249 0.00266058 -0.00189639 
-0.00392453 -7.49237e-05 0.000315244 
-0.0107145 0.0116755 0.0248086 
-7.20486e-05 -4.69818e-05 0.0106248 
1.95206e-05 -1.70877e-05 0.0124494 
-3.55859e-05 8.1243e-05 0.00690714 
5.24541e-05 -0.000266669 0.0102749 
-0.00449286 0.000831435 0 
-0.00510685 0.00335827 0 
0.00318358 -0.0127693 0 
0.000763413 -0.0219172 0.0199386 
-5.39501e-05 3.18317e-06 0.0182068 
5.68376e-05 -1.96116e-05 0.0168062 
0.000647122 0.000246735 0.0172503 
0.000409437 2.23174e-05 0.0184119 
0.000731741 0.000887835 0.0139241 
0.000215169 0.000399953 0.0142342 
-0.000124673 0.000822048 0.0162678 
0.000190734 0.00123002 0.0165377 
-0.00261487 -0.00205391 0 
-0.00224482 -0.00250135 0 
0.00317704 0.00183518 0 
0.0118355 0.00406048 0.00414551 
8.04677e-05 1.04267e-05 0.0129893 
-9.97305e-05 -0.000101146 0.0111522 
-0.000276028 7.80634e-05 0.00902604 
-0.000203662 7.26184e-05 0.0152717 
0.000149026 5.25423e-05 8.53408e-05 
-0.000507633 0.00028436 -0.000386953 
-0.000840748 0.000152753 -0.000780957 
0.00247524 -0.00228805 0.00162604 
-0.02918 -0.00326666 0.0115391 
-0.00628497 -0.0118308 0.019914 
-0.0087145 0.01391 -0.0211904 
-0.00945129 -0.0176619 0.0762915 
0.00146123 0.00125219 0.0153942 
-0.000152917 0.000355121 0.0126808 
0.000109553 -0.000380455 0.0116121 
0.000739167 0.00023506 0.0163036 
0.00209777 0.00457734 0.0125198 
-0.00538413 0.0058394 0.0138999 
0.00154174 0.000474311 0.0214821 
-0.00186021 0.0106568 0.0213 
-8.30034e-05 0.000134415 0 
0.000239275 0.000104909 0 
0.000425552 2.08877e-05 0 
-0.00121852 -0.000145718 0.000508462 
1.65939e-05 -8.88548e-05 0.00468355 
-0.000169276 -3.12877e-05 0.000275262 
-3.75531e-05 2.12027e-05 0.00586541 
0.000154336 -0.000141581 0.0106854 
0.000191049 0.000262731 7.03527e-05 
-4.96935e-06 -5.9883e-06 9.5908e-05 
3.56315e-05 4.30897e-05 -0.000670111 
-0.000100385 0.00106489 0.0083519 
-0.000273701 0.000731449 0.0122481 
8.68261e-05 0.000585497 0.0075692 
0.000294343 -2.99143e-05 0.00915702 
0.000212279 -0.000191492 0.0145307 
-0.000553884 0.00342052 0.00302845 
-0.0022004 0.00182754 0.00224569 
0.000990113 0.00146128 0.00301021 
-0.000171183 -0.000147319 0.000459646 
-4.14532e-05 2.47022e-05 0.000108174 
0.000228394 -0.000144372 0.000110228 
-0.000164974 -0.000271514 0.00988318 
6.33757e-05 -9.94135e-05 0.00942946 
-3.46522e-05 1.779e-05 3.13839e-05 
5.88922e-06 -7.14491e-06 -9.31491e-05 
0.000109223 -4.19128e-05 0.000202795 
0.000970773 -0.000228423 0.00877616 
0.00222892 0.00583364 0.0135568 
-0.00287647 0.00408272 0.000714283 
-0.00548568 0.00503181 0.0132492 
-0.00341744 0.00843578 0.0206871 
0.00424107 -0.000303092 -0.00209317 
0.00370336 0.00361896 -0.00422519 
-0.0309237 -0.00438743 0.0204924 
0.00113097 0.000739347 -0.00437831 
-0.000108615 0.00107402 0.0173924 
0.000814628 0.000958806 0.0166915 
0.000763798 0.000800621 0.0177848 
0.000887833 8.53657e-05 0.0171825 
-0.00629451 0.0021989 0.0147613 
0.00348629 0.000394356 0.024933 
0.00334815 0.00881604 0.0175139 
-0.00618918 -0.00216237 0.0311934 
-0.000689261 0.00136166 0 
0.00134028 0.000160941 0 
0.00115351 0.00413035 0 
-0.00807574 -0.00823597 0.00219127 
-0.000292532 0.00308678 0 
-8.77952e-05 0.00206012 0 
0.00022351 0.000821828 0 
-0.000935195 0.000168858 -0.00444066 
-0.000121177 7.91788e-05 -0.000799751 
-0.000327276 0.00129858 0.00596801 
-0.00040676 0.00174535 0.0121697 
-3.05417e-05 0.000907016 0.00732094 
0.00254313 0.0013385 0.0269431 
0.00889296 3.54765e-05 0.0206694 
0.00942018 -0.000751987 0.0141556 
0.00653661 -0.0014227 0.0125639 
0.00182938 -0.00336538 0.0152245 
0.000821587 -0.000613846 0.00838967 
-0.00147066 -0.000804851 0.0142292 
0.000201693 -0.00149557 0.018565 
0.0346539 -0.00615795 0.0258225 
0.00828258 0.00433388 0.0153912 
-0.00365528 -0.0201937 -0.0155604 
0.014063 0.0149462 0.089762 
-0.000454209 -0.000569002 0 
0.000118747 -0.000111805 0 
-0.000474358 0.00126833 -0.000418969 
-0.000173535 -0.000664905 0 
-0.00308978 -0.000269469 0 
-0.000275949 -0.00086267 0 
-0.00218286 0.000755843 0 
0.00443988 0.00230983 -0.00235768 
-9.91589e-05 3.51877e-05 -0.000167005 
8.07839e-06 1.49638e-05 -0.000648216 
5.13817e-05 -2.43761e-05 0.00031454 
0.00176061 5.24576e-05 0.00893933 
-0.000265434 -0.000120863 8.39235e-05 
0.000175999 -4.02945e-05 0.000149745 
-0.000328823 0.000280372 0.0129919 
0.000128757 1.67679e-05 0.00976899 
0.000291072 -0.000309149 0.000352267 
5.13726e-05 1.29433e-05 3.02976e-05 
-0.00139499 0.000548786 0.0114216 
-0.000711236 0.000275067 0.0095388 
0.000374931 0.00519587 0.0153237 
-0.000499012 0.00558857 0.0160254 
-0.00254651 0.000419604 0.0121083 
-0.00361684 0.000915844 0.00930826 
7.44514e-06 7.62031e-05 0.000172905 
-0.000116053 0.000229198 0.00917553 
-0.000131349 0.000157779 0.000331217 
-6.44471e-05 0.000126852 0.00800239 
-0.000519997 0.0009557 0.0185186 
0.000710101 0.00421165 0.0139218 
-0.00409523 -0.00028388 0.0114295 
-0.00433561 0.00218869 0.00968906 
3.58753e-05 -2.0185e-05 0.00552421 
0.000115991 0.000200729 0.0090715 
2.36908e-05 2.79401e-05 0.000308217 
0.000133856 0.000380448 0.0094036 
-0.000916767 0.00752798 0.0192072 
-0.00255621 0.00213206 0.0152564 
0.00213985 0.00646294 0.0198855 
-0.0049119 0.00313013 0.0260252 
2.46278e-05 -3.03466e-06 0.0167366 
-1.9703e-05 -2.31599e-05 0.0181892 
0.000132968 0.000990513 0.0173441 
-6.97639e-05 0.000834772 0.0182281 
1.98643e-05 -0.000122681 4.6675e-05 
0.000187476 -0.000488259 0.00906719 
-9.02082e-05 0.000100436 9.62449e-05 
-1.36082e-05 8.41489e-05 0.00922919 
3.32081e-06 -9.36162e-06 0.0104362 
-9.87458e-05 0.000397133 0.0120088 
5.34322e-05 0.000719351 0.0162033 
-0.000261062 0.000560942 0.0141003 
0.000616808 -0.000120508 0.0162814 
0.000235316 -0.000696443 0.0176053 
3.50787e-05 -0.000253885 0.0139301 
0.000541994 -0.0012312 0.0163547 
4.47753e-05 -7.2093e-05 0.000271722 
0.000446453 3.87731e-05 0.00915981 
0.000137856 -8.90985e-05 0.0110905 
0.000133805 -4.34849e-05 0.00734612 
-0.00401211 -0.000976162 0.014026 
-8.89465e-05 -0.0027311 0.00956379 
-0.0039133 -0.000365247 0.00633998 
-0.000635643 -0.00444802 0.0125432 
-0.000119637 -0.00180733 0.016877 
0.000565462 -0.00113094 0.0160645 
0.000294544 -0.000836243 0.0174246 
0.000384126 -0.00163786 0.0161107 
6.12024e-05 2.92976e-05 0.00939929 
-4.8863e-05 4.04675e-05 0.0123052 
6.08024e-05 -4.95962e-05 0.0129191 
4.77293e-05 -0.000296851 0.0142867 
-0.000861875 0.000484362 0.0171426 
-0.00113261 -0.000254966 0.0169894 
-0.000558534 0.000230956 0.0177586 
-0.000296105 -0.000286164 0.0178917 
-0.000801758 1.38539e-05 -0.000220923 
0.00116754 0.000942959 0.0114394 
-2.00041e-05 -4.83512e-05 -0.000499794 
0.0015985 0.00143319 0.00674829 
3.46367e-05 -1.45548e-06 0.0122767 
1.74662e-05 -4.19953e-06 0.00994218 
-0.000126893 0.000138829 0.00799888 
-6.36453e-05 0.000171092 0.0137976 
0.00378898 -0.00173328 0 
-0.00159657 -0.000508253 0 
-3.03784e-05 -0.00276101 0 
0.00762266 0.00614375 0.00485587 
0.00324739 -0.0033486 0.00188674 
-0.00376395 0.00248503 -0.00793899 
0.0186031 -0.0101992 0.0214796 
0.00432674 -0.000398347 0.0116527 
-0.000204432 5.76053e-05 0.000162623 
0.000192138 0.000538183 0.0077243 
2.69479e-05 -2.4412e-05 -8.01652e-05 
-0.000104407 0.000168162 0.0078686 
-0.00142581 -0.00120723 0.0173882 
-0.00159639 -0.00386124 0.0121928 
-0.00297692 -0.000660108 0.0139963 
-0.0062633 -0.000761595 0.0105713 
0.00153509 -0.000948822 0 
0.00181238 -0.00351444 0 
0.00505179 0.00230705 0 
-0.00161645 0.0141731 0.00935047 
-5.49379e-05 6.20917e-06 0.00985537 
-0.000148371 0.000307746 0.00907328 
7.49469e-05 -5.76972e-05 0.0069565 
9.04823e-06 0.000151863 0.00804984 
6.99949e-05 -6.41629e-05 0.0172411 
-8.66747e-05 3.70977e-05 0.014683 
3.76947e-05 8.27773e-05 0.0153184 
0.000128017 -0.000510318 0.0178183 
-0.0262832 -0.0164823 0.017864 
-0.00836695 -0.00603656 0.0296846 
-0.00144061 -0.000343433 0.00339894 
-0.0110503 0.00865159 0.0078949 
-0.000402272 -0.000530497 0.0135611 
-0.000156461 -0.000209384 0.0106723 
0.000347918 -0.000121953 0.0110275 
-0.000753873 0.000477215 0.0164972 
0.000298023 0.000923568 0 
-0.000888277 -0.000251961 0 
-0.000230789 0.000390661 0 
-0.00336793 -0.000788074 0.00144125 
-0.00451411 0.000121002 0.0198302 
-0.00338862 -0.000509104 0.0191344 
-0.00173669 0.000138904 0.0156908 
-0.00143779 0.000356041 0.017223 
0.00350678 -0.00522711 0.0102283 
0.00426773 -0.000342251 0.0019473 
0.00318927 -0.00146221 0.00808219 
0.00149053 -0.0050784 0.00727721 
-0.00376053 -0.00465357 0.0119367 
-0.00596935 -0.00064588 0.0019821 
-0.00951505 -0.00537533 0.0293902 
-0.0089857 0.00304245 0.00803638 
-0.000115175 -7.65911e-05 -0.000100474 
0.00110744 2.74437e-05 0.00903116 
0.000109851 -8.2941e-05 0.000190205 
0.000331561 -0.000227143 0.00828806 
-0.00306912 0.00243264 0.0171162 
-0.00768729 0.0127555 0.00496931 
-0.00624498 -0.00308742 0.0303883 
0.00383405 0.00196817 0.0433694 
-0.00151134 0.000992552 0 
0.00217689 -0.000345808 0 
-0.00471841 -0.000601933 0 
-0.000334907 -0.00238822 -0.00201984 
-0.000703152 -0.000318481 0.0151522 
-0.000712492 -0.000141497 0.0141602 
-0.00151138 4.61959e-05 0.017754 
-0.000461405 0.000127125 0.0154775 
0.000704494 3.80839e-05 0.0161132 
0.000959455 0.00073112 0.0165274 
0.00168873 0.000151497 0.0172198 
0.00314289 0.00024497 0.0172131 
7.16942e-06 1.51108e-05 0.000209685 
0.000337712 -0.000873249 0.0102662 
-4.10031e-05 -6.28837e-05 -7.4488e-05 
0.000117671 -0.00032147 0.00944925 
-0.00102991 0.00126874 0.0214593 
-0.00279923 -0.00158154 0.0127278 
-0.00221058 0.00173259 0.0166814 
-6.61764e-05 0.00208286 0.0171157 
-0.00116234 -0.000665111 0.0146438 
-0.000771118 -0.00421374 0.0152726 
0.00149474 -0.0038926 0.0173188 
0.000198837 -0.00175895 0.0161676 
0.000131983 0.000482494 -5.13085e-05 
3.61616e-05 9.7263e-05 0.000249685 
0.000158255 -0.00140755 0.00830306 
7.94481e-05 -0.00133578 0.00526118 
-0.00156443 0.00277717 0.00593581 
0.00246093 0.0171998 0.0326882 
0.00238858 0.00741306 0.0177144 
0.00018527 0.0108811 0.0112866 
0.00238783 -0.000880048 -0.00339875 
-0.00894691 0.00588154 0.0100682 
0.00353777 -0.00152517 -0.00347359 
-0.00527082 0.0021069 0.00555566 
-0.00385186 -0.00169595 0.0112618 
-0.0112444 -0.00164132 0.0308111 
-0.00343251 0.004528 0.0137384 
-0.00681287 0.00474317 0.00351394 
0.000424027 -8.21138e-05 0 
-0.000247383 0.000237622 0 
-0.000344371 0.000211066 0 
-0.000738695 0.000550334 0.000376813 
-4.57433e-05 0.000169715 7.90891e-05 
2.00802e-05 -7.58652e-05 5.60563e-05 
-1.9121e-05 7.1e-05 2.92098e-05 
0.000112596 0.000734796 0.0111009 
-5.33355e-05 2.60355e-05 0.000331369 
-0.000154875 -0.000189258 0.00955831 
4.69492e-05 1.87997e-05 0.0051351 
-0.000210265 -0.00016176 0.00721479 
-5.03831e-06 0.000133981 -0.000306823 
0.00269783 -0.000553071 0.0100427 
0.000188537 0.000139608 -0.00162409 
0.00123716 0.000118794 0.00816544 
-2.52642e-06 3.09689e-05 0.000207823 
1.4426e-05 -0.000176834 -2.50538e-05 
3.47154e-06 -4.25542e-05 6.4854e-05 
-0.000100518 5.35581e-05 0.0121982 
0.000192383 -0.000135423 0.0108128 
-0.000178965 -0.00086519 0.0140996 
-9.13621e-05 -0.00107428 0.00943298 
-0.000110958 0.000109323 0.0105304 
0.00110937 0.000231122 0.00915829 
0.00105531 0.000298508 0.00953208 
0.000128353 -8.94627e-05 6.31786e-05 
0.000294572 -0.00037686 0.00843019 
0.0017612 0.0314796 0 
0.00127339 -0.0579921 0 
-0.00434718 -0.0597251 0 
-0.00475175 0.036421 0.161351 
0.00115874 -6.17684e-05 0.0159441 
-0.000572105 -0.00119744 0.0106365 
0.00084079 -0.000197787 0.0146516 
0.00106047 -0.00124735 0.0158802 
0.000594533 0.000208919 0 
0.000103192 -4.24732e-05 0 
-0.000194144 -0.000447728 0 
-0.000154892 0.0019069 -0.000272611 
-0.0026946 0.00509062 -0.00131448 
0.00131498 0.00919311 0.016367 
0.00977706 0.0186028 0.0419217 
-0.00312132 0.00809319 0.00710527 
3.57675e-06 2.63534e-05 0.018716 
2.54709e-05 -0.000530214 0.0174492 
0.000244313 -0.00068507 0.0174176 
0.000355796 -4.15728e-05 0.0181376 
-0.00167716 0.00786784 -0.00683444 
-0.00146214 -0.0389044 0.0427704 
0.00151477 0.00419582 -0.00263969 
-0.00182022 0.00315049 -0.00870685 
0.000242012 -0.00461494 0.0201036 
0.00106898 -0.00599774 0.0123697 
0.000354912 -0.00937046 0.0169289 
-0.000821168 -0.00295528 0.0190573 
-0.00461194 0.00214593 -0.00169845 
0.00208144 0.00216616 -0.00747887 
0.0299969 -0.00159363 0.0353249 
0.0169503 0.000621888 0.0224671 
0.00607763 0.000378204 0.0123495 
0.00136794 -0.00144946 0.00828976 
0.000473298 0.00081974 0.0133456 
0.00195046 0.00262707 0.00651656 
-5.39944e-06 -1.55461e-05 0.00589205 
5.60863e-05 -1.47732e-05 0.000123727 
5.3476e-05 -4.23827e-05 0.00590995 
-2.10424e-05 -0.000210429 0.00944943 
0.0252553 0.00702681 0 
-0.00741474 0.00611568 0 
-0.00925177 -0.00146413 0 
0.00962897 0.0116534 0.0297399 
0.00010403 9.67778e-05 0.0184827 
-0.00010243 -0.000655125 0.0177949 
-3.625e-06 -2.1376e-07 0.0179726 
0.000188169 -0.000592375 0.0173658 
0.000367754 -0.00147247 0.0103146 
-0.000156274 -0.00129777 0.00612176 
-0.000316099 -8.24041e-05 0.00945489 
-0.00068935 -0.000184167 0.014839 
-0.000622543 -9.95676e-05 0.000116712 
0.000591179 0.00175014 0.00791734 
0.00065838 0.000841209 0.0113325 
0.00183392 0.00149314 0.00677182 
0.0033758 -0.000189074 0.0160676 
0.00180711 0.000385207 0.0178876 
0.000883416 -0.000796483 0.016461 
0.00248892 -0.000215095 0.0142673 
-0.000684935 -0.00431108 0.0036404 
0.00257709 -0.00194809 0.00762942 
0.00242388 -0.000644115 0.00737426 
0.000757492 -0.00141005 -0.000833915 
-0.000521705 0.000356517 0.00601787 
-0.0112687 0.000198868 0.0216278 
-0.00362276 0.0041626 0.003232 
-0.00544928 -0.000542522 0.0050024 
0.00329362 -0.0138187 0.0373298 
0.00231195 -0.00550953 0.0521513 
0.00231674 -0.000689683 0.0118145 
-0.00156423 -0.00776 0.0267715 
0.0039634 -0.00695273 0.0197185 
-0.000829682 0.00362256 0.0403693 
-0.00132553 0.00156517 0.0216567 
-0.000910817 -0.00767028 0.0268935 
0.00110384 -0.0151673 0.00625533 
0.001114 -0.014868 0.0252528 
-0.000664084 -0.00849005 0.0553486 
-0.00154796 -0.00850303 0.0292985 
-0.00313506 -0.000805462 0.0068328 
-0.00138949 -0.004695 0.0116332 
-0.00227504 -0.00525779 0.00350585 
-0.00577312 -0.000508967 0.00949845 
-1.34846e-05 -8.44318e-06 0.00955852 
1.68375e-05 -2.30887e-05 0.00678659 
2.80716e-05 -1.00539e-05 0.00462125 
-2.67448e-05 -0.000179437 0.0104714 
-1.76078e-05 1.72704e-05 0.0156888 
-0.000733041 -7.1498e-05 0.0173265 
-0.000579376 0.000192633 0.0149803 
-0.000231376 0.000171501 0.0137729 
0.00271648 -0.00292989 0.0547449 
0.00840482 0.0148336 0.0387749 
-0.00645394 0.0400055 0.0391082 
0.00572907 0.0171057 -0.00233732 
-0.000196211 0.000924421 0.0123257 
-0.000499035 0.000160197 0.0149194 
-3.6103e-05 0.000553687 0.0119762 
-0.000942005 0.000520569 0.0177322 
5.36945e-05 3.05628e-05 0.000248875 
6.39156e-05 -6.09132e-05 0.0108099 
-8.69867e-05 5.36042e-06 0.00671838 
0.000138023 -6.89369e-05 0.00743167 
-2.49258e-05 0.00142294 0.0162704 
-0.00243898 -0.000884753 0.00650907 
-0.00243801 0.000523255 0.0125003 
-0.00205252 0.00111189 0.0162003 
-0.000429904 -0.000198501 0.000120815 
0.000600006 0.00209683 0.00609484 
-0.000292081 -0.000475151 -0.000324026 
0.00118394 0.00271261 0.00258571 
-6.52659e-05 -6.18892e-05 -0.000534515 
0.000112619 0.000140438 0.000200378 
-3.72978e-05 -4.34933e-05 -0.000131115 
-1.07179e-05 0.00125661 0.00448054 
-0.00010293 0.000371518 -4.22674e-05 
0.000663621 -0.00154219 0.00855875 
-0.000330948 0.00027739 3.28496e-06 
5.49316e-05 -0.000853732 0.0087607 
0.00165389 -0.00113951 0.0148592 
-0.000365568 -0.0014228 0.0144192 
0.00107128 -0.0034961 0.0177802 
6.56782e-05 -0.00162532 0.015818 
-0.000775957 -0.000335221 0.0151859 
0.000613069 -0.00135462 0.00931789 
0.000579662 0.000565586 0.0119955 
0.000299932 -0.000402593 0.0171155 
-0.00397654 0.000492201 0.000878007 
0.000252654 -0.00183793 -0.000337413 
-0.00239981 0.00543311 0.00870344 
-0.0191807 -0.00033277 0.0211498 
0.0360632 0.0572938 0.202882 
0.034063 0.0217151 0.00710447 
0.0111368 -0.00201802 0.216062 
-0.0906999 -0.0387159 -0.0300066 
0.00383161 -0.000102259 0.009176 
0.00578185 0.00450631 0.0252024 
0.000551885 0.00526947 0.0186524 
0.00244213 -0.000639506 0.0132059 
0.00267206 0.000105418 0.0117297 
-0.000652392 -0.00271889 0.0118513 
0.00331709 -0.00334942 0.00863303 
0.00241809 0.00582706 0.018448 
0.000322282 -0.00435881 0.0158726 
0.0007739 -0.00258333 0.0152219 
-0.000292046 -0.000507355 0.0177615 
-0.000599768 -0.00340647 0.0175974 
1.53936e-05 0.000133224 0.000147597 
-0.000131516 0.000309822 0.000301197 
6.042e-05 -0.00049044 0.0118473 
0.000143339 -0.000307701 0.00798127 
-0.000782218 0.00075998 0.000651951 
0.000564815 5.17175e-05 3.0558e-05 
-0.000771859 -0.000186311 -0.000209752 
0.000980583 -0.00219682 -0.00154684 
-0.000211798 -0.00152094 0 
-0.00123524 0.00145768 0 
0.00183248 0.0020018 0 
0.00173494 -0.00153768 -2.14147e-05 
0.00101957 0.000406503 0.0162139 
0.000335635 -0.00187449 0.0105285 
-0.000476242 -0.000363489 0.00961301 
3.69194e-05 0.000187074 0.014598 
0.000198469 0.000393687 -0.00107579 
-0.000157849 -0.000107729 9.77104e-05 
-0.000790517 -0.00074999 0.00172129 
-0.00112566 -0.000753634 0.00175582 
-0.00329224 -0.000443757 0.006919 
-0.00394301 -0.000864626 0.0142911 
0.000167291 -0.000354211 0.0125279 
-0.000415217 -0.00269966 0.00924325 
-5.05952e-05 -4.20326e-05 0.00600145 
6.4532e-05 1.0927e-05 0.005166 
0.000111731 -2.56604e-05 0.000247451 
-5.19576e-05 -0.000162328 0.00943905 
0.0210302 0.00958141 0.0262093 
0.012679 0.0116382 0.0586996 
-0.0140011 0.020409 -0.013131 
0.0115518 -0.00339611 0.0132496 
-0.000106815 0.000105954 0.000133543 
0.000576501 0.000404771 0.0090352 
-0.000210878 -0.000328541 0.000334158 
0.000586018 0.000101801 0.00907414 
-0.000262032 -0.00133424 0.0170343 
0.000246419 -0.00402356 0.0159239 
0.000297936 -0.000639636 0.0162229 
0.000892931 -0.00239256 0.0158712 
0.000118812 0.000124122 0 
5.68755e-05 -0.000427395 0 
0.000234853 -0.000256163 0 
-0.00105417 -0.000242689 -8.97476e-05 
0.000885292 -6.2473e-05 0 
0.000560548 0.00433426 0 
-0.00183086 0.000680539 0 
0.00324372 -0.00046942 -0.00179922 
0.000438874 -0.000413348 8.67919e-05 
0.000771046 -8.71689e-05 -0.000379517 
-0.00225447 0.000714132 0.00662947 
-0.00149297 0.000748425 0.00245372 
0.00194769 -0.00387523 0.0137602 
0.00536445 -0.00478308 0.00875359 
0.00164359 -0.00365101 0.00520539 
6.36923e-05 -0.000497034 0.003683 
9.67635e-05 -2.73429e-05 4.53315e-05 
2.35311e-05 4.42804e-05 -1.31048e-05 
-8.16207e-05 5.68333e-05 0.00673027 
-1.24974e-05 -9.2712e-05 0.0110856 
0.000321751 -0.00161058 -0.000680554 
0.000710673 -0.000823296 -0.00158988 
-0.000457719 0.00100356 2.85531e-05 
-0.0019593 0.00498402 0.00439554 
-4.84242e-05 6.7123e-06 0.0186682 
-0.000129067 -0.000454749 0.0175881 
0.000137781 -3.13904e-05 0.0186013 
-7.81546e-05 3.20203e-05 0.0183199 
0.00186778 0.000171886 0.01351 
0.000367823 7.04649e-05 0.0165196 
-1.72975e-05 -0.000176685 0.0126247 
0.000140177 0.00228693 0.0161776 
0.00546471 0.00292694 0.0116241 
0.00269674 0.00115198 0.0126521 
0.0016735 0.00037022 0.00977595 
0.0015746 0.000331736 0.00327305 
8.76619e-05 -7.77534e-05 0.0126392 
0.000259111 0.000241585 0.00900229 
1.02777e-05 -0.000168706 0.0136934 
-5.10302e-05 -3.00751e-06 0.00867641 
-0.000860267 -9.20607e-05 0.0166879 
-0.000124349 -0.000247125 0.0164098 
5.72054e-05 6.96773e-06 0.0161804 
-0.000450609 -0.000162284 0.0180178 
-1.58889e-05 -3.50645e-05 0.0152767 
0.000164254 -0.000226824 0.0135342 
-0.000100869 6.60908e-05 0.0126433 
0.000461721 -0.000108488 0.0167308 
0.000200759 -0.000348786 -0.000133162 
-6.28442e-05 0.000138456 -0.000853001 
5.07873e-05 -0.000104281 0.000456711 
-0.000285263 -0.00134538 0.00500204 
-1.23062e-05 -1.90416e-05 0.0182377 
0.000148966 -2.82543e-05 0.0181186 
0.00010772 0.000973162 0.0172851 
-7.61006e-05 0.000831594 0.0181753 
5.95407e-06 -3.96519e-06 0.000450953 
4.62572e-05 -3.28537e-05 -0.000660225 
-0.000174176 0.000122688 0.000415074 
-0.00151576 -0.000198988 0.00161241 
-1.49365e-05 -0.000235866 0.000521035 
4.00028e-05 0.000179528 0.00019456 
-9.24606e-05 0.00108565 0.011606 
4.854e-05 0.000680805 0.00739832 
0.0304667 0.0157169 0.128765 
0.0126324 -0.0321432 0.116955 
-0.000472841 0.0586105 0.164598 
0.00593123 -0.0198741 -0.0460197 
-8.14832e-05 -0.00010186 0.0138398 
4.27595e-05 0.000779165 0.017701 
9.21491e-05 4.24857e-05 0.0170162 
4.62061e-05 0.000421811 0.0143802 
2.70879e-05 0.00232654 0 
0.000146862 -0.000562162 0 
0.000606403 0.000830046 0 
0.000930384 -0.000633858 0.00108587 
0.000201548 6.34274e-05 -0.00109443 
-0.0023787 0.00130466 0.00230288 
-0.000458245 0.000114671 -5.61046e-05 
-0.00152843 0.00435874 0.00281715 
0.00011976 -0.000182551 0.01118 
-0.00039843 0.000502102 0.00891053 
0.000166737 8.33974e-05 0.000351786 
-0.000356653 -0.0002108 0.00755677 
0.000858362 -6.4439e-05 0.0143124 
0.00167724 0.00222402 0.0158414 
-0.000390412 0.00158203 0.00985366 
0.000335227 0.000473012 0.0136523 
0.00425369 0.000385743 0.0233262 
0.00787337 0.00105765 0.0227404 
-0.00336072 -0.000277371 0.0533082 
0.0142875 -0.000162356 0.022119 
0.000822212 -0.000975218 -0.000218102 
-0.00130204 0.000194896 0.00165228 
-0.00203514 0.000780194 0.00737482 
-0.00385665 0.00182397 0.00428872 
-0.00433964 2.04743e-05 0.00727044 
-0.00196218 0.00264791 0.00233072 
-0.00867309 -0.00106321 0.00737961 
-0.00337053 -0.000953626 0.000914012 
-0.000787937 -0.00140361 0.0137648 
0.00251374 0.0030139 0.0163231 
0.00281994 -0.00284832 0.0145802 
0.00482573 0.00139434 0.0148573 
0.000988561 -0.00180732 0.00794173 
-0.000161735 -0.00169922 0.0133843 
-0.000306194 -0.00047597 0.0141324 
0.00153075 0.000733079 0.0136329 
-0.00166012 -0.00720754 0 
0.000407864 -0.00195422 0 
-0.00354688 0.0163523 0 
-0.00949821 0.0200988 0.0326268 
7.09788e-06 2.56284e-06 0.016918 
-0.000121929 -8.83232e-05 0.0138461 
0.000296018 0.000317285 0.0143953 
0.000489924 0.000135239 0.0176615 
0.00241256 -0.00358309 0.0113945 
-0.00638356 0.00875051 0.0187483 
-0.00426626 -0.000785232 0.0147755 
-0.000222596 0.00128919 0.01504 
-0.000748966 -3.09395e-06 0.0171284 
-0.000297449 0.000104333 0.0137826 
1.27721e-05 -6.27007e-05 0.0159469 
-0.000177108 -0.000184526 0.0163778 
0.00853047 0.00589386 0.0117911 
-0.000680427 0.000741655 0.0225861 
-0.00431844 0.00502886 0.0440273 
0.00522946 0.0146829 0.00049968 
-0.00424717 0.00395085 0.00621815 
-0.00174168 -0.000749038 0.0178594 
-0.00325049 0.00786868 0.022134 
-0.0109389 0.00454414 0.0247593 
0.00332582 -0.00196428 0.00816535 
0.000238893 -0.00135387 0.00127666 
0.00143128 0.00144033 0.00325128 
0.000321865 -0.000140556 0.00644192 
0.000100983 3.24374e-05 -0.000317225 
-0.000411813 -0.000324489 0.00976902 
0.000217133 -1.17772e-05 0.000262681 
-0.000153808 -0.000945069 0.00610905 
0.000840456 -0.00259795 0.00982303 
-0.00220181 -0.00102035 0.0100243 
-0.00762672 0.001082 0.0111857 
-0.00341986 0.00228293 0.018345 
0.00280781 -0.00455939 0.00834713 
0.00235265 -0.00150865 0.0143295 
0.00559934 -0.00308689 0.00240843 
0.00780591 0.000848826 0.0134193 
-0.000141159 0.000223421 -0.000659071 
-0.000200822 0.000338941 -0.000306732 
0.000130888 -0.000216068 0.000344717 
0.000418322 -0.00144878 0.00145614 
0.000164245 -4.69937e-05 0.0148326 
4.8749e-05 -4.8583e-06 0.0110307 
-2.37187e-06 -0.000225164 0.0135508 
-0.000253783 -0.000241155 0.00957789 
4.58923e-05 0.000146352 5.74131e-05 
1.47205e-05 -0.000519825 0.0111715 
0.00025914 0.000428115 0.00966802 
-9.28099e-05 0.000878226 0.00931715 
6.27725e-05 -1.10927e-05 0.0181448 
-1.03582e-06 -1.20876e-05 0.0181948 
3.89008e-06 -5.60588e-05 0.0187543 
-6.58536e-05 0.000814188 0.0182381 
-0.00368189 0.00549833 0.00849139 
-0.00394581 0.00414443 0.00616933 
0.00116035 -0.000978162 -0.000999753 
0.000463879 -0.00098588 0.00972923 
0.000522849 -0.00067617 0.00143005 
0.000871063 -0.00412726 0.00184085 
-0.000599013 -0.00387235 0.00957706 
0.00216254 -0.00529963 0.00704358 
-0.00326145 -0.00683362 0.0152895 
4.75904e-05 -0.00296044 0.012045 
-6.51325e-05 -0.00108831 0.00460331 
0.000337952 -0.000467346 0.0176165 
-0.0353362 0.0447087 0.157534 
0.0213609 -0.0574429 0.10382 
-0.0115511 -0.0200283 0.151161 
0.00271207 -0.0297389 -0.0187123 
-0.000254793 -0.00123852 0.0164924 
0.000268772 -0.00272235 0.0180689 
2.79704e-05 -0.000486213 0.0159055 
0.000103845 -0.00108994 0.0157087 
-0.00335809 -0.000649102 0.0192876 
-0.00149151 -0.000607613 0.0165023 
-0.00430292 0.000475206 0.0213834 
3.02763e-05 0.00115639 0.0199723 
-0.000396694 0.000263477 0 
6.75561e-05 -0.00035632 0 
0.000135624 -0.000439962 0 
-0.000643345 0.00131083 0.00108814 
-8.34045e-05 -7.98462e-05 0.000168938 
-1.7038e-05 0.000237348 0.00921325 
0.000132251 -0.000139392 0.000149004 
-4.97625e-05 0.000161562 0.00905138 
-0.00109539 0.000196226 -0.00191263 
0.000493422 0.00421427 0.00229955 
-0.000852283 -0.00330338 -0.00374846 
4.72471e-05 0.00797353 0.00890607 
-0.000469152 0.000228073 -4.30705e-05 
-8.60121e-05 9.04822e-05 -0.000243337 
0.000222847 0.00043576 -0.000568671 
-0.00105662 9.30176e-05 0.000762543 
-0.000722805 -0.0100699 0.0156544 
0.000452027 -0.00273498 0.0187319 
0.000100647 -0.00426937 0.0144843 
-0.00080593 -0.00759262 0.0239196 
0.000340773 0.000242782 -0.00040872 
7.08178e-05 3.89219e-05 0.000775806 
4.28761e-05 3.62942e-05 -0.000480401 
-0.00241295 -3.45658e-05 0.00767733 
-0.00208641 0.000637024 0.0169892 
-0.00295642 -0.000853462 0.0148785 
-0.000699921 -6.9142e-05 0.0174916 
-0.000975634 -0.000762658 0.0157724 
-0.000211137 0.000664656 0.0124512 
-0.000227725 0.000276067 0.00906157 
0.000352648 0.000781284 0.0114067 
-0.000645809 -1.82854e-05 0.0151726 
-0.0005948 -0.0035426 -0.00423609 
0.00578451 0.0108726 0.00783925 
-0.00281731 -0.00638233 -0.00462328 
0.00257802 0.00803402 0.00516396 
-0.011434 0.00105165 0.0113059 
-0.00522373 -0.00354361 -0.00443221 
-0.0163037 0.00286285 0.0212721 
-0.00859622 -0.000514526 0.0121105 
-0.00107115 -0.000653638 -0.00140783 
0.00456248 -0.000943031 0.00144135 
0.00496121 0.00238625 0.00363015 
0.0145215 0.000257317 0.0123182 
0.00153641 -0.00215137 0.00711033 
0.000736459 -0.00370259 0.00434707 
0.000772203 -0.000657521 0.00840158 
0.00125041 -0.00298811 0.0141383 
0.00294578 0.000453764 0.0121899 
-0.000425656 0.00071291 0.00661752 
0.00240797 -4.36522e-06 0.00917793 
0.000860399 0.00127861 0.00411917 
0.000200487 -0.000629485 -0.00147836 
-0.000473103 0.0039926 0.00698493 
-0.000359532 -0.000598292 0.00101587 
0.00105767 0.00362737 0.00389365 
-5.77942e-05 0.000556565 0.0120174 
-0.000301614 0.00013479 0.014751 
-0.000613384 -0.000373439 0.0150977 
-0.00117653 0.000550807 0.0179468 
-0.00647021 -0.00278165 0.012577 
-0.0032736 0.000413968 0.0181018 
-0.00346242 0.00333227 0.00855064 
-0.00919013 0.00326378 0.0193956 
0.00125167 -0.00108669 0.0143133 
0.000442023 0.000328491 0.00996938 
-0.00019071 -5.51848e-05 0.0107041 
0.000404211 -0.00017471 0.0151247 
0.000270752 -0.000136455 -0.000377282 
0.00054744 -0.000194868 -0.000461938 
-8.35612e-05 0.000623152 5.05621e-05 
-0.000280561 0.00142625 0.00101376 
-0.00741486 0.00155817 0.00990437 
-0.00244942 -0.0011806 0.0109996 
-4.54736e-05 -0.00180062 0.0115061 
-0.0039898 -0.00273367 0.000675426 
-0.000698016 -4.09595e-05 0.0124856 
-0.0027438 0.00137911 0.0134941 
-0.0006453 0.00079449 0.0171752 
-0.00121056 -0.000940459 0.0157419 
2.1706e-05 6.71913e-05 0.000239506 
6.68806e-05 6.20311e-05 0.000280749 
1.60755e-05 -0.000244136 0.00901756 
-0.000172059 -0.000231234 0.0106684 
0.000755977 0.000656783 0.0136256 
6.74881e-05 3.51172e-05 0.011015 
0.000324305 3.68624e-05 0.00873108 
2.23112e-05 0.000502963 0.0142558 
-3.36696e-05 -6.35176e-06 0.0116776 
1.79536e-05 -4.95386e-05 0.00688179 
-1.68114e-05 -3.14442e-05 0.00952854 
-2.25172e-05 -0.000107886 0.010404 
-6.63227e-05 0.00630844 0.00379097 
0.00118486 0.00120539 0.00295032 
0.000174592 0.00336235 0.0111261 
0.00117647 0.00585947 0.0102014 
-0.000446709 0.00519521 0.0128899 
-0.000868819 0.0059344 0.00929387 
0.00371775 -0.00402372 0.00943879 
-0.0033192 0.00352411 0.0188558 
0.000377837 0.000215709 -0.000218419 
-0.000126278 -1.9923e-05 -0.000106194 
0.000262152 -0.000298942 -0.000468374 
0.00065675 -0.000274107 0.000172927 
0.000115088 0.000241506 0 
0.000100599 0.000185573 0 
-0.000120673 -1.3249e-05 0 
0.000952864 -0.000691068 0.00043856 
-0.00112205 -9.37616e-05 0.00100997 
-9.5874e-05 -8.01146e-06 -0.000662706 
-0.000694159 -5.80057e-05 -5.97845e-06 
0.00442225 -0.00128459 0.00514171 
4.60541e-05 -6.65443e-05 0.000396222 
0.000448998 -0.000213787 0.00845153 
0.00046886 0.000114936 0.0091329 
0.000109307 -0.000126615 0.00739016 
-3.59885e-05 -2.55953e-05 -0.00062815 
2.6921e-06 2.07991e-06 0.000402942 
0.000288565 0.000203091 0.00042944 
0.000452869 -0.000351326 0.000761953 
0.000223502 1.86044e-06 0.00929977 
0.000142293 0.00045096 0.00750869 
-0.000203038 0.00069068 0.01211 
-7.13507e-05 0.00015289 0.00784756 
-0.0021146 -0.000842447 0.00595207 
-0.0219427 -0.00676574 0.0358449 
-0.00500536 -0.00894218 0.0214874 
-0.00773454 -0.000942689 0.00124242 
-0.00135036 0.00413118 0.0198311 
0.010572 -0.000315203 0.0214049 
0.00763769 -0.00160631 0.0143197 
0.00517937 0.00115066 0.0167652 
-0.000152823 0.000164993 0.000218063 
9.60197e-05 -7.80788e-05 1.88586e-05 
0.000748273 2.967e-05 0.00946901 
0.00055293 -0.000247985 0.00857566 
-0.00015827 1.28643e-05 5.67617e-05 
-3.8452e-05 3.12542e-06 0.000277447 
6.41719e-05 -5.21597e-06 2.25987e-06 
-0.000125535 0.000109659 0.0128403 
-0.000422078 -0.000240437 0.0209115 
-0.00275788 -0.00134852 0.0120368 
-0.000795641 -0.00549018 0.013717 
-0.00470336 -0.00239985 0.0292786 
-0.000655811 0.000440985 0.0127855 
4.63939e-05 0.00410064 0.0179173 
9.00018e-06 0.00182182 0.00890139 
-0.000681613 0.00173011 0.00535103 
-1.49338e-05 1.2243e-05 0.00582268 
-5.30546e-05 -4.51897e-05 0.000236815 
-2.12236e-05 -0.000206852 0.00900366 
3.96615e-05 -0.000131046 0.0107054 
-0.000802054 -0.00314338 0.0150739 
-0.000412396 -0.000353881 0.0124051 
-0.00285213 -0.00014268 0.013857 
-0.000719445 -0.00351104 0.00992594 
-7.65654e-05 -5.34691e-05 6.31401e-05 
4.98542e-05 6.65023e-05 0.00569466 
3.18785e-05 -8.887e-05 0.000156381 
0.000126947 0.000418986 0.00944158 
0.000308668 0.0016813 -0.000418218 
0.00269469 -0.00124634 0.0104222 
0.000446523 0.000332558 0.000277574 
0.00236236 -0.00370088 0.0061037 
2.5079e-05 -4.42205e-05 0.00685834 
-2.79898e-05 6.10561e-05 0.0109245 
1.6884e-05 -2.3545e-05 0.00531962 
0.000229303 0.000164701 0.00869523 
0.000513301 -0.00081033 -0.00188299 
-0.000334523 0.00277732 0.00291868 
-0.00085014 -0.000164714 0.00124139 
-0.000956022 0.00139975 0.00315058 
4.83751e-05 -8.9441e-05 0.0185539 
-0.000174198 0.000800119 0.0180293 
-0.000468117 0.000816965 0.0170663 
-0.000463246 0.000264821 0.0177089 
-1.82117e-05 -0.000647144 0.0220225 
-0.0033686 0.00325779 0.0162759 
-0.00344931 -0.00212011 0.0129996 
-0.00325231 0.00116794 0.0234553 
0.00237195 -0.00348264 0.0120177 
0.00176003 0.00350415 0.0209106 
0.00626379 0.00336987 0.0238404 
0.0014382 0.000513506 0.0133925 
-0.00125994 -0.00618859 0.0111503 
0.00470691 -0.00883109 0.0219669 
0.00174978 -0.00305783 0.0215644 
-0.00164459 -0.00657197 0.0132285 
0.00843052 0.00369333 0.0126285 
0.00167783 0.00165665 0.000228195 
0.00263109 0.000717468 0.0127023 
-0.000295944 7.95098e-05 0.00259946 
0.000341234 0.000199796 -0.00014742 
-0.00103554 -0.000222423 0.00686999 
-0.000358535 -0.000278271 0.00979803 
-0.000379599 -0.000967519 0.00582142 
0.000627865 0.00364893 0 
-0.0089356 -0.00271769 0 
-0.00145322 -0.000226543 0 
0.0313597 0.00673499 0.00459237 
0.0151452 -0.00104351 0.0265986 
0.0119095 -0.000425592 0.0154532 
0.00504815 -0.000153772 -0.00596323 
0.00730036 -0.000999738 0.015264 
-0.000463367 -0.000402759 5.82704e-06 
0.00104913 -0.000759604 0.00735246 
-0.000733224 -0.000125411 -0.000728943 
0.000708068 -0.00109344 0.00467754 
-7.98872e-05 -4.4897e-05 0.0138107 
0.000451101 9.55511e-05 0.0177099 
-9.04804e-06 -1.47278e-05 0.0169084 
0.000545677 -1.36273e-05 0.0133617 
-0.000795731 -0.000184834 0.0102469 
-0.000136998 -0.000218537 0.00956133 
-6.31509e-05 3.82313e-05 9.34254e-05 
-0.00037224 -0.000182218 0.00742737 
-0.00131464 -0.00235424 0.0120738 
0.00119012 0.00439898 0.012656 
0.00141842 0.00226939 0.0162452 
0.00561581 0.00286444 0.017517 
-0.000243025 -0.000793383 0.00203553 
-0.00141768 -0.000240332 0.000914395 
0.000299161 0.000247322 -0.00105342 
-0.000298144 0.000412643 0.00107034 
1.81434e-05 -4.75184e-06 0.0179016 
6.72799e-05 4.2631e-05 0.0184353 
-5.15951e-05 5.02865e-05 0.0185392 
-0.000106193 -0.000590569 0.0179797 
6.08002e-07 4.21286e-05 0.018816 
-4.89981e-05 6.26186e-05 0.0182612 
2.9397e-06 -0.000555318 0.0173899 
0.000360383 -3.50446e-05 0.0181577 
-6.64175e-05 7.19858e-05 0.00646832 
6.87822e-05 0.000102517 0.00714462 
0.00019017 -0.000151248 0.000384647 
-2.14263e-05 6.54806e-06 0.00807106 
0.000147579 0.0126416 0.0224983 
0.00141244 0.00627958 -0.00120373 
-0.00344133 0.0185562 0.0297602 
0.0029713 0.00409127 0.00638168 
-0.000307039 0.000281423 0.000140549 
0.000442792 -0.00275327 0.00181215 
-0.000395625 0.00106462 -0.00048559 
0.000205775 -0.00153316 0.00021176 
-0.000248926 -1.24306e-05 -1.76361e-05 
0.00101395 -0.00200004 -0.0014061 
0.00065524 -0.000872182 -0.000740223 
-0.00187137 0.00206777 0.00123251 
-0.00130524 -0.000684902 0.0180481 
-0.00255767 -0.00247822 0.0116351 
-0.00230166 -0.00509672 0.0124788 
-0.00305786 0.00152918 0.0156415 
-4.12381e-05 1.75166e-05 -0.000702911 
-0.000120941 0.000250763 -6.09675e-05 
6.89771e-05 -0.000131971 0.000145625 
0.00022764 -0.00194502 0.00599895 
1.18683e-06 0.000358466 0 
0.00117848 0.00215906 0 
-0.00158565 0.00182576 0 
-0.000705562 -0.00337233 0.000459338 
2.48732e-05 0.00144382 0.0226728 
0.000138805 0.000205088 0.0113168 
-0.00319744 0.00376048 0.0165004 
0.00256015 0.00404827 0.0175663 
5.54032e-05 -0.00151076 0.0158092 
8.33938e-05 -0.00319265 0.017846 
0.00218273 -0.0036375 0.0182089 
-0.000151573 -0.000442601 0.0165092 
0.000742386 -0.000162571 0.0157223 
0.000149868 7.47476e-06 0.014586 
3.68658e-05 -0.000199946 0.00949001 
0.000345663 -4.92999e-05 0.0134929 
0.00254846 -0.0156116 0.027088 
-0.00350175 -0.00606673 0.000365001 
-0.0004045 -0.00925024 0.0131212 
-0.000178297 -0.00578536 0.0120404 
1.54716e-06 1.27377e-05 -4.98113e-05 
-1.8097e-06 -3.0128e-06 0.000132576 
-7.90856e-06 -7.46656e-05 0.000194886 
9.60404e-05 0.000177136 0.00960217 
0.00645216 0.000429195 -0.00728924 
-0.000139796 -0.00115355 0.00414129 
0.000350273 0.000595196 0.000621641 
-0.00763661 -0.0189569 0.0237261 
0.00575814 0.000988876 0 
-0.0164652 -0.00799454 0 
0.0119426 -0.00191381 0 
-0.0136407 -0.00729067 0.017195 
-6.2596e-05 0.000115887 0.000481194 
0.0001773 -0.00116802 0.00794931 
-7.29364e-05 4.2541e-05 -0.000422726 
0.000250729 -0.00103285 0.00482174 
0.000389536 -0.000242782 0.011781 
-9.81493e-06 0.00109152 0.0121434 
0.000834093 0.000632479 0.0153074 
8.06661e-05 0.00016334 0.00929347 
-0.0036242 -0.00514238 -0.000578319 
0.0062678 -0.00618142 0.00432127 
-0.00315437 -0.010282 0.0174547 
0.00226563 -0.0233545 0.0311314 
3.26198e-05 -0.000110241 0.0185108 
3.01611e-05 -7.50529e-05 0.0173977 
-0.000391996 0.000793001 0.0170355 
-0.000155092 0.000851527 0.0181319 
4.37004e-05 -6.65906e-05 0.000101614 
-0.000287627 -0.000125895 0.0098885 
8.52308e-06 0.000196168 5.33175e-05 
-0.000220195 4.30761e-05 0.00967894 
-0.000580555 -0.00176438 0.000453197 
-0.00163753 0.000404503 0.00253381 
0.000558527 -0.000751668 -0.0019467 
-0.00253785 0.00217364 0.00027162 
-0.00344616 -0.000711626 0.0151865 
-0.00109472 -0.00426498 0.0116538 
-0.00358033 -0.000995828 0.00692021 
-0.00588284 -0.000650559 0.00949557 
0.00116446 0.00101796 -0.000229011 
-0.00987375 -0.0076059 0.00847046 
0.00141949 0.00422959 -0.00687235 
-0.016798 -0.00766388 0.0330273 
0.0450308 -0.00670104 0.167525 
-0.0368948 0.0240064 0.105569 
-0.0276258 -0.00474709 0.155425 
-0.0177944 -0.02406 0.00923321 
1.68487e-05 -0.000210132 0.000175667 
3.96362e-06 -3.11478e-05 -0.000332728 
-2.45774e-05 0.000300051 -0.000123874 
0.000758055 0.000788536 0.0113172 
0.000262518 -0.000284577 0.01176 
0.00019836 -0.000278461 0.00933301 
0.000207269 -0.000902939 0.0105728 
3.74514e-05 -1.64506e-05 0.0078471 
0.00745854 -0.00103564 0 
0.00484797 0.00110539 0 
-0.0136519 0.00444897 0 
-0.0345638 0.0084527 0.0110179 
0.000364004 0.00932639 0.0187816 
0.00180289 0.00868369 0.0194036 
-0.000154621 0.00327423 0.00798005 
0.00524308 0.00313704 -0.00594292 
0.00509596 0.00161622 0 
-0.0161449 -0.00663293 0 
0.0111918 0.00229707 0 
0.0498464 0.00429688 0.0444749 
-0.000119612 0.00017178 2.52669e-06 
0.000133474 -0.000191605 1.45435e-06 
8.30116e-05 -0.000112778 0.000333253 
-0.000270125 0.000842562 0.00744453 
-8.3289e-06 0.000101529 8.00383e-05 
-6.89204e-07 8.40137e-06 1.71061e-05 
3.02907e-06 -3.69242e-05 0.000237163 
-8.6456e-05 -4.50498e-05 0.00916761 
0.000228304 -0.00112276 0.0107018 
0.000187418 -0.000169387 0.00939215 
0.000255548 -0.000207102 0.0116063 
0.000473937 0.000172259 0.0134016 
-0.00130765 0.00181931 0.0152989 
-0.000933939 -6.00672e-05 0.0130283 
0.000453395 -0.000115767 0.0124547 
-0.000570242 0.00110561 0.0171246 
0.000112909 -0.000245955 0.0106948 
0.000673017 -0.000676814 0.0143872 
0.000204265 -0.000509301 0.0145721 
-0.000370629 -0.000465597 0.0145145 
0.000986608 -0.00158254 0.00895013 
-0.000614708 -0.000282652 0.0147259 
-0.000667728 -0.00108105 0.0144358 
-0.000157671 -0.000261558 0.0178418 
-0.000223076 -6.04684e-05 -0.000321317 
-0.00155182 -0.00415378 0.00960706 
0.000735287 0.000930085 0.000569084 
7.03482e-05 -0.00048206 0.0104799 
0.00741746 -0.00489604 0.020146 
0.00470179 0.000119771 0.0151267 
-0.00272835 -0.00184966 0.0142532 
0.000476706 -0.00337034 0.019614 
0.000799634 -0.000700895 0.0139844 
0.00329512 0.00351357 0.0165034 
0.00285183 -0.000872176 0.0165453 
0.00225699 -0.00344818 0.0143377 
0.00880314 -0.0235964 0.0541479 
0.0305997 -0.0250848 0.0357349 
-0.0603508 0.00150434 0.0327713 
-0.0285427 0.0168392 -0.000323771 
-5.0029e-05 -2.78306e-05 0.0150441 
2.62926e-05 2.57703e-05 0.0103335 
-3.03093e-05 -3.54907e-05 0.0114689 
7.74977e-05 -0.000104337 0.00943082 
0.000930517 0.000513226 0.0154097 
0.000241057 -7.50085e-05 0.0116563 
0.000443134 -4.14102e-05 0.0145802 
0.00112035 0.000126402 0.0160414 
-0.000999377 -0.00266903 0.0129538 
-0.00287821 0.00304271 0.0144092 
0.00283004 0.000143153 0.0163805 
0.00201352 0.000233879 0.0162578 
7.54293e-05 9.07331e-05 -1.23509e-06 
0.000256267 0.000209982 0.00910141 
-3.67662e-05 0.00107028 0.00923829 
0.000241996 0.000763564 0.00720247 
-0.00100525 0.00281524 -0.00130332 
0.00462502 -0.00250738 0.00492536 
0.00301343 -0.000607727 0.0112375 
0.00452396 -0.0056566 0.00750055 
-0.000918945 -0.00483033 0.0149207 
-0.00234512 -0.000364984 0.0130958 
-0.000727389 -0.000871396 0.0202821 
0.00063531 -0.000532078 0.0093419 
0.00350284 -0.000411656 0.0162286 
0.00108937 0.000155125 0.0188621 
0.00334788 8.75438e-06 0.0131662 
0.00338022 0.000545165 0.0171345 
0.000103153 -6.25714e-05 -0.0015181 
-0.00101015 -4.92073e-05 0.00681988 
5.55396e-05 -5.04079e-05 -4.77888e-05 
-0.000190887 -0.000946982 0.00579516 
0.00525018 -0.001158 0.0252621 
0.00694092 4.33134e-05 0.0154009 
0.00368584 0.00066599 0.0159825 
0.00645999 0.00113058 0.0131013 
3.09711e-05 -3.1863e-05 0.0180113 
-0.000343695 -0.000340397 0.0164816 
-0.000103684 -0.000602232 0.0178659 
-0.000236525 -0.000155698 0.017933 
0.000223836 -0.000341601 0 
0.000392321 -5.70776e-06 0 
2.10875e-05 0.000473528 0 
-0.000994673 0.000255531 9.3913e-05 
-0.00142682 0.00635048 0.0103091 
-0.000165225 0.00719006 0.00570185 
0.000235635 0.00264278 0.00959552 
0.00105207 0.00589306 0.0104522 
-0.000391397 0.000536056 0.0129248 
-0.00130457 0.000319563 0.0165436 
-0.00100082 -0.000197375 0.0172404 
-5.2465e-05 0.000160998 0.0135108 
4.98324e-05 -1.26722e-05 0.00587743 
-3.27697e-05 1.27524e-05 3.88058e-05 
-5.55773e-05 0.000134611 4.51368e-05 
9.37874e-05 -0.000333825 0.00964839 
-6.96219e-06 7.70614e-05 0.00544502 
3.89173e-05 -4.89464e-05 0.00610848 
-2.35066e-05 -0.000165343 0.000190872 
-7.84581e-05 0.000139883 0.00890126 
-0.000811282 -0.00335735 0.0105968 
-0.00389171 -0.00386092 0.0167385 
0.00479511 -0.00865908 0.0300939 
0.000551912 -0.00105166 0.0174515 
0.000800394 0.000534063 0.0177815 
0.000614121 0.000198519 0.0172902 
0.00155892 0.000120773 0.0168073 
0.00040215 -7.3953e-06 0.0181399 
-0.000640135 -0.000528537 0.012072 
-0.00309155 -0.000626969 0.0143635 
-0.00304396 0.00144103 0.0133984 
-0.00108189 -0.000779426 0.0159533 
0.00341931 -0.00140783 0.00832544 
0.00110625 0.00132883 0.00322232 
0.00527821 -0.000373273 0.00253529 
0.00309685 0.00222439 0.0102329 
-6.44735e-05 -8.54213e-06 0.00011994 
0.000151223 8.76049e-05 0.00923937 
8.22886e-05 4.39917e-05 8.85723e-05 
-3.78326e-05 0.000133165 0.00905383 
-7.74098e-06 9.71376e-06 8.92982e-05 
-8.81354e-06 1.21282e-05 4.12013e-05 
-1.13643e-05 1.49312e-05 9.3141e-05 
1.69654e-05 -0.000197695 0.00959799 
0.000679647 0.00155522 9.03779e-05 
0.000704361 0.00184718 -0.000369462 
-0.00160404 -0.00166339 0.000665568 
-0.00156298 -0.00180332 0.000424051 
0.000171246 -0.000635639 -0.000781921 
-9.5454e-05 -0.00144881 0.0109068 
0.000299628 5.04334e-05 0.000183983 
-0.00164079 -0.00114813 0.0108311 
0.00192821 0.000147181 0 
-0.000254697 -0.000292914 0 
0.000370156 -0.000160955 0 
-0.00128037 0.000952721 -0.00212612 
-0.00101095 0.000706635 0.00945039 
-0.00496436 0.000183567 0.0050742 
-0.0014517 0.000612616 0.000631959 
-0.00478252 0.00102792 0.00346289 
-3.02535e-05 -3.57433e-05 0.0180973 
2.01386e-05 -0.000746772 0.016503 
-9.61623e-05 -0.000582082 0.0179105 
-0.000272712 -0.000354194 0.0163306 
0.000747352 0.000480374 0 
0.000204366 0.000140413 0 
0.0010344 -0.000211799 0 
-0.00372359 -0.000444258 1.85304e-05 
-0.00226248 0.00155122 0.0133855 
-0.000659553 0.000430444 0.0166879 
-0.000887101 0.00331192 0.0150987 
0.000410377 0.0022011 0.0162621 
0.00638689 0.0027047 -0.0121327 
-0.0189401 0.00397125 0.0512805 
-0.0236356 0.00294727 0.00742118 
-0.0068882 0.00147341 0.00277209 
1.17313e-05 1.84999e-05 0 
-4.84678e-05 0.000175062 0 
-0.00019159 0.000343124 0 
0.000728167 -0.000945562 0.000133551 
0.00204246 -0.020434 0.00654623 
-0.00141091 -0.00833124 0.0566226 
0.00316184 -0.00892533 0.0333646 
-0.000512387 -0.00998275 0.0280022 
-0.000329939 0.000190811 -0.000560032 
0.00434225 -0.00227335 0.00555128 
0.00124326 -0.00103754 0.00717662 
0.000367556 -0.00195471 0.00557527 
-0.00188823 0.00144581 0.00132702 
-0.0039312 0.00616291 0.0061353 
-0.000439881 -0.00232327 -0.00219574 
-0.00171748 0.00611233 0.00474959 
0.00102983 0.00256609 -0.00124165 
0.00108652 0.00148466 -0.000517885 
-0.00224508 -0.00376527 0.00277763 
-0.000393096 -0.00262117 0.00101608 
1.37663e-05 0.000139214 0.000272386 
-7.84739e-06 -7.93582e-05 -0.000289085 
8.67109e-06 8.7688e-05 9.43273e-05 
-0.000648986 -0.000238737 0.0103299 
2.1057e-05 8.49584e-05 0.000251577 
-0.000172451 0.000111079 0.000119207 
0.00030358 -6.67495e-05 0.00937799 
-2.00078e-05 6.83778e-05 0.00798717 
-4.42037e-05 -3.21605e-05 0.01381 
3.37572e-05 4.81132e-05 0.016964 
6.25792e-05 -5.04155e-06 0.0157508 
0.000121649 0.000387879 0.0144706 
9.35867e-05 0.000742314 0.0127632 
9.85161e-05 8.63539e-05 0.0140981 
-0.00144507 -0.00043335 0.0173535 
-0.0016956 0.000204774 0.0167121 
-5.31057e-05 0.000838288 -0.00269005 
-0.000779213 0.000749344 0.000241392 
-0.00327359 -0.00263691 0.00806478 
-0.00248425 -0.00218889 0.00437461 
0.0535511 -0.0106982 0.0567769 
-0.00843956 -0.0140131 0.0283088 
-0.0164789 -0.0129815 0.0531156 
0.010124 0.00525193 -0.00224332 
-7.99962e-06 -9.57411e-06 0.0182074 
-2.43293e-06 1.56921e-05 0.0174068 
5.89413e-05 4.61791e-06 0.0167595 
0.000310586 -1.91114e-05 0.0185401 
6.10543e-05 5.65379e-05 0 
-3.19379e-06 0.000114747 0 
0.000276878 -0.00014144 0 
-0.0005945 0.000942234 0.00048726 
5.38749e-06 1.62442e-05 0.0136861 
4.28103e-05 0.000738333 0.0177588 
-2.174e-05 0.000355236 0.0144639 
-0.000303682 0.000584572 0.0142125 
-0.000253089 4.52565e-05 0.00995263 
-2.08429e-06 -0.000187838 0.00948538 
0.000727334 -0.00039743 0.0158904 
0.000214079 0.000138635 0.0144864 
-4.88156e-05 8.42002e-06 5.84127e-05 
4.50792e-06 5.19889e-05 0.000185095 
2.11314e-05 -3.66392e-05 0.00460478 
7.3399e-05 -0.000293281 0.0108998 
-0.000124151 -0.000126683 0.00954541 
-0.000133499 -4.09692e-05 0.00810164 
-0.000205281 -0.000187526 0.000221018 
-1.78071e-06 1.31964e-05 0.00875576 
-0.00495679 -0.00364944 0.0098126 
-0.00370389 -0.000697374 0.000898586 
-0.00127564 -0.00538584 0.00146969 
-0.0075929 0.00128668 0.0106361 
3.05847e-05 1.11451e-05 0.0128448 
-6.39402e-05 -4.5213e-05 0.0157583 
8.49522e-05 -5.59757e-05 0.0117341 
-0.000383288 0.00010163 0.0147773 
3.25546e-05 0.000116699 0.0110143 
0.000851964 -0.000165771 0.00748426 
0.00032041 -0.00118799 0.00805962 
0.0014833 0.000145568 0.0135365 
1.40171e-06 1.88108e-06 3.84022e-05 
1.31539e-05 4.32395e-05 8.21026e-05 
-1.18768e-05 -5.02457e-05 4.77227e-05 
5.60059e-06 -0.000156932 0.00917557 
0.00190554 -0.00222524 0.00898538 
0.0112009 0.000638336 0.0195881 
0.00990617 0.0013032 0.0128622 
0.00307118 -0.000791963 0.0158232 
-0.000377221 -0.000701193 -0.000233319 
0.000415963 -0.000559709 -0.000663695 
-0.000849164 0.000550894 0.000133654 
-0.00119615 0.00076569 0.00144519 
3.43284e-05 -5.46546e-06 0.00995958 
-3.57551e-05 -2.77486e-06 0.00593503 
-1.93651e-05 1.1083e-05 0.00598461 
9.51241e-05 -0.000183556 0.0091905 
0.00334251 -0.00180901 0.00825956 
0.00279122 0.000886459 0.00984252 
0.00573427 0.00145647 0.00320039 
0.00756886 -0.00110183 0.0121296 
0.00111355 9.51041e-05 0 
0.00768256 -0.00310615 0 
-0.0055991 0.0064419 0 
-0.00835044 0.0110876 0.0034505 
-0.00442585 5.94908e-05 0.0177989 
-0.00167898 0.000365783 0.0172012 
-0.00394773 -0.000806624 0.0151006 
-0.00142469 0.000392756 0.0174086 
0.00537491 0.00366952 -0.00577071 
-0.00184577 0.001519 0.00067255 
-0.0129042 0.000676944 0.00994153 
-0.0112865 0.00149897 0.00689713 
-0.00416128 0.00117851 0.018961 
0.0104809 0.00467052 0.0238056 
0.0076416 0.0127474 0.0414835 
0.000337446 -0.0108714 0.0615512 
-0.00304439 0.00465836 0.0130788 
5.60532e-06 0.00293589 0.0188037 
0.000203236 -0.000203742 0.013045 
-0.000959706 0.003406 0.00416391 
0.00214026 0.000445522 0.0143745 
0.00149372 0.00233174 0.0184091 
0.00582756 -0.000657774 0.0153781 
0.00579186 -5.06504e-05 0.0170934 
8.07446e-05 -4.10902e-05 0.0106132 
0.000142254 0.000185318 0.00900332 
-5.33886e-05 -1.1381e-05 0.00571335 
0.000224282 0.000375413 0.0092158 
0.000474913 -0.000702499 -0.000564465 
0.000450232 -0.000367917 -0.000227178 
-0.00191651 0.00304146 0.0025691 
-0.000747754 0.00211917 0.00427321 
-0.00512879 -0.00135096 0.00909133 
-0.001765 -0.000202606 0.0115552 
-0.00140024 2.23009e-05 0.0068496 
-0.00284833 -0.00146294 0.00286465 
0.0120477 0.0029339 0 
0.0031225 0.00770272 0 
-0.0099185 -0.00476822 0 
0.0241154 -0.0120229 0.0158965 
0.00574262 -0.0016613 0.00377773 
0.00210627 -0.00261326 0.0135238 
0.00326086 -0.00152147 0.00848634 
0.00754623 -0.000500402 0.0123573 
6.25183e-05 1.83077e-05 0.0185548 
-0.000434174 0.000588733 0.0169409 
4.50154e-05 -6.17969e-05 0.0171164 
-0.000506737 0.00025824 0.0177912 
-9.30583e-06 -3.90144e-05 0.0173087 
-4.22322e-05 0.00011729 0.0155265 
0.000374953 -0.000278713 0.0163059 
0.000238352 -0.000559131 0.0175132 
0.000400902 0.00712969 0.010232 
-6.38542e-05 0.00620945 0.015434 
-0.00134948 0.00379222 0.0174728 
-0.00293783 0.00170852 0.00841787 
-0.000176838 -7.21589e-05 -0.000713373 
-0.00111212 -0.000113476 0.0106573 
0.000132847 -0.000265784 -5.06742e-05 
-0.00125014 0.00100201 0.00955015 
-0.000914943 0.00783377 0.0132183 
0.000443282 0.00551682 0.0192091 
-0.000201874 0.00572915 0.0173098 
-0.000588619 0.00331057 0.0149848 
-0.00166846 -0.00145447 -0.00105242 
0.00492848 0.00196219 0.00743522 
0.00864515 0.0114016 0.0141603 
0.00121389 0.0021849 0.00080016 
-0.000518243 0.000812859 0.0153633 
-9.08953e-05 -9.54791e-05 0.00969447 
-0.00203331 0.000238634 0.0079354 
0.000259644 0.000155628 0.0144535 
-0.000384797 -6.78996e-05 0.0119484 
-0.000532626 0.00571277 0.00825903 
0.00512041 -0.0017803 0.00806507 
0.00169079 -0.00598646 0.00708691 
-0.00129641 -0.00245752 0.0113455 
-0.00780438 -0.00169227 0.00492973 
-0.0143623 -0.000912048 0.0310422 
-0.00841133 0.00495224 0.00390708 
0.0046131 0.00159884 0.0068783 
0.000159508 0.00238266 0.00190711 
0.00199394 0.000606883 0.0114253 
0.000628302 0.00107674 0.00555255 
0.000275523 -0.000498623 -0.000577731 
9.45757e-05 0.00020958 0 
0.00024955 -0.000248326 0 
-0.000383311 -0.000774225 0 
-0.000128843 -1.22023e-05 -7.2532e-05 
-7.65112e-05 9.09103e-06 0.000177312 
6.70206e-05 -8.1364e-06 0.00885741 
-0.000273184 0.000218797 0.00962591 
0.00356086 -0.00148793 0.00810734 
0.00270956 -0.00281161 0.0140816 
0.00282975 -0.00481179 0.00998585 
0.00156643 -0.00552679 0.00751876 
-0.00397467 -0.00547489 0 
0.00903514 0.00747042 0 
-0.00617099 0.00141181 0 
0.0108569 0.00773747 0.0139288 
-0.00524531 -0.00117498 0.0228889 
-0.0017602 -0.00220438 0.015355 
-3.74316e-05 0.000585335 0.0224929 
-0.00204098 -0.00544329 0.0268589 
1.56566e-05 3.29554e-05 5.89867e-06 
-1.63751e-05 -3.49021e-05 6.93521e-06 
-3.67553e-05 -7.98751e-05 6.18563e-05 
-5.44312e-05 -0.000155176 0.0108962 
6.87721e-05 -0.00120512 0.0149518 
-0.00126746 -0.000937305 0.0117015 
0.000147341 0.00355966 0.0105045 
0.00480096 0.00190356 0.0156326 
-0.00025001 -0.00036204 0.0152657 
-0.00265173 -0.000682654 0.0173281 
-0.0022256 0.000735347 0.0178631 
-7.06386e-05 -0.000794706 0.0140464 
4.60458e-05 0.000975254 -0.000167056 
-8.58114e-05 0.000393488 -0.000382671 
-0.00112302 -0.00245055 0.00217141 
1.27092e-05 -0.00166262 0.0047872 
0.0123865 -0.036851 0 
0.0246251 -0.0307211 0 
-0.00875971 0.0184997 0 
0.018601 0.0106285 0.106459 
0.000669281 -0.00709977 -0.00658574 
-0.00574683 0.00430847 0.00302248 
0.000490919 -0.000757317 -0.000996077 
-0.0250311 0.0117691 0.0348107 
-0.000634922 0.000557705 0.0167849 
-0.00253392 0.00143595 0.0137393 
-0.000831996 0.00326178 0.0149456 
-0.00107482 0.00145804 0.0167772 
-0.000569818 0.000434202 -0.000763164 
-2.00975e-05 -3.19596e-05 -0.000264103 
0.000136014 1.03826e-05 -2.0464e-05 
0.000502444 -0.000392511 0.00029142 
-8.95447e-06 1.76643e-05 0.0149136 
-0.000154413 0.000484057 0.0173551 
6.03667e-05 0.000384915 0.0141979 
-0.000328503 -2.14757e-06 0.0160053 
-0.00128423 -0.00331704 0.00896757 
-0.00359748 -0.00733118 0.00085428 
0.00275905 -0.0141123 0.0274989 
-0.000215902 -0.00548221 0.011305 
0.0139655 0.000680451 0.0241872 
-0.000490864 -0.00140487 0.00362313 
0.00910981 0.000120097 0.0134173 
0.00957939 -0.000310041 0.0157424 
-5.32855e-06 0.00056639 0.0121685 
0.000145621 -6.65664e-05 0.0145796 
7.31808e-05 -2.41648e-05 0.00917728 
-0.000117473 0.000332548 0.00793134 
-0.00154771 -0.000645859 0.0180465 
-0.0016481 -0.0053981 0.0100323 
-0.00587474 -0.00052398 0.011259 
-0.00337764 0.00179897 0.0183669 
-0.00173248 -0.000199243 0.0192628 
-0.000610295 -0.00120317 0.0129106 
-0.000721662 -0.00074736 0.0142731 
-0.000292877 -0.000456096 0.0191389 
-0.000679935 -0.000472093 0 
9.01884e-05 0.000584295 0 
-0.000510413 0.00130716 0 
3.75042e-05 0.00108467 -0.00099199 
-0.00174066 0.00145929 -0.000392302 
-0.000911967 0.0331798 0.028516 
0.000684149 0.00316298 0.000839592 
0.00371043 0.00472706 0.00612426 
0.00292075 -0.00181247 0.00813747 
4.54478e-05 -0.002977 0.00956038 
-8.16921e-06 -0.00489079 0.0160436 
0.00172349 -0.00577119 0.00800991 
0.00332795 8.284e-06 0.0160039 
0.00063483 -0.00113344 0.0157511 
0.000377678 -0.0015331 0.0144692 
0.00206884 -0.00244066 0.0144227 
0.000295601 8.04665e-05 0.000154673 
-0.000445153 -0.0016162 0.0102995 
0.000183339 -0.000210037 1.61347e-05 
-0.000145826 -0.0013541 0.00643382 
0.0525737 7.62691e-05 0.0682538 
-0.0210677 -0.000265347 0.0554232 
0.00807696 -0.00140972 0.0216814 
0.0137632 -0.00455138 0.0203408 
-0.000233789 1.33068e-05 0 
0.000317145 0.00052129 0 
0.000291505 0.000103777 0 
-0.00288806 -0.000261514 0.000554285 
0.000366464 -9.46252e-05 0.000244007 
-3.87181e-05 1.01046e-05 -1.7465e-06 
-0.000142959 3.79216e-05 0.000130813 
-0.00152158 5.52977e-05 0.0116883 
8.08241e-06 -2.30929e-05 0.0094083 
-3.49754e-05 7.31857e-05 0.0069121 
7.41939e-06 -1.7738e-05 0.012538 
7.55461e-05 -0.000262545 0.0101025 
-0.00256621 -0.0044422 -0.00363172 
0.00899965 0.0154975 0.0190834 
-0.00197532 0.00246178 0.000844077 
0.00143228 0.000150767 -0.00226913 
0.00426792 -0.00705064 0.205737 
0.0267363 0.0558506 0.173866 
-0.0480589 -0.055236 0.126604 
0.0374388 0.0212769 0.0202794 
-4.72114e-05 0.000268653 0.000165261 
-0.000336915 -0.00032747 0.00973481 
0.000157446 0.00011313 -0.000194873 
-0.000936557 -0.000184163 0.0068858 
0.000165625 -0.0014528 0.00895136 
0.00127 -0.00105636 0.0072793 
0.000626673 0.00144995 0.0119645 
0.00155532 -0.00122987 0.0182315 
0.00123488 0.00271734 0.0140561 
0.00422472 0.000290732 0.0167905 
0.00245565 0.00218666 0.0112662 
0.00410317 -0.000348221 0.0166525 
0.00146945 -0.00542664 0.015471 
0.00063079 -0.000426334 0.00693243 
0.00120216 -0.00392219 0.00403307 
8.57659e-05 -0.00236663 0.014236 
-0.0152191 0.0223174 0.0686798 
-0.000206369 -0.0421356 0.187227 
-0.0102239 0.0210394 0.147717 
0.0326077 0.0246227 -0.023098 
-0.00095279 -0.00371172 0.00937833 
0.0011453 -0.00381431 0.000671609 
0.000456997 -0.00846547 0.0106157 
0.00232941 -0.00569947 0.00811763 
-0.000102483 2.30589e-05 -8.14911e-05 
-4.54528e-05 1.34325e-05 0.000284374 
7.33604e-05 -1.49844e-05 0.000210507 
-0.00036722 0.000129013 0.00964438 
-0.00107968 0.000631545 0.000324866 
-0.0011474 0.000119491 -0.000431384 
0.00376481 -0.000272661 0.00901377 
0.00463971 -0.00191662 0.00449941 
0.000566359 4.73264e-05 -0.00103318 
0.000512855 4.28554e-05 -6.55986e-05 
-3.78146e-05 -3.15988e-06 0.000927612 
-0.00165568 0.001805 0.00624835 
-1.48508e-06 1.33688e-06 0.0175817 
0.000272732 -0.000519393 0.0172842 
0.000576357 -0.000249181 0.0165527 
0.000393802 -0.000148029 0.0182562 
0.00024075 0.000167019 0 
-0.000106994 0.000622712 0 
-0.000215235 -2.15522e-05 0 
7.48054e-05 -0.00270257 0.000261834 
-0.000828223 0.000474094 0.0198898 
0.000548993 -0.00223288 0.0098705 
-0.00136131 -0.000351151 0.0129412 
-0.000801611 0.00228379 0.0183794 
-0.00097279 -0.000200976 0.0150251 
-0.00132747 7.93084e-05 0.0176453 
-0.000589989 0.000407138 0.015248 
-0.000402085 -0.000139434 0.0159207 
0.000126693 -0.000620553 0.01776 
0.000891729 -0.00130163 0.0162343 
0.00102298 -0.000481907 0.0168211 
0.00042168 -0.00177144 0.0157536 
0.0208636 0.00380655 0.032673 
-0.0271883 -0.00179784 0.0318606 
0.047222 -0.00434955 0.106213 
-0.0127064 0.00748057 0.0391324 
0.00143673 2.83692e-05 0.017242 
0.00104009 0.000700204 0.0165192 
0.00119094 0.000181425 0.0160688 
0.000682552 0.000206696 0.0171641 
0.000141711 2.07927e-05 0.000199937 
-1.9198e-05 0.000111317 0.000160694 
-2.02617e-05 -0.000284223 0.0111498 
0.000441587 0.000257951 0.0094599 
0.00253247 0.000624775 0.0164985 
-0.000326876 0.00127047 0.0133375 
-0.000520317 -0.00189564 0.0138713 
0.00242705 -0.00325732 0.0177595 
-0.00101508 -0.000249641 0.0165283 
-0.00267362 -0.000691916 0.0157425 
-0.00186883 0.000211451 0.0172058 
-0.00210898 0.000372765 0.0170335 
7.31241e-05 3.08274e-05 0.000185322 
-1.52713e-05 2.9755e-05 0.00675231 
2.4371e-05 7.62828e-05 0.00570302 
9.38269e-05 0.000217993 0.0091942 
0.00017657 0.000656011 0.0122729 
-0.000204171 0.00125679 0.0162844 
0.000319049 0.000397001 0.014428 
0.000507615 -0.000330793 0.00920707 
-0.000322619 0.000563433 0.0128839 
-0.000865038 -0.000137244 0.0171822 
-0.00015596 -3.71132e-05 0.0141729 
-0.000274528 8.86782e-05 0.0137027 
-0.00516683 0.018619 0.0276975 
-0.00724599 0.0108041 -0.00810763 
0.00826999 -0.00977787 -0.0232462 
-0.00997024 0.0299436 0.0773436 
0.000682696 0.000238465 0.000126838 
7.97802e-05 0.000278746 -0.000224943 
0.00043189 -0.00105665 0.00137591 
0.000601437 -0.000784879 -0.000212036 
-3.88447e-05 -1.65111e-05 -0.000287907 
0.000119624 5.37134e-05 0.000316591 
-0.000146366 -6.6968e-05 -0.000139498 
-0.00115337 5.53933e-05 0.0102172 
-0.00487528 -0.00259501 0.0119948 
-0.000939784 -2.79511e-05 -0.00161315 
-0.0017256 -0.00157149 -0.00145889 
-0.0153219 -0.0020868 0.022261 
-0.000407662 0.00121903 0.0155373 
-0.00228544 -0.000847801 0.00749634 
-0.00151037 0.0015273 0.0152825 
0.000164379 0.000444793 0.0144727 
-0.00187344 -0.00497696 0.0143086 
-0.0013301 0.00994295 0.0158221 
-0.00126325 0.00127359 0.0153827 
0.00118669 0.00236217 0.0150549 
0.000271178 -0.000261112 0.000213688 
4.11414e-05 -3.92587e-05 -0.000558949 
4.67283e-06 -4.83022e-06 0.000553824 
-0.00132778 6.96503e-05 0.00138227 
4.72441e-05 0.000207551 0 
0.000210446 7.51094e-05 0 
0.000161864 -0.000150791 0 
-0.00215019 0.000774559 -4.73407e-05 
-2.8711e-05 -6.37048e-05 0.000155885 
0.000256505 1.10779e-05 0.0111453 
-5.84227e-05 -0.000113979 0.000249692 
0.000230532 -1.29541e-05 0.00745023 
0.000874017 -0.00400986 0.0161651 
-0.000858797 -0.00926325 0.0130264 
-9.43797e-05 -0.00732067 0.0195666 
0.00124602 -0.00641265 0.00639409 
2.16807e-07 3.9422e-06 -0.000107359 
5.65918e-05 -6.31817e-05 0.000676043 
0.000387474 -0.000244667 -0.00030936 
-0.00212307 0.000326109 0.000905648 
-0.0372108 -0.0258896 0 
0.0479671 0.0735231 0 
0.0096444 0.0362928 0 
-0.0390017 -0.0243688 0.137947 
0.00415407 -0.000502213 -0.00279859 
-0.0238113 -0.00260118 0.0209545 
-0.0128796 0.000137248 0.0112083 
-0.000560508 0.000345508 -0.00436593 
9.27417e-06 -4.3422e-05 5.05637e-05 
-3.00152e-05 3.19444e-05 0.0110773 
2.24165e-06 -1.14719e-05 0.000106776 
-7.31306e-05 3.65436e-05 0.0075018 
-0.000501143 0.000136569 0.000164334 
0.000390786 -0.000134319 -0.000810268 
0.00046011 -0.000299337 -0.000354722 
-0.000515775 -0.000237179 0.000137736 
-0.00089536 -0.000165572 0.0172404 
-0.00126883 0.000136702 0.0162735 
-0.000453988 0.000214868 0.0150303 
-0.000175063 0.000372657 0.0138576 
0.0024172 -0.0010318 0.0167512 
0.00390318 -0.00261104 0.0133613 
0.00181918 0.00279067 0.0173554 
0.0051777 0.00122611 0.0153266 
0.000262952 0.00254737 -0.000842206 
0.000182582 0.00242372 0.000277948 
-0.000936224 -0.00360319 0.000923159 
-6.57472e-05 -0.00263907 0.00105012 
-0.000336233 0.0178312 0.038608 
-0.00112631 0.00533759 0.0177523 
0.00190684 -0.00428286 0.0244198 
-0.00349182 0.00196531 0.0258599 
-0.000123121 -0.000622829 -0.00247744 
-0.001826 0.00292639 0.0034446 
-0.00226257 0.00420425 0.00930069 
-0.000748399 0.00192034 0.00540261 
0.00031729 -0.000864554 0.0140529 
0.0011218 0.000345022 0.0100825 
0.00130129 0.000221438 0.00963363 
0.000129554 -0.000399961 0.0077784 
-0.000584659 -0.0102055 0.0161404 
0.00111948 -0.00420678 0.019657 
0.000283019 -0.00281582 0.0173045 
-0.000369185 -0.00790586 0.0258461 
0.000196091 -0.000254883 0.0138012 
0.000789643 -0.00155665 0.0160096 
-0.000152547 -0.000596924 0.0144255 
0.000555879 0.000645223 0.0139158 
-0.00250201 0.00564314 -0.00566926 
-0.00300371 -0.0100675 0.0112297 
-0.00427518 0.00296911 -0.00172766 
-0.0022486 -0.00412132 0.00711791 
0.000525234 0.0013948 0 
0.000143183 0.0010139 0 
0.000128692 -0.00293963 0 
0.00203567 -0.000450768 0.00105621 
-7.01835e-05 -4.81201e-05 -0.000494438 
2.87558e-05 1.97546e-05 2.08976e-05 
-0.000298088 -0.000204883 0.000267468 
-0.000293386 -2.37441e-05 0.00769341 
2.72824e-05 -6.27844e-05 -0.000115013 
-7.66402e-05 0.000174076 0.000287707 
4.25875e-05 -8.62493e-05 1.76871e-06 
0.000261947 -0.00113473 0.0102647 
-0.000333323 -0.00300315 0.015654 
-0.000847493 -0.00358072 0.00973441 
-0.0034893 0.000181799 0.0136115 
-0.000682946 -0.004635 0.0126234 
-0.00379513 0.00154327 -0.00168535 
0.00710113 -4.12338e-05 0.0012367 
-0.00349358 0.00113842 0.0016828 
0.00356294 0.000744731 0.00397523 
0.000115429 9.10142e-06 4.89067e-05 
9.12313e-07 1.47575e-06 0.000144005 
-1.92558e-05 -1.53088e-06 -9.44606e-06 
-4.56271e-05 8.53976e-05 0.0111556 
-0.00198976 0.000902167 -0.000657258 
0.00258416 -0.00122205 0.00128308 
-0.00141856 0.000516819 0.000222756 
0.0014344 -0.000847786 0.000571037 
-0.000118226 -0.00277498 0.0149241 
-0.00295743 -0.000866298 0.014085 
-0.00256061 -0.000704382 0.016346 
-0.00106045 -0.00419758 0.0127204 
1.853e-05 8.99168e-06 0.00607375 
-0.000191302 -3.35238e-05 0.00954182 
-3.3834e-05 -2.46343e-05 0.000169943 
-0.000109833 -3.79829e-05 0.0088558 
0.00054328 -0.000440803 0.0142092 
0.00120004 -0.000150391 0.00909815 
0.00037849 -0.000127903 0.00939448 
0.000164022 -0.000198404 0.00815246 
-0.00367468 -0.00147018 0.0071251 
-0.00136885 -0.00319757 0.00242264 
-0.00364873 -0.000241605 0.00117369 
-0.00763502 -0.00110942 0.00944453 
-4.10062e-05 -8.40652e-05 0.00683248 
-5.65076e-05 0.000215248 0.00030108 
6.15684e-05 6.33474e-05 0.00561725 
-0.000190213 -5.49977e-05 0.00978638 
0.000156004 0.000282912 0.0124369 
-0.00179266 0.000133244 0.0121326 
-0.000570618 0.00109145 0.0155724 
-0.000469758 0.000275982 0.00908828 
2.6522e-05 -0.000145943 -0.00159643 
1.21396e-05 7.90874e-05 -0.00184479 
4.71495e-05 -0.000602558 -0.000217873 
0.00171968 0.00263973 0.00763868 
-0.000645154 -0.000911717 0.000909751 
-0.000860112 0.00034522 -0.000405889 
0.00105659 0.000266819 0.000105698 
0.00222594 0.00230779 -0.000321439 
-0.000572521 -0.00170971 -0.000653207 
-0.00232608 0.000225107 -0.00191587 
0.00403545 0.0027061 0.00248452 
0.00522013 -0.000513638 0.00215299 
-0.000345879 -0.00135092 0.0106681 
-0.00086985 -0.00245126 0.00475155 
-0.000246735 -0.00180933 0.0122366 
0.000339367 -0.00195204 0.0174924 
1.99805e-05 1.29694e-05 0.010855 
0.00049049 7.36804e-05 0.0149815 
0.000342915 -4.33422e-05 0.0114726 
0.000374316 -0.000143108 0.0134813 
3.65224e-05 -2.08085e-05 1.01763e-05 
-7.3466e-06 5.22328e-06 5.19304e-05 
-1.70924e-05 1.09316e-05 5.73127e-05 
0.000330191 -8.68042e-05 0.00828842 
0.00337738 0.000577854 0.0220048 
-0.00315735 -0.000392098 0.0115048 
-0.00502404 -0.00449817 0.0178774 
-0.00902578 -0.00210332 0.0290602 
-0.000301133 -8.22909e-05 0.00054862 
-7.77384e-05 -2.09734e-05 3.0177e-05 
0.000372379 0.000102337 -0.000916103 
0.00264479 -0.000878178 0.0105294 
0.00315721 -0.000135604 0.0112384 
0.00164943 -4.79184e-05 0.00679431 
-6.93433e-05 0.000870292 0.0148218 
0.00149245 0.000174873 0.0140929 
1.05592e-05 -2.12925e-05 9.25909e-06 
-5.0873e-05 0.000118943 0.000266651 
7.5177e-06 -2.18509e-05 -0.000120737 
-0.000101137 0.00021869 0.00815628 
4.6597e-05 0.000103381 0.0173424 
0.000151966 -0.000513697 0.017689 
1.1885e-06 -4.02776e-05 0.0158957 
-7.85629e-05 -0.000641278 0.0142951 
0.00844855 -0.000759357 0.0124375 
0.0166048 0.00359746 0.0346935 
0.00752913 -0.00341003 -0.00637789 
0.014432 0.0028722 0.0220379 
-0.000205728 0.000198326 -7.4873e-05 
4.5081e-05 -4.25296e-05 0.000202924 
3.69612e-05 -3.88976e-05 -0.000642025 
-0.000802118 -5.00159e-05 0.00606374 
6.06141e-05 1.6654e-05 0.0165679 
4.1033e-05 -1.98169e-05 0.0172902 
-3.62235e-05 2.05533e-05 0.0182088 
-0.00010359 0.000754774 0.0184542 
0.000105575 -0.00019145 0.0135087 
-0.000387984 0.000336237 0.00934987 
0.000975296 0.00039207 0.0147175 
0.000638965 0.000285219 0.0134941 
0.000378075 0.000904023 0.0128007 
-0.00136218 -0.000203822 0.0162188 
0.000281452 -0.000547447 0.0138533 
-0.00212965 0.000936644 0.0170116 
0.000523688 0.000229868 -0.000447602 
0.000299334 -0.000601472 0.00131744 
0.000196046 8.91837e-05 -9.10657e-05 
-9.46475e-05 -2.11659e-05 0.000783669 
-0.0011084 -0.000378406 0.0170672 
9.9751e-05 3.62262e-05 0.0140915 
-0.00136379 -0.000655831 0.0157024 
-0.00192281 0.000444749 0.0169362 
0.000653328 0.000259981 0.0118003 
-0.000184033 0.000410643 0.00945827 
0.00052104 0.000139256 0.0153098 
0.000728514 -0.000126104 0.0150113 
-0.000855131 -0.000530852 0 
0.000307211 1.5488e-05 0 
-0.000548976 2.72227e-05 0 
-0.000671259 0.00126522 0.00110891 
0.000344842 -0.000321989 0.0116923 
0.000475091 -4.18342e-05 0.0134498 
0.000133997 -0.00017302 0.00935671 
-1.62023e-05 -0.000205847 0.0079733 
-2.31389e-05 -0.00010755 0.00606342 
-8.07762e-05 -2.49176e-06 0.000149933 
5.99556e-06 1.3304e-05 0.00557653 
2.65279e-05 -5.70011e-05 0.00879942 
-4.26009e-07 1.7876e-06 0.000295989 
0.000123536 0.0001209 3.44287e-05 
9.25634e-07 2.12705e-07 -9.28486e-05 
0.000298984 8.19182e-06 0.00766042 
2.66109e-05 -9.81751e-06 0.00647438 
-4.35214e-05 -3.25094e-05 0.0103551 
2.48498e-05 3.01867e-05 0.00523589 
-2.74894e-05 0.000176197 0.00790527 
-0.00279927 0.00186051 0.00846469 
-0.00170447 0.000760293 0.000435738 
-7.57252e-05 0.00184483 0.00912126 
-0.00263048 -0.000475478 0.00422506 
-0.000137031 0.000336728 0.00927654 
-0.000222672 0.000593274 0.0122507 
0.000189726 0.000317477 0.00795575 
-0.000277014 7.29318e-05 0.0138511 
8.77096e-05 -8.61939e-05 9.16119e-05 
-2.03248e-05 2.00279e-05 -0.000115178 
2.08742e-05 -2.05496e-05 8.4221e-05 
-0.000252856 0.000166045 0.00978678 
0.00163307 -0.00167125 0.0215707 
0.00216003 -0.00142817 0.0133419 
-0.00063677 -0.00105941 0.00919707 
0.000405938 0.000248293 0.0100971 
6.20614e-05 3.94448e-06 0.0129759 
-0.000409377 0.00011824 0.014811 
0.000152601 9.34709e-05 0.010055 
-0.000251514 8.37586e-05 0.0137252 
0.00705421 0.000492717 0.0133651 
0.00370967 0.00178134 0.010225 
0.00284764 0.000262632 0.0177728 
0.00305431 -1.98527e-05 0.0175198 
-0.00212572 -0.00108776 -0.000493487 
0.00383657 0.0013464 0.00104735 
-0.00202687 -0.000818347 0.000454366 
0.00499995 0.00152755 0.000323112 
-0.00847597 -0.016434 0.000469313 
-0.00111109 -0.000497091 0.0201408 
-1.13041e-05 0.00450461 0.0374979 
0.00458265 -0.00855157 0.0421007 
-0.000250427 -0.00440024 0.0171253 
-0.000137819 -0.00293065 0.00926669 
0.000479524 -0.00906988 0.0109812 
0.00162444 -0.00574797 0.00784493 
0.000898751 0.000157692 0.0155694 
0.000386282 0.000268748 0.0141187 
0.00203927 0.000139491 0.016863 
0.00167338 -0.00183736 0.0166564 
0.000469388 0.000606333 0.017651 
-7.26614e-05 0.000830282 0.0180164 
-5.62757e-06 -2.50279e-05 0.019075 
-1.2035e-05 0.000195207 0.0183033 
0.00322285 -0.00153893 0.00858897 
0.00501564 6.87581e-05 0.00172105 
0.0046689 -0.00167922 0.002523 
0.00891743 -0.000343174 0.0127856 
-0.00024136 0.00184034 0.0165929 
0.000902761 0.00386976 0.0187924 
0.00054089 0.0060096 0.0195854 
-0.000648504 0.00080323 0.0178705 
-4.32569e-05 -7.43617e-05 0.0170308 
-1.88811e-05 4.01769e-05 0.0185517 
2.55321e-05 5.26551e-05 0.0172985 
-0.000334593 0.000594277 0.0170179 
0.00091281 0.0004592 -0.00102096 
-0.00174203 -0.000923095 0.00161849 
0.000951871 0.00090343 -0.00150692 
-0.00179743 -0.000760366 0.00172329 
1.11665e-05 -1.80236e-05 0.0152882 
9.20162e-06 -3.6625e-05 0.0147435 
-3.46249e-05 6.57704e-05 0.0111722 
0.000162094 -0.000289554 0.01349 
4.48678e-05 3.60877e-05 0.00558162 
-6.02336e-05 4.50317e-05 0.000347105 
-0.000413921 0.00020398 0.00886822 
-0.00019714 0.000110388 0.0097135 
0.000608885 0.000781501 0 
-0.000635517 0.00121286 0 
-0.000574198 0.000681692 0 
0.00593207 -0.00218294 0.000133167 
-0.000891443 -0.000448414 0.015203 
0.00106167 0.00112299 0.0114524 
-0.0018815 0.000596627 0.0180883 
0.000219995 -0.000608657 0.0178364 
0.0110602 -0.0060252 -0.0100954 
-0.0178112 -0.0140589 0.0174761 
-0.0164107 -0.0126046 0.0420516 
-0.00224145 0.00265968 -0.00565286 
0.03561 0.0446835 0 
0.00549677 0.0267113 0 
-0.0195062 -0.0170004 0 
-0.0163186 0.000205373 0.103009 
-0.000229201 -0.000204724 0 
0.000475991 -0.000820802 0 
0.000198829 9.56874e-05 0 
0.000791156 0.000121804 -0.00041225 
-0.00270697 -0.00102284 0.00627704 
-0.0092852 0.00110936 0.00904154 
-0.00359245 0.00144633 0.0016988 
-0.00567243 0.00126133 0.010398 
8.10547e-05 4.53395e-05 0.0169364 
4.52342e-05 0.000771599 0.0177604 
-5.3135e-05 -6.42757e-05 0.0137746 
-0.000197478 0.000628365 0.0140342 
-0.00026274 -0.00161765 -0.000490908 
-0.0137534 -0.00112663 0.019158 
0.00258452 -0.00138815 -0.00904524 
-0.00441133 -0.00475855 0.00880791 
-0.000172601 0.000583972 -0.000518885 
0.00120337 -0.00193642 0.00693068 
-0.000433349 0.000699801 -0.000144156 
0.000943852 -0.00189293 0.00531985 
0.00505847 0.00211467 0 
0.0036115 -0.00107903 0 
-0.00206528 -0.000491716 0 
-0.0124219 0.000441832 0.004664 
0.00175861 0.00278212 0.0155281 
0.00111244 0.00553239 0.0101389 
0.00274465 0.00184498 0.00996769 
0.00421887 0.00267105 0.0133892 
0.000414176 -0.000111585 0.000181041 
-0.000905804 0.000246311 -0.000961452 
-0.000236467 6.28815e-05 0.00010194 
-0.00198062 -0.00100128 0.0120297 
-0.000160266 -0.000232019 -0.000876439 
3.34522e-05 0.00128992 0.00169153 
-0.000222291 2.42865e-05 0.000688281 
0.000829133 0.00206474 0.00153107 
0.000207107 -0.000138581 0.00053056 
0.000192398 -0.000131593 -5.21382e-05 
-0.000189871 0.000129418 -3.3858e-05 
-0.00136935 0.000542005 0.00709464 
-0.0113996 -0.00126421 0.0109847 
-0.00113923 -0.00828575 0.0274574 
-0.00892457 -0.0171347 0.0492845 
-0.00471834 0.00192541 0.0057004 
0.00118232 -0.000261094 -0.00151712 
-0.00202138 0.000231093 0.00155253 
0.00105993 -0.000466926 -0.000699454 
-0.00328021 0.00114448 0.00224583 
-0.00110699 -0.00163404 0.012313 
-0.000212842 0.000167606 0.00907678 
-0.000683368 -0.00159261 0.00612657 
-9.95689e-05 8.11955e-06 0.0151037 
1.3498e-05 -0.000128172 0.016717 
0.000273788 0.000439119 0.0146818 
-2.90038e-05 0.000145162 0.0157525 
0.0005067 0.000104856 0.0175217 
0.00312526 0.000185958 0.0166952 
0.00175028 0.00263147 0.0140711 
0.000728564 0.00119111 0.0170405 
0.00366146 -0.00027078 0.0166405 
-0.000321439 0.000456093 0.0126335 
-0.000447111 0.000180142 0.0150224 
-0.00118704 0.000678044 0.0169133 
-0.00020553 -7.67573e-05 0.0134288 
5.17834e-05 4.63082e-05 0.0114442 
-9.96135e-08 -2.46112e-05 0.0100443 
-7.03689e-05 -5.07849e-05 0.00590438 
-0.0001508 0.000139203 0.00962994 
3.77737e-06 1.80303e-06 0.0173204 
-6.24153e-05 1.00993e-05 0.0160925 
-0.000245337 -0.000277685 0.0163307 
-0.000274107 -0.000100163 0.0181282 
0.00102586 5.21414e-05 0.0151673 
0.000814086 5.96869e-05 0.0166523 
0.00152891 0.000311646 0.01722 
0.000192437 -0.000188179 0.0150563 
-0.00335197 0.00704199 0.00789702 
-0.00207108 0.00964777 0.0361695 
-0.00108881 7.68905e-06 0.024233 
0.0038526 0.0112598 0.00408057 
-0.000338072 0.000887465 0.0122006 
0.000438365 0.000946576 0.00723789 
-9.29955e-05 -0.000548981 0.0148398 
-4.00404e-05 0.00130488 0.0119094 
-0.00746303 0.00964327 -0.00811353 
0.0223249 -0.0185391 0.0248173 
0.00306824 0.000816554 -0.00476304 
0.00397747 0.00347933 0.00723462 
0.000326108 -0.00136444 0.0066858 
0.00332482 -0.00915719 0.00603252 
-0.00051816 -0.00125685 0.00444286 
0.0131729 -0.0118798 0.0255428 
0.00521984 0.000589084 0 
-3.94041e-05 0.00533339 0 
-0.011786 -0.00451925 0 
-0.0149253 -0.00818091 0.0153864 
-0.000521453 0.00148428 0.0164393 
-0.000628909 -0.000871407 0.0134117 
-0.000175133 -0.00171544 0.0132734 
0.00185237 0.001128 0.0140214 
0.000350639 -0.000144836 -0.000220027 
0.000499794 -0.000719971 0.000978721 
-0.00142058 0.00329832 0.00689241 
-0.00113505 0.000422543 0.00848404 
0.00018868 -0.000872142 0.0112085 
0.000971933 -0.000240092 0.016287 
0.00109085 -0.000229762 0.0156714 
0.000316317 -0.000135413 0.012888 
-6.97516e-06 0.000178895 0.000195742 
-0.000335989 -0.000105614 0.00957432 
0.000117 -1.27954e-05 0.000129016 
-8.81818e-05 -0.000157134 0.00882919 
0.000462538 1.59081e-06 -0.00110129 
-0.00188869 4.36211e-05 0.00141214 
-0.00240426 0.00132135 0.0022258 
-0.000288848 0.000333655 0.000595481 
-0.00106269 0.0059719 0.00993145 
-0.00308047 -0.00033913 0.00202105 
0.000223952 0.0061578 0.00319372 
-0.00123679 0.00614794 0.00446497 
9.17855e-05 -1.1762e-05 6.40762e-05 
0.000289433 0.000229062 0.000227919 
3.79972e-05 0.000244627 0.00898908 
-0.00018055 7.73376e-05 0.00791305 
5.21177e-05 2.46933e-05 0.000107163 
-0.000114953 -4.89466e-05 0.000142088 
7.7295e-05 3.46726e-05 2.52123e-05 
0.000440952 9.86672e-05 0.00913965 
0.000606678 -0.000164439 0.0158223 
0.000189126 -0.000166545 0.00939394 
0.000191411 -0.00114484 0.0105459 
0.00045903 0.000112007 0.0134915 
-0.00169143 0.00908623 0.0187821 
-0.000938581 0.00525611 0.0171954 
0.00149357 0.0190099 0.0365673 
-0.00503308 -0.000257278 0.0254675 
-1.55176e-05 1.69032e-05 0.000106839 
9.06159e-06 -8.81764e-06 1.52067e-05 
1.67916e-05 -1.5639e-05 7.98027e-05 
-0.000168727 3.20435e-05 0.00989443 
0.000236171 -9.73222e-06 -0.000291411 
0.000318092 -0.000647056 0.00123495 
-0.000187312 0.000182745 -0.000373863 
-0.000173748 0.000160918 0.000959133 
2.61596e-05 9.99292e-05 0.000129791 
-3.93253e-05 6.88078e-06 0.000126734 
-4.59634e-05 -1.77225e-05 0.00463549 
-7.05299e-05 6.41768e-06 0.00669086 
-0.0631643 0.00173717 0.0565176 
0.000205713 0.00611194 0.0944547 
-0.0445445 -0.00228128 0.0235562 
0.0121489 0.00295882 -0.0293252 
-0.000815134 0.00134839 0.0233075 
0.000466851 0.00585989 0.0197714 
0.00214714 0.00319096 0.0192194 
-0.000895742 0.00172157 0.0169141 
-0.000956507 -0.00023418 0.0165942 
-0.00155582 -0.00063717 0.0159589 
-0.00276718 -0.000844906 0.015212 
-0.00222476 0.000473875 0.0173397 
-3.8755e-05 2.17549e-05 0.0185651 
0.000254543 -0.000516411 0.0173072 
2.69451e-05 -1.04024e-05 0.0175453 
0.000382129 -8.838e-05 0.018275 
0.000574134 -0.000524313 0 
0.000224907 -0.000413665 0 
-0.000135252 0.000634401 0 
0.00424284 0.000674537 0.00229125 
0.000581957 0.00958001 0.0209659 
0.000949848 0.0146531 0.0268761 
0.000699277 0.00580112 0.0191781 
-0.000175758 0.00776051 0.00885511 
0.000763156 0.000189738 0.0149925 
0.00029811 0.000427121 0.0138358 
0.000124047 0.000260531 0.00880705 
0.000338458 0.000956787 0.00775756 
0.00560288 0.00137204 0.0217071 
0.00391155 -0.000109514 0.0171004 
0.00294626 0.000512308 0.015901 
0.00502269 -0.000438369 0.0152026 
9.42454e-06 -2.55929e-05 0.0128834 
-0.000169897 0.000176604 0.00900513 
-8.45174e-07 1.08849e-05 0.00977851 
-0.000237625 0.000203331 0.0151348 
-4.31672e-05 7.00791e-06 -0.000446545 
0.000127322 -7.05483e-05 -0.000242796 
1.48963e-05 -1.54675e-06 0.000181353 
0.0015657 0.000351013 0.00813772 
0.000388286 0.000394476 0.00061623 
0.00187096 -0.00159204 0.00964905 
0.000822076 0.00498138 -0.00473403 
0.00395145 -0.0078951 0.00301135 
-4.68796e-05 5.10831e-05 0.00587793 
-6.01105e-06 9.30534e-05 0.000186738 
-2.60034e-05 -1.91233e-05 0.00670413 
-0.000242706 5.50094e-06 0.00977772 
0.000433897 -0.000118938 0.01443 
0.000182882 -0.00163422 0.0165125 
0.00147482 -0.00291889 0.0177833 
0.000398225 -0.00101285 0.0155581 
0.0001204 0.000209735 -2.52475e-05 
8.06317e-05 0.000121554 -0.000607799 
-5.53588e-05 -9.38888e-05 9.11628e-05 
-0.000323035 -0.00164086 0.00239309 
-0.00105495 0.00277436 0 
0.00044152 0.000120352 0 
0.00150196 0.00564335 0 
-0.00504818 -0.0202711 0.00551618 
0.00291318 0.000351308 0.0165067 
-0.00125913 -0.00269957 0.0134239 
0.0021824 0.000694797 0.0165673 
0.00339875 -0.00348732 0.0179317 
-0.00012836 4.35484e-05 0.0188216 
-2.71148e-05 2.18394e-06 0.0183382 
0.000623095 0.00048473 0.0179 
0.000410164 4.58283e-05 0.0181648 
0.00584878 0.00903934 0.0599003 
-0.00562273 0.00357649 0.0211705 
-0.0020702 -0.000903938 0.0149735 
0.00148353 -0.00758246 0.0472705 
-0.000420743 0.000163804 0 
7.67629e-05 -0.000212393 0 
-6.61952e-05 0.000109857 0 
0.001893 1.82229e-05 0.000297977 
0.00514553 -0.00792897 0.0171474 
-0.0169815 -0.00414758 0.0358866 
-0.0116102 -0.000695026 0.00912409 
0.0039842 -0.00851721 0.00422735 
0.000169859 -8.49669e-05 0.0115617 
0.000860287 -0.000408858 0.0163028 
0.000190526 -0.000824728 0.010893 
0.000409095 -2.90513e-05 0.0131142 
-9.57729e-05 -0.000667466 0.0177691 
1.00383e-06 -0.000788868 0.0167285 
-1.7967e-05 1.34238e-05 0.0179877 
0.000191385 -0.000611178 0.0173134 
4.37312e-06 2.82634e-05 0.0108111 
0.000374444 -0.000142896 0.0135521 
0.000331344 -3.21256e-05 0.0114148 
7.08766e-05 -0.000173953 0.00793816 
1.92048e-05 -1.10722e-05 0.00728933 
6.3791e-05 6.11902e-05 8.15972e-05 
-1.64699e-05 7.78362e-05 0.00917736 
1.98326e-05 0.000134147 0.00907517 
0.00456032 0.00143982 0.0037891 
0.00465794 0.000363503 0.00121795 
0.00818554 6.8987e-05 0.014998 
0.0144881 0.000482635 0.0122792 
-6.33313e-05 7.7949e-05 0.00687141 
0.000142755 -0.000232402 0.0103563 
-5.74369e-05 -2.77002e-05 0.00925498 
6.31211e-05 -0.000110696 0.00738554 
0.000437788 0.000106069 0.0115374 
-0.000846224 -0.000697965 0.012208 
0.000175981 -0.00190153 0.0102201 
0.000379848 -0.000111693 0.0167508 
-0.00727706 -0.00114139 0.012414 
0.00131897 -0.00156996 0.0156231 
0.00236534 -0.000383477 0.0102474 
0.00298466 0.00443643 0.0145631 
0.000197494 0.000296182 -0.000248408 
-0.000496855 0.00122941 0.0116342 
-0.000168548 -0.000122311 1.60358e-05 
0.000166432 0.000838778 0.00749274 
-0.00101201 -0.000286248 0.013031 
-0.000141756 -0.000333882 0.0105801 
-0.00013186 0.000401013 0.0115312 
-0.000113818 0.000744785 0.0178268 
7.83796e-05 -0.000205831 0.0106687 
-0.000161453 0.000744792 0.0161349 
4.62469e-05 -1.17384e-05 0.0138802 
-0.000107022 0.000561647 0.0141282 
0.000861711 0.00065005 0.0143935 
-0.000295659 0.000484407 0.0122719 
0.000144874 2.53086e-05 0.00889375 
0.000759402 6.11528e-05 0.0111699 
-0.00439055 -0.0152879 0.0111007 
0.00436666 -0.0133464 0.0320069 
0.00165956 -0.00160508 0.0215369 
0.00181549 -0.00791212 0.0269283 
-0.000543532 0.00110665 -0.000190351 
0.00108654 -0.00325212 0.00274386 
1.08334e-06 0.000578168 0.000105834 
0.000656258 -0.00225853 0.00401757 
-0.00134601 0.00464468 -0.00303162 
0.00333576 -0.00318358 0.00467432 
0.00016126 0.0015878 -0.00275373 
0.00422877 -0.00674075 0.00513008 
0.000219229 0.00322585 0.0104707 
-0.000872642 0.00387054 0.0156848 
0.000171089 0.00600633 0.0171103 
-1.06957e-05 0.00197945 0.0161122 
-7.06631e-05 -6.93751e-05 0.000164029 
-2.33917e-05 -2.2979e-05 3.20527e-06 
1.89227e-06 1.82174e-06 -0.000138849 
0.000266104 0.000214261 0.00891482 
-0.000166923 -0.00112898 0 
-0.000189207 -0.000546903 0 
-0.000538362 0.00126473 0 
-0.00162308 0.00243264 0.000929424 
1.28969e-06 -7.38859e-05 0.000291602 
8.50311e-05 0.000177176 0.0108748 
4.71033e-05 -5.87697e-05 0.000225333 
0.000229648 -7.90811e-05 0.0074846 
-0.00246002 3.86167e-05 -0.00473684 
-0.00068704 0.00184108 0.000932745 
0.00456321 0.00193428 0.00666913 
0.00420238 0.000307467 0.00263167 
-0.000159189 -9.73914e-05 0.0145005 
0.000196656 0.000341432 0.00799171 
-0.000168218 0.000620673 0.0121917 
-0.000238087 6.31097e-05 0.0137464 
-9.98286e-06 1.69976e-05 -0.000336657 
4.46483e-06 -7.47377e-06 0.000137156 
0.000144457 -0.000200546 0.000126445 
-0.000219811 -0.000232155 0.00984801 
-3.30775e-05 4.9768e-05 0.000115955 
-4.18721e-05 6.11776e-05 7.44493e-05 
3.01994e-05 -4.50976e-05 -9.23673e-05 
0.000150344 -0.00024223 0.009521 
-0.000397126 0.000218626 0.00102385 
0.000415027 -0.000213829 -0.000494965 
0.000170207 -0.000132784 -0.00197267 
-0.00353103 -0.000429098 0.00680951 
0.00106598 0.00406459 -0.00289007 
-0.00390786 -0.0143433 0.00920871 
0.000540806 0.00342628 -0.00336128 
-0.0045472 -0.00465642 0.00553476 
-0.00205277 0.00157053 0.00226426 
-0.00339262 -0.000538616 0.00119123 
-0.00411535 -0.000577869 0.00602113 
0.000442844 0.00045869 0.000721386 
0.00918303 0.00591484 -0.0199378 
0.0170135 -0.00239962 0.0392083 
0.0325064 0.0003058 0.00823034 
0.00546414 -0.00258714 0.0398609 
3.60707e-05 1.15169e-05 0.00738026 
-6.06511e-05 8.72849e-05 0.00897068 
-0.000174442 -1.2243e-05 0.0131177 
4.31501e-06 0.000150938 0.00900877 
0.00129541 0.0024266 0.014203 
0.000219014 0.0033044 0.0110576 
0.000144767 0.00567398 0.0165443 
-6.81503e-06 0.00203586 0.0162496 
1.1221e-05 2.34262e-05 0.000303249 
-1.89183e-05 -3.83568e-05 -0.000250966 
2.25879e-05 4.57522e-05 0.000289451 
0.000157213 -0.000909482 0.00490495 
1.62964e-05 -1.70116e-05 0.000125948 
-2.12797e-05 2.21654e-05 -8.73269e-05 
7.54691e-05 -7.84427e-05 4.12692e-05 
-3.15957e-05 0.000142766 0.00794348 
-0.0143404 0.00291327 0.0143661 
-0.00182452 -0.00487077 0.0453054 
0.00574852 -0.016788 0.0406159 
-0.000354598 -0.00661786 0.0285564 
4.8907e-05 -5.97533e-05 0.0182532 
-5.43739e-05 5.12295e-05 0.0180331 
0.000528636 0.000582992 0.0180855 
0.000614747 0.000240837 0.0171957 
0.000253101 0.00119016 0 
-0.0011044 0.000552366 0 
0.000102886 0.000501413 0 
0.00298721 -0.0038486 -2.54628e-05 
0.0040739 0.00124091 0.00659159 
0.00255206 0.000655275 0.00257697 
-3.99969e-05 0.00168462 0.000952648 
0.000932659 0.00125762 0.00568266 
-0.00090742 0.00289452 0.00028832 
-0.0064386 0.0246467 0.0378901 
-0.00361801 0.00614505 0.00793989 
0.00728038 0.00511891 0.00292283 
-0.000807107 -0.000483764 -0.000449703 
0.000728999 9.69597e-05 -0.000174352 
-0.000604076 0.000960168 -0.000889214 
-0.000874489 -0.00661667 0.00638348 
0.00163971 -0.00163234 0.0222727 
0.00451831 -0.0131316 0.0257741 
-0.000867579 -0.0118716 0.0150737 
-0.00149671 -0.00497053 0.0109244 
-3.69466e-05 -0.00019191 0 
6.15414e-05 0.000265797 0 
-0.0006202 0.000183173 0 
0.00180976 0.000225674 0.000311386 
0.00172428 -0.00540992 0.015318 
0.00291979 -0.00440809 0.00269852 
0.00185905 -0.00925415 0.0146221 
-0.00180283 -0.0014378 0.0159031 
0.00497893 -0.00231859 0.0075595 
0.00831477 -0.000546692 0.015099 
0.00930436 0.00150432 0.0208059 
0.00417608 0.000258992 0.015764 
-6.6304e-05 -2.54707e-05 0.000505767 
5.86495e-05 2.49137e-05 -0.000254369 
-0.000214414 -9.40024e-05 0.000693361 
-0.00173316 0.000243161 0.0029155 
-0.000688687 0.000426725 -0.00280646 
0.0041602 -0.00230414 0.00468633 
-0.000188334 0.000756237 0.000198232 
0.00346183 -0.00335324 0.00578574 
-0.000234368 -7.03999e-05 0 
-0.000817011 0.00036134 0 
-0.000197645 0.000135138 0 
0.000482452 0.000144568 2.98314e-05 
0.000133845 -6.3425e-05 6.89567e-05 
1.97272e-05 -3.40281e-05 7.69174e-05 
-3.55552e-05 7.77693e-05 0.00588784 
-0.000330912 0.000133605 0.00993739 
-0.000102775 -0.000228833 0.00063382 
-0.000247813 -1.80034e-05 -0.000433911 
0.000431841 0.00171174 0.00757597 
0.00113863 0.00158806 0.00589734 
-0.000218031 -0.000660686 -0.000200535 
0.000833068 -0.000976578 -0.000225255 
-0.0022623 0.00116807 0.00729108 
-0.00261741 0.00127819 0.00372583 
0.0154757 0.00326547 0.0181252 
-0.00186597 0.00591181 0.0627502 
0.0440618 -0.0112105 0.0837626 
0.00967738 0.0194722 -0.00269181 
1.71035e-05 2.14822e-05 -0.000241252 
0.000107513 0.000150028 0.000185264 
-3.59774e-05 -4.92325e-05 4.83534e-05 
2.76677e-06 0.000175636 0.00797076 
-7.00812e-05 -3.18635e-07 0.0169886 
-0.000312288 0.000544961 0.0171139 
7.29706e-05 -7.58857e-05 0.0151168 
-0.000336395 6.51259e-05 0.0159123 
-0.00403765 0.000123433 0 
-0.00264041 0.000607753 0 
0.00217393 0.00175754 0 
0.00149239 -0.00139274 0.000897266 
0.00345739 -0.00212081 0 
0.0033144 0.00268575 0 
-0.00331546 -0.0020589 0 
-5.45954e-05 0.00426309 0.00241267 
0.00048168 -0.00327072 -0.00366267 
-0.00787089 -0.00246808 0.00773954 
-0.0181136 -0.00899 0.0364815 
-0.00101569 -0.00562822 0.00611942 
0.0058538 0.00350864 0.0100388 
0.00218473 0.000900557 0.0116181 
0.00246517 0.00133976 0.00213333 
-0.000418781 -0.000535025 0.00308981 
-0.00296988 -0.00337038 0.00885955 
-0.000215791 -0.00302712 0.00274604 
-0.000287957 -0.00199126 0.0119342 
-0.00344401 -0.00143709 0.00120208 
0.00107767 -0.00151189 -0.000550222 
0.00254276 0.00679025 0.00919744 
0.00155121 -0.00229625 -0.00441227 
0.000793141 0.00707542 0.00527176 
-0.00252094 -0.00373652 0.0142359 
-0.000369222 -0.00168518 0.00449732 
0.000292875 -0.0013054 0.00998051 
-4.25458e-05 -0.00181848 0.0179661 
0.00129325 -0.00265427 -0.00284689 
-0.0169241 0.00526615 -0.00366507 
-0.0222058 0.00579708 0.029838 
0.000322418 0.00261925 0.0124944 
-0.000481654 -0.000346953 -0.00244508 
0.00382508 0.00228582 0.00622454 
-6.04493e-05 0.000162757 4.88789e-05 
0.00199267 0.00174619 0.00271798 
-2.51887e-05 5.19192e-05 0.000200976 
3.79916e-05 -9.26403e-05 -3.6227e-06 
-2.63259e-05 6.09465e-05 7.03789e-05 
-9.60142e-05 0.000309618 0.00922212 
-4.11003e-05 -5.51962e-06 0.0180402 
-4.30117e-05 1.72963e-06 0.0187588 
6.05641e-05 -6.03768e-05 0.0182082 
0.000501936 0.000599167 0.0181732 
-0.00113341 -0.00292225 0.0153825 
-0.000934629 -0.00455065 0.014568 
-0.00109975 -0.000388613 0.0151538 
0.000261476 -0.00153452 0.0165928 
-6.23424e-05 0.00138147 0.00902218 
-0.000451956 0.00156808 0.00514226 
0.000100702 -7.20233e-05 -0.000449233 
0.000150944 0.000711175 0.0074364 
3.33989e-06 6.34465e-05 0.0157749 
4.01355e-05 2.67125e-05 0.0169076 
-3.98639e-05 -4.37521e-05 0.0138054 
0.000225969 0.000284337 0.0144351 
-0.0110633 -0.0177058 0.0346008 
-0.00188789 -0.00594994 0.0120322 
-0.00219867 0.00228431 0.0189674 
-0.00264549 -0.000279197 0.0108119 
-0.0603833 -0.00578036 0.0426509 
0.00357094 0.0128786 0.0400745 
0.0110644 0.0172775 0.0412143 
-0.0125136 -0.00381562 -0.00335229 
4.46271e-05 0.00115484 0.00947593 
0.000214316 0.000106932 0.00850407 
0.000176441 0.000515145 0.0140297 
0.00029951 0.000848844 0.00757426 
8.90282e-05 -3.568e-05 0.000182999 
1.81441e-05 -3.57585e-05 -1.53198e-05 
-6.19518e-06 9.73987e-05 0.00930334 
-5.58627e-07 8.25631e-05 0.00798954 
9.6442e-06 -6.47014e-05 0.0129718 
3.12604e-05 -7.06748e-07 0.0100122 
1.63542e-05 2.5077e-07 0.0122283 
-0.000120394 0.000193521 0.0137675 
3.32458e-05 -4.48304e-05 0.0179756 
-0.000109764 -0.000614515 0.0178142 
-6.6126e-05 0.000112684 0.0185736 
-0.00025444 -0.000137873 0.0179502 
0.000520867 0.000543062 0.0175713 
0.000963306 0.00109154 0.0168233 
0.000157876 0.000910616 0.0176475 
0.000138416 0.00207523 0.0166724 
0.000231277 -0.00110981 0.0167451 
6.47325e-05 -0.000522393 0.0147736 
0.00036509 -0.000622466 0.0143691 
-0.000107547 -0.000486117 0.0143859 
-0.00538998 -0.00178419 0.0185272 
-6.44589e-05 0.00186545 0.0136452 
-0.00285343 -0.00145748 0.0177802 
0.0012809 -0.0015093 0.0141424 
-0.0500945 0.00929597 0.165004 
-0.0420873 0.00595581 0.06184 
0.0470452 -0.0117262 0.0929161 
0.0660043 -0.00476384 -0.0216772 
5.55467e-06 0.000109955 0.0113535 
6.9761e-05 -2.30055e-05 0.0138904 
-0.000266824 -7.00872e-05 0.0106353 
-0.000135052 -8.3663e-06 0.0163087 
-0.00681846 -0.00524214 -0.00391983 
-0.00322712 -0.00665443 -0.00516137 
0.0042851 0.0336795 0.047685 
0.00282914 0.00560431 -0.00273996 
0.000955507 0.000128638 0.0157256 
0.00157953 4.85956e-05 0.017456 
0.000787138 0.000174631 0.017344 
-1.05616e-05 -0.000150438 0.0136881 
-0.000490943 -0.00147661 0.0134591 
0.00224845 0.000111127 0.0161412 
-0.00165935 0.0016347 0.0145358 
-0.000118978 0.000896357 0.01452 
0.00287616 -0.000576734 0.00206921 
0.00094898 -0.00392772 0.00168307 
0.000194295 -0.000936733 0.0019012 
0.00256491 -0.00525717 0.00655905 
0.00268661 -0.00185806 0.00960679 
0.00239426 0.000440727 0.0134827 
0.00403693 -0.000306408 0.0158651 
0.00310653 -0.0026192 0.0132827 
-5.89745e-05 -8.4235e-05 0.0147189 
6.69775e-05 0.00010737 0.0104075 
1.1348e-05 -0.000211336 0.00964182 
-0.000201111 -0.000373643 0.0142718 
-0.00144231 -0.00169686 -0.000390071 
-0.000389297 -0.00177688 -0.000953563 
-0.00233512 0.00310453 0.00242092 
-0.00370455 0.00436058 0.00379228 
0.000496776 3.43816e-05 0.0109473 
-0.000286798 0.00105067 0.0121618 
-0.00122444 -0.000590361 0.012913 
0.000830445 -0.000162348 0.0165889 
0.000206267 0.000765768 0.0178242 
0.000316208 0.00235513 0.0163751 
0.000804546 0.000888518 0.0170341 
0.000125072 0.00239134 0.0167294 
7.45717e-05 1.87554e-05 0.0112818 
0.0229829 -0.008447 0.0478612 
0.0105297 0.00825015 0.0193442 
0.00507968 -0.00259664 0.000168044 
-0.000102498 0.000108382 0.0148946 
8.75238e-05 -6.7474e-06 0.0165471 
0.000477635 -0.000173716 0.0167077 
0.000613984 6.78941e-05 0.0150082 
0.000290643 -0.0015926 0.00769493 
0.00370912 -0.000902448 0.00923762 
-0.000512977 -0.00160334 0.0132686 
0.00157121 0.000478249 0.0138168 
6.5884e-05 3.23902e-05 0.0163206 
0.00290243 0.000295884 0.0163525 
0.000301736 0.00115226 0.0163856 
0.00397189 4.67355e-05 0.0171149 
-0.000254521 -4.15693e-05 -0.000222252 
0.0010894 -0.00141243 0.00698777 
-1.75599e-05 -0.000700921 0.00892644 
0.000804441 -0.00124401 0.0053908 
0.000164355 -3.15447e-05 0.00922362 
-2.10092e-05 -1.3063e-05 0.0103747 
-9.4165e-05 0.000172403 0.00794855 
-9.8156e-05 0.000168696 0.0137791 
0.000182581 9.56213e-05 -0.000319292 
-0.00235451 0.00424551 0.00766679 
0.0013696 -0.00141482 -0.00399508 
-0.0030698 0.00332026 0.00562641 
-0.0131733 0.00127213 0 
0.00228891 -0.00405857 0 
-0.00144838 -0.00249167 0 
-0.0223654 0.00931719 0.0229668 
9.8952e-05 -4.55661e-05 -5.96166e-06 
-7.17804e-05 -1.41908e-05 0.00675066 
0.000111276 8.00313e-05 0.000210977 
3.2191e-05 2.02798e-05 0.00919628 
0.00322502 0.00182557 0 
-0.00040206 -0.000763174 0 
0.00103006 -0.00278344 0 
0.00463184 0.00518921 0.00275634 
-0.00351491 -0.00386904 0 
0.00384565 -0.00208399 0 
0.000109834 0.000640493 0 
-0.00796147 -0.00208877 0.00124508 
-0.000757112 0.00337813 0.0151129 
0.000211926 0.00212477 0.0162662 
-0.000623791 0.000304407 0.0165413 
-0.00135647 0.00148361 0.0166074 
-5.26849e-05 3.75412e-06 0.00640516 
6.75802e-05 1.9946e-05 0.0110905 
2.35299e-08 2.1368e-05 0.00736329 
3.31283e-05 -2.31709e-05 0.00787584 
-0.000151672 -0.000481209 -9.44969e-05 
0.00139591 0.00040555 0.00923307 
0.000220341 -0.000100232 0.000248372 
0.0011133 0.000590082 0.00964519 
-0.000108276 0.000499675 -0.000777922 
0.000506679 3.66553e-05 -8.16055e-05 
-0.000130586 0.000494427 -0.000166135 
0.00311429 -0.002153 0.00308919 
1.13962e-06 -3.02678e-07 0.00509815 
1.92568e-05 -4.62236e-05 0.000131377 
4.97135e-05 -0.000140396 0.0095639 
4.49914e-05 -0.000146849 0.00791093 
-8.1656e-05 -0.000287222 0 
9.09304e-06 0.000201776 0 
-0.000390668 -0.000306808 0 
0.000972021 4.64205e-05 0.000338569 
0.035386 0.0107424 0.193062 
-0.0332307 0.00339364 0.151176 
-0.0503647 0.00739432 0.119414 
-0.0270573 -0.00986693 -0.0669833 
-6.17811e-05 0.00206268 -0.00464147 
-0.0117484 0.00327797 0.00922755 
0.00322975 0.00353591 -0.0129245 
-0.0237901 -0.0108949 0.0357704 
-1.14321e-06 -0.000621589 0.0175118 
-0.000980262 -0.000710092 0.0159526 
-0.00087439 0.00036441 0.016657 
-0.000278278 -4.15355e-05 0.018386 
-0.00056944 -0.000755159 0.000114564 
-0.000654747 -0.000824555 -0.00156142 
0.00389889 -0.000547536 0.00394532 
0.000628795 -0.0011875 0.00505671 
-7.24536e-05 2.92157e-05 0.000328775 
0.000157287 0.000253144 0.00938906 
0.000309454 0.000265406 0.00903518 
0.00016961 0.000608452 0.00715139 
7.3993e-06 6.59649e-05 8.90086e-05 
8.86218e-05 6.77187e-05 9.49724e-05 
2.08979e-05 -6.34945e-05 0.00569134 
3.79036e-06 0.000193575 0.00922721 
0.000806352 0.000305533 0.0117788 
-0.000445745 0.00067544 0.0122575 
-0.00162712 0.000492739 0.0178025 
0.000376955 0.00215228 0.0159901 
0.00269561 -0.00162021 0.00861164 
0.0029331 0.000322203 0.013984 
-0.000536384 -0.000248191 0.0123179 
0.000411437 -0.000242398 0.00674189 
0.000174891 -0.000168764 0.0223884 
-0.0025253 -0.00325448 0.0180968 
-0.00387809 -0.000189826 0.0118816 
0.00149365 -0.00202931 0.0174039 
1.70908e-05 9.63466e-06 0.0109762 
4.88338e-05 6.98415e-05 0.0125517 
3.65635e-05 -0.000197686 0.0136769 
-2.0901e-05 -6.47706e-05 0.00868797 
-0.0203411 -0.00590529 0 
0.00823791 0.000960941 0 
0.0054642 0.0103909 0 
-0.0269936 -0.0025985 0.0400927 
-0.00077819 -0.00296097 0.0154213 
-0.000280429 -0.00343548 0.0103145 
0.000984617 -0.00445375 0.0158012 
0.000635278 -0.00173851 0.0149316 
0.00366368 -0.00644309 0.0064263 
-0.00102256 -0.00543176 0.0135147 
-0.00472625 -0.0186082 0.0237027 
-0.00366267 0.000924803 0.0174666 
-0.000951071 0.00782413 0.0138976 
0.000631968 0.00489593 0.0192141 
-0.00062245 0.00348973 0.0146249 
0.000656658 0.00561267 0.0162819 
-0.00107396 -0.00131852 0.00108134 
0.00100406 0.00473989 0.00288145 
-0.00141581 0.00486005 0.00866008 
-0.00167463 -0.000296127 0.00304122 
0.000780419 -0.000211079 0.0213236 
-0.00206396 -0.000417251 0.0123224 
-0.000924491 0.00158894 0.0118196 
0.0015294 -0.000586313 0.0170075 
-1.50903e-05 -0.000109351 0.000149369 
-0.00106459 9.21186e-05 0.0104302 
3.62511e-05 -8.02179e-05 1.26851e-05 
-0.000178844 -0.000155293 0.00747833 
-0.000250791 -0.000624427 0.016525 
0.000433484 -0.000891324 0.0143991 
0.000265959 -0.00145704 0.0160295 
-0.000359572 -8.38394e-05 0.0160264 
-0.00717508 -0.00436014 0.0186072 
0.00539604 -0.00480719 0.018712 
-0.00425952 -0.000308028 0.0159755 
-0.00472636 -0.00275188 0.040631 
0.000960349 0.00276292 0.0183907 
0.00133484 0.000465126 0.0146027 
0.000668998 0.000219192 0.0140575 
0.000175197 0.00149682 0.0164217 
-6.83645e-05 -1.34044e-05 0.0123424 
-2.23952e-05 1.06307e-05 0.00994647 
8.75592e-05 7.40736e-06 0.0069638 
-2.25456e-05 0.00010813 0.00797883 
-2.30261e-05 0.000350888 -0.000161677 
0.000186004 -0.000711073 -5.15239e-05 
0.000327793 0.000930102 -0.000504831 
0.000417887 -0.000333458 0.000296484 
3.1102e-06 0.00241892 0.0174678 
0.000102396 0.00078698 0.0162144 
-1.65199e-05 0.000811229 0.0173357 
-9.52095e-05 0.000975216 0.0181393 
-0.000685927 -0.000134463 0 
0.000699352 2.01163e-05 0 
-0.000428028 6.59019e-06 0 
0.00129236 -0.00245887 -0.000112135 
-1.94449e-05 2.196e-05 0.0111104 
2.42271e-05 5.53599e-05 0.0126038 
3.22661e-05 -6.89048e-05 0.0153676 
0.000122466 -0.000188908 0.0134248 
0.00104715 -0.00319966 0.00496851 
0.000481781 -0.00140351 0.00809739 
0.00174423 -0.00413152 0.0134033 
0.0011003 -0.00116637 0.00417215 
0.00343408 -0.0160245 0 
-0.00027613 0.00785663 0 
-0.00617915 0.00282633 0 
0.0046263 -0.0199945 0.0297685 
4.83198e-05 0.000100843 0.00744424 
-9.94705e-05 -4.565e-05 0.000106355 
-2.45052e-05 -1.66988e-05 6.62188e-05 
4.9911e-05 0.000148789 0.00905975 
-7.09905e-05 -3.15203e-05 0.000198411 
-3.92228e-05 -1.91859e-05 -0.000288721 
5.3329e-05 2.43971e-05 1.26164e-05 
-0.000918369 -9.42303e-05 0.0103039 
8.55688e-05 -1.15927e-05 0.000232582 
-0.000100256 1.40406e-05 -0.000301153 
-0.000245275 2.71141e-05 -0.000284299 
0.0011628 0.000621275 0.00957695 
-7.3344e-05 1.63868e-05 0.0146225 
0.000138834 -0.000521239 0.0177583 
2.95427e-05 2.24839e-05 0.0173804 
-4.39633e-05 -0.000534532 0.0141762 
3.0193e-05 -1.51851e-05 -0.000175158 
0.000262016 -6.98049e-05 0.000297615 
-0.000143747 4.70323e-05 9.29509e-05 
0.00136038 -0.000173352 0.0090026 
0.0525291 -0.0077141 0 
0.057228 -0.00801817 0 
-0.0368829 0.00155732 0 
-0.0223263 -0.000340076 0.152977 
2.76167e-05 2.57688e-05 0.00582047 
-6.60893e-05 -0.000117976 0.0115193 
0.000121601 -6.70753e-05 0.00938155 
0.000322746 -0.00010936 0.00817253 
0.000383371 -0.000227447 0 
0.000179733 0.000666343 0 
-0.000275677 0.000160417 0 
-0.00136286 0.000818767 -0.00033059 
-0.000108471 -1.09591e-05 5.26651e-05 
6.69195e-06 9.03849e-05 0.000113324 
-4.83491e-05 -0.000353031 -0.000266896 
-0.000516121 -0.000123427 0.000212206 
-0.000162909 5.82888e-05 0.000708362 
-2.40686e-05 -9.15943e-06 -0.000676441 
-1.15885e-05 8.44175e-06 0.000239185 
-0.00324715 -0.000860325 0.00305235 
-1.92041e-05 2.3733e-05 0.000122406 
-0.000199741 -0.00015813 0.000245877 
-0.000127834 4.22827e-05 0.00807545 
-9.20165e-06 -5.80881e-05 0.00875341 
-0.000150765 1.28439e-05 -5.87972e-05 
-4.13103e-05 3.26732e-06 4.55487e-05 
0.000148889 -1.3066e-05 0.000151517 
-5.39717e-06 -0.000228583 0.00998427 
-0.000132146 -0.000176856 -0.00013522 
4.09374e-05 6.00272e-05 0.00026686 
-4.24156e-05 -6.70774e-05 -0.00048616 
4.31559e-05 -0.00069607 0.00217361 
-0.0409343 -0.0144871 0 
-0.0226428 -0.0140474 0 
0.0300098 0.0201231 0 
-0.0375722 0.00320882 0.0933383 
4.12029e-05 -6.81049e-05 0.000114713 
-2.01235e-05 -2.20511e-05 0.00573578 
2.53503e-06 1.61084e-05 0.00700719 
9.29064e-05 0.000240829 0.00904503 
-0.00233838 0.000645182 0.0130887 
-0.00083385 0.00621232 0.0102654 
-0.000652544 0.0032639 0.0105953 
-0.000676184 0.0040169 0.0154115 
0.000307129 0.000206664 -0.000155919 
-0.000209132 -0.00150278 0.0102998 
0.000284382 -0.000104892 6.55312e-05 
-0.000342981 -0.00107039 0.006621 
0.000999763 0.053763 0 
6.73524e-05 0.0435872 0 
-0.00776277 -0.0348073 0 
0.000391245 0.00176014 0.123139 
-0.00187083 0.00434655 0 
0.00320566 -0.00341957 0 
-0.0035626 0.00194077 0 
0.00665151 -0.00463333 0.00337335 
-0.00791809 0.00285063 -0.00489808 
0.00115817 0.00111096 0.00352885 
0.0205819 -0.0039221 0.0109675 
0.00707921 -0.00516796 0.00596277 
3.86407e-05 -3.91613e-06 0.00645396 
0.00013438 -5.5833e-06 0.00919654 
-4.01172e-05 5.28199e-06 0.0103508 
-4.45138e-05 0.00014572 0.00793321 
4.07069e-05 -9.04675e-05 0.000207603 
-5.28136e-05 0.000113964 -0.000137306 
8.74975e-06 -2.04842e-05 8.48468e-05 
-9.00975e-05 0.00103745 0.00737847 
0.000552512 -0.0104245 0.0139688 
0.000738618 -0.00254581 0.0132697 
-0.000920791 -0.00622326 0.0181492 
-0.00202228 -0.0103729 0.0261365 
0.000300562 0.00299108 0.0105807 
0.000267409 -0.00027515 0.00657605 
-0.000339168 -0.000131582 0.0123939 
0.00289318 0.00147877 0.00956413 
-0.000896255 -9.8279e-05 0.0171399 
-0.000138903 -0.00100605 0.0153644 
-0.000115858 -8.86682e-05 0.0143044 
-0.000128816 -0.000341831 0.0162144 
0.00228717 -0.00355663 0.00929861 
-0.00682602 -0.00114293 0.0119975 
0.00453036 0.00792502 0.0142602 
-0.00302462 -0.000544365 0.00790523 
0.000225685 0.000120157 0.000421938 
0.00215195 -0.00115829 0.0110838 
-0.000135771 0.000470513 -0.000177903 
0.000726629 0.000119579 0.0106819 
-3.30335e-08 5.32508e-05 0.0164565 
7.3965e-05 0.00092658 0.0175417 
-1.03423e-06 -6.47715e-05 0.0167904 
-2.58258e-05 0.000942408 0.015934 
0.000741726 0.000468949 0.0095238 
-0.0003142 0.000692589 0.0101308 
7.22292e-05 -0.000292976 0.0101602 
0.000182205 -4.0769e-05 0.0155556 
0.0042071 -0.00171882 0.00835891 
0.00276883 -0.00252243 0.0135281 
0.00253709 -0.000458469 0.0170997 
0.00587645 -0.000552073 0.0124188 
-4.00808e-05 -7.13189e-05 0.0170281 
1.97736e-05 4.55987e-05 0.0172667 
8.22556e-05 -8.65296e-05 0.0151352 
-0.000328838 0.000603544 0.0171026 
0.000293186 0.000622969 -0.000253605 
-0.000488785 0.000315438 0.000210515 
-0.000110223 -2.73409e-05 6.69289e-05 
0.000557596 0.000464488 -0.000265982 
-0.000153446 -0.000514211 -0.000666435 
-0.000153347 -0.000350912 -0.000244733 
0.000739542 -0.000176331 -0.000269898 
-8.57171e-05 0.00403201 0.00266706 
1.49342e-05 1.84988e-05 0.0182576 
-4.7009e-05 -5.6093e-05 0.0168058 
-1.64665e-05 7.36106e-06 0.0166795 
0.000136528 0.000956439 0.0173358 
-0.00650711 0.00171687 0.0207365 
-0.00503802 -0.00258886 0.0301035 
-0.00201134 -0.00013565 0.0194325 
0.00109599 0.000403537 0.0203151 
0.00753432 0.000872831 0.012567 
0.0119659 -0.000671278 0.0156404 
0.00774107 0.000219037 0.00176519 
0.0072475 -0.000408829 0.0142792 
5.72404e-05 -0.000102785 0.0167107 
-8.00346e-05 0.000960854 0.0160727 
7.28114e-05 0.00091637 0.0175852 
-0.000195344 0.000657302 0.0143099 
-0.0215656 0.0046225 0.0278917 
0.00236569 0.0024529 0.0151317 
-0.006359 0.00205181 0.00671927 
0.00638818 -0.00300982 0.00217659 
2.41558e-06 -6.28228e-06 0.0149226 
-0.000203641 0.00052714 0.017251 
-8.47983e-05 3.83295e-05 0.0174088 
7.59239e-05 0.000431091 0.0142951 
-0.000755349 0.000163346 -0.000935858 
0.000917061 -0.00173409 0.00216445 
-0.000460916 0.000284962 -0.00066527 
0.000332252 -0.000769558 0.00100774 
-0.000546761 -0.000756888 0.0040605 
0.00493866 -0.000524768 -0.00745354 
-0.0129845 0.00295675 0.00963963 
-0.0107548 0.00556761 0.0089456 
0.000558338 -0.00774768 -0.00333571 
-0.000966679 0.00383755 -0.00537188 
0.00291493 -0.00474354 -0.00557622 
-0.0145883 0.0207206 0.0323632 
0.0017161 0.000444261 0.0174372 
0.00102055 -0.000117008 0.0156099 
0.00117444 -0.000110529 0.0157784 
4.74536e-05 -0.000328551 0.013595 
-0.000293635 0.000871938 0.0148099 
-0.00037674 2.44009e-05 0.00983104 
-3.70721e-05 0.000315056 0.0144991 
-0.00017735 0.000482664 0.0142264 
0.00774534 0.00230421 0 
0.000786888 0.000353348 0 
-0.0132269 -0.00532516 0 
-0.022307 -0.00268691 0.0308797 
-0.000877495 0.000698644 0.0167403 
0.000317823 0.000222947 0.0164247 
0.000900587 0.000647017 0.0179038 
0.000169991 0.00162497 0.0159761 
0.000652122 0.000457543 0.0178187 
-0.000131524 0.000916629 0.0181803 
-0.000505332 0.000885245 0.0167458 
2.74464e-05 0.00179549 0.0162776 
7.35463e-05 8.03241e-05 5.15011e-05 
-6.40503e-05 -6.43761e-05 0.0060092 
-5.63173e-05 4.84265e-05 9.78406e-05 
3.8846e-06 -0.000257788 0.00904648 
4.78648e-06 2.99021e-05 0.013763 
-2.90469e-05 -2.73491e-05 0.0100874 
-1.03247e-05 3.50474e-06 0.0114531 
4.73343e-05 0.000144165 0.0145185 
9.26669e-05 -7.24978e-05 0.00971071 
-0.000133649 0.000145026 0.00947213 
-0.00052981 0.000372987 0.00913187 
-0.000279035 0.000509391 0.0143898 
-0.000563259 -0.000176515 0 
0.000288699 -0.000196494 0 
-0.000606963 -0.00010174 0 
-0.000444263 -2.89343e-05 0.00011532 
-0.000111082 -0.00015287 -2.09336e-06 
1.14416e-05 1.53435e-05 -9.5117e-05 
-2.91541e-05 -3.85764e-05 0.000365665 
0.000294733 0.00111287 0.00855071 
0.000837512 -0.000595794 0.016894 
0.000218706 -0.000855313 0.0174436 
3.64255e-05 -0.000518941 0.0174436 
0.000393165 7.44953e-05 0.0181115 
-2.69684e-05 1.28192e-05 0.0067863 
8.74717e-05 2.8397e-05 0.0107078 
-5.83774e-06 -2.19627e-06 0.00576423 
0.000152938 0.00022113 0.00895937 
-0.00889288 0.0454867 0.109297 
-0.00328927 0.0167855 0.0392653 
0.0186253 -0.00793103 0.0216769 
0.00198237 -0.0204703 0.0583408 
0.00290046 0.000321262 0.0140914 
-0.000511709 -0.000250927 0.0121468 
0.000306294 -0.000254694 0.00684623 
0.00327172 0.00174766 0.0098714 
-8.67019e-05 -0.00151642 0.00815211 
0.000705691 -0.00014882 0.00746751 
0.00289541 -0.00114245 0.00901702 
0.00183995 0.000414373 0.0134625 
-0.000305777 -0.00266613 0.0150955 
-0.00261712 -0.000673289 0.0137504 
-0.000964335 -0.000513627 0.0124383 
-0.00104445 -0.000772976 0.0159367 
-0.0475727 0.00519348 0.120675 
0.0381078 0.00398469 0.0827386 
-0.0386142 0.00465247 0.0586336 
0.0681971 -0.00227888 0.0203174 
-0.000753914 -0.0013599 0 
-0.000809549 0.00107405 0 
-2.7507e-05 0.00105196 0 
-0.0038595 -0.003203 0.00144657 
0.000482313 -0.00152846 -0.00205376 
0.00176156 -0.00375592 -0.00231938 
-0.001378 0.00820613 0.00543787 
3.6416e-05 0.0039651 0.0044061 
6.82016e-05 -0.00490636 0.0172213 
-0.00376761 -0.00348976 0.0209526 
-0.00251438 0.0015587 0.0196277 
0.000563179 -0.00269771 0.0122971 
3.0413e-05 -2.17783e-05 8.37256e-05 
-3.15927e-05 2.294e-05 -6.79031e-05 
7.435e-05 -5.62449e-05 2.39682e-05 
0.000158118 1.51249e-05 0.0095063 
-0.000658215 -0.00116573 -0.000470355 
-0.000223011 7.35698e-05 -0.000121925 
0.000247126 0.00157475 0.00141607 
0.0014801 0.00291769 0.000846191 
-0.000218886 0.00124254 0.0148442 
-0.00218794 0.00186776 0.0166913 
-0.00216329 -4.70331e-05 0.0131279 
-1.13338e-05 0.00128581 0.0171999 
3.06366e-05 -1.36158e-05 -8.00253e-05 
-0.000168683 7.74199e-05 -9.4459e-05 
-9.06899e-05 4.05323e-05 0.000187339 
-0.000561128 0.000249541 0.00929277 
-0.00156743 0.00157007 0.0152462 
-0.00038472 0.00113724 0.015193 
0.000253999 0.000376557 0.0145238 
0.000560112 0.00258517 0.0173249 
-0.0180603 -0.00385205 0.013754 
0.0108129 -0.00419259 0.0204906 
-0.00163187 -0.00891299 0.0464261 
-3.40936e-05 -0.0100882 0.0269259 
0.00349238 -9.26251e-05 0.00999595 
0.00252562 0.0038172 0.0176631 
2.55276e-05 -0.00179022 0.0124037 
0.000920046 0.000245057 0.0146063 
0.0016299 0.00246933 0.0154073 
0.000993241 0.00115088 0.0168762 
0.000354794 0.000367156 0.0174636 
0.000206554 0.00199602 0.0165332 
-0.00971442 0.00428748 0.0222045 
0.012718 -0.00302701 0.0315672 
-0.000432184 -0.00265466 0.0367963 
-0.00142885 -0.000425035 0.0145475 
2.62438e-05 8.43628e-06 0.000193521 
-3.83534e-05 -2.81935e-05 0.00568085 
1.38104e-05 2.604e-06 -3.56419e-05 
-0.000482485 0.000253578 0.00925312 
0.000516728 -0.000577446 -0.00088467 
-0.000540989 0.000341249 0.00161468 
0.000661124 0.000190801 0.000340543 
-0.000900265 0.00139748 0.0010128 
-1.34693e-05 4.85325e-05 0.00545483 
-3.52258e-06 -6.5708e-05 0.000167084 
4.24539e-05 -6.68378e-05 0.000110606 
-7.12326e-05 0.000124416 0.00886553 
0.00010052 -0.000553088 0.0174303 
0.000227413 -0.000638264 0.0176088 
0.000823841 -0.000605847 0.0168837 
0.000391899 -0.00164 0.0159857 
-0.00157841 0.00322127 0.000888797 
0.00224756 0.00172432 -0.00263479 
-0.0063601 0.0080871 0.00911423 
0.000600356 -0.00383707 0.00635139 
-0.000129802 -2.39039e-05 0.0140526 
0.000195585 -0.00111177 0.0160038 
0.000391431 -0.000765726 0.0142114 
-0.000275527 -0.000389519 0.0162848 
-0.00315854 -0.00347835 -0.00295444 
0.00564068 0.00603499 0.0047905 
0.00559858 0.00469121 -0.000854716 
-0.00493634 0.0042274 0.0119227 
0.000103942 4.82199e-05 0.00919803 
-6.09757e-05 0.00022641 0.00793659 
8.27986e-05 -6.25976e-06 0.0145659 
-8.71937e-05 0.000109435 0.0137956 
0.00647448 0.0185063 0.183153 
0.026866 0.0354658 -0.016408 
-0.00911549 -0.0537236 0.14383 
-0.0138663 -0.0315728 0.0344368 
0.019718 0.0251136 0.17601 
0.00142063 -0.0566831 0.161144 
-0.0295009 -0.0468303 0.00919233 
0.0119812 0.0492406 0.00269277 
-8.24746e-05 -0.00032319 4.1972e-05 
5.99237e-05 0.000248063 0.000244086 
3.42861e-05 7.00346e-05 -0.00135108 
0.000547497 -0.00139002 0.00492475 
-0.000501623 0.0011065 0.0164088 
0.000612835 -0.00159477 0.0154523 
-0.00407267 -0.000331156 0.0124609 
0.000408787 0.00392998 0.0143742 
0.000458028 0.000106618 0.0149393 
0.000714701 3.14995e-06 0.0175049 
0.00126863 -3.6951e-05 0.0174914 
0.000408704 -4.75064e-06 0.0136098 
0.0031308 -0.00155862 0.00959154 
0.000830366 0.000117325 0.00640442 
0.00337232 -0.000217407 0.0113404 
0.00149906 0.000494238 0.0140997 
-0.00085218 -0.000137309 0.0100755 
-8.82735e-05 -0.000255287 0.0096631 
-0.000116826 -0.000334689 0.0137525 
-0.000299321 3.35964e-05 0.00784008 
-6.3011e-05 1.41679e-06 0.0184259 
0.000708315 0.000307663 0.0173135 
0.000664421 0.000472437 0.0177951 
0.000413429 1.78014e-05 0.0181486 
-0.00136696 0.0011523 0 
0.000857032 0.00180566 0 
-0.00183047 0.00239951 0 
0.00629167 -0.00519283 -0.00106734 
0.000250727 -0.000997328 0.013911 
-0.0014142 -0.00287096 0.0176282 
0.000201963 -0.00385664 0.0165881 
0.000554999 -0.000825862 0.0153504 
0.00691026 0.00135504 0.0183428 
0.0022875 0.00365376 0.00392054 
0.000126192 0.000369015 0.0111932 
0.000933246 0.00241424 0.0179224 
-0.000586711 0.000357721 -0.000762007 
0.000158413 0.000667251 0.0072874 
-0.000159967 0.000251884 8.49675e-05 
0.000434673 0.00129556 0.00704299 
-8.31754e-05 3.68e-05 -0.000332384 
-0.000229087 0.000103817 -0.00042172 
0.000136583 -6.10617e-05 0.000418997 
-0.00206985 -0.000169824 0.0112826 
0.00120275 -0.000268752 0 
-7.87882e-05 -0.000457935 0 
-0.00156548 -0.000193103 0 
-0.000937179 0.00205503 -0.000569742 
1.20398e-05 2.76988e-05 0.01854 
-2.24139e-05 -3.85972e-07 0.0171798 
3.74284e-05 2.90379e-05 0.0174912 
0.000231342 -0.000561788 0.0173732 
0.0029825 -0.00451463 0.0180975 
-0.00183515 -0.0120874 0.022073 
-0.00500593 -0.00251383 0.0195345 
-9.97494e-07 -2.10163e-05 0.00960779 
-0.000158928 0.000108108 0.000193641 
2.48423e-05 -1.68758e-05 1.52572e-05 
-2.37219e-05 1.60295e-05 -0.0001846 
-0.000225688 0.000194852 0.00986487 
-2.45537e-05 -9.83244e-06 -6.50604e-05 
-3.64077e-05 -1.82254e-05 0.000264423 
3.93103e-05 1.67509e-05 4.26769e-06 
0.000348607 0.000156641 0.0091582 
1.70647e-06 2.32898e-06 0.0188597 
-0.000185533 -0.000447591 0.0173701 
-9.00484e-05 5.36554e-05 0.0182521 
-0.000353691 -0.000150141 0.0180272 
0.000291021 -0.000205664 0.00041031 
0.000816968 -1.25084e-05 -0.000802634 
-0.00334901 -5.25622e-05 0.000254909 
-0.00283723 -7.41537e-05 0.00140149 
0.000206884 -0.00124141 0.0115605 
-0.00449461 -0.00395509 0.0156373 
0.00995059 -0.00557322 0.0215224 
0.00441706 0.00168992 0.0136135 
0.000737832 0.000808095 0.0178452 
0.00022797 0.000138396 0.0164924 
-0.000534508 0.000581201 0.0167357 
-5.13647e-05 9.24034e-05 0.0183846 
0.0016043 -0.00299389 0.0128048 
6.32309e-05 -0.000929261 0.00946111 
0.000498255 -0.00122605 0.00816033 
-0.000590791 -0.000703316 0.0145425 
-4.34273e-05 3.11644e-05 0.0167248 
2.57466e-05 1.45019e-05 0.0180955 
-2.22394e-05 -8.04915e-05 0.0160759 
0.000123496 0.000844986 0.017238 
-0.00221797 -0.00144849 6.02299e-05 
0.00222518 0.00365944 0.00338787 
-0.00244982 0.000467397 -0.00199164 
-0.000983315 0.00656427 0.00253095 
3.81413e-07 -6.78108e-06 0.000210298 
-3.13206e-05 2.86097e-05 9.52832e-05 
-2.45154e-05 2.69902e-05 -7.65239e-05 
0.000216202 4.19708e-05 0.00941767 
-3.41773e-05 -4.27529e-05 0.00599306 
6.92744e-06 2.2788e-05 0.000184173 
4.8159e-05 -1.65346e-05 2.97188e-05 
-2.24662e-05 -0.00021704 0.00956632 
-5.52097e-05 -3.82494e-05 9.80233e-05 
0.000105778 7.24888e-05 -3.27992e-05 
0.000135008 9.09798e-05 0.000258742 
-0.000530616 -0.000319456 0.00790492 
0.0030811 -0.00165195 0.0083334 
0.00216299 0.000201467 0.0147661 
0.000888507 -0.000187179 0.00628144 
0.00356265 0.0018745 0.00969986 
2.71709e-05 -2.85083e-05 -0.00190676 
-0.00147654 0.00338926 0.00916247 
5.04234e-06 -0.000245725 -2.2194e-05 
-0.000508446 0.00167547 0.00536354 
-5.26875e-05 -1.5309e-05 0.000157696 
-9.95608e-05 -9.91849e-05 0.00953408 
-0.000134965 -8.07485e-05 0.000176899 
-6.68469e-05 -0.000154688 0.00882538 
-0.000441989 0.000669029 0.0123655 
-0.00066931 8.76884e-05 0.00918819 
-0.000210453 0.000722054 0.0156688 
-4.21932e-05 0.000550602 0.0140433 
0.000548639 -0.000251844 0.0164763 
0.000456687 -0.00113546 0.0164196 
0.000161797 -0.000283438 0.0137562 
0.000657192 0.000221459 0.0134326 
0.00761143 0.00417229 0.0103221 
0.00746819 -0.02327 0.0353811 
-0.000833695 -0.00253342 0.00753827 
0.00310141 -0.00369358 0.00526655 
-0.000318618 -0.0006965 0.0175702 
0.000524692 1.38467e-05 0.0164508 
0.000976391 -0.000519659 0.0168329 
0.000423765 1.20119e-05 0.0182351 
0.0112943 -0.0113009 0.000466942 
0.00725737 -0.00103249 0.0124861 
-0.00117606 -0.00726213 -0.0114767 
0.00679131 -0.000345075 0.025163 
-0.00127255 -0.00126156 0.016083 
-0.00591414 0.00032713 0.0134375 
-0.00382601 -0.00209768 0.012854 
-0.00375523 0.00118712 0.0174388 
-0.000223563 -3.17434e-05 6.22185e-05 
-0.000523207 9.62562e-05 0.00034922 
-4.64805e-06 3.64098e-05 -4.33162e-06 
-0.00171767 0.00115558 -0.000245829 
-2.09647e-05 -2.81048e-05 0.00580542 
-0.000390594 0.000237913 0.00877055 
2.28185e-05 -9.87133e-06 0.00983008 
-0.000127448 0.000145234 0.00953095 
-8.72919e-05 -1.69366e-05 0.000110862 
-0.000840337 0.000393933 0.0092309 
-0.000895566 -6.59126e-05 0.0105358 
-0.000269728 -9.99915e-05 0.0074137 
-0.00623006 -0.000872851 0.0104809 
-0.00117882 0.00010978 0.00650474 
-0.00129044 0.000201369 0.0107389 
-0.00302201 0.000170101 0.0167902 
-2.17877e-06 -5.29589e-06 0.0158819 
8.83509e-05 -0.000674382 0.0175748 
-4.22404e-06 -0.000640712 0.0166803 
-2.12899e-06 -0.000536308 0.014448 
0.000236498 -9.79159e-06 -0.00018082 
-3.76316e-05 0.000116335 0.000168595 
-0.000122367 -0.000153956 2.42559e-05 
0.00035894 0.000967123 0.00013286 
-0.000511104 0.000682211 0.0168993 
-8.3184e-05 0.00106187 0.0180628 
0.000559233 0.000648868 0.0176911 
-3.85917e-05 2.67507e-05 0.0182578 
1.71265e-05 3.27744e-05 -0.000440633 
0.000152094 0.000201954 -8.69749e-05 
-1.09173e-05 -2.46172e-05 0.000440839 
-5.22804e-05 0.000762938 0.00143613 
0.00357592 0.00435615 -0.00377136 
0.0050391 -0.00686831 0.00263627 
-0.00159993 0.00422523 -0.0126074 
0.00997796 -0.0314599 0.0426495 
-0.000164777 -0.000187596 0.0104585 
-0.00155518 0.000329562 0.00699694 
-0.00132391 -0.00136212 0.0111515 
-0.000195394 -0.00132539 0.00538924 
0.00143507 0.0033626 0.0198992 
-1.4445e-05 0.00534785 0.0178631 
0.00512639 0.00379267 0.0243288 
0.00296405 0.000208484 0.0138876 
-0.00219722 0.000469814 0 
-0.000561617 0.000240018 0 
0.00188428 0.00302599 0 
0.00127414 -0.0111495 0.00031956 
3.69831e-05 -9.11255e-05 0.0106719 
0.000140332 -1.33799e-05 0.0123965 
-7.52097e-05 9.99614e-06 0.0140589 
-5.88495e-05 0.000644769 0.016028 
0.000528077 -0.00136819 0 
0.00214823 -0.00242496 0 
0.00129553 0.000146796 0 
-0.00414884 0.00405199 0.000695719 
8.21287e-06 6.67466e-07 0.000216503 
-0.000113135 -9.19456e-06 6.71209e-05 
5.29605e-05 4.30414e-06 7.0182e-06 
6.46802e-05 -4.19756e-05 0.0112004 
-9.01034e-05 -0.000117268 -0.000734606 
-0.000183525 -0.000252551 8.68815e-05 
-1.41971e-05 -1.97661e-05 3.32306e-05 
0.000363811 -0.000788193 0.00734715 
-7.65003e-05 9.29659e-05 7.57607e-05 
-0.000227982 -5.13388e-05 0.000205795 
3.62927e-05 5.48608e-05 -5.27141e-05 
-0.00052047 0.000709711 -0.000372784 
0.000475508 -0.00109674 0 
8.44501e-05 0.000600885 0 
-0.00087288 0.000427756 0 
-6.47586e-06 0.00102076 0.00111169 
-0.000151681 -0.000155129 -0.000253265 
-0.000183406 -0.000177903 -1.13247e-05 
0.000382151 0.000285675 0.000228195 
-0.000549616 0.000268905 -0.000590131 
-0.000210893 0.000414767 0.0123574 
-0.000442156 0.000966644 0.0155074 
-0.000334761 0.00125536 0.0169881 
-3.55136e-05 0.000520566 0.0136712 
0.00326473 -0.000465954 0.0167491 
0.00183714 0.000592257 0.0138006 
0.00359626 -0.00172113 0.00862667 
0.00561077 -0.00066534 0.0121878 
0.000802826 -0.000443004 -0.000240258 
0.000160373 5.20383e-05 -0.000134122 
-0.000545099 -0.000626663 -0.000698141 
-4.73341e-05 -9.6402e-05 -0.000108229 
-6.39112e-05 -0.00113594 0.0165208 
-5.28241e-05 -0.000665647 0.0152312 
0.000254964 -0.000979625 0.0164889 
-0.000142735 -0.000319617 0.0141839 
-0.000159928 7.41241e-05 6.00553e-05 
0.000198468 -8.00764e-05 0.0111434 
-0.000232435 -5.50582e-05 0.000366916 
2.24713e-05 -4.70395e-05 0.007528 
-4.87695e-05 4.43176e-06 0.000164774 
-1.06865e-05 0.000116797 0.00748976 
9.17184e-06 -1.26666e-05 0.00562251 
2.77576e-05 -1.45832e-05 0.00881787 
-3.57305e-06 -3.1626e-06 7.12335e-05 
-5.96462e-06 -5.42933e-06 0.000132844 
3.10652e-05 1.93708e-05 0.000135955 
-0.000244259 -8.71235e-05 0.0095804 
0.00343282 -0.00182144 0.008307 
0.000448445 -0.000327836 0.00635812 
0.00110152 0.00158709 0.00322889 
0.0035012 0.00199967 0.00969265 
-0.000721693 -2.44831e-05 -0.000378472 
-0.00259134 0.00196171 0.000700735 
0.00173849 0.00164436 -0.00138074 
-0.00780538 0.00203771 0.00411733 
-0.000528199 0.000753285 0 
-0.00012947 0.00230857 0 
-0.000225945 -0.00039544 0 
0.00200042 0.000545354 -0.000320524 
-0.00139331 -0.000836087 0.0152851 
0.000145547 0.000249873 0.0143799 
-0.00103605 -0.000128856 0.0170442 
3.44454e-05 -0.0014519 0.0156605 
-0.00389779 -0.00203131 0.0111013 
-0.00791039 -0.000289399 0.0112797 
0.00125166 -0.00495595 0.0104583 
-0.00539442 0.00110047 0.0178412 
0.000358398 -0.00370761 0.0155334 
0.00042107 -0.00128677 0.0151429 
0.000595171 -0.000965933 0.0160193 
0.00208733 -0.0028058 0.0136515 
6.88043e-06 5.41546e-06 0.00584858 
-5.78312e-05 -6.29858e-05 0.0115463 
8.68116e-06 3.79412e-05 0.00632432 
0.000154926 -5.51505e-05 0.00931946 
-0.000571583 0.00746341 0.00342203 
0.00184179 0.0103095 0.0168298 
0.00206087 0.00326987 0.00199671 
0.00141009 0.00563373 0.0108163 
-0.000788218 -0.000624585 0 
0.00157588 0.000420585 0 
-0.000283616 -0.000793756 0 
-0.00338288 0.000531352 -0.0001221 
3.82021e-05 -0.000158437 5.88124e-05 
-0.000130924 0.000164579 -0.000184992 
-0.000327678 4.04505e-05 -0.000257801 
0.000332287 -0.00167284 0.00105799 
0.000658056 -5.39835e-05 0.00096865 
0.000211479 -1.73486e-05 -0.000102413 
0.000575644 -4.72228e-05 -0.00067265 
-0.00232824 -0.00241204 0.00839919 
0.000591182 0.00038182 0.0115462 
0.000744487 0.00204183 0.00780709 
-0.00041436 0.000855262 0.0126178 
0.00052861 0.00193109 0.0158678 
-0.00632903 -0.00550026 0.0233652 
-0.00113403 -0.00463832 0.0106899 
-0.00450189 0.00149694 0.00262152 
-0.00286034 -0.00069659 0.0109791 
-0.000181822 -1.54896e-05 -3.32711e-05 
-4.43116e-05 -5.20107e-06 -0.000678552 
0.000208637 1.75868e-05 -4.98549e-05 
0.000830355 -0.000913236 0.0101231 
-0.000833122 0.0062226 0.0111217 
-0.000277049 0.004595 0.0159531 
-0.00259622 0.000263648 0.011989 
-0.00306299 0.00160608 0.00904667 
-0.000272579 0.00126677 0.0150962 
-0.00136785 0.00169556 0.0158996 
-0.00109324 0.00146142 0.0174476 
0.000684562 0.00273617 0.0171606 
0.000310352 0.00117919 0.0173853 
-1.538e-05 0.000863468 0.0180363 
0.000437814 0.000577091 0.0176713 
-1.30307e-06 0.00177688 0.016925 
4.82782e-05 -0.000171714 0.000180572 
3.9027e-05 -0.000119239 -7.88388e-05 
-1.69597e-05 6.19872e-05 -8.25677e-05 
0.000188974 -0.000983345 0.0107545 
-0.00534417 -0.00125626 0.01707 
-0.00305454 -0.0100659 0.0188512 
0.000913614 -0.00149819 0.00569234 
0.00100721 -0.00248223 0.0140521 
0.000115576 -0.000115518 3.97414e-05 
2.65362e-05 0.00125506 0.00914182 
-4.08959e-05 2.61225e-05 -0.000529749 
0.000107535 0.000902847 0.00723942 
-0.0015508 -0.000215688 0.012442 
-0.00728544 -0.000841822 0.012834 
-0.00635207 0.000506521 0.0195894 
-0.00492806 0.000232007 0.0180204 
-0.00209538 -0.00583722 0.00389439 
-0.00021371 -0.00276578 0.00907543 
-0.000636726 -0.00953267 0.0115516 
-0.000934003 -0.0051696 0.0131265 
-0.000900555 -7.84038e-05 0.000119793 
0.000602677 0.00170732 -0.000679793 
-5.02937e-05 -0.00252195 -0.00277472 
0.00138422 0.00934336 0.00903572 
-0.00263892 -0.000675859 0.00622285 
-0.000445379 -0.00297499 0.00949611 
-0.000329404 -0.000160121 0.0130436 
0.000321622 -0.000276516 0.00654735 
0.00267646 -0.00069539 0.0163999 
0.00562684 -0.000132576 0.0136652 
0.00299463 -0.00249651 0.0129814 
0.00529858 0.000950509 0.0157014 
-0.000156758 0.000797578 0.0179028 
-0.00049049 0.000257173 0.0178138 
6.01556e-05 -6.38865e-05 0.0186861 
-0.000100799 0.000206981 0.0183222 
-4.23943e-05 9.29229e-05 -5.14469e-05 
-8.42327e-05 0.000153377 0.000324171 
0.000103666 -0.00022896 0.000149504 
0.00042547 -0.00141308 0.00603402 
-4.12368e-05 7.25031e-05 0.0135949 
1.27029e-05 0.000320674 0.0144979 
-0.000154474 0.000136782 0.00981622 
-0.000276556 0.000561532 0.0142194 
-0.000280126 -6.93131e-05 0 
0.000178003 0.000577049 0 
-0.000320831 -0.000501723 0 
-0.00136012 0.00100137 -0.00028838 
0.0028491 -0.00199584 0.00894459 
0.000120521 -0.00428307 0.0154177 
0.00284134 -0.00172559 0.0135721 
0.00159044 -0.00665529 0.00789982 
-2.55526e-05 1.81366e-05 0.0159005 
-6.25002e-05 -0.00059963 0.01685 
0.000155987 0.000151008 0.0130437 
6.33456e-05 -0.000582293 0.0142562 
0.000486499 -0.000194205 0.0165416 
0.000194022 -0.00081832 0.0173349 
0.000936315 -0.000463873 0.0171076 
0.000409227 -1.37852e-05 0.0182331 
0.00152493 -0.00100947 0 
0.00368451 -0.00232708 0 
0.00171101 -0.00108665 0 
-0.00569288 0.00274902 -0.00273553 
0.000148832 0.00020394 0.0091995 
-0.000470314 0.000154055 0.0150791 
-0.000275654 0.000566189 0.0125124 
-0.000381056 0.000139369 0.0137925 
0.000409218 -0.000556555 -0.000155094 
-0.00145516 0.00351978 0.00635623 
0.000367149 -0.000225859 0.00023992 
-0.00109775 0.000181082 0.00900207 
0.000187263 0.00140785 0.00916112 
-0.000371493 -0.000115316 0.00763647 
-0.00120158 0.000194784 0.00811773 
0.000328224 0.000430225 0.0139582 
-6.64163e-05 5.57154e-06 7.7816e-05 
-4.2954e-05 3.60333e-06 0.000154085 
1.42294e-05 -1.19368e-06 6.18714e-05 
0.000278811 -0.000165186 0.00760573 
0.000266129 0.00229033 -0.000794169 
0.000351423 0.000622481 -0.0041698 
-0.00286369 -0.0074029 0.0115382 
-0.00415688 -0.00473933 0.00573661 
-0.000228318 0.000676401 0.017095 
4.15895e-05 0.000909067 0.0180748 
-8.74875e-05 0.00220467 0.0172693 
-0.0010018 0.00141645 0.0165753 
0.00336203 -0.000470552 0 
-0.00292618 -0.00151237 0 
-0.00674896 0.00146442 0 
0.00852801 0.00212917 0.000950572 
-0.00180153 -0.000134412 0.0127105 
-0.00128826 -0.000118482 0.00627511 
-0.00762638 -0.00119044 0.0117715 
-0.00165023 0.000934626 0.0162583 
-1.70997e-05 1.42024e-05 -0.000307309 
-0.000148614 0.000145885 0.000106511 
7.00675e-06 -5.74189e-06 0.000135532 
-0.00019672 -0.000217351 0.00982203 
0.00263323 -0.00167063 0.00792409 
-0.000369751 -0.000278276 0.012879 
-0.000490536 -0.00313854 0.00936823 
0.000347385 -0.000211993 0.00667207 
-0.0151194 -0.00808745 0.0062272 
-0.013923 -0.00325027 0.0164158 
0.00359904 -0.00982564 -0.00823092 
-0.0032849 0.00458523 0.00190708 
-0.00010296 0.00244741 0.0176107 
-4.99054e-05 0.000863681 0.0181398 
-6.31872e-05 0.001945 0.0162443 
-0.00083546 0.00149634 0.0164536 
0.000761042 -0.000985146 0.00178829 
-0.00422944 -0.00065868 0.00571904 
-0.00311372 -0.00028155 0.00122383 
0.000354897 0.00035912 0.000930637 
6.00788e-06 -7.48472e-05 -8.17225e-05 
1.92364e-05 -0.000224572 0.000102072 
-6.38113e-06 7.6315e-05 1.00389e-05 
0.0002016 0.000761084 0.0112171 
-0.000105152 -7.08825e-05 0.0172242 
0.000484787 -0.000233227 0.0164661 
0.000131699 9.87691e-05 0.0174013 
0.000202324 -0.000581644 0.0174069 
-7.71342e-05 -0.000211497 -0.000415944 
1.80151e-05 5.97094e-05 0.000250161 
4.45435e-05 0.000128767 0.000338587 
-4.27816e-05 0.00184981 0.000920424 
-0.000172216 -0.000241097 -0.000278992 
0.000397633 -0.000159236 -0.000541634 
-0.000141713 -0.000218088 -0.000174855 
-0.00138728 0.0007638 0.0013014 
-0.000661542 0.000689371 0.0166372 
-0.00203777 1.84065e-06 0.0169237 
-0.00289708 0.00135345 0.0149325 
-0.000867966 0.00131341 0.0164247 
0.00104665 -0.000548764 0.01673 
0.000543066 -3.39617e-06 0.016451 
0.000605351 0.000801055 0.0177694 
0.000333877 5.17641e-05 0.0183596 
-0.000411358 0.000153468 0 
-0.000535912 -0.00131172 0 
0.00158293 0.00168799 0 
-0.00175905 -0.00213173 0.00121124 
-0.00141593 -0.00164918 0.011469 
-0.00187738 0.00231414 0.0160068 
-0.00205559 -0.00135465 0.00703387 
0.00013579 0.000816229 0.0147241 
0.00211905 -1.3432e-05 0.0105299 
-0.0008609 0.00213138 0.0119431 
-0.000538496 0.00413668 0.0128019 
-0.00107098 0.000336099 0.0176079 
-0.000110383 -3.44956e-05 0 
0.000555074 -0.000883765 0 
-1.44563e-05 0.00035809 0 
-0.000687625 0.00114493 -0.000349285 
0.0226567 -0.020158 0.163299 
-0.0212086 0.014621 0.109469 
-0.0107167 0.0268984 0.0267694 
0.00714546 -0.06394 -0.0161303 
0.00140959 0.000256273 0.0174538 
0.00110746 -1.96575e-05 0.0153787 
0.000474022 2.85129e-05 0.0149013 
0.000294704 -0.00020021 0.0136529 
0.00742576 0.00100222 0.013547 
0.00136677 1.44795e-05 0.0124687 
0.00321116 5.89268e-05 0.0180235 
0.00630568 0.000208884 0.0132715 
-1.22699e-05 2.93177e-05 8.50895e-05 
7.00479e-05 -7.40281e-06 1.21386e-05 
0.000135767 0.000249265 0.0094827 
0.000134497 0.000601283 0.0073056 
0.000634488 -0.00154083 -0.00318858 
0.000145399 0.00747319 0.00964141 
0.000298015 0.00104987 -0.000827357 
0.00106902 0.00415951 0.0045643 
0.000665988 0.00031813 0 
-0.000885439 -8.86421e-05 0 
-0.000139093 -0.000197092 0 
-0.00277057 0.00118354 0.00151354 
0.000152207 -0.00120279 0 
0.00014589 -0.000617455 0 
-0.000375758 -8.3597e-05 0 
-0.00171321 0.00707489 0.000734418 
0.00272698 5.0097e-05 0.0137614 
0.000175418 0.0026184 0.0103526 
-0.00037151 -1.42992e-05 0.0124375 
0.00296411 0.0014954 0.00959997 
-0.00101491 -0.0126961 0.0184838 
-0.00171335 -0.00617005 0.0203834 
-0.000939914 -0.00950626 0.0129398 
0.00257039 -0.00669088 0.0060072 
-6.20798e-06 6.15848e-05 0.0179133 
-1.1498e-05 -0.000702496 0.0165615 
-4.11136e-05 8.98485e-05 0.0161239 
0.000166884 -0.000695335 0.0174393 
-0.000230452 1.07763e-05 -0.000484668 
0.000966926 0.000490095 0.011908 
-0.000322921 -0.000151758 -0.000218252 
0.000944202 -0.000162676 0.00804746 
-0.000310789 -6.07292e-05 0 
1.19895e-05 6.17194e-05 0 
-4.4371e-05 9.28145e-05 0 
0.00304155 -0.000711156 0.000457097 
-0.000737083 -0.00213692 0.0140195 
-0.000910437 -0.00513029 0.0144653 
0.000956727 -0.00521523 0.0192653 
0.000791074 -0.00328068 0.0174589 
-0.00744517 9.04192e-05 0.0130369 
-0.0155021 -0.0238587 0.0512799 
-0.0139403 0.0117327 0.0101492 
-0.0064157 0.00281447 0.00304056 
0.0049676 0.00256297 0.00541304 
0.00336622 0.00229139 0.0101081 
-0.00018524 0.00587253 0.010142 
0.0054027 0.00221483 0.0133523 
-0.000435715 0.000893635 0.0124415 
0.000219215 -0.000532487 0.0138497 
-0.000736432 -0.000168142 0.016537 
-0.000443339 0.00137337 0.0126431 
-0.00116815 0.000498506 0 
5.23702e-05 0.00043962 0 
0.00191158 0.000870993 0 
0.00164196 0.00111755 -0.000914979 
6.08454e-05 -3.34794e-05 0.0109404 
-1.87369e-05 -0.000142165 0.0137258 
-0.000228461 -0.000202353 0.00950645 
-7.21906e-05 -3.78448e-05 0.00864721 
7.04446e-05 3.41325e-05 -3.52511e-05 
0.000126475 6.12891e-05 -6.39533e-05 
0.000109371 6.16045e-05 -0.000752011 
0.00230093 -0.000151399 0.00939572 
0.000147397 -7.97137e-05 -0.000868192 
-0.00123168 0.000374839 0.00179351 
9.40315e-07 -0.000157087 0.000794548 
-0.00194407 0.00052383 0.00248225 
0.00687014 -2.63968e-05 0.00289048 
0.00188323 0.00198328 0.00890979 
0.00729169 0.000994457 0.0129361 
0.00768735 -0.0011546 0.0134561 
0.00396504 0.00118665 0 
-0.000226888 0.00224087 0 
-0.000538295 0.000838047 0 
-0.00545599 -0.000130576 0.000892974 
0.000444982 6.10557e-05 0.00152506 
-0.00699751 -0.0122485 0.0114068 
0.00136462 0.00223597 -0.00654066 
-0.0019538 -0.00506617 0.00654105 
-0.000524944 0.000808223 -0.00119143 
0.00087348 -0.00099125 0.00705835 
-0.000890416 0.000484915 -4.56661e-05 
0.00545227 -0.00287952 0.00445916 
8.97201e-06 6.79322e-06 0.0180907 
7.28268e-07 -2.32201e-05 0.0166471 
-7.13099e-05 -8.81737e-06 0.0160926 
0.000544075 0.00022579 0.0172384 
0.00128486 0.0026064 0.0141481 
0.00284752 0.00203612 0.0110325 
0.0024404 0.000863327 0.0140119 
0.00449077 -0.000538715 0.0164766 
-1.99911e-05 -6.14416e-05 -0.000959688 
0.0018309 0.000744112 0.00855845 
-0.00023294 -0.000404955 0.000458314 
0.00141436 0.000643095 0.00509129 
0.00684503 0.000627383 0.0127335 
0.00330971 0.00132779 0.00934524 
0.0019601 0.000371586 0.0132996 
0.00609769 -0.000382463 0.0129757 
-7.57554e-05 -4.87768e-05 -0.000248085 
0.000308296 0.000112599 -0.000212844 
-0.000445101 -0.000449007 -0.000300634 
-0.000212778 0.00224554 0.00319482 
0.00091397 0.0003068 0.0151169 
0.000434914 -6.00933e-05 0.0147178 
0.00161313 0.000199701 0.0172054 
0.00114306 0.000327277 0.016165 
0.00176173 -0.00166107 0 
0.000783924 -0.000335965 0 
-0.00277279 -0.00187986 0 
-0.0068497 -0.00691869 0.000769221 
0.0011603 0.000474347 -8.40128e-05 
-0.000683706 0.000753578 -0.000685539 
0.000262901 0.000113464 -0.000245136 
0.00143461 0.000483866 0.000939195 
0.00304483 -0.00163277 0.00808066 
0.000993502 -0.00148302 0.000858331 
-0.000879872 -0.00361425 0.00955852 
0.00174168 -0.00469527 0.0073662 
-0.00140792 -0.00178652 0.0115609 
-0.00168151 0.00014565 0.00747582 
-2.78525e-05 0.000228178 0.00987424 
2.39051e-05 0.000140945 0.0147022 
8.74624e-05 -0.000305592 -0.000511113 
4.13103e-05 -0.000165837 0.000254335 
-2.96565e-05 0.000125117 -0.00032239 
-0.00118524 -0.000911917 0.010617 
-0.000123639 0.000235609 0.0140323 
0.00103273 -0.00497854 0.0164838 
-0.00160258 -0.00223716 0.0176906 
-0.00119264 -0.00525208 0.0171109 
-3.35898e-05 2.19732e-05 0.0145618 
-1.94293e-06 -5.66023e-05 0.0174559 
3.45925e-05 -1.38898e-05 0.0159027 
-4.80832e-05 -0.000480165 0.0141622 
-0.000830218 0.0157642 0.190905 
0.0599875 0.00307051 0.0895287 
0.0742153 -0.00681982 0.1094 
-0.0187862 -7.89731e-05 -0.0785655 
-0.000519626 0.000982718 0.0171237 
3.81032e-05 0.000874614 0.0180285 
-0.000639675 0.000570367 0.0172085 
-0.000644246 0.000192046 0.0177067 
2.39841e-05 -0.000117549 -0.000348588 
-1.32315e-05 3.33073e-05 -8.99861e-05 
-3.17793e-05 0.000122047 0.000160214 
-9.23909e-06 -0.00161502 0.0107783 
-0.000434021 0.00134526 0.015978 
0.00088103 0.00328402 0.0179664 
-0.0011947 0.00437651 0.0156631 
0.000159601 0.00117175 0.0167043 
-0.000478861 -0.000450368 0.014642 
0.000122097 -0.00032194 0.010717 
-0.000684552 -0.000277274 0.0139801 
-0.000696046 0.000322122 0.016067 
-5.2732e-05 -3.04452e-05 0.00686329 
-8.50515e-06 7.16881e-05 7.4204e-06 
-4.10302e-06 -3.59499e-06 0.000162824 
-0.000245521 1.91596e-05 0.00993647 
-0.00196529 6.02068e-05 0.0172479 
-3.18076e-05 0.000135699 0.0156842 
-0.00110502 -0.000145185 0.0166279 
-0.00161656 0.000258874 0.0166009 
0.000251528 -5.25024e-05 0 
0.000117361 -5.2391e-05 0 
-3.10347e-05 9.95792e-05 0 
-0.00112035 0.000232283 0.000276436 
-0.000953375 0.00604599 0.010014 
-0.000419828 0.00282985 0.00982293 
0.0009195 0.00871804 0.0179033 
0.00117333 0.00604873 0.0105571 
0.000941095 -0.00387718 0.0144282 
-0.000495887 -0.000279833 0.0141682 
0.000846732 -0.00176567 0.00778708 
6.63019e-05 -0.00166555 0.0138068 
8.8519e-05 -9.71459e-05 0.000236328 
-2.49521e-05 -4.43104e-05 -4.76543e-05 
-1.29152e-05 4.58642e-05 0.00655965 
-2.04741e-05 1.07234e-05 0.00809882 
-0.000453115 -0.00116458 0.000677684 
-9.74135e-05 3.94785e-05 0.000101478 
0.00065054 0.000106975 -0.000917495 
-0.00180727 0.000873292 0.00042543 
-0.00147123 0.00475409 0.0102576 
-0.00220559 0.00501635 0.00644857 
-0.00301117 -0.000294257 0.000916664 
-0.000660239 0.00804472 0.00516036 
-0.000102979 0.000248382 -0.000122879 
0.000163406 -0.000103697 -0.000219037 
-0.000966235 0.000259957 0.000641351 
-0.000552719 0.000247888 0.000784125 
-0.000190392 0.000291129 -0.000669898 
0.000267167 -0.00118842 0.00235296 
7.64767e-05 -1.41801e-05 0.000287587 
0.000361266 -0.000774064 0.00100561 
-0.000554403 -0.000870934 0 
-0.0003011 -0.000381868 0 
-0.000385228 7.45051e-05 0 
0.00135876 0.00518133 0.000541377 
9.69959e-05 0.00468449 0.0117408 
0.000618517 -0.000285824 0.000494476 
0.0103512 0.00287762 0.0153253 
0.00396429 0.0010569 0.0192095 
-0.000524618 0.000921356 0.0150426 
-0.000138255 -0.000183192 0.00993341 
1.25422e-05 0.000324631 0.0144541 
-0.000260257 1.40963e-05 0.00971729 
0.00214352 0.0021298 0.0141799 
0.000461021 0.0101833 0.0381642 
0.0082837 0.000205914 0.0246725 
0.00768132 0.00284168 0.0144336 
9.70926e-05 -3.96416e-05 0.00605014 
-0.00012074 -0.000153356 0.00879494 
-0.000105336 2.7905e-05 0.0111726 
-1.96335e-05 -6.52932e-05 0.0105506 
-6.12783e-05 -4.75503e-05 -0.000364048 
-6.0414e-05 -3.86438e-05 0.0002558 
4.20468e-05 2.44078e-05 -0.000363692 
0.00136356 0.000200719 0.00708954 
-1.2159e-05 5.01048e-05 0.00020949 
5.98249e-05 6.05001e-06 0.00544316 
-3.04631e-05 -3.62878e-06 0.00624249 
0.000261531 2.76662e-05 0.00884309 
-0.000101928 0.00225861 0.0173518 
-8.71815e-05 0.000843263 0.017957 
0.000174635 0.0010368 0.0174589 
9.63081e-05 0.00189606 0.0168361 
0.000138388 0.00019089 -0.000107515 
5.04822e-06 7.31334e-06 -8.68569e-05 
5.9128e-05 7.98979e-05 0.000348039 
-0.000300723 -0.00100327 0.00766165 
-9.15161e-07 2.08869e-05 7.75744e-05 
2.86768e-06 -3.46388e-05 2.52145e-05 
5.35037e-06 -5.50827e-05 0.000130156 
3.33389e-05 0.000188576 0.00923093 
-0.000491445 -0.000582104 0 
0.000387235 0.000307635 0 
-0.000202258 0.000585366 0 
-0.000928542 -0.00059807 -0.000289724 
-5.477e-06 -1.34157e-07 0.0141572 
0.000645166 8.97062e-05 0.0175095 
0.000472402 -5.75081e-05 0.0149276 
0.00047462 -1.79642e-05 0.0136105 
0.00204102 -0.00381035 0.0153454 
0.00157834 8.93976e-05 0.00625402 
0.000261875 6.49963e-05 0.00769304 
0.000842862 -0.00231144 0.0193341 
-0.00106177 0.00633809 0.00578487 
0.00341855 0.00661582 0.0138678 
-0.00670145 -0.00132315 0.0109535 
-0.00196084 0.000530429 0.00768877 
-2.63147e-05 0.00010137 0.0137053 
-0.000113633 0.000100604 0.00966621 
3.37251e-06 -0.000102118 0.00982212 
-0.000253525 0.000556137 0.0141937 
-0.000469658 -0.000125915 -0.000618177 
-0.000411369 2.88578e-05 0.000308139 
0.000726092 0.00135832 0.0020438 
0.00128974 0.000455434 0.0040686 
5.11501e-05 4.79351e-05 0 
9.31239e-05 3.39408e-05 0 
0.000338733 5.07413e-05 0 
-0.000673449 0.00102306 0.000233889 
-0.000421892 0.000970449 0.0148638 
6.39426e-05 0.000235683 0.0144768 
0.000206571 0.00109174 0.0177058 
-0.000188855 0.000492431 0.0142208 
-0.0192087 0.0471523 0 
0.0204893 -0.0321045 0 
-0.0166617 0.0473455 0 
0.0122328 0.00248396 0.115099 
0.00142888 -0.000388838 0.00743057 
0.00464824 -0.00302109 0.00785326 
0.00250029 -0.0037178 0.0132857 
0.000193557 -0.00201698 0.00477152 
-0.00525278 -0.00118799 0.0230151 
-0.00162665 -0.00636614 0.017022 
-0.00157157 -0.0023581 0.0160438 
-0.00164069 -0.00546075 0.0258402 
0.00324629 -0.00331257 0.00857196 
0.00165182 -0.0020455 0.0121931 
0.00790566 -0.0001994 0.015096 
0.00487289 0.000591748 0.0153846 
-0.000566675 -0.00188406 0.00964647 
0.0012605 0.000235855 0.0173294 
-0.00124433 -0.00128877 0.0120662 
0.000230862 -0.00123855 0.017298 
-0.000274936 -0.00120668 0 
-2.83308e-05 0.000336014 0 
0.000237613 0.000748335 0 
0.00182198 -0.000392685 0.000406886 
0.0109618 0.00810039 0 
0.0105769 0.00720786 0 
-0.0316461 -0.00025829 0 
-0.017618 -0.000253671 0.041978 
-0.000973115 0.00150656 0 
0.000621573 -0.000795147 0 
-0.00050759 0.00236352 0 
-0.00283376 -0.00260547 0.00187709 
-0.000655145 0.000419237 0.0169244 
3.78791e-05 0.000138687 0.0182693 
-0.000175578 -0.000492722 0.0174032 
-0.000462363 -0.000277688 0.0180466 
7.94655e-05 0.000111548 0.000175756 
0.000680025 2.13783e-05 0.00811849 
-1.19606e-05 7.70291e-05 -0.000121256 
0.000304918 0.000138238 0.0087959 
-0.000611508 0.000741957 0.0167674 
9.78516e-05 0.00194766 0.0161683 
-0.00013749 0.000840302 0.0182949 
-0.0010895 0.00148269 0.0166225 
0.000119248 -4.15306e-05 0 
0.000212405 -0.00130406 0 
0.000117179 0.000705239 0 
0.000253419 0.00155336 -0.000141672 
-7.08122e-05 0.000103893 -0.000406439 
-0.000165608 0.000244057 0.000518343 
-9.54694e-05 0.000140614 0.000191295 
0.000502163 0.000819601 0.000984405 
-0.000136495 0.000146228 -0.000348743 
-0.000347372 0.000349485 -0.000138285 
0.000102254 -0.000113383 0.000388158 
-0.00044661 -0.000329978 0.000619079 
-0.000418406 -0.0025499 0.0147195 
0.000305644 -0.00164771 0.0151213 
-0.000216239 -0.000510477 0.0180192 
-0.000872568 -0.000689749 0.0158573 
0.000575997 0.000170089 1.81066e-05 
0.000526341 -0.000492138 -0.000651299 
0.000457847 -0.00165317 -0.00106496 
-0.00106512 0.00215202 0.000178399 
-0.000162269 0.000256522 -0.000217264 
2.92985e-05 -6.28357e-05 0.000284885 
0.000147716 -0.000221006 1.17402e-05 
0.000238145 -0.000489204 0.000219565 
1.09368e-05 0.000149752 -9.95402e-05 
-0.000143642 0.000177232 -0.000167827 
4.76282e-05 -8.72955e-05 -7.89226e-05 
0.000275903 -0.00175994 0.00135641 
-3.43466e-05 0.000121207 0.000392885 
-2.36573e-05 9.9239e-05 -0.000555214 
6.45867e-05 -0.000243906 9.90677e-05 
4.16845e-05 0.00150304 0.00779011 
-0.000863309 -0.00314171 0.0148721 
-0.000300876 -0.000191105 0.0125713 
-0.000560412 -0.00354425 0.0104851 
0.000674626 -0.00160363 0.0153945 
-7.82002e-05 9.86367e-05 -0.000233433 
0.000215125 -9.69733e-05 0 
-0.000308389 -6.88885e-05 0 
-0.00024042 0.000194039 0 
3.74785e-05 -4.75358e-05 0.014728 
-1.11559e-05 7.50975e-05 0.0164145 
4.9643e-05 -0.000155896 0.0126344 
4.5695e-05 0.000848858 0.0157025 
-0.00375556 0.00144217 0 
0.00190081 -0.00679109 0 
0.00611294 -0.000183838 0 
0.00719077 -0.00397468 0.00759495 
2.16464e-05 -0.000230165 0 
-6.18804e-05 -0.000106073 0 
-5.45881e-05 0.000388877 0 
6.23808e-05 0.000258061 -4.01585e-05 
-0.00140876 -0.00824464 0 
-0.00189882 -0.0105943 0 
-0.00270528 0.0321387 0 
0.00313291 0.0188257 0.0671628 
-0.00207497 -0.000394334 0.0157782 
-0.00151115 0.000921314 0.017414 
0.000596551 0.00111833 0.0129185 
-0.000715201 0.00116562 0.0128375 
0.00294541 -0.00305056 0 
-0.000498106 0.000114017 0 
0.00152194 -0.00281912 0 
-0.00447118 0.0106064 -0.000498621 
-0.00100807 0.000805082 0.016744 
-0.000224086 -8.51635e-05 0.0131361 
0.000414833 7.14947e-05 0.0163986 
0.000215492 0.00188731 0.0160712 
0.000159996 0.000698511 0.0176362 
-0.00036852 0.00232247 0.0175639 
0.000382847 0.00245943 0.016302 
0.000171603 0.00245708 0.0170063 
0.000322157 0.000735978 0.021512 
0.000947112 -0.00308127 0.0196671 
-0.000172914 -0.00440884 0.0175766 
0.0007032 -0.000824073 0.0155018 
-9.92917e-06 1.99016e-05 0.000314793 
0.000198132 -0.000260581 -2.34997e-05 
2.84762e-05 -5.14586e-05 -0.000645332 
-0.000635206 -0.000237925 0.00108798 
0.00235016 0.0037792 0 
-0.00212551 -0.000698267 0 
0.000457834 0.00262393 0 
-0.000704935 -0.00883756 -0.000435847 
-2.18827e-05 8.8043e-05 0.000287747 
3.27218e-05 3.11563e-05 0.008698 
-3.88167e-05 -2.18356e-05 0.00568054 
-0.000409059 0.000217615 0.00909075 
-0.000910283 0.0014378 0.015932 
1.23984e-05 0.00114847 0.0167516 
-0.000599809 0.0039096 0.0161374 
-0.000980314 0.00134238 0.0164567 
-0.000122865 9.53266e-06 -0.000228705 
0.000242774 -2.09328e-05 -0.00014972 
-0.000151658 1.26155e-05 -3.8749e-05 
-0.000263917 -0.000615533 0.0102144 
-5.79462e-05 -0.000225245 -6.73582e-05 
-2.74268e-05 -1.35042e-05 -0.00196238 
1.08495e-05 3.44045e-05 0.000173693 
-0.00157752 0.00350944 0.00961351 
-0.056341 -0.00751464 0.155133 
-0.00147132 0.00759882 0.207573 
-0.00583237 -0.0272338 -0.0212407 
0.0143156 0.050772 0.00425818 
-0.00371066 -0.00298741 0.000752827 
-0.00761079 -0.00808956 0.00190262 
0.00192257 0.00154167 -0.00193744 
-0.00265079 0.00295233 0.00771787 
-0.00066915 -0.00127321 0.0107665 
0.00141697 7.5245e-05 0.0158164 
0.00127968 -0.000299943 0.0164763 
0.000713578 -0.00144546 0.0160992 
-0.000522238 0.000416226 0.00915596 
-0.000433437 0.000188904 0.00950986 
-0.000548135 0.000601796 0.0153133 
0.000122511 0.000438481 0.0143324 
-0.00504057 0.000189138 0.0180812 
-0.00406725 -0.000962356 0.0145496 
-0.00140877 -0.000320933 0.0159733 
-0.00134313 0.000503305 0.017799 
-0.00351676 -0.00551638 0 
-0.00606987 -0.000529572 0 
0.00463673 0.00254621 0 
0.00206852 0.00425219 0.000483337 
-7.4837e-06 0.000686429 -0.000842606 
0.000203448 -0.00044357 0.000477549 
-0.000876775 0.000192523 0.000222167 
-0.00233881 -0.000302452 0.000271804 
-1.51927e-05 -1.01996e-05 0.000163226 
4.66048e-05 -5.70975e-06 0.00576029 
-7.3318e-06 -1.88381e-05 2.65504e-05 
0.000342365 -0.000116248 0.0083416 
-1.80522e-05 -3.5191e-05 -4.8194e-05 
1.07716e-06 1.55111e-05 0.00693386 
-9.09218e-05 9.80983e-05 0.000192614 
5.09674e-05 4.90969e-05 0.00559946 
0.000685453 -7.66687e-05 0.0117161 
0.00175227 0.00204492 0.00676239 
0.000642067 0.0013632 0.00794548 
0.001521 0.00351392 0.0158971 
-0.000924357 0.000930646 0.0170463 
0.000131741 0.000924229 0.017965 
-0.000208268 0.000602961 0.0172911 
-0.00107315 0.00141612 0.0166286 
0.00131313 0.00694004 0.0175988 
-0.000621612 0.00328911 0.00998681 
-0.00181844 0.00714854 0.0107314 
-0.000268386 0.00355007 0.016078 
-6.19143e-05 -2.03769e-05 0.000147643 
-0.000540825 0.00020759 0.00894492 
6.56779e-05 -6.18022e-05 0.00028608 
-0.000304126 0.000324435 0.00974735 
0.000122288 -8.54777e-05 0.000261057 
-0.000131559 -6.18147e-05 0.00680737 
-3.46035e-05 1.92154e-05 0.00478158 
5.19287e-05 2.38713e-05 0.00745229 
6.0778e-05 -0.00024305 -0.000707931 
-0.000101727 0.000132049 0.000328948 
-0.000440913 0.000542163 0.00139394 
-4.14349e-05 0.000984326 0.00183396 
-0.00150337 -0.00207388 0.0153251 
-0.0043791 -0.00183236 0.0143158 
-0.00457063 0.00147775 0.0184249 
-0.00341974 0.00129712 0.0169536 
9.20558e-05 -0.000316454 -0.00085205 
-9.18065e-05 -0.000245974 -0.000163196 
0.000418022 0.00100426 0.00997833 
-3.32899e-05 0.000995839 0.00938904 
-0.000332519 0.000148933 -0.00263616 
-1.42756e-05 -7.51832e-06 0.000468305 
-0.000272781 8.08228e-05 -0.000434126 
0.00445843 0.00257556 0.00761039 
-9.02714e-06 -2.05507e-05 6.55405e-06 
1.61043e-05 5.07758e-05 0.000187812 
-1.43277e-05 -2.88248e-05 6.40153e-05 
-8.87433e-06 -0.000174851 0.0108886 
-0.00123515 -0.00305034 0.0152756 
0.00160879 -0.00390702 0.0176393 
-0.000934596 -0.00453954 0.0146304 
0.000284411 -0.00151925 0.0165403 
-0.00011118 -0.00365033 0.0169454 
-0.00106065 -0.00246373 0.0170342 
8.18754e-05 -0.00124534 0.0167667 
0.000374438 -0.00095406 0.01563 
-0.000123838 -0.000177674 -0.000109824 
4.53537e-05 5.38871e-05 0.000215461 
6.62621e-05 0.000113918 -0.000236626 
-0.00025585 -0.00105185 0.00161174 
-0.000791247 0.0011467 0.015868 
-0.000385665 0.000932425 0.0167591 
0.000112592 0.00158523 0.016525 
-0.0010832 0.00137082 0.0165686 
-0.00520655 -0.00138632 0.00638594 
-0.00454848 0.00575174 0.0176254 
-0.0158166 0.00429761 0.0257493 
-0.00216549 0.00147999 0.0189732 
0.0486407 0.00280251 0.0487805 
0.0671351 -0.0045297 0.0891924 
-0.0446905 0.0144938 0.0766748 
0.00222706 0.00339351 -0.020371 
-0.00173095 -0.00218089 -0.00276138 
0.000247415 -0.00735912 0.00352303 
0.00283581 -0.000351261 -0.00277828 
0.00797109 0.00788741 0.0117435 
0.000406899 -0.000253194 -0.000666949 
-0.000548366 0.000445527 0.00139882 
0.000588735 -0.00055442 -0.000775772 
-0.000657984 0.00130379 0.00170778 
0.000463721 -0.000178724 -0.000566292 
-0.00020394 8.36818e-05 -1.0339e-05 
-0.000408962 0.000136489 0.00157821 
-0.00250295 -0.000199021 0.00118195 
-0.00197 0.00453984 -0.00924304 
0.00574676 -0.00872575 0.00290085 
-0.00963874 0.000297708 -0.00847983 
0.0108531 -0.0335406 0.0418228 
7.48725e-05 1.87177e-06 0.0188812 
-7.03697e-05 0.000682494 0.0180186 
-5.43167e-05 -2.71712e-06 0.0184997 
-5.69341e-05 0.000226285 0.018409 
0.00128121 -0.00148137 -0.00288128 
-0.00617868 0.0055626 0.0050655 
-0.00051194 -0.000230637 -0.000428152 
-0.00173964 0.00556584 0.00686736 
7.71495e-06 4.05869e-07 0.000321071 
9.18033e-05 2.81493e-05 -0.00070939 
-0.000148968 -3.99992e-05 4.8098e-05 
0.0023204 -0.000203023 0.0107638 
0.00111859 0.00059706 0.0148366 
0.000796049 -0.000512599 0.0168989 
-6.30284e-05 -0.000450951 0.0134018 
0.000643409 0.000344736 0.013401 
3.41844e-05 7.74326e-05 0.00012946 
-9.35517e-06 -1.55072e-05 5.76631e-05 
-1.08639e-06 -4.40006e-06 -3.5877e-05 
-0.000115049 -0.000498817 0.00870506 
-0.000668969 0.000541863 0.017212 
-0.000539444 0.000207702 0.0178054 
-1.10122e-05 0.000913856 0.0179222 
-6.98695e-05 0.000184533 0.0183177 
5.90835e-05 -2.50262e-05 0.0174666 
-0.000113306 3.02755e-05 0.0149372 
-1.0552e-05 7.29689e-05 0.0166615 
0.000578009 -0.000184891 0.0165664 
0.00306056 -0.00186803 0.00813704 
0.00404111 -0.00102036 0.00200459 
0.000349391 -0.00146968 0.00159071 
0.00178754 -0.00412643 0.00713392 
-0.00147572 0.000152733 -0.00259082 
-0.00358725 0.00263734 0.0055918 
-0.00178507 0.00174823 0.00250472 
-0.00628116 0.00149278 0.00421744 
-0.00100849 -0.000981184 0 
-0.00054673 -9.19519e-05 0 
0.000699128 -0.000102923 0 
-0.00464778 0.00317031 0.00309339 
-1.83883e-05 5.40033e-05 0.00552779 
2.21722e-05 -4.67091e-05 8.52318e-05 
-3.65752e-05 -6.69754e-06 4.44261e-05 
2.01884e-05 0.000228816 0.00910918 
-0.000547995 -0.00174701 -0.00336046 
-0.000431485 0.0018155 0.00159031 
0.00247359 0.00701606 0.0116529 
0.000609015 0.00472558 0.00324461 
-0.00068163 -0.000142774 -0.00159142 
8.88977e-06 -7.06009e-06 0.000428145 
-0.000558738 -0.000152477 0.000313913 
0.000431953 0.00216173 0.00532133 
0.00363074 -0.00309029 0.0176466 
-0.00440968 -0.00209561 0.0196472 
-0.00198654 -0.000189414 0.0321137 
-0.000178594 -0.000578598 0.0189886 
-5.2853e-05 0.00127312 0.0172748 
-0.000955675 0.00134473 0.00966641 
0.00134418 0.000806774 0.00953798 
0.000400315 -0.000448618 0.0157961 
-4.89701e-05 1.58841e-05 0.011021 
0.000249393 0.000236364 0.00876122 
-5.44584e-06 -2.12766e-05 0.0108094 
0.000155123 0.00019639 0.0143722 
-0.000172027 -7.62892e-05 0.000645002 
5.85343e-05 2.64181e-05 -0.00012807 
-0.000117403 -5.53312e-05 -0.00020922 
0.00224621 0.000247681 0.00954725 
0.000398593 -0.00163962 0.00826638 
0.000167275 -0.000523466 0.00936902 
0.00162666 -0.00272699 0.0126561 
0.00061133 -0.00172166 0.00469315 
-0.000722304 0.000155965 0.0152893 
-0.000132403 0.000211659 0.0152879 
-0.00225618 -0.000254201 0.0171828 
-0.00130743 0.000269221 0.0173253 
0.00737653 0.00130085 0.0143148 
0.00888775 0.00670707 0.00254391 
0.011491 -0.00805157 0.0245798 
0.0058149 0.000812293 0.0139848 
-0.000772624 0.000307994 0 
0.000476433 -0.00022003 0 
0.000417962 0.00021599 0 
-0.0025864 0.001805 0.000559583 
0.000170596 -0.00538581 0.016245 
-0.000230321 -0.00300775 0.0179925 
-0.00145045 -0.00147067 0.0180819 
-0.000682298 -0.00614965 0.0220019 
5.34942e-05 7.59873e-06 0.0139485 
9.58956e-06 3.16935e-05 0.0103589 
-1.41672e-05 -8.12309e-06 0.00998242 
0.000153419 -0.000176305 0.00919263 
-0.00682031 -0.00608047 0.0205046 
-0.0133932 -0.000556404 0.0352521 
0.000499468 -0.00129799 0.00630628 
-0.00937149 -0.00239616 0.00142611 
0.00301593 -0.00990977 0.0541002 
0.00134609 -0.0127688 0.0287839 
0.00486496 -0.00274654 0.0107 
0.00909314 0.00061014 -0.00258283 
3.32635e-05 -0.00236735 0.014916 
0.000930117 -0.00179433 0.0149914 
0.000104906 -0.0043439 0.0156738 
-0.000761578 -0.00443383 0.0179343 
-0.0411931 -0.0130885 0.0846038 
-0.0558362 -0.00692776 0.144357 
0.0263703 -0.01125 0.174237 
-0.000904655 0.0280902 0.0181139 
-0.000357981 -3.26931e-06 0.000319487 
0.000350039 -0.000807291 0.0101342 
0.000440897 0.000150687 -0.000157039 
0.00103914 -2.24788e-05 0.0110832 
-0.000328099 9.34331e-05 0 
-6.91832e-05 0.000112127 0 
-0.00015915 -0.000126777 0 
0.00217934 -0.000174367 0.000491985 
0.00159395 0.000658543 -0.000319772 
-0.00521876 0.00266125 0.0102586 
0.00173446 0.000898707 -0.00269305 
-0.00546356 0.00146699 0.00505504 
0.000121804 -4.72436e-05 0.00859502 
-1.82248e-06 -2.70843e-05 0.00991513 
-0.000454823 0.000359149 0.00900854 
-0.000289996 0.000408119 0.0142268 
-9.93523e-05 -0.000165549 0.0131341 
0.000235597 -0.000140293 0.00821718 
-1.50327e-05 -2.23065e-06 0.00728905 
0.00025056 -9.78272e-05 0.00749486 
-1.2683e-05 8.84018e-06 0.0172104 
2.77336e-06 -4.43209e-06 0.0179014 
-6.36549e-06 1.96518e-05 0.0161466 
0.00016627 -0.000552531 0.0174916 
-0.00263931 -0.00363326 -0.00168494 
-0.00120301 -0.000740381 0.000377796 
-0.00291402 0.00639219 0.00589911 
-0.00424373 0.00311933 0.00371252 
3.9345e-05 3.83299e-05 0.0103887 
-3.20389e-05 9.33831e-06 0.00536072 
-2.75282e-05 -1.6233e-05 0.00592478 
8.32087e-05 -0.000182654 0.00919324 
-7.69934e-05 0.000466042 0 
-0.000272666 -3.81775e-05 0 
9.7287e-06 -7.95802e-05 0 
-0.00127741 0.000113356 0.000358785 
3.79907e-05 -0.000674521 0.00875125 
0.00117906 -0.000803379 0.00731177 
0.00193145 -0.0028101 0.0132116 
0.000766476 -0.00176702 0.00496963 
-6.31119e-05 -6.13851e-05 -0.000374544 
0.000177973 0.000172853 9.34199e-06 
2.56181e-05 2.49146e-05 0.000141391 
-0.000313861 1.40056e-05 0.00750344 
0.000210915 0.000245822 -0.000104521 
6.93484e-05 -4.27666e-05 -6.92279e-05 
9.44161e-05 -0.000103723 -0.000107805 
6.0192e-05 0.000644352 0.000744064 
0.000167354 -0.000713401 0.0154571 
0.00288818 -0.00356135 0.0133224 
0.000353212 -0.00405265 0.0153156 
-0.00117448 -0.00454758 0.0159218 
-0.0121203 0.00625416 -0.00920384 
0.0139746 -0.00606068 0.0318693 
0.0247582 -0.0144542 0.0903975 
0.00498534 0.000490773 -0.023564 
-0.000467914 0.00159007 0 
0.000479428 -0.00118776 0 
0.00279588 -0.000435757 0 
-0.0065132 -0.0041508 9.01526e-05 
-6.23943e-08 -2.01931e-05 0.0190644 
0.000481196 0.000613103 0.0176737 
-1.90384e-05 0.000189579 0.0183107 
0.000403378 -4.76018e-06 0.0181125 
0.000503704 0.000857348 0.0153055 
0.000268397 0.000294473 0.00891941 
3.29235e-05 2.3127e-05 0.00937631 
0.000300085 0.000570741 0.00746124 
-3.21478e-05 -3.99743e-05 0.0167978 
3.06966e-05 2.17905e-05 0.0183331 
4.79454e-05 -4.57637e-05 0.0180371 
0.00010026 0.000939343 0.01722 
0.000582112 0.000668009 0 
-0.000311329 0.00025329 0 
0.0010741 -0.00083816 0 
0.000778116 0.00243895 0.000490223 
3.39287e-06 -1.57049e-05 0.0148963 
-2.79323e-05 -2.80058e-05 0.0152854 
-3.69564e-05 7.51183e-05 0.0126786 
0.000356955 -9.13134e-05 0.0167289 
6.66463e-05 -5.10154e-05 0.0138255 
-1.78403e-05 2.39586e-05 0.0103199 
0.000172707 -9.67771e-05 0.00938842 
0.000320314 -0.000142364 0.0133477 
0.000959564 -0.000106583 0.0156443 
0.000799396 0.000978676 0.0168199 
7.0501e-05 7.36473e-05 0.0146257 
0.000776976 0.000373005 0.0173999 
0.000312004 0.000188217 0.000215062 
-0.000499674 0.000270516 0.00866547 
-1.65427e-05 -0.000123573 0.00010997 
-0.000400958 -0.000160454 0.00777519 
-0.00177895 -0.00153398 -0.00166037 
0.00123593 0.00471063 0.00651693 
-0.00112948 -0.00129698 -0.00111152 
0.00218617 0.0050443 0.00356172 
-0.000265675 0.000211535 -9.91926e-05 
-3.12929e-05 0.000170069 -0.000336719 
2.28914e-05 0.000591295 -0.000593276 
-0.000570144 -0.000358202 0.000605003 
-0.000745777 -0.00102373 -5.05036e-05 
0.000579112 0.000888027 0.00130542 
-0.000433414 -0.000479509 -9.5025e-05 
0.00062571 0.00241712 -0.000760525 
0.000186086 -5.00641e-06 -0.000172447 
0.000225258 -0.000130752 7.86686e-06 
-0.000483727 0.00135066 0.00559985 
-7.90384e-05 0.000936565 0.00713596 
0.00796754 -0.00266233 0.0082549 
-0.00396171 0.0085321 0.0089428 
-0.00276092 0.00277748 -0.0051188 
0.00458842 -0.00472564 0.00840099 
0.000295633 -0.004032 0.0172945 
-0.001902 -0.000711614 0.0189611 
-0.000685444 -0.000561994 0.0130454 
6.31698e-05 -0.00180593 0.0126618 
-0.00382344 -0.0204789 0 
0.0194293 0.0185439 0 
-0.0294969 -0.0302117 0 
-0.00108472 -0.0225423 0.0707672 
6.41004e-05 -6.81239e-05 9.30638e-05 
0.000308621 -3.31919e-05 -0.000140674 
0.000197583 9.31067e-05 0.0092168 
0.000562129 0.000374474 0.0108011 
3.94879e-05 9.51649e-06 0.00598396 
-8.59835e-06 -1.1406e-05 0.00955527 
3.10542e-05 -2.35592e-05 0.00468636 
-3.92124e-05 -0.000158119 0.0104008 
-2.83904e-05 0.000126725 0.0170349 
2.96144e-05 -4.34839e-05 0.0140487 
-0.000107857 0.000799128 0.0158899 
-6.38713e-05 0.000572077 0.0141379 
-0.00694874 0.00698492 0 
-0.00462579 0.00498507 0 
0.0212332 -0.00822553 0 
0.0255049 -0.00600764 0.0517286 
-0.00460173 0.00186535 0 
0.000715199 -0.00496456 0 
-0.000443207 0.000390549 0 
-0.00333867 -0.00875247 0.003156 
8.83001e-05 -0.000276313 0 
-0.000831751 0.00206813 0 
0.00131274 -0.00247476 0 
0.00193273 -0.00151453 0.00471245 
-4.31324e-08 -8.50533e-05 0.00702852 
-2.54092e-05 6.0209e-05 0.00688673 
8.62692e-05 -2.46117e-05 0.000194638 
5.71445e-05 0.000198156 0.00921702 
-0.000324436 2.64672e-05 9.68042e-05 
1.93479e-05 -1.57839e-06 -0.000507582 
-0.000544953 4.44568e-05 0.00124668 
0.00166538 0.00152079 0.00251774 
3.10304e-05 3.19588e-05 0.00869125 
-1.37595e-05 -1.71439e-05 0.00992084 
1.29715e-06 -2.86436e-05 0.00574767 
-0.000365716 0.000268238 0.00872167 
0.00311302 -0.00154712 0.00821517 
0.00228392 0.000394556 0.0142418 
0.00349724 0.00129951 0.00980715 
0.00583457 -0.000510486 0.0119899 
-6.71724e-05 4.06901e-06 0.0167425 
0.00044649 0.000101409 0.0176695 
6.08427e-05 -7.55956e-06 0.014088 
0.000554384 -3.39037e-05 0.0134957 
0.00284379 0.00155268 0 
0.000531457 0.000726858 0 
0.000651627 -0.00183011 0 
-0.008282 0.00148933 0.00200701 
-0.000351918 -0.000462342 0.0148838 
2.71183e-05 0.000214007 0.00887279 
-0.000102997 -0.000648871 0.00926043 
-0.000120975 -0.000175518 0.0105434 
0.00117566 0.00308926 0.0149252 
0.000369037 0.00267735 0.0105779 
0.00260714 -0.000188725 0.0133042 
0.00293681 0.00183101 0.0101083 
-0.00167844 0.0028627 -0.00812673 
0.00113137 -0.00377041 0.0025728 
0.00652264 -0.00307369 0.0117597 
0.00463946 -0.00327404 0.0107409 
0.00197018 0.00472506 0.0116125 
-0.0005961 0.0101433 0.0284816 
0.00114174 0.0018677 0.0168672 
0.00646295 0.00253647 0.0169843 
0.000625631 -0.000294903 0.0162051 
0.00251144 -0.00339296 0.0137228 
-0.00130313 -0.00132561 0.0135453 
0.00369835 0.000199576 0.0125778 
-2.83393e-06 -1.95191e-06 -0.000104211 
1.21673e-05 8.29471e-06 8.00121e-05 
-5.81579e-05 -3.95274e-05 0.00013211 
-0.000203436 -2.80215e-05 0.00813333 
0.00112058 -0.000549838 0.016985 
-4.22446e-05 -0.000723665 0.0174771 
0.000536713 -0.000192664 0.0165322 
0.000724065 -0.00110471 0.0159526 
0.00562324 -0.00962621 0 
8.33636e-05 0.0235511 0 
0.00114279 -0.00732664 0 
-0.0109412 0.041128 0.0420601 
5.4788e-05 -0.000120831 0.000140971 
2.05387e-05 -4.22614e-05 -4.06167e-05 
-2.47806e-05 5.3545e-05 -2.96756e-05 
0.000177108 -0.000217448 0.00953452 
-6.42531e-05 1.49974e-05 -0.000411601 
0.000280894 -9.2579e-05 0.000918915 
-0.000905993 0.000379583 -0.0003246 
0.0020256 -8.32928e-05 0.00020623 
-0.00154206 0.000309144 0.0168426 
-0.000622195 2.02002e-07 0.0176965 
-0.000304235 0.000586461 0.0170442 
-0.000993919 0.00138104 0.0167235 
-0.000415903 0.00171178 0.0124334 
-0.000365996 0.00148779 0.00578117 
3.94746e-05 0.00140631 0.00912593 
3.32134e-05 0.000702344 0.00720812 
0.000430794 0.0028335 -0.00280809 
0.00110775 0.00731527 0.00770063 
-0.000764398 -0.00388833 -0.00250063 
0.000854967 0.00375291 0.00498553 
0.00259722 -0.00270525 0.0152863 
0.00155276 -0.00126891 0.0403921 
0.0106943 -0.00437033 0.0215178 
-0.000693373 6.33608e-05 0.0181809 
-0.00068078 -0.000756848 -0.000783582 
0.000414488 0.00101675 0.00132338 
-0.000733856 -0.000509994 -0.00108915 
0.000784862 0.00139773 0.000996994 
-0.000957919 0.00039309 0.0157391 
-0.00172212 0.00459039 0.0155979 
0.00152445 0.0045651 0.0182764 
0.000923544 0.00495251 0.0161492 
0.00641356 0.000295539 0.0120738 
0.00224824 0.000648341 0.0138231 
0.00382196 0.00176708 0.0101966 
0.00325753 2.29278e-05 0.0178263 
0.000635102 -0.000960406 0.00850207 
-0.00208374 -0.00102731 0.0121984 
-0.00294426 -0.00416895 0.0161179 
0.000479375 -0.00147003 0.0173723 
-0.00103412 -0.000307044 0 
-0.00152396 -0.00214601 0 
-0.000104637 0.000454884 0 
-0.00874858 -0.0023814 0.0042065 
0.000465105 0.00010028 0.0152979 
0.00146961 -0.000403729 0.0164946 
0.0026756 8.53072e-05 0.0168235 
0.0036874 9.6222e-05 0.0179065 
0.00588562 0.00330366 0.00517555 
0.00841199 0.000910981 0.0133384 
0.00277442 0.0012501 0.00896659 
0.00525258 0.00261358 0.0145848 
-0.000898929 0.000897023 0.0170261 
-0.000247535 0.000654982 0.0173203 
-0.00063317 4.78961e-05 0.0176695 
-0.00100203 0.00131779 0.0166608 
-0.00141062 6.11524e-06 0 
0.0024347 0.00173207 0 
1.45044e-06 0.00118436 0 
-0.0038513 0.000362203 0.00360614 
-0.00869276 0.01018 0.0396081 
-0.011204 0.0149278 0.0370601 
-0.0084978 0.00435308 0.010802 
-0.00574904 -0.00493394 -0.00192777 
-0.000274611 0.000506805 0.0169603 
-0.000636859 0.000220017 0.0177842 
-0.00160241 0.000288772 0.0169667 
-0.000308371 -2.55244e-05 0.0160867 
-0.000118162 -0.00349869 0 
0.0010369 -0.00277788 0 
-0.00111728 0.0013945 0 
-0.000834393 0.011148 0.00176687 
-0.000561342 -0.000290646 0.00969787 
7.31231e-05 0.000252249 0.0142976 
0.00095811 -0.000158256 0.0160845 
0.000212157 0.000286427 0.0145003 
-6.69775e-06 2.38772e-05 0.0052608 
4.67329e-06 -8.73501e-06 0.00695821 
2.04496e-05 -6.66681e-06 0.000241153 
2.84549e-05 0.000145497 0.00785845 
-5.5795e-05 0.000119013 -0.00104893 
0.000433857 0.0149459 0.0109728 
0.00115895 0.0119895 0.0157259 
0.00472449 -0.00465611 0.00369426 
0.00470567 -0.00135498 -0.00331345 
-0.00568772 0.000162532 0.004298 
0.000359537 -0.0010908 -0.00166584 
-0.00639348 0.00140978 0.00443988 
0.000190956 -6.20118e-05 0.000255418 
4.90275e-05 -5.68038e-06 0.000125944 
-0.000161138 0.000175706 -0.000122417 
-0.000762504 -1.86842e-05 -0.000468062 
-0.00127333 -0.000661314 -0.00129961 
-0.000322582 -0.00103516 -0.00175929 
-0.00406603 0.00312257 0.00442683 
-0.00611787 0.0017022 0.00412298 
-0.00147562 -0.00657362 0.0016142 
-0.000456228 -0.00544246 0.0120199 
-0.00310034 -0.00357886 0.0107833 
-0.00758959 0.00150675 0.0105914 
0.0216637 -0.00407305 -0.0111422 
0.0109666 -0.0194047 2.53389e-05 
-0.0184251 -0.0264643 0.0499741 
-0.0102539 -0.00425312 0.00720723 
-6.06429e-05 4.18827e-05 0.000111344 
5.79741e-05 -3.70125e-05 0.000177985 
1.28349e-05 -8.34201e-06 2.55142e-05 
-0.000301204 0.000180401 0.0098982 
0.00649686 -0.00326557 0 
0.0108617 0.00692267 0 
-0.0196535 -0.00515901 0 
-0.0343218 -0.00617934 0.0253034 
7.27273e-05 -0.000128763 0.000255318 
7.2817e-05 -8.09301e-05 -0.000222514 
-0.000329356 0.00136202 0.00528148 
7.75114e-05 0.000916509 0.00697351 
-5.446e-05 9.15355e-07 0.000236165 
-2.90944e-05 1.20487e-05 8.14036e-05 
0.000161004 0.000205397 0.00898553 
2.46243e-05 6.18454e-05 0.00876917 
0.000699024 -0.00114344 0.00160124 
0.00012976 -0.000309997 0.00638039 
-0.00323883 -0.000697327 0.006629 
-0.000459916 0.000438877 0.000220994 
0.000297719 -3.67142e-05 0.000390058 
8.52579e-05 -0.00044666 0.000295916 
0.000570187 0.000451084 -0.000558938 
0.00227425 -0.0012138 0.000631211 
-0.00494972 -0.000470366 0.0205475 
-0.00149751 0.00244754 0.021045 
-0.00102476 -0.000479099 0.0131385 
-0.00347851 0.000850676 0.017365 
-0.00288266 -0.000493282 0.0118792 
0.00117566 -0.000461526 0.0163659 
0.00130893 -0.000430856 0.0223772 
0.000613343 -0.00140222 0.0173702 
8.02721e-06 4.06065e-07 0.0173749 
-0.00026244 -0.000354214 0.0164085 
8.8931e-05 -2.66428e-05 0.0179622 
-0.00029649 -0.000133792 0.0179892 
-0.000213169 0.00553364 0.0167674 
-0.000552716 0.00398587 0.0156753 
7.99473e-05 0.00186451 0.0180532 
0.000187783 0.00177186 0.0158104 
-0.000101467 -8.05543e-06 -0.000104559 
-0.00014479 -1.28383e-05 0.000181768 
7.1553e-05 5.87205e-06 2.65636e-05 
0.000882877 2.50719e-05 0.011198 
-0.000278237 0.000183035 0 
-0.000330705 8.3107e-05 0 
0.000160196 -0.000114752 0 
-0.000334672 0.000294076 1.36261e-05 
-5.82435e-05 8.52184e-05 -0.000600205 
4.3274e-05 -6.30719e-05 9.16201e-05 
-0.000186287 0.000271192 7.21739e-05 
-1.04889e-05 0.000660616 0.00731305 
-0.0188325 -0.000613305 -0.00888688 
0.0198964 -0.0192205 0.0627507 
-0.00263833 -0.0198204 0.00821488 
0.00212156 -0.00017248 0.00105509 
-0.000874627 -0.00059974 -0.000994172 
0.000313623 0.0013441 0.00167106 
-0.000718288 -0.000194466 -0.000841404 
0.00172017 0.00226717 0.00146481 
-0.00115495 -0.000258026 0.0168217 
-0.000871187 -0.00064689 0.0166209 
-5.78697e-05 -0.000601559 0.0174425 
-0.000339776 -9.36603e-05 0.0179224 
0.000244269 7.2235e-05 0 
-4.78207e-05 0.000180198 0 
-3.87627e-06 -0.000105387 0 
0.000779674 -0.000652793 5.68011e-05 
-5.58653e-05 -9.77062e-05 0.0143242 
5.62852e-05 4.20284e-05 0.0164522 
0.000518854 -7.15478e-05 0.0148998 
0.000574908 0.000183577 0.0174633 
-0.000314061 0.000160915 -0.000843123 
0.000523019 -0.000257014 0.000687641 
0.000221702 -0.000110182 0.000372293 
0.00106144 0.000267643 0.00104948 
7.77957e-06 -3.51879e-06 0.0187964 
-6.99833e-05 8.06824e-05 0.0183366 
-0.00049488 0.00020167 0.0177352 
-0.000348929 -0.000171646 0.0178704 
2.35406e-05 4.01187e-05 0.0164336 
-3.85142e-05 3.57239e-05 0.0170918 
-6.44621e-05 -6.35018e-05 0.0142101 
3.64512e-05 0.000837301 0.015639 
-0.000298879 -0.000738997 0.0177697 
-0.000210847 -0.000218951 0.0165392 
-0.00087376 -0.000202911 0.0166674 
-0.000309748 -6.53371e-05 0.0178574 
-0.00201487 -0.00255496 0.0113597 
-0.00326928 0.00517555 0.0146135 
-0.00576344 -0.00288535 0.0148764 
-0.00555698 0.000413912 0.0272452 
7.61949e-05 -8.16154e-06 0.0116026 
-1.74588e-05 8.12663e-05 0.0158281 
4.93908e-06 -5.55887e-05 0.0138651 
-0.00024641 7.63894e-05 0.0160624 
0.000790237 0.000662591 0.01546 
0.000209267 0.000145882 0.00915312 
-0.000142127 0.00101974 0.0118985 
3.59775e-05 0.000738925 0.00733362 
-0.00112632 0.00198679 0.0166073 
-0.00052855 0.00335172 0.0153788 
-0.00275674 0.00139374 0.0133872 
-0.0010904 0.00152155 0.0166579 
-0.000363403 0.000738726 0.0168215 
3.86753e-05 0.00216104 0.0175023 
0.000105002 0.00168513 0.0165079 
-0.00110569 0.00138717 0.0164836 
-0.000345882 -0.000650412 0.0175831 
0.000368594 -0.00154689 0.0153177 
0.00126024 -0.000533898 0.016894 
0.000390766 1.26274e-05 0.0164186 
-6.01893e-06 -2.87964e-05 0.00138271 
-8.9929e-05 -3.28596e-05 -0.000211881 
-0.000592877 -0.00023689 -0.000333038 
0.00359382 0.000123518 0.00101346 
-0.000329067 0.00542276 0.0101405 
0.00977375 0.00370494 0.0179989 
0.00633461 0.0174906 0.0342787 
0.00579098 -0.00174457 0.0159086 
-0.0346507 0.016896 0.0639069 
-0.000616464 0.0503242 0.066025 
-0.0223432 -0.0321741 0.0570741 
0.00695423 0.00724831 -0.0547662 
3.9308e-05 0.000113551 0.0125 
-2.00266e-05 7.08832e-05 0.0105728 
-4.11716e-05 -0.000105951 0.00671553 
0.000124962 0.00014847 0.00880022 
-0.00214814 -0.00929343 0.0125214 
0.00434799 -0.00249131 -0.000876879 
-0.00173259 -0.0128283 0.0183277 
0.00278977 -0.00626853 0.00591843 
0.00111657 -0.000629004 0.017042 
0.000512741 -0.00137817 0.0151269 
0.00215763 -0.000269125 0.0139361 
0.000249965 0.000210144 0.0163959 
-0.000245749 0.000786169 0.0218142 
8.1408e-05 -0.00241093 0.0161094 
0.00180121 -0.00425551 0.019937 
-0.000582415 -0.00824943 0.0267807 
9.38149e-05 9.68857e-05 0.00750919 
-4.76363e-05 5.32546e-05 0.0132265 
-0.000101208 -0.000100689 0.0111549 
-0.000129146 -1.23738e-06 0.00877529 
-0.00344185 -0.0375385 0.180354 
-0.0284548 0.0368728 0.186573 
0.0456769 -0.0368204 0.0140216 
-0.0194212 0.0313058 -0.0108627 
0.000929613 -0.000220522 0.00122511 
0.000475219 -0.000106605 -0.000160734 
0.00018902 -3.98453e-05 -0.00039252 
-0.00502016 -0.000947324 0.0013528 
0.000322764 0.00196748 0 
-0.00106261 0.000422832 0 
0.0021652 0.000209789 0 
-0.00100862 0.00141309 0.00157657 
-0.00430903 0.00200423 0 
0.00503074 -0.00100108 0 
-0.00477003 0.00577532 0 
0.0222543 -0.00525665 0.00271113 
-9.64546e-05 -0.00421127 0.0163894 
-1.06059e-05 -0.00118051 0.0165309 
-0.000783777 -0.00227225 0.0181558 
-0.000324708 -0.00305399 0.0179494 
-0.0370917 0.0287222 0.0189708 
0.0134432 -0.00537214 0.0192853 
-0.0164477 -0.00502313 0.0311769 
0.00513251 0.000144841 0.00119202 
3.77816e-05 7.71579e-05 0.000152578 
7.9371e-06 2.01495e-05 -2.36439e-05 
-3.19063e-05 -7.75094e-05 4.57217e-05 
7.06764e-05 0.000313516 0.00946473 
4.92549e-06 -3.54333e-05 1.76942e-05 
-2.61649e-05 2.9529e-05 7.54974e-05 
3.53263e-05 4.07673e-06 0.00558163 
2.57541e-05 -4.90313e-05 0.00898938 
-0.000160706 -4.08104e-05 0.000132053 
-1.6337e-05 -0.000692199 0.00892133 
-8.83715e-05 -0.000205348 -0.00030674 
0.000839732 -0.000905533 0.00699683 
-0.00243154 -0.000835549 0.0170257 
0.000585248 -0.0033186 0.0177448 
-0.000254816 -0.000667414 0.021798 
-0.00109882 -0.0065636 0.0250977 
0.000104758 -0.000367565 0.000121733 
0.000182579 0.000889044 0.00678858 
-0.000318797 -0.0003102 -0.000378398 
0.000952471 0.000706196 0.00469192 
-0.00407036 0.00642639 0 
0.000992282 -0.00363262 0 
0.00500528 0.000520696 0 
0.0030803 -0.00824103 0.00199196 
-0.000176744 0.000128816 -1.28254e-05 
-1.33253e-05 9.79976e-06 -0.000191359 
-0.000162253 0.000117976 0.000592322 
0.00131467 -0.000103782 0.00457892 
0.00111486 0.00305196 0.0146791 
-2.27883e-05 0.00167134 0.0158879 
0.000449387 0.00524061 0.016339 
0.000161525 0.00255459 0.0173648 
0.000195561 0.000901672 0.020908 
-6.87259e-05 -0.00412573 0.0182105 
-0.00175068 -0.00182676 0.01757 
0.000719416 -0.00102669 0.0155201 
-0.000972898 0.000712366 0.0166963 
-0.000547264 0.000193954 0.0179616 
-0.00166372 0.000215149 0.0169365 
-0.00105911 0.00117707 0.0164086 
0.000270452 0.000905307 0.0174563 
-6.55495e-05 0.000296234 0.0145842 
-0.000393867 0.00111527 0.0150387 
0.000724875 0.00089887 0.0169263 
-2.62793e-05 0.000305371 -0.000120287 
2.12727e-05 -0.000247193 0.000114949 
4.68319e-06 -5.44196e-05 0.000268982 
0.000465418 0.000629148 0.0113162 
-2.50625e-05 2.50487e-05 -0.00017453 
6.0217e-06 -5.38965e-06 0.000163796 
-0.000100421 0.000104648 0.00013088 
0.000203266 0.000174665 0.00721526 
0.0039979 -0.0117713 0.0127229 
-0.00370979 -0.00475802 0.0192688 
-0.0010299 -0.0145647 0.0230284 
-0.00291273 -0.00980105 0.0265248 
2.98691e-05 -0.000154672 0 
0.000338591 0.000123047 -0.000171362 
0.000138441 0.000343055 0 
-0.000230875 0.000323509 0 
0.000569591 -0.000608535 -0.000694297 
-6.48085e-05 -7.49087e-05 -0.000192183 
0.000187557 -0.000246378 -0.000209977 
-0.00114518 -0.000334411 0.00115867 
4.89542e-06 2.33108e-05 2.36252e-05 
-1.56122e-05 -6.52067e-05 0.000113651 
6.70962e-07 2.51338e-06 -1.08637e-05 
8.81001e-05 -0.00011871 0.00908101 
-0.0125627 -0.0308021 0.029681 
-0.00386681 0.017929 -0.0148828 
-0.0127666 -0.0200208 0.0616652 
-0.00419466 -0.0032963 -0.0120535 
-0.00415741 4.6796e-05 0.0207957 
-0.00160894 0.00051341 0.0169195 
-0.00281353 0.00113869 0.0140108 
-0.00115406 0.000728626 0.0201532 
0.0005095 -0.001195 0.00166777 
-0.000477353 -0.00359181 0.00930512 
-0.00263814 -0.000463464 0.00629094 
0.000171565 -0.000396735 0.00654283 
-0.000376337 -0.000375154 -0.000767427 
0.000211804 0.000496391 0.00035773 
0.000391331 0.000222587 0.000974145 
0.000300308 -2.45261e-05 -0.000113162 
0.00509831 0.00159002 0.0278418 
0.000409667 -0.0027977 0.0178618 
-0.00275682 0.000866635 0.0240806 
-0.00010603 0.00481399 0.017256 
0.00249334 -0.00436649 0.0112826 
-0.00170114 -0.00330994 0.0138761 
0.00367826 -0.00290879 0.0142014 
0.00351284 0.00198247 0.0119966 
5.80417e-05 -7.92238e-05 0.000155073 
1.73414e-05 -1.94119e-06 0.00610057 
-2.97592e-05 -1.25497e-05 -8.41232e-05 
4.10831e-05 2.84766e-05 0.00515192 
-7.22938e-07 4.76336e-05 0.00552314 
1.00951e-05 -4.28661e-05 0.00737563 
-6.9512e-05 1.81047e-05 0.000185347 
-2.36728e-06 0.000164334 0.00894142 
0.000316977 0.000174111 0.000802328 
-0.000143737 -9.63819e-05 -0.00104855 
-0.000120136 -6.27866e-05 -0.00017828 
0.00225154 -0.000102601 0.00302657 
0.000992477 -0.00748037 0.0076247 
-0.00214343 -0.0128402 0.0232355 
-0.00122014 -0.00530125 0.0179448 
-0.00236375 -0.00304328 0.0162348 
-0.000170649 0.000334256 -0.000508496 
-0.000257049 0.00116463 -0.000631775 
-0.000789961 0.000168397 4.78895e-05 
-0.000919174 -0.000192013 0.00102165 
5.40538e-06 4.66597e-05 0.0170492 
-0.000492816 0.00019771 0.0178061 
-0.000425137 0.000451358 0.0169123 
-0.000450706 4.89982e-05 0.016082 
0.00119682 0.00119896 0.014316 
-0.000525198 0.00709318 0.01687 
0.00073601 0.00369656 0.0107388 
0.00172849 0.00635753 0.0110191 
2.63412e-06 1.2572e-05 0.0116904 
1.37741e-05 -2.20823e-05 0.00957212 
-6.40845e-05 3.80627e-05 0.0141052 
-9.18169e-05 -0.000134941 0.0103344 
-0.000109667 -0.000316789 -0.000716326 
-0.000587452 0.000136318 -0.000620656 
1.81364e-05 -0.00121036 -0.000817664 
0.00153545 0.00158715 0.00266409 
4.91849e-05 4.60597e-05 0.016975 
1.69699e-05 5.98535e-05 0.0156863 
-0.000459831 8.25974e-05 0.0180962 
-0.000444736 0.00010761 0.0158947 
-0.000181205 -0.000643995 0.0174685 
-8.52988e-05 0.000110411 0.0182436 
0.00034077 8.88884e-05 0.0168015 
0.000475359 -1.56761e-05 0.0181269 
-0.00216503 -0.000157775 0.0179837 
0.000431287 0.00234365 0.0122355 
-0.00275174 -0.000695416 0.0159144 
-0.000675114 0.00295442 0.0174912 
1.38543e-05 -8.95764e-05 0.0186332 
-6.18378e-06 4.43152e-05 0.018496 
-0.000413994 0.000229224 0.0178252 
-9.53285e-05 0.000145665 0.0184503 
-1.05159e-05 -6.67671e-05 -5.26758e-05 
-1.6081e-05 -7.40504e-05 -5.90858e-06 
0.000124983 0.000193344 2.56834e-06 
-0.000387862 -0.00123496 9.18976e-05 
0.00342262 -0.0009903 0.0161447 
0.00455819 1.34563e-05 0.0174695 
0.00037377 0.000545224 0.0173001 
0.0019043 -0.00139438 0.0185758 
-0.000224052 0.000609966 0.0117724 
-0.000239893 0.00194299 0.0130097 
-0.00183976 9.39609e-05 0.01759 
7.20699e-05 0.00243434 0.016939 
2.1314e-05 9.10613e-05 -0.000190966 
-3.72696e-05 -0.00014057 0.000165148 
-1.42226e-05 -3.49638e-05 -0.000105934 
0.000172664 0.000915315 0.007413 
0.000604607 0.00123627 0 
2.93764e-06 4.06405e-06 0 
0.000187378 -0.000716862 0 
-0.000400587 -0.0013088 4.071e-05 
-3.17154e-06 -3.88441e-05 0.000195616 
7.21622e-07 8.83821e-06 5.22172e-05 
-5.51234e-06 -6.75135e-05 -1.27367e-05 
-8.97018e-05 -4.60548e-05 0.00909006 
-8.32755e-05 4.25709e-05 -8.52507e-05 
-5.90006e-06 5.68562e-06 -8.26353e-05 
-0.000188959 8.24191e-05 0.000213361 
0.00141584 -0.000397962 0.00876646 
6.85834e-06 5.77595e-05 2.99535e-05 
6.68597e-05 2.84301e-05 0.00545603 
-4.28851e-05 -4.09349e-05 0.000153383 
0.000307644 2.79571e-05 0.00892513 
0.00265565 1.74137e-06 0.0170902 
0.00134387 -0.000305614 0.0166358 
0.000714684 0.000242009 0.0141882 
0.00155119 -0.00184949 0.0178109 
-1.2146e-05 -3.78815e-05 0.0184597 
5.25816e-06 -5.73885e-05 0.0187502 
-1.9153e-05 1.63505e-05 0.018238 
-4.87631e-05 0.000784767 0.0182002 
0.00540448 -0.000307277 0 
0.0118716 0.00644839 0 
-0.0194856 -0.011611 0 
-0.0184486 -0.000411352 0.0406843 
-0.00533283 0.0156665 0.0190807 
-0.000585824 -0.00568244 0.0244155 
-0.00378638 0.0229298 0.0384797 
-0.00934251 0.00530784 0.0362764 
-3.70449e-05 -6.13192e-06 0.0138164 
8.41879e-05 2.3197e-05 0.0169616 
3.44296e-05 -3.85676e-06 0.0140743 
0.000407444 -5.60075e-05 0.0132707 
0.000630723 0.000984186 0.016775 
0.000388708 0.00034852 0.0145381 
-0.000327588 0.00113437 0.0151947 
0.000132813 0.00254434 0.0173428 
-2.40985e-05 1.04413e-05 -6.93212e-07 
6.41729e-05 -2.35331e-05 0.000162064 
3.28995e-06 -2.69825e-06 -4.76451e-05 
2.31382e-05 -6.60395e-05 0.0058274 
-0.000356786 0.00104198 0.0152303 
3.48418e-05 0.000224242 0.0142954 
-0.000509863 -0.000266793 0.00980725 
0.000222266 0.000310815 0.0143699 
-0.00121793 0.0225739 0.0148887 
0.0122786 0.0400582 0.0540101 
-0.0122726 -0.00683217 -0.0118427 
-0.00226623 0.00075945 -0.00271999 
0.00165791 0.00250176 0.01531 
0.000634603 0.000985665 0.0171352 
0.000600493 0.00218873 0.0162045 
-0.000301693 0.00261071 0.0169732 
0.000772444 -0.00030358 0.0149385 
0.00269338 -0.00366361 0.0134888 
-0.00117888 -0.00512171 0.0159372 
-0.00106842 -0.00196833 0.0147524 
-1.45582e-05 -2.64217e-05 0.000142217 
2.67295e-06 3.95232e-05 0.00551682 
1.98051e-05 -4.76312e-05 4.95699e-05 
-6.56124e-05 0.000118318 0.00887541 
0.00553416 0.00171325 0 
-0.00884922 0.00159054 0 
0.00975752 -0.00646907 0 
0.0204513 -0.0246165 0.0168701 
-0.00307859 -0.0028503 0.0238913 
-0.0156203 0.000896984 0.013981 
-0.0153152 0.00284537 0.0206303 
-0.00692568 -6.69211e-05 0.0111153 
0.011669 0.00255762 0.0182158 
0.00795279 -0.00587166 0.0471328 
0.000998376 -0.00579173 0.016006 
0.0106862 -0.00238696 0.00069172 
9.9339e-05 1.91332e-05 1.60416e-06 
8.79202e-06 3.36637e-05 0 
-5.78752e-05 -2.32277e-05 0 
6.98402e-05 6.21999e-05 0 
0.00529346 0.00327294 0.0213733 
-0.00127023 0.00621561 0.0209255 
0.00674297 0.00498534 0.000511911 
0.00131352 0.0020147 0.0172482 
0.00196046 0.000189418 0.0134207 
0.000446928 -0.00192268 0.0153375 
-0.000136948 -0.000191884 0.0125445 
0.000426154 7.22247e-05 0.0167073 
-6.41718e-05 0.000176729 9.97016e-05 
-0.000232487 -0.0001597 -0.000172698 
-0.000108532 3.47999e-05 -7.2324e-05 
-0.000369681 0.000433823 -8.00596e-05 
0.00616303 -0.00176285 0 
0.00877894 0.00113327 0 
-0.0262359 -0.000997261 0 
-0.033034 0.00115404 0.0538953 
-0.0237061 0.00747141 0.128853 
0.0445888 0.0393145 0.123349 
-0.0647127 -0.0231658 0.112228 
-0.00915331 0.000127896 0.00453661 
0.000671928 -0.00506113 0.0155499 
-0.00176959 -0.00094878 0.0183335 
-0.000885268 -0.00558653 0.0175784 
-0.00154429 -0.00709377 0.0232982 
-0.0119874 -0.000393892 0.0120788 
-0.0073137 0.0015961 0.0136723 
-0.00593175 0.00247425 0.00409888 
-0.00546805 -2.75623e-05 0.00961706 
9.57566e-05 0.00727994 0.00338909 
0.00269207 0.00292892 0.00369546 
0.0010869 0.000616756 0.00319339 
0.000998961 0.0057777 0.010517 
-1.30477e-05 0.000141316 0.00022433 
0.00022118 0.0002082 0.00948824 
-5.13998e-05 0.000107761 -7.15465e-05 
0.000120961 0.000397457 0.00758556 
0.00417988 0.00728982 -0.00877815 
-0.0365001 -0.0105999 0.0473528 
0.00471879 -0.000215224 -0.00275488 
-0.00672447 -0.00168234 -0.00239072 
-4.29893e-06 6.18337e-05 0.0177671 
-9.18653e-06 -2.61807e-05 0.0169902 
1.30573e-05 -1.78373e-05 0.0157589 
-0.000380352 0.000167794 0.0180883 
0.00253336 -0.00410931 0.0152387 
0.0115281 -0.00203105 0.0200008 
-6.58235e-05 -0.000931856 0.0056894 
-0.00163774 1.81548e-05 0.0202472 
-5.26032e-05 -4.27752e-05 0.0143649 
-2.8359e-05 -3.0208e-07 0.0167147 
1.5745e-05 3.61965e-05 0.0164807 
0.000565011 0.000126843 0.0174265 
0.00282858 0.000478741 0.0107341 
-0.00305667 0.000608272 0.0181494 
-0.000348019 0.00031552 0.018784 
0.000115727 0.00141719 0.0172978 
-0.000274452 0.00107683 -0.000283539 
-0.00112542 0.000260016 -0.00100567 
-2.95552e-06 0.000426351 5.4897e-05 
0.00174136 -0.00361729 0.000831105 
-7.24945e-06 -3.75051e-06 0.00692289 
1.22676e-05 1.25491e-05 0.000237526 
0.000121599 0.000180649 0.0089761 
-2.83571e-05 3.54173e-05 0.00875979 
-0.000307149 0.000138477 0.0085242 
-0.00015736 -0.00123808 0.0187686 
0.00780554 0.00154152 0.022461 
-2.53154e-05 0.00301155 0.0173515 
0.0284093 -0.00362085 0 
-0.0298702 0.00249513 0 
-0.031375 0.000247329 0 
-0.035752 0.0050844 0.0950831 
-8.76872e-05 2.0316e-05 0.0158607 
-0.000452738 0.000116165 0.0146832 
6.73528e-05 -7.03364e-06 0.0129825 
-0.000229819 8.14638e-05 0.0137865 
5.41024e-05 3.89202e-05 3.74716e-05 
2.17864e-05 -4.25472e-05 9.9114e-05 
-0.000127381 3.07053e-05 0.00800235 
-5.90288e-05 2.76986e-05 0.00881678 
2.51271e-05 -6.32194e-05 0.0149146 
7.30092e-05 4.27086e-05 0.0103909 
-2.70219e-05 -1.83585e-05 0.0110826 
-0.000100758 -0.000173851 0.00941121 
0.00256637 -0.00436397 0.0105441 
-0.00189026 -0.00709359 0.0163667 
0.00295128 -0.00138099 0.012783 
-0.00115035 -0.00458986 0.015642 
-7.39366e-05 -3.60939e-05 0.00527696 
0.000154145 -0.000107242 0.00933163 
3.15131e-05 1.72001e-05 0.0103443 
8.0796e-05 -0.000148498 0.00784419 
-2.40583e-05 -5.01377e-05 0.0184403 
-2.43353e-05 1.1117e-05 0.0182355 
1.0765e-05 -3.33233e-05 0.0173832 
-5.25855e-05 0.000782222 0.0182773 
4.06584e-05 0.0022857 0.0176868 
-0.000910866 0.00399503 0.0160006 
0.000797198 0.00334997 0.0178298 
5.0182e-05 0.00131537 0.0165715 
-2.69585e-05 6.47863e-05 8.45209e-05 
-0.000141925 3.3224e-05 0.0079171 
0.000122078 0.000204417 0.00896681 
4.36276e-05 -4.64032e-06 0.00877565 
-0.000435261 -0.000306005 -6.28285e-05 
-4.24393e-05 -2.95224e-05 -0.000682575 
-0.000159314 -0.000112185 0.000367025 
-0.000698602 0.00018871 0.00260897 
-0.00457221 0.00388715 0.00886187 
-0.00510118 -0.00265051 0.000188797 
-0.00533631 -0.00242241 0.0117559 
-0.00860068 0.00134367 0.0201131 
0.00304152 -0.0016737 0.00796324 
-0.000485284 -0.00359483 0.00925494 
0.000406867 -0.00149955 0.001346 
0.000226323 -0.000193922 0.00666474 
0.000127317 -3.38236e-05 -3.01277e-05 
0.000121076 -3.18179e-05 -9.69472e-05 
-0.00025208 6.97169e-05 -0.000480167 
-0.00204897 -0.000216335 0.0120425 
0.000827341 2.15597e-05 0 
0.00197668 -0.00122703 0 
0.00157806 -0.00124669 0 
-0.00321043 0.000892177 -0.00237226 
2.93537e-05 -3.07256e-05 0.0115883 
-3.16475e-05 4.08863e-05 0.00740177 
-4.54138e-05 -7.66461e-05 0.0131224 
0.000238884 -0.000168595 0.00816428 
0.00317806 0.00541962 0 
-0.00027613 0.00338 0 
0.00343408 -0.00945491 0 
0.00396209 -0.0202852 0.0205241 
3.04217e-05 -2.98194e-05 0.00614943 
2.59431e-05 8.65296e-06 0.00563176 
-8.06521e-05 -2.54293e-05 0.0112154 
-6.994e-05 -5.12871e-05 0.00854393 
-0.00302392 -0.00122462 0 
-0.00299293 -0.00495528 0 
0.000730469 0.00326364 0 
0.00550522 0.0121081 0.00738797 
-0.000358483 0.00352758 0.0164575 
-0.000138278 0.00136952 0.0165531 
0.000144365 0.00243762 0.0174597 
-0.000952405 0.00139792 0.0164861 
-0.000780646 0.00058858 0.0172948 
-0.000562331 0.000198051 0.0177354 
4.50901e-06 0.000173213 0.0183521 
-0.000319632 -0.000324836 0.0178428 
0.000154439 -1.82941e-05 0.000206548 
-8.2449e-06 -4.43476e-05 0.00699655 
-1.96644e-05 5.31876e-05 0.00553709 
-0.000120531 6.68754e-05 0.00875925 
-3.93515e-05 6.81142e-06 -1.76653e-05 
2.24853e-05 3.70153e-05 0.00528443 
5.5926e-05 -6.39931e-05 0.00011888 
-1.1624e-05 0.000208197 0.00799234 
0.000252347 -6.71006e-05 -2.05971e-05 
9.33943e-05 -2.63388e-05 0.000122395 
-0.000126844 3.26889e-05 0.000100197 
0.000640055 0.00010012 0.00956109 
0.000168537 0.000151986 0.00902256 
-0.00024682 6.50823e-05 0.007786 
0.000115882 0.00110372 0.00900346 
7.91567e-05 0.000536778 0.013827 
-0.000142975 3.16637e-05 1.30019e-05 
0.000617217 -0.000122382 0.0012325 
1.54607e-05 -1.25593e-05 -0.000824157 
0.000440687 0.00187624 0.000354737 
0.000267206 9.55355e-06 0 
-9.04422e-05 -0.000119894 0 
-3.80586e-05 -0.000169351 0 
0.00308386 -0.000489873 0.000486907 
0.000364551 0.000296582 0 
0.00022053 -5.78967e-05 -0.000159275 
7.84262e-05 0.000150596 0 
-4.47884e-05 -0.000431679 0 
2.4242e-05 5.48837e-05 0.00638939 
-3.72827e-05 -5.44187e-05 0.0115487 
-2.59822e-05 3.43534e-05 0.0104054 
0.000138419 -7.80955e-05 0.00922036 
0.00239019 -0.00504616 0.010229 
-0.00154238 -0.00525139 0.0194855 
-0.000695169 -0.0126454 0.017779 
0.0020528 -0.00755393 0.00760465 
-0.00140487 2.90332e-05 0 
6.99391e-05 0.000380008 0 
-0.0015556 0.000774454 0 
0.00679141 0.00108572 0.000954441 
2.13349e-05 3.06136e-05 0.0184643 
-3.69783e-05 7.88313e-06 0.0179259 
-3.43377e-05 1.63367e-05 0.017236 
0.000232031 -0.000576358 0.0173971 
8.98847e-05 0.000171619 0 
-6.46954e-05 -0.000173664 0 
-3.47301e-05 -1.21229e-05 0 
-3.02092e-05 -0.000111326 -0.000148578 
0.00570737 0.0124163 0 
-0.0116193 -0.032048 0 
0.0062965 0.00621359 0 
-0.00604704 -0.0312679 0.0586676 
5.97045e-05 -6.74976e-06 8.72491e-05 
-0.000287317 -0.000342216 0.00968422 
8.27095e-05 0.000177625 0.000200977 
-0.000372682 -0.000150786 0.00740721 
0.00115896 -0.000847295 0 
0.00114879 -0.000877821 0 
0.000378573 0.000198009 0 
-0.00675488 0.00645037 0.000276738 
0.0443875 0.0108543 0.133113 
0.0132465 -0.0223909 0.0729181 
-0.0356385 -0.0114883 0.139327 
0.00106782 -0.0388707 -0.0677152 
0.00691608 0.000712778 0.0177227 
0.000200016 0.000611943 0.0112618 
0.00134586 -0.00190489 0.00664488 
0.00110438 -0.000231519 0.018923 
-0.000909963 0.000682075 0.0166432 
-1.94064e-05 -0.000770396 0.017606 
0.000213854 0.000108976 0.0164543 
-0.000866627 -0.000734909 0.0156753 
-4.82158e-05 0.00484017 0.0166324 
0.000201834 0.00228075 0.0162522 
-0.000228659 0.00228738 0.0176078 
0.000328631 0.00250494 0.0170529 
2.06783e-05 1.46593e-06 -6.45953e-05 
4.63231e-05 4.75747e-06 0.000218301 
-5.02429e-06 -4.48588e-07 -7.06915e-06 
-0.000282175 -1.96164e-05 0.00771404 
-0.00236279 -0.000489963 0.0058802 
-0.00373519 3.55399e-05 -0.000699316 
-0.0116977 -0.000534937 0.0100346 
-0.00866183 -0.00199542 0.0110985 
-5.66523e-05 -0.00010541 0.000154952 
0.000256627 0.000377164 0.00917472 
1.4926e-05 7.80014e-05 -5.72733e-05 
0.000240311 0.0005779 0.00711998 
-0.000129256 0.000152927 -0.000428522 
0.00010015 -0.00011648 0.0003776 
-0.000184373 0.000223328 -0.000493564 
-2.35513e-05 -0.00133964 0.00479406 
-3.73381e-05 0.000232292 4.58313e-05 
-9.92715e-05 0.000291486 -6.23802e-06 
-7.39719e-05 -0.000604514 -0.000419998 
0.000570668 0.000832226 0.000187166 
-3.27851e-05 -3.12546e-05 -0.000441567 
-0.000193055 -0.000185582 0.000139053 
2.35184e-06 2.07008e-06 0.000337558 
0.000401578 -0.000220689 0.000759452 
-8.82653e-05 -0.00187598 0.0058481 
-0.00695076 -0.0112466 0.0195788 
-0.00429915 -0.00198349 0.0164342 
-0.00446652 0.00255199 0.0074901 
0.000288976 0.00155283 0.0121047 
-0.00290331 0.00289598 0.0237218 
-0.00256124 0.00872369 0.0206426 
-0.0128179 0.00269075 0.0318179 
4.37365e-05 2.65616e-06 0.0123044 
-0.000101518 -5.73971e-05 0.0159567 
3.18028e-07 2.96529e-06 0.0129929 
-0.000125714 0.000122315 0.0137041 
0.000420662 4.41395e-05 -0.000940898 
0.000224563 3.50478e-05 -0.00136998 
0.000174146 1.1203e-05 0.000144637 
-0.00151176 0.00227364 0.00623991 
0.000375401 -0.000211184 0 
0.00138059 -0.00091162 0 
0.0010285 0.000202863 0 
-0.00280668 0.000899934 -0.0011992 
-0.0014294 -0.000852242 -0.000986614 
-0.00432893 0.00304859 0.00398247 
0.00121326 6.54906e-05 -0.000715856 
-0.00754138 0.000352286 0.00392174 
-0.000498943 -0.000308517 0 
-0.000157613 0.000383455 0 
-0.00129007 -0.000606073 0 
-0.000404605 0.00123134 0.000116945 
-0.00219458 -0.00160665 -0.00327324 
-0.00106478 0.000830162 -0.00297941 
0.00363597 -0.000380398 0.00256333 
0.0199409 2.65089e-05 0.0117923 
-3.50807e-05 4.72504e-05 -0.000540266 
1.63835e-05 -2.60643e-05 -0.000268507 
3.30557e-05 -4.61318e-05 0.000299439 
-1.70814e-05 0.00171582 0.00663048 
-7.0676e-05 0.0010684 0.0171517 
0.00021278 0.000695787 0.0161967 
-1.70666e-05 0.0021964 0.0176879 
-9.97146e-05 0.00171797 0.0170105 
-0.0106932 -0.000135851 0.00936358 
-0.00748422 0.00125237 0.00655095 
-0.00362456 0.0018877 0.000977038 
-0.00516937 0.0016303 0.0104008 
-5.34104e-05 -0.00021611 0.000254905 
-5.1117e-06 -1.45697e-05 -8.49723e-05 
5.20059e-05 0.000185165 0.000203743 
0.000153023 0.000716832 0.00755983 
-4.0882e-06 -1.3609e-05 3.29564e-05 
1.9334e-06 8.69755e-06 2.4874e-05 
1.59406e-05 6.89635e-05 0.000155942 
-3.93762e-05 -0.000562582 0.00893996 
-0.0012041 0.000407909 -0.00260304 
0.00433616 0.00263762 0.00406409 
-0.00195447 -0.000327118 -0.000250125 
0.0016998 0.00137021 0.0027753 
3.65374e-05 2.91337e-05 2.86363e-05 
-1.34448e-05 -7.5047e-05 0.000125904 
-4.04382e-05 5.24417e-05 0.00687573 
7.53024e-05 0.000243408 0.00936953 
0.00130206 -0.000565743 0.0219544 
0.00123528 -4.42183e-05 0.0159988 
0.00576331 0.000143344 0.0169942 
0.00056331 -0.00146744 0.0192054 
0.00432368 0.00451387 0 
-0.00309077 0.0022991 0 
0.00123411 -0.00034998 0 
-0.00773284 -0.00114308 0.00155316 
4.69306e-05 -4.56734e-05 -0.000299837 
-5.52617e-05 5.378e-05 0.000350593 
0.000197484 -0.000191487 6.60091e-05 
-0.00089016 0.000392853 0.00638722 
-0.000568168 0.000594832 0.0167013 
0.00020386 0.000148099 0.0164672 
-0.000209041 -0.000800778 0.0175425 
-2.01884e-05 7.8741e-05 0.0184056 
1.24089e-05 -0.000583496 0.0166843 
0.000163535 -0.000980534 0.0175443 
-9.20384e-05 -0.00138694 0.0161832 
-3.16919e-05 -0.000183152 0.01448 
-0.000419138 0.000990672 0.00806023 
0.00342545 0.00364103 0.0052358 
-0.001535 -0.0012438 -0.000966806 
0.00279931 0.00391111 0.0023761 
-3.029e-05 1.23942e-05 0.000165434 
0.000243956 -0.000261524 0.00950454 
-5.63241e-05 6.87971e-05 0.000163221 
2.44423e-05 -0.000187916 0.00791027 
0.000216552 0.00571526 0.0174274 
-1.80147e-05 0.00431552 0.0188587 
7.02995e-05 0.00194274 0.0177945 
-0.000507191 0.00419947 0.0151694 
-0.000529535 0.0011121 0.0164226 
0.000268978 -0.0022966 0.0128814 
0.00106646 0.00453686 0.0166774 
0.00148286 0.000816721 0.0142979 
0.000740155 -0.00395659 0.0156011 
-0.000827155 -0.00679213 0.0173066 
0.0021671 -0.00244339 0.0121624 
0.00163863 -0.00611818 0.00962238 
2.85072e-05 5.58009e-05 7.81567e-05 
2.64142e-05 5.20654e-05 -1.01599e-05 
-1.04347e-05 -1.93054e-05 -0.000284439 
0.000162837 0.000789937 0.00709723 
0.000426973 -0.000802708 -0.000157529 
-0.000977186 0.00304727 0.00205528 
0.000137245 -0.000435376 9.06585e-05 
-0.000540694 0.00216664 0.00405658 
-8.77721e-07 7.44485e-06 0.00737392 
5.43755e-05 7.48181e-06 0.00577719 
2.10503e-05 -8.21377e-05 0.000233394 
0.000258007 -9.89286e-05 0.00816851 
-9.42511e-05 -7.09606e-05 -0.000285829 
9.88175e-05 7.04391e-05 0.000180877 
-0.000255521 0.000138573 -0.00012795 
-0.000112792 -7.82881e-05 -0.000143073 
0.000101655 -6.24028e-05 0.000116012 
-6.83673e-05 0.000235157 -6.66671e-05 
-4.21674e-05 2.11922e-05 -0.000188904 
-0.000140853 8.55724e-05 -0.000187521 
-0.0578117 0.00134143 0.190619 
0.0257319 -0.016528 0.0830635 
0.00883262 -0.00529519 0.12036 
0.0248903 0.00915636 0.0272805 
5.07605e-05 1.47735e-05 0.0174071 
-4.45324e-05 -4.45756e-05 0.0172828 
-5.5496e-05 6.73552e-05 0.015433 
0.000476855 -0.000227331 0.0164424 
-0.00673663 0.00307715 0.0211788 
-0.0038525 -0.0160862 0.0334404 
-0.00298144 -0.00435824 0.0160972 
0.00063464 -0.00809024 0.0270974 
-3.93492e-05 -4.31929e-05 0.015932 
-0.000323951 0.000119601 0.0137684 
3.32097e-05 -1.0462e-05 0.0147185 
-0.000153266 -0.000223152 0.0164216 
3.15006e-05 6.41871e-05 0.0068115 
-9.60619e-06 5.55945e-07 -2.14422e-05 
3.24206e-06 1.44843e-05 0.000136588 
-3.60401e-05 5.17997e-05 0.00601647 
0.00201558 -0.00389079 0.0147016 
-0.000437865 -0.00174971 0.00588988 
0.0112307 -0.00122142 0.0192807 
0.00574677 -0.00254557 0.00548451 
0.00589128 -0.0249225 0.0523383 
-0.00323814 0.0209252 0.224511 
0.0111133 -0.0566959 0.143251 
-0.0164031 -0.0188828 -0.0555822 
2.79678e-05 -1.44093e-05 -0.000482892 
0.000179768 -9.15315e-05 9.67131e-05 
0.000133385 -6.78972e-05 0.000123024 
0.00111216 7.80472e-05 0.00836543 
4.72847e-05 -2.38005e-05 -1.68771e-05 
-1.51519e-05 -1.46537e-05 0.000102404 
-6.38825e-05 2.03901e-05 0.00712126 
-2.92536e-05 2.2344e-06 0.00555927 
-0.0170295 -0.0187624 0.0988183 
0.0148028 -0.0179959 0.0964869 
-0.00399522 0.0478587 0.140709 
-0.00187907 -0.011913 0.0447499 
0.0088093 0.0026033 -0.0059224 
-0.0174128 0.00945153 0.0308808 
-0.00796808 0.0103876 0.00245504 
0.00251894 -0.00445929 -0.00534242 
0.000367826 0.000531477 0 
0.000229851 -0.000339245 0 
0.000185107 0.000537777 0 
-0.00110053 6.72679e-07 -0.000422727 
0.00282664 -0.000157581 0.0162215 
0.00398605 0.000878012 0.0170455 
0.00270418 -0.000184285 0.0132334 
0.0053841 -0.000316282 0.0137518 
4.61358e-05 -2.13938e-05 -0.000249309 
-0.00188186 0.00134412 0.00117283 
-5.36134e-05 9.20742e-06 -0.000196797 
-0.000563166 0.000480455 0.000732877 
0.000776539 -0.00034327 0.0155187 
0.00169161 0.000385188 0.0174346 
0.00178612 -6.07723e-05 0.0161001 
0.00290399 0.000321254 0.0180455 
-1.33801e-05 8.08937e-05 0.000251668 
7.99473e-05 -4.47074e-06 0.0069693 
-8.08877e-05 -3.0829e-07 0.00677116 
0.000213169 6.24994e-05 0.00875457 
-2.08869e-06 3.63816e-06 -6.23563e-05 
-3.30662e-06 2.93952e-05 0.00694375 
1.88056e-05 -1.12215e-05 -3.20209e-05 
-6.88605e-05 4.00573e-05 0.000145701 
0.000305977 2.91927e-05 0 
8.60756e-06 9.51908e-05 0 
-0.000237366 -0.00119462 0 
0.000343793 0.00113642 -0.000276136 
0.00060017 0.00142371 0.00323416 
0.00427155 0.00307967 0.00342937 
0.00432018 -0.000171502 0.0024483 
0.00386506 0.00201798 0.0105229 
0.000258367 -0.000119787 0.0135921 
-0.000368527 4.8446e-05 0.00792079 
8.89765e-05 0.00026767 0.00908677 
0.000277941 0.000315124 0.0136538 
-0.000131546 -0.000165766 0.0137639 
-8.99002e-05 -1.14965e-05 0.00799525 
-0.000276114 -0.000204911 0.00952525 
4.38522e-06 2.38006e-05 0.00863801 
-0.0142711 -0.00195912 0 
-0.00644665 -0.0074679 0 
0.0142402 0.00393511 0 
-0.0260301 -0.0297484 0.0218834 
-0.000810401 0.00538753 0.0103002 
-0.00259753 0.00416787 0.00605825 
0.0020282 0.00798804 0.0154996 
-0.00525297 0.000445257 0.00824005 
0.0110732 0.00108735 0 
-0.0103719 -0.00209718 0 
0.0144442 0.00400361 0 
0.0457981 0.000846937 0.0396443 
1.35509e-05 -3.13549e-05 0.0177628 
-1.19368e-05 -5.29185e-05 0.0160234 
-7.08128e-06 4.21643e-05 0.0173729 
-0.000267327 -5.78177e-05 0.0181903 
-1.97971e-05 -5.94577e-05 -0.000439479 
7.66421e-05 0.000176951 -0.000467494 
-8.43424e-05 -0.000196621 0.000437378 
-0.000202309 0.0015975 0.00444624 
-0.00980912 0.0136623 0 
0.014338 -0.0107298 0 
0.0160601 -0.0107681 0 
0.0355935 0.00491935 0.0375331 
-0.000121212 -3.21727e-05 -0.000211404 
0.000286902 -0.000905288 0.00857651 
-0.000249961 0.000160367 2.50537e-05 
0.000514035 -0.00120403 0.00546747 
6.35583e-05 -0.0155104 0 
0.0038831 -0.0127268 0 
-0.011716 0.0244862 0 
-0.0128507 0.0227734 0.0338154 
-1.6529e-05 -0.00025824 -0.000224523 
-2.88885e-05 -0.000239661 0.000835779 
2.93184e-05 0.000269739 -0.000694395 
0.00142855 -0.00153729 0.00177023 
-6.05963e-06 5.64281e-05 0.010989 
-9.0694e-05 0.000126943 0.0124984 
5.84803e-05 -5.89283e-05 0.00687426 
0.000246152 0.000117477 0.00871484 
0.000102444 -6.10034e-05 0.0186738 
-0.000533998 0.000186771 0.0177986 
4.57671e-05 2.41409e-05 0.0177999 
-0.000379256 -6.72676e-05 0.0178813 
-0.0282454 -0.000160995 0.0288127 
-0.00682866 -0.00444921 0.00590864 
-0.00298686 -0.000187309 0.00246419 
-0.0041501 0.00630767 0.00410917 
0.000327044 -0.000717868 -0.000639099 
3.58145e-05 -7.25679e-05 -0.000168447 
-0.000398392 0.000915567 0.000109397 
-0.000315382 0.000679649 6.05014e-05 
6.61394e-05 -3.80427e-05 0.00662674 
9.60749e-06 -9.24526e-06 1.23039e-05 
4.34302e-06 8.92808e-06 0.000162119 
4.58637e-05 4.54101e-05 0.00712299 
4.77571e-05 -3.17189e-05 0.0104875 
2.14597e-05 1.64356e-05 0.00544954 
-3.11144e-05 3.30641e-05 0.00613004 
-0.000120839 -8.92779e-05 0.00931836 
-0.000506423 -0.00270624 0.0148287 
-0.000790322 -0.000555049 0.0127053 
0.00081721 -0.00187739 0.0152341 
-0.00107397 -0.000603579 0.0158157 
5.04801e-05 -0.000161998 0.00874054 
-3.77592e-05 9.80777e-05 0.0137148 
1.66521e-06 -3.47639e-05 0.00991928 
-0.000269484 0.000500392 0.0141348 
-0.000548484 0.00494795 0.0183428 
0.000356578 0.00225243 0.0175474 
-4.55859e-05 0.00182306 0.017868 
-0.000421059 0.00253811 0.0168833 
0.000715956 0.000349928 0 
-0.00075948 2.69189e-05 0 
0.000309985 -0.000959404 0 
0.00257241 -3.28198e-05 0.000741719 
-0.00106502 -0.00209416 0.0177732 
-0.000320203 -0.00312798 0.0185006 
0.000157206 -0.00119884 0.0160854 
0.000445552 -0.000564906 0.0155828 
-5.01953e-05 -4.79133e-05 0.00056709 
7.37452e-05 7.05292e-05 -0.000590097 
0.000326526 0.000313823 0.000121064 
-0.00100482 -9.47754e-05 0.00152931 
0.000251814 0.000141575 -9.2145e-05 
0.000112919 0.000619665 0.00146341 
-0.000336994 -0.000116051 -0.000982654 
0.000552047 0.000579517 0.00121235 
3.10067e-05 0.00406654 0 
-0.00097312 -0.00169436 0 
-0.00117448 -0.0129321 0 
0.0150454 -0.0227091 0.0149351 
0.00922822 -0.0122564 0 
0.00525464 0.00508844 0 
-0.00627649 0.0099909 0 
0.0129275 -0.0237144 0.0293851 
-0.000403696 -0.00044352 -0.000534623 
0.00207282 0.00137921 0.00192586 
-0.000399486 -0.000413976 0.000295534 
0.00123361 0.000816528 0.00401323 
0.00800848 0.00161372 0.0132523 
0.0101134 -0.00086756 0.0215352 
0.013598 0.00179594 0.017999 
0.0053283 -0.00322703 0.0115062 
0.000133473 8.2753e-05 0 
-0.000140776 -1.67238e-05 0 
-0.000190085 4.82518e-05 0 
-0.000312554 0.000438664 0.000383881 
-0.0424409 -0.00741741 0.140701 
0.0221994 -0.0139676 0.211464 
-0.0373841 0.00794025 0.0876998 
-0.024833 0.004159 -0.0428098 
4.70873e-05 0.000110839 3.76797e-05 
-2.31386e-05 -4.5581e-05 0.000126259 
5.99674e-05 5.05919e-05 -4.46779e-05 
-3.39538e-05 -8.51507e-05 -0.000112343 
-0.000754708 -0.000581694 -0.000675237 
0.000735636 0.00115182 0.00185664 
0.00174161 0.0012353 0.00182515 
0.00133059 0.000758516 0.00427949 
2.27451e-05 8.14081e-05 0.013159 
-5.00349e-05 3.04554e-05 0.0159582 
5.48e-05 -2.34661e-05 0.0158932 
3.76094e-05 -0.000598977 0.0166883 
1.5699e-05 -2.03622e-05 0.00485487 
1.94081e-06 7.7206e-06 8.76539e-05 
-8.03313e-06 -5.03038e-06 -1.0487e-05 
-2.28285e-05 -6.46848e-05 0.00685729 
1.23076e-05 -7.28169e-06 0.0111005 
4.56363e-05 -3.90139e-05 0.0108737 
-9.41202e-05 4.59736e-05 0.0147376 
0.000112188 0.000259558 0.0142579 
4.63173e-05 -5.54495e-06 0.0137409 
-1.57181e-05 0.000230749 0.0145139 
-1.41785e-05 -7.28579e-06 0.0114536 
-0.000187603 0.000238933 0.00972099 
-9.22057e-06 4.18846e-05 7.12986e-05 
-1.23021e-05 5.71599e-05 0.00010966 
2.1111e-05 -8.64381e-05 -5.56174e-05 
-0.000114924 0.000295223 0.00922502 
0.000598287 8.16567e-05 0 
0.00172295 0.000344581 0 
0.000518529 -0.000151369 0 
-0.007364 -0.00155659 -0.00135112 
-4.41714e-05 4.1921e-05 0.0075536 
-7.12786e-06 -1.21963e-05 5.06251e-06 
9.59424e-06 2.04003e-05 9.17748e-05 
-2.99049e-05 -1.10656e-05 0.00566728 
-0.00818217 -0.00665024 0.0108802 
-0.00496076 0.00404003 0.0315999 
-0.00156795 0.00252222 0.0108034 
-0.0108063 0.00160167 0.0280388 
0.000256119 0.00230615 0.0175121 
0.000186039 0.000732515 0.0166881 
-0.000525488 0.00214823 0.0176932 
7.38468e-05 0.00245867 0.0170407 
-3.67458e-05 2.29788e-05 0.00706476 
0.000162913 0.000190151 0.00889485 
9.43605e-05 -0.000101244 0.0126697 
-4.6746e-05 -1.11349e-05 0.00869004 
4.2117e-06 -3.09655e-06 0.000123215 
1.4032e-05 -3.82389e-05 -6.08446e-05 
-2.05411e-05 5.09769e-05 4.65957e-06 
-4.10641e-05 5.39144e-06 0.00553104 
-2.09744e-06 1.74817e-05 6.47052e-05 
2.66016e-06 -2.50581e-05 -6.46161e-05 
-4.93209e-06 3.31465e-05 0.000200283 
6.26752e-05 -4.30125e-05 0.00810116 
0.0023539 -0.00484857 0.010361 
0.00251479 -0.00192776 0.0118311 
-0.00152886 -0.00728706 0.0179837 
0.00249851 -0.00620179 0.0087818 
0.000120225 -0.000163096 -6.96669e-05 
0.000113713 6.65619e-05 -2.73229e-05 
-0.000181152 -0.000184264 1.8175e-05 
-0.000167879 -6.38174e-05 0.000319466 
0.0132056 -0.0166315 0.0670415 
-0.0289975 -0.00443707 0.142339 
0.0498845 0.0181812 0.116515 
-0.000775405 -0.0309197 0.00338042 
0.000645015 0.000245366 -0.000139943 
0.00077991 0.000919817 -0.000741804 
0.000370279 0.00033998 -0.00031381 
0.00142216 -0.00177696 0.00199084 
-0.000220144 0.00037363 0.0127631 
0.000118895 0.00181485 0.00805002 
0.000250587 0.000832249 0.00682614 
0.000188261 0.00228101 0.0119757 
-7.14486e-06 -2.59902e-06 4.48758e-05 
2.30583e-05 9.97005e-06 1.17962e-05 
4.39485e-06 3.26493e-06 0.000137323 
-0.000226031 -8.53229e-05 0.00974345 
0.000138381 0.00237431 0.0176229 
-0.000268916 0.0021416 0.0162147 
-0.000470326 0.00367165 0.0157705 
-0.000975554 0.0013834 0.0164687 
0.000209721 2.45155e-05 -0.00137603 
0.000425516 0.000115665 0.000218248 
0.000603239 0.000166149 0.000408684 
0.00106018 -0.00126258 0.00461981 
0.000169143 0.000370617 -0.000252546 
0.000872186 0.000479158 -0.000607477 
8.83956e-05 0.000389853 -3.26403e-05 
-0.00172187 -0.000252256 0.00117621 
-0.00959514 -0.0562461 0.120704 
0.0176653 0.0231044 0.111838 
0.0190989 -0.0299136 0.1136 
0.000785663 0.0123028 0.0166338 
5.52311e-05 -2.31383e-05 7.02868e-05 
-1.84539e-06 -4.91521e-05 0.00613377 
8.1528e-06 6.39152e-05 -4.20841e-05 
-5.99208e-06 -2.24166e-05 0.0053789 
1.77254e-05 -0.000117592 -0.000210417 
0.000106747 6.32625e-05 0.00018952 
2.04743e-05 1.92708e-05 -0.000177783 
-0.000141044 -9.01672e-05 -5.30305e-05 
8.26985e-06 -8.3745e-05 -0.000268782 
4.76558e-06 -4.82588e-05 0.000283822 
-9.13789e-06 9.25352e-05 4.40631e-05 
-0.000418354 -0.000301511 0.0102835 
-0.000513872 -0.000272224 0 
-0.000448818 -4.3535e-05 0 
0.000195031 -0.000109034 0 
0.00270846 4.36856e-05 0.000500618 
-0.00152357 0.00089726 0.014628 
-0.000273871 -0.000577705 0.0143097 
-0.00233033 -0.0011325 0.0174245 
0.00062851 -0.00125806 0.014686 
-0.000164801 -0.00011076 0.000373679 
0.000100068 6.824e-05 -3.44518e-05 
-0.000169175 -0.000115465 3.92014e-05 
0.00107225 0.000474988 0.007736 
3.89863e-05 5.78413e-05 3.72618e-05 
4.54672e-05 1.21413e-06 0.00569096 
-2.28463e-05 -3.5636e-05 -6.16396e-05 
-1.75881e-05 -2.10027e-05 9.96289e-05 
-1.56239e-05 -2.30486e-05 -7.40863e-06 
8.45399e-05 3.15587e-05 -8.77936e-06 
3.88302e-05 6.14249e-05 -6.67559e-05 
1.41895e-05 2.0099e-05 2.38691e-05 
2.02665e-05 4.49552e-05 0.0184542 
1.59164e-05 1.93004e-05 0.0177733 
1.14563e-05 -6.01067e-05 0.0186248 
-0.000433529 0.000194345 0.0178703 
8.79005e-05 2.18355e-05 2.57104e-05 
-0.000100423 -2.46875e-05 -5.02187e-05 
5.60833e-05 1.24958e-05 0.000132079 
0.000398334 0.000155665 0.00911269 
0.000837291 0.00170496 0 
-0.000494457 -0.000221838 0 
0.00175118 0.000510063 0 
-0.0107633 -0.00194454 0.000296593 
-2.4627e-05 -3.34748e-05 0.010351 
4.48829e-05 5.65987e-06 0.0122816 
-9.49108e-05 0.000180297 0.00796095 
-9.32987e-05 0.000159457 0.0137585 
-3.2685e-05 5.7374e-05 0 
2.78791e-05 -8.14711e-05 -0.000103076 
3.50829e-05 -0.000192795 0 
5.11431e-05 -0.000160882 0 
-4.17271e-05 2.22686e-05 0.00684281 
6.71431e-05 -4.9138e-05 0.0127118 
5.20514e-05 2.0494e-05 0.0107337 
0.000191691 0.000227029 0.00892114 
0.00202652 -0.00353527 0.0179673 
-7.41904e-05 -0.00163074 0.0160867 
-0.00165191 -0.0036812 0.0151637 
0.000776853 -0.00298519 0.0173753 
-0.00034178 -0.00041619 -0.000210774 
0.000169948 7.21266e-05 -0.000126026 
-0.000157682 9.88058e-06 7.06015e-05 
-0.000148375 -0.000168945 -0.000397232 
0.000387458 0.000168302 8.42042e-05 
-0.000731499 -0.000471225 0.000748087 
0.000682548 0.000570179 -0.000103609 
-0.00120717 0.000359723 0.000463264 
-0.00432151 0.00120794 0.00180721 
-0.00166307 0.00466762 0.00591993 
-0.000553936 0.00450261 0.00916579 
-0.00582833 0.00143648 0.00971868 
-0.000447622 -0.000247904 0.0147212 
0.000146172 -0.00102709 0.00939549 
-0.000275555 -0.000931509 0.0144642 
-0.000232145 0.000121992 0.0102772 
4.80075e-05 -0.00017079 0.000762549 
7.29794e-06 -2.50801e-05 0.000167625 
1.86607e-05 -7.4061e-05 -0.000153072 
0.000237046 0.00171956 0.00496671 
0.00424097 -0.00394922 0 
-0.00193755 0.00298667 0 
0.00337337 -0.00369753 0 
-0.00822825 0.0162869 0.0047225 
-2.49769e-05 1.30569e-07 0 
0.000137763 1.43353e-05 0 
0.000179531 4.95935e-05 0 
-0.000672865 0.00104678 -6.00478e-05 
0.00300594 0.000241199 0.011328 
-0.00158837 -0.000167456 0.016068 
0.000342228 0.00122958 0.0126825 
-0.00294986 0.000246615 0.0160411 
-3.06314e-05 -6.43809e-05 -0.00044518 
0.000101681 0.000241781 0.000334192 
-3.62639e-06 2.25746e-06 -0.000455225 
0.00042015 -0.00132005 0.00428134 
-0.000228946 8.40506e-06 -0.00103566 
0.000182467 -1.76277e-05 -0.000420219 
-0.00066852 5.51346e-05 0.000462596 
-0.000871152 -0.00309729 0.00746135 
0.0314726 -0.00621334 0 
-0.0161192 -0.00645928 0 
0.015688 -0.00876631 0 
0.0147184 -0.0213566 0.0779408 
3.60411e-05 -6.74657e-06 0.000189902 
-3.95416e-05 9.78342e-06 -2.06921e-05 
3.68925e-05 -9.13401e-06 1.88296e-05 
0.000395754 -0.000125464 0.00861098 
-3.9772e-05 -1.02259e-05 0.00630969 
5.3271e-05 1.64037e-05 -3.3314e-05 
3.1014e-05 -8.27846e-05 0.000142823 
-3.17421e-05 -1.1688e-05 0.00536338 
-0.000165623 6.18652e-05 -0.000218161 
-0.000295948 0.000591227 5.83982e-06 
0.00015676 -6.35488e-05 -1.60436e-06 
-0.000412391 0.00016351 -0.000148629 
-0.00277359 0.0301201 0.151495 
-0.0187208 0.0361766 0.0860061 
0.0106612 -0.0350497 0.195801 
0.0178774 0.02029 -0.0195626 
4.15567e-05 0.000495382 0.000428539 
-3.08217e-06 -3.67414e-05 -0.000490149 
-5.5141e-05 -0.000657315 -0.000723171 
0.00100482 -0.000556706 0.00668981 
0.000522292 0.000711077 -0.000586217 
0.00362359 -0.000462362 0.00144327 
-0.00040098 -0.000190089 5.89622e-05 
0.00369206 -0.000429913 0.000976448 
-2.74963e-05 -1.30422e-06 -7.67248e-05 
-5.79684e-05 -6.00685e-06 0.000171485 
-1.21396e-05 -5.35596e-07 -3.79881e-05 
0.000289215 -2.78653e-05 0.00932421 
-2.71904e-05 7.72968e-05 0.000196995 
1.23396e-05 -2.47562e-05 5.52549e-05 
1.03614e-05 -2.13868e-05 3.79981e-05 
0.000119824 -0.000244819 0.00953097 
2.22776e-05 0.000821649 0.0160778 
-9.33277e-05 0.00129353 0.0162777 
-3.24489e-08 0.00122727 0.0175562 
-0.000221419 0.000506924 0.0143308 
2.88925e-05 -2.05891e-05 -3.98677e-05 
-4.06217e-05 2.95723e-05 0.00627241 
9.70404e-05 8.23528e-05 0.00019278 
-1.58865e-05 6.77922e-06 0.00547284 
-7.90663e-05 3.91261e-05 7.99179e-05 
-4.08019e-05 2.94151e-05 6.36569e-05 
4.16188e-05 -6.81822e-07 0.00702242 
8.30438e-05 0.000113942 0.00801578 
-2.05665e-06 -3.70413e-06 0.000136892 
-4.20252e-05 -4.25199e-05 6.1792e-05 
9.46458e-06 9.41122e-06 -3.27169e-07 
7.51156e-06 5.75709e-05 0.00886753 
-0.00371445 -0.0145458 0.0313516 
-0.00494944 0.00121351 0.0202 
-0.00343641 -0.00539678 0.0181547 
-0.00443743 -0.00210843 0.011449 
-0.000503295 0.000332096 0 
0.000127368 0.000540187 0 
0.000581006 -0.000439392 0 
0.00233782 -0.00156533 -0.00049297 
-0.000104265 -0.000101259 -1.97548e-05 
-2.97149e-05 -2.88936e-05 0.000142075 
-2.14192e-05 -2.07456e-05 -0.000238758 
0.000748528 0.000317784 0.00742125 
1.30283e-05 9.89977e-05 0 
-6.18076e-05 -1.0678e-05 0 
0.000123385 -0.000184393 0.000321906 
1.96993e-05 0.000276042 0 
8.33346e-05 -5.32915e-05 7.00484e-05 
-3.72841e-05 2.36496e-05 -3.71963e-05 
-2.19722e-05 1.66656e-05 6.08235e-05 
-3.40521e-06 -6.14299e-05 0.00574796 
5.40736e-05 -5.56067e-05 0.000273489 
-7.4152e-05 7.61871e-05 -0.000497554 
0.000225369 -0.000232354 5.58557e-05 
-4.99938e-05 0.000634734 0.00691643 
-0.00684197 -0.00753117 0 
0.0013704 0.000478413 0 
-0.00384056 -0.00144564 0 
0.0298962 0.00771171 0.000719736 
-4.05977e-05 7.97895e-05 0.000125735 
1.48647e-05 -2.90852e-05 0.0001479 
2.28127e-05 -4.49105e-05 -0.00018317 
0.000303567 -0.00111486 0.00631617 
-0.000188883 0.00102681 0.0152011 
7.06256e-05 0.00127019 0.0174208 
-0.000213254 0.00139703 0.0165475 
-0.000206292 0.000333049 0.0142602 
5.94273e-05 1.62785e-05 8.16886e-05 
-0.000162869 -4.37341e-05 -5.30433e-05 
-0.000147708 -3.88982e-05 0.000100463 
-0.000456319 0.000337134 0.00873724 
-9.04827e-05 0.000143028 0.000261808 
0.00031545 0.000225448 -0.00025513 
-0.000213237 8.65788e-06 -6.77611e-05 
-0.00108369 0.000431327 0.000341711 
7.26629e-05 -4.18423e-05 0.00667522 
-8.20813e-07 1.19357e-05 0.000108775 
2.61447e-07 -3.80178e-06 8.56115e-06 
2.10854e-07 -3.06609e-06 -4.00607e-05 
0.0327247 0.00631769 0.0206238 
-0.00119943 -0.0121154 -0.0160405 
0.0165971 0.00545517 0.0687574 
0.0185576 0.000637557 0.0188595 
-8.8369e-05 8.96141e-05 0.000618332 
0.00010427 -0.000105919 -0.000424973 
0.000272311 -0.000277294 4.06428e-05 
-0.000338761 0.00111271 0.0010128 
8.4794e-05 -6.20967e-05 0.000203163 
-4.44355e-05 -2.09187e-05 0.00740956 
1.72475e-05 2.25469e-07 -9.5786e-06 
1.66177e-05 -3.11398e-05 0.00582242 
0.00149251 -0.00382469 0 
0.00205642 -0.00041947 0 
0.000590116 -0.00477129 0 
-0.00596104 0.0053817 -0.00340351 
-8.32893e-05 0.000118494 7.72523e-05 
-1.86032e-05 2.63819e-05 -0.000103395 
1.40351e-05 -1.99098e-05 6.93849e-05 
-6.22592e-05 9.65329e-05 0.00790859 
0.000138967 9.44944e-05 0.000125443 
2.29383e-06 1.59459e-06 -0.000147261 
-2.89315e-05 -1.96916e-05 5.47114e-05 
0.000268389 0.000213034 0.00883937 
-2.0288e-05 -4.34779e-05 0.00674151 
2.44008e-05 6.35741e-05 0.0114901 
-1.25422e-05 -1.0844e-05 0.00594593 
-0.000178887 8.40406e-05 0.00954484 
0.000334775 0.000132019 -0.000163051 
-2.60699e-05 -7.66244e-06 0.000123352 
6.57932e-05 2.0736e-05 -0.000252216 
-0.000124255 0.000567344 -0.0001833 
-0.0158477 -0.0339092 0.200193 
0.0160277 0.0309 0.0825128 
-0.0045816 0.0348137 0.153428 
-0.023215 0.0225716 -0.0148518 
0.00259418 0.000309321 0 
-0.00238608 0.00407433 0 
-0.0027257 -0.0043626 0 
-0.00689583 0.0121844 0.000859428 
3.42182e-06 -4.35963e-05 0.0107277 
-1.52256e-05 2.31474e-05 0.00706601 
-1.20151e-05 -3.02371e-05 0.00569645 
0.000146653 0.0002312 0.00889629 
0.000148092 -3.5136e-05 -0.000326977 
-0.000352624 -0.000238538 0 
0.000196393 9.38544e-05 0 
-0.000105502 -0.000246582 0 
-2.23441e-05 -2.4109e-05 0.00538449 
1.89104e-05 -2.14189e-05 -7.27534e-05 
3.60098e-05 -3.03667e-05 0.000127281 
-4.50596e-05 4.4631e-05 9.9362e-06 
-6.04904e-05 -2.37985e-05 0.0146455 
-4.52512e-06 -2.81855e-05 0.0148747 
-3.46033e-05 8.64685e-05 0.0175345 
3.97928e-05 0.000403567 0.0142189 
5.00575e-06 -7.09417e-05 9.87861e-05 
1.03903e-05 1.35108e-05 0.00573194 
-6.56726e-05 -1.53821e-05 -1.47943e-05 
7.82375e-05 9.37868e-06 0.00704709 
0.000189894 -0.000299951 0 
-5.46966e-05 0.000279091 0 
-0.000232206 -7.32101e-05 0 
5.75373e-05 -0.00032279 -0.000234882 
0.00133072 -0.00138206 0 
0.00390027 0.00393917 0 
-0.0058688 0.000549049 0 
-0.00130785 -0.00245139 -0.000733748 
-7.56557e-05 -1.78117e-05 0.0131097 
2.35314e-05 -2.71615e-05 0.00749912 
-9.73103e-06 1.52909e-05 0.00980829 
-7.96428e-05 0.000161497 0.00875339 
-0.00102627 0.000228611 -0.00022067 
-0.000526161 6.41037e-06 -1.89788e-05 
2.54259e-05 0.000734267 -0.000678411 
-0.00215888 -0.000227568 0.000946281 
0.00459634 0.00134041 -0.00515862 
-0.00224684 -0.00153157 0.000369807 
-0.00606018 -0.000570824 0.00362018 
-0.00540946 0.000487778 0.0078479 
3.52595e-05 1.93336e-05 0.000952335 
4.12904e-05 5.90598e-06 -0.000282217 
0.000284126 5.68856e-05 -0.000585365 
-0.00098284 0.00136636 0.003646 
-0.000197542 -0.000892732 -0.000643104 
-0.000765194 0.000173112 -0.000472451 
-0.001172 8.45328e-05 -0.00117084 
0.00435891 0.00291558 0.00291404 
-1.07298e-05 -6.19405e-05 0.0131745 
4.72893e-05 8.18263e-06 0.00736341 
-6.38549e-05 -1.14215e-05 0.00921272 
0.000104382 -0.000164573 0.00735158 
0.000553093 -0.000249474 -0.000510499 
-0.00143723 -0.00103579 0.010273 
0.00126126 0.000690038 0.000185474 
-0.00482175 -0.00154452 0.00606884 
6.5193e-05 -5.97561e-06 0.0129875 
-1.66977e-05 5.52706e-06 0.015918 
-3.64289e-05 -1.35889e-05 0.015754 
-0.000466396 0.000106173 0.0145296 
0.00167293 0.00190084 0.00260581 
0.000454446 0.00511221 0.0105931 
0.00400648 0.00341423 0.00450998 
0.00356226 0.00141963 0.00975196 
5.38756e-05 5.29132e-05 5.18391e-05 
1.09862e-05 1.07515e-05 0.000154177 
-2.43044e-06 -2.37831e-06 -3.4815e-05 
-0.000189777 -5.36334e-05 0.00791792 
0.000154697 0.000801253 0.0169323 
-0.000358372 0.00101177 0.0151875 
-0.000450652 0.00198116 0.0171576 
0.000126285 0.00229543 0.0174095 
-0.000869359 -5.81877e-06 0.0171269 
-0.000123185 -0.000224304 0.0142744 
-0.000149862 0.000121801 0.013796 
-0.00018685 -0.000237884 0.0163345 
-2.08015e-05 4.16475e-06 0.00682958 
-4.09732e-05 -3.57809e-05 0.0072294 
9.56906e-05 -7.3753e-05 0.0127181 
0.000141237 0.000270578 0.00892307 
0.000221447 -0.000143731 0.000330462 
0.000110574 2.23376e-05 0.000111298 
0.000191592 5.67961e-05 0.00846083 
9.007e-06 -0.000132587 0.00745555 
3.17718e-05 -3.42631e-05 0.00744883 
-5.072e-06 5.48163e-06 0.00552438 
-2.4503e-05 2.90094e-05 0.00988146 
-7.91809e-05 0.000165826 0.00866941 
0.00152565 0.000147972 0.000916232 
-0.00125747 0.000660891 -0.00111108 
0.000849816 -0.000215004 0.000786861 
9.91132e-05 0.000765047 -0.000216476 
-8.12583e-05 -8.34999e-05 -0.000202395 
-8.91435e-05 0.000126062 -4.26614e-05 
-4.74793e-05 -0.000181203 -0.000106878 
-0.000425928 0.000959955 0.000313664 
0.0136131 -0.0285336 0 
0.000555084 0.00587242 0 
-0.0163922 0.00654823 0 
0.0204862 -0.0284934 0.0389963 
-0.0039334 0.00213502 0.00313334 
-0.00637192 0.000718059 0.00436368 
-0.00172685 0.00336526 0.00488663 
-0.00585461 0.00184543 0.00996334 
-0.000662691 0.000697782 0 
0.00114316 0.000875523 0 
8.8492e-05 4.43964e-05 0 
-0.00204501 -0.00195178 0.000304733 
2.59625e-05 1.61321e-05 0.010408 
-4.00756e-05 -1.79665e-05 0.00598593 
-2.42562e-06 -2.14229e-05 0.0100127 
0.000119636 -0.000149974 0.00907813 
-0.00438416 -0.000268985 0.0115692 
0.00166687 0.00593108 0.0131634 
-0.00262156 0.0053647 0.00593273 
-0.00495023 0.00109995 0.0101736 
-0.00104086 0.000864185 0.0165867 
0.000420102 5.45652e-05 0.0164507 
-0.00012766 -0.000191979 0.0133567 
-0.00116691 -0.000741029 0.0157145 
-0.00152444 -0.000316766 0.0156056 
-0.00208009 0.00272005 0.0178365 
0.0019711 0.00197695 0.0118829 
-0.00324193 0.00075285 0.0177294 
-0.00099595 0.000428018 0.0150064 
0.00136909 0.00521239 0.0177211 
0.00125844 0.00426017 0.0189076 
0.00207985 -0.000522938 0.0149166 
0.0230421 0.0108903 0.0445087 
0.016886 0.00276337 0.177964 
-0.0193435 -0.0450042 0.212597 
-0.0605164 0.0440128 0.00664945 
2.258e-05 2.78209e-05 0.0182485 
-3.3536e-05 -3.82104e-05 0.0167475 
-4.8664e-05 3.56622e-05 0.0180355 
0.000609807 0.000222053 0.0171805 
-0.000672676 0.000527456 -0.000790293 
-0.000149605 -0.0004735 -0.000106658 
0.000524911 -0.000120237 0.000352735 
0.00235748 0.00156234 0.00281645 
-0.00140498 0.00148391 0 
0.00160214 -0.000496646 0 
-0.00150965 -0.000363012 0 
7.68096e-05 -0.000824112 0.000258065 
5.18483e-05 3.55868e-06 0.00604385 
-1.37803e-05 8.14701e-05 0.0113448 
1.66665e-05 -7.20059e-06 0.00959519 
-9.67154e-05 -0.000172698 0.0103351 
-1.95933e-05 -3.70678e-05 0.0117107 
-8.93976e-06 0.000100545 0.0149006 
2.33245e-05 -0.000105556 0.0109446 
7.01498e-05 0.000280455 0.0141594 
5.29921e-05 -7.02376e-05 0.0126479 
-1.50562e-05 4.24408e-06 0.00706962 
2.74454e-06 9.78574e-06 0.0107448 
0.000146878 0.000207135 0.00889956 
-7.76019e-07 -1.52742e-05 0.00557095 
2.32536e-05 2.13472e-05 -5.00096e-05 
3.78588e-05 4.30281e-05 0.000107358 
-4.08013e-05 -4.1282e-05 4.52204e-07 
-3.71327e-05 -6.37364e-06 6.52009e-05 
-8.7088e-05 3.94243e-05 0.000272792 
4.60171e-05 2.5886e-05 0.005877 
2.25323e-05 8.03505e-05 0.00875426 
1.30485e-05 4.75216e-05 0.0165222 
-4.65715e-05 -5.48042e-05 0.0141679 
2.92412e-05 -8.55544e-05 0.0126207 
3.45109e-05 0.000827082 0.0155962 
-0.00616247 -0.00105482 0.0366747 
-0.0163014 -0.00574353 0.0337324 
-0.00710092 -0.00242649 0.00670974 
-0.00134344 -0.00690343 0.00668767 
2.88509e-05 1.31848e-05 0 
-0.000210859 -0.000312198 0 
0.000855362 0.000619117 0 
-0.000634325 2.14263e-05 -0.000695205 
0.00120779 0.000998349 0.00288519 
0.000174061 -0.000210874 0.00588157 
0.000548449 -0.000976768 0.00212074 
-0.000503798 0.000321488 0.000759928 
-0.000633247 -0.000516599 -0.000261348 
0.000734545 0.000859335 -0.000841761 
-0.00153454 -0.000280278 4.62727e-05 
-0.000142012 0.000506147 0.000374904 
-6.25212e-05 3.51573e-06 0.0159869 
1.4144e-05 1.04477e-05 0.0146813 
8.08679e-05 4.02804e-05 0.0118262 
-8.32127e-05 -0.000166348 0.0164941 
0.00032026 -4.84915e-05 -0.000367162 
0.00019616 -0.000150635 -0.000492812 
7.75414e-05 0.000181218 -0.000331614 
-0.00154707 0.000765028 0.00180276 
0.0002988 2.57009e-05 1.74414e-05 
-0.000123487 -1.06216e-05 8.15721e-05 
5.9936e-05 5.15532e-06 1.60177e-05 
-0.000428213 0.000342251 0.00872773 
-7.81628e-05 5.6238e-05 -7.58358e-05 
0.000126235 -8.30035e-05 -0.000151574 
-6.76648e-05 4.74038e-05 -2.07771e-05 
-0.000260442 -0.000102613 -8.31595e-05 
1.02656e-05 -1.76671e-05 -8.1221e-05 
2.0882e-05 6.79007e-06 0.00608486 
2.38174e-05 -6.92272e-05 0.000142815 
-1.42644e-05 3.45784e-05 -4.79695e-06 
-1.97699e-05 6.88467e-06 -0.000153142 
-3.09064e-06 9.16075e-07 -1.10378e-05 
-3.76383e-05 6.01785e-06 0.000279405 
-0.00046698 0.000265194 0.00969511 
-5.13225e-05 0.00176712 0.0154099 
0.00121989 0.000641524 0.0150457 
0.000563548 0.00292229 0.0185373 
0.000252198 0.00134003 0.0160061 
7.4097e-07 1.44107e-05 0.00577015 
-1.73946e-05 1.40009e-05 0.00739963 
2.95406e-05 -5.81901e-05 0.0116821 
0.000239931 -0.000123021 0.00799953 
-0.00572214 -0.0227316 0 
-0.0012203 0.0308641 0 
0.00145828 0.0251393 0 
-0.00066814 0.0375585 0.0915539 
-9.56939e-05 -5.11084e-05 0.000110889 
3.69826e-05 5.2128e-05 5.80817e-05 
8.25454e-05 -2.07481e-05 0.00698588 
0.000309275 0.000108029 0.00898344 
6.29113e-05 0.000224892 0 
0.000165678 0.000162175 0 
-0.000498744 -2.88573e-05 0 
-0.00206267 0.00109494 0.000759952 
0.0394678 0.0154096 0 
-0.0215147 -0.0147993 0 
0.0348968 0.0122093 0 
0.00615347 -0.0124585 0.107849 
-0.000402636 -1.77056e-06 -0.000237251 
-1.52049e-05 -0.000357215 -0.000249706 
-5.73389e-05 0.000463322 7.6585e-05 
0.000370166 4.5919e-05 8.68036e-05 
-6.99302e-05 -0.00010328 0.000166562 
-7.06307e-06 -9.79437e-06 -7.59069e-06 
4.09524e-05 5.75496e-05 1.48553e-05 
0.000239981 0.000384453 0.00916235 
1.08982e-05 -5.04959e-05 0.00632191 
-4.30401e-05 3.14235e-06 5.8448e-05 
-1.73859e-05 5.54016e-05 -4.1402e-06 
9.21658e-06 -2.99712e-05 0.0057873 
0.000188053 -0.000228463 -0.000618924 
-0.000363794 -0.000647943 -0.000522751 
0.000772029 8.95479e-06 -0.000285178 
-0.000350796 0.00083042 0.00151346 
0.00917264 0.000956443 0.0136784 
0.00417011 2.07287e-05 0.00185214 
0.00435517 0.00267224 0.00379755 
0.00374011 0.00182924 0.0100684 
0.000106558 0.000181646 0.000146599 
-7.4261e-05 -0.000132416 7.99157e-05 
-9.84044e-05 -0.000153714 -0.000573994 
0.00028722 0.00159721 0.00147362 
-0.000254041 0.000170249 -0.000512911 
0.000241793 -0.000160093 0.000597708 
-0.000250048 0.000179301 0.000154351 
0.00095751 0.000199444 0.000590414 
4.24172e-05 6.05818e-05 0.00759788 
-7.91088e-05 -2.79781e-05 0.0112382 
1.78966e-05 4.0513e-06 0.00566218 
-7.2577e-05 -4.60351e-05 0.0084974 
1.58467e-05 -5.851e-05 -2.61136e-05 
-8.23768e-05 -3.87958e-05 0.000129927 
-3.17776e-05 7.95464e-05 0.00668957 
5.16419e-06 2.73442e-05 0.00538278 
2.21764e-06 2.12421e-07 7.06789e-05 
1.07654e-05 -1.78148e-05 -2.54455e-05 
-2.12969e-05 3.64824e-05 7.45886e-05 
-8.80143e-06 0.000145442 0.00807556 
0.000100984 8.1853e-05 0 
-0.000203336 2.88614e-06 0 
-0.000371954 -0.000123601 0 
-0.000262176 0.000382252 -0.000165439 
0.000598647 0.000364227 0.00714172 
0.00314153 0.00247916 0.00572157 
0.00321886 0.00763115 0.0169656 
0.000155596 0.00275151 0.0166352 
0.0313458 0.0240141 0.152254 
0.0277088 0.025559 0.0710636 
-0.0318859 0.00754049 0.208423 
0.0242817 -0.0507297 -0.0202534 
2.09897e-06 1.67787e-05 0.00475062 
-5.3507e-05 3.13995e-05 0.0069544 
-1.5036e-05 -6.71137e-05 0.00928775 
6.00539e-05 -5.48314e-05 0.00727635 
0.00174488 -0.0104647 0 
-0.00761826 -0.0198117 0 
0.0115922 0.0122584 0 
0.00621912 -0.0454283 0.0584217 
-3.48948e-06 -3.5288e-05 1.28979e-06 
1.30639e-05 0.000132112 5.20574e-05 
9.50791e-07 9.61506e-06 0.000333103 
0.000288549 -0.000489364 0.00692696 
-0.000713608 0.000642924 -0.00095456 
0.000429565 0.00132949 0.00707357 
-0.000725492 0.000273941 4.80008e-05 
0.00225702 0.001504 0.00555767 
-1.38849e-05 2.21276e-05 2.6648e-05 
2.63316e-05 -5.44465e-05 -0.00030312 
0.000244666 0.000276575 -6.25012e-05 
-8.38811e-05 0.000126502 1.58171e-05 
0.00541965 0.00704611 0.0170655 
0.00347528 0.0031257 0.00700441 
-0.000667128 0.00147794 0.00842432 
0.00302894 0.00403547 -0.000500517 
8.28952e-06 0.000145688 0.0110042 
-1.04427e-05 -9.20378e-06 0.0102961 
0.00025525 -0.000184355 0.0135098 
0.000166779 -0.000148511 0.0079591 
-2.75456e-05 -3.22957e-05 0.000100682 
-2.74934e-05 -2.51294e-05 -6.16405e-05 
5.02844e-05 5.06214e-05 6.38719e-06 
9.52927e-06 2.54746e-05 0.00538409 
1.1279e-05 4.92189e-05 3.84502e-05 
1.22675e-06 -7.32991e-08 0.000116455 
-1.70594e-06 -1.35675e-05 0.000120871 
6.03337e-05 0.00020537 0.00937568 
6.80913e-05 7.4284e-05 0.0159065 
-6.18637e-05 -0.000690626 0.0164519 
-3.46681e-05 -2.96652e-05 0.01809 
-0.000144175 -0.000330872 0.016244 
0.000347356 -1.86936e-05 1.60419e-05 
0.000166487 -0.000233618 0 
-0.000254396 -3.37919e-05 0 
2.10531e-05 0.000118247 0 
-1.54956e-05 7.13151e-05 0.0113213 
-5.30634e-05 3.07953e-05 0.0141045 
1.53665e-05 -3.04942e-05 0.00961399 
-9.31846e-05 -0.000136229 0.0103469 
-4.76732e-05 -5.69642e-05 0.0174289 
-1.76471e-05 6.08046e-05 0.0159987 
6.01653e-05 6.0696e-05 0.0147804 
-0.000221108 -0.000272198 0.0163126 
-2.09167e-05 -1.32836e-05 -1.37625e-05 
1.27263e-05 1.069e-05 -6.26426e-05 
6.26766e-05 3.63777e-05 0.000134549 
1.32115e-06 1.47649e-05 0.00550069 
4.29198e-05 1.66774e-05 -7.02189e-05 
-7.49767e-05 -3.04826e-05 7.18023e-05 
1.71825e-05 9.45057e-06 7.65011e-05 
-3.21788e-06 -6.03375e-05 0.00533273 
3.88748e-05 -7.36008e-05 0.0110176 
-0.00016181 -0.00011359 0.00935644 
-2.07752e-05 8.373e-05 0.00626116 
-2.67307e-05 -5.02831e-05 0.00873148 
-0.000119803 1.15967e-05 0.0170773 
9.92372e-05 -1.04884e-05 0.0150419 
7.83243e-05 -1.24902e-05 0.0139808 
-0.000322469 0.000114973 0.0158666 
-0.000195767 -4.29461e-05 -5.64133e-05 
4.16418e-05 1.77369e-05 0 
6.07726e-05 1.56638e-05 0 
-6.38313e-05 8.51487e-06 0 
-0.00124384 -0.00275964 -0.00504094 
-0.00474258 0.00170198 0.00725129 
-0.00224259 0.00659152 0.00475219 
-0.00996649 -0.00190713 0.00647514 
3.14788e-06 1.87891e-06 -7.64462e-05 
-2.35821e-05 -0.000103078 -0.000232328 
1.8316e-05 8.05706e-05 0.000185072 
-4.81261e-06 -0.000791995 0.00882288 
-5.22509e-06 5.60627e-05 0.0125969 
-6.22522e-05 -8.65257e-06 0.00683383 
3.10895e-05 -9.54093e-06 0.00693776 
0.000209547 0.00010747 0.00852881 
-1.83878e-05 -2.59909e-05 5.04157e-05 
-6.44006e-06 -9.51038e-06 -7.94098e-06 
1.24296e-05 1.94113e-05 8.16651e-05 
7.99742e-05 0.000289841 0.00926214 
7.17306e-06 -1.92955e-06 -4.4071e-05 
2.19335e-05 -8.26576e-06 -4.55685e-05 
-6.69199e-05 2.37166e-05 0.000195681 
-2.44474e-05 5.7275e-05 0.00577012 
0.000171157 0.000808621 0.0173477 
0.000590517 0.00103606 0.0168009 
-0.000272567 0.00110681 0.0151612 
0.000165173 0.00234064 0.0173149 
-9.47402e-05 -0.000205153 0.0136924 
0.000205924 0.00030198 0.00904833 
-0.000143631 3.07501e-05 0.00791886 
3.38648e-05 -9.753e-07 0.008661 
0.000622201 0.000130657 0 
-0.000506234 -0.000299029 0 
-7.22909e-07 -0.000852749 0 
-0.00244659 0.000282199 -0.000422982 
0.00128575 0.00182737 0.0033605 
0.000512545 -0.000156224 0.00655106 
-3.34716e-05 0.00334554 0.010364 
0.00313383 0.00158811 0.00954318 
4.86955e-05 -0.000104638 6.34102e-05 
0.000108479 -0.000230975 0.000338684 
-5.77822e-05 0.000124293 -6.32195e-05 
-0.000345979 0.0014546 0.00694451 
1.42223e-05 -7.24437e-05 0.00702061 
-3.80503e-06 5.12735e-05 -1.36051e-05 
9.23281e-05 5.34938e-05 0.000142188 
-4.02851e-06 -1.41969e-05 0.00557148 
4.46625e-05 -8.86676e-06 -0.000274777 
-0.000176086 -0.000463768 -0.000283434 
5.93382e-05 -3.35401e-05 0.000246416 
0.000103823 -3.44085e-05 -0.000251037 
-0.000313356 3.86603e-05 0 
-0.000343692 -0.000129743 0 
-0.00016029 7.37347e-06 0 
0.000247078 0.000426057 -9.24468e-05 
0.00505913 -5.93805e-05 0 
-0.000704927 0.00247794 0 
-0.00108495 -0.00767434 0 
0.00136237 -0.013628 0.00545432 
1.00596e-05 -0.000116262 0 
-0.000492687 0.000626319 0 
-0.00175798 -0.00166629 0 
-0.00256918 -0.0013073 -0.00126636 
-0.000585057 0.000205267 0 
1.29862e-05 -0.000312594 0 
-0.000244709 2.90766e-05 0 
-0.000315705 -0.000226704 0.000193488 
-4.35696e-05 1.95269e-05 0.0103659 
-2.10215e-05 -1.1079e-05 0.0124048 
6.26498e-05 -3.60128e-05 0.007024 
-3.54429e-05 0.000151186 0.00786545 
-5.19723e-05 -7.25166e-05 0.000109552 
-4.51721e-05 2.09547e-05 -2.6458e-05 
4.81219e-05 -2.52352e-05 0.00609397 
1.71639e-05 -9.31684e-06 0.0055198 
0.000252552 0.000225245 0 
-0.000225825 0.000179848 0 
-8.94235e-05 -7.08301e-05 0 
-8.52504e-05 0.000248128 -0.000105319 
5.05794e-05 -4.04617e-05 -0.00039093 
-6.3843e-05 4.15255e-05 -0.000219758 
0.000218857 -0.000148049 0.000327693 
-0.00159455 0.000391523 0.00635042 
0.00195754 0.00546132 0.0126479 
-0.0185973 0.00465283 0.035894 
-0.000498251 0.00817514 0.00587172 
-0.00182805 0.00316264 0.0195159 
8.8681e-05 7.65248e-05 0.0158943 
1.3039e-05 -6.6222e-05 0.0137817 
-7.16557e-05 -6.47678e-05 0.0116143 
0.000107422 0.00028582 0.0143319 
-7.49355e-05 -6.63824e-05 0.0115936 
-7.24099e-05 9.29571e-06 0.0137645 
9.4285e-05 8.154e-05 0.0158988 
0.000107591 0.000284118 0.0143574 
2.33458e-06 5.8086e-06 0.000425567 
0.000696622 5.02671e-05 -0.0001666 
-6.72125e-05 -1.83537e-05 -0.00100417 
0.00283001 -0.000577782 0.00385304 
0.000251224 -0.00161234 0.0151602 
0.0003896 0.000152301 0.0163407 
-0.00011322 -0.000581538 0.0179283 
-0.00088551 -0.000717622 0.0157146 
-7.2153e-07 -1.03975e-05 -1.17137e-05 
5.23076e-07 7.53775e-06 0.000113191 
-9.07138e-07 -1.30722e-05 9.69384e-06 
0.000110923 6.90895e-05 0.0071548 
3.49247e-05 7.34297e-05 0.00873701 
-4.78871e-06 -3.62843e-05 -1.978e-06 
-0.000100886 6.37737e-05 0.000268947 
-8.69035e-06 3.94766e-05 0.00573587 
-6.93751e-05 2.63627e-05 0.000182419 
-3.00451e-06 2.10745e-06 -8.64575e-05 
2.90384e-05 -1.25047e-05 6.72784e-05 
0.000440084 -0.000155541 0.00830565 
-8.30127e-07 -6.42035e-05 0.010589 
9.56757e-05 4.7561e-05 0.014062 
-0.00015115 -0.000101274 0.00880537 
-8.20469e-05 0.00047342 0.0141144 
-2.35057e-05 -9.71571e-05 0.000122585 
-0.000528021 0.000206527 0.00876961 
-0.000101919 7.44115e-06 7.63876e-05 
-0.000344439 -7.04782e-05 0.00757911 
-0.00047517 0.00113909 0.0151294 
0.000795324 0.00106374 0.0168536 
7.15141e-05 0.000188202 0.0144293 
0.000180207 0.000338892 0.0144447 
-0.00013844 3.21963e-05 0.0110912 
-1.96001e-06 3.40578e-05 0.0141098 
0.000466898 -8.76026e-05 0.014945 
0.000450391 -3.91011e-05 0.0134173 
-0.00365978 0.000981847 0.0238068 
0.00035496 0.000246067 0.0180312 
-0.00226422 0.000159211 0.0173236 
0.000276257 0.00107515 0.017146 
0.000320316 -0.0218144 0 
-0.00451867 0.0197361 0 
-0.000214339 -0.046308 0 
-0.00363693 -0.0164499 0.106871 
8.49957e-05 1.74211e-05 -0.000916423 
-9.73753e-05 -2.71398e-05 0.000672731 
0.00079744 0.000333302 0.000322914 
-0.00281403 0.000559554 0.00142825 
0.000125911 -0.00276231 0.00884138 
0.0110951 0.00102913 0.0112279 
-0.000992793 -0.000691806 0.00581247 
0.00435936 -2.97996e-05 0.0169485 
0.00809297 -0.00243203 0 
-0.0145615 0.000883089 0 
0.00756251 -0.00732736 0 
-0.034124 0.0071404 0.0206238 
8.46999e-06 9.52285e-05 0.000135267 
-4.22517e-05 1.0505e-06 0.00464514 
5.53207e-05 7.4966e-06 -5.87618e-05 
-5.74415e-05 -8.6696e-06 0.00667553 
-4.73704e-05 4.67785e-06 -0.000199809 
-0.000207498 2.04905e-05 1.10772e-05 
3.76661e-05 -3.71955e-06 0.000211232 
0.000705676 0.000341724 0.0095037 
4.16878e-05 -4.17898e-06 -0.000132228 
-4.41658e-05 -0.000159795 -0.000122343 
0.00016029 7.22728e-05 -6.71656e-05 
-0.000509694 -0.000101748 0.000599749 
8.70189e-06 4.29515e-05 0.0109315 
-2.52202e-05 1.96076e-05 0.0109944 
-1.96925e-05 -8.61895e-05 0.00639746 
0.000229809 0.000166865 0.00863543 
0.00111874 0.00204764 0.00713241 
-0.000322665 0.00204979 0.0128127 
-0.000204928 0.000633051 0.0119103 
0.000153168 0.00233892 0.0171499 
0.000350043 -0.000133399 0.0114885 
0.00049475 0.000137048 0.0149776 
0.00107307 -9.46096e-05 0.0155444 
0.000322191 -0.000168094 0.0134433 
-1.90026e-05 0.000147241 -0.000430379 
2.24378e-05 -0.000193567 0.000370916 
-2.10245e-05 0.000170765 -0.000421445 
-0.000863957 -0.000738709 0.0105806 
-3.9075e-05 -8.35918e-05 -2.58061e-05 
2.32228e-05 4.87277e-05 -1.33847e-05 
2.16652e-05 4.86049e-05 8.24099e-05 
0.000235326 0.000553454 0.00723086 
-0.000118261 0.000114788 -0.000772622 
0.000150745 -0.000151937 0.000306522 
-0.000282321 0.000290401 0.000131796 
0.000742961 0.000182775 0.00423853 
4.82734e-05 3.41778e-06 1.83471e-05 
-5.9446e-06 -4.20881e-07 1.96298e-05 
-1.60896e-06 -1.13915e-07 5.14757e-05 
-3.55323e-05 -9.27226e-05 0.0068601 
4.00031e-05 4.60695e-05 0.0183095 
-1.14304e-05 -7.07481e-05 0.0167015 
-1.73371e-05 -2.28343e-05 0.0166948 
0.000602584 0.000214911 0.0171843 
-6.2693e-05 -0.0002821 -0.000237232 
0.000144216 0.000674737 0.00101917 
-2.86236e-05 -0.000145924 -0.000422487 
-0.00135707 0.000938204 0.00155375 
-7.10059e-05 9.24618e-05 0 
-1.69077e-05 0.000111356 0 
2.48942e-05 -4.98554e-05 0 
-0.00010824 0.00015789 -0.000150339 
-0.000714472 0.00877104 0.0145474 
0.00390296 0.00289567 0.0042555 
0.00154488 0.00580537 0.0108992 
0.00407334 0.00222253 0.0128748 
0.00101928 0.000588656 -0.000895199 
0.000412522 0.000134304 -0.000643673 
-0.000213232 -0.000576717 -6.99085e-05 
-0.00178439 -0.00188169 0.00181682 
2.02091e-05 -3.3464e-05 3.17228e-05 
4.41166e-05 -8.23479e-06 1.19248e-05 
-1.77575e-05 1.39605e-05 0.00475683 
6.38372e-05 1.7759e-05 0.00748976 
-2.3689e-05 -3.02536e-05 0.00672033 
-2.38378e-06 -1.51892e-05 0.0058419 
1.53753e-05 1.98266e-05 0.00979994 
-0.000144508 6.25357e-05 0.00952901 
-0.000113436 -2.89467e-05 0.000152821 
5.82569e-05 1.65426e-05 0.000299785 
0.000236477 6.10926e-05 -0.000149762 
0.00090201 0.00011302 0.0107661 
-2.3969e-05 0.00020098 0 
0.000243545 0.000138727 0 
-8.1452e-05 0.000146703 0 
-0.00139066 -0.000346861 0.0001414 
-0.00108359 -0.0026289 0 
0.00128986 0.000561758 0 
0.000549236 -0.000720982 0 
-0.00213797 0.00101103 -0.00246772 
7.23812e-06 0.000151434 -0.000320833 
5.87705e-05 0.000650065 0.000757438 
-2.5888e-05 -0.000296656 -0.000273845 
-0.00093729 0.000878502 0.00176667 
-9.32115e-06 5.02222e-05 0.0138222 
-1.81925e-06 2.34844e-05 0.0115169 
3.31462e-05 -6.00732e-05 0.00979391 
-0.000146667 0.000138166 0.00954853 
2.84095e-05 -2.30709e-05 0.00725397 
0.000186497 -0.000100599 0.0084267 
6.68494e-05 5.83504e-05 0.000131525 
0.000158105 -6.68093e-05 0.00742916 
-6.60628e-05 4.53051e-05 0.00014003 
5.51533e-05 -3.76949e-05 -0.000388886 
-0.000242157 0.000166309 4.96494e-06 
-0.000906071 0.00037629 0.00674303 
-8.73697e-05 6.04976e-05 0.00755261 
-1.85402e-06 2.53234e-05 4.09044e-05 
1.15367e-06 -1.57576e-05 4.23135e-05 
3.65454e-06 -4.99162e-05 3.13185e-05 
2.30474e-05 -6.30339e-05 0.0160318 
5.09324e-05 1.32885e-05 0.0130633 
-1.7294e-05 6.34361e-05 0.0123744 
2.37249e-05 -0.000398333 0.014035 
0.000348353 8.66545e-05 0.0168047 
-9.78012e-05 0.000114242 0.0182606 
0.000600747 0.000728802 0.0177505 
0.000467249 -1.33353e-05 0.018116 
-0.00017223 0.0033633 0.0104173 
0.000807297 0.0053396 0.0100735 
0.00152199 0.00189783 0.00280524 
0.00343594 0.00144427 0.00991229 
-1.10977e-05 -4.1506e-06 0.0047269 
4.05829e-05 -1.1023e-05 -8.00015e-05 
-6.78122e-05 4.00409e-05 0.00589879 
-5.9649e-05 -8.6601e-05 0.000156785 
-4.8028e-05 -2.81462e-05 9.57358e-05 
-1.53979e-05 -1.2573e-05 -6.59576e-05 
7.9101e-06 -2.16108e-05 0.00553607 
4.02412e-05 2.74022e-05 2.37932e-05 
1.79049e-05 3.83073e-06 3.405e-05 
-1.72252e-06 -9.43894e-07 5.42932e-05 
-6.45858e-05 -1.53407e-05 2.95259e-05 
-9.4032e-05 -3.09231e-05 0.00745426 
-0.000125878 1.19424e-05 3.8253e-05 
9.31507e-05 -6.14385e-06 0.000178059 
-0.000195948 1.78658e-05 4.05243e-06 
0.000660821 0.000135942 0.00951882 
0.000851961 -0.000150985 0.0158221 
0.000703295 0.00102619 0.016741 
0.00219311 0.000488287 0.0162953 
0.000246645 0.000341989 0.0144802 
-1.20048e-05 3.59777e-05 0.00653282 
7.46681e-05 2.24754e-05 0.000155743 
-1.35042e-05 -7.44701e-05 0.00528823 
-1.19642e-05 -8.93114e-05 0.00782729 
-0.0051729 -0.000960003 0.0207514 
-0.00818672 -0.000436441 0.0120906 
-0.0112044 0.00201313 0.0213226 
-0.00442811 0.000881584 0.0182559 
0.000324059 -6.77171e-05 0 
-3.88734e-05 -0.000168244 0 
-6.69158e-05 0.00087283 0 
0.00331996 -0.000690883 0.000970371 
-7.40536e-05 -2.30359e-05 -0.000296709 
6.16574e-05 -0.000235294 3.69876e-05 
0.000171187 6.33502e-05 0.000259091 
-0.000273693 -0.000102277 -0.000372275 
9.59177e-05 0.000196225 0.0145221 
0.000775874 0.00105947 0.0167639 
0.000992027 -0.000268835 0.0157613 
0.000191743 0.000344029 0.0144786 
5.56102e-06 2.45453e-07 -0.000515297 
5.10975e-05 1.39913e-05 0.000104548 
3.18654e-05 8.71588e-06 6.13497e-05 
-0.000552529 0.000465213 0.0087137 
-0.00140683 0.00411516 0.0051797 
-0.00621781 0.00249285 0.00630433 
-0.00555039 0.000385336 0.011792 
-0.00628511 0.000642594 0.00932208 
2.59255e-05 7.05597e-05 9.72073e-05 
3.60855e-05 3.94692e-06 0.00572001 
9.51726e-06 1.69769e-05 -6.63605e-05 
-2.63264e-05 -5.68735e-05 7.02353e-05 
5.74522e-06 4.18558e-05 -0.000467936 
-2.65622e-05 -0.000109418 0.000222535 
-2.61103e-05 -9.03158e-05 -0.000179159 
0.000630961 -0.000674154 0.00692862 
-4.68065e-06 1.87515e-05 5.45785e-05 
8.66624e-06 -4.09257e-05 7.99575e-05 
-5.82767e-06 2.38702e-05 5.26862e-05 
4.2968e-06 0.000203918 0.00910484 
-0.000125828 -0.000373506 -2.76115e-05 
0.00204172 0.00332486 0.00420848 
-0.000629662 -0.0018541 -0.0014026 
0.0018291 0.0029737 0.00179549 
-5.47749e-06 -0.000608034 0 
0.000591873 0.000545197 0 
0.000399867 6.59376e-05 0 
-0.00137409 0.000325756 0.000324778 
-0.000418741 2.4891e-05 0 
0.000626839 -0.000178345 0 
7.3294e-05 0.000547111 0 
0.000717093 0.00108617 0.000315354 
-0.000508287 -0.00250264 0 
0.00120234 -0.000572171 0 
9.32317e-05 0.00116405 0 
-0.0080063 0.00055426 0.00139335 
4.72804e-05 4.23945e-07 5.20961e-06 
8.33928e-05 -3.54983e-05 0.000109167 
-2.91588e-05 1.23828e-05 0.00480413 
5.7311e-05 2.30763e-05 0.00752169 
0.000234931 -0.00015492 0 
0.000122739 4.36562e-06 0 
-0.000104749 1.64052e-05 0 
-7.50642e-05 0.00028595 0.000260495 
-1.75318e-05 0.000208991 0.000125382 
-4.52949e-05 0.000539944 0.00106997 
-3.41496e-05 0.000407084 -0.000543637 
-0.00165998 -0.00249957 0.00330054 
-0.0569165 0.0138273 0.190312 
0.03285 -0.0261063 0.0571335 
0.00603386 -0.0144798 0.180321 
0.0122941 0.0559047 0.0102273 
-3.31348e-05 5.25538e-05 0.00542699 
7.28895e-05 -6.96836e-05 0.0110767 
-2.63665e-05 1.41387e-05 0.00625956 
-3.84796e-05 3.30645e-05 0.00870112 
-0.000343197 -0.000333168 0.0131396 
0.000557874 0.000118662 0.0163537 
0.00044668 -0.00167788 0.0151904 
-0.00110212 -0.000705695 0.0157156 
-1.89368e-05 -3.0485e-05 7.27505e-05 
-4.24109e-05 3.39462e-05 0.00466309 
1.58954e-05 2.75149e-05 -0.000105111 
1.21869e-05 1.33973e-05 9.54614e-05 
-0.000139371 -0.000214154 -9.88484e-05 
8.55614e-05 0.000119967 -0.00011959 
-2.26312e-05 -1.75084e-05 0.000254518 
0.000413772 0.00097844 0.00078905 
0.0288432 -0.0605211 0.145804 
-0.0170235 0.0458153 0.033502 
-0.0320937 0.0550904 0.15239 
0.030232 -0.0512883 0.0314894 
4.49423e-05 9.38598e-05 0.00690405 
-3.42932e-06 -2.42798e-07 8.79539e-05 
-1.01847e-05 -7.21081e-07 -3.91271e-05 
3.91451e-06 2.77149e-07 1.22904e-05 
0.00283282 -0.00034998 0 
-0.00481003 0.0022991 0 
-4.40837e-05 -0.00499943 0 
-0.00726081 -0.00154592 0.00280012 
0.00286611 -0.0012514 0 
0.00115031 0.00121127 0 
0.00377441 0.000603741 0 
-0.00704967 -0.000128995 -0.00143337 
-3.32787e-05 -2.76862e-05 0.0146624 
3.50279e-05 3.51538e-05 0.0123908 
-6.56395e-05 4.73329e-05 0.0106259 
-4.13464e-05 -0.000354905 0.0140255 
-0.000123034 0.0001689 -0.000130315 
-5.39458e-05 7.3713e-05 0.00048521 
3.14623e-05 -4.32324e-05 9.81846e-05 
0.000506223 -0.00104332 0.00557226 
-4.11846e-05 -5.06897e-05 0.000101843 
-4.04728e-05 1.99134e-05 0.00562083 
2.25818e-05 -1.78514e-05 -2.00998e-05 
-2.49401e-05 -8.78272e-06 0.0060891 
-1.48354e-05 -5.25944e-05 0.00638671 
9.73019e-06 8.94974e-06 0.00537319 
7.29566e-06 4.91743e-05 0.0109774 
0.0002257 0.000113908 0.0085787 
1.03702e-05 8.90673e-05 0.0188402 
4.41839e-05 0.00011723 0.0184154 
-6.2964e-06 -9.48188e-05 0.0185511 
0.000289983 -3.32396e-06 0.0181804 
5.61598e-05 -7.30713e-05 -0.000550322 
4.63591e-05 -6.35404e-05 2.89111e-05 
0.000221518 -0.000304541 0.000277072 
6.38202e-06 -0.00056127 0.00519677 
-0.00640004 -0.0401953 0.228443 
0.00657198 0.043077 0.116181 
-0.0154768 0.0490911 0.118055 
0.00751321 0.0167367 -0.043307 
-5.09716e-05 7.61808e-06 0.000186928 
-2.31755e-06 1.19105e-06 -3.23159e-05 
1.24696e-05 -2.68264e-06 -6.15719e-06 
-4.91743e-05 0.000146171 0.00892371 
-0.0212204 -0.060417 0 
-0.0017235 0.0313879 0 
-0.0151866 -0.0307269 0 
-0.00644668 0.0251423 0.112285 
0.0122208 0.0217953 0.0488315 
0.0108584 0.0010843 0.00942491 
0.00882833 -0.00341134 0.0241419 
0.00398774 -0.00336622 0.0104516 
0.00145126 0.00446896 0.0106968 
-0.00120608 -0.00207577 0.0118659 
-0.00227452 -0.0041485 0.00635595 
0.00506363 0.00445616 0.0153598 
0.000226945 0.000155953 5.4199e-05 
-2.53001e-05 -1.74673e-05 -0.000389094 
-3.4912e-05 -2.39609e-05 0.000132803 
0.000764245 0.000303087 0.00752733 
1.04561e-05 3.55858e-05 -2.09587e-05 
-6.68959e-06 -1.54685e-05 -7.44513e-05 
-4.14282e-05 -0.000150683 0.000199665 
-9.23843e-05 -0.000465666 0.00883118 
1.34261e-06 1.93501e-05 -8.64184e-06 
1.07738e-06 9.33675e-06 3.17687e-05 
4.48113e-06 4.79946e-05 7.4867e-05 
7.43941e-05 -0.000121089 0.00903539 
0.00016953 -0.000113452 0.00936383 
0.000284438 -0.000162327 0.0134504 
-2.5492e-06 1.35382e-05 0.0102334 
0.000123935 -0.000152029 0.00796609 
-0.0101542 -0.0176999 0.0465901 
-0.0181226 -0.0387907 0.154124 
-0.0201427 0.0310958 0.211182 
0.0377097 -0.0322444 -0.00812023 
-0.000201601 0.000235179 0 
6.32426e-05 -0.000196681 0 
0.000370891 0.000115916 0 
-0.000435799 -0.0004293 -0.000186161 
7.71338e-06 2.61798e-05 -3.91786e-05 
2.32236e-05 0.000111724 0.000239854 
-1.05235e-05 -4.68715e-05 -6.78531e-05 
0.000146975 0.000272355 0.00945572 
5.76571e-06 1.62107e-06 -0.000532234 
3.45885e-05 2.95125e-06 -8.50404e-06 
-1.43496e-05 -1.63344e-06 0.000195839 
-0.000557297 0.00047843 0.00881581 
-1.47012e-05 -2.91136e-05 -6.9469e-05 
-9.31547e-06 1.77214e-05 0.00468852 
2.44355e-05 5.88871e-05 -4.53213e-06 
-2.22845e-05 -6.49616e-05 0.000132847 
-3.86713e-05 1.1739e-05 0.000159437 
-1.71435e-05 6.41217e-06 2.79249e-05 
8.08817e-06 -7.37081e-07 -9.41508e-05 
0.000382434 -6.7921e-05 0.00836384 
0.000363873 0.000147202 0 
0.000215937 -8.35671e-05 0 
-0.000126225 -0.000100853 0 
-0.000404547 -0.0003136 0.000229004 
0.00116657 -0.000299591 0.00113696 
-0.000229373 0.00079048 3.16176e-05 
0.000441434 -0.000961347 0.000202854 
-0.0025254 -0.000845322 -0.0017836 
-1.63118e-05 -2.13965e-05 -1.16726e-05 
2.02696e-05 5.54868e-06 0.00531769 
2.56423e-05 1.63867e-05 0.00656474 
3.60157e-05 -5.74743e-05 0.000122128 
0.00497298 0.00156625 0 
0.00205037 0.00148764 0 
-0.00290173 -0.00328636 0 
-0.00748632 -0.0131996 0.000500216 
-0.029873 -0.0210398 0.0630042 
0.0302931 0.00771216 0.204931 
-0.0470241 -0.00761158 0.136152 
-0.0158244 0.0273516 -0.0412313 
-0.00104852 -0.0123154 0 
0.00134601 0.00965935 0 
-0.00211515 -0.00338222 0 
0.0108648 -0.0359552 0.0244688 
0.000293046 -0.000532754 0 
0.00065798 0.000718846 0 
-0.000245481 -0.000330851 0 
-0.00133901 0.00103975 -0.000434944 
6.62911e-05 -4.53298e-05 0.0179272 
-3.82541e-05 -7.16397e-07 0.018577 
3.68058e-05 2.27297e-05 0.0174174 
-0.000293426 -0.000125173 0.0180025 
-0.00013854 0.00016006 0 
-0.000160102 -0.000250753 0 
0.000362012 -0.000187772 0 
-0.00078082 0.000300668 -0.000157794 
-3.0261e-05 -1.46345e-05 8.25895e-05 
-8.73503e-05 -3.90756e-05 2.11152e-05 
8.07893e-05 3.50946e-05 5.22076e-05 
-0.000243147 -0.000117584 0.00747039 
-4.50383e-05 0.000488944 0.012043 
-0.000121595 0.00124097 0.0166477 
0.000113019 0.000827321 0.0162446 
-0.000287229 0.000517885 0.0140846 
7.31974e-05 -3.2278e-05 0.017478 
-4.76481e-05 1.14102e-06 0.01537 
-4.75144e-05 -6.26824e-06 0.015 
0.000458413 -0.000128889 0.0164896 
5.55265e-07 -5.24137e-05 0.00524418 
-4.20061e-05 9.04344e-05 9.48444e-05 
4.83414e-05 5.71044e-06 3.76724e-05 
2.59113e-05 -0.000174521 0.00795435 
0.00331757 -0.00493622 0.0108225 
-0.00255977 -0.00393263 0.0102759 
-0.00172223 -0.00268977 0.0140063 
0.00520243 0.00399048 0.0116744 
-0.0127219 -0.00226855 0.000446696 
-0.0037607 -0.00382623 0.00656499 
-0.00131938 0.000177209 -0.00081991 
-0.0101221 6.14069e-05 0.00839726 
-1.64491e-05 4.8982e-05 0.00624032 
2.71417e-06 -1.681e-05 0.0111427 
1.98395e-05 -2.06532e-05 0.0104789 
-0.000112625 -0.000117 0.00920185 
-4.75846e-05 -2.16768e-05 0.00568557 
-5.73358e-07 -8.26233e-06 5.55146e-07 
1.06022e-06 1.52783e-05 4.96941e-05 
1.33588e-06 1.92506e-05 1.73055e-06 
5.61564e-06 -2.26467e-05 9.70018e-06 
-5.96427e-06 2.65933e-05 -3.77212e-05 
2.19404e-05 -0.000101985 0.000183641 
6.82716e-05 -0.000105603 0.00803517 
1.78273e-05 -2.06231e-06 0.0159589 
3.50686e-06 2.79993e-05 0.0160295 
-2.70237e-05 7.7134e-06 0.0180307 
1.1404e-06 -0.0006291 0.0164541 
-1.8527e-05 -1.59358e-06 5.97123e-05 
0.000288511 2.48159e-05 -4.18615e-06 
7.93472e-07 6.82496e-08 0.000118663 
0.000192644 -0.000405701 0.0100035 
-5.69852e-06 2.53724e-05 0.00526721 
-3.83253e-05 7.82159e-06 0.0104387 
2.01466e-05 -1.81725e-05 0.00701232 
1.0931e-05 0.000144639 0.0077812 
4.14444e-05 -2.93432e-06 1.70685e-05 
1.20992e-05 -8.56639e-07 7.70149e-05 
-9.68094e-06 6.85424e-07 -8.64152e-06 
-6.36156e-05 9.95619e-05 0.00601369 
-0.000162513 4.3612e-05 0 
0.000253981 -0.000167342 0 
-8.34007e-06 4.88765e-05 0 
-0.000265317 0.000478478 0.000329041 
2.34692e-05 -2.84115e-08 0.0057148 
-4.755e-05 2.21671e-05 -5.08335e-05 
5.69258e-05 -3.5014e-05 0.00682528 
6.18601e-05 0.00011164 0.000162303 
-0.000306941 9.48804e-05 0 
0.000421258 -0.000139196 0 
0.000175702 9.36068e-05 0.000234403 
0.000271265 -0.000111825 0 
-0.000187938 -0.0005279 0 
-0.000814955 0.000220912 0 
-0.00141311 0.00338281 0 
0.000619076 -0.000284447 -0.000589043 
0.000781048 0.00622177 0 
0.000946542 -0.00371679 0 
-0.00443083 0.00576304 0 
0.00228894 -0.00806707 -0.000295119 
4.90483e-05 -0.000136138 -0.000376641 
-7.19119e-05 0.000173581 0.000128646 
0.000299516 -0.000106025 0.000113194 
8.80546e-05 -0.000214086 -0.00018259 
7.94777e-07 -6.83961e-08 6.22683e-05 
-0.000166659 1.43421e-05 -3.0031e-05 
-1.85575e-05 1.597e-06 -1.03431e-06 
0.000191373 -0.00027268 0.0101171 
0.000132356 -8.39708e-05 -1.43786e-05 
3.27453e-06 -2.25189e-07 -8.82241e-06 
-7.20008e-05 4.95147e-06 0.000112673 
-1.63207e-05 1.12237e-06 -0.000259925 
-2.65943e-05 -1.84535e-06 -0.000187363 
0.000268256 1.86141e-05 2.71501e-05 
-1.62147e-05 -1.12512e-06 4.48569e-06 
0.000305691 0.000202223 3.70183e-05 
-3.90941e-05 -4.35696e-06 0.017401 
5.45164e-06 4.80642e-05 0.0159472 
2.81838e-05 -4.04763e-05 0.0180073 
-0.000169738 -0.000306558 0.0163002 
-0.000300469 0.000120021 -0.000169521 
-0.000207239 1.0303e-05 0.000145965 
6.52927e-05 -0.000130982 -7.51614e-05 
0.000189363 -4.16207e-05 -0.000416871 
4.56796e-05 5.04776e-05 -9.15125e-05 
0.000247522 -2.72582e-05 0 
-3.67645e-05 -9.81067e-05 0 
-0.000174549 0.000392732 0 
-3.89129e-06 9.67428e-05 0 
-0.00010662 5.37449e-05 -0.000163669 
0.000106605 -0.000111117 0 
-2.66273e-05 -2.1978e-05 0 
0.000105777 -5.07057e-05 0.0165597 
2.234e-05 2.9235e-05 0.0150665 
-0.000120094 6.26513e-05 0.0126493 
0.000452223 3.99878e-05 0.0147351 
2.86443e-05 5.89842e-05 0.0188201 
-1.9697e-05 -4.43629e-05 0.0185868 
2.91738e-05 -7.20656e-05 0.0184696 
-2.53561e-05 0.000135962 0.0185421 
-4.09026e-05 1.77545e-05 -2.83718e-05 
5.96374e-05 -2.73759e-05 0.000191168 
6.20215e-05 -2.60283e-05 -4.68163e-05 
-0.000548532 0.000158097 0.00931384 
-9.35521e-07 -0.000216285 -0.000221407 
-7.32673e-06 -0.000104432 -0.000136021 
5.7855e-06 8.24636e-05 0.000202367 
1.1789e-05 0.000168035 -4.00491e-05 
-1.90177e-05 5.40478e-05 0.000253668 
-2.1161e-05 1.4752e-05 0.00476401 
7.01463e-05 -4.04884e-05 0.00737662 
9.35e-05 -8.37334e-05 0.00725925 
0.000449424 0.000266411 -5.52308e-05 
-0.00107352 0.000515872 -0.00112342 
-0.000513135 -0.000679025 -0.000203933 
0.00078207 -4.5002e-05 0.00116166 
-7.44819e-05 -0.000108525 6.31095e-05 
1.51451e-05 2.51057e-05 4.96401e-05 
1.21557e-05 1.73145e-05 -1.84674e-05 
3.61847e-05 -0.00012562 -6.53923e-05 
0.000222021 -0.000149926 -0.000188207 
2.54222e-06 -5.74087e-06 0.000330038 
6.16497e-05 -4.14144e-05 -7.01002e-05 
-0.000188036 0.000398461 -6.26433e-05 
-2.3911e-05 -2.89873e-05 0.0138427 
3.24681e-05 3.53229e-05 0.0141181 
-4.01465e-05 -3.80722e-05 0.0104532 
0.00038226 -6.214e-05 0.0131537 
2.67684e-05 5.9748e-05 0.0184869 
2.80941e-05 -4.82433e-05 0.0170975 
9.72842e-06 1.29866e-05 0.0177726 
-0.000443046 0.000191562 0.0178966 
-0.00240413 -0.0419806 0.157858 
-0.0225925 -0.0141719 0.0811686 
-0.010828 0.0368266 0.0940744 
-0.0288858 0.0117076 -0.0245026 
-7.72233e-06 4.35614e-05 -0.000191063 
5.26967e-05 -0.000269444 0.000793424 
-1.31217e-05 7.61482e-05 -0.000363723 
-0.00108037 -0.0013306 0.00138915 
3.48159e-05 2.37256e-05 3.50155e-05 
-2.84258e-05 -1.84651e-05 5.562e-05 
-4.14475e-05 -2.61983e-05 0.000148539 
0.000370617 0.000180571 0.00887391 
-0.000977171 0.00316842 0 
-0.00153436 -0.00258147 0 
0.00108954 -0.00229347 0 
-0.00708186 0.00681183 0.00235963 
0.0165021 0.00668772 0 
-0.0213108 -0.00969828 0 
-0.0205063 -0.00512348 0 
-0.0265377 0.00457131 0.0531231 
0.000185149 -0.000184156 0.000129428 
-0.000245913 0.000245823 -8.17604e-05 
-0.000185826 0.000182808 -0.000278295 
-4.20669e-05 0.000409103 0.000478244 
0.000903507 -0.000479693 0 
-0.000498179 -0.000639011 0 
0.00127029 0.000640984 0 
-0.00312209 0.000261667 -0.000295758 
0.0117249 0.0131871 0 
0.00642966 0.00873598 0 
-0.00342514 -0.0275538 0 
-0.0115638 -0.0431901 0.0329325 
0.0153477 -0.0169991 0 
-0.029951 0.0349438 0 
-0.0253566 0.00799417 0 
-0.0163702 -0.00203319 0.0821567 
-0.000109397 0.000107162 -0.00010666 
7.93334e-05 -7.55007e-05 0.000132744 
-6.18097e-05 0.000262353 -0.000135586 
-0.000117349 0.000111683 -0.00019627 
-4.70518e-06 3.86358e-05 0.00702252 
-4.78449e-05 5.35391e-05 0.0068101 
3.8025e-05 -2.28835e-05 2.03099e-05 
8.23066e-05 3.27539e-05 0.000192002 
0.000560378 0.00545577 0.0150508 
-0.00134564 0.00135834 0.0127449 
0.00182716 0.00208151 0.0071524 
0.000692941 0.0030414 0.0172061 
1.683e-05 -3.39202e-06 0.00692661 
4.45154e-05 5.43641e-05 0.00015318 
-2.30568e-05 3.17649e-05 3.37115e-05 
5.50464e-05 -4.62885e-05 0.00706517 
-0.00025621 -0.000261791 -0.000226968 
-6.8445e-05 -7.21477e-05 -0.000131544 
8.6512e-05 9.77731e-05 0.000377254 
-0.00015044 0.000310717 0.000729956 
-0.000760128 -0.000547283 0 
0.000471769 -5.05251e-05 0 
0.00107347 0.000428413 0 
-0.00785075 -0.00172492 0.000490759 
-0.00401678 -0.00526072 0 
0.00361819 -0.000999529 0 
-0.00549653 0.00680234 0 
-0.000111312 -0.00810989 -0.001148 
-0.000443356 -0.00050348 0 
-0.000115784 -0.000263513 0 
-0.000536264 0.000361922 0 
0.00256171 0.00164508 0.000276896 
2.96398e-05 3.58179e-05 0.0141592 
-5.03085e-05 1.35944e-05 0.0111524 
-3.54697e-05 -4.14082e-05 0.0103546 
0.00037501 -6.26985e-05 0.0132366 
1.3897e-05 1.43545e-05 -0.000105152 
-4.99802e-05 -4.98233e-05 0.000136095 
-0.000106233 -0.000104111 4.90651e-05 
5.73597e-05 0.000172199 0.00772393 
-1.94226e-05 -4.39371e-05 0.0185912 
2.24691e-05 5.23431e-05 0.018806 
-2.5204e-05 1.6509e-05 0.0184437 
-2.71373e-05 0.000135518 0.0185801 
6.18642e-05 0.000131448 -0.000710511 
1.52947e-05 2.94907e-05 -7.97638e-05 
-0.000150017 -0.000268951 0.000134883 
0.000203606 -0.00122067 0.00450829 
0.000124976 0.000164046 0.000168878 
-0.00013876 -0.000131246 -0.000125515 
5.72431e-05 2.06635e-06 0.000176394 
-0.000420128 -0.000330018 -0.000345212 
-6.94259e-05 -6.53417e-05 6.29304e-06 
5.38878e-05 2.30794e-05 0 
-5.87227e-06 -0.000133352 0 
-0.000114557 -3.34062e-05 0 
2.06929e-05 -1.56971e-05 0.0185239 
-3.0357e-05 -3.00406e-05 0.0174778 
-3.24113e-05 1.05047e-05 0.0182412 
0.000366888 -2.2946e-06 0.0184326 
-6.8396e-06 7.85833e-06 4.58811e-05 
5.23314e-05 -8.55004e-05 0.000109416 
-5.33156e-05 9.16393e-05 -0.000193694 
-5.3716e-05 -0.000162171 -0.000133263 
6.45513e-05 -0.000188025 -0.00129567 
5.35337e-05 -0.000122783 -6.55102e-05 
-0.000118449 0.000286658 0.000601097 
0.000956935 0.00156952 0.00435057 
0.000438414 -0.00136268 0 
-0.0011271 0.000511528 0 
0.000958356 0.000487071 0 
-0.000643808 0.00167999 0.000281856 
4.28659e-05 -1.90892e-06 0.00531131 
5.62973e-06 -2.29702e-05 -3.23005e-05 
-7.98129e-06 3.82055e-05 -1.41211e-05 
5.7266e-06 -3.60132e-05 0.000101487 
4.16669e-07 -0.000503903 -0.000207125 
0.000193143 -1.41407e-05 -0.000173049 
0.000180978 -1.32501e-05 0.000114869 
-0.000585601 4.2874e-05 0.000311676 
-8.33271e-06 -3.55658e-05 -0.000103457 
4.65955e-05 0.000166002 0.00018274 
3.20189e-06 5.03738e-06 -6.41227e-05 
0.000246552 0.000648257 0.00745862 
0.00291658 0.00395027 0.00815703 
-0.00353046 0.000534495 0.00315908 
-0.00242294 -0.00345327 0.00956929 
-0.00142929 -0.0017622 0.0133317 
-3.61922e-05 -8.20426e-05 -0.000579627 
1.44932e-05 2.19781e-05 -0.000114692 
9.56777e-05 0.000174698 0.000186981 
-7.19283e-05 0.00132966 0.00452154 
0.0047747 0.00304093 0 
-0.00216886 -0.00359743 0 
0.00296837 -0.00262041 0 
0.00861124 0.00893103 0.00908283 
0.00181976 0.00241277 0.0157561 
0.00110492 0.00549167 0.0102298 
-4.74577e-05 0.00290987 0.0103096 
0.00271092 0.00203925 0.00985498 
0.00018207 -0.00159781 0 
0.000320954 -0.000257652 0 
-0.00146593 -0.00354197 0 
-0.00111582 0.00344682 -0.00322784 
-0.000225889 2.23159e-05 -0.000447282 
0.000568527 -4.00109e-05 -0.000186633 
0.000542228 -4.77401e-05 0.000600248 
4.9978e-05 0.000616633 0.0013449 
-4.34449e-05 -0.000228219 0.000764809 
0.000153031 0.000661884 -8.90981e-05 
5.0808e-05 0.000248989 -0.000565912 
0.000686947 -0.00150743 0.00155409 
-4.4881e-05 1.94645e-05 -3.10603e-05 
1.52791e-05 -5.04285e-06 0.000119188 
2.51826e-05 -8.7499e-06 0.000166371 
-0.000528025 0.000256196 0.00928531 
-0.000215749 0.000119829 -0.000500525 
-0.000184295 -0.000148749 0 
-6.94508e-05 -0.000310673 0 
-0.00038614 0.000429618 0 
-5.84289e-06 -2.41285e-05 -2.90156e-05 
-5.74561e-06 -3.48967e-05 9.24116e-05 
-7.79805e-05 -7.80089e-06 0.00603972 
1.18762e-05 5.13992e-05 3.3468e-05 
-3.15347e-05 6.1453e-05 0.0187387 
-1.82063e-05 -5.32612e-05 0.0185493 
-1.19578e-05 3.24064e-05 0.0182736 
0.000357201 -1.76512e-05 0.0183112 
2.29124e-05 5.99098e-06 -3.99927e-05 
3.26927e-05 7.41574e-05 0.00710292 
4.40892e-05 7.81365e-06 0.000102529 
-3.46709e-05 -8.48459e-06 3.24462e-05 
-0.000531519 -0.00033303 0 
0.000692872 0.000386377 0 
0.000203558 -7.91861e-05 0 
0.00264484 -0.000196703 0.000358324 
5.35075e-05 1.54589e-05 -0.000286087 
-0.000563422 -0.00011975 -0.000580744 
9.33099e-05 9.44046e-06 0.000963956 
0.0026238 -0.000287811 0.00267036 
3.02081e-06 1.06112e-05 -3.51783e-05 
3.97258e-06 2.85523e-05 0.0001118 
6.70415e-05 2.63014e-05 0.00697211 
-5.9003e-06 -2.62685e-05 8.69621e-06 
0.00120916 -0.000406902 0 
-0.00132351 0.000914131 0 
-0.000974374 -0.000202137 0 
-0.0015709 0.00746319 -0.000224325 
0.00276038 -0.00361107 0 
-0.000143778 0.00152812 0 
-0.00203403 -0.00338812 0 
0.00255737 0.000491353 0.000395879 
2.8749e-05 -4.83635e-05 8.56422e-05 
2.50072e-05 -3.27982e-05 -8.67245e-05 
1.00374e-05 -1.93494e-05 7.27473e-05 
-0.00014054 0.000253662 0.0080527 
0.000227915 -8.08154e-06 0 
-0.000365206 -2.88773e-05 0 
-0.000294316 0.000110742 0 
-0.000189638 0.000220401 3.69539e-05 
4.44887e-05 -9.42097e-05 0.011025 
2.17634e-05 6.65055e-06 0.0149073 
-2.58188e-05 3.19348e-05 0.0147225 
2.50141e-05 0.000349543 0.0140808 
-1.19913e-05 2.105e-05 0.000301684 
-9.49769e-05 0.000215106 0.000310793 
-1.79712e-05 4.67817e-05 -0.000202425 
1.09987e-05 0.00101485 -0.000112045 
-1.2002e-05 8.42091e-07 4.28045e-06 
7.51507e-06 -5.27277e-07 3.76953e-05 
1.88499e-05 -2.50243e-05 0.00487072 
-2.3292e-06 1.63423e-07 -9.18513e-06 
-0.00474823 -0.000399792 0.0101337 
-0.0132101 -5.53711e-05 0.0195731 
-0.00762909 -0.000450573 0.011521 
-0.00298584 0.00229045 0.0193731 
2.88332e-05 -6.40679e-05 8.88956e-05 
-8.83234e-05 0.000193725 -2.03063e-05 
-2.11676e-05 5.2924e-05 -0.000651696 
-0.000160458 0.00160475 0.00698609 
-0.000849583 0.00538321 0.00420299 
-0.00422676 0.000308267 0.00709817 
-0.00409607 7.42463e-05 0.0135487 
-0.00920613 0.000334827 0.00602129 
-3.3877e-05 3.47978e-05 -1.86494e-05 
-3.48376e-05 -2.46142e-05 0.000126501 
1.70835e-06 -3.01709e-05 0.00537084 
4.21497e-05 -5.64367e-05 0.00685725 
-5.73789e-05 -2.11893e-05 0.011115 
5.63741e-05 -7.7839e-05 0.0142196 
-6.48267e-05 8.00476e-05 0.0125667 
0.000356333 3.80904e-05 0.0148458 
0.0350219 -0.00793482 0.108186 
-0.0479988 0.00202393 0.136827 
-0.0311852 0.0083926 0.0806875 
0.0140197 0.0454101 -0.0251213 
-0.00890526 0.00157506 0 
0.0113079 -0.0104609 0 
-0.00610459 0.0159701 0 
-0.0177937 0.0331619 0.0303479 
1.11144e-06 3.42069e-07 3.28301e-05 
-8.12259e-06 1.59977e-06 7.62006e-05 
-6.26749e-05 4.21706e-06 -3.87035e-05 
0.000233046 -6.19343e-05 0.00758354 
-3.6735e-05 -9.88069e-06 0.000378854 
-0.000132352 -0.000100097 -0.000328539 
0.000346945 0.00021865 -0.000287309 
-0.00141694 -0.000416146 0.00175017 
7.86014e-05 -3.97746e-06 0.0141268 
-3.9466e-05 -1.30406e-05 0.0137559 
-6.83222e-05 -7.8233e-05 0.00894526 
-0.000137534 0.000536456 0.0138636 
1.4333e-06 1.77922e-05 0.0104492 
-5.13256e-05 -2.37892e-05 0.0148904 
4.67878e-05 2.7316e-05 0.0122985 
-0.000146078 6.90073e-05 0.0135668 
-1.08646e-05 2.086e-05 0.000294549 
-2.18587e-05 2.67118e-05 -0.000369488 
0.000218653 -0.000326564 -4.74964e-05 
-0.00024363 0.000931479 0.000332411 
-6.48044e-05 -2.64569e-05 0.0159702 
8.84769e-05 2.05792e-05 0.0123694 
-1.69338e-05 -3.8516e-05 0.0148236 
-0.000211401 8.85394e-05 0.0135783 
0.000551041 0.000205942 -1.34807e-05 
0.000346467 7.54828e-05 -1.68953e-05 
-0.000355543 -7.85591e-05 -3.61068e-05 
0.000287569 6.12022e-05 -8.44771e-05 
-2.15978e-05 -1.84365e-05 -8.91707e-05 
-4.401e-06 -6.69955e-05 -3.96486e-05 
1.01018e-05 8.31531e-06 4.94265e-05 
-3.99902e-05 -3.9974e-05 -1.87706e-05 
4.91137e-05 -3.39019e-06 0.0110376 
-9.05589e-05 -1.15957e-05 0.00715155 
4.97675e-05 -1.53944e-05 0.0126256 
-1.26357e-05 2.22362e-07 0.00864573 
-7.08616e-05 7.28654e-05 -6.95344e-05 
-5.17667e-05 5.35486e-05 -5.82945e-05 
3.6707e-05 -3.8586e-05 5.58444e-05 
-0.0001135 3.32403e-05 -1.21436e-05 
-2.70344e-05 5.15687e-06 0.00554082 
-4.21573e-05 -3.94296e-05 0.00741877 
1.28213e-05 2.76288e-05 2.93543e-05 
-2.04021e-05 5.63675e-05 0.00014859 
2.70851e-05 -2.20402e-05 0 
5.08641e-05 1.49614e-05 0 
-0.000190495 9.40145e-05 0 
-0.000814089 4.74921e-05 -3.00849e-05 
4.45717e-05 3.76197e-05 -0.000194755 
-1.2775e-05 -2.12713e-05 -0.000207138 
-3.93521e-05 -3.683e-05 8.12999e-05 
-5.20925e-05 -0.000119331 0.000132798 
-0.000141297 -6.02185e-06 0 
-9.09696e-05 2.0169e-05 -7.17832e-05 
9.21763e-05 -2.37375e-06 0 
-0.000104253 7.70177e-05 0 
2.63345e-05 -0.000168092 -0.0012822 
0.000116582 -0.000447014 0.00124463 
-7.43598e-05 0.000316467 -6.3706e-05 
0.000933446 0.00239525 0.00375379 
8.39418e-05 5.82465e-06 -0.000208759 
0.000263723 1.82995e-05 -0.000479992 
-5.71607e-05 -3.96633e-06 0.00010932 
-0.000383934 -0.000306933 0.000269478 
-0.000261308 8.94181e-05 0 
0.00011976 -5.98426e-05 0 
7.45511e-05 0.000214805 0 
4.51657e-05 0.000101281 0.00010844 
0.000264143 0.00149231 0 
0.000374136 -0.000399553 0 
0.00152529 -0.000802579 0 
-0.00379391 0.00217951 -0.00043469 
-0.000213348 -0.000115444 0.000471475 
6.65999e-05 5.61838e-05 -0.00093864 
0.000189014 9.74314e-05 -0.000227336 
-0.00193265 -0.000289674 0.0026781 
2.00987e-05 -2.28385e-05 0 
9.67949e-05 4.7591e-05 0 
-8.8321e-05 -0.000184823 0 
8.83532e-05 -4.50685e-05 -0.000163495 
-0.000607471 0.000903351 0.00958945 
0.000684894 0.00190813 0.0196292 
-0.000309318 0.00675321 0.0171706 
-0.00231849 6.72302e-05 0.0181874 
4.74792e-05 5.27441e-06 0.0141294 
5.81904e-06 9.88991e-05 0.0171035 
1.07316e-05 -2.86441e-05 0.0137416 
-0.000159169 0.000543299 0.0138715 
-2.56219e-06 3.65179e-05 -2.61042e-06 
4.58462e-06 -6.53428e-05 -0.000222793 
0.000202521 -0.000265692 -5.75388e-06 
-1.80784e-06 2.57664e-05 -9.58651e-05 
0.000155157 0.000161586 -0.000235207 
7.64959e-05 7.47074e-05 4.29957e-05 
-1.86302e-06 -1.26055e-05 0.000344756 
-0.000127845 -0.000500007 0.000226224 
-6.94202e-05 -6.47651e-05 0 
9.72024e-05 -9.28308e-05 0 
-4.33973e-05 6.58996e-05 0 
9.70919e-06 -6.04887e-05 -2.13933e-05 
-2.20103e-05 1.9711e-05 4.78584e-05 
4.88802e-05 -3.81906e-05 5.58979e-05 
-5.48485e-05 4.24003e-05 0.00683405 
5.99543e-06 -6.97311e-06 -5.96287e-05 
-5.87355e-05 0.000120593 0 
9.60402e-05 -2.57425e-05 0 
-1.07385e-05 0.000272328 0 
-0.0012853 -5.47469e-05 0.000115863 
5.7948e-05 5.74802e-06 0.0110687 
-7.26412e-05 6.32149e-05 0.00654311 
6.20289e-05 -4.51434e-05 0.0104193 
4.5926e-05 -7.66641e-05 0.00775573 
0.000425171 0.00598246 0 
-0.0068035 0.000502508 0 
-0.00071699 -0.00653328 0 
-0.00179476 -0.0201158 0.00788483 
-8.59907e-06 -8.961e-05 3.41238e-05 
9.36669e-06 3.76003e-05 -0.000452411 
-4.46538e-06 -2.76967e-05 0.000148063 
0.000324421 -0.000520584 0.00695498 
-4.39959e-05 2.02688e-05 0.015727 
-1.59972e-05 -5.46848e-06 0.0169994 
0.000104665 -4.76185e-05 0.014123 
-0.000363702 0.000140375 0.0157997 
-4.79966e-06 2.05805e-05 -1.18232e-05 
8.41319e-06 -3.71863e-05 6.0979e-06 
-4.41469e-05 2.01823e-05 0.00556995 
-5.55644e-06 3.13613e-05 8.54905e-05 
-2.50005e-05 -5.18635e-06 6.38009e-05 
4.12885e-05 1.03262e-05 7.0825e-05 
-4.85918e-05 -1.04243e-05 8.95919e-05 
0.000331245 2.31078e-05 0.00900704 
-0.00334721 0.00137331 0 
0.000353992 -0.0028111 0 
-0.000256122 0.000362305 0 
-0.00245794 0.00182419 -0.00135245 
0.00034053 0.00991469 0 
-0.00909533 -0.00256088 0 
0.00528821 0.000548706 0 
-0.022656 -0.00250882 0.00347082 
-0.00165015 -0.00121725 0 
0.000537649 0.000961999 0 
0.00210157 0.00137207 0 
-0.00551402 -0.00343851 2.51971e-05 
0.00276451 -0.00417148 0 
-0.00208393 0.00338763 0 
-0.00444926 0.00267392 0 
0.0026988 -0.0114912 -0.000191911 
-1.74011e-05 3.34212e-05 -1.59651e-05 
-1.63728e-05 2.91291e-05 2.7692e-05 
2.86422e-05 -5.71851e-05 6.63472e-05 
-3.45455e-05 1.02343e-05 0.00714481 
1.69396e-06 -1.1558e-06 -2.43106e-05 
4.63888e-05 -1.28042e-05 4.80065e-05 
-1.14956e-05 5.5447e-06 7.79201e-05 
-5.3086e-05 7.38769e-05 0.00889933 
2.34985e-05 -7.54095e-06 1.64292e-05 
-6.16569e-05 1.62979e-05 9.57473e-05 
7.85394e-06 -5.01335e-05 0.00756029 
2.75932e-05 -8.30669e-06 -2.53192e-06 
-2.24283e-05 -2.12783e-05 0.0146451 
1.43777e-05 -5.75506e-05 0.0160028 
1.62715e-05 3.93121e-05 0.0124836 
-1.84388e-05 -0.000361963 0.0139039 
-0.000351577 -0.000135261 0 
-0.000535786 -0.00403209 0 
-0.000250347 -0.000983869 0 
-0.00516664 0.0114435 -0.00221773 
-0.000105461 -1.19707e-05 0 
0.000120533 -8.35492e-05 0 
-9.51989e-05 1.34478e-06 0 
-9.81023e-05 0.000427795 0.000154827 
-1.26334e-05 -1.02222e-06 8.81717e-05 
3.8207e-05 9.26229e-06 3.15206e-05 
-3.78491e-05 -9.63648e-06 -5.34984e-05 
-3.79068e-06 -3.31152e-05 0.00538334 
-3.76254e-06 9.26679e-08 6.17383e-05 
-6.51524e-05 1.53359e-05 -1.24289e-05 
4.46505e-05 -1.17024e-05 0.000102425 
0.000228778 -0.000105449 0.00756427 
-1.44234e-05 -3.00948e-05 0.00529008 
4.95742e-05 -2.92714e-05 0.0104518 
-2.25778e-05 2.54279e-05 0.00657389 
2.9371e-05 -7.6685e-05 0.00766783 
0.000529769 -0.00666148 0 
0.000146976 0.0123028 0 
-0.00624702 -0.000162818 0 
-0.00140785 0.0189493 0.0136715 
-9.03679e-05 5.50733e-05 0.0126631 
5.19698e-06 -2.24844e-05 0.0143059 
8.91793e-05 -3.46786e-05 0.0166167 
0.00043796 2.58693e-05 0.014631 
0.00670953 -0.000637721 0 
-0.00191508 0.00494392 0 
0.000786209 -0.00518423 0 
0.000555268 -0.0161058 0.00603771 
2.6527e-05 6.76897e-06 3.57867e-05 
-3.12212e-06 -9.79494e-07 3.70353e-05 
-3.38053e-05 -9.11113e-06 6.38117e-05 
-0.000299414 -6.22388e-05 0.00755529 
-0.00761017 -0.00200609 0 
0.00318887 -0.00604745 0 
0.00704031 0.00290936 0 
0.0245227 0.00776552 0.0103187 
6.47227e-05 5.47029e-05 0.00703847 
-5.56898e-05 -1.45135e-05 9.01369e-05 
-8.84605e-06 -1.68663e-06 3.77538e-05 
1.97516e-05 4.4558e-06 -5.81689e-05 
-0.000126736 9.61393e-05 -0.000619198 
0.000212987 -0.000154017 -4.79337e-05 
0.000173606 -0.000127262 0.000209219 
0.000743186 0.000184664 0.00421724 
1.06403e-05 -4.62205e-05 4.06056e-05 
1.39575e-06 -2.37726e-06 7.85056e-05 
-2.98545e-06 1.64309e-05 5.73519e-05 
1.97562e-05 -5.92321e-05 0.00796534 
0.000102336 -0.000160371 -4.35389e-05 
-5.92449e-05 4.21236e-05 0 
1.58371e-05 6.98206e-05 0 
6.79124e-05 8.72608e-06 0 
5.70504e-05 0.000128103 -0.000104581 
-6.05157e-05 -0.000134493 9.18754e-05 
5.80903e-05 9.73408e-05 0.00034702 
-0.000110317 -0.000994531 0.0045968 
3.56448e-05 -0.000467137 3.64506e-05 
-2.02114e-05 0.000139647 -0.000747739 
2.14062e-05 -0.00021448 0.0004054 
-0.00066408 -0.00133217 0.00231881 
0.000303073 0.000285724 5.05992e-05 
-2.87489e-05 -0.000132878 4.24568e-05 
2.89841e-05 0.000148158 -0.000198532 
3.61635e-05 0.000171076 -9.6493e-05 
2.14576e-05 -4.65515e-05 0.00598129 
-2.64045e-05 5.18327e-05 4.77061e-05 
1.21994e-05 -2.04182e-05 4.71567e-05 
-3.48933e-06 3.27209e-06 -6.38341e-05 
0.000496125 -0.00405257 0 
0.000480062 0.00346481 0 
0.000146281 0.0123568 0 
-0.00260887 0.0114776 0.0215842 
-4.17095e-05 -0.000186994 0 
-7.34174e-05 3.92424e-05 0 
-5.80922e-05 3.10509e-05 0 
5.44976e-05 -3.61813e-05 -0.000258649 
6.24307e-05 -0.000185081 -0.00127083 
-5.63526e-05 0.000223168 8.14797e-06 
-0.000129567 0.000492051 0.000446234 
0.000397481 0.00130653 0.00475938 
0.0130791 -0.0346642 0 
-0.0138302 0.0359636 0 
0.00802394 -0.0377581 0 
0.00369813 -0.0396135 0.0789778 
3.67167e-05 -4.74245e-05 7.36563e-05 
-1.11931e-05 1.2834e-05 2.20795e-05 
-1.96533e-06 7.46997e-06 0.00535646 
-1.94265e-05 2.59991e-05 -6.38564e-05 
-0.0258047 0.0213178 0 
-0.0420734 0.0162198 0 
0.0218522 -0.0106103 0 
-0.00196947 0.00689678 0.084996 
1.03538e-06 4.321e-05 0.00548507 
-3.90674e-05 3.99027e-06 0.0071134 
4.67027e-05 -2.47097e-05 0.0111342 
-6.20946e-05 8.2277e-06 0.00857653 
0.0138708 0.00343802 0 
-0.000745951 0.00739814 0 
-0.0080396 -0.00361533 0 
0.0315991 -0.00544166 0.0132344 
3.01149e-05 2.61955e-05 0.0174463 
-1.85122e-05 1.64484e-05 0.0185697 
2.5137e-05 2.14087e-05 0.0178195 
-0.000319692 -0.000144119 0.0180233 
-1.72857e-05 0.000244144 -5.78683e-05 
1.08396e-05 -0.000153099 -0.000496405 
1.84682e-06 -2.60845e-05 0.000232817 
-0.000164872 0.000135515 -0.00032567 
-0.000108095 9.03055e-05 0 
0.000143078 -0.000117421 0 
5.28775e-05 -4.33955e-05 0 
-0.000160982 0.000135879 -0.000125824 
-0.000194382 2.75101e-05 0 
1.99997e-05 1.64134e-05 0 
3.06423e-05 2.51475e-05 0 
-6.53737e-05 -4.74233e-05 -0.00020823 
-1.8323e-06 -2.61166e-05 -6.6836e-05 
-1.07544e-05 -0.000153287 -0.00012857 
1.60201e-05 0.000228342 -0.000132478 
-0.000391141 0.00013354 -2.26878e-05 
0.000289912 -6.2502e-05 0.000134379 
-0.000509838 0.000358606 -1.51473e-05 
-0.000242663 4.86571e-05 -0.000327961 
-0.000454326 9.8846e-05 -0.000157714 
7.0467e-05 1.66967e-05 -8.57074e-05 
2.28284e-05 6.17306e-06 3.37809e-05 
-3.84446e-05 -8.92894e-06 6.12813e-05 
-0.000250116 -8.27099e-05 0.00758247 
-7.70725e-05 -4.11961e-05 0 
8.12771e-06 4.34435e-06 0 
6.49222e-05 4.21554e-05 -0.00025712 
-7.41084e-05 0.000112636 0 
-0.000277775 0.000279636 0 
0.000157158 -8.40025e-05 0 
0.000235123 -0.000125676 0 
-0.000231904 0.000125712 -6.05755e-05 
3.5411e-05 8.53592e-05 0.000145017 
-3.92691e-05 -5.85116e-05 0.000334487 
-4.98833e-05 -0.000111826 -8.89184e-05 
0.000216975 0.00119145 0.0048205 
-2.66143e-07 5.52727e-06 -2.79159e-05 
-2.87169e-06 -3.99413e-05 3.65832e-05 
4.19088e-06 2.38678e-05 6.3376e-05 
4.78545e-05 1.5856e-05 0.00718593 
0.000215502 -0.000106351 0 
6.67008e-06 3.56523e-06 0 
-9.85827e-05 -5.26936e-05 0 
6.11003e-05 2.90928e-05 -0.000123009 
2.16625e-05 3.24365e-05 0.00566498 
2.41628e-06 2.06526e-06 4.64567e-05 
-2.63617e-05 -5.24031e-05 5.83489e-05 
1.05174e-05 2.36472e-05 -7.51276e-05 
-3.27365e-05 -0.000107918 0 
3.67681e-05 0.000121208 0 
-6.03734e-06 6.42237e-06 -0.000318144 
-3.98936e-05 6.47483e-05 0 
-4.28246e-05 1.87522e-05 0.00757616 
2.74892e-06 -4.66753e-05 7.38354e-05 
-2.65285e-06 1.88817e-05 3.1687e-05 
1.31041e-07 4.8108e-06 -2.41643e-05 
0.00014616 -8.09798e-05 0 
-4.99069e-05 -0.000120165 0 
-4.2818e-06 7.05513e-05 0 
2.04704e-05 -3.73465e-05 -5.36958e-05 
0.000343465 -0.000641683 5.50695e-05 
-3.67794e-05 5.60608e-06 0.00011554 
1.4378e-05 2.5251e-06 -0.000276643 
0.000161978 -2.75916e-05 -0.000366413 
3.20676e-06 1.66439e-07 3.05397e-05 
4.44552e-05 1.12914e-05 8.30977e-05 
-2.23639e-05 -4.94088e-06 -6.981e-05 
-3.61193e-05 -3.21855e-05 0.00532354 
8.57588e-05 0.000156558 -0.000287075 
-1.19696e-06 4.8323e-06 7.72658e-05 
-6.67043e-05 -0.000150476 -7.63607e-05 
-0.000111129 -0.00100444 0.00459849 
-0.00361462 0.00150932 0 
-0.00152655 0.00100847 0 
0.00195961 7.96056e-05 0 
0.000398433 0.000378409 -0.00145241 
-3.61453e-05 -6.76231e-05 0 
-5.34695e-05 -0.000100034 0 
6.66824e-05 0.000122718 -3.06953e-05 
5.33749e-05 9.58394e-05 0 
1.63497e-05 9.99998e-06 -9.67468e-05 
8.68228e-06 8.07277e-06 2.68171e-05 
-5.17902e-05 -3.95988e-05 8.22103e-05 
5.04759e-05 2.07267e-05 0.00539418 
-3.29369e-05 -0.000145191 2.86644e-05 
2.12028e-05 5.7616e-05 -0.000411833 
2.15757e-05 0.000100373 3.89894e-05 
-0.00032947 0.00015963 -0.000102445 
-2.14699e-05 -3.84087e-05 0.0067541 
9.73587e-06 6.97192e-06 0.00985041 
-1.04546e-06 3.82257e-05 0.0115511 
-0.000148939 8.65131e-05 0.00943035 
0.000312769 9.76866e-05 -9.35514e-05 
-0.000345352 -0.000104761 0 
-0.000130984 -3.97336e-05 0 
0.000511624 7.63958e-05 0 
3.39906e-05 -2.66111e-05 0.00666761 
-3.09417e-06 5.04263e-05 6.31357e-05 
4.06606e-06 -3.05858e-05 3.55273e-05 
-8.41442e-07 -4.00808e-06 -4.16841e-05 
6.93533e-05 0.000221619 -8.46944e-05 
-4.59558e-05 -0.000151496 0 
-4.92645e-05 -0.000162403 0 
0.000104284 0.000182625 0 
-0.00234213 0.00287648 0 
0.00333335 -0.00458006 0 
0.00363161 -0.00147656 0 
-0.0184794 0.00574427 -0.0016474 
3.11516e-05 2.41919e-05 3.88803e-05 
-2.43872e-05 -2.23618e-05 6.6455e-05 
-5.03004e-06 1.08827e-05 0.00551709 
-1.09535e-05 -5.81717e-06 -8.9789e-05 
-0.00183134 -0.00283728 0 
-0.000499547 0.00106549 0 
0.000607223 -0.00121366 0 
-0.000583899 0.00196419 -0.00128186 
0.0112041 -0.0552569 0.109401 
-0.0179964 0.0396276 0.19659 
-0.00938382 -0.0633696 0.157214 
0.0166409 -0.0194261 -0.0338788 
-7.57309e-05 -0.00012746 -0.000366161 
4.16541e-05 7.57615e-05 0.000142366 
4.10482e-06 1.60533e-05 -7.56186e-05 
0.000288284 0.00125982 0.0048208 
-3.2503e-05 -6.65961e-05 7.98287e-06 
-2.15363e-05 -5.13029e-05 0.000122835 
2.31742e-05 4.79399e-05 -1.31894e-05 
0.00030666 0.000732323 0.00716103 
-2.77591e-06 6.6804e-06 2.50568e-05 
9.4156e-06 -4.01434e-05 9.23381e-05 
-1.13893e-06 1.15031e-05 -7.8588e-05 
-2.41348e-05 3.14855e-05 0.00553623 
9.24167e-06 1.5039e-06 -2.18645e-05 
-3.81679e-05 -5.37488e-06 5.95041e-05 
1.88446e-05 6.2744e-07 4.52481e-05 
1.78744e-05 -4.36441e-05 0.00689294 
-8.49788e-06 -6.97403e-06 0 
7.23126e-05 5.93454e-05 0 
-3.79924e-05 -3.2967e-05 0 
-2.86271e-05 -2.68862e-05 -0.000113437 
-1.18584e-05 2.48277e-05 0.00482003 
-1.37711e-05 -2.97846e-05 0.00930607 
2.71606e-05 -4.85632e-06 0.00739405 
8.06445e-05 -0.000107932 0.00714731 
-3.62659e-06 3.64265e-06 -1.69989e-05 
-4.39732e-05 3.44832e-05 4.09337e-05 
4.46313e-05 -3.85751e-05 4.96697e-05 
-8.04538e-06 -3.1742e-05 0.00636354 
-5.80987e-05 -5.47548e-06 9.08721e-06 
3.74733e-05 5.70489e-06 7.41779e-05 
7.60211e-06 4.3394e-05 0.00691931 
2.24119e-05 2.03469e-06 -6.3602e-06 
0.000144361 3.63348e-05 -0.000230459 
-5.49609e-05 3.61456e-05 -0.000138505 
-4.21386e-05 -1.18562e-05 0.000128067 
-0.000121446 -3.06732e-05 0.000199031 
-1.50822e-07 -2.82168e-07 0 
4.17669e-06 7.81404e-06 0 
7.91185e-07 4.67625e-06 -4.81806e-05 
-3.67877e-05 1.56775e-05 0 
2.51602e-05 0.00357227 0 
0.0020427 -7.79022e-05 0 
3.87377e-06 0.00282299 0 
-0.00330291 -0.00554377 -0.00287293 
-8.78322e-06 -1.51469e-05 0.00462198 
-1.81334e-05 -3.13176e-05 4.93388e-05 
1.64274e-05 3.29457e-05 4.18574e-05 
1.41483e-05 2.2604e-05 -7.314e-05 
0.00164414 0.000665742 0 
0.000120419 0.000435334 0 
0.00391332 -0.00155722 0 
-0.00633716 -0.00102203 -0.00316447 
-0.000400496 3.32803e-05 0 
0.000380724 -0.000115491 0 
0.000225229 -6.83226e-05 0 
-0.000547238 0.000166888 -2.95854e-05 
2.46865e-05 -8.13805e-05 0 
3.07445e-05 -0.000101351 0 
-0.000100978 5.41888e-05 0 
-6.36115e-05 0.000198687 -0.000126505 
1.73745e-05 -6.85013e-06 -6.7844e-05 
-5.8682e-05 2.95258e-05 5.12398e-05 
5.5519e-06 -4.74404e-06 4.94612e-05 
5.20857e-05 -4.49338e-05 0.00577296 
-4.81297e-05 -6.12714e-05 4.54204e-05 
4.41806e-05 5.07385e-05 5.35603e-05 
3.93588e-06 5.33661e-06 -9.35541e-06 
4.34688e-05 -1.62791e-05 0.00709353 
-7.55463e-06 7.32855e-06 0.00028524 
0.000140191 0.000118573 5.61872e-05 
2.92474e-05 -0.000126156 -3.95214e-05 
-1.63916e-05 9.97821e-05 -0.000294492 
5.06584e-05 6.2929e-05 2.07897e-05 
-4.9055e-05 -5.59806e-05 6.56276e-05 
-7.23832e-07 -1.31311e-06 -7.45914e-06 
-3.89437e-05 2.51613e-05 0.00672923 
-2.55698e-05 0.000243501 -5.84499e-05 
2.50479e-05 -0.000254315 0 
3.72871e-05 -0.000378583 0 
-0.000194822 0.000454791 0 
6.08068e-05 3.08053e-05 4.26338e-05 
-4.98566e-05 -2.857e-05 4.82766e-05 
3.5234e-06 -3.43642e-05 0.00614138 
-5.89037e-06 -2.07115e-06 -2.70726e-05 
7.26971e-06 6.29839e-05 3.90295e-05 
-8.22955e-06 -8.35561e-05 0 
-8.9222e-06 -9.05887e-05 0 
4.48786e-05 0.000115481 0 
4.52253e-05 5.38954e-05 0.0069163 
9.91209e-06 2.93302e-05 3.07735e-05 
-1.59092e-05 -6.11183e-05 7.97721e-05 
1.96093e-07 5.29726e-06 -4.27793e-05 
4.13683e-06 -2.18054e-05 -3.5604e-05 
0.000189257 -0.000325409 -0.000200434 
-2.84431e-05 0.000143093 0.000169932 
3.75945e-05 -0.000195381 -0.00029309 
6.71176e-05 3.74904e-05 0 
-1.58775e-05 -1.93468e-05 0 
-2.19968e-05 -2.68031e-05 0 
-1.41766e-06 -2.92826e-06 -2.5339e-05 
-3.61399e-05 -4.61115e-05 0.0174298 
6.54761e-05 4.52707e-05 0.0148194 
1.26899e-05 -1.89929e-05 0.0159845 
-0.000185876 -0.000216405 0.0162725 
7.5598e-05 5.14075e-05 0.00639702 
-7.61326e-05 -3.91765e-05 3.81284e-05 
5.25126e-05 2.99786e-05 4.79971e-05 
-3.08138e-05 -1.83931e-05 -4.83204e-05 
0.000291096 2.49698e-05 0.000127125 
-2.11021e-05 -2.07838e-06 0 
-0.000199891 -1.96876e-05 0 
0.000153192 1.45407e-05 0 
-3.37783e-05 -1.52009e-05 0.00568368 
-3.20219e-06 -2.21926e-05 3.50065e-05 
3.3762e-06 5.24177e-05 6.15294e-05 
-8.10568e-07 -1.91648e-05 -3.70932e-05 
-4.0824e-05 8.07646e-05 -6.53051e-05 
3.90876e-05 -7.31277e-05 0 
-4.93823e-06 9.23878e-06 0 
9.86414e-05 0.000107848 0 
0.000200825 -0.00012047 0 
9.59363e-05 0.000134813 0 
-0.000104715 0.000165736 -0.000156959 
-0.000503798 -3.28682e-05 0 
0.000299563 -0.000281356 0 
0.000158513 -0.000130081 0.000126969 
-0.0001282 0.000103376 0 
-0.00031699 0.00019816 0 
8.99378e-05 -0.00010959 0 
1.53428e-05 -1.86952e-05 0 
-6.53741e-05 7.54204e-05 -0.000101033 
-7.80685e-05 0.000103539 0 
0.000299696 -2.95175e-05 0 
0.000215523 -2.12272e-05 0 
-0.000466004 -7.1387e-05 0 
-0.000352728 3.29436e-05 7.17931e-05 
-4.37299e-05 -5.24215e-05 -1.82203e-05 
5.67205e-05 6.91142e-05 0 
1.62479e-05 1.97982e-05 0 
-9.96462e-05 -3.21064e-05 0 
-5.26932e-05 -3.82883e-05 0.00597087 
-9.78965e-06 -3.1179e-05 1.00547e-05 
1.23139e-05 5.0524e-05 9.13424e-05 
3.68831e-06 8.04365e-06 -3.78512e-05 
0.000181957 -0.000417918 0 
-4.32303e-05 0.000142511 0 
-7.65569e-05 0.000252374 0 
8.26587e-05 -0.000253862 -0.00022491 
-0.000211734 -0.000114807 0 
4.00332e-05 1.21439e-05 0 
3.65603e-05 1.10904e-05 0 
4.77977e-05 1.1983e-05 -8.37936e-05 
-6.91607e-06 1.72729e-05 -5.2205e-05 
1.20841e-05 -3.89995e-05 7.90071e-06 
-1.21722e-05 4.94231e-05 8.78238e-05 
3.4874e-05 -4.37882e-05 0.00522681 
2.21778e-05 -1.53622e-06 2.38696e-05 
-3.10385e-05 5.07445e-06 7.43015e-05 
4.72367e-06 -1.0302e-06 -2.08073e-05 
-5.79258e-06 4.96236e-05 0.00604452 
-1.1317e-05 -0.000114903 0 
4.50444e-06 4.57343e-05 0 
-8.80013e-05 -6.93353e-05 0 
1.89548e-05 0.000185068 -2.66173e-05 
7.11768e-06 1.86165e-05 0.00584329 
-2.43231e-05 3.29448e-05 5.99736e-05 
3.15453e-05 -3.61284e-05 4.18857e-05 
4.17676e-07 -4.05031e-06 -6.42226e-05 
-6.44531e-05 -8.18517e-06 -6.31066e-05 
5.33201e-05 5.25157e-06 0 
-1.42535e-05 -1.40385e-06 0 
8.1873e-05 -4.7803e-06 0 
7.25522e-06 -1.28478e-05 0.00487438 
4.20266e-05 -4.49429e-06 1.29921e-05 
-6.9163e-05 5.08027e-06 6.33701e-05 
2.74779e-05 -1.60443e-06 -4.03231e-05 
8.70066e-05 6.57713e-06 0 
-0.000188247 1.85407e-05 0 
3.76249e-05 -3.70572e-06 0 
0.000105915 -1.46567e-05 -0.000142466 
-5.39398e-05 4.2021e-05 -4.96369e-05 
2.24936e-05 -1.846e-05 0 
3.77108e-05 -3.09485e-05 0 
-0.000101925 3.06737e-06 0 
-0.000190707 0.000174299 0 
0.000129526 -0.000157828 0 
8.01116e-05 -9.76162e-05 0 
-0.000185109 0.000226258 -1.47142e-05 
5.86918e-05 -0.000171389 0 
-6.70228e-06 6.80494e-05 0 
-3.41918e-06 3.47155e-05 0 
4.85243e-06 -4.16589e-05 -2.74231e-05 
1.85167e-05 -1.19679e-05 -5.20045e-05 
6.63788e-05 -3.36228e-05 4.66514e-05 
-3.46888e-05 2.04111e-05 4.69576e-05 
-6.62097e-05 5.99825e-05 0.00570187 
-3.60647e-05 6.44163e-05 -4.10285e-05 
-1.35996e-05 2.54431e-05 0 
1.06791e-05 -1.99792e-05 0 
1.93166e-05 -0.000215888 0 
4.31243e-05 -1.30816e-05 0 
-0.000110648 3.35648e-05 0 
5.9997e-05 -2.50281e-05 -0.000212641 
0.000102901 -0.000101178 0 
8.61006e-05 9.66087e-05 0.00892965 
-4.86593e-05 -1.86888e-06 0.00627117 
-3.14419e-05 0.000106735 0.0105389 
-2.59489e-05 -4.98219e-05 0.00661443 
2.8126e-05 0.00023584 0.00905019 
-2.50638e-06 2.09158e-05 0.0104716 
2.94328e-06 -0.000113314 0.00616931 
-8.15208e-05 0.000405353 0.0116261 
-6.64208e-05 0.000299563 0.00812963 
-3.83683e-05 0.00124401 0.00752918 
3.03614e-05 -2.47374e-05 0.000235128 
-8.65462e-05 -0.000149048 -5.70544e-05 
-8.71714e-05 0.000169897 0.00765554 
2.71336e-05 6.72823e-05 0.00056076 
7.71467e-05 0.00127875 0.0077224 
-4.28404e-05 0.000906193 0.0125792 
-0.000388472 -0.00216736 0.0163024 
-0.00106631 -0.00130057 0.0159246 
-0.00134977 -0.000192801 0.0152783 
-0.000753914 -0.0028042 0.0154169 
-0.00146495 -0.000746376 0.0152941 
-0.001489 -0.00125896 0.0161442 
0.000153537 -0.0018702 0.0160482 
-0.00108242 4.18169e-05 0.0168816 
0.0017349 0.000288397 0.0169738 
0.0033162 6.02027e-05 0.0171777 
0.00324626 0.000237294 0.0176333 
0.00153098 0.00013326 0.0169252 
0.000644561 -0.00057439 0.01757 
0.0042678 0.000229541 0.0171802 
0.0046027 0.00130953 0.0164444 
0.00239017 -0.000190585 0.0206567 
9.15815e-05 0.0010557 0.000902824 
-0.00289458 -0.000454307 -0.000964513 
0.000185783 0.00725378 0.00746012 
-0.00129556 0.000396918 0.000983051 
0.000610067 0.00154161 0.000786801 
-0.00159496 0.00566751 0.0076844 
0.000544222 0.0017406 0.000434445 
-0.00227801 0.00228287 0.00589843 
-1.84991e-05 0.0198863 0.032279 
0.00375161 0.00715396 0.0123971 
-0.00742358 -0.000329251 -0.00732264 
-0.00349799 0.000451127 -0.00244409 
-0.00731665 0.0136957 0.0216528 
-0.00299355 0.0022856 -0.000425641 
0.00409261 0.00519789 0.0137714 
-0.000843259 0.00154657 0.000285104 
0.00869144 0.0026227 0.00626134 
-0.000248612 -0.000726957 -0.00224496 
2.17108e-05 -0.00305371 0.00696883 
0.00231105 -0.000159734 -0.00115548 
0.00717764 0.00169532 0.00739237 
-0.000166766 -0.00288477 0.0071575 
0.00189716 0.000224498 -0.00390926 
0.000609783 -0.00489238 0.00985018 
-0.0209815 0.00501877 0.0228188 
-0.00495427 -0.0290607 -0.0192298 
-0.0169471 0.0298773 0.0969972 
-0.0363934 -0.00370913 0.023581 
-0.0158684 0.00353734 0.0316784 
-0.0313283 0.0084417 0.0550019 
-0.00355237 -0.0018949 0.00158916 
-0.0129325 -0.00238787 0.00337124 
0.00236825 0.00481822 0 
0.00570197 0.0042156 -0.00203061 
-0.00789086 -0.0038617 0 
-0.00230982 -0.000388572 0 
-0.00669476 -0.0164653 -0.0206289 
0.000850075 0.00118826 -0.0180979 
0.00211823 0.0223275 0.0317106 
0.00744173 0.0404481 0.0736988 
-0.000699826 -0.00162813 0.00549818 
0.00948491 0.014528 0.0326278 
0.00111314 0.00938943 0.0180349 
0.00430758 -0.00462067 0.00743143 
0.0020234 0.000704325 0.00141139 
0.00060392 0.00728824 0.0157116 
0.00856851 0.0166669 0.0394248 
-0.000986975 0.00719596 0.00288295 
-0.00833051 -0.00128219 0.00816677 
-0.00294079 0.00144705 -0.00635063 
-0.0137082 0.0103086 0.0307063 
-0.00673206 0.00652461 0.0131347 
-0.0101287 -0.00100971 0.00586753 
-0.0236295 0.00561955 0.0286654 
0.00591787 0.00573576 -0.00470336 
0.00260213 -0.00145772 -0.00199287 
-5.76715e-05 -0.000349785 0.0147012 
-0.000123436 -0.000280698 0.00759295 
-9.82056e-07 7.65956e-05 0.0101154 
-0.00012617 -0.00020107 0.00938101 
3.48132e-05 -3.47096e-05 0.0102596 
-0.000272714 -0.000250668 0.00797291 
8.47408e-05 -0.000315685 0.0141968 
2.90853e-06 -0.000241736 0.0105574 
-0.00841186 0.0185062 0.0534627 
-0.00392538 -0.00279219 -0.00613479 
-0.00294752 -0.00254044 -0.000420833 
0.00164347 0.0202262 0.0142314 
-0.023378 0.0147559 0.0615829 
0.00298038 -0.00520654 0 
0.00434172 -0.0128429 0 
-0.0031966 0.0296847 0 
-0.000142506 -0.00014199 -0.000709323 
0.000984228 -0.000115643 0.00705912 
5.48495e-05 5.37566e-05 0.000130927 
6.83574e-05 6.4991e-05 -0.000155264 
-7.37464e-05 6.14752e-05 -9.47434e-05 
0.00110308 -0.00010553 0.00763489 
-9.98069e-05 -0.00019139 -0.00163161 
0.000521253 -0.000985236 0.00786353 
0.000274133 0.00154531 0.0164055 
-0.00018777 0.00141 0.0179596 
0.000362917 0.000931029 0.0159425 
0.00062075 0.000586372 0.0140696 
-5.35444e-06 0.00140187 0.0164981 
0.00029099 0.000851326 0.0161741 
0.000206651 0.00164008 0.0176946 
-0.000116003 0.00233799 0.0173361 
0.00178792 0.000362905 0.00524636 
0.00334035 0.00326713 0.00786764 
0.0006466 -0.000760314 -0.000816495 
0.00145649 0.000398582 0.00923609 
0.00234005 -0.000740132 0.00548492 
0.000510659 -0.00176869 -0.00086717 
0.00287401 0.00526304 0.00765945 
0.00223399 0.00125422 0.00245365 
0.0411391 0.0160818 0 
0.0476137 0.0330259 0.148563 
-0.0793367 -0.0601346 0 
-0.0168645 -0.0275096 0 
-0.030899 -0.0172062 0.0594942 
-0.00398582 -0.00515868 0.0828915 
0.0163981 -0.0102021 -0.0290641 
-0.011236 -0.0106561 0.00257367 
-0.000702369 -0.000804142 0.0155155 
-0.00357081 0.00128453 0.0139692 
-0.0019783 0.000263359 0.0176497 
-0.00307562 -0.000540726 0.014362 
-0.00125234 -0.000257114 0.0156146 
-0.00216525 6.88753e-05 0.0172748 
-0.00306684 0.0011896 0.0143147 
-0.000368272 0.000704318 0.0165548 
1.29134e-05 1.63871e-05 0.00650473 
0.00026073 0.000102476 0.00876356 
-9.03816e-06 9.8285e-05 0.0109521 
4.47952e-05 -3.0731e-05 0.00681874 
-6.79942e-05 9.71276e-05 0.0109056 
0.000476591 0.000203034 0.00903485 
-4.68303e-05 -5.77702e-05 0.00638097 
0.000202673 8.47224e-05 0.00883092 
0.000145032 0.00221806 -0.00376345 
0.00999886 0.00790061 0.0135964 
0.00424826 0.00288146 0.0151248 
0.00824006 4.68664e-05 0.0111932 
-0.00182516 0.00284182 -0.00244216 
0.0126231 0.00714117 0.0195216 
0.0044789 -0.000104097 0.00316867 
-0.00858658 -0.00510348 -0.00656297 
0.028588 -0.0059501 0.0460221 
-0.0104383 0.0227016 0.0189837 
0.0158055 0.00446963 0.0298739 
0.0131968 -0.00716127 0.00779431 
0.01586 0.0180405 0.0853315 
3.80799e-05 -0.0114894 0.0457549 
0.0154063 0.0261267 -0.0233788 
-0.00454851 -0.0176644 -0.0139426 
-0.00115636 0.000268914 0.00805057 
-6.49535e-06 4.76545e-05 0.0092453 
-0.000982354 0.000742303 0.0155833 
-0.000482383 0.000280513 0.00916482 
-0.000889493 0.000769841 0.0153152 
3.29745e-05 9.62037e-05 0.00956387 
-0.0012191 0.000221892 0.00789809 
-0.000272649 -6.20643e-05 0.00974098 
0.00511744 -0.0134751 0.0254591 
0.00314429 -0.000699635 0.0102987 
0.0080045 -0.000459532 0.00694733 
0.00238628 -0.00709702 0.00535975 
0.00611493 -0.0154574 0.0419943 
0.00716998 0.0013256 -0.0080844 
0.0044507 -1.62668e-05 0.000932385 
0.00762451 -0.00712754 0.0466114 
0.00174505 0.019973 0.041295 
-0.00492989 -0.000991783 -0.00694952 
-0.00227282 -0.00025813 0.00218853 
0.00324896 0.00907476 0.00583724 
-0.0123456 0.0182139 0.0495992 
0.0048582 -0.00129347 0 
0.000517887 -0.0100254 0 
-0.00360807 0.0208417 0 
0.000843383 -3.28127e-05 0.0101011 
-0.000299311 -0.000130713 -0.000462978 
-0.000988791 -0.000180546 0.000263462 
0.0049765 0.00335584 0.00779675 
0.00112778 0.000613032 0.00941598 
-4.8799e-05 1.24448e-05 -3.11808e-05 
0.000156443 -5.00911e-05 -0.000592697 
8.68668e-05 -1.91757e-05 0.000257782 
-0.000216172 -1.98364e-05 0.000223668 
5.11349e-05 5.91491e-06 0.00534459 
0.00034399 9.93078e-05 0.00893979 
-1.23487e-05 8.02458e-05 0.00667735 
0.000277085 7.90626e-05 0.00904558 
5.10835e-05 7.54425e-06 0.00533383 
-6.03434e-05 -3.30959e-07 0.000159509 
3.33486e-05 3.23962e-05 -5.8454e-07 
-0.0001021 0.00194931 0.0162169 
0.00235728 0.000400025 0.0133863 
0.000401637 0.000696048 0.0186779 
0.00162801 0.00221171 0.0144726 
0.000181254 0.00178713 0.0159714 
0.00053755 0.000697536 0.0183303 
0.00198989 0.000557406 0.013858 
0.000326801 -6.59437e-05 0.0163992 
0.0383709 -0.00868992 0.0567753 
-0.0510189 -0.0430638 0.0678483 
-0.000224425 0.0112681 -0.0336325 
-0.0241101 -0.0445157 0.0438112 
-0.00746286 -0.0131323 0.0379735 
-0.00449377 -0.0244783 -0.00120624 
-0.0299887 -0.00940196 0.0458855 
-0.000149666 0.0108351 0.0251069 
0.00520483 0.00044758 0.00218021 
-0.00087639 -0.00133974 0.00167309 
0.00315296 -0.00189008 0.00849362 
0.00466144 -0.00109733 0.00229503 
0.00444134 7.95564e-05 0.00238773 
0.00354106 -0.00200642 0.00792152 
-0.000197305 -0.000801055 0.00181354 
0.00141905 0.00110551 0.0032343 
-0.000250679 -0.000118802 0.00775208 
1.05074e-05 -0.00036824 0.0141996 
-0.00021378 -0.00061552 0.0174767 
-0.00048121 -0.000306666 0.0108143 
-0.000178259 -0.000790416 0.0174113 
-3.90677e-05 -0.000263351 0.0141586 
-0.000120561 -0.000259253 0.00798793 
2.21994e-05 -0.000249826 0.0105634 
-7.78105e-05 -0.00196907 0.0171533 
-0.000475755 -0.000697173 0.0153811 
-0.000300913 0.000724708 0.00798123 
-0.000516207 0.000193392 0.010946 
-0.000240282 2.37308e-05 0.00799643 
-4.92152e-05 -0.000405226 0.0151859 
-0.000388741 -0.00128021 0.0172434 
0.000258604 -3.89012e-06 0.0106956 
0.00272169 0.00215648 0.0233119 
-0.0116173 0.00219572 0.0261038 
-0.00437483 0.00139411 0.016775 
-0.00505658 -0.00188354 0.02081 
0.00509518 0.000218257 0.0222172 
-0.00355204 0.000923577 0.0169152 
-0.0128893 0.00546823 0.032456 
-1.04668e-05 0.0068996 0.0169732 
0.00214272 0.00141658 0.00708948 
-0.00177621 -0.000291825 -0.000236741 
0.00511217 0.000840792 0.0111381 
0.00175008 -0.000722236 0.00849925 
0.0023629 0.00109682 0.00720735 
0.00359619 0.00100084 0.0103382 
-0.000736477 -0.00030421 0.000311314 
0.00023165 -0.000623668 -7.54009e-05 
0.000153433 -0.00055339 -0.00258044 
0.00626605 0.000115978 0.0122933 
-0.00100025 -2.37142e-05 -0.000182806 
0.00127667 -0.00042125 0.00802184 
4.37909e-05 -0.000538759 -0.00163764 
1.29172e-05 -0.00015892 0.000576903 
0.00444503 0.000358991 0.0110662 
-1.74823e-05 0.000215084 -0.000633612 
-0.00161561 2.92801e-05 0.000244027 
-0.000129219 0.000150634 0 
0.000336161 0.000392983 0 
0.000445483 0.000194645 0 
-0.0038826 -0.00136613 0.00185187 
0.000253765 8.35143e-05 -4.40786e-05 
0.00231057 0.00131418 -0.00186441 
-0.00783285 0.00112213 0.00459178 
0.000734093 7.09936e-05 0.00790457 
-0.000170923 -9.80512e-05 0.000232126 
0.000169733 0.000175754 0.00884342 
0.000157457 -6.75148e-06 0.0110008 
0.000681822 7.24154e-05 0.00791012 
0.000245269 0.000169393 0.0088717 
-0.000177857 -9.02031e-05 0.000168295 
-1.7725e-05 6.73094e-05 -6.34542e-05 
-0.00222561 0.00246269 0.00349087 
-4.99941e-05 -0.000595961 0.00114967 
-4.53141e-05 -0.000540173 -0.000781808 
-1.93636e-05 -0.000230826 0.000175614 
-0.00547828 0.00101538 0.00452217 
0.00108212 -3.85091e-05 -0.00199274 
0.00129786 3.78191e-06 0.00186636 
-0.00528616 -0.00105207 0.00463341 
0.0359914 0.0185693 0.0156058 
-0.00363828 -0.00877503 0 
0.0102353 0.00173484 0 
-0.00383126 -0.00715191 0 
0.0146782 0.000886814 0.026767 
0.0318271 0.000101693 0.00806829 
0.00661563 0.00510664 -0.0106971 
0.0151332 -0.0029732 0.0410732 
-0.0303575 0.0146013 0.0416139 
0.00148853 -0.000563524 -0.00589007 
0.00936979 0.00447081 -0.00285955 
-0.00381868 0.00360878 -0.00106734 
-0.0231694 0.015338 0.0473965 
0.00567213 -0.00155794 0 
-0.00516693 -0.0121344 0 
-0.00332105 0.028629 0 
2.51232e-05 -9.8756e-05 0.00736555 
0.000636849 -0.000640623 0.0145466 
0.000666725 0.000227311 0.00981841 
1.8422e-05 -0.000203624 0.0106212 
3.36696e-05 -6.42463e-05 0.00762506 
0.000696901 9.20019e-05 0.00959271 
0.000554037 -0.000464576 0.0142988 
0.000394921 -0.000244806 0.00808457 
-0.00105207 -0.00203702 0.00331889 
-0.000916981 -0.00423156 0.0030207 
-0.00349682 0.00313313 -0.00130188 
-0.00134893 0.00226054 0.00026234 
-0.00172207 -0.00259294 0.00332623 
-0.00291112 0.00353303 -0.00139466 
-0.00240149 -0.00419099 0.00431353 
-0.00520282 -0.00419943 0.00906906 
0.00179641 0.00204212 0.0178444 
0.00522799 -0.00020641 0.0155419 
0.00468941 0.00155534 0.0232572 
0.00280235 3.32728e-05 0.0148665 
0.00129462 0.00230205 0.0245627 
0.00833971 -0.00200894 0.0143255 
-0.00137655 0.00378422 0.019083 
0.0109786 -0.000282513 0.0219576 
-0.00228333 0.00144038 0.0117847 
0.000352822 -0.000206268 -0.000425271 
0.000396959 -0.000294655 -0.00133873 
-0.00082527 0.00136697 0.0126786 
-0.00121246 7.63682e-06 0.01033 
2.06581e-05 0.000283262 -0.000388468 
3.05556e-05 0.000283873 0.000360286 
-1.14278e-05 -8.33958e-05 -0.000292324 
0.0247854 -0.00550886 0.0532347 
-0.00860638 -0.00363783 0 
-0.00443579 0.0049308 0 
0.0244757 -0.0091518 0 
0.0160271 -0.0234234 0.0399728 
0.00637602 0.0104352 -0.00367609 
0.00228746 0.00234459 -0.00317747 
-0.00133425 -0.00412779 -0.00170623 
0.00132902 0.000564072 0.014067 
-7.80494e-05 0.000963782 0.0073614 
-0.000350718 0.00183799 0.0124003 
-0.000469965 0.00109274 0.00952095 
-0.000213356 0.00177404 0.0123543 
-0.000262724 0.00132496 0.00754414 
0.000856844 0.00019642 0.0139675 
0.00125566 -0.000156579 0.015194 
-0.000190102 0.00142814 0.0125939 
0.00162817 0.00296875 0.016717 
0.000720626 0.000328536 0.0138401 
-0.000700186 0.00139307 0.00932483 
0.000676058 0.0002443 0.0137256 
0.00163897 0.00270196 0.0161019 
-0.00014347 0.00150678 0.0126925 
0.000777245 -0.000340428 0.0148592 
3.68796e-05 -3.68274e-05 8.83288e-05 
3.56887e-05 1.8071e-05 0.00593228 
-2.36974e-05 -1.90627e-05 -4.3248e-05 
2.51727e-05 -2.7854e-06 0.00593317 
2.15112e-05 -3.43153e-05 7.80611e-05 
1.46685e-05 -1.98731e-05 -3.22381e-05 
3.15167e-05 3.94583e-05 0.00587406 
-3.94554e-05 5.54219e-05 3.90371e-05 
0.00416789 0.00245128 0.00940287 
0.00141841 -0.000911692 0.0189993 
0.00395249 0.00137631 0.0141837 
0.00828788 0.000827649 0.0132984 
0.00402185 0.00299592 0.0106025 
0.00380965 0.00136604 0.0143897 
0.0031537 -0.000323053 0.0173233 
0.000742667 0.00285867 0.0137475 
-0.0114336 0.0127659 0.0199704 
-0.0073992 -0.00158181 -0.00343337 
-0.01733 -0.00271468 0.0209514 
0.00342844 0.000915065 -0.0103137 
-0.00336635 -0.00547899 -0.00122242 
0.000124793 0.000617 0.00523106 
-0.0501549 0.00841872 0.0478582 
-0.0193045 -0.00272084 0.0624615 
0.00332351 -0.00195359 0 
-0.0170783 -0.00674214 0.0131866 
0.000777509 0.00273475 0 
-0.000169195 0.00526621 0 
0.0089773 -0.00432572 -0.00671215 
-0.0149634 -0.00109085 0.0533888 
-0.0146735 0.00253122 -0.0238786 
-0.0372738 0.00452651 0.0903657 
0.00403155 0.000563135 0.0161434 
0.000471595 -0.00291508 0.0193969 
0.006873 0.000522489 0.0185562 
0.00427554 -0.00107361 0.023381 
0.00598624 -0.000146943 0.0178864 
0.00318973 -0.00163507 0.0188193 
0.00320471 0.000446392 0.0172481 
0.00301246 -0.000617913 0.0161246 
-0.000830293 0.00232074 0.0184599 
0.000427131 -0.0016114 0.0101402 
0.00114659 -0.000783439 0.0109785 
-0.000615299 0.000412142 0.0192591 
-0.000103875 0.000557595 0.0179204 
0.000847504 5.09955e-05 0.0112534 
-0.000162505 -0.000172335 0.0105819 
-0.000148649 0.00036198 0.0116788 
2.50343e-05 3.17405e-05 0.00590601 
-5.50021e-05 7.26299e-05 0.000139524 
-2.33892e-05 -2.82734e-05 -4.43097e-05 
-2.84798e-07 2.1787e-05 0.00675415 
-1.00666e-05 1.21881e-05 -4.61756e-05 
-4.70181e-05 4.30824e-05 0.000106336 
3.55575e-05 2.79792e-05 0.00588324 
4.95519e-05 -5.17395e-05 3.52888e-05 
0.000842895 -4.06369e-05 0.000326415 
-0.000243372 -0.000157965 -8.10697e-05 
0.000336425 0.000207713 0.000391698 
-0.000342396 -0.000214709 -0.000311752 
0.000860195 -0.000692118 0.00120503 
0.000270785 -0.000121508 0.000576689 
-0.000258794 0.000341695 -0.000762429 
0.00179688 -0.000110842 0.00205605 
0.000100579 6.1364e-05 0.000191491 
6.23822e-05 2.04282e-05 0.00651077 
-3.17894e-05 -1.18963e-05 -2.14834e-05 
-1.90877e-05 5.6639e-05 0.00689884 
0.000107542 4.07476e-05 0.000215172 
-3.38904e-05 -1.39439e-05 -2.62173e-05 
4.39438e-05 6.4237e-05 0.0064512 
-1.27401e-05 -3.51221e-06 -7.50832e-05 
0.000675966 -0.00120955 0.015588 
-1.9175e-05 -0.00159369 0.0164182 
-0.000163936 -0.000773984 0.0163291 
0.000615373 -0.000488338 0.0142792 
0.000234787 -0.00119544 0.0163189 
-5.01037e-05 -0.00039852 0.0155498 
0.000418056 -0.00170207 0.0158408 
0.000271143 -0.00290394 0.0180205 
-0.00510231 0.00543897 0 
-0.00630612 0.00405154 -0.00401916 
0.00429049 -0.00913636 0 
0.000232064 -0.00180812 0 
0.0121917 -0.0111896 -0.0126082 
-0.00147319 0.000880524 -0.0144801 
-0.0208575 0.00262774 0.0152292 
-0.0418894 0.0147072 0.0651071 
0.00388978 -0.000329365 0.014023 
0.00261658 -0.00274962 0.0202724 
0.00682623 -0.000124814 0.0177831 
0.00266414 0.000122862 0.0152243 
0.00987132 0.00119444 0.0160948 
-0.00131107 -0.00281933 0.0224778 
0.00496043 0.000140628 0.0134295 
0.00850556 -0.00553426 0.0222662 
0.000111433 -4.37502e-05 0.00534329 
-0.000113437 -4.1953e-06 5.7321e-05 
-9.73943e-05 6.34555e-05 0.0097195 
-0.000110286 -0.000104348 0.000162179 
8.62256e-05 2.36268e-05 0.0053869 
-0.000202341 -1.77151e-05 0.00955052 
7.65305e-06 -7.88461e-05 8.91807e-05 
4.7717e-06 2.91567e-05 0.00608032 
0.000186435 9.09638e-05 -1.93333e-05 
3.24478e-05 8.61148e-05 -0.00018461 
-2.63554e-05 -6.4251e-05 5.7153e-05 
3.70078e-05 9.03273e-05 -8.19958e-05 
-2.72106e-05 7.25867e-05 0 
-0.000119048 -4.67354e-05 0 
0.000182907 4.77633e-05 -6.63305e-05 
0.000193158 5.52448e-05 0 
-0.0100701 0.0122733 -0.0306212 
0.0471655 -0.0334909 0.0567813 
-0.0289137 0.0126358 0.0729997 
0.0341781 -0.0497205 0.0452661 
-0.00796025 -0.0183756 -0.00330964 
0.013925 -0.00584585 0.0459478 
0.0306697 0.00132365 0.0405198 
0.00297291 -0.00605997 0.00416618 
-0.000636441 -0.000345769 -0.000432688 
0.000277046 0.000207719 0 
0.000599125 -0.000489693 0 
-0.00185743 -0.000505218 0 
-0.000721881 -0.000268464 -0.000655911 
0.000103109 -0.000325724 -0.000155696 
0.000321741 0.000118551 0.00031184 
9.6561e-06 0.000112906 6.43165e-05 
0.000197508 -4.17808e-05 0.00743367 
-9.14474e-05 5.35757e-05 0.00013956 
-4.13696e-05 -1.54102e-05 0.000126934 
9.4861e-05 -7.42339e-05 0.00740688 
0.000111108 -1.43231e-06 0.00761549 
-1.20087e-05 5.12639e-06 0.000120401 
-1.04173e-05 1.21608e-06 -5.43815e-05 
2.42046e-05 -6.20507e-06 -3.9773e-05 
-0.00150738 -0.00432009 0.0136231 
-0.00242365 0.00294797 0.01433 
-0.00064374 0.000957401 0.0130578 
-0.00317625 -0.00418705 0.0165771 
-0.00264613 0.00347414 0.01319 
-0.000363638 0.000455723 0.014215 
-0.00434595 -0.0054056 0.017474 
-0.00388157 0.0036325 0.0144447 
-0.000674503 -4.57985e-05 0.0150985 
0.0001449 0.000560387 0.0131924 
-0.000122939 -0.00186971 0.0100798 
-0.00123975 0.000495749 0.0163627 
0.00491254 -0.00155631 0.0179247 
0.00118028 0.00216498 0.0134598 
0.00195947 -0.00515353 0.0198284 
-0.000371069 -0.00151189 0.0147211 
0.00646746 -0.000857302 0.0252522 
-0.0023188 -0.000146434 0.0207539 
0.00654713 -0.00164194 0.0165202 
0.00661572 -0.000801292 0.0192064 
-0.00208267 0.000238528 0.0110642 
-0.00133576 -2.92487e-05 0.00796234 
-0.000516594 -0.000516196 0.0136174 
0.000170376 -0.000239085 0.00737559 
-0.00311889 -0.00281914 0.00922438 
-0.00296067 -0.00221805 0.00542772 
-7.48701e-05 0.000250081 -0.00116745 
-0.000936668 0.000855139 0.00985442 
-0.000454792 -0.0006156 0.0201034 
0.000819008 -0.00159727 0.0171901 
-0.00131479 -0.000345841 0.0137086 
-0.000669049 -0.00199467 0.0189652 
-0.000674647 0.00465118 0.0155812 
-8.85189e-05 0.00652874 0.0173412 
-0.00236432 0.00551712 0.0042446 
-0.00274781 0.00236899 0.0129444 
0.000786312 0.00899719 0.0111558 
-0.00185137 0.00587113 0.0012454 
-0.000959484 0.00459517 0.0168381 
-0.000976306 0.00684572 0.0198305 
-0.00402582 0.00642191 0.00156168 
0.00117875 0.00674761 0.0193041 
-0.0027339 0.00428646 0.0109957 
-0.00326478 0.00175848 0.0121914 
0.00206304 -0.00467847 0.0152896 
-0.00753445 0.00146678 0.0100657 
0.000704739 -0.00269187 0.0201642 
-0.0109628 -0.00594486 0.0180394 
0.000158902 -5.96673e-05 -0.000891736 
-0.00176358 0.00111465 0.00442119 
-0.000603385 4.43555e-05 -6.59832e-05 
0.000969814 -0.000615857 0.001022 
-0.0062368 0.00454445 0.00952091 
-0.0158764 -0.00638017 0.0268874 
0.00571692 -0.00670687 0.0124223 
-0.000343159 0.000320401 0.0088223 
-0.00131545 -0.000146222 0.0147095 
0.00104833 -0.00232729 0.00977892 
-0.00150528 -0.00246749 0.0154866 
-0.00185511 0.0007385 0.0165245 
-0.00112838 -0.00674522 0.0129047 
-0.00652452 0.00624438 0.0116943 
0.0013277 0.00306749 0.0110977 
0.00406636 0.00619073 0.0148476 
0.000174794 -0.000265697 0.0179686 
8.91415e-05 3.60947e-06 0.0117557 
-0.000969624 -0.000613562 0.0144209 
0.000426778 -0.00142936 0.0169391 
0.000258471 -0.000585347 0.0102861 
-5.27009e-05 -0.00112044 0.00863605 
0.000272535 -0.000283358 0.011967 
0.000149532 -2.57084e-05 0.00740786 
-0.00137143 -6.17547e-05 0.0163493 
-0.000680699 0.00379798 0.0154503 
0.000502094 0.00142274 0.0173585 
-0.0009281 0.00223512 0.0154577 
-0.000981252 0.000866329 0.0148803 
0.000130566 0.0035486 0.0164356 
0.000428723 0.00157737 0.0166043 
-0.0017022 -3.97766e-05 0.0155643 
-0.00429773 0.000752611 0.00831443 
-0.00691172 0.0032957 0.00667348 
-0.000464593 -0.000925182 0.000964244 
0.00284009 0.00031061 -0.00267991 
-0.00119861 -0.00070481 0.0144546 
0.000221997 -4.7057e-05 0.0114765 
9.24734e-05 -0.000131104 0.0184002 
-0.000105319 0.000535839 0.00944502 
-0.00981843 0.00098195 -0.000998019 
-0.000768362 -0.00176638 -0.00241907 
-0.00433179 -0.000906922 0.0156689 
-0.00625823 0.00568313 0.011097 
0.000472158 0.00166765 0.0165072 
-0.000765084 0.00336829 0.0157811 
-0.00109784 0.000695655 0.0168264 
-0.00136841 -9.14729e-05 0.015996 
-0.00161311 -0.00380269 0.0223588 
-0.00830817 -0.00475304 0.0159719 
-0.00608172 0.00214083 0.00881314 
-0.00424818 0.00321661 0.0132697 
-0.00147786 -0.00244067 0.0158784 
-0.000607868 -0.000672137 0.0177753 
-0.0017977 0.000238469 0.0166813 
-0.000314818 -0.00017469 0.0168732 
-0.000437156 0.00802136 0.0114423 
-0.000787528 0.00501919 0.016034 
-0.00176653 0.00520475 0.00317999 
3.42414e-05 0.00348878 0.0105817 
0.000518445 0.000346671 -0.000171023 
0.000191755 9.95995e-05 -0.000535287 
-0.00306542 -0.00167085 0.00509607 
-0.00152855 0.000144057 0.00862944 
0.00414446 0.00144227 0.0149623 
0.00220092 0.000835424 0.0074119 
0.00176805 4.32583e-05 0.0120699 
-6.21615e-05 -0.00277427 0.0171054 
-0.00026317 -0.00166797 0.0208093 
0.00706472 -0.00218451 0.0171326 
0.00736907 -0.00197247 0.0266737 
-0.00274545 0.000696011 0.0194244 
0.00064681 -0.000903172 0.0146607 
-0.000107267 -0.000898281 0.0160945 
0.000683964 0.000948429 0.00728638 
-0.00107994 0.00040536 0.0151449 
-0.000273548 -0.00099515 0.00015206 
-0.00392166 0.00286766 0.00402737 
-0.0031243 0.00222612 0.00703401 
-0.000736193 -0.000559237 0.000174492 
-0.00256919 0.00519217 0.0049025 
-0.000621751 0.00401464 0.0104712 
-0.000287734 0.00488727 0.0153572 
-0.00224717 0.00263917 0.0127499 
-0.000872197 -0.000607006 0 
-3.40733e-05 6.72371e-06 0 
-8.3865e-05 -0.000329034 0 
0.00281777 0.00132153 0.000909544 
-0.00222573 -2.21614e-05 0.0178717 
-0.000314613 -0.000671187 0.0175791 
-0.00159199 -0.00196946 0.0143105 
-0.00230187 -0.000384013 0.0151372 
0.00412532 0.0135869 0.0251546 
-0.00578698 0.0140169 0.0228455 
-0.000559983 -0.0031647 0.00294907 
-0.000706411 0.00416777 -0.00443274 
-4.29919e-05 -0.000158468 0.000404893 
0.000326839 -0.000554617 0.0104895 
1.41486e-05 0.000146293 0.0108233 
4.81935e-05 0.000187766 0.00932399 
-0.00210073 -0.000676432 0.0176808 
-0.00340805 0.000192087 0.016025 
-0.000727129 0.000738569 0.0166282 
-0.00245292 0.000129756 0.0150008 
-0.000302318 3.72214e-05 0.000295005 
0.000332543 -0.000126701 0.00898509 
0.00144526 -0.000246301 0.00718359 
0.000460851 -3.17251e-05 0.00692445 
-0.00222809 0.000194865 0.0224624 
0.000581679 -0.00101523 0.0112698 
-0.00267296 0.00113683 0.0123936 
-0.00126086 -0.00191832 0.0196698 
-0.0128667 0.0619026 0.0890349 
-0.00809216 0.0210003 0.00143152 
0.00182997 -0.028938 0.0332613 
0.00618876 -0.0313685 0.0611378 
-5.33168e-05 -6.39985e-05 0.00563868 
0.00022203 -9.4006e-05 0.011627 
3.92256e-05 3.8968e-05 0.000311596 
0.000265275 -0.000138439 0.00903333 
0.000952532 -0.00116073 0.0190757 
0.00520372 0.00154873 0.0215664 
0.0013536 0.00249614 0.0184571 
-5.80744e-05 -0.0047489 0.00805526 
-0.000845732 -0.000418614 0.0142726 
-0.00155168 0.000561738 0.0101299 
-0.000100026 3.98968e-05 0.000327763 
0.000162785 -0.000378704 0.00902919 
0.000233267 0.00134956 0.0179214 
-0.000123453 0.000459923 0.0153497 
0.000133609 9.23468e-05 0.0155124 
0.000124311 0.00158906 0.0166584 
3.6458e-05 -0.000126453 0.000283085 
5.17272e-05 -2.27426e-05 0.00575279 
-5.47694e-05 -1.51866e-05 0.00660941 
3.85507e-05 -6.53427e-05 0.0115006 
0.0011442 0.0017479 -0.00324242 
-0.00576006 -0.00607218 0.0082923 
0.00145183 0.00314312 -0.00144498 
-0.00332025 -0.00268913 0.00504394 
-0.000157259 1.61051e-05 0.000821111 
-0.00140919 0.000178522 0.00997412 
-0.00080025 -0.000432675 0.0139605 
-0.000183936 -0.000199695 0.00793348 
-0.0185228 0.0271918 0.145451 
0.00149368 0.0118847 -0.0280283 
-0.0136335 0.0403483 0.100093 
0.0129133 -0.0498777 0.0841685 
0.000220483 0.000839594 0.0143962 
-0.000336149 0.00147318 0.0170831 
-8.35638e-05 0.00354242 0.0165373 
0.00114754 0.00199227 0.0171674 
9.50285e-05 -5.36954e-05 0.000523754 
0.000603133 -0.000328795 0.0104183 
-0.000254734 -0.00142152 0.00851296 
-3.71578e-05 -0.00120441 0.0106555 
-0.000914541 0.000264536 0.016899 
-0.000482094 -0.000702412 0.0175504 
-0.00230699 -0.000409508 0.0171952 
-0.00200626 -5.99442e-05 0.0156666 
-0.00239971 0.00196555 0.00826177 
0.000140096 0.00391721 0.0103116 
-0.000891421 0.00500491 0.00377501 
-0.00453582 0.00293517 0.0131356 
0.000157822 -4.37091e-05 0 
-9.39075e-05 -8.03651e-05 0 
-0.000515248 -0.000185609 0 
0.00244243 0.00088076 0.000886162 
-0.000743578 0.000177689 0.0187221 
-0.00402905 -0.000903921 0.0173766 
-0.00406282 0.00064609 0.0161697 
-0.00316843 -0.000729936 0.014146 
6.18807e-05 2.87127e-05 0.0100268 
-2.98638e-05 1.77824e-05 0.0136353 
3.12046e-05 -6.31255e-06 0.0115439 
-0.000326414 0.000125268 0.0149915 
0.00563775 0.0514451 0.0541608 
-0.0206931 -0.0118433 0.0836244 
0.00408935 0.0479225 0.0501827 
-0.00648109 -0.0129195 -0.0297616 
-0.00562595 -0.00565686 0.0374157 
0.00376517 -0.00575999 0.0643951 
-0.00863165 0.0113083 0.00052965 
0.00519725 0.00885694 0.0287495 
-9.86007e-06 -2.42288e-05 0.00995357 
-0.00020903 0.000290934 0.015171 
-2.27504e-05 4.20271e-06 0.0115268 
-0.000192644 -3.43385e-05 0.00720356 
-0.00178548 -0.000283789 0.0123925 
-0.00406221 0.00433504 0.0222655 
-0.00389523 -0.0026933 0.0119426 
-0.00736159 -0.000934974 0.0142259 
-2.24523e-05 -4.42202e-06 0.000102449 
-7.92384e-05 -0.00102893 0.00866774 
0.000248165 -0.000540226 0.01028 
0.000164843 -0.000116023 0.00746145 
-0.000242057 0.0014243 0.0168883 
0.000222932 0.000981026 0.0146104 
-0.000368766 -4.24458e-05 0.0134089 
0.00115107 0.0014635 0.0163503 
3.84613e-05 -7.87727e-05 0.0114148 
-0.000471852 -1.9509e-05 0.0152536 
-0.000329573 0.00025526 0.0111677 
-5.36736e-06 0.00028291 0.00720206 
1.98128e-05 -0.00014889 0.00497174 
-2.13253e-05 -2.88959e-05 0.0093294 
-0.000130663 0.00024947 0.0107665 
-7.93232e-05 0.000160455 0.00856688 
2.64719e-05 -4.15739e-05 0.0116216 
-0.000223954 -0.000130969 0.0167329 
3.14851e-05 -0.000199249 0.00981799 
-0.000418011 0.000150643 0.0149006 
-0.00177836 0.00028755 0.0241462 
-0.00332421 0.0141984 0.0435699 
-0.00493425 -0.00709366 0.00987522 
-0.011142 0.00346404 0.0106662 
0.000253146 -0.000657636 0.0155029 
0.00188189 0.000261789 0.0111924 
0.00154516 -0.000400508 0.00822564 
0.000195774 4.74887e-05 0.00763138 
-0.000633251 -0.000101271 0.000226141 
0.000484349 -0.000878696 0.0116672 
-0.00110588 0.000161511 0.0126066 
0.00325949 0.000104477 0.011527 
-0.000161828 0.00149375 0.017656 
0.00138329 0.000591285 0.0152287 
0.000947079 -0.000859832 0.0167692 
4.40118e-05 7.43961e-05 0.0161228 
-0.0112197 -0.000227198 0.0159172 
-0.0121172 -0.00476822 0.0205311 
-0.00112323 -0.00384406 0.0226255 
-0.00165417 0.00323329 0.0100398 
-0.00137734 -0.002465 0.0159715 
-0.000441438 -0.000204673 0.016686 
-0.00199944 0.000481084 0.0167182 
-0.000485712 -0.00138853 0.0158691 
-1.90295e-07 6.9312e-05 0.00678085 
-1.72141e-05 2.68933e-05 0.00587964 
6.76795e-06 -1.74859e-05 0.010181 
5.88402e-05 -0.000338314 0.0108959 
0.00069548 0.000458885 0.016843 
0.00023877 0.000808492 0.0177878 
1.01655e-06 -0.000134035 0.0176293 
0.00035903 0.00058482 0.0155542 
0.00290032 -0.00133644 0 
0.000283379 -0.00173718 0 
-0.000384738 -5.38099e-05 0 
-0.00600562 0.00405459 0.00168973 
-0.000279821 0.000542823 0.0136971 
-0.00172039 -0.00054016 0.00936715 
-0.00143242 0.00168419 0.0198275 
-0.000284093 0.000501063 0.015719 
0.0282794 0.00321349 0.0376963 
0.00799363 0.000920242 0.00910229 
-5.83959e-05 -0.0053808 0.00268737 
0.00352677 0.00793942 -0.00151771 
-0.000859199 0.000888063 0.0147578 
0.000432756 0.00155048 0.0165564 
0.000352349 -0.000187587 0.0140394 
-0.0012899 0.00040706 0.0157422 
4.61324e-05 -1.70713e-05 0.00589978 
8.41086e-05 0.000254193 0.00912443 
7.4377e-05 6.8281e-05 0.000414 
-4.8711e-05 9.37694e-05 0.00979862 
-0.00353186 0.000447937 0.0204702 
-0.000979805 -3.7361e-05 0.00886895 
-0.00403962 -0.00112925 0.012357 
0.00104171 -0.000718251 0.00999336 
0.000279798 0.000555096 0.0103952 
0.00184847 0.00163797 0.0171565 
0.00620562 -0.00270808 0.0181624 
-0.000557369 -0.000366987 0.0104433 
-0.00101332 0.00506368 0.00525681 
-0.000675221 0.00437164 0.00941178 
-0.00329883 6.50862e-05 0.00646147 
-0.00045656 0.00153801 0.0145152 
-0.00177734 -0.00154799 0.0149568 
-0.000604734 0.000847155 0.0193703 
-0.00133915 0.000586688 0.0119627 
0.000531369 0.00129686 0.00886205 
-0.000377986 0.000166011 0.000728381 
0.000471857 -0.0014876 0.00818869 
0.000328485 -0.000182787 -0.000632551 
-0.000338134 -0.00141288 0.0107984 
-0.000168576 -7.60102e-05 0.000447439 
0.000307979 0.000375919 0.00975897 
6.09466e-05 0.000114825 0.00911077 
3.62426e-05 0.000442325 0.00728312 
-0.00106684 -0.000115946 0.0140491 
-4.21026e-05 -0.00014967 0.00881524 
0.000206852 -0.000306096 0.000647818 
-0.000485256 -3.22463e-05 0.00812384 
-0.000584573 -0.00196475 0.0199312 
-0.00261731 0.00359392 0.0222029 
-0.0032702 -0.00357133 0.0142512 
-0.000239966 0.000139906 0.00711337 
0.00028464 0.000936512 0.0101477 
0.00345692 -0.00521587 0.0121949 
0.00676431 -0.00453797 0.0232661 
0.00499657 -0.00374059 0.00201493 
0.0012663 0.000861345 0 
9.14413e-05 0.000447054 0 
-0.000471724 -0.000721552 0 
-0.00367382 0.000919471 0.00121434 
1.31095e-05 0.00189731 0 
-0.00131097 -0.000978574 0 
-0.00318332 -0.00089401 0 
0.00413257 0.00745643 0.00327288 
-6.65422e-05 2.17042e-05 0.0159585 
-0.00294269 0.00351078 0.0129414 
-0.00149995 -0.00348873 0.00996748 
0.00224205 0.00476157 0.0168772 
-7.24554e-05 -0.000129386 0.000674058 
-0.00107066 4.71836e-05 0.0079122 
-0.0014121 0.000350883 0.0099493 
-0.000365464 -0.000323986 0.00832604 
-0.00591485 0.00617709 0.00229776 
0.00145351 0.00897973 0.0251333 
0.000912212 0.00418313 0.00971186 
-0.000202133 0.00196487 0.0128148 
-0.000302377 -0.000535898 0.000264996 
-0.0031041 0.00215122 0.00703444 
9.693e-05 -0.000433762 -8.47498e-05 
-0.000633213 0.000450889 0.000625214 
5.84465e-05 -0.000213356 0.011308 
2.74626e-05 2.40447e-05 0.0097048 
-0.00036564 0.000418448 0.0113214 
-0.000421439 -7.82677e-05 0.0151214 
0.00132935 -0.00344203 0.0196318 
0.00184756 0.000194196 0.0136343 
0.000363176 -0.000602481 0.0140439 
9.63239e-05 -0.00163812 0.0151109 
0.000819638 -0.0011066 0.0156505 
-0.000425568 0.000210232 0.0139243 
0.0011698 6.09095e-06 0.0160761 
-8.03844e-05 -0.00133748 0.0159547 
0.00430382 0.000431958 0.000329551 
0.00848127 0.0019171 0.00749747 
-0.00627797 0.00591056 0.00242018 
-0.00668306 0.018203 0.0272209 
-0.000301663 0.00097743 -0.00137288 
-0.00288877 -0.00422387 0.00959079 
-0.000388789 0.00104436 -0.00386232 
-0.00245591 -0.00203934 0.00545901 
-0.00192877 -0.000640989 -0.00334476 
0.00516014 -1.51115e-05 0.00496172 
0.0056166 0.00189946 0.00386072 
6.43238e-05 -0.00131283 0.00029955 
-1.83999e-05 0.00079958 0.0180095 
-0.000146124 0.000550569 0.0168225 
3.13433e-06 2.93656e-05 0.0161187 
1.13023e-05 0.000635173 0.0153089 
1.12137e-05 -3.3095e-05 0.00528821 
-8.46088e-06 7.14534e-05 0.00955432 
-4.08758e-05 -7.47162e-05 0.000224402 
-0.000281233 -0.00014774 0.00824898 
-1.32384e-05 1.84749e-06 0.00539039 
-2.79942e-05 4.19709e-05 0.0105161 
0.00014505 0.000119723 0.00939471 
0.000223211 0.000102007 0.00696006 
0.000579604 -0.000447118 0.0146918 
0.000287417 0.000389526 0.00738854 
0.000185795 1.26836e-05 0.00951591 
-0.000604257 0.00016741 0.0149996 
-0.00160854 0.00545926 0.0110495 
-0.0018148 0.00340638 0.000608485 
0.00138792 -0.000187332 -0.00349092 
-0.00397028 0.0185484 0.01608 
-0.000680647 -0.0013581 0.0101483 
6.11847e-05 0.000512254 0.0132961 
-0.000809895 -0.000645004 0.0148479 
-0.000744344 -1.468e-05 0.0163437 
-0.00231516 -0.000695996 0.00916771 
-0.000133183 -0.00063756 0.00999051 
-0.00209325 0.00060331 0.0203714 
0.000697781 0.000937237 0.0158973 
0.000306053 -0.00469816 0.0196012 
0.0012657 -0.000704629 0.0143552 
0.0048007 0.000771257 0.0177162 
0.000218527 -0.00114889 0.0196 
6.74713e-05 -0.000221643 0.0155401 
1.93694e-05 -0.00156452 0.00888814 
-0.000379388 0.000373736 0.0140513 
0.000468205 -0.000328311 0.00772117 
-0.0242846 -0.0690495 0.175713 
-0.0130455 -0.0222149 0.214259 
-0.0375768 -0.00183415 0.0188422 
0.0770531 0.0076541 -0.0599588 
-0.00035852 -0.0003683 0 
9.34154e-05 8.93665e-05 0 
-0.000149802 -0.00023006 0 
0.00260036 0.00179718 0.000710872 
-0.00232235 0.000338117 0.0143606 
0.00206391 -0.00207845 0.00975844 
0.000313632 -0.00359022 0.0122832 
-0.00240926 -0.00382696 0.0160794 
2.17823e-05 7.02096e-05 0.00032125 
-0.000124215 -4.15725e-05 0.0119356 
7.21106e-05 -4.11407e-05 0.00627036 
-0.000156172 -0.000150772 0.00869563 
-0.0108412 -0.00159527 0.0172366 
-0.00195826 -0.00164675 0.0204952 
-0.0038771 0.000129839 0.0162437 
-0.00348017 0.000999574 0.0120734 
-0.00425186 0.00829262 -0.000296323 
-0.000212137 0.0140477 0.0174484 
-0.00219993 0.00431484 0.0108506 
0.00176713 0.00458779 0.0213781 
1.37229e-05 7.63058e-05 0.000248146 
7.57691e-05 -0.000260113 0.0105111 
-4.40468e-05 -7.67436e-06 0.000435278 
0.000143623 -3.06359e-05 0.00929423 
-0.00114995 0.000519193 0.016968 
-0.00328185 0.000221552 0.0158765 
-0.00164861 -0.000574586 0.0171441 
-0.000409227 -8.52937e-05 0.0175068 
0.00158271 -0.000509266 0.016389 
0.0032507 7.35103e-05 0.018106 
0.000890212 -0.00136397 0.0146265 
0.00134866 -0.00116778 0.0195061 
0.000883091 -0.00036775 0.0167431 
0.00161102 0.000327715 0.0155052 
-0.000190673 0.00125702 0.0175877 
0.00050783 2.63758e-05 0.0182985 
-6.45773e-05 0.00364343 0.0152709 
0.000318242 0.00411163 0.0154529 
-0.000766184 0.00140364 0.0180906 
0.000749529 0.0052954 0.0188293 
-0.00120038 0.00066877 0.0119635 
-5.81817e-05 -0.000303141 0.00767025 
-0.000903499 -0.000636785 0.0142598 
-0.0003099 0.000356918 0.00964472 
0.000147581 -9.20448e-05 5.39416e-05 
0.00010798 -5.31133e-05 0.00949154 
0.000576002 -0.000347582 0.00881309 
8.43693e-05 0.000244239 0.00717237 
0.000603721 -0.000318111 -0.000731713 
-0.00373451 0.000582706 0.00777016 
-0.00492003 0.00343329 0.00489478 
-0.00186164 -0.000753203 0.00817901 
0.000677816 0.000961168 0.0113747 
0.00204533 -0.000128629 0.00733089 
-0.000138449 -0.000923094 0.0166963 
0.000277274 0.000405526 0.0067133 
-0.000307639 0.000321148 0.0112393 
0.000126517 -4.90653e-05 0.0093646 
-5.91797e-05 -5.16946e-05 0.0115512 
7.25071e-06 0.000126895 0.00696775 
1.28256e-05 -0.000437155 -0.000430752 
0.0028555 0.00568951 0.00692659 
0.00216805 -7.50206e-05 0.0127795 
-0.000901179 0.000527319 0.0104357 
-0.000294678 0.00417421 0.0148498 
-6.23613e-05 0.00232054 0.0148547 
-0.00461187 -0.000836485 0.0152663 
-0.00324103 0.00240917 0.0132603 
0.00164073 -0.00620599 0.00715172 
0.00187092 0.00286777 0.0125251 
0.00455214 0.00529308 0.0195765 
0.000683042 0.00587451 0.0190103 
-0.00409905 0.00537002 0.000632628 
0.000427089 -0.00882786 0.0623121 
-0.00953328 0.0535572 0.0801049 
0.0106864 -0.0111551 0.0254161 
0.00112287 -0.00498768 0.0137955 
-0.00719766 -0.0010076 0.0255069 
-0.00471669 1.03766e-05 0.00850826 
-0.00284401 -0.000318443 0.0160489 
-0.000464387 -0.000372453 0.0134207 
-0.00024669 -8.40861e-05 0.00909404 
3.4417e-05 -6.07488e-05 0.0104887 
-5.05923e-05 -0.000427146 0.0163914 
1.50705e-05 0.0103524 0.00839149 
-0.00265856 0.0135481 0.0230427 
-0.000728382 0.0116282 0.0257585 
0.000400898 0.00600293 -0.0050407 
0.00783632 -0.000842494 0.0263849 
0.00517105 -0.000157353 0.0148135 
0.00113301 -0.00372308 0.0228152 
0.00240081 -0.00288584 0.0165348 
-0.00490257 -0.00152496 0.0176911 
-0.00583495 -0.00122042 0.0131849 
-0.00395815 0.000729873 0.0161316 
-0.00197349 0.000234676 0.0137099 
-0.000489104 -0.000427572 0.0119084 
0.00046302 0.001151 0.0148074 
-0.000108531 0.00061575 0.0081394 
0.000598543 0.00141017 0.0082542 
-0.000116527 -4.91275e-05 0.000124392 
-8.32555e-05 -0.000209678 0.00864178 
-0.0013016 0.000490299 0.0107011 
-0.000437025 0.00027256 0.00936322 
0.00222612 -0.000792747 0.0119911 
0.00207459 0.000344231 0.00753559 
0.000328476 -0.000663689 0.0147959 
-0.00018147 -0.00106482 0.0169152 
0.000332404 0.000115207 -0.000178479 
-0.00145982 0.000174768 0.0087094 
-0.0025814 -0.00105548 0.00509692 
-0.0011424 -0.000249376 0.00563132 
-0.000459582 0.000132633 0.0162312 
0.0011941 -0.00372829 0.0104495 
-0.000476362 -0.00177532 0.00872815 
0.0017733 -9.05322e-05 0.00769333 
0.000130231 -0.000597037 0.015152 
0.000289556 -0.000156616 0.0165028 
0.00198506 -0.00032166 0.00741345 
0.000280148 0.000181453 0.00686098 
-0.000215125 -8.51551e-05 -2.30728e-05 
0.000162585 2.93736e-05 -0.000174709 
0.00141854 0.000124028 0.00783815 
0.000423457 -0.000200446 0.00874358 
0.000269235 4.77254e-06 0 
5.1831e-05 -0.000102072 0 
-0.000149439 -2.35801e-05 0 
0.000653511 -0.000616411 0.000286005 
-1.16817e-05 4.4208e-05 0.0107091 
-2.22059e-05 1.48076e-05 0.0053104 
-3.69916e-05 -2.22004e-06 0.00696657 
0.000211553 8.59956e-05 0.00679562 
-0.000394397 -0.000328135 0.0133239 
0.000139422 -0.00359642 0.00866344 
0.00523626 0.00289083 0.0184355 
0.000605237 0.00493433 0.0186879 
0.000218119 -0.000330098 0.0153511 
-0.000392176 0.000421752 0.0137977 
0.00150828 0.000511947 0.0109226 
0.000463473 -0.000352136 0.00791632 
-4.47411e-05 1.40309e-05 0.00941358 
2.15388e-05 -6.16112e-06 0.00678863 
-1.80342e-05 -5.01297e-05 0.0051196 
-1.95632e-05 0.000182488 0.010422 
0.000570265 -0.000757669 0.0164659 
-0.000127137 -0.000201493 0.0129523 
-0.000356602 0.000234627 0.0100083 
0.000896158 4.73002e-05 0.0167542 
-0.000183124 0.000669492 -8.77399e-06 
-0.000206861 -4.66736e-05 -0.00048851 
0.00229487 -0.000119273 0.00129729 
0.0012232 -0.000586286 0.00111869 
0.00429584 -0.000108382 0.00975088 
0.000734063 0.000204041 0.0121325 
0.00104659 -0.00293781 0.0136344 
0.00240187 0.00108551 0.0155016 
-0.000174262 0.000561283 0.0140464 
-3.03408e-05 0.000557228 0.0154693 
-4.21223e-05 -2.91375e-05 0.0130199 
-3.93908e-05 0.000456689 0.0151168 
0.00083914 0.000612736 0.0112384 
0.00248332 0.00170385 0.00702264 
0.0043471 0.00113335 0.0153915 
-0.000854439 -0.00389933 0.0172007 
-0.000427721 -0.0006982 0.0122887 
0.00239046 0.00080152 0.0140201 
0.000299748 0.000521222 0.015694 
0.000934334 0.00277015 0.00633957 
-0.000407865 0.000275426 0.010012 
-5.52655e-05 -0.000220839 0.0130648 
0.000518296 -0.000753593 0.0163537 
-0.000186715 -0.00105783 0.0164624 
0.00138675 -0.000502733 0.0114703 
-0.000780077 4.99785e-05 0.0123871 
0.000496275 0.000926357 0.015272 
0.00159033 0.00145279 0.0172136 
0.000200274 -0.000260432 0.00927991 
0.000380593 -0.000145383 0.00679008 
-0.000344378 0.000553816 0.0114037 
-0.000596059 0.00111542 0.0156959 
-0.00415323 -0.00054295 0.0175613 
-0.00353765 0.000659602 0.0186928 
-0.00117666 -0.000468188 0.0162351 
-0.00113674 -0.000347807 0.0163144 
-0.000646586 0.0019576 0.00654853 
-0.0118205 0.00093832 0.0121162 
-0.00354092 0.00260801 0.00834913 
-0.00847175 0.00246624 0.00544563 
-0.000691609 -0.000732952 0.0176429 
-0.000378296 -0.00022271 0.0167838 
-0.00131507 -0.00232826 0.0161691 
-3.05251e-05 -0.00213043 0.0166448 
-0.0172507 0.014746 0.0245447 
-0.0038255 -0.0151006 0.00548553 
-0.0153778 -0.00547367 0.0328385 
-0.00277562 0.0126531 0.00767557 
-0.000328637 -0.000454821 -0.00181104 
0.00286323 0.00126429 0.00283303 
0.00112955 0.00150904 0.00259504 
0.000730657 -0.000797263 0.00159562 
0.000961908 0.00401586 0.0127517 
-0.00617183 -0.00662221 0.0121514 
0.00455365 -0.00653478 0.0192047 
0.00614888 -0.00765622 0.0146216 
0.0060755 -0.00390897 0.0255697 
0.000251376 -0.000588122 0.0188735 
0.00317815 -0.00584313 0.0116336 
-0.00075746 0.000333244 0.00428727 
-9.20404e-06 0.000128195 -3.81862e-05 
-3.48116e-06 3.45098e-05 9.22879e-05 
-3.79092e-06 1.40981e-05 0.000279825 
-8.49711e-06 -0.000183929 0.00939578 
0.00651689 -0.00344685 0.0204114 
0.003622 -0.00505681 0.0124459 
-7.68998e-06 0.00042264 0.0101361 
-0.00106197 5.14244e-05 0.00853605 
-0.00479426 0.00757061 0.0101068 
-0.0013539 -0.00124784 0.0115893 
0.00151971 -0.002767 -0.000999645 
-0.00547607 0.00585415 0.00662791 
-3.66903e-05 -4.6323e-05 0.000117837 
-3.57289e-05 1.93335e-05 0.00948158 
-0.000171692 0.000127354 0.00982227 
-0.000170261 -0.000143617 0.00831258 
-0.00230471 -0.00190924 0.0138121 
-0.00339226 -0.000231735 0.0166646 
-0.00114822 -5.39928e-05 0.0186172 
-0.00298375 -0.000810689 0.0147256 
0.000195307 -0.000269721 0.0118898 
-2.70622e-05 -0.00128023 0.00839373 
6.31762e-05 -0.000355541 0.010428 
0.000594203 -0.00133443 0.0148098 
-0.00228697 -0.000417618 0.0218105 
-0.0048576 0.000681015 0.0177652 
-0.00528862 -0.00118122 0.0169314 
-4.37648e-06 -4.37058e-05 0.0170277 
-0.00115401 0.000508319 0.0171067 
-0.0028369 0.000371472 0.0153505 
-0.00102325 0.00307915 0.0144504 
-0.00108867 0.00186631 0.0149547 
0.00079344 7.24062e-05 -0.000447678 
-0.00392731 0.00121021 0.00747022 
0.000655938 -0.000105843 -0.000229041 
-0.00216733 -0.000249077 0.0071623 
5.31765e-05 2.35454e-05 0.00464849 
-0.000191559 3.85747e-05 0.0111589 
-1.31387e-05 -2.56603e-05 0.000285312 
-0.000109606 7.12948e-05 0.00873215 
0.000190612 0.000909494 0.0182446 
-0.000267282 0.00179204 0.0149443 
0.0014637 0.000847741 0.0151035 
-0.000327057 -0.000123452 0.0160444 
0.000570352 0.00273933 0.0148152 
0.00157463 0.000781767 0.0151556 
0.000204039 0.00075024 0.0185344 
-0.000262799 0.00177173 0.0149794 
-0.000850438 -0.000582051 0.0149031 
-0.00144201 -0.00214924 0.0150002 
0.000441674 -0.00180918 0.00976182 
-0.00156202 0.000375884 0.01668 
-4.13777e-05 0.000119651 0.0097607 
-0.000336373 -0.000439481 0.016761 
-0.000513068 0.00048071 0.0114696 
-0.000269546 -8.06036e-05 0.0149564 
-1.30867e-05 7.74566e-05 0.00656844 
3.56528e-05 -0.000305545 0.0112597 
4.50339e-06 -1.52799e-05 0.0101756 
-0.000109214 -0.000148987 0.0087204 
0.0164168 -0.00527042 0.0230496 
-0.00175456 0.00146133 -0.00379554 
0.0034178 -0.000459542 0.00434333 
0.000573297 0.00384547 0.00324241 
0.00290375 -0.00400795 0 
0.0043885 -0.00482583 0 
-0.00153281 0.00231137 0 
-0.0114383 0.0216914 0.011776 
-0.000827065 0.000572728 0.0167235 
-0.000100114 0.00208774 0.0166727 
7.38869e-05 0.000800115 0.0175629 
-0.000485968 0.00151118 0.0160082 
0.0730495 0.0195507 0.0664215 
-0.0358831 -0.0203537 0.0586174 
-0.00558265 -0.00998487 0.0473592 
0.0189026 0.0216852 -0.00273436 
0.0047291 -0.000296716 0.0162142 
0.00119867 -0.00137607 0.0209124 
0.00113509 -0.000343129 0.0166948 
0.00469105 -0.000447958 0.0192205 
-0.000337095 -0.00224983 0.017622 
0.00089945 -0.000287938 0.0086954 
-0.00111413 -9.14495e-05 0.00949886 
0.000180374 -0.00497134 0.0100163 
-5.12549e-05 -5.43939e-05 0.017186 
-2.56192e-06 -2.841e-05 0.0161933 
4.21504e-05 0.000796967 0.0180004 
-0.000207178 0.000540963 0.0168472 
3.2147e-05 -4.31721e-05 0.0135869 
0.000234469 -0.00059333 0.0143673 
0.000118911 3.50922e-05 0.00979109 
-0.000260932 -0.000432625 0.0168771 
0.000125927 -0.000332782 0.0119716 
0.000106365 -3.73753e-05 0.00771988 
3.97605e-05 -0.00109566 0.00794485 
-5.0987e-05 -0.000229162 0.00624559 
0.000591187 -0.000483031 0.0167516 
-2.41759e-05 0.000120605 0.0182084 
0.000209629 0.00123187 0.0176229 
-0.000201361 -1.22295e-05 0.0162463 
-0.0121023 0.0191633 0.0343986 
0.00184487 0.00752219 0.0169267 
0.00298604 0.00160109 0.00822675 
-0.0132871 0.00241995 -0.000788073 
0.00522976 0.00135711 -0.002776 
-0.00209122 0.00280237 -0.00139405 
-0.000478086 -0.00113741 -0.00222418 
-0.0107725 0.0210958 0.0311474 
-0.0003217 0.000563518 0.0114166 
-0.000684485 -0.000577491 0.0168595 
0.00047005 0.000155453 0.00958805 
-0.000856495 0.000287257 0.0151791 
-0.000132732 0.00619878 0.00449942 
0.000434841 0.00165765 0.00687026 
0.00118038 0.000347715 0.00037866 
-0.00101672 -0.000992784 -0.00137702 
-0.00180734 -0.00922669 0 
-0.00297761 0.0352868 0 
-0.00311786 -0.00206937 0 
-0.00771846 0.0106152 0.0705279 
-0.000640197 -0.00066492 -0.00332509 
0.00211386 -0.00341911 0.00383687 
0.00332899 2.59722e-06 0.00482825 
0.000646824 -0.00122568 0.000942702 
0.00194677 -0.00562608 -0.00321317 
-0.00401022 0.00875594 0.00861835 
-8.79867e-05 -0.00207926 -0.00418488 
-0.00318533 0.00512863 0.00593802 
0.0161682 0.00385261 0.0139118 
-0.00715927 -0.0274308 0.0447892 
0.0282928 0.0394333 0.118379 
-0.000688261 -0.0264776 0.00910805 
-4.76749e-05 2.3861e-05 0.00546037 
1.36751e-05 -3.03195e-05 0.0108699 
8.98475e-05 9.96259e-05 0.00943053 
-0.000289078 -0.000240213 0.00813909 
0.00468786 0.000177632 0.0109761 
0.00130251 -0.00230915 0.0137635 
0.00324218 -0.000350498 0.0165385 
0.0021013 0.00050257 0.0151141 
0.000259949 0.00104393 0.0121996 
0.00126175 0.00144074 0.00738618 
-0.00103263 -0.00190842 0.0159893 
-0.000915969 0.000709615 0.0151326 
-0.00152511 0.000111902 0.0166248 
-0.000427511 0.000253823 0.0163069 
-0.00324781 -0.000334274 0.0178917 
-0.00157321 -0.000506212 0.0161099 
0.00240605 -0.000541842 -0.002428 
-0.00073025 -0.00112394 0.000808199 
-0.0072704 0.00164671 0.00450123 
0.00111354 0.0014295 -0.0002691 
0.000118187 -0.000242992 0.0123321 
0.000755661 -4.82687e-05 0.0152573 
0.00118502 0.000637393 0.0175578 
0.00078501 -0.000958015 0.0140877 
0.0102137 -0.00282167 0.0292423 
0.0156497 -0.00265617 0.0264288 
0.00153158 0.0011664 0.0105921 
0.00214596 -0.0023422 0.0161988 
0.000593662 -0.000883127 0.016093 
0.00129964 -0.00036551 0.00749731 
-0.0001625 -0.00155806 0.00887041 
0.000138935 3.52608e-05 0.00741451 
0.000767448 0.000515174 0.0163759 
0.00311882 0.000412429 0.0162029 
0.00210639 -0.00100048 0.0177738 
0.00227994 0.00101211 0.0154046 
-0.00832721 -0.000517977 0.0323677 
0.00604487 -0.000256572 -0.0074492 
0.00355561 -0.0277234 0.0315335 
0.0086804 -0.0082898 0.0422276 
-0.00593003 -0.011958 0.00597588 
0.00131499 -0.01303 0.0290917 
-0.0111524 0.00270675 -0.006429 
0.00808629 -0.0051467 0.0105175 
-0.00430626 -0.00148165 0.0125045 
-0.00327671 0.00124949 0.0208133 
-0.00333372 0.000526636 0.0126641 
-0.000493963 0.000162115 0.0081386 
-0.0038586 -0.000222869 0.0153991 
-0.000263701 -6.78273e-05 0.0177443 
-0.000775772 0.00373961 0.0146052 
-0.00355358 0.00226353 0.013613 
-9.81062e-05 -0.000510266 -0.000608434 
-0.000876404 0.000893103 0.000947034 
-0.00272361 0.00190912 0.00734646 
-0.000722285 0.000453188 0.00457834 
0.000539666 0.00855108 -0.0195573 
-0.00805305 0.0107119 0.0729829 
-0.00585864 0.0267681 0.0153098 
-0.00292021 -0.00212224 0.0190406 
0.0004395 0.00044027 0.00981009 
-0.000744948 -0.000835105 0.0167584 
0.000571608 -0.000638357 0.01459 
-0.000747847 3.50624e-05 0.0148902 
0.00427733 0.00056943 0.0163147 
0.00237758 -0.000230179 0.016729 
0.00137671 -0.00113211 0.0176521 
0.00283148 0.00110343 0.0154837 
-1.54668e-05 1.62776e-05 0.000413316 
-0.000140716 8.27781e-05 0.0118725 
-1.58782e-05 -5.82332e-05 0.00637819 
-0.000121209 0.000214713 0.0080395 
5.34302e-05 2.86213e-06 0.0160738 
0.00025275 0.000467902 0.0154453 
0.000116131 0.000796885 0.0180214 
-0.000212564 0.00061823 0.0153185 
0.00163303 4.20775e-05 0.0116045 
0.000515783 -0.0011326 0.0150988 
0.00169115 0.000335687 0.00776855 
0.000290891 -0.00052448 0.00860617 
0.000131169 0.000273558 0.0110138 
0.000188102 0.000189965 0.00949497 
-7.30985e-06 -8.4246e-05 0.0101207 
0.000178778 0.000218181 0.00737972 
-0.00329869 0.00195277 0.00831352 
-0.00262923 0.00063755 0.00111552 
-0.00983511 0.000556943 0.0103637 
-0.00621673 0.00259915 0.00408916 
-0.00151098 0.00288614 0.014797 
-0.0027859 0.000542653 0.0156248 
-0.000927065 0.000470365 0.0166826 
-0.00104486 0.000291423 0.016614 
-3.98082e-05 -7.72957e-05 -0.000419467 
0.00049332 0.000253641 -0.000213492 
-0.000411221 -0.00189138 0.00248779 
-5.80832e-05 -0.00231904 0.000494413 
-1.78199e-05 -0.00201284 0.00773517 
8.45517e-05 -0.00152309 0.0112601 
0.000485744 -2.95862e-05 0.0103849 
1.39697e-05 -0.00121297 0.015375 
-0.00016881 -0.000353564 0.000207538 
0.000146693 0.000276217 0.0108015 
5.71787e-05 -1.75653e-05 8.5145e-05 
1.5404e-05 0.000183916 0.00941538 
3.63302e-06 -8.422e-05 0.00526364 
-6.98427e-06 8.14191e-05 0.00666509 
-1.3547e-05 -0.000182416 0.000269419 
-4.01564e-06 0.000207753 0.00958458 
-0.000975845 -0.00303303 0.00815024 
-0.00149424 -0.000256919 0.0128737 
0.000436021 -0.00151769 0.00775811 
-0.00216208 -0.00184689 -0.000126636 
-5.8898e-05 0.000164636 0.000184229 
-0.000214224 -0.000193287 0.0110647 
0.000427009 -0.000535587 0.0104726 
-0.000187451 -0.000955894 0.0110825 
-0.00186677 -0.000577001 0.0170195 
-0.000655808 -0.000379673 0.0176828 
-0.000958536 0.000258217 0.0169109 
-0.000515182 8.66725e-05 0.0180122 
0.000298345 1.77459e-05 0.0118155 
-7.20355e-05 -0.000107974 0.0110262 
0.000308416 0.00175632 0.0168425 
0.000198639 0.000361457 0.0151968 
-9.81627e-05 2.80509e-05 0.00027846 
-7.03086e-07 -6.57737e-05 0.00705205 
-2.15003e-05 1.86531e-05 0.00657813 
-0.000121963 -7.15159e-05 0.0116506 
0.00626256 -0.00184251 0.0113405 
0.000561436 0.00272752 0.00719564 
0.00191024 0.0106359 0.0277097 
-0.000339677 0.00218409 0.01414 
-0.0139198 -0.000930533 0.0159756 
-0.00439028 0.000167274 0.00801583 
-0.00120857 -0.00252138 0.0282582 
-0.0152778 0.0020436 0.0309497 
9.50624e-05 -5.72442e-05 0.00938721 
0.000195209 0.000498413 0.00933741 
0.000134473 0.000381309 0.0131185 
9.74935e-05 0.000429492 0.00745286 
-0.00306985 -0.00324464 0.00308709 
-0.00249534 0.00310808 0.00409314 
0.00275262 -0.00637038 0.015771 
-0.011715 -0.014472 0.0215687 
-0.000592882 0.00107018 0.0156942 
0.00468691 8.18644e-05 0.0148165 
0.00100493 -0.00229405 0.00960526 
0.00221564 -0.00132508 0.00798805 
-5.03682e-05 2.82447e-05 0.00825509 
0.000311504 -0.000255891 0.0112916 
-0.000140123 4.38835e-05 0.00586066 
0.000338024 -0.00019683 0.00891465 
0.0182019 0.00626332 0.0190138 
0.016953 0.0206462 0.0596909 
-0.00189686 -0.0128445 -0.00227196 
-0.000740301 -0.00656573 -0.0106932 
-1.07108e-05 0.0001186 0.00738071 
0.000172941 -9.25852e-05 0.0104556 
0.000130044 -3.41776e-05 0.00913229 
0.000398084 -0.000274969 0.0144117 
-0.000892831 0.000813344 0.0101924 
-0.000278693 0.00165947 0.0136196 
0.000942633 -0.00107881 0.0162917 
0.00135798 -0.000581827 0.0166707 
0.00118425 0.000432261 0.0165335 
0.00246829 -0.000878743 0.0175639 
0.00220092 -0.000184944 0.01673 
0.0020177 0.000929164 0.0155472 
0.00124665 -0.00109049 -0.00405802 
-0.00349261 0.006073 0.00914485 
0.000296701 -0.000968857 0.000149352 
-0.00457054 0.00447646 0.00574813 
-0.00075867 -0.000553688 0.0149123 
-0.000663915 0.000224618 0.0169993 
-0.00281902 -8.14522e-05 0.0172586 
-0.000971769 7.70801e-05 0.0160114 
-1.14961e-07 3.40674e-05 0.015017 
0.000352509 2.41584e-05 0.0120455 
-4.16647e-05 -3.86312e-05 0.0125187 
0.000554758 -0.000174126 0.0151894 
1.41717e-05 -0.00100418 0.00786187 
0.000149204 -0.000120927 0.00764936 
6.92903e-05 3.03283e-06 0.000487611 
-5.93336e-05 -0.000256155 0.00638953 
0.000308384 -0.000198678 0.0117839 
-0.000612329 -0.000202266 0.0141475 
-0.000245265 -0.000155815 0.00836115 
-0.000452398 0.000168875 0.00973536 
-4.04815e-06 5.43387e-05 0.00560184 
-3.0319e-05 -3.02311e-05 0.000106063 
4.49888e-05 1.58272e-05 1.21187e-05 
0.000178906 -0.000157906 0.0119759 
0.0107139 -0.014473 0.0395051 
0.00193383 -0.0164444 -0.000925673 
-0.00775459 -0.044366 0.0407068 
-0.00184468 0.00283562 0.0310141 
-8.96359e-05 -0.000130977 0.017927 
0.000238416 0.000831717 0.017446 
0.000846168 0.000412642 0.0169562 
0.000528338 8.28334e-05 0.0179971 
0.000556137 0.00946407 0.0107343 
-0.000428151 0.0131307 0.0168847 
-0.00381271 0.0066392 0.000354225 
0.00167061 0.00548054 0.0213096 
-2.86355e-06 5.97003e-05 0.00669722 
-0.000169675 -0.000194607 0.0120024 
0.000113276 -1.32213e-05 0.000379378 
-9.23929e-05 -0.000188932 0.00932164 
0.00133774 0.000826597 0.0175374 
0.000859398 0.00101444 0.0152162 
-0.000100706 -0.000554886 0.0124365 
0.000649941 -0.00106373 0.013992 
0.000909938 0.00154669 0.00180608 
0.000541636 0.000234055 0.0121475 
0.00498514 -0.00027876 0.00966179 
0.00371668 0.00330597 0.0101478 
-0.00167707 -0.000924604 -0.000469644 
0.00983617 0.00688845 0.010235 
-0.00239708 0.000117978 -0.00303467 
0.000739331 0.00387592 0.00458518 
0.00157385 -4.06081e-05 0.0110942 
0.00170313 0.000284735 0.00749275 
0.00034573 0.00013615 -0.000394003 
0.000139001 -0.000427183 0.00902993 
4.82996e-05 8.7824e-06 0.013606 
5.13551e-06 -0.000221201 0.00974195 
-6.25285e-06 -4.64067e-05 0.0114396 
-0.000152638 -8.79093e-05 0.0170026 
-0.000200008 3.1366e-07 0.0188258 
-0.000672441 0.00308005 0.0215038 
-0.00146532 -0.00201338 0.00871301 
-0.000164403 0.000163659 0.0150439 
-0.0140906 -0.0127403 0.0372435 
-0.0122648 0.010171 0.00728472 
-0.00493838 -0.0295996 0.0237194 
0.00660022 -0.0174383 0.0126787 
0.00143549 0.000232618 0.0166993 
0.000653136 -0.000122502 0.015108 
0.00113151 -0.000495536 0.0161656 
0.000987333 -0.000544688 0.0149395 
0.00712073 -0.00128095 -0.00403418 
-0.0248333 0.0180838 0.0446306 
0.00878103 0.00348498 0.00208335 
-0.00586938 0.00135677 -0.00494419 
-7.44444e-05 0.00110384 0.0175128 
0.00158344 0.000467024 0.016135 
0.000938368 0.000443047 0.0169974 
0.000490459 -1.39733e-05 0.0179338 
0.000922112 0.000210203 0.0173534 
-0.000291019 0.00109632 0.0175846 
0.000907566 0.00234246 0.0150978 
0.0017867 0.00070365 0.0157211 
0.00112885 -0.00224405 0.0201681 
0.00278625 -0.00489337 0.0100511 
-0.000970883 0.000375363 0.0056957 
0.000432297 -0.00668486 0.00981799 
-0.00238088 -0.00236845 0.0153425 
-0.00153302 0.000517764 0.0169797 
-0.00306315 -3.45533e-05 0.0158418 
-0.00050153 -0.00177839 0.0160069 
-0.0106976 -0.0262702 0.0243582 
0.00262289 -0.00279961 -0.0116004 
0.00871479 0.00717346 -0.017505 
-0.00100223 -0.0267688 0.0555028 
4.40999e-05 -4.71876e-05 0.0135486 
8.54349e-05 0.000114671 0.0116233 
-2.01571e-05 -3.47521e-05 0.0157088 
-0.000243861 -0.000216321 0.016852 
-7.92014e-07 8.67881e-06 0.00536427 
1.17064e-05 5.62855e-05 0.000157122 
-8.13731e-05 1.254e-05 0.00683406 
0.000180441 6.65185e-05 0.00700508 
0.000708475 -0.00066535 0.0171265 
-0.0026773 -0.00145239 0.015232 
-0.0045104 8.24325e-05 0.00877317 
0.00130323 0.00214209 0.0117651 
-2.94456e-05 0.000683366 0.0174646 
1.0131e-05 -6.3177e-05 0.0186836 
-0.000408919 0.000660808 0.0169014 
-0.000446697 8.85094e-05 0.0181286 
2.18303e-05 9.14215e-06 0.00732716 
0.000147621 -9.58663e-06 0.0104985 
-3.07056e-05 -6.6069e-05 0.000256884 
9.15963e-05 -0.000105391 0.00931162 
9.10137e-05 0.000936224 0.017436 
-8.95802e-05 8.92402e-06 0.0181108 
0.000712921 -0.000314199 0.016929 
0.000610378 0.000124663 0.0180988 
0.000246568 -0.00010614 0.0109687 
-0.000494642 -0.000138771 0.0143357 
-0.000752835 -0.000341657 0.0143628 
-0.000433214 -9.43214e-05 0.0155754 
0.001007 0.0043877 0.00904918 
0.0022708 -0.00670142 0.0204516 
0.00369467 -0.00298774 0.0192954 
0.0072984 -0.00805675 0.0188283 
0.00153269 -0.000817186 0.0163303 
0.00347168 0.000314413 0.0180449 
0.000735034 0.000525189 0.0162722 
0.000936929 -0.000822359 0.0147539 
0.000887243 -0.00179949 0.0165644 
-0.00225171 -0.00250472 0.0138121 
0.00162528 -0.000479987 0.0167442 
-0.000137201 0.00231702 0.0128745 
-0.00187148 -0.00410916 -0.00547958 
0.00168306 0.00874533 0.0140484 
0.00134432 0.00287172 -0.00197131 
0.000533956 0.00591529 0.00749542 
-0.00315796 -1.44656e-05 -0.000283229 
0.00795832 0.0011052 0.00171944 
-0.0046761 -0.000599456 -0.000390535 
0.00716417 0.000827206 0.00237349 
-0.00261842 -4.73654e-05 0.0179843 
-0.000703781 0.000156533 0.0165763 
-0.000632677 -0.000691585 0.0146436 
-0.00166453 -0.000540237 0.0161787 
-0.00025407 0.000455492 0.000315578 
-0.00477949 0.00553201 0.0136155 
0.00326402 -0.00418262 -0.00480601 
-0.00298441 0.00554266 0.00536392 
5.81996e-05 7.3777e-05 0.0105819 
-2.8763e-05 -4.61002e-05 0.00681763 
8.87876e-05 0.000177042 0.0107301 
0.000143345 0.00012035 0.00709854 
-0.00239014 -0.0023796 -0.000383403 
0.00255537 0.00188282 -0.00337002 
-0.00612159 -0.00388278 0.0129632 
-0.00355494 -0.00245948 0.00536606 
-0.00232599 0.00206455 0.00808345 
0.000803449 0.00136741 0.0022757 
0.00035973 0.00439348 0.0104392 
-0.00182533 -0.00102059 0.00906186 
-0.0113944 -0.000487372 0.0180946 
-0.00376126 -0.000520767 0.0165243 
-0.0053468 -0.00287167 0.0253253 
-0.00570653 0.00213419 0.010066 
-0.00122382 0.000510344 0.0170332 
-0.00292093 0.000324251 0.0160603 
-0.000673803 -0.000183957 0.0171747 
-0.000922752 0.000542476 0.0161577 
0.000305706 0.000387108 0.0129752 
0.000125901 0.000308687 0.00951407 
-2.98441e-05 -0.000155907 0.0094293 
9.50255e-05 0.000106782 0.00925879 
-0.00127174 -0.00239622 0.0161826 
-0.000581756 -0.000300642 0.0164255 
-0.000437074 -0.00136502 0.0160021 
0.000127784 -0.00223583 0.0168003 
0.000265639 0.00392903 0.000214555 
0.0190974 -0.0148467 0.0357994 
-0.00564877 0.00168551 -0.0059242 
0.00485794 -0.00524429 -0.00399971 
0.000260567 0.00394786 0.0141351 
-0.000220265 0.00130438 0.0169101 
-0.000122567 0.00420889 0.0195919 
8.2746e-05 0.00552672 0.0201401 
0.000415037 0.000490697 0.0116851 
0.000281402 0.000773623 0.016973 
-0.000159635 0.000175862 0.0110507 
0.000131103 0.000372361 0.0142815 
-0.000847435 0.000105786 0 
-0.000319973 0.000238016 0 
0.000525565 -0.000655795 0 
-0.000515268 -0.00252849 0.00127673 
0.0032195 0.000314809 0.0167632 
0.000426691 0.000944378 0.0148815 
0.000844065 0.000507513 0.0169497 
0.00120628 -0.000624116 0.0147232 
-1.28418e-05 -7.73353e-06 0.00080821 
-0.000125267 7.1299e-05 -4.60563e-06 
0.000120839 -6.64671e-05 -0.000119819 
-0.00201191 -0.000124127 0.0029072 
-0.00262237 0.00215448 0.00755414 
-0.00416144 0.00446922 0.00906121 
-0.00991059 0.000278026 0.0110406 
-0.00295092 0.00147507 0.0138158 
2.51336e-05 1.0879e-05 8.49351e-06 
-0.000419366 -6.40189e-05 0.00881299 
-0.000108758 -4.98067e-05 0.000112651 
-0.00024175 0.000164105 0.00933275 
-2.79972e-05 4.30691e-05 0.00609752 
6.83229e-07 -0.000105097 0.00967685 
0.000118212 0.000319401 0.00911745 
5.23114e-05 -6.52375e-06 0.00951257 
-0.000293712 -0.00275246 5.58645e-05 
-0.000929928 0.00657333 0.0095986 
0.000810032 0.00833998 0.00826581 
-0.00017612 -0.00281292 0.0100129 
0.000310393 -0.000282884 0 
-0.000750482 -1.68492e-05 0 
0.00139658 -0.000515751 0 
2.99157e-05 0.000139613 0.00183603 
-0.00179594 -0.00111174 -0.000683206 
0.00167863 -0.00245313 -0.00358986 
-0.00095153 0.00220558 -0.00101826 
-0.0048358 0.024475 0.0165721 
0.00011933 0.00111139 0.0109687 
0.00540939 -0.00256304 0.019063 
0.0013757 -0.00519009 0.0195528 
-0.000928069 -0.000823073 0.0138279 
-0.0047327 -0.000297373 -0.00337819 
0.0143231 0.00767151 0.0110049 
-0.00188859 -0.00101499 -0.000110464 
0.00332639 0.000518439 0.00647066 
-8.41951e-05 4.60263e-05 0.0148221 
0.000456742 7.51833e-05 0.0123131 
0.000556643 -0.000112445 0.0152183 
0.000338588 0.000258855 0.0151724 
-0.00181431 -0.00133173 -0.00193629 
-0.00116242 -0.000584548 -0.00187807 
0.00158885 0.00219225 0.00355641 
0.00247825 0.00295677 0.00247547 
-0.000307309 5.38362e-05 -0.00325852 
-0.00277178 0.00571159 0.00684942 
-0.000589592 0.00452216 0.000127175 
-0.00110394 0.00318678 0.0100995 
-0.000372349 -0.000544681 0.013792 
-2.74136e-05 -0.000737775 0.0158355 
-9.49384e-05 0.000659904 0.00916863 
-0.000227074 -0.00107635 0.0161917 
4.43204e-05 -6.16203e-05 0.0121526 
-0.000108353 2.70868e-05 0.0108063 
-0.000213508 -0.000460631 0.00895527 
-6.9802e-06 -0.000131154 0.0163533 
-3.08672e-05 -3.83095e-05 0.000100845 
5.65042e-05 -3.32653e-05 0.00646286 
5.35679e-05 1.7699e-05 -1.34785e-05 
-0.000169905 8.79478e-05 0.0121837 
0.00236016 -0.00183607 0 
0.00299589 -0.00362493 0 
-0.00081091 0.00160791 0 
-0.00816977 0.0112893 0.00312253 
0.00682655 0.00189305 0.00375323 
0.00773921 0.000712156 0.00468634 
0.00529353 -0.000379115 0.0107714 
-0.00245478 -0.00169611 0.000548102 
0.00432714 -7.87004e-05 0.00923188 
0.000650907 0.000250245 0.0123867 
0.00122803 0.00156802 0.00241494 
0.000780713 -0.00180163 0.00771139 
-1.35727e-05 -1.15036e-05 0.0124031 
0.000472767 -0.000183705 0.015561 
0.000369461 -6.32695e-05 0.0119246 
8.62539e-05 -0.000154894 0.00773841 
0.000392055 0.00111138 0.0172954 
-9.21661e-05 0.00153932 0.0172629 
-0.000261198 0.003956 0.0161131 
0.000471957 0.00465237 0.0183971 
0.00252716 -0.00582446 0.0104503 
0.00408892 -0.00268681 0.00579646 
0.00187628 0.00176831 0.0124353 
-0.000847682 0.000166639 0.010535 
0.000538677 0.00254849 0.0162645 
0.000216263 0.000946881 0.017473 
0.00105591 0.000111667 0.0166648 
-0.00021438 0.00190267 0.0167874 
0.000636125 0.00321523 0.0153395 
-0.000304299 0.00456997 0.015315 
-0.000456108 0.00192253 0.01486 
-0.000313239 0.00111876 0.018143 
-1.95642e-05 3.75176e-06 0.00546608 
3.19871e-05 -2.75171e-05 0.0108836 
-1.8681e-05 2.21677e-05 0.00659958 
1.45057e-05 0.000119484 0.00939378 
0.000379657 0.00934263 0.0193184 
-0.00537654 -0.00336776 0.0190864 
0.00174539 0.000333418 0.0112935 
-0.00333988 0.00914193 0.019324 
0.000532034 -0.000538403 -0.000476918 
0.000254352 -0.000257439 -0.000263574 
0.000352301 0.00175753 0.00203411 
0.00151645 0.0020643 0.00123448 
0.000101493 4.00217e-06 0.00665897 
-0.00041395 -2.10155e-05 0.0112233 
3.01714e-06 -5.28669e-06 0.0111103 
-0.000116966 8.37128e-05 0.00803519 
0.000116437 0.000424784 0 
-4.24772e-05 0.000461614 0 
0.000266394 0.000406528 0 
-0.000100694 -0.00289058 -2.53477e-05 
-0.0483508 -0.0386006 0.0586706 
0.0232941 0.0120873 0.067439 
-0.0465759 -0.0107314 0.0460564 
0.0150273 0.00901876 -0.0387363 
-0.0176371 0.00722879 0.00840232 
-0.00161651 -0.00503412 0.0190256 
-0.0103633 -0.00445343 0.0266173 
0.00035693 -0.0133697 0.0584097 
0.0138203 -0.0125164 0.0253551 
-0.00291535 -0.00606531 0.0106435 
-0.00119 -0.00189076 0.000394595 
0.00565397 -0.00267214 0.00213418 
-0.00121566 -0.00259979 0.00737483 
-0.0032998 0.000492259 0.0043078 
-0.00254504 -0.00123549 0.0126056 
-0.00136602 -0.00105049 1.65333e-05 
6.7026e-06 3.1423e-05 -4.37484e-05 
1.00446e-06 -0.000545638 0.000647301 
-5.34435e-05 0.000594032 0.00842669 
0.000254915 0.00100409 0.00772493 
0.000737404 0.000488214 0.0132415 
-0.00032225 0.00172984 0.0134656 
-0.000709035 0.000324622 0.01003 
0.00140856 -0.00066042 0.0168629 
0.00160584 -0.00499821 0.00977066 
0.00329615 0.0144302 0.022952 
-0.00620876 0.0127235 0.0264166 
-0.00240977 0.0219142 0.0577147 
9.96408e-05 1.97855e-06 0.0105595 
-0.00026715 -0.000482827 0.00939908 
-0.000604995 -0.000406563 0.0147703 
-0.000503929 3.85042e-06 0.0142969 
-0.00296869 0.000499952 0.00775442 
-0.00180631 -0.000474554 0.00732258 
3.06442e-05 0.000486361 -0.000865517 
-0.000719183 0.000861606 0.00450801 
-0.00191241 0.00449385 -0.00246166 
-0.010825 0.01113 0.0152699 
0.00374556 0.00239798 -0.00392675 
0.00742835 -0.0110404 0.0121709 
-1.41673e-05 0.000309814 -0.00157601 
-0.00355464 -0.0036933 0.00182862 
-0.00268016 -0.00141272 0.000108582 
-0.000277308 -0.00215926 0.00208908 
0.000107229 7.68613e-05 0.00854205 
5.03916e-06 -1.77967e-05 0.0102077 
-3.2976e-05 -6.10481e-06 0.00591108 
7.01759e-05 -0.000313394 0.0108817 
0.000660226 0.00168361 0.00378753 
0.0016875 0.00346401 0.0024019 
-0.000116972 -0.000245184 -0.0020712 
0.000146698 0.00112875 0.0045127 
-0.000485224 -0.000721137 0.0139062 
-0.000134885 0.000426483 0.00981414 
-0.00225521 -0.000800089 0.0140409 
-7.76031e-05 -0.00124031 0.016735 
-5.34278e-05 3.09176e-05 0.00489907 
4.8982e-05 -6.71849e-06 0.00681112 
2.84591e-06 0.00012548 0.000249452 
-4.74568e-05 6.54118e-06 0.01082 
0.000674902 0.00136707 0.010401 
0.0021636 -0.00545722 0.0202032 
-0.00214415 -0.00433352 0.0141191 
-0.000509505 -0.0012395 0.0148079 
-0.000217246 0.000392213 0.0119674 
-0.000220321 0.000289989 0.00802736 
0.000331874 -0.000292829 0.00043705 
-0.00010192 0.00046701 0.0081089 
0.00153589 0.00260307 -0.00371821 
-0.0010073 6.1955e-05 0.00098344 
0.00411134 0.00295045 -0.00131714 
-0.00451894 -0.0117315 0.0139415 
-0.000345214 0.000373314 -0.0003967 
-0.00115127 0.00133695 -0.000652001 
0.00225984 -0.00355752 0.00356372 
0.00361445 -0.00253076 0.00173388 
0.00113912 -0.00698799 0.0110615 
0.000458737 -0.00618251 0.0170255 
-0.00816319 -0.00153868 0.0271699 
-0.00294378 3.16746e-05 0.0167662 
-0.00381482 0.00228811 0 
0.000666328 0.00334014 0 
0.00250559 -0.00193707 0 
0.0129556 -0.0103109 0.00509136 
-0.00112363 -0.00416741 0 
-0.00407045 -0.00480666 0 
-0.0069271 0.0137357 0 
0.000682682 0.0235509 0.0351478 
0.00103411 0.00303344 0 
0.000621441 -0.00206235 0 
0.000462876 0.00121733 0 
0.00231723 -0.00122732 9.87704e-05 
0.00198072 -0.00655997 0.0242701 
-0.00246248 -0.0135182 1.92145e-05 
0.00264159 -0.0169908 0.039062 
0.00358174 -0.0117851 0.0268091 
-0.00173244 -0.000323834 0.0129965 
-0.00830532 0.00781964 0.0230894 
0.00860693 0.00860949 0.0177706 
-0.0146041 0.0022032 0.0415489 
9.98108e-05 -1.97615e-05 0.0105961 
-0.000228818 0.000151059 0.00882583 
0.00015657 -3.47683e-05 0.0117832 
0.000109008 0.000217487 0.0155379 
0.00316742 -0.00127796 0.00769757 
0.00994539 -0.00596237 0.0103179 
0.0211488 0.0131742 0.0373499 
0.00354363 0.00125121 0.000280283 
0.000148497 0.0011961 0.0161884 
-0.000223712 0.000551953 0.0168121 
-3.78195e-06 0.00124693 0.01793 
-0.000126842 0.000368362 0.0153394 
0.00022956 0.000143384 0.000353681 
-6.74497e-05 -1.63851e-05 0.00468823 
8.47677e-05 -6.1867e-05 0.00601133 
-0.000207996 6.12854e-05 0.00977163 
0.000581544 0.000235926 -0.000296037 
-0.00388794 -0.00668154 0.0062687 
0.0014623 -0.00165726 0.000435466 
-0.00191893 -0.00257774 0.0017767 
-0.000712154 0.000458525 0.0100557 
0.00126998 -0.00119341 0.0162575 
-0.0021685 -0.00077639 0.013944 
-9.61348e-05 -0.00110472 0.0164566 
-1.57087e-05 0.000107433 -0.00154109 
0.000770085 -0.00117771 0.00143493 
-0.000337782 -0.00151516 0.00319384 
0.000782436 -0.00293871 0.00143901 
-0.00270083 0.00309198 0.000781686 
0.00830372 -0.00407977 0.00349073 
-0.00310127 0.0023886 -0.00360298 
0.00424656 -0.00456921 0.00486271 
0.00185417 -0.00133062 0.000284916 
0.00125555 -0.00227917 -0.00141907 
-0.00383735 0.00782677 0.00596871 
-0.007507 0.00291415 -0.000389464 
0.000184923 3.74177e-05 0.00015517 
-4.34081e-06 0.000175177 0.000240419 
-1.36807e-05 -0.000175438 0.00953435 
-0.000365543 -0.000139824 0.00826094 
0.00152896 8.55173e-05 0.00729415 
-0.00200073 0.00500918 0.00609197 
-0.0131092 -0.0200167 0.0334801 
-0.00347872 -0.0118193 0.014146 
3.34629e-05 -3.86135e-05 0.0161758 
8.02588e-06 -0.000142312 0.0176085 
7.83953e-05 0.000804062 0.0179362 
0.000352741 0.00051788 0.0154468 
0.000197794 0.000374418 0.0144473 
0.00612412 0.00567133 0.0219584 
0.00401405 0.00483175 0.00917795 
0.00772575 0.00251903 -0.00353721 
0.000268513 -0.000290332 0 
-0.000437497 0.000985398 0 
0.00137627 -0.00040857 0 
-0.0054534 0.002553 0.000686272 
0.000522367 -0.00163532 -0.00132146 
5.999e-05 0.00381958 0.00307169 
0.000763883 -0.000145154 0.000909601 
-0.000956566 0.000774856 -0.000684583 
-0.000680273 -0.0004146 0.0145784 
-0.000115224 -0.000290682 0.00914331 
0.000108722 -9.86808e-06 0.0106678 
-0.000384425 -0.000133976 0.0156963 
0.00162364 -0.00350034 0.00386434 
0.00501973 5.55026e-05 0.00947626 
0.00522699 0.000831832 0.00480155 
6.78461e-05 -0.00195941 0.000876421 
0.00242778 -0.000851902 0.0153546 
-0.00376935 0.000274369 0.00791588 
-0.0012881 0.00227147 0.0109738 
0.000104324 0.00244066 0.0129428 
-5.29135e-05 -1.65652e-05 8.45081e-05 
0.000293014 0.00039278 0.00980715 
-9.00503e-05 -9.9784e-05 0.000326304 
4.69029e-05 0.000419658 0.00722711 
-0.00160648 -0.00250787 -0.00230952 
-0.000336903 -0.00518227 0.00831434 
0.00177764 0.00177126 0.0123009 
0.00338297 0.000915807 0.00340813 
-0.000116317 6.79599e-05 0.00033248 
-0.000559536 0.00115046 -0.00110639 
-0.000262341 -0.00263315 0.001432 
0.000590921 -0.000141562 0.00231984 
-0.000208156 -0.00202104 -0.00191724 
-0.000945629 0.00182485 0.000578038 
-0.00126884 0.00363454 0.00237593 
2.67048e-05 0.000677821 0.00110626 
-0.00072868 0.00706395 -0.000628426 
-0.001199 0.00540003 0.0123869 
-0.000947257 -0.00237578 -0.00524131 
-0.000303351 0.0214849 0.0199917 
0.000171283 0.000142027 -0.00166415 
0.000706381 -0.00322373 0.00106495 
-0.000738718 -0.00176423 0.00302177 
-0.000873105 -0.00221159 0.00180471 
-0.0364948 -0.0101936 0 
0.0141559 0.0199448 0 
0.0662774 0.0340898 0 
-0.0301181 0.00932921 0.106046 
-0.00150474 0.0100362 0.00805611 
0.00216385 0.00676053 0.00302485 
0.00248884 0.00431363 0.0126366 
0.00114426 0.00275393 0.0192512 
-0.00225051 -0.000529173 0.0140965 
3.70403e-06 0.00226495 0.0148281 
-0.00260716 0.00192577 0.00882793 
-0.00367989 0.00284192 0.0132316 
0.000669956 0.000278592 0.0122869 
-8.72541e-05 0.00362062 0.010222 
0.00119022 0.0017557 0.00265343 
-0.00153257 -0.000762723 0.00937217 
-0.00111745 -0.00151496 0.0237973 
-0.00446055 -0.000131118 0.0157682 
0.00476123 0.00832802 0.0207267 
-0.00846955 0.00162203 0.0350621 
-0.00398227 -0.000408954 0.0164469 
-0.00443463 3.3722e-05 0.01765 
-0.00591277 0.000555766 0.0230102 
-0.00639206 -0.0021832 0.0129696 
-0.00606453 0.00179035 0.0107022 
-0.0062639 0.00266207 0.00773753 
-0.000230652 0.000344068 -0.00568382 
-0.00203269 0.00120005 0.00840816 
0.000518835 0.00135988 0.0153094 
-1.79513e-05 0.0096997 0.0132774 
-7.10802e-05 0.0037123 0.0110398 
0.000143746 0.00803667 0.0195297 
-0.000519149 -0.00130774 -0.000859029 
0.00335229 0.00259022 0.002002 
-2.00087e-05 -0.000772285 -9.48405e-05 
0.00276831 0.0026021 0.00206687 
-0.000963202 -0.00206435 -0.000753471 
0.00195457 0.000281081 0.0126069 
0.00421548 0.00530006 0.0070653 
0.00345911 0.00213369 0.00336208 
0.00321085 -0.000780878 0.00287185 
0.000887214 0.00189791 -0.00057103 
0.0147857 -0.00602394 0.0190042 
0.00354662 -0.0049514 0.00689538 
7.6335e-06 -0.000892556 -0.00197381 
0.000822871 0.00177402 0.00274765 
-0.000508411 0.0027223 0.00109008 
-0.000404511 -4.1473e-05 0.000526437 
3.91294e-05 -0.000101392 0.0116689 
-0.000314055 0.000534714 0.0140662 
9.67264e-05 2.60375e-05 0.0131325 
-0.000278482 0.000286061 0.00865471 
0.00104824 -0.000648632 0.0145844 
-0.000695474 -0.00544321 0.0173237 
0.00122729 -0.00332488 0.0145833 
-0.00199507 -0.000670222 0.0164314 
0.000663489 -0.00505885 0.00317957 
-0.00880285 -0.0223981 0.0384204 
-0.0089529 -0.00455685 0.0158167 
0.00284997 -0.00637763 0.00216504 
6.85567e-05 -4.39649e-05 0.00721768 
6.51299e-07 -6.79402e-06 0.0110452 
2.67635e-05 -2.365e-05 0.00670294 
-0.000393225 -1.5556e-05 0.0109788 
-8.50017e-05 -0.000159511 0.0131988 
7.89537e-05 9.26005e-05 0.00941784 
-2.65252e-05 -3.76211e-05 0.0107836 
-0.000246408 -0.000254768 0.00827787 
-0.000133257 -1.56286e-05 0.0111818 
0.000609869 6.7554e-05 0.0142577 
0.000430772 0.000230754 0.0132419 
0.000522657 0.000104504 0.0152463 
0.000362527 -0.00197963 0 
-0.000454405 -0.000424822 0 
0.000924336 5.56858e-05 0 
-2.52077e-05 0.00460039 0.000999261 
-0.000397377 0.00150695 0.0171311 
-0.000157474 -0.00015958 0.0130613 
0.00129918 -8.24733e-05 0.0115086 
0.000902953 0.00150594 0.0164085 
-0.0015285 -0.00206327 0.00420099 
0.0049295 -0.00294311 0.00869051 
-0.00588 -0.0109619 0.0172529 
-0.000609946 -0.00355245 0.00129319 
-0.00288779 0.000428963 0.0117543 
-0.00353461 -0.00200356 0.00425825 
-0.00392603 -0.00279887 0.0131502 
-0.00112123 0.000965915 0.0086507 
-0.000934904 -0.00023033 0 
-0.00080193 -4.98864e-05 0 
0.000228712 0.000239458 0 
0.000978455 0.000450285 0.000556191 
0.0253089 -0.00191477 0.0348242 
0.00574152 0.007904 0.0103348 
0.0126995 -0.00106928 0.00322291 
0.0131266 -0.0039145 0.0268009 
5.45313e-05 2.97386e-05 0.00474045 
-9.62487e-05 7.51877e-05 0.000225141 
-3.47799e-05 -2.54631e-05 -3.98724e-05 
-5.39378e-06 -4.96519e-05 0.00887153 
0.00468535 0.00172662 0.0207253 
0.00893185 0.000793057 0.00433651 
0.00383721 0.00202109 0.00989285 
0.0129646 -0.0038572 0.0151405 
-0.000213663 0.000163027 0.000318289 
0.00031833 -8.82215e-05 0.0117566 
0.00121757 -0.000209189 0.0114491 
0.000556342 -0.000167385 0.00899748 
-2.53348e-05 -0.000106331 0.0117667 
-5.9154e-05 2.13216e-05 0.013317 
-0.00019563 0.000561751 0.0137572 
0.00011435 0.000357821 0.0153604 
-0.00626192 -0.0285746 0.0141325 
-0.00703244 -0.00414686 0.0125019 
0.00409612 -0.00786549 -0.0152298 
-0.0105832 -0.014263 0.0715283 
0.000232315 -0.000534944 0.0145108 
-0.000247283 -0.000535062 0.0167588 
2.4083e-05 -9.40009e-05 0.0133277 
0.00025047 -0.000409654 0.0139088 
0.00280106 -0.000371085 0.012899 
-0.00061797 0.000908977 0.00826566 
0.00240823 0.00551986 0.00848065 
0.000265491 0.00651832 0.023288 
0.00573754 0.000609176 -0.0106839 
0.00268025 -0.00996502 0.0520079 
0.0105862 -0.0247996 0.0125446 
0.000862265 -0.00390085 0.00567988 
-0.00016797 -8.52786e-05 0.00773498 
0.000218393 -2.30613e-05 0.00904875 
8.59547e-05 -5.69499e-05 0.0132266 
0.00050512 -3.37407e-05 0.0140562 
-0.00130217 0.00891624 0.0104949 
0.00358666 0.00207447 0.00961451 
0.00136065 0.00627578 0.0047224 
0.00230019 0.00386423 0.0158557 
-1.83568e-05 -0.00343738 0.00770032 
0.0020601 -0.00491887 0.000121857 
0.010356 0.00394705 0.0176066 
0.00227188 0.000612537 0.00531967 
-0.000690472 0.00126825 -0.000382716 
-0.000657628 0.00164936 -0.00465221 
-0.0039134 0.00537458 0.00817146 
-0.00632506 -0.000190506 0.0021977 
-0.0022806 -0.00361744 0.000719787 
-0.01108 0.00377715 0.022297 
-0.00305316 -0.00422903 0.00376392 
-0.00752125 -0.00582697 0.00758468 
-5.67975e-06 8.18908e-05 0.0103111 
-0.000135476 -0.000347647 0.00891394 
-0.000484859 -0.000561452 0.0152101 
-0.000194481 -0.0003889 0.00920461 
-0.00115246 0.00136235 0.0154726 
0.00519728 -0.000597973 0.0147209 
0.00231197 -0.00127132 0.00810116 
0.00147453 0.00140998 0.0175887 
0.00366034 0.00280959 0.0109255 
0.00850148 0.00102451 0.00602792 
0.005392 0.000902314 0.0177318 
0.00243622 0.00269701 0.00998637 
0.000211173 0.0029137 0.0163937 
0.00133543 -0.000160035 0.0165101 
0.000861939 0.000976853 0.0154072 
-0.000270803 0.00191529 0.0168655 
0.000815011 0.00298458 0.0160179 
0.00285529 0.00301668 0.00999897 
-0.000790764 0.00789837 0.0102473 
0.00259621 0.00303525 0.0157266 
-0.000911021 -8.02582e-06 0.010477 
0.000462388 -0.000184778 0.00956323 
0.000156376 0.000878069 -0.000261784 
0.000119128 -0.00526729 0.00687376 
-0.000543764 -0.000444632 -0.000979586 
0.00132004 -0.000759333 -0.00046365 
-0.000252284 -0.000471582 -0.00100415 
-0.000437509 0.00664923 0.0050343 
0.000613223 0.00107371 0.0172784 
-0.00097146 0.00233603 0.0155246 
-0.000911597 0.00427389 0.0158685 
0.000592442 0.00138377 0.0172657 
0.000202507 0.00139226 -0.00129377 
-0.00321008 -0.00532487 0.0106776 
5.38498e-06 0.00184147 0.012257 
-0.00168389 -0.00733861 0.00619736 
0.000100862 -8.94522e-06 0.0114878 
-0.000172475 0.000114599 0.0085988 
-0.000411274 0.000490179 0.0143077 
-0.000282667 0.000158745 0.00871936 
7.25123e-05 -0.000410459 0 
-0.000166491 6.52238e-05 0 
0.000466634 2.35596e-05 0 
-0.00119189 0.000127427 8.79403e-05 
-0.000945281 -0.000284333 0 
-8.63879e-05 -0.000168538 0 
4.06638e-06 -9.59602e-05 0 
0.00385343 0.00124666 0.000964425 
3.93191e-05 0.000104063 -0.000197384 
5.58699e-05 0.000171167 0.000297979 
-0.00019282 -0.000996268 0.0115306 
-5.77135e-06 -0.000395015 0.00952234 
0.00241527 -0.00313065 -0.00290078 
0.00577885 0.000929656 0.00387404 
0.00611627 0.00430155 0.0102847 
-0.000117192 0.00651401 0.00243046 
0.00103255 4.25305e-05 0.0167428 
0.00254085 -0.000377542 0.017001 
0.00185666 7.20689e-05 0.0166569 
0.000742857 3.54233e-05 0.0168256 
-0.00228851 -0.00282931 0.0145747 
-0.000437337 -0.00185067 0.0174629 
0.000985868 -0.00255898 0.00797236 
-0.00115822 -0.00103787 0.00932188 
-0.000732951 -0.000560144 0.0148036 
-0.000284551 3.5165e-05 0.0134585 
-0.000206072 -0.00119209 0.0097374 
-2.96236e-05 -0.00029147 0.00904271 
3.94057e-05 -8.30669e-05 -0.000187099 
0.00160534 -0.000411346 0.00845273 
0.00158031 0.000181038 0.0109769 
0.000366628 8.87938e-05 0.00778377 
0.00087138 -0.00247301 0.00801263 
-0.000328177 -0.00202621 0.0171985 
0.000540025 0.000652557 0.0122474 
-0.00123725 -0.000943637 0.00943396 
0.0253527 -0.00656642 0.0342945 
-0.0126308 0.00797796 -0.0200016 
0.0265586 -0.000120915 0.0847945 
0.00840606 0.00281654 -0.0128544 
-8.03158e-05 -0.000279372 -0.000109537 
-0.000148437 -9.86801e-05 -0.000617331 
0.00162202 0.00116032 0.0120871 
0.000487875 0.000942068 0.00977706 
-0.00709844 -0.0152082 0.00692355 
-0.00220926 0.0177353 0.048458 
-0.0015786 0.00220701 0.0182939 
0.000599027 0.00160956 0.0399791 
-0.000369078 -8.79575e-05 0.0122688 
1.02714e-05 -0.000921168 0.0117054 
0.000255136 0.00026085 0.000403958 
-0.000128439 -0.000409686 0.00929098 
0.0100229 0.00146251 0.0260563 
-0.00412862 -0.00133628 0.0217233 
0.0147032 -0.00434261 0.032752 
0.00300253 -0.00855262 0.0179397 
-0.000102037 3.8933e-05 0.0173005 
0.000916215 -5.83869e-05 0.0169412 
0.000513467 -0.000431493 0.017022 
0.00067957 -0.000261219 0.0180619 
-0.00225857 3.82587e-05 0.0239414 
-0.0104346 -0.00111568 0.0121674 
-0.00355541 -0.00184359 0.0170666 
-0.00736431 0.00266713 0.0274265 
-0.00425459 -0.00459341 0.0148815 
-0.00021151 -0.00146305 0.0194871 
0.000512104 0.00139164 0.00578695 
-0.00144255 -0.00738992 0.0107166 
3.60493e-05 -3.63534e-05 0.0109057 
-0.000429246 1.30669e-05 0.0112078 
0.000140756 -0.000111305 0.0073544 
-0.000415732 -2.86818e-05 0.0143423 
-0.0032411 0.00168494 0.00806934 
-0.0100648 0.000203264 0.0111395 
-0.00373375 6.03446e-05 0.0179831 
-0.00264515 0.00181709 0.0134844 
0.00102401 0.000957092 -0.000691513 
-0.00059043 -0.00133023 0.0108521 
0.000520602 -0.00197944 0.00814737 
-0.00192808 -0.0034202 0.00733786 
-0.000147015 0.00291356 0.0123015 
-0.0044551 0.000429676 0.0183635 
0.00121304 0.00480724 0.0190305 
-0.000900144 0.00114196 0.0153289 
-0.000878413 0.000615553 0.0170074 
7.63826e-05 0.000994347 0.0175293 
-0.000244398 0.000551597 0.0169246 
-0.000556953 -0.000109592 0.0180776 
-1.14424e-05 -8.87301e-06 0.0177286 
-6.61274e-05 -9.01142e-05 0.0186748 
0.000257135 0.000628963 0.0175695 
0.000448582 0.000109934 0.0180877 
0.000121938 6.2803e-06 0.00020117 
-0.000488587 0.00048537 0.0118032 
5.32595e-05 4.32449e-05 1.51874e-05 
-9.58761e-05 0.000740385 0.00816088 
0.0196935 0.0115224 0.010827 
-0.00860919 0.0261628 0.0359422 
0.0171061 -0.042117 0.112359 
-0.0137651 -0.00120781 0.0424311 
-0.00067674 0.000982838 0.0152255 
-0.000499166 0.00342948 0.0159139 
-0.00146047 5.02954e-05 0.0158345 
-0.00287672 0.00230264 0.0143683 
0.000356261 -0.00116235 0.0123054 
8.10127e-07 0.000868626 0.0161 
-0.000682126 -0.000148296 0.00988116 
0.00267277 0.000329055 0.0152 
0.000773507 0.0029975 0.0167689 
-1.65041e-06 0.00707709 0.0101788 
0.00274166 0.00314904 0.00966111 
-0.000121482 0.00359503 0.010993 
0.00577904 0.00220799 0.0160766 
0.00123405 -0.00062143 0.0141647 
-0.000158829 -0.00591614 0.0213857 
0.00136472 -0.0026889 0.0162544 
2.16858e-05 -1.75685e-05 3.23616e-05 
0.00011651 0.000232491 0.0123339 
-8.75075e-05 -1.87123e-05 -7.20406e-05 
9.41794e-05 0.000290567 0.00837892 
-0.000384872 0.000136264 -0.000818565 
-0.000247694 0.000517213 0.000121976 
-0.00214591 -0.00222873 0.0085581 
-0.00104725 0.000408461 0.00923225 
0.000975655 -0.000207932 0.0169905 
0.000461944 5.82571e-06 0.015438 
0.00104019 0.000280084 0.0169589 
0.000798539 3.41924e-05 0.0181365 
-0.000591731 0.00160706 0.00754753 
-7.58824e-05 0.00134112 0.0141278 
0.000301096 0.000502112 0.0131715 
0.000614229 0.000866917 0.0184282 
-0.00074037 0.000326755 -0.000103074 
-0.000603836 0.0006175 0.000202229 
0.000445767 1.81147e-05 0.000276821 
0.000993849 -0.000684881 -0.000684062 
-0.00174469 -0.000455142 -0.00521272 
0.00684472 -0.000293735 0.00503607 
0.00123741 -0.00432087 0.00384895 
0.0038107 -0.00380184 0.00541729 
-4.32278e-05 0.000205223 0.000768883 
0.00114925 -0.000378979 0.00667938 
0.000160045 -5.6833e-05 -4.68551e-05 
0.000362583 -0.000115194 0.00673232 
0.00326124 -0.00344904 0.0144999 
4.79125e-05 -0.00128139 0.0134334 
0.000948544 0.000742162 -0.00326414 
0.0035742 -0.00125706 0.011497 
3.1222e-05 0.000739422 0.0174469 
-7.35809e-05 0.000136594 0.0181426 
1.0371e-05 -6.07998e-05 0.018806 
-0.000479909 5.69537e-05 0.0180889 
-0.00257732 0.00190364 0.00744643 
-0.00455187 -0.00021143 0.0187593 
-0.00996084 0.000174634 0.0112838 
-0.00453165 -0.000384659 0.0113884 
-4.83863e-05 1.01837e-05 0.0171887 
0.000556371 -0.000572364 0.0170229 
-8.87591e-05 3.84239e-05 0.0184961 
0.000548852 -0.000120904 0.0182805 
-0.0115761 0.00015877 0.0161818 
-0.00451032 0.00173438 0.00643146 
-0.0133378 -0.00436227 0.0216347 
-0.000964925 0.00289937 0.00943918 
-0.00195723 -0.00529116 0.00502808 
0.0225173 6.30297e-05 0.0389915 
-0.018069 -0.0238367 0.0874019 
0.00362054 0.0029094 0.0292214 
-0.00167655 0.00393994 0.0161574 
0.000727275 0.00177955 0.0136924 
-0.00109293 0.00265606 0.00725689 
0.00126417 -0.000962276 0.0190045 
4.34499e-05 -0.000156818 0.0185699 
2.24097e-05 -8.799e-05 0.0173779 
-0.00011214 0.000862958 0.0176706 
-0.000336257 0.000580361 0.0168316 
-0.000751407 0.0010653 0.0144072 
-0.000413061 -0.000370752 0.00999277 
-0.000726697 -0.000256213 0.00959736 
-0.000654639 0.000258389 0.0154626 
0.0107136 0.00179728 0.00322524 
0.0137319 -0.00426793 0.0208856 
0.00343344 0.00170545 0.0164543 
0.00658575 -0.000380413 0.0190639 
0.00134723 -0.00113513 -0.00118879 
-0.0038819 -0.00777428 0.00899772 
0.000184884 -0.00653759 0.00467886 
-0.000967927 -0.00105318 0.00070873 
0.0029556 -0.00302818 0.00311491 
-0.00119324 -0.0369895 0.035043 
-0.00270565 -0.0107439 0.0160945 
0.00048483 -0.000714604 -0.00527965 
-0.0094453 -0.00788056 0.0264088 
-0.00704996 -0.00167943 -0.028856 
-0.00286059 -0.0166788 0.0210041 
-0.00343032 -0.00661871 0.0756192 
0.0005742 0.000204129 0.0116413 
0.0033617 0.00296628 0.0102377 
0.00114014 0.00186369 0.00253601 
-4.59763e-05 0.00377697 0.0106865 
3.26045e-06 8.0118e-07 0.0179129 
2.3549e-07 2.77225e-06 0.0171799 
-1.68494e-06 -2.86793e-05 0.0161945 
1.41377e-05 0.000692865 0.0180799 
0.00076501 -0.000331158 -0.00110719 
-0.00505206 0.00307059 0.00575853 
-0.00308027 0.00102329 0.0100508 
-0.00206882 -0.000442077 0.00822267 
0.00872143 0.0128547 0.0304962 
0.0107847 -0.0485139 0.055524 
-0.00291527 -0.00856605 0.00198101 
0.00563127 0.000349892 0.0448903 
-3.75334e-05 1.02879e-05 0.00843355 
-9.79239e-05 2.14455e-05 0.00567918 
9.95258e-05 -0.000117173 0.000271503 
0.000230038 -0.000125402 0.00908497 
-0.000198807 0.000550008 0.014463 
-0.00157593 0.0016067 0.0189977 
-0.00160203 -0.000357948 0.00908889 
-0.000837427 0.000155278 0.011166 
0.000593524 0.00165727 0.0128432 
-5.62865e-05 0.00459613 0.019783 
-0.000228492 0.00952782 0.0161381 
0.000117172 0.00778046 0.0213305 
-0.0010083 0.000826445 0.0168619 
-1.05151e-05 0.000873476 0.0176179 
0.00013921 0.00150099 0.0164367 
-0.000123126 0.000593411 0.016891 
4.23354e-05 -1.71922e-05 0.00928818 
-0.000189576 0.000237382 0.0108471 
-0.000165589 0.00014175 0.00871896 
-6.24821e-05 0.000470663 0.015293 
-4.39958e-05 -0.000414896 -0.00232606 
0.000476725 0.00146986 0.00275434 
0.00332214 0.00126591 0.00322657 
0.00226736 0.0026398 0.0027397 
0.000836312 0.00128068 0.00253154 
-0.00106158 -0.00142384 0.00274384 
-0.00313335 0.00240905 0.00742108 
-0.000316321 -0.000111343 0.000298941 
-5.8493e-06 6.74195e-05 0.0160573 
-3.90996e-05 -4.17373e-05 0.0162177 
1.13633e-05 0.000628013 0.0182117 
-2.64098e-05 0.000630608 0.0150466 
-0.000253859 0.000472879 0.0143732 
6.82652e-06 4.98922e-05 0.012703 
-0.00023959 0.000142164 0.00889689 
-1.8271e-05 0.000456348 0.0151419 
0.00210558 0.0071474 -0.00367726 
0.0124045 -0.0294709 0.0179928 
0.00120133 0.00298663 -0.00461625 
-0.00445169 -0.000273063 -0.0017396 
-0.00521574 1.85272e-06 0.00679143 
-0.0109716 0.00202885 0.0302357 
-0.00482089 -0.000210798 0.0197091 
-0.00819356 -0.00116228 0.00993861 
-0.000170551 0.000136664 0.00996988 
0.000587132 0.000340208 0.0133084 
0.00079555 4.24568e-05 0.016809 
0.000294361 6.68085e-05 0.0149717 
-0.00352113 0.00668336 0.0125172 
0.00516707 0.00861825 0.00653701 
0.000131385 -0.00358373 0.00446737 
-0.00138966 0.0107557 0.0281916 
-7.79339e-05 -0.000128926 0.0102724 
0.000772811 0.000132056 0.0165971 
-9.56832e-05 -0.000257893 0.012974 
0.000313939 1.68941e-05 0.0150004 
-0.000177417 -0.00010455 0.0118468 
-0.000874686 0.000977886 0.014484 
-0.0013445 3.6514e-06 0.0175191 
-0.000501685 -5.83749e-05 0.0143741 
0.00557129 0.000272063 -0.00340335 
0.00422007 0.000969427 -0.0049225 
-0.0123785 0.00119961 0.00952409 
-0.00669341 0.00230468 0.00776237 
-0.00222229 0.000663235 0.0127888 
-0.00126836 -0.00131324 0.00882288 
-0.0032663 0.00249796 0.0201176 
0.000291282 -0.000302813 0.0104261 
0.0311362 0.00380931 0.0164947 
-0.00143342 0.00964215 0.0100424 
0.00451262 0.00170711 0.0282804 
0.000412422 -0.000646728 0.00378233 
0.0012495 0.00177721 0.00257276 
0.000749802 -0.00199417 0.00746587 
0.000676378 0.000335391 0.0126014 
-0.00161906 -0.000818908 0.00934265 
-0.0100133 -0.00323123 0.00679113 
0.00166812 0.0183294 0.0432998 
-0.0205505 -0.0613214 0.0894784 
-0.0100998 0.0301693 -0.000152953 
-0.00237783 -0.000542285 0.0120089 
-0.00105999 -0.000376505 0.00559039 
0.000427237 -0.00166844 0.00727737 
-0.00106351 -0.00128884 0.00159729 
-0.00214684 -0.00284911 0.0142984 
0.00159746 -0.00298135 0.0139102 
0.000646254 -0.00254613 0.00848782 
-5.29667e-05 -0.00175705 0.0173384 
5.04504e-05 -0.000533567 0 
-0.000678078 0.000237083 0 
-0.00046732 -0.000194962 0 
0.00232864 7.45387e-05 0.000767403 
0.0141192 0.00247908 0.0188821 
0.0372666 0.0103412 0.0704664 
-0.00788404 -0.00360175 -0.00831969 
0.00815235 -0.00563924 -0.00952207 
-3.67305e-06 -8.32024e-05 0.0132643 
0.000119785 2.40999e-05 0.00966784 
0.00028634 -0.000549527 0.0146792 
0.000218041 -0.000401696 0.0138021 
-0.000996137 0.000928113 0.0168362 
-0.000220763 0.000551634 0.0167298 
0.000186713 0.0014654 0.0165417 
-0.000994991 0.000277882 0.0159653 
1.29562e-05 -7.93552e-05 0.000156217 
5.48833e-05 9.45694e-05 0.0110715 
1.56117e-05 -4.49776e-06 0.00659773 
0.000110257 0.000114758 0.00717554 
-0.000556983 -0.000833164 -0.00108049 
-9.08172e-05 -0.000128129 -0.000380091 
0.000634205 -0.000622919 -0.000501016 
0.000642379 0.00177265 0.00183127 
-0.00372933 -0.00153428 0.0227602 
-0.00330015 -0.000118273 0.0156957 
-0.0127957 -0.00241202 0.0238298 
0.000275338 -0.00216651 0.0171137 
0.00203499 0.000377189 0 
0.00161923 -0.000852997 0 
-0.00113999 -0.00148333 0 
-0.00846338 -0.00315044 0.00473028 
0.000807786 0.00632023 0.0102117 
0.00128064 0.0079059 0.00164052 
-0.000681995 0.0073277 0.0113326 
0.000187681 0.0140991 0.0195225 
1.58637e-05 -8.50078e-06 0.0120398 
-8.30505e-05 -0.000256554 0.00924151 
-0.000133471 -0.000483632 0.0158335 
-0.000147887 -0.000522942 0.0161324 
-0.00288177 -0.00291791 0.0055352 
-0.00350058 -0.00179891 -0.000637982 
-0.00374996 -0.0048458 0.0160961 
-0.0105437 -0.00566611 0.0169411 
0.000456313 0.000502202 0.0118234 
0.0010046 -0.00259188 0.0088675 
0.00150969 -0.00292125 0.013938 
-0.000389361 -0.00181681 0.016728 
-0.00268449 0.0020402 0.00783764 
-0.00140109 -0.00174322 0.00272057 
0.0009229 0.00153231 0.00245448 
-0.0016029 -0.000749853 0.00937233 
-0.00515107 -0.000342789 0.0162623 
0.00071759 0.00212002 0.0141798 
-0.0021713 0.000464921 0.014417 
-0.00382779 0.00208531 0.0130603 
-0.00459023 -0.000362638 0.00241628 
-0.00627263 0.00448126 0.0196286 
-0.00423258 -0.000631921 0.0190462 
-0.0119513 0.00264527 0.0350831 
-2.82258e-05 7.67567e-05 0.0108197 
-0.000367699 -8.93924e-05 0.00831382 
-0.000410933 -0.000505794 0.0131839 
-3.72586e-05 -0.000434321 0.0162581 
0.0189866 0.0394517 0.0900876 
0.0161932 -0.0168795 0.0547877 
0.00579098 -0.00195782 0.0159246 
-0.0168198 0.00506083 0.0210869 
0.000126605 9.19884e-05 -0.000332049 
-0.000822209 -0.00103348 0.000506363 
0.00261821 0.00399983 0.00643443 
-0.000409526 0.000498846 0.00973144 
0.00110071 0.000143685 0.0158218 
0.00160205 -0.00424722 0.0148838 
-0.000709407 -0.0058893 0.0162907 
-0.00110755 -0.00352333 0.0179421 
0.000582425 -0.000765465 0.0170254 
0.000129977 -0.00066734 0.0179089 
-2.37172e-05 5.83319e-05 0.0186695 
0.000465309 -2.56762e-05 0.0180981 
0.000450736 -0.00161482 0.000232853 
0.000847315 -0.00538001 0.0064077 
0.00012868 0.00336812 -0.00282828 
0.00246734 -0.00325789 0.00611609 
-0.00283322 -0.000464283 0.00409581 
-0.000942906 -0.000626159 0.00613347 
-0.00318668 -0.00132825 0.0120691 
-0.000868478 -0.000519532 0.000702467 
0.000358127 -0.000850209 0.0140727 
0.00129076 0.000452526 0.0121104 
0.00194868 -0.00307128 0.0212146 
0.000224991 -0.00144497 0.0172093 
-1.06682e-05 -1.47848e-05 0.0100994 
-0.000207967 -0.000118719 0.00876452 
6.09582e-05 -0.000298876 0.0115363 
-1.32023e-05 -0.000566787 0.0161305 
-0.00212893 0.00557205 0.00925068 
-0.00212523 0.00357848 0.00716995 
-0.000235332 9.88203e-05 -0.00267407 
-0.00699864 0.00105026 -0.000128084 
-5.9486e-06 1.10546e-05 0.0123258 
0.000429174 -0.000323749 0.0101276 
0.000459234 -0.000217533 0.015638 
0.000111643 -9.94802e-05 0.00767206 
-0.000274976 0.00142736 0.000192597 
-0.000705536 -0.00145318 -0.000601223 
-0.000279012 -0.000906525 0.000276224 
-0.000297719 0.00175899 0.000594076 
9.14243e-05 -6.83181e-05 0.0112243 
-0.000111627 -8.52395e-06 0.00984493 
0.000303774 0.000381053 0.0129677 
0.000217695 0.000111641 0.00899015 
0.00125556 0.00144676 0.0272741 
-0.00390375 -0.00475798 0.0163252 
-0.000607703 -0.0158514 0.0333545 
-0.00123479 -0.00545145 0.015495 
0.0131824 -0.0364845 0 
-6.15366e-05 0.0153918 0 
0.00478706 0.011279 0 
0.00923497 -0.0165088 0.055503 
-0.000763704 0.00445643 -0.00384055 
0.0079094 0.0034083 0.00790069 
-0.00224411 -0.00150902 -0.00487146 
0.00415824 -0.00755019 0.00647418 
-6.45545e-05 -1.24619e-05 0.0163151 
0.000772623 0.000221321 0.0169685 
0.000699309 -7.17239e-05 0.0153227 
0.000653655 0.000112312 0.0182322 
0.000950768 0.000766352 -0.00134849 
-0.00403778 0.00635159 0.00473955 
-0.000497983 0.000411624 -0.000497092 
-0.00640363 0.000324902 0.00159292 
-6.10491e-05 7.83989e-07 1.40356e-05 
-0.000239655 0.000637752 0.0117317 
6.38068e-06 -7.89473e-05 0.000252283 
2.93392e-05 0.000253156 0.00688846 
-0.0182144 -0.00316048 0.0318816 
-0.00263231 -0.00142199 0.00717361 
-0.00203838 0.00175992 0.00455633 
-0.0041048 0.00460774 0.00642617 
-0.00114013 0.0041791 0.0200043 
-2.69635e-05 0.00593775 0.0218663 
0.000367431 0.00097179 0.0152519 
0.000161821 -0.00124856 0.0159045 
5.75655e-05 -1.53849e-05 0.0104846 
-0.000205106 -0.000105887 0.00888164 
-0.000542014 -0.000353633 0.0137738 
-0.000420938 -9.87058e-05 0.00806636 
-0.0017919 -6.0683e-05 0.017116 
-0.000750058 -0.000675872 0.015237 
-0.000190384 -0.000682009 0.016179 
-0.00125607 0.00030436 0.0155197 
0.0029241 0.000350095 0.0164007 
0.002196 0.000248415 0.0151676 
0.00162585 -0.00254525 0.0137739 
0.00146907 -0.00107616 0.016576 
-0.000357487 -0.000155042 0.0110951 
4.33688e-05 0.000490266 0.0158281 
0.000225389 -0.000633817 0.0124164 
-0.00131463 -0.000471415 0.0161812 
-3.01404e-05 0.000279852 0.0110883 
6.50594e-05 0.000154475 0.00917199 
0.000369994 -0.000718458 0.0103293 
0.00054308 2.87761e-05 0.0144029 
0.000519233 0.000537143 -0.00139898 
-0.00143507 0.00347957 0.00370505 
-0.00261648 0.00571761 0.00748669 
-0.0057757 0.0018895 0.00165598 
3.5188e-05 -5.16321e-05 0.0125474 
4.07495e-05 5.41476e-05 0.0151187 
-4.43235e-05 5.24634e-06 0.0105801 
0.000265719 -2.12207e-05 0.0118206 
1.81903e-05 -6.45504e-06 0.0111738 
-2.39895e-05 -5.53739e-05 0.0140112 
5.5993e-05 0.000119657 0.010379 
-0.00031135 -0.000100438 0.0149823 
0.00198368 0.00380827 -0.000129796 
-0.0221892 0.0016686 0.0251359 
-0.0131563 -0.000500939 0.017254 
-0.00577013 -0.000949035 -0.00089941 
0.000423704 0.00192566 0.0134366 
0.000228438 0.0102427 0.0158917 
4.02388e-05 0.00507529 0.0200393 
-0.000169208 0.00163232 0.0133436 
-1.10128e-05 -4.69605e-05 0.0156662 
0.000751789 -5.53301e-05 0.017282 
0.000849905 4.0913e-05 0.0143739 
0.000395281 7.40459e-05 0.0150869 
-4.17977e-05 5.11369e-05 0.0104701 
4.50274e-06 8.74608e-05 0.0125749 
0.000279813 -0.00013847 0.0119083 
0.000191339 -0.000162591 0.00756479 
-0.0169848 -0.00138912 0.0194738 
-0.00361778 9.26406e-05 0.0226611 
-0.000411597 -0.0035286 0.0165984 
-0.000232194 -0.00398848 0.0463124 
-0.000699781 -0.000185722 0.000200827 
-0.000789776 -0.000162087 -0.00186201 
-0.000781847 -0.000205595 0.000140523 
0.00106125 0.00295708 0.00746925 
0.000738845 -0.000556685 0.0174199 
0.00139921 -0.00229094 0.0133547 
0.000867195 -3.08823e-05 0.0121217 
0.00222136 0.000978833 0.0156004 
-0.000207578 -2.74647e-05 0.00760555 
7.37947e-05 -1.89514e-06 0.0130983 
0.000331547 -7.95149e-05 0.0101931 
0.000563685 -0.000119411 0.014248 
0.000598194 -0.00118236 0.0156881 
-0.000411448 -0.00121073 0.0167144 
0.00166146 -0.00387685 0.0149306 
-0.00106002 -0.00291363 0.018025 
0.000160446 3.58526e-05 0.00040312 
-0.000276564 0.00100565 0.00740719 
-0.000220353 0.000363885 0.00956043 
0.000174336 -4.5045e-06 0.00946072 
3.22877e-07 1.51387e-05 0.0179002 
-5.39453e-06 -2.84778e-06 0.0161483 
-3.02335e-05 -3.96336e-05 0.0162119 
1.78925e-05 0.000654226 0.0181753 
-0.000189811 -2.43267e-05 0.000498836 
0.000120321 -0.000146475 0.0118874 
-0.000359364 -0.000206742 0.008737 
-6.96881e-05 0.000219753 0.00892927 
-0.00127833 0.00313384 0.00242411 
2.89709e-05 0.00378442 0.00083567 
0.000432209 0.00145087 0.00300815 
-0.000928 -0.000848761 0.000812528 
-0.00205969 -0.00131725 -0.000128078 
-0.00616051 -0.00386942 0.00261784 
-0.0046606 -0.00685479 0.00963781 
0.000634727 -0.00113358 0.000935136 
-0.000160691 -0.000422925 -3.76987e-05 
0.000205868 -0.000151099 0.011851 
0.000129689 9.10703e-05 0.000454162 
0.00119807 0.000622539 0.0118919 
0.00179156 0.00653569 0.00378578 
0.00385663 0.00272375 0.00972437 
0.00306611 0.0045515 0.0122162 
0.00148713 0.00314424 0.0172941 
0.00393655 0.00462691 0.0219966 
-0.00722034 0.000351641 0.0172263 
-0.000337103 0.000517897 0.0229144 
-0.0018857 0.00122788 0.0141071 
5.35708e-05 -3.17312e-05 0.0176339 
2.25727e-05 -7.81143e-05 0.0185922 
-1.41885e-05 1.34619e-05 0.0178985 
7.9218e-05 0.000670382 0.0178058 
0.00061322 -0.000701886 -0.000503082 
0.00163715 0.0022964 0.00165143 
2.83318e-05 -0.00041605 -0.000431885 
-0.0005168 0.00104604 0.00347261 
0.000651449 -0.000496422 0.0168381 
0.00152165 -0.00223272 0.0139067 
0.00202712 0.000532311 0.0153778 
0.00154534 -0.00131632 0.0164786 
-0.00279469 -0.000818874 0.0120266 
-0.00331975 -0.000812791 0.00470407 
-0.000976681 1.38658e-05 0.00902929 
-0.000617535 -0.000414374 0.00568503 
-0.000836189 -0.00133421 0.000119491 
-0.000652689 0.00484325 0.00829711 
-9.38001e-05 -0.000416686 -0.000129901 
-0.00197537 0.000556826 0.0108058 
-0.00318299 9.46416e-05 0.0165118 
-0.00105409 -0.000340065 0.0149926 
-0.0011237 -0.000499881 0.0174982 
-0.00111916 0.000296888 0.0155552 
-8.65693e-05 0.00969829 0.012574 
0.00120807 0.00457641 0.0094205 
-0.00289002 0.0126075 0.018348 
0.00106883 0.00289782 0.0164423 
0.00717125 0.00164325 0.00255446 
-0.00514672 -0.00156781 -0.00463665 
0.0015604 -0.00432486 0.0074814 
0.00385383 0.00120421 0.00645538 
-0.000640875 -0.000149207 -0.000234554 
0.00259139 -0.000317006 0.00732947 
0.00279394 0.000257437 0.0110819 
0.00290639 0.00275381 0.00471339 
-0.0026568 -0.00140557 0.00997621 
-0.00117817 -6.42989e-06 0.00930463 
-0.000105529 -0.00018626 -0.000493251 
-0.000669932 -0.000120959 0.0101801 
0.00136796 -0.000202364 0.0116831 
-0.000622281 0.00183171 0.0169091 
0.000927531 0.00134449 0.0170857 
0.000451676 0.000214142 0.0151258 
0.000707669 -0.00522486 0.00758699 
0.000472526 0.00284291 -0.000651546 
0.00140742 0.000604153 0.0109129 
-0.00063421 -0.00670715 0.00619897 
-0.000332679 0.000270155 0.00941469 
-0.000251531 -0.000619312 0.0140871 
-0.00219796 -0.00063296 0.0145846 
-0.00151886 0.000203449 0.00745124 
-0.00243997 0.000399668 0.0170839 
-0.000668845 0.000517104 0.0151455 
0.000566644 -0.000346779 0.0121023 
-0.00113021 7.99792e-05 0.0159257 
-0.00212295 0.000199879 0.011907 
-0.00493349 -0.00118602 0.0138969 
-0.00404132 -0.00551292 0.00151066 
-0.00744579 -0.000813497 0.014248 
0.00730669 0.00444753 0.00186544 
0.00713761 -0.00656775 0.0465811 
0.00203904 -0.00537351 0.0569591 
0.00372587 0.00875679 -0.00302742 
0.000109288 -1.05909e-05 0.016146 
-7.36765e-05 -0.00012769 0.0132206 
0.000166509 0.000505155 0.0154062 
-0.000205908 0.000557789 0.0150685 
-0.00153726 -0.000236799 0.0171742 
-0.000494509 -0.000149745 0.0141021 
-0.000837098 0.00114611 0.0148959 
-0.00104446 0.000460964 0.0152414 
-1.00881e-05 -9.80539e-06 -1.62599e-05 
-1.30748e-05 -0.000143985 0.000242853 
-8.08227e-06 8.10094e-05 0.00668669 
-7.53883e-06 0.000200591 0.00965653 
-0.000845073 0.000272654 -0.000343929 
0.000691784 -0.000417271 0.0028861 
-0.000252145 -0.00248971 0.00116195 
0.000915352 -0.00635824 0.00792297 
0.0025772 -7.86368e-05 0.0163006 
0.000747907 -0.000441812 0.0176441 
0.000912821 0.00025109 0.0169435 
0.00197544 0.000495229 0.0160001 
0.000520588 0.000618754 -7.67359e-05 
0.00102173 0.000920205 0.0120658 
-0.000140068 -0.000835772 0.0123475 
0.000321467 0.000334404 0.00976166 
-2.73638e-05 7.499e-05 0.000352821 
-6.12186e-05 -2.0752e-05 0.000266893 
0.000364265 0.000109697 0.0117531 
0.00044281 -0.000274067 0.00898524 
0.00444593 -0.00174841 0 
-0.00136296 0.0003961 0 
-0.000498777 0.00177529 0 
0.000717453 -0.00307552 0.00355883 
0.000222684 -0.000205914 -0.000519776 
-0.00208269 0.00129791 0.010793 
-0.00156027 0.00336633 0.00957085 
-3.90999e-05 0.000350856 0.0099379 
-0.00107529 -4.56567e-05 -0.00225967 
-0.017335 0.00793967 -0.000644366 
-0.00672979 0.00246346 0.0324293 
-0.00899119 -0.0089475 0.00940181 
0.000611758 0.003157 0.014897 
0.000313537 0.00436184 0.010503 
-0.000416117 0.00421659 0.0155922 
-0.000131024 0.0070259 0.0200074 
0.00520227 -6.26732e-05 0.00997231 
0.00329968 0.000186433 0.0172738 
0.000243678 -0.00320305 0.0137426 
0.00329606 -0.00233777 0.0119674 
-0.00139264 -0.00268686 0.0145725 
0.000312353 -0.00301044 0.00780599 
0.00112442 -0.00287543 0.0140348 
0.000129659 -0.00595648 0.0163639 
-0.0013919 -0.000360154 0.0236972 
0.00269099 -0.000491524 0.0155485 
0.000295198 0.0033848 0.0145946 
-0.00100396 -0.000197621 0.0156213 
4.44538e-05 -2.99602e-05 0.0115451 
-0.000290776 0.000512141 0.0140105 
-0.000181232 0.000135563 0.00879243 
6.00099e-05 0.000327354 0.015507 
-0.00056872 0.000752855 -0.000122509 
0.0012597 -0.00019793 0.0113172 
0.00222752 4.03089e-05 0.00789836 
0.00333305 -0.00252617 0.00635465 
0.000874759 -0.000342212 0.0169209 
0.00112257 -0.000372184 0.017441 
0.00157874 0.000377322 0.0159727 
0.000538606 1.09987e-05 0.0179962 
-0.00184281 0.00263809 0.0143642 
0.000360461 0.000522616 0.0185435 
-0.000394034 0.00181864 0.00795067 
0.000162802 0.000236162 0.00704228 
0.0010097 0.00218901 0.0150289 
0.000726669 0.00158055 0.0160993 
0.000856114 0.000334148 0.017386 
0.00202904 0.000547261 0.0154589 
-3.39744e-05 -4.42343e-05 0.0162669 
8.06434e-05 -2.61261e-05 0.0174717 
-4.6764e-06 1.00236e-05 0.0179092 
2.66389e-05 0.000664873 0.0180535 
0.00102656 -0.000712529 0.0214332 
0.000785338 -0.00385136 0.0224373 
0.0025907 0.00192577 0.0111917 
0.000510496 -0.00132476 0.0168562 
-0.000133757 -0.00744193 -0.00317792 
-0.000935396 -0.00284902 -0.00494319 
0.0131531 0.029018 0.0302087 
-0.00608807 -0.00351869 -0.00552245 
6.96641e-05 2.25462e-06 -3.20055e-05 
-0.000240689 0.00106829 0.00782021 
0.00023505 -2.24616e-05 0.00955429 
-4.815e-05 0.000687379 0.00732596 
-0.0011214 -0.00220224 0.0149115 
-0.000471246 -0.00321093 0.00727144 
0.00102778 -0.00630843 0.0167609 
-0.00208326 -0.00456282 0.00979398 
-0.000625916 -0.000330582 0.0205957 
-0.00530164 -0.00509824 0.0128883 
-0.00367424 0.0063176 0.0229564 
0.00286722 -0.00569901 0.0328433 
0.000149589 -0.00135345 -0.00208576 
0.000562566 0.00261095 0.00303068 
0.00182412 0.00333842 0.00274281 
-0.000331752 0.0021796 0.000658511 
-0.00264029 -0.00680736 0.00501695 
0.0110141 0.00676249 0.0222468 
0.00106342 0.00258788 0.012286 
0.00307489 -0.000315793 0.00219327 
0.00169191 -0.000230901 -0.000947424 
-0.00124698 -0.0021873 0.013136 
-0.00595049 0.000537756 0.0100805 
-0.00132495 0.000970177 0.00765182 
0.000927089 -0.00122876 -0.00338716 
-0.00192947 0.0105767 0.00907536 
0.00195922 -0.00488619 -0.00303975 
0.000412481 0.00609218 0.00704771 
-0.000203214 8.51266e-05 0.000690127 
-0.000440705 0.00213861 0.00343223 
-1.95719e-06 8.07728e-05 -0.000709475 
-6.30837e-05 0.00049891 0.00405673 
-0.00555973 -0.0018083 0.00316811 
-0.0068485 -0.000606373 0.0133108 
-0.0044431 -0.00281252 0.00400988 
-0.0169688 -0.00847661 0.0352687 
0.0215797 0.0022467 0 
0.0379285 0.004426 0 
-0.0138432 -0.00142487 0 
0.0269633 0.00534041 0.114616 
0.000191703 -0.000144831 0.0118372 
-0.000207008 0.000113829 0.00877227 
7.54756e-05 6.37032e-05 0.0105385 
0.00016176 -0.000174392 0.00760285 
-0.000849411 -0.000273881 0.0142145 
-0.00178889 -0.00239192 0.0173158 
-0.00339592 -0.000209598 0.0174101 
-0.00109516 -0.000546153 0.0166716 
-0.000186505 9.60479e-05 0.00976326 
5.56725e-05 0.000116283 0.0094177 
-5.74295e-05 -0.000273192 0.0132004 
-0.000226794 -0.000220453 0.00827705 
-0.000125501 -0.000213987 0.000340834 
7.70619e-05 -0.000114577 -7.64726e-05 
-0.0010162 0.00010548 0.00836684 
-0.000296427 -0.000104119 0.00832773 
0.00136626 0.00116309 0.0221858 
0.0010201 -0.00611665 0.021634 
0.00418353 -0.00180524 0.0198549 
0.00208285 0.00282404 0.0114423 
-0.0035042 0.00164335 0.00743414 
-0.00532484 3.98123e-05 0.00620149 
-0.00229845 0.00221067 0.00863135 
-0.00132016 0.00182662 -0.0025934 
-0.00403174 0.000188742 0.0212825 
-0.0111185 0.00131762 0.0277773 
-0.00477132 -0.000854157 0.00827946 
-0.00971591 -0.00171298 0.0076516 
-0.000807148 -0.000725055 0.0138392 
-1.53719e-05 -0.000234343 0.0129864 
3.41605e-05 0.000133501 0.00977778 
-0.000427811 -0.00097876 0.0167265 
-0.00563324 0.000328406 0.00613231 
-0.00691058 -0.00141012 0.0284563 
-0.00673287 0.00415534 0.00724782 
-0.00283048 -0.000281968 0.0157843 
8.00119e-05 -0.000149845 0 
0.000225567 0.000106599 0 
4.87078e-05 0.000167262 0 
-0.00075923 -0.00155446 0.000799713 
0.000454283 -0.000368474 -0.000842118 
-0.000104303 0.000935806 -0.000347277 
-0.00169231 0.00118391 0.00377215 
0.000675571 -0.000395951 0.00137584 
0.00124399 -0.000746192 0.00209117 
-0.00194366 0.00384786 0.00269528 
-0.000153749 0.0089775 0.00942351 
-0.00078734 0.00582294 0.00168226 
0.000433373 -3.96615e-05 0.0139608 
-0.000365978 0.00139313 0.00777763 
-0.000513558 0.000190739 0.00936231 
-0.000234504 0.00192908 0.0132783 
-1.99822e-06 -3.77338e-05 0.0107127 
0.000115105 5.78737e-05 0.00894871 
0.000365356 0.000335014 0.0134591 
0.00058601 3.61008e-05 0.0143493 
-0.000833918 0.000887167 0 
0.00275843 0.000937753 0 
0.00268156 -0.00181729 0 
-0.00774867 0.004404 0.00314573 
0.000642297 0.000191117 -0.000590705 
-0.00302414 0.000633464 0.00138843 
0.000989929 0.000203885 -6.53834e-05 
-0.00325143 0.00175381 0.00126222 
-5.88556e-05 0.00120147 0.016358 
-0.000619999 0.00167668 0.0170047 
0.00109186 0.00454735 0.0201808 
-9.39192e-05 0.000213473 0.0157085 
0.000520159 0.000215588 -0.000232405 
-0.000178038 1.41634e-05 -5.91542e-05 
-0.000369997 -0.000149079 0.0111853 
-0.000888858 -0.00102004 0.0115868 
0.00111537 0.000377087 0.0127095 
0.00202544 0.000166597 0.00610502 
0.00628362 0.00284551 0.0177346 
0.0048626 0.00276052 0.00223178 
-0.000593912 -0.000779671 0.0215154 
0.000467201 0.00402447 0.0106731 
-0.00833776 0.00571429 0.0299079 
-0.00200324 0.0025201 0.0108742 
0.000151474 0.000925882 0.0152037 
0.00168877 -0.000910383 0.0082456 
0.00164087 -0.000613261 0.0115623 
0.00203627 0.00104757 0.0174546 
0.000226183 -0.000119856 0.0109621 
4.45473e-05 2.1865e-05 0.0147486 
-0.000609328 -0.000280384 0.0143363 
-0.000359155 1.25899e-05 0.015566 
-5.8994e-05 3.87816e-05 0.000184902 
0.000259035 -0.000288316 0.0123127 
-0.000261662 4.26625e-05 0.00022167 
-1.35504e-05 0.000147583 0.00897185 
0.000545983 0.000398447 -0.000234229 
0.000825065 7.4641e-06 -0.00019927 
-0.00399254 -0.00269518 0.00955941 
-0.000604103 -8.49182e-05 0.0102353 
0.00444815 0.000950771 0.00938796 
0.00741888 0.00196325 0.00660313 
0.00343359 0.00203426 0.010116 
0.00871063 -0.00139715 0.0163099 
1.43243e-05 2.84158e-05 0.0162691 
0.000739367 -8.59946e-05 0.0155021 
0.000783915 -0.000149602 0.0169471 
0.000596141 0.000113267 0.0180878 
0.000214233 -0.000255675 0.0119928 
0.000694962 0.000345414 0.0155756 
0.000409934 -0.000631417 0.0102062 
-9.74413e-06 -0.000424345 0.00771402 
0.00074278 -0.0012026 0.00787148 
3.98005e-06 -0.00419666 0.0112702 
-0.000776811 -0.00478903 0.0184955 
0.00116461 -0.00163493 0.0042027 
8.98029e-06 -1.7239e-05 0.0102099 
0.000108546 -0.000291389 0.0111633 
0.000130583 7.36934e-05 0.00845296 
0.000127243 -0.000292178 0.0137378 
-0.00356531 -0.0015593 -0.00172499 
0.000105552 -0.00048723 -0.00177946 
0.00467878 0.00208854 0.00548867 
0.00559178 0.00231983 0.00553015 
-0.00295488 -0.000185188 0.0234348 
-0.000823483 -0.0010091 0.0149056 
-0.00788829 0.00019909 0.0235472 
0.000320489 -0.00369143 0.0201107 
-1.73499e-05 -7.55295e-05 0.0102652 
0.000153146 0.000178247 0.00940472 
0.00019646 0.000289915 0.0111044 
4.67431e-05 0.000273812 0.0146197 
0.000201717 0.000488305 0.0134017 
-0.000285344 0.00101478 0.0146708 
0.00194942 -0.000129049 0.0157971 
0.00116325 0.000861275 0.0171727 
-0.00152566 -0.00284121 0.013334 
0.00094773 -0.00822331 0.0205528 
-0.00235239 -0.00320233 0.0101379 
-0.00211797 -0.00453261 0.00914981 
-0.000381699 -0.000540552 -0.00071885 
-0.00129099 -0.0020828 -0.00123211 
-0.000211623 0.00025048 0.000150103 
-0.00165435 0.00540302 0.00373904 
0.00563445 -0.000978946 0.00912713 
0.000805844 0.00177586 0.00245149 
0.0055327 0.000516907 0.00351558 
-0.000855705 0.000110772 0.00102998 
5.10925e-05 0.000749815 0 
-0.00100999 0.000843732 0 
-0.00239559 -0.00206119 0 
0.00529479 0.00191785 0.000949547 
-0.00048535 -0.00346686 0.00940185 
-3.30628e-05 -0.00155077 0.00819041 
-0.00194075 0.000200235 0.011508 
0.00168467 -0.00187632 0.0143077 
0.00662592 0.00237425 0.00946334 
0.00364596 0.000613346 0.0196252 
0.00902097 0.00457846 0.0324822 
0.0108525 -0.00150216 0.0118823 
0.000101921 1.94016e-05 0.000169263 
0.00029057 -0.00045539 0.0123852 
-9.24391e-05 6.34746e-05 0.000100286 
9.77707e-05 0.000515061 0.00927625 
2.12871e-06 5.95798e-05 0.0167022 
0.000161711 0.000183211 0.0138705 
-0.000314139 -0.000587917 0.016424 
-0.000110703 -0.000872463 0.0173245 
-0.000738962 -0.000415188 0.0135761 
-0.00127182 -7.18525e-05 0.00789628 
-0.000574164 -0.000147978 0.00972385 
6.51785e-05 -8.08914e-05 0.00799075 
0.00013271 7.47477e-05 0.0103359 
1.95729e-05 -1.82291e-05 0.012077 
-2.38202e-05 -0.000357966 0.00885072 
-0.000213399 -0.000328299 0.0160235 
0.000101058 6.34978e-05 0.000272944 
7.60061e-06 3.65814e-05 -6.27518e-05 
-7.64141e-05 -2.50087e-05 0.00467284 
-0.000123156 0.000136012 0.00989524 
-0.020444 -0.0598138 0.0905892 
0.00258472 0.0251217 0.0453795 
-0.00933305 -0.00235697 0.00329306 
0.00938148 0.00651047 0.0370225 
-0.0104603 0.00983595 0.0359009 
-0.000618467 -0.000964782 0.00637883 
-0.00109497 0.00857729 0.0162015 
-0.0102513 0.00454438 -0.000442802 
0.000170231 -8.28667e-05 0.000318458 
-0.000387312 0.000103259 0.0120727 
0.000336272 0.000134282 0.000234439 
-0.000382535 -0.000213178 0.00875282 
-0.000302675 -0.000155936 0.0116375 
-0.00010254 -0.000164685 0.00929858 
0.000130937 2.69218e-05 0.00706574 
-0.000627598 -0.000114044 0.0143746 
-3.82961e-05 0.00728439 0.00984662 
-0.00207432 0.00426202 0.00263481 
0.000992906 0.000638611 0.00181094 
6.44788e-05 0.00440653 0.0116051 
-0.000739977 -6.87812e-05 0.0173092 
-0.00116367 -0.00262808 0.015331 
-0.000309367 -0.001756 0.0161164 
3.33388e-06 -0.00287721 0.0171766 
-0.00150784 0.00230525 0 
0.000927654 0.00626969 0 
0.000588449 -0.000518216 0 
-0.00723888 -0.0162197 0.00448126 
-0.00174404 -0.000477153 0.01696 
-0.00105172 0.000353592 0.0172177 
-0.00068711 -3.14146e-05 0.0171825 
-0.000485847 5.89568e-05 0.0179191 
-0.00790732 -0.02203 0 
-0.0334517 -0.0395195 0 
0.0251289 0.0164511 0 
0.0272691 -0.0236535 0.0826117 
0.00553624 -0.00213712 -0.00210053 
-0.0116274 0.00175582 0.0102923 
-0.00334095 0.00100118 -0.000539146 
-0.00597233 0.00476707 0.00741661 
-0.00578122 -0.00522667 0.0327228 
-0.00626933 -0.0184491 0.040611 
0.00618286 0.00842724 0.0291532 
-0.00476443 -0.00722897 0.0138239 
-0.000504687 0.00331462 0.0155365 
0.00262997 -0.000210032 0.0156156 
0.0009296 -0.00337219 0.0125941 
-0.00164401 -0.000458399 0.0163785 
0.000230164 -0.00138841 0.00711745 
-0.000962445 -0.000520178 0.00564199 
0.000273865 0.000272818 -0.000628238 
-0.00106328 -0.00111289 0.00255695 
-0.00052688 -0.000558564 -0.0033895 
0.00547744 0.00558559 0.0119754 
-0.000939411 -0.00044068 -0.000870123 
0.00131155 0.0040484 0.00435624 
-0.000817275 0.0010719 -5.99438e-05 
-0.000675956 0.000897679 6.3968e-06 
0.000835878 -0.00355987 0.000354175 
0.000545472 -0.00318813 0.000338477 
1.68142e-05 2.06614e-05 0.00636924 
-0.000166411 4.16322e-05 0.00870564 
-1.43931e-06 1.65022e-05 0.000197241 
8.60599e-05 -0.000124917 0.007777 
3.03164e-05 0.000103031 0.000734704 
-0.00209523 -0.000720233 0.0036763 
5.90066e-06 0.000191064 -0.000830608 
-0.00105388 -0.00016486 0.00537629 
0.00114049 0.00269023 0.0150397 
0.00315742 0.00116259 0.0149137 
0.000535635 0.00109299 0.0161106 
0.00208986 0.000659069 0.0154506 
0.000393033 -0.000215043 0.0116408 
0.000344736 -0.000206852 0.00882158 
-8.30991e-05 9.22473e-06 0.00809102 
0.000162256 -0.00040984 0.0137383 
-0.00139589 -0.00178517 0.00290452 
0.000752336 -0.00232975 0.00726405 
0.00100369 0.00164987 0.0023351 
-0.00153184 -0.000699368 0.00947207 
0.0658331 -0.00347315 0.0824142 
0.0358698 -0.00140687 0.0111973 
-0.0279718 0.00852843 0.0373972 
-0.024562 0.00703147 0.0558575 
0.00103184 -0.000420606 0.0153275 
-0.000168188 0.00078308 0.0149265 
0.0034866 0.000466401 0.0179554 
0.00116456 -7.64431e-05 0.015904 
0.000492628 -0.00147865 -0.00038821 
-0.000446907 0.00229817 0.00143614 
0.000690754 -0.000970416 0.000209596 
-0.000615031 0.00168798 -0.000275981 
-0.00345576 -0.000973556 0.00992603 
-0.00468982 -0.000311132 0.0199201 
-0.00513438 -0.0011397 0.0107827 
-0.00869647 -0.000936332 0.00899999 
-0.000432309 0.00034687 -0.000367397 
-0.000673138 -0.000524373 0.0100378 
0.00018648 0.000667979 0.000290977 
-0.000176173 -0.00420822 0.00566184 
0.000177471 0.000935835 0.0172954 
-0.000371344 0.0015261 0.0157995 
-0.000215477 0.00186839 0.0170148 
0.000227087 0.00215804 0.0169977 
0.000989111 -0.000329672 -0.000184125 
-0.00732367 0.00116791 0.0101242 
0.00106789 -0.00302139 0.0126609 
-0.0023237 -0.00116325 0.0072908 
-0.000338731 0.000164218 -0.000425887 
0.00440804 0.00105186 0.00235898 
0.000533113 0.00102564 -0.00109538 
0.00371893 0.00145369 0.00207362 
0.0257775 0.000392024 0.0232594 
-0.00338193 0.0036924 -0.00214035 
0.00441744 -0.00159177 0.0279995 
0.00454116 -0.00995309 0.021364 
0.000887482 -0.00134786 0.000963528 
-0.000893213 0.000372607 -0.000231505 
-0.000957885 -0.0021871 0.0076837 
5.00901e-05 -0.00438796 0.00407822 
0.00295978 -0.00559977 0.0196914 
0.00219631 -0.0196481 0.0501094 
0.00832505 0.00467847 0.014227 
0.00638788 -0.0105169 0.019677 
0.000668023 -0.000378283 0.0171988 
5.45639e-05 -0.000831045 0.0179283 
0.000562402 -0.000989257 0.0170649 
0.00053624 0.000143753 0.0180769 
-0.000455379 0.000555107 0.0116177 
-0.000526475 0.00093717 0.0134123 
-0.000353689 3.75573e-05 0.0119298 
-0.000697679 -5.62637e-05 0.0150561 
-8.5047e-05 1.94013e-05 0.0149749 
0.000603681 -0.000177793 0.0152521 
0.000649644 0.000222245 0.0174897 
0.000298373 0.000322624 0.0151 
0.000893099 0.000361256 0.0169319 
0.00154199 0.000516282 0.0166419 
0.0012186 -0.000503869 0.0169618 
0.000507438 2.7356e-05 0.018007 
8.48949e-05 -3.53802e-05 0.0159236 
0.000618112 0.000246086 0.0174716 
-4.47269e-05 -5.82735e-05 0.0150657 
0.000593374 -6.10302e-05 0.0150901 
0.000122477 -9.87936e-05 0.0105385 
7.29582e-05 0.000365171 0.0108066 
-4.95409e-06 5.62429e-05 0.012551 
-6.09318e-05 0.000226765 0.0144762 
-0.002915 0.000982295 0.00931839 
-0.00274035 -0.000787111 0.0146478 
-0.00174174 0.00110318 0.00754573 
-0.000170084 5.76105e-05 0.012268 
4.82773e-06 -5.93955e-05 0.000229522 
1.43078e-07 -1.76028e-06 2.29169e-05 
-6.27623e-07 7.72163e-06 -0.00011865 
7.19058e-05 6.56737e-05 0.00952722 
0.00428145 0.00794504 0.0140526 
-0.00427254 0.0187536 0.0657152 
0.0393652 0.0112786 0.0509703 
0.00644876 -0.0122587 -0.00972162 
-0.00025926 -0.000229098 0 
0.000205539 0.000983572 0 
0.000357509 -0.00036816 0 
-0.000881872 -0.00172084 0.000833867 
0.00199856 -0.0014057 -0.0019954 
-0.00378526 -0.00759008 0.0105531 
-0.000960762 0.00178044 -0.00456503 
0.00416077 -0.0132214 0.0138899 
-0.000452599 -0.00142676 -0.00134777 
-0.0018473 0.00138824 -0.00197607 
0.00280233 0.00110342 0.00439689 
0.0055182 -0.002063 0.00296746 
0.000259589 -0.000750974 -0.000565121 
-0.00218276 0.0027302 0.00247736 
-0.000546331 0.000813028 -0.000407807 
-0.00226272 0.00264967 0.00179366 
0.000140989 -0.00155521 0.000789688 
-0.00169714 0.00650924 0.00969631 
0.000182554 -0.00121003 -0.0033187 
0.0010871 0.00644572 0.0069271 
-0.000519897 0.000584157 0.0143019 
0.000319934 0.000962497 0.0157288 
-0.000677105 0.00224572 0.0172589 
-0.000929887 -0.000102644 0.0119177 
0.00725196 0.0242802 0.0181095 
0.00608403 0.0140882 0.0461623 
0.00603753 -0.00425016 -0.00652119 
0.00274707 0.00414464 -0.000131786 
5.46173e-05 5.36844e-05 0.0160319 
3.9229e-05 0.000622598 0.0151648 
-0.000232442 0.000507438 0.0169591 
-1.48922e-05 0.000422042 0.0144099 
0.000347051 0.000304494 0.012778 
0.000103797 8.47012e-05 0.00921874 
-9.28444e-05 -1.92295e-05 0.00972556 
0.000263345 2.50985e-05 0.0153263 
-4.33318e-05 1.35596e-05 0.000293518 
-0.000366076 0.000237223 0.00871457 
3.36934e-06 0.000122346 0.011154 
-0.000369648 -0.000137128 0.0094239 
8.48106e-06 0.000147087 0.000262266 
-0.000121241 0.000175459 0.00771397 
-0.000363019 0.000374897 0.0117548 
-0.000193728 0.000582963 0.00809567 
-0.00075273 -0.000557554 -0.000972957 
0.000260038 0.00042003 0.0115392 
-0.000702317 -9.3322e-05 0.0123595 
-0.00201345 -6.24963e-05 0.00800864 
-0.000650327 0.0089709 0 
0.00403557 -0.000479727 0 
0.000846565 -0.00157528 0 
-0.0196624 -0.0042692 0.00902991 
0.000158282 0.000156457 0 
2.7928e-06 0.000397792 0 
0.0002318 -4.72982e-05 0 
0.000392994 0.000960423 5.5288e-05 
0.00416801 -0.0111773 0 
-0.0112189 0.0132795 0 
-0.000166046 0.014056 0 
0.00172321 0.0258986 0.0270985 
0.00102862 -0.00107674 0.0163831 
-0.000805056 0.000680911 0.0100703 
-0.00158914 -0.00123283 0.0136762 
-0.000456838 0.00141062 0.0130389 
-0.000287532 0.00102977 0.0083293 
0.000535045 0.00102108 0.0181767 
0.000280074 0.000546993 0.013056 
-0.000630444 0.00053091 0.00729795 
7.54711e-05 0.000130876 0.000364197 
0.000747946 0.000134416 0.0105772 
0.000121945 0.000142456 0.00951819 
0.000437555 -6.3552e-05 0.00790512 
-8.76428e-05 -5.03036e-05 0.0162914 
-8.964e-05 6.05929e-05 0.0175363 
0.000806705 0.000287542 0.0170211 
0.000572328 5.18716e-05 0.0182724 
-0.00230503 0.00324455 0.00286593 
0.00326292 0.026514 0.0317267 
-0.00177383 0.00621921 0.00214349 
0.00126543 0.00140074 0.00891929 
-5.52311e-05 4.77915e-05 -0.000870268 
-0.000373182 0.000145595 0.000395046 
-0.000292783 0.000130812 -0.000276977 
-0.00195037 -0.00168011 0.00568489 
0.000219319 0.000127471 0 
-0.000609921 -2.41642e-05 0 
-0.000255217 0.000675901 0 
0.00287415 0.00195032 0.000290401 
-0.000931831 -0.000291876 0.0229918 
0.00199231 -0.00286026 0.0110335 
0.00269006 -0.000499821 0.0157952 
-0.0014661 -0.000255864 0.016019 
-0.000370065 -0.000581003 0.0164122 
-5.90255e-05 -0.000743963 0.0174737 
0.000110975 3.96638e-05 0.0137062 
0.00034385 -0.000470006 0.0140469 
0.00147826 0.000339733 0.0131395 
0.00105722 0.000503624 0.0196133 
-0.000783251 0.00138392 0.00901671 
0.000870402 0.00454863 0.020107 
0.00100593 -0.00124837 0.015766 
0.000943391 -0.00323367 0.0153255 
6.92534e-05 -0.00152595 0.0165665 
0.00108102 -0.000900373 0.0164697 
-0.00527615 -0.00129287 0.00830457 
-0.00646182 0.00232431 0.00960158 
-0.00184985 0.00261071 0.0117715 
-0.00274252 7.93161e-06 0.0155102 
-0.00145854 -0.00631144 0 
-0.00407442 0.000279421 0 
0.00524241 -0.00345137 0 
-0.0177675 0.00396547 0.00866088 
2.62212e-05 -2.54382e-06 -9.73503e-05 
-9.04258e-05 8.0248e-06 0.000121172 
9.83671e-05 -7.63516e-06 0.000182182 
0.000192853 -0.000134172 0.0123161 
-0.00140056 -0.000103068 0.0165563 
-0.000624477 -0.000206773 0.0173863 
-0.000789933 -0.000477913 0.0177932 
-0.000550037 -0.000119318 0.0181489 
0.00170833 0.00715009 -0.0140029 
0.00184845 0.00334529 0.0127938 
0.00136163 0.0207236 0.0130844 
-0.00609083 0.0149523 0.0536461 
-0.000617264 0.000230704 0.0112426 
0.000786731 0.00177138 0.0124838 
-4.83746e-05 0.00142889 0.0078363 
-0.000869544 0.000559023 0.0158177 
-0.00236083 0.000631246 0 
-0.00396931 -0.00052227 0 
-9.18861e-05 0.000326288 0 
0.00492022 -0.00134431 0.000272271 
-0.00322029 -0.00194549 0.00532412 
-0.00987133 -0.0169821 0.0352662 
0.00138771 -0.005236 0.00341125 
0.0023183 -0.00482697 0.0127936 
0.0006863 -0.00403781 0.0183522 
0.000870005 -0.000440462 0.0152736 
0.000540652 -0.00151982 0.0172103 
-9.56508e-05 -0.00253674 0.017123 
-2.05703e-05 -3.94515e-05 0.0189249 
6.41248e-05 0.000126852 0.0181427 
0.000129916 0.000682751 0.0173545 
0.000515262 2.9965e-05 0.0180722 
0.00361625 0.0162632 0.0244646 
-0.000458558 0.0061824 0.0129734 
-0.00238557 0.0061981 0.00494925 
0.00101291 0.0039393 0.0205882 
-0.00608631 -0.00609721 0 
-0.0010227 0.00416906 0 
-0.00287478 -0.00915496 0 
0.00310369 0.0358486 0.0109462 
-0.000388609 0.00285771 -0.00554836 
-0.00199803 -0.00337183 -0.00026798 
-0.00269491 -0.00846994 0.012509 
-0.000157282 -0.00451361 0.0072469 
-0.000121709 -9.89266e-06 0.000167196 
-5.21283e-06 -4.23705e-07 0.000171362 
3.43953e-05 2.79569e-06 -1.78038e-05 
7.83437e-05 -2.67001e-05 0.0123077 
-0.0001304 7.56888e-05 0.000297307 
9.46652e-05 -3.36116e-05 -0.00015804 
0.00113161 -7.93641e-05 0.0107953 
0.000600808 0.000235682 0.00788279 
0.00497731 -1.44916e-05 0.00969266 
0.00357802 0.00283246 0.00996923 
0.000371351 0.000227718 0.0120092 
0.00175229 0.000600179 0.0163863 
0.000542879 0.00174298 0.0121427 
-0.000579181 0.000200758 0.0113514 
0.00064378 0.000262822 0.00684294 
-0.00079118 0.000704827 0.0157065 
-0.00346083 -0.000593509 0.00714554 
-0.0184812 0.00029759 0.0320863 
-0.0113527 -0.000639574 0.0145921 
-0.00571234 -0.000688294 0.00312775 
-5.52266e-05 4.24165e-05 0.00029515 
0.000190116 -0.000131301 8.33675e-05 
-0.000151368 0.000104687 -5.54481e-05 
0.000393722 -0.000165127 0.00692672 
0.0168445 0.0114108 0.0589843 
0.00996832 0.00249414 -0.0097425 
0.0209985 0.0424692 0.0991708 
0.0115917 -0.0406929 0.0245056 
-0.00505087 0.0180111 0.0400457 
0.000600283 0.00560607 0.043852 
0.0113148 -0.00347949 0.0142029 
0.000961887 0.00577065 0.0215728 
0.0388654 -0.0421357 0.157521 
0.00681643 -0.0025413 -0.0368657 
0.0366655 -0.0101725 0.107498 
-0.0348443 0.050524 0.0177465 
-0.0035068 0.0124554 0.0264544 
0.00077707 0.0137333 0.0230355 
-0.00133338 0.00537667 0.00493066 
-0.000171628 0.0243318 0.0574149 
0.000120628 1.83055e-05 -0.000300497 
-0.000979251 -0.00110513 0.00169843 
0.000542267 -0.000229919 -0.000290539 
-0.000443295 -9.87908e-05 0.000731867 
-0.000532093 0.000625892 0 
0.000976155 0.000934823 0 
0.00246537 -0.000238517 0 
-0.0138333 -0.000227105 0.00319292 
-2.21912e-05 -5.69696e-06 -2.21882e-05 
-0.000219233 -5.76048e-05 7.74374e-05 
4.96179e-05 1.2976e-05 -3.75979e-06 
-0.000248192 0.000184091 0.00935479 
6.91309e-05 -5.8622e-05 0.000277398 
0.000156662 -2.82957e-05 0.00958133 
-1.86009e-05 -2.62236e-05 0.005535 
0.000364462 -0.000113336 0.0086888 
0.000905999 -0.000556437 0.0118145 
0.00121409 -0.000960002 0.00847847 
0.005245 -0.000643454 0.0145325 
0.00219021 0.00119415 0.0172734 
0.00753846 0.0426195 0.025631 
0.0182169 0.0052879 -0.0132256 
-0.00269757 0.00920642 0.0272083 
-0.021574 -0.00611268 0.100295 
-0.000307935 -0.00130542 -0.00109567 
0.00142711 0.00129664 0.012006 
0.00256475 -0.0031062 0.00683011 
0.000822065 0.000874159 0.00992565 
3.91955e-05 9.60932e-05 0.0109918 
-0.000129866 -0.000287338 0.0132623 
-0.000170768 -0.000364485 0.00830571 
-0.000252039 -0.000173561 0.0162064 
-0.00659124 -0.00359292 -0.00425299 
0.00613497 -0.0084583 0.00168866 
0.0149718 -0.00736578 0.0276519 
-0.00210816 0.00518179 -0.00416239 
-0.00013605 -8.46951e-05 0.010721 
0.00026734 -2.14077e-05 0.011834 
6.24847e-05 8.46141e-05 0.0150036 
0.000274369 0.000284272 0.0153144 
0.00158691 -6.56848e-05 -0.00589467 
-0.00114016 -0.00705098 0.00781328 
-0.00442198 -0.00710666 0.00655894 
0.00440401 -0.0173915 0.0205241 
-0.0362333 -0.0119887 0.0261104 
-0.00980789 0.0179617 0.0358753 
0.00913841 0.0201835 0.0211778 
-0.0149418 -0.0160173 0.00879477 
0.000515592 0.000367221 0.0115927 
0.000119243 0.000321253 0.0134863 
0.000170525 0.00086734 0.0168472 
8.68833e-05 0.000410321 0.0142344 
-0.000586342 0.0001631 -0.000558368 
0.00425392 0.00124354 0.00219543 
2.24158e-05 -0.000344925 -0.000532304 
0.00308312 0.00226992 0.001607 
-9.81065e-05 0.000206669 0.000396601 
-0.000177514 0.00101386 0.00793522 
-0.000108192 0.000584461 0.0114681 
-8.20723e-05 -2.64094e-05 0.00658738 
-0.000514438 -3.709e-05 0.00959904 
-0.00128369 -4.70845e-05 0.00733196 
5.8218e-05 2.51488e-05 0.000218074 
-1.63903e-05 -0.000250561 0.00839063 
-8.04796e-05 0.000564937 0.0116355 
-0.000138706 0.000108435 0.00779834 
-0.00025884 -1.81551e-05 0.000354808 
2.36522e-05 0.000261987 0.00689783 
0.013792 -0.00472867 0.0214718 
0.00303508 0.0031091 0.00372402 
0.0087832 0.00255205 0.0117933 
0.000843634 0.0066457 0.00112849 
-0.0013437 -0.00228298 0.013671 
-0.00518246 -0.0006844 0.0121966 
-0.00465962 -0.0013206 0.0171419 
-0.00224802 1.51129e-06 0.0144154 
2.74414e-05 4.4099e-05 0.0182858 
-0.000562037 -0.000632383 0.0176899 
-3.80393e-06 -0.00072757 0.0180028 
-6.98589e-05 -0.00103363 0.0172548 
0.00012731 -0.000274403 -2.57524e-05 
-0.00150492 0.000786253 0.0108944 
0.0001582 -7.5793e-05 -2.91133e-05 
-0.000538291 0.000382089 0.00943564 
0.00337577 0.00346176 -0.00961412 
-0.0034566 -0.00393167 -0.00179785 
-0.000667208 -0.00102335 0.00376557 
-0.0165208 -0.00793767 0.02319 
0.000858739 -0.00070664 0.00798205 
0.00204069 -0.000622584 0.00720093 
0.00691511 -0.00120798 0.0174513 
0.00285494 -0.00165508 0.000512036 
-0.000185883 -6.21762e-05 0.000141121 
0.000167506 0.000142084 0.011413 
1.24316e-05 5.06587e-07 0.000126067 
-0.000254265 -0.000164229 0.00965674 
0.0112594 -0.0035099 0.0310895 
0.00101267 0.00158419 0.00977677 
0.0143632 -0.0024926 0.023249 
0.0068941 -0.00138803 0.0195496 
1.21049e-05 -8.30081e-05 0.00728899 
7.65867e-05 -1.71985e-05 0.000261343 
2.56544e-05 3.777e-05 0.00554291 
0.000119912 -0.000295468 0.0100516 
2.50359e-06 9.65278e-06 0.000198438 
0.00123622 -0.000238094 0.0109522 
0.000138573 -5.45911e-06 -0.000233809 
0.000451648 -0.000219076 0.0088561 
1.38287e-05 -7.1463e-05 0.000259673 
0.000202836 -0.000359208 0.0101358 
-3.30977e-05 2.60512e-05 0.00704423 
0.00012116 -9.65706e-05 0.00747542 
-0.00105802 -0.00505937 0.0035154 
0.0100058 9.725e-07 0.0056943 
0.00317528 -0.000502978 0.0127521 
0.00350162 -0.00289454 0.00509517 
0.0023223 -0.0456191 0.180624 
-0.00840202 0.0121943 0.198277 
-0.0183348 0.019352 -0.0279768 
0.0243478 -0.0270327 -0.0176864 
-2.27129e-05 -2.6546e-05 0.00534593 
1.14394e-05 9.61514e-06 2.9884e-05 
-4.97599e-05 -3.44407e-05 7.82123e-05 
0.000235259 0.000128138 0.00714138 
0.000908021 0.000473456 0.0173799 
0.000587576 0.00121101 0.0161199 
0.00295368 0.000468 0.0149801 
0.00217286 0.000923859 0.0154316 
-0.00116658 4.37613e-05 0.0153962 
-0.000225911 -0.00190681 0.0122169 
0.000440024 -0.00200041 0.00882062 
-0.000922213 -0.00273895 0.0163208 
-0.000951438 -0.000165289 -0.00289545 
0.00387412 0.0012529 0.0021481 
-0.000346222 -0.000826319 -0.00254056 
-0.00274948 0.0132521 0.0179895 
-0.0216273 0.0079409 0.0176399 
-0.0133424 -0.0019729 0.0103361 
0.00443646 -0.00580682 -0.0177134 
-0.0198469 0.00519745 0.0559888 
3.91945e-05 7.8525e-06 0.0124548 
-9.87172e-05 0.000287151 0.0105847 
-4.57514e-05 -3.94558e-05 0.00953151 
7.29795e-06 0.000392241 0.0151413 
0.000596069 -8.53717e-06 -0.000531832 
-0.00149214 0.0013004 0.00168051 
0.000236731 -5.01401e-05 -0.000181508 
-0.00026034 0.000429282 0.000694005 
0.0355991 0.0056102 0.0180465 
0.00867753 0.0195421 -0.00580081 
0.0160868 -0.0133898 0.0726468 
0.0139118 -0.00208572 0.0231438 
-0.0122838 0.0156273 -0.0252764 
0.0316603 0.0193523 0.0421392 
0.0134894 0.00495194 0.014993 
0.00266855 0.00661862 0.0616275 
-0.00165002 0.000616998 -0.00828387 
-0.0070821 0.0188441 -0.00243924 
0.00790899 -0.00850094 0.0185247 
0.000750693 0.0195189 0.0362181 
-0.00110504 -0.0025688 -0.00077269 
0.0010518 0.00378411 0.00184664 
-0.000683021 -0.0014884 0.000306404 
0.00175736 0.00384584 0.00175862 
-1.01449e-05 5.7379e-06 0.0178965 
-3.78255e-05 -8.45214e-05 0.0184702 
-1.94563e-05 -5.1556e-06 0.017346 
2.95477e-05 0.000708456 0.0178323 
-0.00256663 -0.00719745 0.00496282 
-0.0015343 -0.0117609 0.0158818 
-0.000724096 -0.0216434 0.0391764 
0.00109646 -0.0085799 -0.00735475 
0.00271298 -0.0032055 0.0116638 
0.00245279 -0.00548424 0.0041723 
-0.00126381 -0.00977865 0.00784931 
0.00322444 -0.00218901 0.0125124 
-0.00324801 -0.00859901 0.0192423 
0.000997926 -0.00159869 0.00569549 
8.68263e-05 -0.00319444 0.008717 
0.00153667 -0.00141629 0.0157263 
-9.47048e-05 0.000529538 -0.000266097 
0.00108407 -0.000548928 0.0071352 
-8.43448e-05 -9.89987e-05 0.000317644 
0.000341591 -0.00067486 0.00385837 
0.00030359 -0.000237929 0.0124068 
0.000591608 0.000820391 0.0152511 
0.000977545 0.000463993 0.0174871 
0.000107734 0.000394674 0.0150717 
-0.00363748 0.00173546 0 
0.00290231 0.000854388 0 
-0.000992037 9.43533e-05 0 
-0.00723798 0.000506337 0.0043621 
-6.73853e-05 0.00105843 0.00758359 
0.000182261 0.000290501 0.00677672 
-0.000177141 0.000471503 0.0113971 
-0.000144395 8.74123e-06 0.00699302 
0.000827773 0.000472101 0.0168469 
0.000354018 0.00120567 0.0176955 
9.07578e-05 0.000187215 0.0156383 
6.39894e-05 0.00146436 0.0165662 
-0.0025752 -0.00377386 0 
-0.00269668 0.00156156 0 
0.00269995 -0.00206336 0 
0.0117501 -0.0093368 0.00347659 
0.00134752 0.00208606 0.0255915 
-0.000565113 -0.0145388 0.0323889 
0.000742285 -0.00539455 0.0204152 
-0.00130924 -0.00660874 0.0169744 
0.0011351 -0.000519559 0.00710218 
0.000145206 -3.95548e-05 0.00754161 
-0.000258549 7.51704e-06 0.000202298 
0.000500079 -0.000909144 0.00411483 
-0.00135666 0.000266567 0.0223892 
-0.00323195 0.00370818 0.0116541 
-0.00716681 0.000397015 0.0238823 
-0.00164806 -0.00124512 0.0158407 
0.0032097 0.00183063 0.0168851 
0.0027597 0.00261681 0.00995734 
0.00948077 0.000142773 0.00766018 
0.00771723 -0.000566093 0.016492 
-0.00338696 -0.0006822 -0.00397065 
-0.00485425 0.0113488 0.00731852 
-0.0121093 -7.85415e-05 0.0127725 
-0.0241979 -0.000259787 0.0352818 
0.000377664 -2.85905e-05 0 
0.000493079 0.000104143 0 
0.000176997 0.000254997 0 
-0.00342769 0.001962 0.000472592 
0.000560975 0.000775543 -0.00012915 
-0.000436015 -0.002034 0.00726687 
-0.000429593 -0.000788133 0.00168856 
-0.000680755 -0.00245106 0.00366361 
-1.05154e-05 2.03907e-05 -5.78723e-05 
-2.92652e-06 1.6015e-06 0.000108382 
5.74173e-06 -8.52712e-06 -4.80674e-05 
-0.000155181 0.000189818 0.00713562 
-0.0116554 0.00277379 0.0136163 
-0.0195213 -0.00877264 0.034358 
-0.00342124 -0.000968584 0.00238645 
-0.00713097 0.00164993 0.00224831 
0.00797002 0.0388355 0.0378487 
0.00604543 -0.00114514 0.0279092 
0.00219917 0.00947126 0.0043565 
0.00565938 -0.000595009 0.0343603 
3.8484e-05 9.52761e-05 0.00751163 
-1.1592e-05 -3.23898e-05 0.00561867 
0.000169405 -6.56381e-05 0.000284255 
5.011e-05 -0.000142598 0.0102041 
-0.00595081 -0.000573753 -0.00338322 
0.0206615 0.0115305 0.0376021 
0.00873267 0.00484839 0.0167058 
-0.00295017 -0.00567665 -0.0147414 
1.78035e-05 1.98798e-06 0.00564944 
0.000116992 -4.45459e-05 0.00948452 
-2.08584e-05 -1.74984e-05 0.00965615 
0.000327045 -0.000128051 0.00859867 
-0.00298639 0.00148929 0.00824931 
-0.00304365 0.00255482 0.0077615 
0.00154317 0.00490579 0.00422937 
-0.000629357 0.00144351 -0.00194577 
-6.8087e-05 0.000119862 8.04668e-05 
-0.000918286 -0.000146806 0.00932222 
-6.49273e-05 0.000306055 0.00855964 
-0.000725451 -0.000157267 0.00980534 
-0.0152679 0.0154304 0 
0.0215711 -0.0132586 0 
0.0319358 -0.0403664 0 
0.00936457 -0.00571497 0.10672 
-0.000213759 -0.000364086 0.000528865 
0.000381318 -0.000474987 -0.00122517 
-0.00186746 0.00147106 0.0028787 
-0.00120726 0.000632428 0.000970098 
-8.92428e-06 0.0118247 0.0152682 
-0.00346055 0.0144482 0.0210189 
-0.00067337 0.00218038 0.0218974 
0.00123767 0.000358578 0.0130862 
0.000121621 -0.00015297 0.00020072 
-0.000119214 -0.00131768 6.77737e-05 
0.00191868 0.00084951 0.0115648 
0.00271376 0.00380666 0.00588067 
8.89099e-06 -0.000102449 9.07824e-05 
-1.3951e-06 1.16527e-05 -3.99227e-05 
3.82494e-06 -3.5155e-05 9.08374e-05 
7.83089e-05 0.000214542 0.0123455 
0.0111654 0.0072786 0 
-0.00399733 -0.0119429 0 
0.0160882 0.0336005 0 
0.0129643 0.011243 0.0811259 
-9.73104e-06 -1.17511e-05 0.0178081 
3.50571e-05 1.51901e-05 0.0162791 
0.000799325 -9.13826e-05 0.0168809 
0.000442438 -1.01522e-05 0.0182531 
-0.000150368 0.000414898 0.00971404 
-0.000285496 0.000990675 0.00813223 
0.000213622 0.000364466 0.0134177 
0.000201181 2.33668e-05 0.0087889 
1.65853e-05 -0.000203134 9.69605e-05 
-1.3619e-05 0.000161577 2.72809e-05 
-2.49049e-06 2.64992e-05 6.73444e-05 
-0.000225792 -3.26733e-05 0.0110275 
2.71039e-05 -6.71715e-05 0.016062 
-8.86934e-06 3.91555e-05 0.0175231 
-6.05774e-05 -5.49809e-05 0.0150969 
0.000676645 0.000304355 0.0173169 
-0.00552938 -0.011211 -0.00341682 
0.0154083 -0.00207205 0.0120885 
0.0174427 0.00610775 0.0445297 
0.000517097 -0.000301439 -0.00508552 
-0.000548308 -0.000879288 0.0178891 
4.15341e-05 -0.000925364 0.0171604 
-0.000620165 -0.000291874 0.0166191 
-0.000159605 -0.00202796 0.0164463 
0.00078575 0.0032108 0.00493458 
0.00819595 0.00672379 0.00666337 
-0.00304532 0.00810752 0.0121735 
-0.00255186 0.018471 0.0266676 
-0.00358623 -0.00123735 0.00875374 
-0.0108898 0.000594286 0.0379228 
-0.0178761 -0.00390325 0.00576677 
-0.0229265 0.00296013 0.0620625 
-0.00135902 0.0121435 0.0364816 
-0.00752607 -0.0132368 -0.0110144 
-0.00122683 -0.00230739 -0.0318236 
0.0121308 0.0278132 0.0570458 
0.00340595 -0.010551 0.00877242 
0.00128181 -0.00854197 0.0166647 
-0.00773681 -0.0127052 0.0327801 
-0.00403977 -0.0101862 0.0142191 
0.000190178 2.87623e-05 0.000246776 
0.000281853 -0.000130384 0.00027581 
-0.000343038 -3.04948e-05 0.0111984 
-0.000433099 0.000235869 0.00872856 
-0.00320671 -0.000338416 0.0172728 
-0.00233831 -0.00226304 0.0162037 
-0.000357103 -0.000417684 0.0150366 
-0.000990532 0.000413522 0.0156394 
-0.000188175 -0.00203753 0.017466 
0.00134057 -0.00329098 0.0154103 
-0.000326837 -0.00143154 0.01658 
-0.000849921 -0.00291117 0.0177567 
0.00167974 0.00239919 0 
-0.000459947 -0.0031742 0 
-0.00231925 0.00140333 0 
-0.00488671 -0.00371232 0.0014284 
0.000162564 -0.000132421 -0.000187461 
-0.000862599 -0.00162771 0.0103912 
0.000702788 -0.00016719 0.000241783 
-0.00143775 -0.00187595 0.00624167 
-0.00956942 0.00439617 -0.0166515 
-0.00139393 -0.0100143 0.0055396 
-0.0131753 -0.0237414 0.0193312 
-0.00752022 -0.00533375 0.0527684 
-0.00171252 -0.00227707 -0.00130713 
-0.0045177 0.0206649 0.015931 
-0.00112746 0.00457682 6.08565e-05 
-0.00171203 0.00346262 0.00154121 
-0.00022618 -0.000287899 -0.000499245 
2.05113e-05 -0.000489147 -0.000573904 
-0.00103098 -0.00128927 -0.000860899 
-0.00142947 0.00379397 0.004035 
0.000740039 -0.00224657 -0.00159957 
1.87692e-06 0.00155162 0.000206106 
0.0008014 0.00487283 0.00322632 
-0.000728696 0.0049551 0.00456608 
8.30658e-05 -8.23088e-05 0.00945604 
-5.74509e-05 0.000315867 0.00871058 
-7.35741e-05 2.14101e-05 0.0129354 
-0.000180898 0.000293577 0.0152844 
-3.2209e-05 6.10741e-06 0.00565613 
-2.12579e-05 -2.50389e-05 9.63746e-05 
-5.61728e-06 2.45611e-05 0.00661078 
0.000151799 2.77209e-05 0.00961105 
0.000284966 0.000153425 -0.00136547 
-0.00198014 -2.75934e-05 0.00198132 
-0.00118192 -0.00130082 0.00288609 
-0.000323449 0.000183862 0.000752089 
0.00914497 -0.0254008 0.109773 
-0.0226974 -0.00869453 0.0543885 
-0.0143571 0.0209862 0.195306 
0.0077709 -0.0420225 -0.0624624 
0.00598012 0.00271445 0.0188728 
0.000995671 0.00113435 0.0177764 
-0.00117234 -0.000486288 0.012618 
0.000496809 0.00411771 0.0180131 
-0.00502416 -0.00526529 0.0115723 
0.00168986 0.00188492 0.01429 
-0.00433314 -0.000217544 0.0182535 
-0.00318761 0.00716229 0.0150135 
-6.96277e-05 0.00023943 -5.84264e-05 
0.000339588 -0.00106938 0.00771269 
-0.000135166 0.00011171 0.000492147 
-1.5213e-05 -0.00033505 0.00646159 
-0.000493566 -0.000912776 0.00249718 
-0.00712955 -0.0123216 0.0194873 
-0.000804991 0.00274614 -0.00382153 
-0.000565595 -0.00344997 0.00154159 
-0.000620884 0.000258709 0.0118499 
4.84809e-05 0.00116042 0.0082118 
8.95761e-05 0.000324177 -4.34087e-06 
-5.6542e-05 0.000678574 0.00815098 
-4.34731e-05 4.12691e-05 0.0156875 
-1.13708e-05 -2.19254e-05 0.0166433 
5.81609e-05 3.0011e-05 0.0138228 
-0.000234334 -0.000412495 0.0165099 
-0.0106159 0.0186316 0.169666 
-0.0192731 0.0138051 0.0374542 
0.0036217 -0.0324542 0.0506911 
0.00194046 -0.052116 -0.0261508 
-0.00154376 -2.9995e-05 0.0219573 
-0.00518487 -0.00108766 0.0163935 
-0.00162322 -0.00181037 0.0178387 
-0.00111489 -0.000609222 0.0166146 
0.00373273 -0.000301321 0.00920049 
0.00167976 -0.00338178 0.0140283 
0.000407579 0.000529629 0.0119623 
0.00097671 -0.00196733 0.00798737 
5.18712e-06 -0.000106658 3.51724e-05 
-4.27376e-05 0.000124258 0.0070113 
-7.39958e-05 -0.000184115 0.000235422 
6.52348e-05 -5.91682e-05 0.00939473 
0.000265685 -0.000575886 -0.00158949 
-0.00239939 0.000604159 0.001949 
-0.00206471 0.00272574 0.00253942 
-0.00287493 0.00250923 0.00243063 
0.000512164 0.000102377 0.0111219 
2.0671e-05 0.00073471 0.014827 
-1.60705e-05 0.000304385 0.0110593 
0.000285868 -0.000130959 0.00724211 
0.000124775 0.00111167 0.00232593 
-0.00193356 0.00392649 0.00326544 
-0.00192867 0.00223721 0.00802299 
0.000591695 0.00439021 0.0105447 
5.70046e-05 -2.66792e-05 0.010648 
5.64497e-05 -3.78355e-06 0.0115515 
-0.000140971 0.000241723 0.00877285 
-2.56613e-06 0.000125119 0.0156211 
5.92738e-05 2.74262e-05 0.0064273 
-4.77782e-06 0.0001484 0.000182526 
1.47649e-05 -8.31315e-05 0.00539552 
5.46591e-05 -0.000179712 0.00773788 
0.00509159 -0.000433746 0.0108158 
0.00609489 0.00265925 0.0032734 
0.00313563 0.000689869 -0.00407216 
0.0167281 -0.00264851 0.0155269 
-0.000157317 -0.00948292 0.0112761 
-0.00155821 -0.0125463 0.0278284 
-0.00187586 -0.00592643 0.0183767 
-0.000517149 -0.00564564 0.0158579 
-0.000329891 -0.000426478 0 
0.000249385 0.00275222 0 
0.000456594 0.00257401 0 
-0.00245645 -0.00479349 0.000835584 
-0.000247188 -0.00122864 0 
-0.000917777 0.000202618 0 
-0.000204599 -3.23009e-05 0 
-0.000996948 0.000835707 0.000556877 
0.000235434 0.00016609 -0.00107388 
-0.000299181 -0.000210649 0.000525539 
-2.03933e-05 -1.45297e-05 0.000383656 
-0.00103767 0.00035263 0.000986981 
-0.000184673 0.00012674 0.000354668 
0.00122683 -0.000446486 0.0112305 
-5.2701e-05 6.48428e-05 -7.62038e-05 
0.000544355 -0.000113773 0.00902181 
0.00523931 0.0092384 0 
-0.00244156 -0.00141901 0 
-0.00576967 -0.00232018 0 
0.0026231 0.0189966 0.0101799 
-0.00180694 0.000601134 0 
-0.00341855 0.00222206 0 
-0.00167697 0.000855499 0 
0.00675933 -0.00352866 -0.00130189 
-0.000265196 -0.000160386 0 
-0.00031756 0.000368625 0 
0.000530396 0.000476125 0 
-0.000613102 0.000866763 0.000523716 
0.0143731 -0.00113058 0.0369163 
0.0142905 -0.00259992 0.0230667 
0.0142831 -0.000927051 -0.00328824 
0.00589892 -0.000778596 0.0189077 
-0.000314147 0.000583381 0.0113083 
-0.000695294 0.00117587 0.0139688 
-0.000602815 -0.000166503 0.0147597 
-0.000860591 0.000359875 0.0152193 
0.00153605 -0.000591522 0.00901991 
0.01336 -1.41188e-05 0.0495285 
0.00240783 0.0113651 0.0168054 
0.00449758 0.00473174 0.00287296 
-0.000124582 0.00071845 -0.000535959 
-0.00110577 0.0019826 -0.00132271 
-0.000418519 0.000493255 -0.000808584 
0.00299389 -0.00304351 0.00226768 
-4.41494e-05 3.76869e-05 0.00551706 
-3.46054e-05 -2.66079e-05 0.000301606 
-7.10693e-05 -0.000249805 0.00902153 
-0.000108226 -0.000425168 0.00924708 
0.00348533 0.000277217 0.0197769 
0.0116198 0.000359717 0.011243 
0.00392954 -0.000882904 0.012804 
0.00129313 -0.00232896 0.0105152 
-0.00159008 -0.0040929 0.00687319 
-0.000884581 -0.00100036 -0.000977895 
-0.000382303 -0.00148887 0.00977852 
5.35002e-05 -0.00282966 0.00492073 
0.00014674 0.000427822 0.0131566 
0.000248867 3.60837e-05 0.00906079 
-0.000248697 0.00101286 0.00836037 
-0.000144447 0.000563932 0.00740066 
2.60635e-05 2.26531e-05 0.0127116 
0.0005909 -0.000155582 0.0151085 
0.000334859 -0.00016775 0.0104859 
0.000576022 -0.000112127 0.0143061 
-0.000367842 0.00051189 -0.000639191 
0.000617766 0.000363422 -2.86207e-05 
0.000614758 -0.000339804 -8.29643e-06 
0.00131549 -0.00101238 0.00190838 
-0.00110068 0.000535149 0.0173969 
-0.0020661 0.000203995 0.0143875 
-0.00332309 0.000323988 0.0157355 
-0.000746271 0.00189437 0.0146008 
-9.48147e-06 6.73959e-05 0.0125823 
6.77631e-05 -1.32767e-05 0.0107645 
1.68661e-05 -5.17734e-05 0.00691968 
-2.65594e-05 0.000246591 0.0103685 
-8.66967e-05 2.69132e-05 -0.000166343 
-0.00103906 -4.81102e-06 0.00924227 
0.000169018 9.27284e-05 6.927e-05 
-0.000986572 -0.000234237 0.00988907 
-0.000952761 -0.00759937 0.00896711 
0.00263656 0.000623143 -0.000446299 
-4.76613e-06 0.000391969 0.00195916 
-0.00115553 -0.00638984 0.0119129 
0.000553632 0.000155075 9.68392e-06 
0.000526314 -0.00029813 -0.00044279 
-0.000316979 -0.000275029 -0.000134363 
-0.000916903 6.41745e-05 0.000436081 
0.00659905 -0.00121682 0.0316259 
0.00558567 0.00749784 0.0383929 
0.00602381 -0.00139313 0.014205 
0.0124445 -0.00284491 0.00819767 
-0.000252676 0.000150226 0.000456344 
0.000119308 0.000352646 0.00664368 
-1.67414e-05 0.000944139 0.00739573 
-0.000171703 8.08002e-05 0.00714215 
-0.000870587 0.00105309 -0.00125276 
0.00306404 -0.00291344 0.00642725 
0.0033631 -0.00551668 0.00810492 
-0.000125992 0.000282361 0.0107442 
-0.0024747 0.00332498 0.00977531 
-0.00714433 0.00503545 0.0062064 
-0.008015 0.000789896 0.0259679 
-0.0023773 -0.00146937 0.0173437 
-4.01788e-05 -7.41101e-06 0.00727503 
-3.22013e-05 2.35395e-06 0.005714 
3.14279e-05 -1.08736e-05 0.00995804 
0.000259078 -0.000211027 0.00964124 
0.000416667 -0.000425979 0 
-3.86518e-05 -0.000720452 0 
-2.60101e-05 -0.000280181 0 
-0.00130534 0.00236831 0.000134673 
-0.00291942 -0.00228262 -0.00281738 
0.00341531 0.00208061 0.00343341 
-0.000465014 -0.000923129 -0.00208393 
0.00400255 0.00249052 0.00244309 
-0.0204518 0.0259587 0 
-0.0220495 0.0473554 0 
0.0084139 -0.0156947 0 
0.00227354 -0.0119722 0.123515 
-9.1482e-05 3.85499e-05 0.00964871 
0.000463143 -0.00024666 0.00877521 
0.000107783 -3.77676e-05 0.00949167 
0.000234009 -0.000338048 0.0138896 
-0.00201628 -0.00472575 0.00629002 
-0.00112005 -0.0102056 0.00949757 
0.000715024 -0.0072003 0.0243259 
0.00437253 -0.0136615 0.0185294 
-0.000668308 0.00815085 0.00972707 
0.00159312 0.00086825 0.00172126 
0.00183619 0.00555328 0.0036099 
0.00304904 0.00275947 0.0103953 
9.36309e-05 0.000446697 6.57991e-05 
0.00184616 -0.00473276 0.00417999 
-0.000963113 -0.00211983 -0.000335272 
0.000526094 -0.00324885 0.000302011 
-8.91464e-05 2.32587e-05 0.0139066 
-0.000163628 -0.00112881 0.00891126 
-0.000240455 -0.000306793 0.00895412 
0.000378563 -0.000168781 0.00774959 
-0.000157839 0.000168919 0.00791199 
-0.000212669 0.000298139 0.0153534 
-1.00684e-05 -2.50307e-05 0.0099469 
-0.000150726 1.91104e-05 0.00702522 
-2.73756e-05 2.23328e-06 5.59458e-05 
-4.60695e-06 3.75831e-07 0.00013644 
-7.70938e-05 6.28925e-06 0.000107747 
6.28794e-05 3.33585e-06 0.0114097 
0.00016894 5.45359e-05 -0.000449228 
0.000783627 0.000862763 0.0017373 
-0.000149113 -0.000240926 -0.000333604 
0.000627321 -0.00041368 0.0011637 
0.00478441 0.00326803 0 
-0.0066149 -0.00564267 0 
-0.00468887 -0.000663414 0 
-0.0301947 -0.0126866 0.0170275 
-8.80146e-05 0.000128642 -4.01457e-05 
-5.44356e-06 8.00492e-06 3.8488e-06 
-6.81513e-05 0.000103151 0.000430299 
0.000358459 -0.00115064 0.00769618 
0.00257125 0.00158989 0.0035088 
-0.000404577 -0.000360984 -0.00210237 
0.00402503 0.00148507 0.00246629 
-0.000194963 0.000525597 0.00438673 
0.00130793 -0.00380606 0.00941409 
-3.65243e-06 -0.00194318 0.00552474 
-1.77436e-05 -0.00146667 0.00925039 
0.00065188 -0.000910878 0.00342623 
0.00554011 0.00709019 0.0385333 
0.0159944 -0.00989392 0.00907162 
0.00547163 0.00160517 0.0311708 
0.000157061 0.0169163 0.058397 
0.000618662 -0.00352832 0.0219697 
0.00453971 0.0044045 0.0222565 
0.000422009 -0.000314593 0.0370734 
0.0001453 0.00687393 0.0227181 
0.0250567 -0.0537315 0.062642 
-0.0088231 -0.0163625 0.0366303 
-0.0120689 0.0181434 0.0432856 
-0.0222538 -0.0190694 0.012886 
-5.20493e-05 3.53087e-05 8.6379e-05 
3.07889e-05 -3.88122e-05 0.00675903 
-2.52106e-06 -4.43005e-05 -6.8012e-06 
5.64599e-05 9.57467e-05 0.0112007 
-0.00125848 0.00424552 -0.000202153 
-0.0011002 -0.00144701 0.00294243 
-0.0209546 -0.0161591 0.0218866 
-0.0092077 0.00947337 0.00609305 
0.00507928 -0.00032359 0.00931522 
0.00278718 -0.0016829 0.0116466 
0.00902023 -3.38472e-05 0.00974834 
0.00777263 0.000670065 0.0168473 
0.000756116 0.000159197 0.0174654 
0.000648686 -0.00016745 0.0152343 
0.000553935 0.000194272 0.012405 
0.000192519 0.000322281 0.0151369 
-0.000822038 0.000558311 0.0168563 
-2.3179e-05 8.21025e-05 0.0181298 
0.000137045 0.00104885 0.0175471 
-0.00054087 -0.000129622 0.0180287 
0.000620219 0.00821199 -0.009873 
-0.00491753 -0.036056 0.0498386 
-0.00168848 0.00468894 -0.00425659 
0.000485816 -0.00545306 -0.00216679 
0.000692703 -0.000785536 0.0180524 
0.00281986 -0.00271165 0.01284 
-0.00167467 -0.00582026 0.0160459 
0.00340713 -0.00324615 0.0111057 
-0.000160522 -2.4282e-05 0.00028631 
-0.000227212 -0.00029113 0.00899636 
-0.000120234 -0.00101809 0.00872756 
0.000293905 -0.000302988 0.00766441 
-0.000142284 0.000738895 0.0142816 
-0.000149946 0.000418189 0.0152169 
0.000218448 0.000395526 0.0152302 
-0.000142549 0.00134911 0.0171721 
-0.000238195 9.65054e-05 0.00957002 
-0.000553869 0.00151111 0.00735709 
0.000216832 -0.000113429 -0.000125014 
-0.000585574 0.000617317 0.00485371 
0.000324674 -0.000306865 -0.000367264 
-0.00166754 0.00180509 0.00142413 
-0.000234011 0.000119137 -0.000353804 
-0.000191638 0.000232924 0.00090639 
-0.00408326 -0.00339021 0.01067 
-0.00425314 -0.000851693 0.0116066 
-0.00555813 0.000234882 0.0186091 
-0.00206935 -0.00430795 0.00840561 
-0.00119008 -0.00274155 0.0137948 
-0.00335165 -0.00370556 0.0114062 
-0.00573613 0.00027547 0.0184918 
-0.0016672 -0.00429946 0.0084992 
0.00108948 3.55594e-06 0.00733859 
0.00284053 -0.00153359 0.00256625 
-0.00156033 0.00205579 -0.000791537 
0.0043805 -0.00281791 0.00517662 
-0.00403155 0.0387408 0.024454 
-0.00258515 0.0105543 0.0210134 
-0.0154433 0.00117046 -0.0147191 
0.0161544 -0.000273448 0.101154 
0.000328593 0.0019423 0.0116047 
-0.000320438 8.70808e-05 0.0119559 
-0.000140086 0.00152254 0.00740043 
0.000440705 -7.87807e-05 0.00652122 
0.0596639 -0.0032526 0.0759503 
-0.0226292 0.00470054 0.0268701 
0.0311444 -0.00103103 0.00138237 
-0.0152486 0.00662115 0.0674348 
0.000135339 8.70056e-05 4.48078e-05 
-0.00055634 0.000664289 0.00237861 
0.000821185 7.18934e-05 -0.000187039 
-0.000722992 0.000622248 0.000953415 
0.00151067 -0.0006916 0.000349641 
-0.00272069 0.000720085 0.00996763 
0.00118382 -0.000454326 -0.000676075 
-0.00532663 0.00296121 0.00503938 
0.00891571 -0.00245291 -0.00597731 
-0.012462 0.0108169 0.0275071 
-0.0206759 0.0119717 0.0551174 
-0.00267928 0.000817011 -0.0152041 
1.79671e-05 -7.2218e-08 0.018173 
-0.000495094 -0.000596628 0.0178366 
9.56022e-05 7.62065e-05 0.0188031 
-3.29669e-05 -0.000677978 0.0180922 
-2.63305e-05 -2.60694e-05 -1.11858e-05 
-1.18144e-05 -1.14969e-05 -1.97844e-05 
1.88542e-05 1.54829e-05 0.000242648 
5.51689e-05 0.000103307 0.00962467 
-0.00511247 -0.000432084 -0.0042075 
-0.00883123 0.00294242 -0.017265 
-0.00203602 -0.0124039 0.0281373 
-0.00549795 -0.0147389 0.0554021 
8.59856e-05 -0.000227101 0.000829046 
-0.000117984 0.000108761 -0.000542735 
-0.000852412 0.00252886 0.00335852 
-0.000229811 0.00152793 0.00382888 
-0.00283132 -0.00428037 0.0126974 
-0.00244354 -0.00300938 0.015142 
-0.0046147 0.000850121 0.0163827 
0.000427368 -0.00119324 0.0160494 
4.79202e-05 4.03894e-07 0.0101008 
0.000254279 -0.000263948 0.009795 
0.000122496 -3.3212e-05 0.01257 
8.47067e-05 -5.29378e-05 0.00762153 
0.000272738 0.000187613 0 
-6.38607e-05 -0.000353494 0 
8.57024e-05 -8.29902e-05 0 
0.000459713 0.000733601 0.000373511 
0.000323932 0.000286453 -0.000363833 
0.000364331 -3.50217e-05 0.000212096 
-0.0010785 -0.000263671 0.00493261 
-0.00102898 -0.00104827 0.00239258 
-0.000123264 -0.000113066 0.015084 
0.000748739 0.000410601 0.0171842 
3.29126e-05 4.69946e-05 0.0176472 
0.000260879 0.000333636 0.0152276 
0.000426962 0.000536924 0.013 
-0.000254333 0.000123141 0.00987617 
1.48903e-05 0.00017411 0.00921377 
0.00046394 -0.000191499 0.0153272 
0.000690531 -0.000127924 -0.0001384 
0.000984687 0.000840109 -0.00144203 
-0.00333258 -0.00573645 0.00813385 
5.83419e-05 0.001424 -0.000132878 
0.00297811 -0.00295798 0.00251979 
0.005253 -0.00803942 0.00672858 
-0.00119963 -0.0373302 0.030629 
0.000678875 0.000483096 -0.00193869 
-6.48204e-05 9.01503e-06 -0.000458258 
-3.64631e-05 8.05025e-06 -0.000194307 
-3.01348e-05 2.51099e-05 0.000232673 
-0.00152238 6.66777e-05 0.00852174 
5.808e-06 -4.48339e-05 0.00020665 
-0.000151461 7.02734e-05 0.00869287 
-1.6435e-05 -2.12778e-05 6.67333e-05 
3.31407e-05 -5.12495e-05 0.00778591 
-5.21578e-05 -2.91244e-05 0.0115929 
2.20142e-05 -0.00093276 0.0117934 
0.000865289 -0.000276655 0.0168143 
0.00062223 4.66281e-05 0.0140232 
0.00768108 -0.0868422 0.147717 
9.31003e-05 0.0160718 0.187227 
0.0020679 -0.054454 0.0686798 
0.00185309 0.0283032 -0.100099 
-0.000102638 2.18912e-05 0.00988549 
-4.58566e-05 -0.000359241 0.0132143 
-0.000767216 -0.00052502 0.0134665 
-0.000338105 4.16924e-05 0.00812125 
-0.000472382 0.000664783 -0.000279232 
-0.000558322 0.000123697 -0.000407912 
0.00169521 -0.000664608 0.011284 
0.00281635 -0.00193779 0.00605216 
5.15774e-06 2.23087e-05 0.000266614 
-0.000909887 0.000185938 0.00907638 
-0.000336372 9.9311e-05 0.00879096 
-9.25216e-05 0.000151879 0.00863783 
0.00385874 -0.000654688 0.00103107 
0.000777177 -0.00788082 0.00326454 
0.00648647 0.00235166 -0.00602298 
-0.00360927 -0.0199083 0.0243736 
0.00368482 0.000796841 0.0205958 
0.00110663 -0.000349562 0.0145944 
-0.000477947 0.00136228 0.0141385 
0.00147567 0.000714673 0.0177663 
4.5841e-05 5.47575e-05 0.0135979 
3.40997e-05 -0.000715241 0.0176185 
-7.00914e-05 -1.11688e-05 0.0166639 
0.000167432 -0.000580217 0.0137839 
3.63355e-05 -0.000238182 0.0131375 
-2.92346e-05 0.00013811 0.0093028 
-0.000228285 1.7051e-05 0.00999486 
0.000421433 -5.31476e-05 0.0151803 
-0.000547218 0.000573756 0.0118974 
0.000116463 0.000186868 0.00799006 
-0.000288789 0.000155681 0.0116228 
-0.000773458 -8.33269e-05 0.0151307 
-0.0012835 0.000740314 0.0129583 
-0.00114846 0.00323894 0.0180786 
0.000659787 0.000814505 0.0154062 
-0.00127528 -0.000827029 0.0118323 
0.00633038 -0.00757934 0 
0.00474872 -0.00542805 0 
-0.00147932 0.0252435 0 
-0.00693744 0.0252479 0.0497469 
0.00205152 -0.00464969 0 
0.00473778 0.000769844 0 
-0.00520117 0.000813263 0 
-0.00785751 0.000976787 -0.00192175 
-0.000487635 -0.000875536 0 
0.000287485 -0.00129241 0 
0.000542041 -0.00262465 0 
0.00216031 0.00373854 -0.00320663 
-0.00300626 -0.00459803 0.012089 
0.00167516 -0.00604904 0.0179988 
-0.00221764 -0.00291724 0.0145347 
0.000445218 -0.000943475 0.0170634 
0.000141924 -4.81058e-05 0.0163064 
-0.00305147 0.00396784 0.0120604 
0.00140594 0.00458824 0.0162355 
-0.00341716 0.00275027 0.0138084 
-0.00222795 -0.00713772 0.0226964 
-0.00365115 -0.00371898 0.000867725 
-0.0044145 -0.00250743 0.00147098 
-0.0121476 -0.00940748 0.0351844 
-2.12284e-05 -7.06439e-05 0.0164536 
6.31995e-05 -0.00086771 0.0181525 
-4.26978e-05 -0.000822818 0.0160576 
4.23012e-06 -0.000867047 0.0171917 
0.000920006 -0.00106904 0.0167118 
0.00508779 0.00204857 0.0180786 
0.00225527 -0.00200744 0.0139318 
0.00364466 -0.00354241 0.0114178 
0.0013358 -0.00071415 0.00167403 
-0.000333693 0.00932816 0.00986693 
0.00145652 0.0049212 0.00338851 
-0.000706276 0.00525125 0.00185689 
-0.0031125 0.000991775 0.0122029 
-0.00643337 0.00264144 0.00886134 
-0.00402954 0.000186214 0.0081892 
-0.000880958 -7.60693e-05 0.00584852 
-0.00182153 -0.00234032 0 
0.000545135 0.000895386 0 
-0.000888097 -0.00284791 0 
0.00312213 0.00792826 0.000189841 
0.00465331 0.00120415 0.0101642 
0.00374147 0.0011527 0.0170478 
0.0133539 -0.002388 0.019387 
0.00209707 -0.00277455 0.0166273 
-0.00045382 -0.000896743 0.0177683 
-0.00194455 -0.000218334 0.0150068 
-0.00101707 0.000784921 0.0168962 
-0.000522687 -1.75837e-05 0.0162744 
-0.0032976 0.000753266 0.0225613 
-0.00345852 0.00347378 0.0116751 
-0.0020381 -0.00233475 0.0158793 
-0.000351286 -0.00393034 0.0202168 
-3.7405e-05 5.26551e-05 6.64524e-05 
1.35609e-06 -2.99804e-06 -2.71024e-05 
6.44318e-06 -7.56656e-06 2.26434e-05 
-0.000107494 0.00017685 0.0070292 
-0.00362282 -0.04704 0.177964 
-0.00857232 -0.0209535 0.0445087 
0.0110172 0.0115824 0.212597 
0.0358955 -0.0296148 -0.067893 
-0.000116434 -4.87326e-05 0.000307236 
4.83626e-05 -0.000863444 0.00861659 
-6.6452e-05 8.72759e-06 -0.000306569 
0.0001906 -0.000296185 0.00765423 
9.21827e-05 -0.000316495 0 
-0.000183785 -5.30222e-05 0 
-0.000395001 -5.4816e-05 0 
0.00120994 1.31533e-05 0.000287815 
-0.00072108 0.000558702 0 
2.54135e-05 0.000115527 0 
-0.000850486 -0.000929686 0 
0.000693621 -0.00204617 0.000600768 
-0.000876072 0.00391802 0.0183137 
7.14257e-05 0.00910354 0.0229413 
-0.00515602 0.0057894 0.00297709 
5.08971e-05 0.00193876 0.0132105 
5.62469e-06 8.5868e-06 6.29897e-05 
-4.95734e-06 -7.59567e-06 -5.51285e-05 
-2.14331e-05 -7.16818e-05 0.000305951 
0.000109154 0.000322963 0.00984234 
-0.0013579 0.00147973 0.0231407 
-0.00200143 0.0153973 0.0256738 
0.00131829 0.0132365 0.0121425 
0.000650861 0.00658712 0.0225246 
0.000366894 -0.0027509 0.00754269 
-0.00196108 -0.00444775 0.00936998 
-0.00165172 -0.00252649 0.0150602 
-0.0016597 -0.000666913 0.0091911 
-0.00546932 -0.00331331 -0.0060103 
0.00539513 0.00731667 0.00101018 
-0.00821209 -0.0021282 -0.00335487 
0.0117515 0.026536 0.0404202 
0.0161447 -0.00241187 -0.0147831 
-0.0410297 -0.00673717 0.0630171 
-0.0161951 -0.00490879 0.0199614 
-0.00495149 0.00342586 -0.0147174 
0.0031856 -0.00891169 0 
-0.00727524 0.0067039 0 
0.00633018 -0.00152036 0 
0.0156512 -0.0271662 0.023888 
-3.84972e-05 0.000134416 0.0110078 
-8.70104e-06 4.53234e-06 0.0144978 
-7.86264e-05 -0.000249317 0.0133116 
-0.000137486 -0.000362025 0.0160581 
-0.00180824 0.000447273 -0.00179471 
-0.00114209 -0.00151494 0.000252039 
0.000408698 0.00022219 -0.00180211 
0.00405166 -0.00977517 0.0111393 
0.000196436 -0.00138388 0.00857158 
-2.95345e-05 -0.0041675 0.0170986 
0.000370635 -0.00110662 0.0124518 
0.000775381 -0.00222516 0.0052437 
-5.85177e-05 7.3647e-06 0.00554328 
9.43412e-06 -5.82801e-05 -3.87744e-05 
5.08611e-06 3.52709e-05 0.000161269 
0.00013042 -0.000264743 0.0105324 
-0.00158886 0.000120754 0.017053 
-0.00110206 -0.000178463 0.0157111 
-0.00026374 -4.62282e-05 0.0121568 
-0.000494432 -0.000216895 0.0141316 
0.000292531 -0.00295079 0 
-0.00564113 0.000450948 0 
-0.00194795 0.00113437 0 
0.0221918 -0.00573104 0.00721437 
0.0553284 0.0238612 0.0929651 
0.00673996 0.00982502 0.0170109 
-0.0205504 0.00458882 0.0181831 
-0.0234497 0.00401223 0.0379765 
-0.00163183 -0.000376177 -0.00161561 
-0.000301368 0.000385673 0.000174825 
0.00128049 0.000873801 -0.000374438 
0.00200078 0.00146004 0.00445173 
-1.79698e-05 1.20612e-06 -1.90103e-05 
-6.78815e-05 6.12363e-06 0.000106839 
-2.25301e-05 2.06318e-06 3.89621e-05 
0.000295029 4.75807e-05 0.0121099 
-0.00576604 -0.00760038 0.0155093 
-0.00228712 -0.00366475 0.00245201 
0.000128555 -0.00320602 0.00280824 
-0.00334403 -0.00187402 0.00836179 
0.0539124 -0.0259013 0 
-0.024606 0.020687 0 
0.0436955 -0.0212043 0 
-0.0232363 0.0315454 0.14209 
0.000722369 -0.000927546 -0.000566907 
0.000459783 0.000214936 -0.000271417 
0.000817893 -0.000316679 -0.00104379 
-0.00543209 0.00180833 0.00450441 
-0.00101079 0.00187691 0 
-0.000336608 -0.00284255 0 
-0.000343143 0.00285171 0 
-0.00728261 0.00133986 0.00253411 
-0.000498836 -0.00144665 0.00262372 
0.000677842 -0.00117233 0.00133349 
0.000182271 4.48191e-05 -0.000983859 
-0.000432062 0.000162191 0.000754095 
0.000584998 -0.00264188 0.0158515 
-0.000230286 -0.00219867 0.0173057 
0.000153842 -0.00169699 0.0164375 
0.00116779 -0.00110582 0.0163327 
-7.07468e-06 -2.87098e-05 0.0162975 
-2.89921e-05 -0.000789784 0.0159012 
4.58569e-05 -0.000883497 0.0183685 
2.47396e-05 -0.000541123 0.0159412 
0.000375495 -0.000169881 0.0100035 
0.000739149 -0.000628618 0.016405 
-0.000155563 -0.00128963 0.0113885 
0.000766368 0.000408616 0.0144412 
0.0291974 -0.0724802 0.19659 
-0.0596884 0.0462752 0.109401 
-0.0147503 0.00137653 0.157214 
0.0367758 -0.0164695 0.0396389 
0.000611292 -7.68194e-06 0.00980935 
-0.000302293 -0.00139282 0.0115217 
0.000919355 -0.000519056 0.0163351 
0.000606684 -0.00144917 0.0152541 
-0.00241027 -0.00215877 0 
0.0072875 -0.0105504 0 
-0.00569191 0.00390231 0 
-0.00833682 0.00292273 -0.00152043 
0.000183713 -0.000532809 -0.00124212 
0.00132639 -0.0011829 -0.00189167 
-0.00238493 0.00195471 0.0029447 
-0.00104823 0.000782078 0.00100166 
-0.0015547 -0.00227131 0.014179 
-0.00219468 -0.000306014 0.0141433 
-0.000458511 -0.000488962 0.0187263 
0.000175031 -0.00182023 0.0161842 
-0.00539303 0.000326342 0.0166931 
-0.00280449 0.00038562 0.0141665 
-0.00252427 0.00166224 0.00865103 
-0.00311325 0.00187213 0.0131152 
-0.00177072 0.00313743 -0.00662525 
-0.00537726 -0.00278801 0.00315746 
0.00434325 -0.000854035 -0.0110792 
-0.0267729 -0.0167864 0.0488231 
0.000328014 3.68293e-06 0.0117186 
-0.000134329 -0.00082827 0.0156606 
-0.000325984 -0.000597788 0.0143281 
-3.34306e-05 -0.00126646 0.0170841 
-0.000116312 -0.000228599 -5.74515e-05 
-0.000126462 0.000736991 -0.000386211 
0.000313199 0.000403557 -0.000138935 
-0.0014511 -0.000520281 0.00130846 
-0.00168567 -0.00268365 0.0133026 
-0.00529925 0.000225301 0.0187341 
-0.0042392 -0.00129343 0.0115091 
-0.00157366 -0.00431065 0.00864867 
1.89188e-05 3.27294e-05 0 
0.000873223 0.000125567 0 
-0.000140876 -0.000667659 0 
0.00323192 0.00188694 0.00126725 
-4.16436e-05 0.000108711 -3.21699e-05 
5.56964e-05 -0.000131713 0.00758095 
1.11769e-05 9.14819e-05 7.04971e-05 
3.86769e-05 -0.000213494 0.00940995 
-0.000189863 -0.00810504 0.00971974 
-0.000564355 -0.00628193 0.0173445 
0.000929344 -0.00240972 0.00717739 
-0.0010744 -0.00405029 0.00969337 
0.000260517 7.77201e-05 -0.000288747 
-0.000468886 8.20158e-05 0.000210628 
0.00135834 -0.000585012 0.00725124 
0.000200634 -8.65185e-05 0.00722242 
0.000438181 -0.000615866 0.0170441 
0.00123957 -9.85713e-05 0.0170027 
0.000640378 -0.00057899 0.017348 
0.000643742 -2.57435e-05 0.0180117 
-0.000580109 -0.00672002 -0.00446264 
-0.0160774 0.0137025 0.0222848 
9.51436e-05 0.00285927 -0.000897805 
0.00872632 -0.0107553 0.00443615 
-0.000451355 0.000244472 -0.00166651 
0.00142838 -0.00141223 0.0124208 
-0.00107276 0.000298674 -0.000632134 
0.00321534 -0.00101 0.0115673 
-0.00331856 0.00359941 0 
0.000890791 -0.000734305 0 
-0.00286013 -0.0116969 0 
-0.00752373 -0.016234 0.0137413 
-9.92947e-05 -1.95855e-05 0.000445294 
-0.000133921 -0.000346446 0.00920218 
-0.000104057 -0.000868329 0.0108454 
-0.000147911 -0.000571836 0.00719815 
0.00056709 0.00052644 0 
-4.9805e-05 0.00047312 0 
-0.000911383 4.19402e-05 0 
0.000906132 0.000386117 0.000863634 
6.63405e-05 -5.43423e-05 0.000297092 
0.00010027 -0.000145287 -0.000209764 
-0.000298407 0.000458091 0.009658 
-0.000255725 0.00095299 0.00735095 
0.0150956 0.0166421 0 
-0.0169791 -0.0376097 0 
0.015773 0.00888182 0 
-0.0196624 -0.0290659 0.0597298 
-0.0011146 0.00181396 0.0160158 
-0.00333615 0.00504472 0.0469447 
0.000703637 0.0152761 0.0331475 
0.000532555 0.00669239 0.0199391 
-5.9259e-05 -5.09478e-06 0.0103071 
0.00012195 -3.25512e-05 0.0066939 
-7.24195e-06 -2.7399e-05 0.0111247 
-0.000211007 9.04337e-06 0.00806626 
-0.000178062 -0.000635147 0 
-0.000307539 -0.000298528 0 
0.000175648 0.000125061 0 
0.00228685 0.00183512 0.000104174 
6.53231e-05 -0.00785007 0.00884837 
0.00245897 -0.00406929 0.00430455 
0.000628943 -0.00233983 0.00751693 
0.00322504 -0.00230003 0.0111755 
-0.000381932 0.00150762 -5.12879e-05 
-0.000165509 0.000528374 -0.000228252 
-0.000857524 -0.00131054 -0.00115911 
4.52887e-05 0.00156161 0.000932858 
0.000847098 0.00225802 0.00190016 
0.00341556 0.00318042 0.00991136 
2.20182e-06 0.00651915 0.00970358 
-1.55596e-05 0.00357103 0.0110077 
0.000224796 0.000261355 0.0122573 
0.000383163 -0.00225668 0.0162001 
-0.00219368 -5.74285e-05 0.01407 
-0.0018505 -0.00078528 0.0102593 
0.00102953 -0.000957735 0.0171131 
0.000992851 0.000338468 0.0171797 
0.000347147 -0.000527627 0.017099 
0.0011693 -0.0012011 0.016632 
0.00310269 -0.000922949 0.0156106 
0.00477801 0.00165213 0.0193261 
0.000451358 -0.0016688 0.0144075 
-0.00125338 0.00265167 0.0149919 
0.000759237 -0.00892474 0.00961636 
0.00210752 -0.00397825 0.00318107 
-0.00118525 -0.00680245 0.0196059 
-0.00173377 -0.0119649 0.0099982 
6.74586e-05 7.73549e-05 0.0105588 
-0.000136756 2.76735e-05 0.00867317 
-5.2472e-05 4.15379e-05 0.00647754 
0.000175581 -0.000159659 0.00765855 
0.00101505 -0.00147888 0.000193608 
-0.00351039 0.00402532 -7.57042e-05 
0.00252998 -0.00187014 0.000602855 
-0.00298201 0.00116431 -0.00088192 
0.00761203 -0.00434061 0.0146855 
0.00151623 0.0013466 0.0121063 
-0.00389435 0.00100593 -0.00370356 
0.00801595 -0.00238177 0.00735335 
0.00296592 0.000319835 0.016249 
0.00308294 -0.00261427 0.0139705 
0.000948008 -0.00157303 0.0160851 
0.00113635 -0.00114215 0.0160978 
-0.00333248 0.00134653 0.009354 
-0.00289439 -7.44583e-05 0.0153991 
-0.00315901 0.000230423 0.011206 
-0.00154183 0.000271427 0.00668958 
-2.67106e-05 0.000344506 0.0111513 
-5.50108e-05 0.000484544 0.0149894 
1.24183e-05 7.92096e-06 0.0122951 
0.000112381 0.000411868 0.0144392 
-7.59222e-05 4.14458e-05 -0.000320074 
-0.00123932 -0.00136023 0.0024847 
0.00045202 0.000252733 -0.000427317 
-0.00200871 -0.000251709 0.0011736 
-2.18977e-05 -0.00148889 0.00920947 
0.00153982 -0.000186108 0.00739177 
0.000798558 -0.00323619 0.00925029 
0.000755317 -0.00104563 0.00343145 
8.53576e-05 0.000671586 0.0165539 
-0.000159504 0.00427489 0.0159988 
0.00101479 0.00189963 0.0177061 
0.000846422 0.00505199 0.0195885 
3.71406e-05 -3.77325e-05 0 
-8.83938e-05 -0.00027368 0 
5.32924e-05 -7.59768e-05 0 
0.00083091 0.00108973 0.00057747 
-0.000281155 -0.003578 0.00949856 
0.00204218 -0.00285034 0.0064546 
-0.000230518 -0.0013933 0.00119942 
0.00191204 -0.00612396 0.00771328 
0.00017347 0.00171274 0.0126878 
-0.00228455 -0.00441022 0.0141354 
-0.00424862 0.000924396 0.0176531 
-0.000160981 -0.00120119 0.0142203 
-0.00203495 -0.00352992 -0.00113723 
-0.00428729 -0.00466102 0.0126604 
-0.01007 0.00414101 0.0144344 
0.00588056 -0.00615671 0.00826776 
0.00279412 1.91542e-05 0.0165864 
0.00402629 0.000804545 0.0169277 
0.000975926 -0.00161251 0.0160336 
0.00365688 -0.00234125 0.0128709 
-4.66239e-05 -3.46276e-05 0.00563198 
0.000107863 -0.000140939 0.000142741 
2.4139e-05 -7.18031e-06 6.8766e-05 
0.000106999 0.000133727 0.00975436 
-5.6769e-05 5.16664e-05 0.00469159 
5.07384e-05 -5.44927e-05 0.00959764 
-2.27712e-05 1.75877e-05 0.00618098 
4.37807e-06 -1.15628e-05 0.00945894 
-0.000481534 0.00088125 0.0153424 
0.00157276 0.00482866 0.0216523 
0.00126776 0.00170979 0.0171596 
-0.000281489 -5.09975e-05 0.0157235 
-4.84758e-05 -6.21352e-05 0.00566878 
6.33788e-05 3.41395e-05 6.12233e-05 
-3.52186e-05 7.99253e-05 0.00015463 
-0.00011783 -0.000439205 0.00929412 
0.000137401 0.000454982 0 
0.000320517 -0.000433631 0 
2.03992e-06 0.000408556 0 
0.000420507 0.000761977 0.000270304 
-0.000186008 4.0865e-05 0.01811 
0.000124696 -0.000737478 0.0181221 
-1.9191e-05 2.14229e-05 0.0181583 
-5.6203e-05 -0.00093689 0.0171562 
0.00047881 -0.000651755 0.0170079 
0.000963944 -0.000201915 0.0161026 
-0.000263377 0.000120594 0.0137538 
0.000102117 -0.00115261 0.0159315 
-3.41752e-05 3.68132e-06 0.00016209 
-0.000143673 1.48446e-05 0.00878004 
2.87884e-06 2.10427e-05 0.00572255 
-0.000300526 0.000109445 0.00861744 
-0.00556336 -0.00117118 0 
0.00379158 0.00565302 0 
0.00205138 -0.000853494 0 
0.00415135 0.0101313 0.00548487 
0.000201602 -0.000379813 -0.000543637 
0.0022181 0.00423299 0.00457623 
0.00290326 0.00491956 0.0113918 
0.000889045 0.00127859 0.00857435 
-0.000616028 0.000840005 -0.000198106 
0.00196787 -0.000483014 0.0025546 
0.00170344 -0.00069078 0.00701734 
0.000545321 -0.000914629 0.00385115 
-0.000542737 -0.000599931 0.0216122 
-0.0123243 -0.00135557 0.0495445 
0.0203939 0.00118366 0.00877979 
-0.00153508 -0.00407215 0.0421319 
0.000185335 -0.00443482 0.0167691 
-0.000138892 -0.00104885 0.0156306 
0.00116074 -0.000150048 0.0157049 
-8.86469e-05 -0.0025413 0.0172273 
0.00110387 0.00024594 0.0169348 
0.000925226 0.000145797 0.0170546 
0.00128544 -0.00044963 0.015827 
0.000597678 -0.000171392 0.0153723 
0.000216286 -1.85923e-05 0.000125095 
-0.000193089 1.70884e-05 -0.000231641 
-1.60022e-05 2.22094e-06 -0.000216119 
0.000161213 0.000664513 0.00933448 
-5.27986e-06 -7.15957e-05 0.0072661 
-1.59848e-05 4.52654e-05 3.26237e-07 
-2.85405e-05 4.37926e-05 0.000136524 
0.000224731 -0.000447736 0.0103312 
0.000870006 -0.00848616 0.00856271 
-0.00110472 -0.00051466 0.00224839 
0.00130191 -0.00513044 0.00223788 
-0.000827877 -0.00156414 0.00135858 
-0.000934397 -0.000230642 0.0173807 
-0.000849391 0.000176363 0.0119619 
-0.000364945 0.000312112 0.0148144 
-0.000564429 -0.000369869 0.0143006 
3.89076e-05 -1.5652e-05 0.000320469 
-4.5071e-05 2.87009e-06 0.0052032 
0.000189619 0.000136358 0.00958466 
0.00023451 0.00011406 0.00697693 
-0.00495446 -0.00133212 -0.000950149 
-0.00740036 -0.00265852 0.0147966 
0.00238738 0.0018382 -0.00575191 
-0.00513727 -0.0031405 0.00903893 
-6.39614e-06 -1.37076e-06 0.0101149 
-3.13525e-05 -0.0006441 0.0159287 
7.57814e-05 -0.000243829 0.011647 
0.000239777 -0.000423072 0.0136963 
-0.000288284 0.000346717 0.0113646 
-0.000591984 -0.000193434 0.015375 
-3.9024e-05 0.000179789 0.00791789 
8.78553e-05 0.000404216 0.00700491 
7.20211e-07 -0.000127487 0.0134573 
-2.72152e-05 4.39568e-05 0.00967142 
0.000104626 1.5316e-05 0.0097118 
0.000186329 -0.000379684 0.0137167 
0.000202661 0.000143732 0.0106448 
0.000825657 0.000321142 0.0112809 
-2.33382e-05 -0.000267546 0.00990803 
-0.000351788 0.000211287 0.015572 
5.46403e-05 -3.94919e-06 0.0124181 
0.000342306 -0.000301867 0.00999448 
3.93224e-06 1.99059e-05 0.0100323 
0.000350923 -0.000155154 0.0154024 
7.4101e-05 0.000124591 0.0117478 
-4.30269e-06 -2.04388e-05 0.00583894 
-0.00013451 8.61756e-05 0.00858392 
-0.000330516 0.000131248 0.00859891 
0.00561243 -0.00138584 0.01665 
0.00204589 -0.000411924 0.00744293 
0.00100422 -0.000386569 0.0114173 
0.00357315 -0.00256658 0.00590034 
-0.00129515 -0.00441138 0.00760313 
-0.00686408 -0.0103793 0.0326446 
0.00111834 -0.00410021 0.016611 
-0.0045954 -0.012973 0.0145779 
0.00314546 0.00160785 0.00928721 
0.0201322 -0.00699041 0.0206696 
0.00320579 0.00202011 -0.00851358 
-0.000209699 -0.00129778 0.00866309 
-0.00331447 0.0113108 0.0262265 
0.000648351 0.00889293 0.0537357 
-0.0016483 0.0169602 0.00779345 
0.0010151 0.00859431 0.0219939 
8.97093e-05 -1.11934e-05 -1.69491e-05 
0.000285671 0.000303661 0.00970809 
-8.53328e-05 4.53229e-05 0.000149411 
-1.66479e-05 0.000483407 0.00729083 
-0.000501577 -0.000197157 0 
-0.000323185 -0.000874441 0 
-2.6903e-05 0.00145134 0 
-0.00176494 -0.00257826 6.27437e-05 
0.000369441 -0.000197501 0.010058 
-0.000133778 -0.00126806 0.01148 
-0.00017744 -0.000418676 0.0112956 
0.000819148 0.000521498 0.0144386 
-1.32791e-05 -2.1662e-05 0.00947808 
5.69677e-06 4.10601e-05 0.0127004 
9.62409e-06 -2.71188e-05 0.00688429 
-3.994e-05 0.000249131 0.0102286 
0.00721365 -0.00263765 0.0328163 
0.0033004 -0.0069136 0.00745114 
0.00504086 0.0111678 0.0376394 
-0.000519636 0.0147457 0.0583214 
-2.94238e-05 -2.34014e-05 0.0172132 
5.58315e-05 -2.59994e-05 0.0160291 
-0.000232535 0.000554052 0.0169601 
-6.54501e-05 0.000496045 0.0144639 
-0.000621848 0.000794173 0 
0.000792327 -8.39775e-05 0 
-0.00013387 -0.000595527 0 
-0.00192561 0.00233787 0.000262399 
0.000326836 -0.00814072 0.00778182 
-0.000604025 -0.000830069 0.00297362 
0.000778554 -0.000236535 0.00126801 
0.00134534 -0.00528807 0.00206732 
-0.000427651 -5.40598e-05 0.0111965 
0.000854591 0.00028949 0.0179338 
-0.00208924 0.00271914 0.0151239 
-7.66285e-05 0.000369268 0.00707705 
0.000881812 0.0011345 0.0029096 
-0.00299819 0.0024028 0.00747944 
-0.00146712 0.00315897 0.00251481 
-0.000460982 -9.60644e-05 0.000215109 
0.0124981 0.0088507 0.0459388 
-0.0029815 -0.00542806 -0.0346048 
-0.00710361 -0.0126649 -0.0120374 
0.0152158 0.0327702 0.0569372 
-1.05462e-05 -0.00473147 0.00971671 
0.000147286 -0.000891183 0.00659101 
-0.0020784 -0.00793305 0.0171022 
-0.00195859 -0.00220896 0.00228165 
-0.000703911 0.000319715 -0.000831594 
-0.000377601 0.000177797 -0.0007196 
5.2832e-05 -0.00118505 0.00145319 
0.000346856 -0.000501801 0.00131567 
-6.72183e-05 -3.3361e-05 6.35004e-05 
1.40207e-05 -6.16269e-05 0.00778256 
-4.41302e-05 4.54395e-05 0.00868133 
-5.95252e-05 -0.000103977 0.00639326 
-0.00265983 0.00113625 0.00766192 
-0.00544809 0.000959314 0.0176689 
-0.00473243 -0.000855915 0.0114089 
-0.00225737 9.17482e-05 0.0142259 
-4.82473e-06 0.00503675 0.00218246 
0.00327435 0.0211603 0.0184764 
0.00156871 -0.000947559 -0.00132984 
0.000564944 0.00193029 0.00126668 
-0.00464094 0.00281256 0.0193667 
-0.0156728 0.0129235 0.035013 
-0.00475918 -0.00711878 0.00315798 
-0.00813779 -0.00205989 0.00948023 
0.000640467 0.00020875 -0.00015298 
-0.000597781 0.00168801 0.00284066 
0.000109907 -0.000500033 -0.000227932 
-0.000785842 0.000511266 0.00360047 
0.00012313 -0.000145282 -0.000487918 
0.000446314 -0.0017308 0.0113194 
0.000603447 -0.00157244 0.00608761 
-0.000243206 -0.000894897 0.00720432 
-0.000747985 -0.00790683 0.0105684 
-0.00245352 -0.00869566 0.0175337 
0.00368035 -0.00372258 0.00356475 
0.00350244 -0.00235194 0.0100865 
0.002016 0.000345682 0.0174929 
-0.00112578 8.8546e-05 0.0101007 
0.00195257 0.00021898 0.0111991 
-0.000626131 9.99947e-05 0.015532 
0.00165546 -6.13337e-05 0.0170406 
0.000824748 1.70986e-05 0.01592 
0.00252307 -0.00038045 0.0171266 
0.00171393 4.28586e-05 0.0174789 
0.000443308 0.000278707 0 
1.27182e-05 6.12113e-06 0 
-9.3102e-05 0.000229733 0 
-0.00089132 0.000407805 2.56098e-05 
0.00881611 -0.0110373 0 
0.000795463 -0.00502983 0 
-0.0154753 0.0178688 0 
-0.00820378 0.022936 0.0539871 
9.16649e-05 -0.000199818 0.000176547 
1.19644e-05 -1.78516e-05 -0.000142796 
0.000131298 0.000103466 0.00943628 
0.000116344 0.000151464 0.00710796 
5.70292e-05 -0.000336784 -0.000153901 
-0.000758463 -0.00147158 0.00156123 
8.38972e-05 0.000387202 -0.000418443 
-0.000622804 -0.00169355 0.000930798 
0.000176347 -0.000600506 0.0128043 
-6.94873e-05 -0.0031858 0.0178537 
0.00295403 -0.00466323 0.0131985 
0.000565199 -0.00313961 0.00448783 
0.0097919 0.00069887 0.0125964 
0.00249876 -0.00196884 0.0106655 
0.0035087 -0.000233816 0.0188544 
0.00795142 0.000777352 0.017938 
0.000223928 -0.000757642 0.0148412 
-0.000107222 -0.00121374 0.017394 
-0.000107559 -0.000594708 0.0164235 
8.35435e-05 -0.000172831 0.0140823 
5.229e-05 -2.69185e-05 0.000154483 
6.38408e-05 -2.85973e-05 -0.000156915 
-3.45291e-05 1.68335e-05 -2.57573e-05 
0.000455433 -0.000196731 0.00884924 
-0.000804779 2.69583e-06 0.0140405 
0.00052584 -0.00163731 0.0122274 
-0.00187503 -0.0029198 0.0175883 
-0.00103165 -0.000146515 0.016359 
-1.60679e-05 0.000360269 0.0091862 
-0.00151612 0.000364827 0.00738235 
-0.00225379 -0.000745649 0.0146652 
-0.000697499 0.000706358 0.0124061 
-0.00152064 -0.00177922 0.0126594 
-0.00557319 0.00219406 0.00878385 
-3.40757e-05 -0.00293311 0.0076891 
0.000532912 0.00212872 0.00775917 
-9.68854e-05 0.000296981 0.000263054 
-0.001047 -5.68283e-05 0.00870739 
-0.000689647 -0.000294281 0.00602475 
-0.000216986 -7.0906e-05 0.00637027 
-0.000290434 0.000196786 0.0120255 
-0.000487443 0.000363001 0.011496 
-0.00016323 0.000200316 0.00772043 
-0.000130441 0.000643633 0.00840467 
4.7909e-05 -0.000193535 0.018671 
-2.30912e-05 -1.30095e-06 0.018087 
7.6594e-05 0.000753417 0.0175198 
2.80928e-05 0.000254937 0.0183071 
0.00308396 -0.000614607 0.00528324 
0.00812524 -0.00452731 0.00397195 
0.0134928 0.000366426 0.0429566 
0.00392456 0.00612895 0.00317475 
-0.000440075 0.00286617 -0.000757717 
-0.002927 0.00815141 0.012355 
0.00413138 0.00300879 0.00611312 
0.0051668 -0.00945565 0.011935 
0.000452347 -0.000261311 -6.06097e-05 
9.29475e-05 -5.28129e-05 3.33731e-05 
0.000385192 -0.000244747 -0.00120807 
-0.00319291 0.000173229 0.00279162 
4.04685e-05 -1.20467e-05 0.0162199 
2.51e-05 1.35522e-05 0.0177906 
-4.28957e-05 2.81067e-05 0.0175553 
0.000381726 -2.91457e-06 0.0183767 
-3.83564e-05 4.50613e-05 0.0165704 
1.00807e-05 4.69909e-05 0.0181253 
0.000108802 -0.000750382 0.0182118 
-0.000107542 -0.000981969 0.0171967 
-0.000489495 0.00340837 0.0120597 
-0.000486022 0.00050355 0.0157322 
0.00223865 0.00488703 0.0154349 
0.000104298 0.00124412 0.00693517 
0.00475803 0.000522806 0.00942656 
0.0016676 -0.00388309 0.00406781 
0.000993948 -0.00227227 0.00747883 
0.000696377 -0.00155968 1.96609e-05 
-0.00538116 -0.000980169 0.0371903 
-0.00426324 0.0118246 0.000784475 
0.000980581 0.000917991 0.022206 
-0.000459489 0.00406113 0.0286324 
-0.00012385 -0.000121857 0.0118028 
8.85517e-05 7.70095e-05 0.0161552 
-6.69058e-05 2.03381e-05 0.0133195 
0.000227489 0.000302375 0.0154109 
-0.000245213 0.00149394 -0.000449858 
0.000337708 -0.000965943 -0.00019137 
-0.000645859 0.000817631 -0.00157493 
0.00179609 -0.00470926 0.00421466 
0.00373385 0.00134551 0.00455886 
0.00443196 0.000560186 0.00253428 
0.00151985 0.00031051 0.00691112 
-0.000674763 0.00123268 0.00416973 
0.00524091 -0.00442016 0.0188357 
0.00249785 0.00691911 0.0113014 
0.00425321 0.0173559 0.0343695 
0.00242558 0.00396205 0.0161705 
0.000269443 -0.000591497 0 
-0.000282654 -0.00136404 0 
0.000361514 0.000428611 0 
0.000428497 0.00066879 0.000409825 
0.00599979 0.0423921 0.116955 
-0.0207124 0.00759464 0.128765 
-0.00233475 -0.0374589 0.164598 
-0.0246375 0.00210768 -0.054416 
0.00114321 -0.000684263 -0.000223126 
0.000888552 -0.000796837 -0.0010527 
-0.00507349 0.00129794 0.00879054 
-0.00274724 -0.000797689 0.00748567 
-0.00906274 0.00410881 0 
0.0201419 0.0082628 0 
-0.00669737 -0.00201523 0 
0.0157047 0.00793822 0.0223095 
0.00167765 -0.00333204 0.0120537 
-0.0025632 -0.012034 0.0104994 
-0.00129978 -0.00506878 0.016198 
0.00420788 -0.00131777 0.0113679 
-0.000551045 4.47896e-05 6.61817e-06 
-0.000966515 7.85595e-05 0.00107762 
-0.00067489 5.48558e-05 -0.000897912 
0.00401929 0.00212019 0.00485469 
0.00260921 -0.00217298 0.0164592 
0.00480776 0.00294349 0.0299325 
0.00838311 -0.0120348 0.00492846 
-0.0053166 -0.00213579 0.0422748 
-0.00223244 0.00241413 0.00244105 
-0.00217806 0.00104025 0.00220141 
0.000270586 -0.000483774 -0.0011781 
2.35388e-05 -0.000107522 0.000673863 
-0.000920405 -0.000198073 0.0140402 
-0.00276117 -0.00262896 0.0170971 
-0.00345274 0.000141187 0.0169924 
-0.00109577 0.000733059 0.0153873 
0.00198588 -8.16577e-05 -0.00257661 
0.0031975 -0.00149329 -0.00192749 
-0.00343716 0.00274619 0.00395221 
-0.00454848 0.00287881 0.00465912 
-0.0012487 -0.00368894 0 
-0.00065167 0.00178595 0 
-0.000377078 -0.000845578 0 
-0.000882266 -0.00325243 -0.00241076 
4.15137e-05 0.000472905 0 
8.12095e-05 -0.000234112 0 
0.000155262 0.000111159 0 
-0.00182105 0.000494383 0.000868764 
0.0265561 -0.00548322 0.0327994 
0.00757252 0.00472616 0.00881698 
0.00427721 0.00188065 -0.00027661 
0.0203299 -0.00383584 0.02147 
-8.91809e-06 1.07278e-05 0.00571444 
-1.07149e-05 2.89373e-05 0.00660927 
-1.15399e-05 -2.43817e-05 0.00963177 
0.000138787 -4.34443e-05 0.00943519 
-0.000101186 -0.00887268 0.0100341 
-0.000246553 -0.00664051 0.0220517 
-0.00156218 -0.012468 0.0284112 
-0.000550416 -0.0060551 0.0163994 
-6.63149e-05 -0.00164888 -0.0024188 
-0.0101249 0.020036 0.0290206 
-0.00244856 0.00332709 -0.000648707 
-0.0061851 0.000603941 0.0091645 
0.000994212 0.000327224 0.0167674 
6.69742e-05 0.000241406 0.015644 
0.000607283 0.000986009 0.0152907 
-4.93972e-05 0.00151809 0.0166279 
-0.00205639 -8.85884e-06 0 
0.000470944 -0.000950411 0 
0.000927718 -0.00142101 0 
-0.00542572 0.00252063 0.00436824 
1.15001e-05 -5.47962e-05 0.00540876 
3.02496e-06 6.04156e-05 0.000175467 
1.9801e-05 -9.59791e-06 -1.96987e-06 
5.44154e-05 -0.000191128 0.00775529 
0.0495781 -0.00103304 0.109978 
0.0131869 0.00277786 -0.0154393 
0.0330124 -0.00198549 0.10793 
-0.0401965 0.0146373 0.0766572 
-0.000230104 6.03042e-05 0.000319165 
0.000153075 -4.19745e-05 0.000249315 
-8.90783e-06 2.87852e-06 -0.000122855 
0.00130751 -0.000163968 0.0113992 
0.00596744 0.00245735 -0.0118591 
-0.0157415 -0.000261903 -0.00980904 
-0.0146076 0.00572041 0.0375763 
-0.0252049 -0.00667793 0.101095 
-2.45479e-06 0.00132457 0.0165584 
-0.000216808 0.000544073 0.0166851 
3.04935e-05 9.09985e-05 0.0138122 
-0.000734114 0.000453528 0.0158638 
-0.000590809 -0.000231032 0.0175708 
-0.000297995 -0.00208669 0.0163891 
-9.32187e-06 -0.000884984 0.0176016 
-0.000140411 -0.00237247 0.0166479 
-0.0215983 0.0571688 0.10382 
0.0336904 -0.0442667 0.157534 
0.011141 0.0199828 0.151161 
-0.00315 0.0292182 -0.0191682 
4.27577e-06 3.66344e-06 0.000373517 
8.14751e-05 3.73327e-05 3.21437e-05 
-4.46314e-05 -2.13157e-05 -0.00020638 
-0.00107223 -0.00020221 0.00819374 
-0.00293097 0.00064651 0.0168545 
-0.00385224 -0.00492943 0.0172879 
-0.00121519 0.000375853 0.0141854 
-0.00328741 0.00367878 0.0144698 
-0.000766071 0.00112771 9.88305e-05 
-0.00170927 0.0295221 0.0255783 
0.00368993 0.00268705 -0.00237932 
-0.00796151 0.00432459 0.00890001 
-7.13331e-05 0.00138273 0.0128574 
-0.00308428 0.000964374 0.0186235 
-0.00125974 0.00181202 0.0149795 
-0.00106055 0.000232296 0.015073 
-0.0171616 -0.00417999 -0.00632645 
-0.00317297 -0.0166405 0.0137645 
-0.00800674 -0.00922613 0.0484163 
0.0103302 -0.00679369 0.0144357 
0.000384623 0.00307762 0.0150702 
0.00124943 0.000792907 0.0120871 
0.00308197 0.0029601 0.0107697 
0.00206442 0.000256631 0.0153852 
0.00049361 -0.00756718 0.00867012 
0.000890851 -0.0023326 0.00745949 
0.000704134 -0.00300174 0.0151133 
0.00267581 -0.00265657 0.0114021 
0.000887459 -0.000540096 -0.00033409 
-0.000405223 0.00138828 0.00723805 
-0.00159461 0.00282148 0.00454376 
-0.000412797 0.00100302 0.00478157 
0.000831412 0.00112953 -0.0011576 
-0.00586568 -0.00152713 0.00611997 
0.000511344 0.00252062 -0.00132896 
-0.00145313 -6.0788e-05 0.00744559 
0.00168456 0.000350419 0.00607318 
0.00285677 0.0015859 0.00225177 
-1.33331e-05 -3.92238e-05 -0.00231793 
0.000554909 0.000400987 0.00457283 
0.000445399 0.000104904 0.00062557 
1.49988e-05 -3.81092e-05 -0.000179024 
-0.00161799 0.000248946 0.00996408 
-0.00155593 -0.000204005 0.00794142 
-0.00175088 -5.62532e-05 0.0146517 
0.000609889 -0.00310002 0.0076383 
0.000820891 0.00233709 0.0139841 
-0.00857844 0.000793938 0.00832453 
0.000154141 -0.000106512 0 
-8.00406e-05 0.000281991 0 
-0.000476096 0.000892469 0 
0.00179339 -0.00442405 0.00113064 
-0.000910517 0.00259571 -0.00108869 
-0.000190741 0.00010977 -0.00142358 
0.0023647 0.00019985 0.0023851 
0.00358501 -0.00434217 0.00213663 
0.00134052 -0.00389743 0.00945913 
0.000299824 -0.00167053 0.000915974 
0.000449081 -0.00283702 0.00602277 
0.000338671 -0.000390733 0.00311507 
7.43888e-05 -3.47109e-05 0.00524551 
-0.00022717 0.000151048 0.000381079 
-8.57071e-05 -0.000133287 0.00650931 
5.42369e-05 6.84046e-05 0.00810728 
0.00472252 0.000517905 0.00953576 
0.00100087 -0.0022839 0.00731644 
0.000831757 0.00154442 0.0025082 
0.000536158 -0.00160948 0.000202148 
7.2761e-05 -1.32381e-05 0.000153161 
8.6463e-05 8.40257e-06 -5.54003e-05 
-5.56116e-05 6.86422e-06 0.00855607 
0.000220615 -0.000123591 0.00913895 
0.00116625 -0.00284075 0.0139034 
0.00291351 -0.00278353 0.0125911 
0.00309301 0.000473941 0.0163765 
0.00128146 -0.000987364 0.0169509 
-0.000610706 0.000174314 -0.000684177 
6.8986e-05 -0.00120671 0.00144875 
0.000815718 -0.000508608 0.00124316 
0.000486047 -0.000940516 0.00305335 
-7.13344e-05 5.11064e-06 0.0180928 
7.82589e-06 5.84672e-05 0.0187437 
-1.23998e-05 1.15235e-05 0.0181293 
8.20305e-05 -0.000701512 0.0182098 
-0.000713649 -4.1596e-05 0 
-0.000323527 8.73126e-05 0 
0.000510613 0.000711695 0 
-6.88168e-05 0.000239811 0.000254254 
-0.000140083 0.000646362 0.0169549 
-2.49334e-05 0.000440318 0.0151693 
3.75571e-05 0.00109834 0.0162184 
9.20219e-05 0.000286562 0.0144105 
-0.00173174 -0.0013283 0.00044407 
0.00107512 0.00225982 -0.00516655 
0.0227911 -0.00775962 0.0166957 
0.00107169 -0.00326906 0.007439 
-0.00742827 -0.0218362 0.00506509 
-0.000404511 -0.0160964 0.0139063 
-0.00411848 0.00689388 0.0103545 
0.00240654 0.00313912 0.00221034 
2.11092e-05 -0.000104345 0.000284591 
-0.000866656 0.000274394 0.00891288 
9.91462e-06 7.05016e-05 -8.70963e-05 
-0.000361069 0.000109827 0.00885435 
-0.00529985 0.00125348 0 
0.00140258 0.00527493 0 
0.000211533 -0.00964281 0 
0.000562291 -0.0132643 0.0149315 
0.000932606 0.00340857 0.0158098 
0.00269297 0.00298475 0.0100445 
0.000641404 3.96447e-05 0.0115641 
0.000211009 0.00371077 0.0107256 
0.000224307 -0.000655379 0 
9.84267e-05 0.000294318 0 
-0.000659322 -8.19474e-05 3.18748e-06 
-0.000606729 9.61033e-05 0 
-0.000189103 0.00121476 0.0165575 
-0.000120096 4.01789e-05 0.0154041 
0.000151218 0.00151504 0.0176998 
0.000186819 0.00187051 0.0167826 
0.000271488 0.000350414 -3.20572e-05 
-0.00125251 -0.00159087 0.0117566 
0.000310085 0.000217329 -0.000430459 
-0.00158937 -0.00166871 0.00748116 
-0.000871246 9.60838e-05 -0.00639043 
-0.0037336 -0.000401744 0.00498823 
0.00973178 -2.7119e-05 0.00256869 
0.0165336 -0.00419786 0.0267272 
-5.95487e-05 3.63269e-05 0.0187957 
0.000131459 -0.000652523 0.0179461 
0.000119035 -9.73954e-05 0.018133 
0.000497126 1.35862e-05 0.0180462 
0.000183892 -0.000456694 -0.000406392 
-6.78399e-05 0.000137826 -0.000279634 
0.000181673 -0.000356677 0.000922845 
-0.000199316 0.00374808 0.0012684 
3.37761e-05 -1.18644e-05 0.0186337 
-6.80304e-06 -6.73171e-06 0.0174377 
-0.000361708 0.000451914 0.0168252 
-0.000489922 6.55495e-05 0.0182144 
0.000112727 -8.13882e-05 0.0112786 
-3.1406e-05 1.13224e-05 0.00606035 
-6.47828e-05 7.72791e-05 0.00994083 
0.000162943 0.000127568 0.00885408 
-5.33485e-06 4.37643e-07 0.000171104 
0.000111816 -9.17277e-06 -4.73566e-05 
3.52005e-05 -2.88766e-06 4.04959e-05 
7.76173e-05 -2.15726e-05 0.0122247 
1.89061e-06 -3.75375e-05 0.0181332 
-0.000539226 -0.000534026 0.016597 
-0.000508915 -0.000609499 0.0179177 
-0.000111507 -0.000920142 0.0171563 
1.38945e-05 -4.79586e-05 6.1898e-05 
0.000227837 0.000134617 0.00016442 
-0.000329869 0.000224959 0.00989897 
3.75978e-05 4.69735e-05 0.00936863 
-0.0116927 -0.00589342 0.00311297 
-0.00195358 -0.0148455 0.0166277 
-0.0123636 0.00516711 -0.00255674 
0.00967312 0.00209612 -0.00457525 
0.00981947 -0.00540404 0.0247772 
-0.000654612 0.0068935 -0.000845672 
-0.00225461 0.00470218 0.0050427 
0.00924682 -0.00787642 0.0216334 
-8.19073e-05 3.92045e-05 0.0105525 
2.30627e-05 2.91502e-05 0.00566095 
-9.44616e-05 -0.000243626 0.00896826 
-0.000175231 -0.000402098 0.00908914 
-0.000606105 -0.000722312 -0.00201414 
0.00656233 0.00682668 0.0142619 
-0.000910874 -0.00142043 -0.00537579 
0.00361623 0.00267601 0.0068929 
-7.44077e-05 -1.19376e-05 0.0108565 
-7.72014e-05 -0.000173646 0.0131656 
6.32414e-05 3.88481e-05 0.0115905 
0.000120627 5.40966e-05 0.00931988 
-5.87801e-05 4.64652e-06 7.41382e-05 
0.000965886 4.72698e-05 0.011333 
8.06934e-05 7.84023e-05 -0.000332573 
0.000950803 -0.000152874 0.00929902 
-0.000101847 -0.000150064 0.0185793 
7.69867e-05 0.000760389 0.0175394 
-2.24911e-05 -8.84318e-06 0.0180398 
2.4548e-05 0.000241657 0.0183407 
-0.000532152 -0.0004799 0.0133146 
-0.000527954 0.000148053 0.00823806 
-0.000126474 -0.00029041 0.0132629 
0.000203963 -0.000726033 0.0162917 
0.00416665 -0.00365359 0.0166767 
-0.000210974 -0.00114565 0.0104233 
-0.000317902 -0.00153509 0.0227 
-0.00157601 -0.00360145 0.0183162 
0.000410041 0.000431871 -8.72447e-05 
-0.000155156 0.000219374 0.011268 
-0.00013033 -0.000267358 -0.00012542 
-0.00163691 -0.00120004 0.0115556 
-0.000911631 0.000341682 -0.000398202 
0.000354789 -0.00128196 0.000684489 
-0.000842247 0.000412423 0.000121047 
0.000507563 -0.000504589 0.0010107 
-0.00444104 0.00477482 0.00882569 
-0.00216092 0.00176635 0.0084709 
-0.00158993 0.00510663 0.00263498 
-0.00392529 0.0027726 0.0140512 
-0.0131595 -0.00224851 0.0162924 
-0.0187965 -0.00683298 0.0227212 
-0.00294916 0.0040183 0.0063116 
-0.00688041 0.0062368 0.00230879 
-0.00101906 -0.00671883 0.00522157 
-0.00599419 -0.0102933 0.0303101 
0.000332058 -0.000179793 0.0203772 
0.000245723 -0.00994873 0.0161764 
-0.00146474 -0.00608095 0.0180639 
-0.00193797 -0.0101964 0.00974636 
0.00243793 -0.00577433 0.00433945 
0.00406507 -0.00123585 0.009954 
-0.00141817 -9.97097e-05 0.0165942 
-0.000870097 0.000120576 0.0171396 
-0.00058301 -0.000171256 0.0173704 
-0.000627249 -0.000204683 0.018146 
5.55969e-06 2.51484e-05 -9.94715e-05 
-1.76404e-05 -6.20305e-05 -9.39679e-05 
-8.97106e-05 -0.000326927 -0.000213433 
0.00041412 -0.00104859 0.0111845 
0.00369629 -0.00402591 0.0115257 
0.00806141 0.00156037 0.00658279 
0.000999727 -0.00394791 0.00345422 
0.00375437 -0.00309494 0.013758 
0.00378326 0.00846032 0.0226098 
0.00460423 0.00110437 0.0195888 
0.0051851 -0.000965988 0.0135093 
-0.00126395 0.00246163 0.0150327 
-1.39962e-05 7.19757e-06 0.00563517 
-5.73643e-05 3.52051e-05 0.00772734 
2.2111e-05 -1.35798e-05 0.0100106 
0.000251672 -0.000213444 0.00969732 
-0.000200846 -0.000284196 0.0120847 
-0.000507215 0.00114854 0.0138587 
-0.000589772 0.000817774 0.0114472 
-5.15298e-06 0.000396556 0.0084029 
-0.00180687 -0.00252157 0.0144288 
-0.002457 0.00025018 0.0142278 
0.000484042 -0.00239314 0.0160669 
-0.00183942 -0.000818074 0.010175 
-0.000432121 0.00289578 0.00475695 
-0.00149159 0.00786422 0.0091463 
0.015161 0.0099663 0.0187473 
0.00374375 -0.00212294 -0.00115467 
0.000407184 0.000903221 0.0176951 
-0.00124814 0.000348575 0.0169951 
-0.000417784 0.00168969 0.0152998 
-0.000354749 0.000239071 0.0162039 
0.000593667 0.00177705 -0.00340809 
0.00184919 0.0035136 -0.00295299 
-0.00528188 -0.00912543 0.00969733 
-0.0010677 -0.00502123 0.0057489 
-0.000166727 -0.00198575 -0.000308736 
-0.00037223 -0.00259021 -0.000378279 
0.00197519 0.00457613 0.00123147 
0.00130686 0.00187394 0.000140204 
-0.000704487 0.000928075 0.00250213 
0.00757024 0.0198624 0.0254957 
0.00632525 0.00429893 0.0217871 
0.00137352 0.00208953 -0.00242244 
0.000429613 0.000831269 -0.00122799 
-0.00334913 -0.00547748 0.00703187 
0.00134553 0.00106166 -0.000828252 
-0.000980027 8.38042e-05 0.000904504 
5.99603e-05 1.01206e-05 0.0122137 
-1.20437e-05 1.30178e-05 0.0145118 
-1.2491e-05 8.53329e-05 0.0108544 
-0.000153275 -0.000341597 0.0161758 
0.00964104 -0.00250109 0.0130791 
0.00638341 -0.00109039 0.00536268 
-0.00345042 -0.00100167 -0.00119991 
0.000652875 -0.00217936 0.00103075 
0.00229331 0.0591079 0 
0.000881726 0.0572937 0 
-0.0019819 -0.0326907 0 
-0.00231073 -0.0334807 0.157821 
0.0396914 0.0482697 0.126604 
-0.0203141 -0.0647204 0.173866 
-0.00117433 -0.0104495 0.205737 
-0.0401205 -0.00832311 0.0105601 
-0.00217907 1.24981e-06 0.0242085 
-0.00533532 -0.00156884 0.031522 
-0.000984048 -0.00672156 0.0175665 
-0.00115475 -0.00273634 0.0156541 
-0.00598135 -0.00535847 -0.0133469 
0.00407873 0.0192929 0.0251551 
0.00404525 0.0040471 -0.00536092 
0.0102667 0.0261933 0.0532986 
0.000519283 -0.00760391 0.00834497 
0.000794701 9.86439e-05 0.00111333 
0.00157209 -0.00457214 0.00379802 
0.00116112 -0.00630987 0.00188179 
-0.0014009 -0.000166793 0.0168576 
-0.000472468 -5.85462e-05 0.0145081 
-0.000294204 -7.76046e-06 0.0147938 
-0.000721105 -0.000150635 0.0177186 
-0.00147943 -0.0082861 0.0082411 
-0.000756138 -0.017335 0.0314098 
0.00126019 -0.00607128 0.0234901 
0.000793786 -0.0113222 0.0101529 
-0.00110457 -0.00163901 0.00278283 
0.000824318 0.00158526 0.00242882 
0.000956729 -0.00253442 0.00695125 
0.000658995 -0.00125675 0.00129235 
-0.000731259 -0.000482762 0.0163979 
-0.000331175 -0.000962912 0.0157117 
0.000811501 -0.00106189 0.0146531 
-0.00104009 0.000302898 0.0150533 
0.000331449 -0.00199447 -0.000226546 
-0.000175827 0.000286284 0.000882563 
-0.00264801 0.00468805 0.000849558 
-0.0028922 0.00124476 -0.000418651 
-4.16869e-05 -6.5768e-05 -0.000101804 
-0.000100191 -0.00104048 0.00912389 
-0.000214149 -0.000297802 0.00901706 
-0.000243432 -0.000758535 0.00708348 
-0.00025753 0.000581728 -0.00080127 
0.000115125 -0.000169898 4.86295e-05 
0.00157138 -0.00412034 0.00193504 
0.000872437 -0.00135542 0.00107119 
0.00072339 2.84776e-05 -0.000826157 
-0.000124782 -0.00141015 -0.00260133 
0.00139665 0.00329308 0.00458462 
0.000436241 0.00434008 0.0029282 
0.00110351 -0.00415746 0.013331 
-0.000127284 -0.0045642 0.0169502 
-0.000428215 -0.00654079 0.0170348 
-0.000751922 -0.00219524 0.0193549 
0.000134909 2.71994e-05 0.000108836 
0.000193338 5.48088e-05 0.00951101 
0.000694301 0.000234621 0.0108616 
0.000248562 0.00016255 0.00712139 
-0.00656742 0.00478597 0.00877328 
0.00314475 -0.00740031 0.0161892 
-2.26954e-05 0.00131132 0.00618962 
-0.0139363 -0.00833429 0.0191645 
0.00144089 -0.00327828 0 
0.00191294 -0.00121709 0 
-0.00204211 -0.0050125 0 
0.00262759 0.00769964 -0.000766709 
-0.000174777 -0.00820703 0.0212687 
0.000376596 -0.0113083 0.00908225 
-0.00132704 -0.00359213 0.00936135 
-0.00129745 -0.00376153 0.00888255 
0.000393727 0.00250617 0.0157602 
-6.49085e-05 0.00184903 0.0152173 
0.000159575 0.000901656 0.0172912 
3.39861e-05 0.00205299 0.0176096 
0.00282208 0.00894552 0.0172329 
0.0111103 -0.00129186 0.0135842 
-0.00100066 -0.00323943 0.0262226 
-0.00248437 0.00278497 0.0418172 
-2.57257e-05 -6.64369e-05 0.00566991 
2.22329e-05 -1.7187e-05 0.00670906 
-8.83479e-05 -5.75679e-05 0.000195198 
-8.28251e-05 -0.000243684 0.00905826 
0.00375633 -3.81053e-05 0.00843337 
0.0103132 0.000434578 0.00880961 
0.00783151 0.00086946 0.00471353 
0.0080847 -7.39566e-05 0.0186855 
6.3508e-05 -8.643e-05 8.54181e-05 
6.91115e-05 3.86981e-05 0.000129943 
-6.89012e-05 5.12578e-05 0.00586406 
-0.000376924 0.00011774 0.00871592 
0.000529573 0.00037319 0.0126675 
0.00212681 0.000730646 0.0151619 
-0.000549942 0.0017979 0.0148947 
-0.000528303 -7.35527e-05 0.0160347 
0.0311216 -0.00732462 0.0811686 
-0.00511436 0.0193666 0.157858 
0.0226008 -0.0536349 0.0940744 
0.0128188 0.0082418 -0.0610412 
-0.000940413 -0.000546016 -0.00100472 
-0.000420237 -0.00152505 -0.00169069 
0.0028325 0.00396426 0.000903774 
0.00198141 0.00295939 0.00293311 
-0.00857143 0.00351377 0.0160239 
0.00215204 0.00842654 0.0350794 
0.0147456 0.00219785 0.0187613 
-0.0121781 0.00564703 0.0466785 
-0.00877555 -0.0135805 0.0380947 
0.000971798 -0.00847782 0.0119335 
-0.00783259 -0.00276017 0.0318372 
-0.00471338 -0.010649 0.0156293 
0.00742048 0.00507674 -0.00944689 
0.00563984 -0.0130561 0.0267651 
0.0266766 -0.000619241 0.00534422 
0.00254162 -0.0110337 0.025677 
0.000527756 0.000402333 -0.000178541 
-0.00108384 -0.000397205 0.00509551 
-0.00210859 -0.000823841 0.00341088 
-0.000974365 -0.000620355 0.00193206 
-1.85711e-05 0.000130744 0.0185264 
0.000420811 -0.000690498 0.0169177 
-4.37965e-05 6.73536e-05 0.0173593 
0.000167226 -0.000768486 0.018098 
0.000645554 0.000174713 0.0108175 
0.00020194 0.000120271 0.00935864 
4.35754e-05 0.000394808 0.0146681 
0.000263858 0.000102085 0.00736646 
3.32019e-05 1.02047e-05 0.0069514 
-1.42081e-05 9.85575e-06 0.00614655 
-2.23937e-05 -3.40672e-05 8.56905e-05 
-0.000210011 -6.81409e-05 0.00824221 
3.30771e-05 2.73356e-06 0.0163711 
-1.11709e-05 -0.000672785 0.0184939 
3.90531e-05 3.75151e-05 0.0171813 
6.10598e-05 -0.000616614 0.0159142 
5.92254e-06 -0.0021694 0.0175539 
-0.00026542 -0.00131327 0.0164058 
0.000147542 -0.000506055 0.0163183 
-0.000750941 -0.00249194 0.0171873 
-0.00604507 0.00529414 0.0199476 
0.013836 0.00433075 0.0224498 
0.00578365 -0.00307617 0.031244 
-0.0116607 0.00340964 0.042697 
0.000243078 -0.000515355 -7.85111e-05 
-0.00147801 0.00148158 0.0110024 
-0.00012705 4.67335e-05 -0.000867083 
-0.000457109 0.000694001 0.00949684 
-0.000660402 0.00129115 -0.00196335 
0.00122515 -0.00870057 0.00445321 
0.00157282 3.65721e-05 -0.00168779 
0.00255373 -0.0040091 0.0042009 
-0.000137799 0.000280138 0.000211332 
0.00165774 -0.00389821 0.00595243 
-0.000434642 0.000546149 -1.55388e-05 
0.000954547 -0.000387552 0.00963412 
0.000898766 -9.92373e-05 -0.00218808 
-0.0016354 -0.00129111 0.0032292 
-0.00280779 0.00011134 0.00240306 
-0.000765093 -0.00167691 0.000956608 
-0.000835533 -0.000308374 0.0138644 
0.000113113 -0.000524001 0.0160623 
-0.00037424 -0.00138051 0.0164146 
-0.000490506 -0.00233814 0.0177191 
-0.0578465 0.0118512 0.0767797 
-0.011526 0.000151125 0.00609478 
0.00383636 -0.00780046 0.0230578 
0.00565367 -0.0118554 0.0574621 
0.00078204 0.000285457 -0.00298165 
-0.00372044 0.00302651 0.00501709 
-0.00156328 0.0019702 0.00454212 
-0.00116566 0.00195519 0.00441367 
0.0144597 -0.00113963 0.036977 
0.0109835 0.00014351 -0.00273147 
0.0100885 0.00121285 0.00848779 
0.00733704 -0.000589401 0.0212583 
0.000708051 0.0104902 0.0144087 
1.86366e-05 0.00512491 0.0169951 
-0.000949107 0.00355598 0.0145294 
0.00119385 0.00803122 0.0218013 
0.000335186 0.000282259 0.0189188 
0.00134429 0.000236974 0.0124728 
6.80888e-05 -0.000278883 0.0114833 
0.000421973 -0.00142958 0.016922 
-0.000310304 0.000208947 0.000223506 
0.000311931 -0.000525769 0.0105637 
6.84128e-05 -2.52027e-06 0.000165141 
0.000325485 -0.00100945 0.0107451 
-0.000666952 0.0541092 0.125822 
-0.0087123 -0.0523752 0.069899 
0.0103913 0.0476798 0.117061 
0.00480377 0.00452682 -0.0253454 
0.000814819 0.000230882 0.0213541 
-0.0051477 -0.0053008 0.0140471 
0.000866338 -0.00758086 0.0363141 
-0.0031281 -0.0140195 0.00368463 
0.00013155 -0.000541012 0.010793 
0.001303 0.000510164 0.0131696 
0.000270172 0.000486737 0.0194714 
-0.000337828 0.000840405 0.00890104 
-6.5027e-05 0.000204761 0.000256893 
-0.000168875 0.000182773 0.00859869 
-0.000946163 4.8455e-06 0.00865922 
-0.00021508 -0.000125523 0.00637388 
-0.00191958 -0.00156792 -0.00107246 
0.00427866 0.0040255 0.00198949 
-0.00199544 -0.000376874 0.00139776 
0.00261191 0.00154798 -0.0016494 
0.000135369 -0.00142915 0.00934246 
0.000321963 -0.00200095 0.0116902 
-0.001538 -0.000277831 0.0155832 
-5.96883e-05 -0.000772013 0.00712042 
9.24627e-06 -5.35759e-05 0.0133175 
0.0002325 1.60982e-05 0.00894207 
8.53301e-07 4.77265e-05 0.0110984 
0.000524547 -2.07043e-05 0.0140017 
0.000486863 -0.000376735 -0.000793855 
-0.000736918 0.00132422 0.00203379 
0.000740499 -0.000415756 -0.00120392 
-0.000730827 0.000649731 0.000821754 
-0.00117495 -0.000542139 0.0165025 
-0.00311084 0.000258147 0.0187145 
-0.000898574 0.00179974 0.0150104 
-0.00156204 7.89847e-05 0.016194 
-0.00162339 0.00366344 0.0127509 
-0.00199772 0.00147829 0.0122065 
0.000375838 0.00036471 0.0192983 
-0.000449319 1.11188e-05 0.0083252 
-0.00015029 -0.000902219 0.0183168 
0.00139094 -0.00241446 0.00840585 
0.00070857 0.00118935 0.0183658 
-0.000587432 0.00122767 0.0155255 
0.00116671 0.000425138 -0.000426051 
0.00143258 0.000802482 0.000649866 
-0.00143465 -0.000888414 -6.00431e-05 
-0.00168857 -0.00128722 -0.00059699 
-8.19237e-05 -6.98858e-06 8.87164e-05 
1.11851e-05 1.00271e-06 -1.70751e-05 
1.67534e-05 3.8383e-07 8.87051e-05 
0.000125704 -8.46599e-05 0.0112942 
0.00577787 -0.000492315 0.00904005 
0.00266306 -0.000111124 0.0184284 
0.00357999 -0.00150913 0.0113411 
0.00636057 0.000421576 0.0173926 
-0.0107349 -0.0397987 0 
-0.0491087 -0.0611274 0 
0.0171985 0.0415451 0 
-0.026456 0.0205829 0.105531 
-0.000319669 -0.00815538 0.0103201 
0.00129065 -0.00253785 0.013752 
-0.000426265 -0.00723511 0.0171378 
0.00183311 -0.00269927 0.0106652 
0.0220106 0.00740762 0.017139 
-0.0121776 0.00347606 0.0048073 
0.0143013 0.0174742 0.0359234 
0.00439472 -0.00349156 0.0029435 
4.67995e-06 8.69857e-05 -0.000207816 
3.21946e-05 0.000318888 0.000178465 
-1.21544e-05 -0.000123094 -5.18157e-05 
0.000316525 -0.00103251 0.0118866 
0.00047694 -0.00638938 0.00872304 
-0.000972812 -0.00168674 0.00241722 
0.000744268 -0.00247799 0.00738655 
0.000761638 -0.00133447 0.000703034 
-0.000138081 -0.00605074 0 
-0.00191509 0.0020058 0 
0.000551611 0.00160896 0 
-0.000612286 -0.00757288 0.00932952 
2.06166e-05 0.000203061 0.000438711 
-4.20858e-05 -0.00113194 0.0109891 
6.82244e-05 -8.68966e-05 0.000224925 
-0.000202991 -0.000742962 0.00722793 
-0.000686893 -0.00753113 0.0106127 
0.00175653 -0.00542968 0.00156569 
0.00264244 -0.00859791 0.00424703 
-0.00189732 -0.00125488 0.00151355 
-0.00399812 -0.00177824 -0.00160902 
-0.00333013 -0.00133116 0.00103013 
0.0043459 0.00197053 0.00223302 
0.00509407 0.0022753 0.00107695 
-0.0015017 -6.75519e-05 0.0167386 
-0.000711455 -0.000103669 0.0169308 
-0.000422299 -0.000112212 0.0145809 
-0.000720434 -0.000116044 0.0176071 
-0.000104562 2.78768e-05 0.000127209 
-0.000135182 3.52658e-05 -9.23893e-06 
0.000378868 -0.000100956 -0.000449209 
0.00165026 0.000695549 0.0115502 
-0.00160782 0.00453813 0.00518706 
-0.000953592 0.00235949 0.0134316 
-0.00154031 0.00106236 0.00712093 
-0.000364589 -2.58171e-05 0.00424742 
0.000849189 6.97869e-05 0.0215784 
0.00152217 0.00144249 0.016231 
0.00432921 0.00160226 0.0225779 
0.00050557 0.00530804 0.0226419 
0.000233143 0.00027252 0.00023058 
0.000194548 -9.79411e-05 0.00808547 
9.62013e-05 0.000132191 0.00953822 
1.65228e-05 -9.17813e-05 0.0087393 
-0.000777405 -0.00723162 0.0105735 
0.000728161 -0.0112294 0.0107521 
-0.000219157 -0.0076998 0.0211091 
-0.00146518 -0.00421132 0.0080451 
-2.23511e-05 4.56772e-05 8.48411e-05 
1.49217e-05 1.05184e-06 0.000100189 
0.000129456 -4.38374e-05 0.0111298 
0.000120595 -3.43449e-05 0.0072792 
9.84513e-06 2.66263e-05 0.0124817 
-0.000137789 -0.000238792 0.015761 
-0.000220966 -0.000238731 0.00899937 
-2.29582e-05 4.91683e-05 0.00891612 
-0.00153839 0.000103191 0.0218552 
-0.00164638 -0.00229119 0.0181646 
0.00164594 -0.00258964 0.0116198 
-0.00115063 -0.000481665 0.0160523 
-0.000192908 6.36867e-05 -6.86755e-05 
-9.23404e-05 0.000198038 0.000176066 
-0.000726766 -0.00143578 0.00146162 
-0.000440477 -0.00147122 0.000425839 
0.00879979 0.00948319 -0.00170501 
-0.0109865 0.0187885 0.0241684 
0.00426583 0.00284931 0.00886751 
-0.00286531 0.00247981 0.0105702 
3.65233e-05 5.79066e-05 0.0132202 
-7.13717e-06 1.75899e-05 0.00993564 
-6.62018e-05 5.01225e-05 0.00779779 
0.000313258 -0.000285469 0.00974698 
7.97001e-06 7.46382e-06 0 
0.000687345 0.000144021 0 
0.000770303 -0.000432187 0 
0.000464809 0.00156799 0.000381506 
-0.000211732 -2.97815e-06 -0.000544513 
0.000312116 -0.00187342 0.00520677 
2.83592e-05 -0.00140364 0.00890625 
-7.939e-05 -0.000639668 0.00733773 
-0.00241558 0.00453713 0.00914863 
-0.000152294 -0.00238861 0.00742911 
0.000393637 0.00207972 0.02126 
-0.00015508 0.00781514 0.0226597 
-0.000199339 -0.000233013 0 
1.48008e-05 -0.000485199 0 
-0.000137866 -0.000289074 0 
0.00284457 0.00271306 0.000532738 
-2.70503e-05 -8.69974e-05 0.000389838 
4.41654e-05 0.000123808 -0.00100151 
2.8406e-05 0.000110697 -2.22336e-05 
0.000355451 -0.001762 0.00567029 
-0.000141904 0.000287067 0 
-8.73728e-05 -0.000169076 0 
-0.000336123 0.000374292 -0.000667809 
0.00042471 0.000815635 0 
0.000748017 0.0150438 0 
-0.00271958 0.00215238 0 
-0.0015229 -0.00364436 0 
-0.00734581 0.0100253 0.038071 
0.00432975 -0.0194615 0.0283762 
-0.00873248 0.00843251 -0.0227837 
0.00687278 -0.00928616 -0.0099125 
0.00799463 -0.028043 0.076571 
-0.00783884 0.00301586 0 
-0.000623275 0.000178008 0 
0.00487013 -0.0065411 0 
0.00779695 -0.0106405 0.00259497 
0.000249311 -0.000335357 -0.000521162 
-0.00034122 -0.000472656 -0.00024838 
-0.000138376 -4.94232e-05 -0.000183394 
-0.000383568 0.000684653 0.00125828 
0.0269056 -0.00269512 0.017445 
0.00478742 -0.0114173 0.0172838 
0.00979002 0.00576706 -0.0137308 
0.0179121 -0.0146039 0.0650287 
-0.00234726 -0.00103748 0.0249634 
0.00770372 0.00159202 0.0168836 
0.0015153 -0.00807921 0.0218457 
0.00540382 0.00377414 0.0289377 
0.0013559 -0.000334131 0.000131385 
-0.00336594 0.00231167 0.0010053 
0.00234366 -0.0013344 -0.000409609 
-0.00192431 0.000499817 0.000723884 
-0.00390487 0.00150983 0 
-0.000472816 0.00899555 0 
0.00223235 -0.0168119 0 
0.0150813 -0.0202097 0.0341072 
-0.00221643 0.00424683 -0.000373998 
-0.00133177 0.0151597 0.017233 
0.000156016 0.00890774 0.0110264 
-0.00188016 0.00496155 0.00146695 
-0.00223223 0.00468883 0.0166533 
-0.00267704 0.00426539 0.00606377 
-0.000304691 0.00114055 0.00631264 
0.000824921 0.00214398 0.0138688 
7.07382e-05 0.000331399 -0.000125213 
-0.00183084 0.00330288 0.00818394 
0.000190219 -0.000809218 0.000411001 
0.000318204 -0.00054533 0.00976236 
-1.11748e-05 1.07782e-05 0.00569634 
-8.59867e-06 3.756e-05 0.00681075 
-4.72107e-05 -7.41163e-06 0.000117808 
-6.54972e-05 0.000103919 0.00700005 
-0.00920044 0.000390707 0.0109769 
-0.002562 0.00223045 0.00759166 
-0.00501968 -0.0013041 0.0112188 
-0.00373984 0.000569704 0.00113523 
-7.3163e-05 0.00255419 0.0188076 
0.00254931 0.00113686 0.0220985 
0.000439338 0.00395146 0.0120743 
0.00104095 -0.00139323 0.0190061 
-0.000544082 -0.000157633 -0.000275542 
0.00283928 0.000562437 0.0110165 
-0.000513147 -0.000561002 -0.000227905 
0.0023056 0.000358906 0.00735142 
-0.000757983 0.00270661 0.016617 
0.00037752 0.00098543 0.0155639 
-0.000468919 0.000233376 0.0148133 
0.000312931 0.00172931 0.01699 
0.00384907 0.00106953 0.0150295 
0.00129906 0.0026222 0.015095 
-0.000326658 0.000676504 0.0162934 
0.00159127 0.0029368 0.0148232 
4.83731e-05 -4.84567e-05 8.64867e-06 
1.49531e-06 1.0196e-06 0.000185 
-2.2602e-05 2.29654e-05 1.97586e-05 
3.0606e-05 -7.7656e-05 0.00773311 
-0.00110488 0.000864259 -0.00241899 
0.00180994 0.000371131 0.00172035 
-0.00077817 -0.00254314 0.00197187 
0.00128045 -8.3971e-05 0.00247677 
0.000218045 0.00123241 0.0175749 
-5.71504e-06 0.000162376 0.0181519 
-0.000963365 0.000465825 0.0168982 
-0.000224954 -6.33376e-05 0.0163211 
-0.000332566 0.000129445 -0.000690387 
0.000504242 -0.000124376 0.000129909 
-0.000400769 0.000268797 -0.000304055 
0.000410049 0.000205295 2.20999e-06 
-0.00278494 6.4971e-05 0.0111344 
-0.0023853 -6.96888e-05 0.0153061 
0.000422243 -0.000888207 0.0146307 
-0.00220458 0.000430027 0.00681387 
1.68389e-05 -0.00196881 0.0178948 
-0.000363516 -0.00483318 0.0170152 
0.000508339 -0.00357833 0.013668 
-0.000219225 -0.00307151 0.0190039 
-0.00455755 -0.00448509 0.0126346 
0.00265501 0.00289965 0.0154234 
-0.00351409 0.00563845 0.0125335 
0.00208895 -0.0062209 0.00901555 
0.00593666 -5.68499e-05 0.0219559 
0.000356588 2.12447e-05 0.0207362 
0.00144627 0.000742474 0.0081096 
0.0027016 0.0049167 0.0278512 
0.000451493 0.00119594 0 
-0.000974889 -0.0011709 0 
-0.000204083 0.000706616 0 
0.00322257 -4.89795e-06 0.000820027 
0.00865708 0.00197252 0.000491134 
0.0235641 -0.0116269 0.0429278 
0.00323313 -0.0104903 0.0180161 
0.00694054 0.00254735 0.00226852 
-0.0123783 -0.0250029 -0.0200807 
-0.0291673 -0.00716745 0.0209562 
-0.016983 0.00500759 0.032268 
0.00219548 0.020623 0.10998 
0.00275472 -0.00219381 0 
-0.0018172 -0.00236541 0 
-0.00211871 0.00461151 0 
0.00910083 -0.000686915 -0.00156312 
-0.00365628 -0.00151034 0.0251408 
-0.000332208 -0.00572075 0.0180068 
0.00195086 -0.00594419 0.0169795 
-0.00182447 -0.00264133 0.0180677 
0.000877201 -1.09286e-05 0.0120621 
0.001199 -0.00222029 0.0139046 
0.000902493 -0.000628783 0.0169899 
-0.000589545 -0.00199266 0.0164283 
-0.00450841 0.00310517 0.00867305 
-0.00292808 -0.0128024 0.0150071 
0.00201489 3.15449e-05 0.00722494 
0.0034276 0.000141207 0.00104756 
-5.67114e-06 4.88411e-05 0.000101054 
0.000198183 6.16096e-05 0.00911745 
-0.000190904 0.000344072 0.0107684 
-0.000122181 0.000371569 0.00759291 
-7.86389e-05 6.14955e-05 1.40963e-05 
5.57039e-05 5.80552e-06 0.000184376 
6.71062e-05 0.000232391 0.0106895 
3.06539e-05 0.000149502 0.0092575 
-0.000277024 -3.04843e-05 0.0206317 
0.000830368 0.00464235 0.0236752 
-0.00133156 0.00376055 0.0206147 
-0.000359667 0.000438293 0.0135161 
4.20802e-05 -0.000143952 -0.000114029 
-6.55509e-05 -0.000261159 -0.000132353 
0.000747889 0.00107144 0.00107984 
-3.60285e-05 0.000162615 0.000379723 
5.24097e-06 -6.24757e-05 6.42096e-05 
-1.35855e-05 0.000161947 -4.00319e-05 
-2.8853e-06 3.43946e-05 0.000284988 
-2.30678e-05 -3.74382e-07 0.012456 
-0.000946048 0.00109343 0.0145301 
-0.00104345 -0.000431645 0.0164244 
-0.00345817 -0.000201745 0.0162419 
-0.00289378 0.00256959 0.0147316 
-0.000794009 -0.000387249 0.0136888 
7.59954e-06 -0.00134245 0.0175291 
-8.87383e-05 -0.000750505 0.0150585 
-0.000322241 -0.00201581 0.0189624 
-3.69323e-07 5.21817e-06 6.4638e-05 
-2.65994e-05 -0.000321097 -0.000198455 
-6.1784e-05 -0.000636997 0.000297043 
0.00120421 0.000911058 0.00934556 
0.000234364 0.00027742 -0.000460858 
0.000579223 0.000375968 -0.000891704 
0.000334475 -0.000614079 -0.000600712 
-0.00397496 0.000794974 0.00548063 
0.00012282 -0.000987201 0.0183567 
-8.00064e-05 -0.000846739 0.0159132 
3.9888e-05 -0.00211149 0.0174546 
-6.33924e-05 -0.00028521 0.0159501 
-6.30639e-05 -2.7844e-05 0.000263628 
0.000167334 7.55828e-05 -0.000358076 
7.68319e-05 3.49599e-05 -0.00011308 
0.00103819 -0.000292544 0.0111897 
-0.000315978 -0.000459528 0.0117707 
-0.000536192 0.00042107 0.00880151 
-0.000129103 -9.76114e-05 0.0140956 
0.000439887 -0.00109915 0.0160271 
2.42432e-05 -7.23437e-06 0.000222546 
6.80187e-05 -1.49331e-05 -6.48273e-05 
-6.76566e-05 1.4024e-05 0.000171067 
0.000327608 -6.51263e-05 0.00915998 
2.1279e-05 9.79101e-06 -5.69068e-05 
-0.000118855 0.000270689 -0.000359572 
-0.000140295 0.000221884 -0.000121518 
-0.0014206 -0.000205924 0.00137262 
-0.000939919 0.00124516 -0.00575739 
0.000449008 0.00149176 0.00854897 
-6.57132e-05 -0.000873266 -0.000591094 
0.0129463 -0.00381279 0.0159721 
-0.000570509 -0.000217044 -0.00119593 
-0.0022202 0.00106523 0.0100329 
0.000544289 0.000120881 -7.38142e-05 
-0.00236435 0.000154872 0.00783126 
-0.00111804 -0.000512889 -0.000867022 
0.00592425 0.0151157 0.0192898 
0.000596661 -0.00421456 -0.00641027 
0.00195962 0.000508944 0.00212422 
-0.00940083 -0.0216001 0 
0.0101136 0.0355759 0 
0.0121238 0.0315292 0 
-0.00536553 0.0225523 0.0973348 
-1.85662e-05 1.35244e-06 0.0109498 
1.97458e-05 -2.44226e-05 0.0115876 
-3.67508e-05 5.50242e-05 0.00666623 
6.78961e-05 4.10579e-05 0.00923245 
-0.000162136 0.000147964 0 
0.000153999 -4.07328e-05 0 
0.000205972 0.000136637 0 
-0.000696791 -0.00137627 0.000617551 
-0.000283862 0.000207824 0.000283523 
1.03194e-06 -3.42446e-05 3.357e-05 
0.000138867 0.000263439 0.00692404 
-2.37942e-05 0.000117861 0.00695677 
-0.000747687 -0.00287865 0.0146699 
0.000468153 -0.00301666 0.0140293 
-7.54274e-05 -0.0016014 0.0162335 
-6.27559e-05 -0.00502834 0.0160927 
-0.000153031 -0.000102941 0.000288118 
-0.000121342 -8.30655e-05 -4.65943e-05 
9.76148e-05 6.71013e-05 9.06261e-05 
0.000620242 0.000368533 0.00782503 
3.09451e-05 -3.27629e-05 0.0175125 
-0.000773368 -2.97747e-05 0.0170063 
-0.000380435 0.000428483 0.0167765 
-0.000530714 8.20981e-05 0.0181298 
-0.00183553 -0.00053429 0.0144113 
-0.00053408 -0.00056572 0.0183605 
-0.000148969 -0.00159315 0.0159948 
-0.000313633 2.42936e-05 0.0161455 
-0.000443382 0.000745156 0.0142882 
-0.000217688 0.000385808 0.00834359 
-0.000811351 -0.000216688 0.0095931 
-0.000658719 -0.000206062 0.0100185 
0.000106914 0.000182824 9.2184e-05 
-0.000373279 -0.000614219 -0.00104256 
-0.000231762 -0.00038826 -0.000440759 
0.000666601 0.00263625 0.00288762 
-0.000959842 -0.00130238 0.0029585 
-0.00286073 0.000685416 0.00210394 
-0.00323995 0.00272969 0.00714594 
-0.000230555 -0.00028515 0.000510875 
-5.73849e-05 3.96388e-05 0.0180209 
5.42667e-05 3.45775e-05 0.0166692 
-0.000355867 -0.000553199 0.016514 
-0.000159561 -0.000897898 0.0171443 
0.000343847 -0.00696182 0.00861981 
0.00084137 -0.00209498 0.00755733 
0.00205564 -0.00427689 0.00410015 
0.00069183 -0.00149495 0.000263527 
0.000638043 0.0035908 0.0158901 
0.000759121 0.000858241 0.0154883 
-0.000805438 0.00296669 0.0173194 
-0.000146237 0.00184123 0.0169643 
-0.000960374 -0.000913475 0.00257261 
-0.00528537 -0.00180488 0.0107185 
-0.00296527 0.00165048 0.00772767 
-0.00334945 0.00138797 0.00228006 
-0.000413904 0.000364169 0.0142552 
-0.00101114 0.00220217 0.0181762 
0.000538571 0.00205587 0.0168745 
-0.000714589 0.00067155 0.0157545 
-0.000243846 0.000645079 -0.00131125 
0.000369315 0.000490746 0.00140331 
0.000772999 -0.00383345 0.00637342 
-0.000712546 -0.0038086 0.00357188 
-0.00141639 0.000826124 -0.00165599 
0.00372654 0.00145699 0.00256303 
-0.00204113 0.01358 0.0157437 
0.00367871 0.00338782 0.0049609 
3.79891e-05 0.000172322 -4.58062e-05 
-0.000186841 0.000156686 0.000388341 
0.000197609 4.14267e-05 0.0124299 
6.26553e-06 0.000167025 0.00841598 
0.00134114 -7.65173e-05 0.0165105 
0.00128711 -0.00021645 0.016749 
0.00137316 0.000219786 0.0168669 
0.000187502 1.57385e-05 0.0144204 
-0.00183035 -0.00100396 0.0218106 
-0.000139522 0.00219637 0.0150418 
-0.00471537 0.000520899 0.0180314 
-0.000606146 0.000658074 0.0161889 
-0.000704589 0.000775213 0.0103071 
0.00300045 0.00116483 0.00568059 
0.00657861 0.00101283 0.0167608 
0.00266827 0.00107599 0.00701121 
-0.000118375 3.66776e-05 -0.000439756 
-5.49168e-05 1.27831e-05 0.000161713 
4.58583e-05 -1.20077e-05 -1.98403e-05 
-0.000652529 -0.000450879 0.00986759 
-0.00586063 0.0240123 0.0339849 
-0.00333609 -0.00595845 0.0178677 
-0.00332053 0.00509921 0.00522988 
-0.00187992 -0.00445867 0.00379058 
1.09299e-05 7.75191e-06 0.0190975 
0.000110947 -0.000727407 0.0179959 
-0.000486389 -0.00051583 0.0176265 
-9.37065e-05 -4.39802e-05 0.018178 
0.00556209 -0.0062429 0 
-0.00543821 -0.00190845 0 
0.000636097 0.00911226 0 
0.0168165 -0.00492105 0.000384912 
5.58401e-05 0.000123881 0.00016616 
7.82699e-06 1.41156e-05 -7.67472e-05 
1.93949e-07 -1.17947e-06 -4.89933e-05 
0.000156112 0.00017771 0.00973078 
-1.36835e-05 7.76038e-07 4.4729e-05 
0.000312301 -0.000353434 0.00955722 
-8.12755e-05 0.000117231 0.000271107 
0.000498517 -6.48934e-05 0.00873828 
0.000103417 -4.68876e-05 0.00024061 
2.81423e-05 -5.59429e-06 -4.26851e-05 
-0.00102894 -9.42578e-05 0.0078454 
-0.000311577 -0.000125386 0.00818435 
0.00179324 -0.0047029 0.00418275 
-0.000660789 -0.0155882 0.00961922 
2.69412e-06 -0.00105041 -0.00510903 
-0.00168497 -0.00321188 0.00396041 
4.26413e-05 2.05997e-05 0.0100702 
-4.34432e-05 4.74846e-05 0.00706759 
0.000255101 -0.000279585 0.00975806 
0.000100523 -0.000136496 0.00763629 
-6.06455e-05 -5.03802e-06 0.0164459 
2.7101e-05 -2.10078e-05 0.018121 
-3.02173e-05 1.48298e-05 0.0172218 
0.00013218 -0.0006208 0.0184145 
0.00234351 0.00345759 0 
0.0027505 0.00143814 0 
-0.00347605 -0.0015031 0 
-0.0119779 -0.00399544 0.00233228 
0.000102636 -1.05606e-05 0.018524 
8.01112e-05 -0.00056197 0.0179987 
-8.04487e-05 7.6906e-06 0.0188277 
-1.08206e-05 -0.00012252 0.0183782 
-0.00235057 0.00333043 0.00462905 
-0.000576152 0.00145249 0.00747266 
0.0015666 -0.00099425 -0.000423737 
-0.000993729 0.00147459 0.00442362 
-4.03178e-05 0.000489162 0.000231852 
-1.57599e-05 0.00018592 -3.69561e-05 
5.12238e-08 -3.30147e-05 -0.000781698 
-0.00107695 -0.00200049 0.0071167 
-0.000185801 -0.000560339 0.00903509 
-0.000372597 0.000241364 0.0157721 
-7.68514e-06 0.000197979 0.0135353 
0.000143334 -0.000215399 0.00889698 
9.13304e-05 -0.000712967 0.0124725 
-0.00253535 -0.000861261 0.0155742 
-0.00241842 0.000742265 0.0122776 
-0.00134714 -0.00177403 0.0196865 
-4.2162e-05 9.22954e-05 0.0118654 
-9.81513e-06 -2.59159e-05 0.00737703 
-4.73556e-06 1.0927e-05 0.00585281 
-0.00017861 8.51233e-05 0.00840763 
-2.24356e-05 8.87461e-05 0.000202688 
1.4655e-05 -2.59866e-05 0.00012842 
0.000144626 -0.000543736 0.0102236 
0.000201547 -0.000221322 0.00750825 
0.00517754 0.0190306 0 
-0.00102979 -0.00887093 0 
-0.00325904 -0.00488048 0 
0.0100938 0.0290359 0.0314134 
0.00283081 -0.00412171 0.00361087 
-0.0028586 -0.0133084 0.00946002 
0.000186859 -0.00762218 0.00917739 
0.00219396 -0.00600794 0.00120206 
-0.00195338 -0.00839451 0.00875317 
-0.00197847 -0.0237006 0.0344882 
0.00320799 -0.00806639 0.00676366 
0.00226993 -0.00559963 -0.00368697 
0.00812371 0.00164868 0.0271603 
-0.000208212 -3.78379e-05 0.00526916 
0.00252077 0.00776383 0.00481753 
0.00419773 0.00655661 0.032429 
-0.00034572 -0.000641263 0 
-0.0019321 0.00119825 0 
-0.00137655 -0.000919664 0 
0.00663317 -0.00220845 -0.000888955 
0.00130527 -0.000288707 0 
-0.000613187 -0.000461712 0 
-0.00065646 0.000483338 0 
-0.00157935 -0.00172428 0.000995559 
5.09261e-05 8.65604e-05 0.000242588 
-7.7933e-06 -4.27351e-05 0.000377649 
-0.00025757 -5.94868e-05 0.00868006 
-0.000349909 -0.000305677 0.00837804 
-0.000489549 0.00041602 0.0143496 
-0.000239351 5.37069e-05 0.00863352 
-0.000957147 0.000207851 0.00916236 
-7.06388e-05 0.000138391 0.00870092 
-0.00124559 -0.000558117 0.0145262 
-0.000386654 -0.000177047 0.00921925 
0.000370462 -0.00131133 0.0122273 
-0.000753635 -0.000436094 0.0162631 
-0.00147301 -0.000235421 -0.000902564 
-0.000979059 4.28748e-05 -0.000327064 
-0.000649435 1.66799e-05 -0.00153467 
0.0032308 0.00250474 0.00466447 
3.2089e-05 -2.32932e-05 0.0185587 
4.2936e-05 3.13423e-05 0.0170802 
-5.05596e-05 -4.99519e-05 0.0172397 
0.000391171 -0.000505653 0.016978 
0.00558313 -0.00431719 -0.00369483 
0.0072652 -0.00652739 -0.00523387 
-0.0333432 -0.00308667 0.0414883 
-0.00721199 0.000819801 0.000724955 
-0.000241074 0.00096154 0.0242822 
0.00357054 0.00343324 0.0194435 
-0.00156364 0.00185343 0.0140809 
0.00533217 -0.000815685 0.0144916 
-0.00686595 -0.00187204 0.0391995 
-0.00245602 0.00114572 0.0110048 
0.00209678 -0.00893082 0.0632455 
0.00597537 0.00679291 0.0277637 
-1.51984e-05 -2.65133e-06 0.0186286 
-6.82006e-05 -2.13212e-05 0.0173982 
3.16824e-05 5.44075e-06 0.0172646 
-0.000289384 0.000423732 0.0168142 
-7.65903e-08 -3.98508e-05 0.0109171 
-0.000101252 -0.000150908 0.0133185 
-2.71029e-05 3.73497e-05 0.0107655 
-0.000233465 -0.000317485 0.00819923 
-0.000945657 0.00210506 0.0027758 
-0.000559496 0.000764757 0.00082105 
0.000320877 -0.000710534 -0.000149593 
-0.000777263 0.000939519 0.00400533 
1.01745e-05 -8.73958e-05 0.000341121 
0.000328976 -0.000115793 0.00901718 
-0.000143126 7.937e-05 0.0112156 
0.000349424 0.000174631 0.00734091 
0.00076471 -0.00166241 0.0206791 
-0.000276211 -0.00285859 0.035749 
-0.00223109 0.00507048 0.0205872 
0.000637895 0.00913856 0.0231002 
0.000238893 -0.00127383 0.00866119 
-7.23494e-05 0.000127336 -0.000352421 
0.000178898 -7.08042e-05 0.00756744 
0.000363693 -0.00093985 0.0043851 
0.00111278 -0.000483535 0.0257961 
-0.00157098 -0.00732605 0.0170987 
0.00116423 -0.00446767 0.0202259 
0.000697921 -0.0015994 0.0161608 
0.000194914 -8.66586e-05 0.000295745 
-4.738e-05 2.16812e-05 -5.26223e-05 
8.49241e-05 -4.18782e-05 -2.33926e-08 
-0.00108205 0.000264713 0.00889067 
0.0046381 0.000537947 0.00936298 
0.000690839 -0.00235486 0.00743471 
0.00178017 -0.00362567 0.00386546 
0.00445848 -0.00306423 0.0117718 
-3.90592e-05 4.12124e-05 0.00611682 
8.23995e-06 -6.89485e-05 0.00544501 
2.72197e-05 0.000159654 0.000194304 
9.2628e-05 -0.000140152 0.00890525 
2.16298e-06 3.50958e-05 -3.64563e-05 
1.51307e-06 -1.08919e-05 0.000188764 
-1.59981e-07 1.07997e-05 -7.82854e-05 
3.26895e-05 -0.000339487 0.0095165 
0.000186773 0.000293927 -1.30328e-05 
-0.000171634 0.000688375 0.00224577 
0.000223775 7.56459e-06 -0.000920803 
-0.000507073 0.000302614 0.000936213 
-7.11769e-06 6.55311e-05 0.0107029 
-0.000285382 -0.000220102 0.00910369 
6.53057e-05 1.00626e-05 0.012394 
-0.000143006 -0.000233411 0.0157541 
-5.28285e-06 -1.00078e-05 -0.000283972 
1.73029e-05 2.49726e-05 0.000114551 
0.000109416 0.000152628 0.000172008 
-0.000293959 0.000145188 0.00984318 
-0.00314809 -0.000275967 0 
0.00159051 -0.000446051 0 
0.00218672 -0.00196567 0 
-0.00521703 -0.00129335 0.00256984 
-0.000350774 1.91381e-05 -0.000176979 
-0.000131648 0.000400518 -7.55502e-05 
0.000317675 -0.00159532 0.00836334 
0.00031742 -0.000969173 0.00419175 
0.000198421 -0.00150836 0.0181176 
0.00268689 0.000123989 0.0167177 
0.00431917 0.000400948 0.0162192 
0.00580119 0.000437237 0.0177878 
0.0282872 -0.021533 0.0145563 
0.0174388 0.000535785 0.0279819 
-0.00962553 0.00203147 0.0197974 
-0.00330798 0.00012521 0.00238333 
0.000105097 -4.554e-05 0 
-0.000444328 3.74471e-05 0 
-0.000247272 9.24845e-05 0 
0.00338779 0.000731895 0.000329113 
0.0021317 0.00028392 -0.0036978 
0.00276008 -0.00122686 -0.00029198 
-0.00836762 -0.000682184 0.00796875 
-0.00514382 -0.00159895 0.0071159 
-0.00803995 -0.00401907 0 
0.0212497 0.0047842 0 
-0.00890618 -0.00838622 0 
0.0221999 -0.00262933 0.0168497 
0.0279718 -0.0111445 0 
-0.0529117 0.0245383 0 
-0.0410896 0.00814733 0 
0.0162147 -0.0233073 0.154686 
-2.21341e-05 -3.30695e-05 0.00681729 
-0.000228591 -3.80129e-05 0.00867261 
-2.01026e-05 -0.000136312 0.0107332 
-0.000192493 -7.93755e-05 0.00825041 
-0.000362445 -0.0021637 -0.00354065 
0.00295222 0.00452095 0.00400807 
5.45734e-05 0.00103255 0.000677562 
0.00109111 0.00122416 0.00508694 
0.000104338 1.05304e-05 0.0111625 
-7.18317e-05 0.000513175 0.0148351 
9.77722e-05 0.00130122 0.0168311 
-1.44882e-05 0.000588286 0.0148534 
0.000744863 -1.85592e-05 0.016438 
0.00112922 6.92713e-05 0.0160789 
0.00244596 -0.000384605 0.0173255 
0.00186392 4.80938e-05 0.0171203 
0.0019998 -0.00295274 0.000649952 
0.00368279 -0.00542775 0.00932796 
-0.00230071 0.000138156 -0.00348502 
0.000990118 0.00300243 0.00790947 
0.000113417 -0.00536933 0 
-0.00194803 -0.00176945 0 
0.00198605 -0.000780956 0 
-0.0027173 0.0176065 0.00101633 
0.00078469 0.00279833 0.0148633 
0.000828875 0.000775866 0.0122984 
0.00246779 0.000575534 0.0151887 
-0.00102759 0.00190729 0.0149359 
0.000119935 0.000779961 0.016793 
-0.000208718 0.000520913 0.0150113 
8.86035e-05 0.000448997 0.0111908 
0.000199101 0.000302997 0.0143894 
6.9727e-06 -6.63539e-05 0.0123504 
-4.59624e-06 4.59608e-05 0.0109459 
0.000106998 4.77322e-05 0.0074676 
-0.000329286 -0.000188289 0.0142704 
-0.00139198 0.00195587 0.0149398 
0.00181803 0.00221217 0.0073745 
-2.86401e-07 0.00131976 0.0128596 
-0.0018095 0.000306141 0.0158389 
-0.000524099 -0.000372474 -0.0017752 
-1.60853e-05 0.000972452 0.00808588 
0.00462404 0.00518436 0.0133744 
0.00483829 0.00315858 0.00705524 
0.000495232 0.00598091 0 
0.00516263 -0.000592444 0 
-0.000126241 -0.00696888 0 
-5.44604e-05 -0.0134686 0.0109629 
-0.000226532 -0.00116732 0.0095176 
-0.000625154 -0.000730523 0.0153482 
-9.68207e-05 -0.000185413 0.00870088 
-0.00017527 -0.000720035 0.00714487 
0.00118136 -0.00284911 0.0143923 
0.000987196 -0.00162401 0.0164349 
0.00322184 -0.00278373 0.0129518 
0.00101156 -0.000988346 0.0167002 
-0.00173709 -2.42965e-05 0.0141756 
-0.000107464 -0.00220736 0.0161396 
0.00022469 0.000357071 0.0123169 
-0.000359791 -0.000110304 0.0162253 
5.90555e-05 -4.23858e-05 0.0104833 
-2.98475e-05 2.14837e-05 0.0136443 
5.01414e-05 5.79209e-05 0.0101269 
-0.000317969 0.000104582 0.0149203 
0.00521153 -0.0016351 0.0215433 
0.00219535 0.00350539 0.0153514 
0.003073 0.0154427 0.0305937 
-0.000687379 0.0067962 0.0220761 
-0.00168576 -0.00109057 0.0032151 
-0.00344125 -0.00181085 0.00340725 
-0.00309349 0.00153974 0.0022424 
-0.00056805 -0.00294799 0.0011467 
0.0119933 -0.00348022 0.00675685 
-0.00922054 -0.0106572 0.0435632 
-0.000765338 -0.00158624 0.0131156 
0.000240454 -0.00796499 0.0457212 
0.0164009 0.0142863 0.0212889 
-0.0248619 -0.0138855 0.0409544 
0.0465456 0.0080493 0.12574 
-0.0201208 -0.0131355 0.0391157 
0.00341071 -0.00180911 0.0193169 
-0.0065122 -0.00948618 0.0356112 
0.00366436 -0.00495732 0.0118788 
-0.000697083 -0.00989081 0.0122623 
0.000645131 0.000223884 0.0134753 
0.00082491 0.000297319 0.0144406 
0.00096261 -0.000183981 0.0172949 
0.000306318 -2.06947e-05 0.0150393 
0.0075174 -0.0072384 0.0138414 
-0.000750125 -0.0051401 0.0175786 
-0.00407291 0.00111982 0.0257966 
0.00220497 -0.000140322 0.0348429 
3.35366e-05 7.09516e-06 0.00560607 
-5.31019e-05 3.30063e-05 0.000155692 
2.9164e-06 -4.87547e-05 5.03252e-05 
0.000387104 -0.000147577 0.00884737 
-0.000807525 -0.000649567 0 
0.000125875 -0.00017191 0 
0.000631865 9.51614e-05 0 
0.000640112 0.00228872 0.000793223 
0.00745686 0.0423317 0.187701 
-0.00220464 0.0344061 -0.0317934 
-0.0255159 -0.0013216 0.0940485 
-0.00688716 -0.0310831 0.0158362 
0.00351617 0.00531835 -0.00434843 
-0.00423946 -0.0340556 0.0466861 
2.42931e-05 0.00707794 -0.00484723 
0.000223149 -0.00676457 -0.00288478 
-7.43857e-05 -4.02922e-05 0.0106441 
3.41507e-05 2.48978e-07 0.00674564 
-2.93241e-06 9.87696e-06 0.00570503 
-0.000129555 -0.000244455 0.00885996 
5.02826e-05 2.04763e-05 5.73451e-05 
-5.02624e-05 6.1856e-05 0.000128887 
-0.000383767 5.13777e-05 0.00878365 
-0.000409207 4.23453e-05 0.00949954 
-4.94049e-05 1.70674e-05 -6.59656e-05 
-2.32654e-05 7.22077e-06 -7.58165e-07 
-8.07269e-05 1.97087e-05 0.000195801 
-0.000677831 -2.04305e-05 0.00975024 
-0.000121928 0.00116187 0 
0.000700318 0.000245863 0 
-0.000150198 -0.000180062 0 
0.00114066 -0.00634274 0.000884094 
-2.7971e-05 -2.27352e-06 5.24159e-05 
9.98613e-05 8.11684e-06 3.26885e-05 
-4.70714e-06 -3.82602e-07 0.000228569 
6.93955e-05 5.26587e-05 0.0113018 
-0.000834001 -0.00225612 -0.00153595 
0.00363879 -0.00535964 0.00794643 
0.00606547 -0.0248533 0.0371979 
-0.00491526 -0.00632473 0.0034721 
0.00517742 -0.000124927 0.0105391 
0.00182874 0.000900428 0.0147907 
0.00294804 -0.000410819 0.0173992 
0.00582589 -0.000144576 0.0164625 
0.0271405 -0.0298982 0.0578568 
0.0109248 -0.0453985 0.0586623 
-0.00906022 0.00871182 -0.0479378 
0.0224183 0.0249533 0.0560911 
7.54039e-05 -0.00223674 0.0174159 
1.51023e-05 -0.00170258 0.0162452 
0.000121534 -0.000813566 0.0180892 
0.000841025 -0.00130291 0.0164205 
-0.000220049 0.000355143 1.96476e-05 
-0.00193463 -0.000785309 0.00314184 
0.000507402 0.000455099 5.45857e-05 
-0.000905372 -0.00041184 0.0046288 
-5.00029e-05 -5.62164e-05 0.0155141 
0.000850984 -4.03205e-05 0.0173659 
0.000619585 -0.000154284 0.0151257 
0.000795496 3.384e-05 0.0143691 
-0.000121778 2.00781e-05 0.000127398 
0.000364054 8.2964e-05 0.00956253 
-1.78564e-05 -0.000169186 0.00019237 
0.000128722 0.000127467 0.00883287 
0.000673742 -0.000399866 0.0170748 
2.96232e-05 -1.16562e-05 0.0181315 
2.7038e-05 -0.00086967 0.0179665 
0.000556832 0.000168557 0.0180323 
3.29722e-05 -1.2084e-05 0.0100835 
7.06695e-05 2.90514e-05 0.0126036 
-6.24643e-05 -1.06501e-05 0.00709643 
0.000110241 -2.31034e-05 0.0076587 
-1.81484e-05 8.17126e-05 5.4324e-05 
0.000451939 0.000146246 0.000221824 
-0.000477669 -0.000233106 -2.37754e-06 
0.000254392 0.00082861 -0.000246642 
0.00325944 0.00420397 0.00578258 
-0.00095641 0.002553 0.00800256 
0.00411335 0.00318498 0.0132188 
-0.000335593 0.00152916 0.00710156 
4.64199e-05 -0.000315274 9.30891e-05 
-8.35705e-05 -0.000229965 0.00985494 
-3.72133e-05 0.000446152 0.0112292 
0.000107476 -0.000391462 0.00934006 
-2.25394e-05 -3.23423e-05 0.0107187 
3.98361e-05 -3.7444e-05 0.0123838 
-0.000311144 -0.000188543 0.00914945 
-0.00032638 -0.000243928 0.0143635 
-0.000499211 -0.000582277 0.0180301 
-0.000573225 -0.000559767 0.0166402 
4.11879e-05 -1.69349e-05 0.0180258 
-0.000516153 -0.0002068 0.0174231 
0.00479288 -0.000345153 0.0186484 
0.00429447 -0.000545125 0.0101826 
0.00271213 -0.000247856 0.0169861 
0.00577552 -0.000351638 0.0184497 
-0.000290393 -0.000156743 0.000179583 
-5.90847e-05 4.85438e-05 5.61002e-05 
-3.29284e-05 -0.000323481 0.00891612 
0.000207139 -0.000191369 0.00780137 
0.00016291 -1.51461e-05 5.89612e-05 
0.000249644 0.000105039 0.000401033 
-0.000117206 3.78102e-05 0.0111961 
7.52899e-05 -1.66583e-06 0.00729063 
4.66449e-05 -9.55004e-05 0.0172313 
-3.14191e-05 -6.94157e-06 0.0178395 
0.000790467 -7.9052e-05 0.0168038 
0.000474138 -2.06733e-05 0.0182375 
-0.00102647 -0.000827767 0.00224027 
0.000503253 -0.00761787 0.0087252 
-0.00240546 -0.00515268 0.00965065 
-0.000523667 -0.00226777 0.00122036 
-1.81061e-05 -9.44037e-05 0.0103835 
-1.46098e-05 6.50145e-05 0.0100655 
-0.000260027 0.000158729 0.00794519 
-0.000107727 0.000192115 0.0151686 
-0.000318968 -0.000709417 -0.000746899 
-0.000178311 0.000339794 -0.000455123 
6.60762e-05 -2.55318e-05 -0.000149894 
-0.00132788 0.0042029 0.00465276 
0.00111338 -0.00162318 0.0147364 
-0.000307788 0.000317768 0.0121399 
0.00107455 -0.000254347 0.01259 
0.000525651 -0.00103529 0.016956 
-0.000315725 -9.98662e-05 -0.000241405 
0.00155255 -0.00365712 0.0066891 
-0.000551665 0.000994486 0.00113308 
0.000993381 -0.000330664 0.00912506 
-1.63832e-05 -1.0755e-05 0.0109908 
8.21061e-05 -8.0124e-06 0.0146117 
-7.21691e-05 2.28236e-05 0.0107938 
-0.000108534 -0.000166344 0.0132989 
0.000693807 6.08487e-05 0.0112315 
0.000653773 -6.92219e-05 0.00918099 
0.000166398 3.44303e-05 0.000153805 
0.000234121 7.5285e-05 0.00702277 
0.00739185 0.00104068 0.0172059 
0.00741266 -0.0181491 0.0528149 
0.00362961 -0.00581615 0.020459 
-1.1146e-05 0.0103239 0.025807 
0.00338057 -0.00331544 0.0155872 
0.000836784 -0.00193612 0.0245694 
-0.000239157 -0.00137996 0.00969134 
0.00426271 6.45616e-05 0.0149871 
-0.0015573 0.013672 0.00686293 
0.000555139 0.0103128 0.0540181 
-0.0011131 0.0150502 0.0240415 
0.00149395 0.00678496 0.022432 
-2.24905e-05 -3.1939e-06 0.00569104 
5.27877e-05 -0.000150584 0.00760527 
7.42064e-05 1.5437e-06 0.000163241 
-3.28595e-05 4.67158e-05 0.00902626 
-0.00339278 0.00487381 0.0201301 
0.00292818 -0.00811185 0.0196019 
0.00441747 -0.012927 0.0486987 
0.00387149 0.00402978 0.0311283 
6.10713e-05 -0.00105732 0.0119952 
-0.000127121 -0.000384997 0.00934206 
-0.000512472 0.000327246 0.0114985 
-0.0007294 -0.000458965 0.016323 
0.000136554 1.38893e-06 1.02784e-05 
-2.51695e-06 -0.00019701 -5.99273e-05 
-0.000100558 -0.000129391 -2.22127e-06 
0.000497127 0.000812178 0.00035926 
0.000835618 9.69021e-05 0 
-0.000380977 0.000234738 0 
0.000612889 0.00026921 0 
-0.000479672 0.000404728 0.000904377 
-3.43644e-05 1.30037e-06 0.00010211 
-4.18058e-06 1.17747e-06 -7.03808e-05 
7.46198e-05 -7.86226e-06 0.000187597 
-0.000116576 5.69848e-05 0.00886582 
0.00489713 -0.000382043 0.00977632 
0.00657483 0.000917004 0.00409963 
0.000964967 0.00125118 0.00183345 
0.00326584 0.00360546 0.0105067 
0.00115744 -0.00559262 0.0189085 
-5.95797e-05 -0.000434674 0.0182532 
-0.00021404 -0.00568125 0.0177414 
-0.000155273 -0.00207526 0.0165349 
6.4238e-06 -3.03069e-05 -0.00113623 
0.000590516 -0.000735069 0.00146533 
0.000653593 0.00077374 0.00237251 
-0.000221545 4.99201e-05 0.000678657 
0.00127294 -0.000111692 0 
-0.000109902 -0.000205952 0 
-0.000118727 0.000189833 0 
-0.0005559 0.000659944 -0.000343347 
-0.000411591 0.000261983 0 
-0.000266996 -3.85962e-06 0 
-0.000129389 -0.000596815 0 
-0.00121435 0.00213032 0.00024985 
3.00845e-05 5.99532e-05 -0.00206873 
-0.00403075 0.00359791 0.00519502 
-0.000948443 0.001541 0.00451437 
-0.00116213 0.0014918 0.00735613 
-0.0011375 0.00062149 0.017242 
-0.000131238 0.000587727 0.0166051 
-0.00095021 0.000325511 0.0158782 
-0.000318846 -5.34144e-05 0.0157579 
-7.72864e-06 9.61132e-06 0.00639587 
1.04826e-07 -4.51522e-06 0.00582722 
5.08293e-05 3.1226e-05 0.000114487 
-0.000149824 4.40224e-05 0.00867263 
-0.00151773 0.0026842 0.0108504 
0.00463256 0.00644887 0.018124 
0.00309926 0.00499863 0.0044553 
-0.00115708 0.000966132 0.00607313 
-2.36962e-05 4.65812e-06 0.006716 
0.000157384 2.80369e-05 0.00940546 
-2.28902e-05 -2.28107e-05 0.00022533 
-2.83484e-05 8.74218e-05 0.00700026 
-0.00128889 -0.000772133 0.017161 
-0.00119104 0.00177811 0.0149482 
-0.00274519 0.000518991 0.0180718 
-0.0011214 0.000403746 0.0153028 
-0.00315715 0.00331164 0 
-0.00282999 0.00258082 0 
0.00209279 -0.00283598 0 
0.00430949 -0.00937155 0.00527398 
0.000152812 -4.33868e-05 0.0188249 
-0.000657807 -0.000412977 0.0178789 
4.28016e-05 -3.92807e-06 0.0183293 
-0.000552273 -3.50232e-05 0.0181232 
-0.0104061 -0.00207821 0.0124208 
-0.00662573 0.00830714 0.00873573 
-0.00183282 0.00246545 0.0193532 
-0.0144166 0.00396901 0.0300362 
0.0130343 0.0330321 0 
0.0337363 0.0469683 0 
-0.0123709 -0.0198499 0 
-0.0107478 -0.00552822 0.115453 
-0.000214138 -0.00011555 -3.91835e-05 
-1.68403e-05 9.98708e-05 -3.51859e-06 
-0.000116947 -0.000190507 3.22586e-05 
-0.000353181 0.000159314 8.88857e-05 
4.46862e-05 -1.33038e-06 0.0179896 
-6.45736e-05 5.94995e-05 0.0182101 
3.90534e-05 1.07935e-05 0.0187436 
-0.000489075 -0.00054087 0.0181638 
1.53195e-05 0.000380255 0.011091 
5.92058e-05 0.000291949 0.0146264 
0.000368971 8.29888e-05 0.0094236 
0.000220879 0.000268836 0.00742542 
-0.000112034 0.000360583 0.014539 
-0.00055678 -8.65001e-05 0.00873135 
-0.00030212 0.000428324 0.0109428 
0.000212729 0.000599058 0.0152727 
-0.000213063 -0.000366592 0.0090031 
-0.000205759 -0.00026718 0.00921755 
0.000105111 -1.93916e-05 0.000327367 
-0.000189867 -0.000599597 0.00697704 
-2.86316e-05 -1.19623e-05 0.000232236 
-0.000228999 -3.58222e-05 0.00868207 
-3.40995e-05 -5.45454e-05 0.00674888 
-0.000185923 -3.76199e-05 0.00840887 
-7.41376e-05 3.55759e-05 0.000260535 
0.000176243 -8.27392e-05 -0.000251463 
7.08982e-06 -4.09591e-06 -0.000164144 
0.00155012 -8.46672e-05 0.0109199 
-1.59254e-06 1.81837e-05 0.0100199 
0.00031256 -0.000315271 0.0100694 
5.2911e-05 0.000107013 0.0129388 
0.000409106 -0.000130894 0.0153231 
-0.00139635 -9.75938e-05 0.016422 
-0.000439189 -0.000620134 0.0167188 
-0.000741176 -0.000487611 0.0178926 
-0.000617188 -0.000207218 0.0173785 
0.000288838 -0.000563193 0.0169096 
0.000185498 -0.000922617 0.0181531 
0.000153815 -0.00207181 0.0171827 
-0.000101066 -0.000400107 0.0161686 
0.000851841 -0.00368363 0 
-0.00488512 -0.00386941 0 
-0.00181991 0.00275858 0 
0.00801641 -0.00272827 -0.00171062 
0.00301049 -0.00132631 0.00966518 
0.0184785 0.0123515 0.0340132 
-0.00653375 0.00586743 0.00250622 
0.0027851 0.00101749 0.00375578 
0.0057909 0.00150697 -0.00679156 
0.00203232 0.00392022 0.000505089 
-0.017458 0.0121244 0.0411476 
-0.00520482 0.00348862 0.00447457 
0.00602264 0.000828381 0 
-0.000489191 -0.00120265 0 
0.00100751 0.00108765 0 
-0.0189395 -0.00178578 0.00390825 
0.00119438 -0.00242038 0.0142389 
0.000877787 -0.00261127 0.00748671 
-0.000167189 -0.00793285 0.00984244 
-0.000468742 -0.00582255 0.0170359 
0.000111524 -0.000346467 -0.00102905 
-0.00335807 0.00326795 0.00393108 
0.00320424 -0.00210673 -0.00163684 
-0.0044128 0.00331101 0.00482864 
0.00106289 -0.000543011 -0.00265471 
-0.00300942 0.00143833 0.00227731 
-0.00363078 -0.000806548 0.0032307 
-0.000588499 -0.00291831 0.00113757 
-2.76246e-05 4.11384e-07 0.00609719 
3.56236e-05 3.26525e-05 0.00017737 
0.000218213 8.15342e-06 0.00952773 
0.000127089 -1.30394e-06 0.00885285 
-0.000840672 -0.000464359 0.0146424 
-1.3744e-05 -0.000453274 0.00950983 
-0.0011667 -0.00019141 0.0159722 
-0.000433105 -0.000151213 0.0141938 
-0.000141653 -0.0010323 0.000984719 
-0.00137006 -0.00208031 0.0026189 
0.00189335 -0.00474521 0.00907466 
0.0011365 -0.00576905 0.00789411 
4.86189e-05 3.34178e-05 0 
-0.000127585 0.00026907 0 
-0.000110928 3.14867e-05 0 
0.000864817 -0.000906641 0.000384925 
0.00111303 -0.000204337 0 
0.00657508 -0.00230585 0 
-0.002494 -0.00118979 0 
-0.00738224 -0.00248618 -0.00287742 
1.28154e-07 -3.1993e-06 0.0136712 
9.79769e-07 4.43244e-05 0.0096297 
-2.16886e-05 -3.99455e-05 0.0114313 
8.09275e-05 -0.0001441 0.00947422 
-8.80435e-05 -4.30531e-05 0.000168152 
0.00010479 -7.10516e-05 0.00653654 
-3.74513e-05 4.20784e-05 -1.15807e-05 
-2.66407e-05 -1.81107e-05 0.0088794 
0.000360691 0.000287271 0.00028559 
0.000860851 0.00102475 -0.000768278 
-0.000699553 -0.000905983 0.000802035 
-0.000158276 -0.00285582 0.00278507 
0.000206428 0.000195071 -0.000407618 
-0.000108559 -3.0356e-05 -0.000481699 
-0.000983485 0.000565851 -0.00060218 
0.00188794 0.000327789 0.00108856 
-0.000319766 0.000549405 0.0113803 
-0.00033067 1.22831e-05 0.0148852 
-0.000419824 -0.000505033 0.0168307 
-0.0011015 0.00019108 0.0151341 
-0.00206888 0.00356331 -0.0024501 
0.0164605 -0.0107141 0.0166768 
-0.00208372 0.000264338 -0.0028405 
0.000119013 -0.00080824 -0.00202371 
0.000493055 -0.00113208 0.0150315 
0.00166727 -0.000162906 0.0117272 
7.05431e-05 -6.11294e-05 0.0120421 
0.000306445 -0.000219797 0.00862026 
-7.0923e-05 7.65118e-05 0.0182038 
-0.000500273 -0.000544057 0.018122 
5.63614e-05 -3.17309e-05 0.0180021 
-0.000502779 -0.000221854 0.0173973 
-0.0002317 0.000356949 0.0167477 
-0.000858957 -0.000115769 0.0170108 
-0.000846318 0.000429429 0.0173828 
-0.000586392 0.000216428 0.0181509 
2.77776e-05 -0.00230134 0.0174067 
-6.69201e-05 -0.000681542 0.0160556 
0.00012265 -0.000897156 0.0181456 
3.64439e-05 -0.000798976 0.0171849 
-6.17723e-05 -7.13637e-05 0.0180769 
6.23749e-05 -3.35561e-05 0.0166858 
2.50251e-05 3.12752e-05 0.0157302 
-0.000353384 -0.000394042 0.01644 
-0.0432852 0.0180593 0.116515 
0.034974 0.00860364 0.142339 
-0.0110008 0.0330797 0.0670415 
0.0101705 0.0209513 -0.0473186 
4.72252e-05 1.55024e-05 7.87446e-05 
-8.00395e-05 -1.3855e-05 0.00681388 
3.95302e-05 -0.000125517 0.000138157 
-0.000100349 0.000206668 0.00710068 
-0.000403135 0.000653044 0.0145189 
-8.72767e-05 0.000594901 0.0150428 
6.73562e-05 8.22936e-05 0.0109856 
-1.2025e-05 0.000565161 0.0147654 
0.000206041 -0.000208328 0 
1.24575e-05 -0.000276684 0 
0.000424729 0.000397508 0 
-0.00232175 -0.000345993 0.000542188 
0.000108311 8.88529e-06 0.00110246 
-0.00053965 -4.427e-05 -0.000135671 
-0.000620847 -5.0931e-05 -0.00110538 
0.00175369 -0.00202292 0.00601819 
0.00037043 0.00078522 0.00253399 
0.000991554 -0.00122347 0.0014044 
-0.00076367 -0.00111707 0.00273083 
-0.00043125 0.000169671 0.000758716 
0.00149197 -0.000814898 0.00208067 
0.0112789 -0.00741153 0.0163472 
0.00665339 -0.00728808 0.0130913 
0.000375262 -0.00107707 -0.0017453 
0.000550322 -9.31321e-05 0.00943067 
0.000358385 -0.000263474 0.00880126 
0.000505824 -0.000389347 0.0149221 
-0.000150876 -0.000329791 0.0139581 
0.00126793 -0.00152426 0.0169754 
-0.00101156 -0.00498386 0.0157924 
0.00145527 -0.00309664 0.0141071 
0.00282686 -0.00306349 0.0118629 
0.000866368 -0.000612641 0.0156672 
0.00352009 0.000445682 0.0162535 
0.00286736 -0.000763875 0.0168548 
0.00102454 -0.000213828 0.0168797 
-0.000129758 -0.000181033 0.000206927 
3.90185e-06 8.45379e-06 -0.000320712 
2.25411e-05 3.03906e-05 7.458e-05 
8.02016e-05 -0.000167595 0.00777615 
0.000651672 -0.000718714 0.0166384 
0.000124153 -0.000785656 0.0182301 
-9.78748e-05 -0.00169867 0.0162353 
0.00118019 -0.00130412 0.016503 
4.2028e-05 -1.03465e-05 0.0171945 
-3.85677e-05 -1.26976e-05 0.0184556 
-1.71165e-05 -2.95429e-05 0.0178209 
0.0004299 -3.27993e-05 0.0183401 
0.000289827 -0.000124634 -0.000142517 
-0.000695822 -0.000822928 -0.000426814 
-0.000123524 -0.000386214 -0.000852527 
0.00255632 0.0026983 0.00264314 
5.81772e-05 -3.181e-05 0.0109649 
-7.47178e-05 -5.54201e-05 0.0148717 
4.00402e-05 8.97493e-06 0.0123837 
-0.000394016 -0.000189866 0.0141565 
-9.0875e-05 -0.000129793 -0.00398476 
-0.000726952 -0.0150627 0.00908896 
0.0018838 -0.00549094 0.00418155 
0.00189073 -0.0050089 0.00111327 
-0.000584799 -0.000580823 0.0176673 
8.92992e-05 -0.000959153 0.018033 
0.000545647 -0.000604126 0.0168447 
-1.31855e-05 0.000194851 0.0181206 
7.32458e-05 -0.00204745 0.0171585 
7.23054e-05 -0.000824063 0.0180349 
0.000257149 -0.000615493 0.0169811 
0.00101297 -0.00120603 0.016529 
-0.000502522 0.000297857 -0.00182235 
0.000376733 -0.000507117 0.000224001 
-0.00298232 -0.00151377 0.00483387 
-0.00769455 -0.00073374 0.00784452 
-1.17364e-05 -0.000491317 0.000424443 
-0.00124692 0.000167431 0.00723978 
-0.000478731 0.000179952 0.00950703 
-0.000654983 0.000669247 0.00477195 
2.02348e-05 -4.76485e-05 -0.000360335 
-3.04034e-05 7.0737e-05 0.000461977 
3.99873e-05 -9.08782e-05 -0.00040747 
-0.000419331 -0.00161143 0.0107925 
0.00302053 -0.000741065 0.0321831 
0.00806339 0.00571047 0.0222599 
-0.00106418 0.00302093 0.0194455 
-0.00251634 -0.00245867 0.018032 
0.000220724 0.000196822 0.000263398 
1.30691e-05 5.93303e-08 0.000122654 
0.000197167 -0.000131062 0.0080388 
2.85551e-05 1.81991e-05 0.00873717 
-0.000403284 -0.000944575 -0.000205552 
0.00658321 0.00325685 0.00488583 
-0.00211439 -0.00157723 -0.00291426 
0.00718168 0.00104787 0.00152632 
-1.60893e-05 6.81523e-05 0.0056612 
-8.97724e-05 -6.46096e-05 9.69776e-05 
-9.00217e-06 -5.88289e-05 8.87005e-05 
7.7931e-06 -0.000235469 0.00917021 
-7.83162e-05 4.84264e-05 -0.00233362 
-5.72041e-05 -3.91831e-05 -2.76222e-05 
0.00171566 0.000143198 0.00619323 
0.000584881 0.000622456 0.00440172 
0.00380949 0.000715761 -0.00406403 
-0.0111454 0.00275345 0.0119317 
-0.000839614 -0.00268211 -0.0036259 
-0.00700274 -0.00173018 0.00709663 
8.37091e-05 4.69698e-06 0.000162737 
3.19259e-05 9.83124e-05 0.00616465 
-1.37788e-05 -2.10773e-05 0.0056581 
2.28363e-05 8.7966e-05 0.00887323 
-0.0023618 0.000379943 0.0130535 
-0.00309597 -0.00269237 0.00462333 
-0.00143073 -0.00124658 0.0069683 
-0.00614138 -0.00145301 0.00873108 
-6.51336e-05 4.53329e-05 0.0170011 
0.000525049 -0.000431245 0.0169199 
0.000872632 -8.44746e-05 0.0172103 
0.000338771 -0.000126305 0.0151142 
-0.000512865 0.000828911 0.0143808 
0.000139729 -5.47836e-05 0.0111029 
-0.000655141 -1.54741e-05 0.00871139 
-4.44273e-05 0.000516164 0.0148506 
0.00417592 0.0142471 0 
-0.00543539 -0.0282626 0 
-0.0178943 -0.0302964 0 
-0.0302076 0.00361744 0.085193 
-0.00126444 0.000712167 0.0171958 
-0.000964953 0.000356937 0.0159739 
-0.000735665 -0.000224676 0.0171117 
-0.000265173 -0.000101273 0.0157314 
0.00094387 -4.83955e-05 0.022497 
0.000279075 -0.00939983 0.0352717 
0.004306 -0.00672446 0.00815913 
-0.00253604 -0.0118211 0.00424474 
-2.90213e-05 -1.8205e-05 0.00841928 
7.63534e-06 -8.55824e-05 0.000244317 
3.11236e-05 6.02763e-06 0.00560055 
0.000316385 -0.00011745 0.00870689 
2.41307e-05 -0.000876493 0 
0.00114417 0.000728047 0 
0.000363574 -0.000674185 0 
0.00222779 0.00315794 0.00188715 
-0.0434688 -0.0335275 0.134491 
0.0467122 0.0319593 0.0412303 
-0.0640312 -0.013136 0.0694046 
-0.00695545 -0.00350293 -0.0441244 
0.000595397 -0.000587707 -0.000317284 
-0.00064702 0.000267522 -3.90173e-05 
-0.00220086 0.000858364 0.0101058 
-0.00142304 -0.000265167 0.00791296 
-0.000100668 -0.000308527 0 
5.04041e-05 -0.0008036 0 
0.000510749 -0.000122017 0 
0.00131312 0.00267606 -0.000349437 
-2.05675e-05 7.20735e-05 -0.000875532 
-0.000143552 0.000293751 0.000334023 
6.31452e-05 -0.000156994 0.000708506 
0.000319151 0.00230889 0.00253924 
0.000557441 -0.000460188 0.0167278 
-0.000706286 -0.000795656 0.0177868 
7.18753e-06 0.000104945 0.0182084 
-0.000196427 -4.16829e-05 0.0163536 
-2.04475e-05 6.93005e-05 0.000198642 
-8.65113e-05 2.0616e-05 0.00588081 
-2.76517e-05 -2.20772e-05 0.0073644 
-0.000170443 7.76614e-05 0.00847535 
-0.00179799 0.00399191 0.018604 
-0.00025564 0.000744006 0.0160715 
0.00194247 0.00302862 0.014695 
0.00142419 0.00286158 0.0146891 
-3.77983e-05 5.74802e-05 0.0172829 
1.22653e-05 8.0112e-07 0.0146353 
4.52839e-06 3.6259e-06 0.0160922 
-1.35865e-05 0.000414206 0.0143597 
6.33377e-05 9.5669e-05 1.85106e-05 
-0.000182917 -0.000294051 -0.000317594 
5.1079e-05 9.44068e-05 0.00027151 
0.000460162 0.00124578 0.00123386 
0.00128835 0.00160073 0.016909 
0.000947719 0.00548521 0.016483 
0.00444707 0.00156286 0.0230309 
0.000632267 0.00516076 0.0210627 
3.92311e-05 0.000289094 0.0137061 
0.000181037 0.000167603 0.00949643 
0.000812453 0.000154714 0.0106027 
0.000256562 -0.000154819 0.00806972 
0.000423169 -0.00041138 -0.000549389 
0.00113241 0.000534598 -0.000828794 
-9.21057e-05 -0.000962023 0.000493268 
-0.000941103 -0.00203454 0.00265755 
-1.96809e-05 -0.00066599 0.0157201 
-7.84998e-05 -0.00137509 0.017407 
-4.20435e-05 -0.00248692 0.0171885 
-0.000492949 -0.00213557 0.0181885 
-0.000489912 0.00136164 0.0103901 
0.00233781 0.00814888 0.0195832 
-0.00333778 0.0121669 0.0247632 
0.0093322 0.00507188 -0.00112306 
7.18069e-05 -3.42203e-06 0.0184173 
-0.000670441 -0.00043323 0.0178309 
-0.000605044 -0.000232237 0.0174035 
-0.000557023 -2.45399e-05 0.0181139 
0.000120503 5.79061e-05 2.17754e-05 
7.37916e-06 -9.56674e-06 -0.00106036 
-0.00030309 -0.000148555 -0.00029039 
-0.00163442 0.000374806 0.00802404 
0.000335974 0.00551758 -0.0127502 
-0.0115187 0.000899041 0.0113918 
0.0019914 -0.00459869 -0.00552513 
-0.0298007 -0.00804128 0.0453515 
0.00082121 0.00169353 0.00104938 
-2.21859e-05 0.00276152 -0.00109685 
0.00111424 -0.0084842 0.002645 
0.000700392 -0.00459087 0.000935941 
0.000340091 0.0031148 0.0148768 
0.00320706 0.00285133 0.0112906 
0.00421893 0.000683225 0.0151793 
0.0019608 0.000400769 0.015231 
-0.0032094 0.00274159 0.00711185 
-0.00286591 0.000691366 0.00208682 
-0.00129956 0.00266403 0.0026368 
-0.00025613 -0.000330809 0.000641989 
-2.78212e-05 -1.26617e-05 -7.82982e-06 
4.94779e-05 2.38899e-05 -0.000285406 
3.62537e-05 1.56185e-05 0.000202414 
0.00100006 3.85148e-05 0.0111221 
-0.000256597 4.9826e-06 0 
-2.21474e-05 -0.000137313 0 
-3.30952e-05 -0.000514933 0 
-0.00133253 0.00202856 4.90102e-05 
0.00190509 -0.000138499 -0.00311478 
-0.0245906 -0.00693822 0.0308311 
-0.0146139 -0.00632209 0.00701351 
-0.00695434 0.00828874 0.00661201 
6.35124e-05 6.0637e-05 0.0158731 
0.000548757 -6.82609e-05 0.0150445 
-4.74225e-05 -3.36922e-05 0.0130381 
0.000665397 -7.67886e-05 0.0139786 
-0.00861469 -0.00286429 0 
0.000685352 0.0199031 0 
-0.00147693 -0.00720948 0 
-0.00439077 0.0210789 0.0275967 
0.000290352 -2.89501e-05 5.83755e-05 
-0.000993867 0.00303611 0.00325707 
0.000912134 -0.000888883 -0.000685857 
-0.00117585 0.00228732 0.00401162 
-0.00313114 0.0576889 0.161181 
-0.022694 -0.0226932 0.177407 
0.0304151 0.0453924 0.00859262 
-0.014257 -0.0472739 -0.000839696 
0.000127493 -0.000543685 0.000249322 
-0.000215511 -0.000581317 -0.00102625 
0.00179113 0.000706685 0.00521003 
0.00232 0.00168669 0.00170042 
-2.62482e-06 -3.57255e-05 0.0151867 
-0.000228354 0.000404841 0.0168054 
-0.00013997 0.000326718 0.0137348 
-5.71176e-07 0.000431641 0.0144151 
-5.40305e-05 -7.39503e-05 -0.000294319 
0.000144813 0.000198795 -0.000147719 
2.19685e-05 2.98903e-05 0.000399887 
-0.000127377 -0.00117089 0.00844731 
0.00010123 7.59271e-05 7.56833e-05 
0.000902079 -5.8288e-05 0.0110602 
7.00463e-05 0.000126208 0.000220005 
9.15825e-05 0.000172523 0.00713443 
0.0056913 0.00114868 0.0205858 
-0.00414815 -0.000171863 0.0217974 
0.00795211 -0.000820692 0.0269953 
0.00742276 -0.000794297 0.0180611 
2.07182e-05 1.68342e-05 0.00569087 
-3.83746e-05 6.32305e-05 0.000118862 
-1.25304e-06 -1.67414e-05 0.00697116 
-7.31148e-05 -0.000257111 0.00901576 
-0.000357579 -4.77769e-05 0.000330525 
-0.0117997 -0.000378754 0.0103913 
0.00236133 0.000941192 -0.00568044 
-0.00483661 0.00257449 0.0051195 
-0.000401419 -1.64976e-06 0.0116313 
-0.00109568 -0.000250628 0.0160383 
-7.63166e-05 -0.000395883 0.0093784 
-0.000389701 -0.000189798 0.0142677 
7.82695e-05 -6.60474e-05 0.012393 
0.000167723 0.000125944 0.00724008 
-0.000361274 -0.000151468 0.00910636 
-0.000334108 -0.000237628 0.0144344 
0.00478832 0.000281165 0.00904981 
0.00178223 -0.00329152 0.00377141 
0.00659819 0.00043064 0.00633655 
0.00398116 -0.00314267 0.0130046 
-0.0646693 0.0288642 0.167525 
0.0207033 0.00720188 0.155425 
0.0345125 -0.0344726 0.105569 
-0.0177212 0.0247747 0.041283 
-0.00578101 -0.00501733 -0.00668992 
0.00973656 -0.00820385 0.0524935 
0.0472351 -0.0146173 0.0651741 
-0.00347825 -0.0126382 0.0128911 
0.00763829 -0.00360469 0 
0.00936373 -0.00286093 0 
-0.0238586 -0.00265602 0 
-0.0261167 -0.00327992 0.0531388 
0.00122926 0.000199962 0 
-0.00116374 -0.000744898 0 
-0.000103384 0.00063515 0 
-0.0031982 -0.000697859 0.00129279 
-0.000385871 0.000250815 0.000233188 
0.000673094 -0.00217607 0.00210659 
-0.000285145 0.000515154 -0.000357407 
0.000256152 -0.00226467 0.00405905 
-0.00352169 0.000713522 0.0270455 
0.00827932 0.000773265 0.0141669 
0.00432321 -0.00353113 0.0152175 
0.00713528 -0.0060061 0.0318052 
-0.000452587 -0.000683781 -0.00194628 
0.000304829 -7.42285e-05 0.00128089 
0.00246199 0.00272707 0.00441415 
0.00255099 0.0017859 0.00288037 
-0.000175527 -6.72238e-06 -0.000394279 
-3.92768e-05 8.22661e-05 0.000284106 
0.000155374 -0.00159843 0.00544039 
1.80231e-05 -0.000906944 0.00686334 
3.39794e-05 1.26834e-05 0.0172384 
0.000141918 -0.000734544 0.0181965 
0.000277347 -0.000661279 0.0168779 
-6.0696e-06 -0.000635202 0.016125 
0.00342549 -0.0022564 0 
0.00451335 0.000175127 0 
0.000875687 -0.00149047 0 
-0.0165585 0.00289365 0.00346941 
0.00061533 9.65912e-05 0.0110716 
-0.000298984 0.000152132 0.0112967 
0.000600118 -0.000189766 0.00928458 
0.000332167 0.000144715 0.00705504 
-0.000213662 -0.000261995 6.25051e-05 
-0.000505684 0.000287491 0.00955667 
0.000267619 -0.000147212 -0.00016922 
-0.000508844 0.000550028 0.00509341 
-0.00362829 -0.00208073 0.0161628 
0.0215229 -0.00294631 0.0255012 
0.00286809 -0.00139363 0.00660393 
-0.0043856 -0.00213697 0.00301206 
0.00299704 -0.00678683 0.00460989 
0.00180692 -0.00365951 0.0019119 
-0.00200781 0.000925285 -0.00329376 
-0.00115289 -0.0026723 0.00125872 
0.000104382 -0.000225459 0.0113129 
-7.01189e-05 -2.03773e-06 0.0153753 
-9.4752e-05 0.000260578 0.0134969 
6.81831e-05 0.0004391 0.0143299 
-0.000238313 0.00337949 0.0155706 
-0.000510996 0.00311024 0.00961247 
-4.91454e-05 0.0100417 0.0133794 
0.000565821 0.00850494 0.0208414 
-0.00739402 -1.18193e-05 0.0242357 
-0.00144477 -0.000977042 0.0151607 
-0.000694671 -0.00579436 0.0186614 
-0.000218703 -0.0033805 0.0189709 
9.59386e-05 -3.32586e-05 -0.00056477 
0.000290787 -0.000117424 -8.81158e-05 
0.000136936 -6.51761e-05 0.000923804 
-0.00284699 -0.000669121 0.00665761 
7.90761e-05 -6.39725e-05 0.00693907 
-0.000121138 2.24839e-05 4.18554e-05 
-8.71075e-05 -0.000139389 0.000195407 
-0.000147921 9.87596e-05 0.00840793 
-0.000171358 0.00143366 -0.00341956 
-0.0029146 -0.00175301 0.00538036 
-0.00135091 -0.000680651 0.000128996 
-0.0103686 -0.00305093 0.00804942 
-0.000717388 -6.04057e-05 0.0169406 
6.73427e-06 5.32057e-06 0.0162976 
-0.000634779 -0.00010209 0.0145698 
-0.00060126 -7.76475e-05 0.0176237 
-6.8405e-05 0.000263106 7.02212e-05 
3.83366e-05 -0.000144458 0.000136078 
-2.76362e-06 1.25084e-05 0.000112869 
-5.04186e-05 -0.00109599 0.0109824 
-0.00324593 -4.25733e-05 -0.00274918 
0.00334736 0.015527 0.0205999 
-0.00201101 -6.44356e-05 0.00204257 
0.00221187 0.00379964 0.00111874 
0.00147656 0.0140591 0.020837 
0.00237729 0.00384567 0.0184172 
-0.00241722 0.011794 0.0128869 
0.00092751 0.0073079 0.0224449 
3.70592e-05 -0.000127962 0 
0.000216822 0.000185811 0 
0.000172668 -0.000713883 0 
0.000883849 -0.000428037 0.000417164 
0.0201979 -0.0478587 0 
0.0170102 -0.0472924 0 
-0.0211993 0.0322563 0 
-0.017198 -0.00111829 0.115743 
2.91921e-05 -1.22897e-05 0.0106455 
4.60193e-05 4.97869e-05 0.0116574 
-4.19276e-05 -3.3166e-05 0.00644767 
-9.60747e-05 0.000130377 0.00858148 
-6.69805e-05 1.80272e-05 2.14567e-05 
6.04396e-05 -1.4809e-05 7.96827e-05 
-3.80385e-05 1.22419e-05 0.000148356 
-0.000401371 0.000190577 0.00882589 
1.34412e-06 -1.83907e-06 1.01876e-05 
7.2731e-06 -1.76708e-05 -2.23239e-05 
-6.18553e-05 0.000142577 0.00011253 
-0.000138989 0.000559131 0.00820154 
0.000309244 -0.000435027 0.017163 
3.16058e-05 -0.000285639 0.0135135 
-5.6852e-06 -2.09607e-05 0.014872 
-4.40193e-05 -0.000425764 0.0159149 
0.000218905 0.000664025 0.0132204 
0.000500429 0.000998276 0.0181089 
3.56528e-05 -1.78873e-05 0.0111468 
-0.000587201 0.000430989 0.00715067 
0.000959057 -0.00059966 0.0166841 
-0.000161602 -0.0014989 0.0159764 
-0.000879152 -0.000561122 0.0179382 
-0.000291611 -0.000249206 0.0161811 
0.000346927 -0.000594536 -0.000117774 
0.00305647 5.51132e-05 -0.00447454 
-0.00433139 -0.0185661 0.00619431 
-0.00444133 -0.0027117 0.0058061 
-8.5556e-05 8.26075e-05 -7.13427e-05 
0.000101084 -0.000145158 -0.000647892 
-2.67992e-05 -0.00122119 0.00909857 
-0.00018668 -0.00085599 0.00707996 
1.49961e-05 -3.64394e-05 5.73037e-05 
-4.47959e-05 0.000102129 0.000117616 
-2.36373e-05 5.53761e-05 -1.78306e-06 
0.000123219 -0.000549712 0.0103957 
-0.00194678 0.00121664 0 
-0.000516979 0.00128454 0 
-0.00125825 0.000165881 0 
0.00405332 -0.00292096 -4.9e-05 
-0.000298049 -0.000589336 0.00106626 
-0.000217459 -0.000419681 -0.000742511 
0.00218212 0.000522732 0.00637942 
0.00287598 0.00189444 0.00287461 
1.5235e-05 -4.33901e-05 0.0148395 
2.01449e-05 -0.00025779 0.0134687 
0.00026302 -0.000390952 0.0172567 
0.000235029 -7.15678e-05 0.0148953 
0.00130423 6.62525e-05 0.0163509 
0.00132605 0.000501062 0.0160232 
0.00112946 -0.000435443 0.0172772 
0.000414758 1.70725e-06 0.0146115 
0.00080928 -2.59419e-05 0.0108274 
0.000176345 0.000166318 0.00947347 
4.51785e-05 0.000374653 0.013623 
-8.17076e-05 0.000534198 0.0145484 
-0.00168254 -0.00706819 -0.0041567 
-0.013821 0.0272095 0.0245 
-0.000453598 -0.00222533 -0.00517531 
0.00442223 -0.00156359 -0.00205421 
-0.000134793 7.66352e-05 0.000136998 
-0.000311165 9.92107e-05 0.00865791 
-9.98464e-05 3.49093e-05 0.000220899 
-0.000432002 2.3654e-05 0.00953507 
9.06972e-05 -0.00155317 0 
0.000343693 0.00148051 0 
0.00134191 -4.9962e-05 0 
-0.00208856 6.8393e-05 -0.000238847 
0.00100382 0.000296491 -0.000176489 
0.000333326 -0.00592928 0.00263564 
0.000442658 0.00101901 -0.000882764 
-0.000847297 -0.00300965 0.00132417 
0.00435244 0.0046825 0.0109145 
0.000531575 0.00512416 0.00240152 
0.00639056 -0.000332662 0.00383895 
0.00383975 0.00355376 0.0114651 
0.000551986 -0.00079798 0.0166902 
0.000140791 -0.000807452 0.0181621 
-0.00066927 -0.000374339 0.0178206 
-3.55908e-05 -0.00163008 0.0162352 
-0.00109227 -0.000450218 0 
6.26912e-05 0.000473458 0 
0.000479232 0.000319764 0 
0.00173154 0.00105301 0.000613665 
-0.0643031 -0.0123825 0.107053 
-0.0159519 -0.0163701 0.096147 
0.0711988 -0.00455502 0.0502605 
-0.0225093 0.00127591 0.0187454 
-0.00145372 -0.00388839 0.0146022 
-0.000160607 -0.00148523 0.0112472 
-2.91422e-05 -0.00232448 0.00768076 
0.000819164 -0.00121834 0.015438 
1.77146e-05 -6.41303e-05 0.017441 
-0.000396578 0.000377549 0.0166105 
-0.000746213 1.44665e-05 0.017028 
-0.000516151 0.000184419 0.0155282 
-0.00119343 0.00410431 0.0054093 
-0.000637769 0.000933923 0.00794678 
-0.00123329 0.00261664 0.0132504 
-0.000622456 0.000289502 0.00414889 
-9.71191e-05 9.61228e-05 0.0134717 
0.000101631 -0.000461876 0.00911417 
-0.000854869 -0.000476822 0.0147591 
-0.000530102 5.6147e-05 0.0156568 
0.000124234 0.000116573 0.000440495 
-0.00132644 -0.000195395 0.00875735 
-5.23196e-05 0.000121081 -0.000349787 
-0.000898516 2.14385e-05 0.00574845 
4.70664e-05 -2.5896e-05 0.017134 
-2.85382e-05 2.0993e-05 0.0149878 
0.000326504 -0.000464307 0.0170832 
0.000296784 -4.53963e-05 0.0149286 
-7.192e-05 2.51975e-05 0.0136708 
0.00015926 -0.000620302 0.0159074 
-7.16822e-05 0.000203374 0.0103582 
9.6118e-05 -0.000463726 0.0136872 
0.00446416 0.00151942 0.0308943 
0.00116101 -0.00900312 0.0167673 
-0.000169728 0.00105945 0.016896 
-0.00674488 -0.00620946 0.0376385 
0.000102024 -3.02289e-07 0.0125353 
-1.46184e-05 -6.44287e-05 0.00959523 
-8.51984e-05 -3.5133e-06 0.0129692 
-7.4841e-05 0.000372844 0.0150704 
-6.48131e-05 -0.000167874 0 
0.000303445 -9.37225e-05 0 
5.72467e-05 -6.68524e-07 0 
-0.00170498 0.00014944 0.000759637 
-3.24662e-05 -2.03507e-05 0.000135077 
3.68949e-06 3.88408e-06 0.000132306 
7.75832e-06 5.83713e-06 5.92424e-05 
0.000256576 7.9588e-05 0.00956499 
-0.000489531 0.00100124 0.0142941 
-0.000197265 0.000416397 0.00827864 
-0.000659052 -0.000348679 0.0100811 
-0.000467682 2.07064e-05 0.015292 
-0.00260805 0.00170416 0.00800391 
-0.00502382 -0.00111731 0.0106485 
-0.00144746 -0.00147342 0.00240041 
-0.00156189 -0.000930995 0.0094645 
0.00016005 0.00042043 -2.28466e-06 
0.000323266 -0.000683254 -0.000499979 
-3.25663e-05 -0.000418824 -0.000254109 
0.00027877 0.00170641 0.00111008 
-5.19006e-05 -5.26182e-05 0.0172615 
6.12096e-05 5.12736e-05 0.0170514 
-8.06086e-05 9.11527e-05 0.0150901 
0.000361006 -0.000538909 0.0170314 
0.00129078 0.000557684 -0.0010317 
0.000548168 -0.000375555 -0.000461193 
-0.000619778 -0.000872807 0.00141822 
-0.00107408 -0.00211853 0.00191653 
-0.00133778 -0.00110924 0.00318681 
-0.00176142 -0.00411927 0.00887202 
-0.00492148 -0.00180183 0.0035784 
-0.000835989 -0.00293324 0.00116821 
0.000992196 -0.00818245 0.00575 
-0.00200721 -0.00534073 0.0100834 
-0.00050504 -0.0071308 0.0102987 
-0.000528935 -0.00226826 0.000489702 
0.00312558 0.0306936 0 
0.000454036 -0.0447435 0 
-0.00453814 -0.0522141 0 
-0.00393393 0.000976234 0.111985 
1.45379e-05 -0.00177238 0.0227196 
-0.000934798 -0.00499235 0.0188448 
0.00114099 -0.00152651 0.0174121 
-0.00185423 -0.00220973 0.0180654 
-0.000268499 -0.000204083 0.0135701 
0.000873835 -0.000170005 0.016071 
0.000523149 -0.000416942 0.017163 
0.000340138 -7.28425e-05 0.0148565 
0.00037548 0.00874866 0 
0.00342231 -0.0324871 0 
-0.00166869 0.0108975 0 
-0.0056365 -0.0196798 0.0649448 
-0.0245752 -0.00496577 0.00716187 
-0.0122835 -0.00037321 0.0381436 
-0.00104356 0.000546477 0.0244021 
-0.00334393 -0.000429518 0.0573797 
2.31709e-06 8.13513e-06 0.000977666 
0.000230641 4.60052e-05 -0.000814761 
-0.000164653 -4.21048e-05 -0.000608344 
-0.00101742 0.00178572 0.0048865 
6.75584e-06 6.3729e-06 -0.000336288 
-1.59001e-05 -1.53436e-05 0.000143704 
-0.00012998 -0.000126076 -3.67605e-05 
0.000426927 8.2872e-06 0.00729677 
-0.00830501 -0.00590492 0.0155744 
-0.00109602 -0.00113652 0.0199788 
0.000327215 0.00214824 0.0219991 
-0.00622406 -0.00717366 0.00549089 
0.000554012 4.54483e-05 -0.000877551 
0.000616082 5.05401e-05 0.00104244 
0.00070914 5.81741e-05 9.74555e-05 
-0.00306827 0.00187501 0.00684519 
0.000761639 0.0012518 -0.00142966 
0.00120507 -0.00760612 0.00399813 
0.000582315 0.00110458 -0.00114515 
-0.00095092 -0.00280899 0.00131632 
-0.000246976 0.000784683 -0.000507449 
-0.000420876 0.000402088 0.000914276 
0.00309292 -0.00156401 0.00304254 
0.00224767 -0.00210728 0.00215882 
-0.00391455 0.0096592 -0.0083307 
0.0129906 0.00206707 0.01665 
0.0150685 0.00798295 0.00612605 
0.0025577 -0.00507576 0.00243571 
-0.000838882 0.00907058 0.0109554 
0.000387605 0.0137999 0.0197064 
0.00108485 0.00565543 0.0018533 
0.000639881 0.00511068 0.00104774 
2.25239e-05 -8.16192e-05 -3.87542e-06 
3.3407e-05 0.000150166 -0.000418317 
-0.00079723 0.000578918 -6.40069e-05 
0.000902408 -0.00168276 0.000979878 
-0.000211627 -0.000373847 -1.09428e-05 
0.000204524 -0.000583175 -0.000433635 
-0.000948177 0.000899343 0.00139737 
-0.000672371 0.000902459 0.00385368 
0.0013893 -0.00343079 0.00845803 
0.00148729 2.32873e-05 0.0013075 
-0.000332695 -0.00144781 0.00110378 
0.000674169 -0.00105993 0.0041392 
0.00516063 -0.00112078 0.0150915 
0.00273842 0.00385986 0.0128306 
0.00479336 0.00377484 0.0102474 
0.00110129 0.00332838 0.0155598 
-4.58326e-06 -7.89117e-05 -0.00135354 
0.00152723 -6.78674e-05 0.00192314 
6.02173e-05 -0.000124544 0.00082192 
0.000330928 -0.000372376 0.00349098 
0.000380877 -0.000593549 0.0168093 
-1.31463e-06 -0.00205567 0.0173294 
-1.51255e-05 -0.00135724 0.0162001 
-2.78826e-05 -0.000353449 0.0161341 
-0.000186245 -0.00148116 0.00904071 
0.000591759 -0.00164733 0.00587134 
0.000512237 -0.00179257 0.0118129 
-0.000293186 -0.000802196 0.00689896 
-4.73945e-05 -7.65696e-05 0 
-0.000154983 0.000638174 0 
0.00119905 0.001333 0 
-0.000953311 -0.0035633 0.00233611 
-0.00134702 0.00139269 -0.00403553 
0.00234329 -0.00402946 0.007312 
-0.000278317 -5.40849e-05 -0.000711911 
0.0029519 -0.00287611 0.00638172 
-6.94011e-05 -9.96786e-06 -1.67009e-05 
0.00016516 0.00128911 0.00826683 
-0.000216305 -8.54253e-05 0.000147264 
-2.62337e-05 0.000671066 0.00818142 
0.000387436 0.000665103 -0.00205201 
-0.00104002 0.00151341 0.00446099 
0.000403655 0.000524048 0.000351274 
-0.0021538 0.00127462 0.00674663 
4.40585e-05 3.07378e-06 0.0159714 
2.04384e-05 -1.36987e-05 0.0131837 
-7.81577e-05 5.48545e-05 0.0115146 
0.000595082 -1.87509e-05 0.013615 
5.10793e-05 6.63435e-05 0 
3.75715e-07 0.000562844 0 
-0.000124341 -0.000886817 0 
-9.52247e-07 0.000119191 0.000148917 
0.0011222 -0.0005298 0 
0.000628368 -0.000945902 0 
-0.000856195 -0.00136732 0 
-0.0041829 0.0107689 0.00114544 
4.93173e-05 2.00152e-05 0.0165788 
-0.000534985 -0.00010913 0.0147294 
-2.4107e-07 -2.85073e-05 0.0142155 
-0.000448192 -0.000115004 0.017773 
-0.000719941 0.000288523 0.0175789 
-0.000855441 -0.00013851 0.0170275 
-0.000275308 0.000515945 0.0166143 
-0.000567338 0.00020213 0.0155189 
0.00057605 0.000411678 0.0135067 
0.00103099 -0.000386579 0.017256 
0.00095896 -0.000115359 0.0163725 
0.000173271 6.65329e-05 0.0149696 
-5.33822e-05 -1.26032e-06 0.0150856 
-8.33032e-05 -7.38138e-05 0.0125826 
7.89753e-05 4.36898e-05 0.0159697 
0.000568631 -5.39618e-05 0.015021 
0.000748674 -0.000751793 -0.000932786 
-0.00132915 -0.00030988 -0.000129958 
-0.000381374 -0.000148291 -7.45644e-05 
-0.000947211 0.00014082 0.000764849 
-0.0160084 -0.0253645 -0.0261081 
-0.051292 -0.0247664 0.00645791 
-0.0143307 -0.000189606 0.0513608 
0.00571733 0.0253203 0.084334 
-0.00223849 0.00320062 0.0179877 
-0.00755391 0.00370007 0.00994919 
-0.0085024 0.000340869 0.0147808 
0.000221128 0.00180759 0.00461578 
-3.52897e-05 5.15043e-05 6.42476e-05 
-3.58276e-05 9.57957e-06 8.92403e-05 
1.3995e-05 1.15675e-05 0.00580133 
-0.00014734 -2.02862e-05 0.00882746 
0.00270718 0.00052221 0 
-0.00177038 0.00166696 0 
-0.00254872 0.00568721 0 
0.0113089 -0.022588 0.00505979 
0.000478219 -0.000580241 0.0119282 
0.000212131 -0.000530515 0.0151905 
0.000539628 -1.88674e-05 0.0087195 
7.0546e-05 -0.00035945 0.0136833 
9.89961e-05 8.99632e-05 0.000151475 
0.000109004 9.38247e-05 0.00952184 
7.03078e-05 5.06548e-06 0.000157152 
0.000121561 0.000119807 0.00883068 
-2.41971e-05 5.41029e-05 0.0118757 
5.92822e-05 7.70123e-05 0.0131971 
-2.18829e-05 -1.59192e-05 0.00741576 
-0.000189522 0.000103675 0.00841493 
-0.00321829 -0.002543 0 
0.000487839 6.11404e-05 0 
-0.00186107 -0.00374942 0 
0.00464374 0.00834953 -0.000481743 
0.000318577 0.000321524 0.00672615 
-0.00107795 0.00193401 0.00388928 
-0.00247994 0.0028965 0.0158147 
-0.00150319 0.000965939 0.00738386 
-1.57483e-05 6.35954e-05 -0.000156418 
0.000238065 -0.000109414 0.000320539 
0.000104124 -0.000172985 0.00753907 
-0.000177638 -0.000133141 0.00659004 
-4.90163e-05 7.87424e-05 5.58723e-05 
6.40425e-05 1.04831e-05 1.91229e-05 
3.61179e-05 -0.000113376 0.00771723 
-0.000105313 -0.000145391 0.00648427 
-7.8719e-05 2.33317e-05 -1.43646e-05 
3.74233e-05 -2.1674e-05 8.67489e-05 
-0.000163415 -0.000300387 0.00932049 
-0.000136873 -0.000609884 0.00714883 
-4.01141e-05 6.81797e-05 0.000106172 
5.47605e-06 5.94507e-05 0.000162631 
1.36243e-05 -4.92702e-05 0.0054553 
8.50677e-05 -0.000121592 0.00886882 
-9.4384e-05 1.59094e-05 0 
0.000522423 0.000480691 0 
0.000329942 0.000173511 0 
0.00129244 0.00136412 -9.8779e-05 
0.00949218 -0.000573077 0.0289404 
0.0100123 -0.000436394 0.0131979 
0.003825 -0.000145574 0.0178608 
0.00775433 0.000402509 0.018903 
-0.000115106 -0.000228838 -0.000139024 
0.000169929 0.000191463 5.76391e-05 
0.000374322 -0.00125274 0.0110158 
-0.000330696 -0.000971181 0.0073695 
0.00379185 0.000752391 -0.00408981 
-0.00275304 0.000345989 0.000802833 
-0.0113734 0.000989041 0.00975829 
-0.0075052 -0.00142173 0.00575791 
-5.62832e-05 0.000100835 0.0165373 
-6.64515e-06 -0.000877589 0.0175568 
4.3069e-05 -0.000791158 0.0157975 
0.000181141 -0.000578005 0.0139404 
-0.00125537 0.000129334 0.00881121 
-0.000104605 0.000158892 0.0086786 
-0.000581467 -2.88104e-05 0.0112948 
7.53535e-06 -0.000214821 0.00628278 
0.00261615 0.00201036 0.0167919 
0.000799636 0.00371235 0.0232633 
-0.000378992 -0.00037608 0.0208972 
-0.000436127 0.000976692 0.0141902 
-0.000111192 0.000649699 -0.000577581 
0.00155996 1.06746e-05 0.00942798 
-0.000457385 0.000277396 -9.76341e-05 
0.000926045 0.000560937 0.0078949 
0.000210954 -0.000371519 6.69141e-05 
0.00042685 0.000276519 -0.000293557 
0.000144082 0.00042266 -6.96879e-05 
-0.000967609 0.00179985 0.00117929 
-5.81096e-05 9.38537e-05 0.000283353 
-0.000710527 -0.000181145 0.00601145 
4.60803e-05 9.9834e-05 -0.000218002 
-0.00019317 -0.000116945 0.00633293 
0.0295712 0.0162859 0.208423 
-0.037126 0.0192188 0.0710636 
-0.0408252 -0.00173884 0.152254 
-0.00472318 -0.0165131 -0.0123174 
2.2508e-05 -7.15339e-05 0.0172722 
0.000340979 -0.000531458 0.0170371 
-7.43395e-05 7.98317e-05 0.0150558 
-4.2006e-05 -0.000516232 0.0158377 
2.48155e-05 3.96354e-05 0.00620635 
4.33527e-05 1.90317e-06 0.00690815 
2.16244e-05 -5.92668e-05 0.0107677 
-0.000298447 -0.000136462 0.00810363 
0.0536744 0.00710127 0.0987957 
0.0169788 -0.0112749 0.0195323 
-0.00127276 0.00346924 0.0286329 
-0.0133263 -0.00709949 0.0447699 
0.000173178 0.000131521 0.0109258 
-0.000372122 -0.000106546 0.00973532 
-0.000411727 0.000206865 0.00849614 
-0.000336208 0.000168103 0.0151858 
-1.45913e-05 6.92025e-06 7.19114e-05 
-4.87061e-05 2.54976e-05 0.000177037 
1.18997e-05 -6.87684e-06 -2.62426e-05 
0.000264178 -0.000134408 0.0097 
-0.000540018 0.000492596 -0.00110987 
-0.000943182 0.000741957 0.000194346 
0.00171207 -6.21735e-05 0.00933374 
0.00512005 -0.00151965 0.00484245 
1.29162e-05 -4.56711e-05 0.00022767 
-1.55336e-05 7.42314e-05 0.000175874 
1.74894e-05 -7.70086e-05 -4.50043e-05 
9.64684e-05 -0.000260417 0.0105475 
-0.0022849 0.0018708 0.0114324 
0.00190579 0.00266713 0.0146633 
1.16358e-05 -0.00515092 0.0098442 
0.00195404 -0.00255449 0.0146547 
3.84408e-05 7.51396e-05 -6.75901e-05 
6.78749e-05 -9.6693e-05 4.07419e-05 
-0.000429409 0.000527246 0.0109344 
5.34689e-05 0.000533069 0.00750111 
-0.000576806 -0.000724699 0.00127994 
0.00133042 0.000702921 0.00145717 
0.000880177 -0.00534992 0.00824388 
0.00165218 -0.00184319 0.00329642 
-0.000195196 -9.65295e-05 -2.63871e-05 
0.00050054 -0.00164241 0.00575344 
-0.00030819 0.000113801 2.72984e-05 
7.91911e-05 -0.000897876 0.00699846 
-0.00262992 0.00172277 0.00836519 
-0.000230985 0.00101945 -0.00138817 
-0.000433932 0.00362591 0.00357724 
-0.00107471 0.000487332 0.00516935 
-0.0011771 -0.000197452 0.011233 
0.0012316 -0.00139198 0.0149762 
-0.000137456 -0.0016915 0.00823608 
-0.000719064 0.00033627 0.0108178 
-0.00160256 0.000166025 0.00892867 
-0.000408564 -9.34215e-05 0.0112273 
-0.000845562 -0.000247809 0.00590971 
0.000205526 -0.000239195 0.00621513 
0.00875822 -0.00135025 0.0189668 
0.00343184 -0.00177951 0.000152972 
0.00091804 -0.000506035 0.00658958 
0.00390257 -0.00307057 0.00600135 
9.20782e-05 -5.28217e-05 -0.000145911 
-0.00176379 0.000277079 0.00128806 
0.000433511 -0.000266125 -0.000385628 
-0.000608929 0.000160046 0.000791128 
0.00038447 -0.00031061 -0.000116352 
0.00074868 0.000344982 0.000611338 
-0.000760467 -0.000567491 -0.000437421 
9.23065e-05 -0.000833273 -0.000168313 
-0.000326973 -0.000200369 0.00875096 
0.000275742 0.00070133 0.0155274 
-0.00044279 0.000715235 0.0141509 
-0.000394658 -5.92171e-05 0.0117168 
-0.000120199 -0.000159589 0.000820578 
-0.000233748 -0.000713008 0.00144779 
7.92283e-05 2.1422e-05 -0.000709506 
0.000111538 -0.00134709 0.00255623 
-5.09005e-05 3.12914e-05 0 
-3.1973e-05 -0.000288005 0 
-0.000302391 -9.98528e-06 0 
0.00335062 0.000859203 0.000214336 
0.00382725 0.000306741 0.0207878 
0.0015995 0.000288742 0.0167798 
-0.000109061 0.000828459 0.0214312 
0.0061289 -0.00173522 0.0182323 
-0.00188555 0.00274721 0.0144549 
0.000103099 0.000390353 0.0071693 
-0.000396227 0.00159151 0.00790338 
-0.0010092 0.00171555 0.00441342 
0.0237014 -0.00828104 0 
-0.0434446 0.00304594 0 
-0.0297916 -0.00205783 0 
-0.00742207 -0.00721269 0.1067 
6.70737e-05 4.56615e-05 0.000152612 
-2.17322e-05 -1.47247e-05 8.99301e-05 
1.1951e-05 8.05768e-06 -0.000128847 
0.000272043 3.6938e-05 0.00805578 
-0.000556939 -0.000716241 0.0177858 
-0.000552726 -8.40583e-06 0.0162606 
-0.00105621 0.000576561 0.0167822 
-0.000437857 -3.86192e-05 0.0183545 
3.68312e-05 -3.73892e-06 0.00530375 
-3.3578e-05 2.16012e-05 1.39621e-05 
-8.41382e-05 4.25472e-05 0.0002522 
4.95856e-05 7.39303e-05 0.00813111 
-0.000590451 -0.00261451 0 
0.0023264 -0.00275588 0 
-0.00130457 -0.00234112 0 
-0.00321094 0.0079791 -0.00146692 
-8.03899e-05 -0.000103688 0.00774887 
5.43456e-05 7.43044e-05 0.0112384 
3.03746e-05 -0.00012167 0.0133135 
0.000230244 4.67275e-05 0.00896014 
-0.00122412 -0.00183503 -0.000465186 
0.00283341 -0.00780563 -0.00755327 
0.00239868 0.000688917 -0.00744604 
0.000461359 0.0362187 0.0322693 
-0.000392416 -0.000669168 0 
0.00215628 0.0018109 0 
0.00095547 -0.00420768 0 
-0.00643827 0.000424581 -0.00186994 
0.000144394 0.000131793 -0.000971793 
8.06873e-05 -7.61519e-05 0.000207194 
-0.00148241 -0.000274361 0.00295497 
-0.000852246 -0.000311854 0.00170242 
-0.000196128 0.000164974 0.00873938 
7.48483e-05 -0.0001474 0.00764831 
0.00015955 -0.000319067 0.0119459 
-3.18928e-05 -0.000155334 0.00629601 
-0.00012525 -0.00102271 0.0145906 
0.0015879 0.00195074 0.0171662 
-0.000965688 0.0050458 0.0163946 
0.000279233 0.00486007 0.0166309 
-0.00477288 -0.000644661 0.0113519 
-0.0061026 -0.000990212 0.00473939 
-0.00105847 -0.00176983 0.00243446 
-0.00202527 -0.00407568 0.00899097 
0.00070162 -0.000779009 0.01524 
-0.000228842 -0.00127282 0.0154496 
-0.000799384 -0.000174359 0.0159471 
0.000220941 -0.00235758 0.0173261 
-9.32638e-06 -6.76483e-06 -0.000289009 
-0.000186144 -0.000182436 9.76003e-05 
1.75553e-05 1.52573e-05 0.000231819 
-0.000275079 0.000147614 0.00965073 
-3.87467e-05 -0.000121077 0.0109718 
1.53612e-05 0.0002185 0.0136653 
0.000179139 0.00016986 0.00947175 
9.06015e-05 0.000366739 0.014521 
-0.0481454 0.00374454 0.142947 
0.0028493 0.0426989 0.199405 
-0.0160903 0.013792 0.0211242 
0.00697566 -0.0557398 -0.00348975 
-0.0023804 0.00248081 0.0184281 
0.00564838 0.000677885 0.0224708 
0.0028104 0.0126519 0.0249996 
-0.00137679 -0.000505308 0.0106911 
-0.0118222 0.00100491 0.00979452 
-0.00230386 0.000308692 0.00104306 
0.00287439 0.000796465 -0.0041659 
-0.0053659 0.00177456 0.00392258 
-0.000539 0.00152546 -0.00181225 
0.00167343 -0.0077329 0.00511911 
-0.00192461 0.00374496 -0.00263697 
0.000295981 -0.00456514 0.00384847 
9.37842e-05 0.000342933 -0.000527168 
-0.000751314 0.000313051 -0.000423376 
0.000102393 0.000302921 -0.000220777 
0.00025079 -0.00368187 0.00237075 
0.000388834 0.000105025 0.000236617 
-0.000389739 -0.000106317 -0.000497482 
-0.000174545 -4.78004e-05 -0.000269044 
-0.00161088 0.000895836 0.0105836 
-1.16216e-05 -7.13049e-05 0.0116748 
-1.9385e-05 -8.80613e-06 0.0106769 
6.12983e-06 4.04546e-05 0.0150069 
0.000139335 0.000218794 0.0154191 
0.00595969 0.00437131 0.0303841 
0.0199709 0.00861593 0.0316337 
-0.00386794 -0.0172671 0.0172178 
-0.00456734 -0.0100584 0.0445292 
-0.00129333 -0.000223568 0 
4.08676e-05 -4.6393e-05 0 
0.000812168 -0.0016184 0 
0.00106264 0.000752456 0.00128514 
-2.45986e-05 -0.00156582 -0.000201316 
0.00158971 -0.00547285 0.00399828 
-0.000397042 0.00111528 -0.000196386 
0.00271479 -0.00417633 -0.000681391 
-6.62019e-05 6.78636e-05 0.0157297 
0.000804269 -0.000247588 0.0171801 
3.40601e-06 0.000118246 0.016077 
0.000674119 -1.59923e-05 0.0151944 
0.00253446 -0.000215648 0.0166133 
0.00121192 -0.00038504 0.0164653 
0.000602916 -0.000101383 0.017257 
0.00156255 -0.000709057 0.0165045 
0.000361416 -0.000674679 0.0149675 
0.00034354 -0.000439553 0.0119708 
0.000456807 -0.00117044 0.0168701 
6.55732e-05 -0.000334502 0.0133898 
-0.000105476 -0.00118263 0.0089133 
-0.000829966 -0.000458909 0.0208549 
-0.00211733 -0.00424651 0.0186162 
-0.00342071 -0.00294462 0.00735293 
-7.83886e-05 -6.32696e-05 7.09706e-06 
-5.04534e-05 9.77659e-06 7.94485e-05 
8.20823e-05 6.38002e-06 0.00945461 
0.000257004 0.000241223 0.00689129 
0.000948492 -0.00231883 0.00840613 
0.0019327 -0.000503042 0.0076584 
0.00239998 -0.000455336 0.00206924 
8.84822e-05 -0.00110577 0.00352374 
-0.00210261 -0.00285217 -0.00521818 
-0.00898732 0.0076055 0.0121429 
-0.00258244 0.000555803 0.00131257 
0.00112279 0.00301255 0.0083017 
2.53805e-05 -5.24828e-07 0.0164817 
4.08871e-05 6.47172e-05 0.0166623 
-1.0905e-05 -3.2935e-05 0.0181984 
-0.000152082 -0.000882538 0.0172275 
0.0037339 0.0025978 0 
-0.00147482 0.000222761 0 
-0.0016793 0.00402967 0 
0.00354997 0.00344801 -0.000130359 
-6.46693e-05 -9.94011e-05 0.000390347 
0.000139962 0.000229312 -0.000420561 
0.000106739 0.000179863 -0.000171614 
-0.000556599 -0.00198028 0.00157897 
-0.002926 -0.00174618 -0.00165493 
0.00662447 0.00696433 0.0021178 
0.00358022 0.00252127 7.81906e-05 
0.00179102 -0.00316414 0.00906401 
-0.000397099 -0.000130325 1.44486e-05 
0.000799993 0.000211601 -0.00116271 
-0.00297464 -0.000996358 0.00220458 
-0.00131754 0.000208356 0.00175942 
-0.000232709 -0.000107709 0 
3.7521e-05 0.000163746 0 
-0.000147579 -6.76901e-05 0 
-0.000355868 0.000234263 0.000184797 
-0.000218546 -0.00115817 0.000854163 
0.000440583 3.95902e-05 1.71181e-05 
-9.16948e-05 0.00118268 -0.000967395 
5.1175e-05 -0.000303148 -0.00014801 
-0.000624281 0.000457532 0.000135803 
0.000383444 -0.000307039 -0.000197569 
-0.000542148 -0.000205879 -0.000129941 
6.71687e-05 -0.000870857 -0.000265063 
1.97442e-05 3.2388e-05 0.00665606 
-5.42325e-05 -5.25461e-05 0.00480939 
4.39774e-05 -1.62987e-05 0.000125642 
-6.06936e-05 0.00018175 0.00945926 
-0.000658681 0.000826347 0.0130821 
0.000290819 0.0006514 0.0151519 
-0.00206679 0.00392671 0.0192104 
0.00124385 0.00284302 0.0150609 
1.51751e-07 -3.4506e-05 0.0162992 
3.79823e-05 -0.000798369 0.0157585 
-7.95488e-07 6.44584e-05 0.0166116 
-6.32007e-05 -0.00086883 0.0173945 
0.000440989 0.000530529 -0.00086657 
-0.00238265 -0.00127676 0.00263552 
0.00030324 0.000763057 -0.000933077 
-0.000986361 -0.000133424 0.0016547 
-0.000203585 0.000211403 0.000214774 
1.49289e-05 -1.52008e-05 -0.000498017 
5.76012e-05 -6.01893e-05 0.000541344 
-0.000210203 -0.000699805 0.00140423 
0.00980909 0.0184307 0 
0.0063307 0.0034004 0 
-0.0278957 -0.0103625 0 
-0.0366367 -0.0234335 0.0370696 
-0.000159283 0.000188154 0.000270472 
-0.000180775 -2.88623e-05 0.00879452 
-0.000106095 3.95732e-05 0.000155622 
-0.000159788 0.000106169 0.00861092 
-0.0016559 -0.00150359 0.00877525 
0.00105666 -0.0013412 0.0150524 
-0.000525742 -9.629e-05 0.0110893 
0.00196108 -0.00254046 0.0144425 
-0.000285614 0.000218315 4.33821e-05 
-7.574e-05 4.49351e-05 -0.000768039 
8.83449e-05 -6.34253e-05 0.000233408 
-0.00098989 -1.91447e-05 0.00270801 
0.00208923 -0.0053378 0.00368737 
0.000632671 -0.0011483 0.00129382 
-0.000145295 0.000808246 -0.00189359 
0.00139393 -0.00418072 0.00158936 
0.0052583 0.00112817 0.00346114 
0.00126854 0.00423617 0.00294977 
0.00114893 0.000766756 0.00269354 
0.0035974 0.00367448 0.0104604 
-0.00212741 0.00483756 0.0158688 
-0.000558333 0.00145926 0.00764125 
-0.00240652 0.00326933 0.00519775 
-0.00149732 0.00114441 0.0034877 
-0.000528669 -7.07427e-05 0.0113678 
0.000150704 0.000224738 0.00670556 
-0.00190763 0.00261911 0.0148259 
-0.00147393 0.00112506 0.00763549 
-7.55073e-06 -5.336e-05 0.000165148 
9.71769e-06 9.35469e-05 -6.94417e-05 
-1.61003e-06 -3.03237e-05 -7.37852e-05 
-0.000202382 0.000393791 0.0108884 
0.000201356 -0.000206325 -0.000427673 
1.0923e-05 -1.99393e-05 -0.000667708 
9.5013e-06 -4.44147e-06 0.000369931 
0.000270221 0.00105037 0.00272247 
0.00052692 0.000581297 0.0133646 
0.000991474 -0.000225421 0.0164646 
0.00116395 -0.000636667 0.0174507 
0.000748801 0.00044219 0.0143872 
-0.00166331 -0.00573329 0.018177 
-0.00117109 -0.000616757 0.0157356 
0.00103315 -0.000542402 0.0145801 
-0.00111221 -0.0031009 0.0187832 
-0.00116222 -0.000214746 -0.00137826 
7.76122e-05 -0.000745228 0.000583892 
0.00163252 0.000182497 0.00164879 
0.000431277 -0.000876644 0.000389445 
5.65112e-05 -0.000139423 0.000280853 
5.33321e-05 -0.000114203 2.79553e-05 
-4.5948e-05 0.000101758 -7.00278e-05 
-0.00040495 0.00139606 0.00798653 
0.00155965 0.00373121 0.00455804 
-0.000298528 0.00171434 0.00731311 
1.03389e-05 -0.000620401 0.000294522 
0.000236646 0.00155128 0.00432492 
0.000680081 -5.18111e-05 -0.000247035 
0.000294978 -0.00051151 -0.000547389 
4.80404e-05 0.000504084 -0.000180422 
-0.00143182 0.00247069 0.00249269 
-0.00719882 -0.00445936 0.00264666 
0.0148292 -0.00836454 0.0374562 
0.000469348 -0.00539689 0.0253439 
0.00186364 -0.00401262 0.0128812 
-0.00247455 0.0277431 0 
-0.00236019 -0.0387896 0 
-0.012231 -0.0285207 0 
-0.0354199 -0.00182399 0.0714573 
0.000676282 -0.00537316 -0.00373269 
-0.0201723 0.000939264 0.0437105 
-0.0108653 -0.000504854 0.00429742 
-0.0206285 -0.00480001 0.049035 
-0.00251174 0.00142054 0.00788018 
-0.00236973 0.000217499 0.0152284 
-0.00469018 -0.00103884 0.0105679 
-0.0017111 -0.00079101 0.00955795 
-0.000794511 0.000110113 -0.000156347 
0.00047239 -0.00144714 0.00856061 
0.000395046 -0.00181119 0.00505993 
0.000142799 -0.0011255 0.0039815 
1.83858e-05 1.84271e-05 -3.63136e-05 
0.000383216 2.42719e-05 0.00893026 
-0.000157293 -0.000218119 0.000255745 
0.000455247 0.000207082 0.00745366 
0.00479435 0.000524943 0.0152099 
0.00351841 0.00284503 0.0110677 
8.4625e-05 0.00320535 0.014802 
0.00200303 0.00296647 0.0150421 
-0.000121867 0.000308983 0.0137095 
-0.000266727 0.000421071 0.0167543 
-4.57411e-05 -1.194e-05 0.0151564 
-0.000307187 9.65108e-05 0.0154094 
0.000914631 3.3168e-05 0.0170293 
0.00123866 -0.000122873 0.0162141 
0.000446905 -0.00054101 0.0168635 
0.0011146 -0.00102253 0.0169428 
3.03544e-06 3.72085e-05 4.17412e-05 
6.71954e-07 8.23682e-06 4.59735e-05 
-1.53183e-07 -1.87773e-06 0.000150657 
7.59275e-05 6.72681e-05 0.00923089 
0.000256513 -0.00017431 4.6436e-05 
-7.92983e-05 5.32465e-05 -0.001291 
1.18951e-06 -7.55013e-07 0.000106627 
0.00164928 9.65559e-05 0.00547526 
2.79135e-05 0.000171265 0 
0.000382712 0.000600247 0 
0.000693253 0.000644035 0 
-0.00135787 -0.00484076 0.000243072 
8.80158e-05 8.54469e-05 0.00614076 
-6.76722e-05 -8.69905e-05 5.62826e-05 
3.51688e-05 -7.79624e-05 0.000100652 
5.71553e-05 0.000278375 0.00912673 
0.000986327 -0.000941169 0.0169144 
0.000359577 -0.000494485 0.0173425 
-0.000226649 -0.000814263 0.0178394 
0.00119873 -0.0012585 0.0165407 
-2.86177e-05 -2.09028e-05 0.00839542 
6.22717e-06 6.94784e-06 0.00561956 
2.61937e-05 9.29077e-06 0.00975569 
0.000265254 -0.000148032 0.00846085 
0.000119421 -0.000256796 0.000275762 
-4.07279e-05 6.62351e-05 0.000732546 
2.01644e-05 -3.5719e-05 -0.00024937 
6.53351e-05 -0.00210739 0.00359839 
7.03018e-06 0.000295452 0 
0.00059573 -3.82408e-05 0 
-0.000438826 -0.00117347 0 
0.00136584 -0.00443822 0.00148743 
0.00288248 -0.00423805 0.00378725 
0.00597093 0.00172297 0.00597365 
0.0100928 -0.00321914 0.0125665 
0.000922949 -0.00338103 0.000673134 
0.00113708 -0.000500216 -0.00217516 
-0.00197781 0.00284677 0.00364138 
0.000256814 0.000208991 -6.47407e-05 
-0.00144073 0.00224191 0.00411198 
4.52643e-05 6.96439e-05 0.0166711 
-5.88382e-05 5.00178e-05 0.0180283 
-3.25314e-06 -2.306e-05 0.0182337 
-0.00016121 -0.000897512 0.0171355 
4.03673e-05 -3.52364e-05 0.0138113 
-8.16243e-05 2.58161e-05 0.0121993 
1.17358e-05 7.73723e-05 0.0104199 
-1.12744e-05 -0.00045285 0.0157338 
-0.00688086 -0.00362666 0.0160498 
-0.00276583 -0.00318367 0.0211626 
0.000971282 0.000154262 0.00936376 
-0.00262763 -0.00171807 0.00684322 
0.00457529 0.000171588 0.00933932 
0.000845113 -0.00340828 0.014354 
0.00110804 -0.00245532 0.00742028 
0.0032369 -0.00274422 0.0118158 
0.00528323 -0.00279373 0.0307688 
0.00115497 0.000127184 0.0131457 
-0.00269425 0.00267154 0.0212651 
-0.0124305 0.00263034 0.0388714 
-0.000970045 0.00040709 0.0124536 
0.000595119 0.00108941 0.0161614 
0.00076938 0.00233008 0.0158642 
0.00145728 -0.00100619 0.0139538 
-2.08744e-05 -4.56724e-05 0.00536858 
5.19613e-05 6.25955e-05 0.0105371 
-3.77632e-06 1.19941e-05 0.00654857 
0.000109597 -0.000132681 0.00756278 
-0.00551738 -0.000744981 0.0116433 
-0.00294999 0.000835659 0.00208435 
9.9777e-05 -0.00176547 0.00272679 
-0.006362 -0.000889195 0.00417268 
-3.60151e-06 1.7459e-05 -0.00015433 
5.38065e-06 -5.67399e-05 1.7058e-05 
1.32615e-05 -9.79005e-05 0.00033417 
-7.30664e-05 0.000447805 0.00854114 
-4.43503e-06 3.34347e-05 0.00976162 
-0.0001141 5.22816e-05 0.00831634 
0.000367095 -0.000241018 0.00865063 
0.000255678 -0.00026768 0.013797 
2.47534e-05 7.31302e-06 0.000251859 
7.41371e-06 5.06945e-06 -0.000122044 
-2.19972e-05 -1.23738e-05 0.000179141 
-0.00033035 -0.000272142 0.00844237 
9.74304e-05 -0.000114282 0 
-0.000108394 7.52639e-05 0 
0.000233405 -3.07318e-05 0 
-5.03081e-05 -0.000141564 -0.000148698 
0.000172344 0.00052277 -7.43576e-05 
0.000147065 8.3919e-05 -0.000504277 
-0.000280842 -0.000319347 0.000383812 
-0.00151476 -0.00228459 0.00264671 
4.38102e-05 -2.67777e-06 0.0185844 
-4.19816e-05 -7.34856e-06 0.0184893 
1.55173e-05 9.5645e-05 0.0179676 
-2.90271e-05 1.01985e-05 0.0185338 
0.00110529 -0.00263908 0.0151946 
0.000190808 -0.00187656 0.01622 
-0.000503664 -0.00236895 0.0173891 
0.00100912 -0.00116419 0.0164439 
2.41383e-05 -0.000128623 0.000256195 
-0.000105439 0.00131871 0.00815825 
-0.000148468 0.00013149 -0.000136944 
4.53232e-05 0.000681664 0.00819657 
4.43202e-05 -3.08883e-05 0.00678927 
-0.000107876 -2.45063e-05 0.010397 
4.47742e-05 6.79828e-06 0.00518312 
-8.09717e-05 6.59868e-05 0.00781837 
0.000207983 0.000269951 0.000849615 
0.000265904 -0.00143032 0.00722848 
-0.000159145 -0.000250011 -0.000733179 
-0.000174224 -0.00220666 0.00405991 
7.3384e-05 2.33422e-06 0 
-0.000192726 0.000211535 0 
0.0010014 0.000112373 0 
-0.000797625 0.00131449 -0.000442198 
0.00397669 -0.00353899 0 
0.0018586 -0.00293864 0 
-0.00153568 0.00177845 0 
-0.0184672 0.00772148 0.00558061 
-6.83912e-05 1.59722e-05 0.015763 
-2.04762e-05 -6.78624e-05 0.0169981 
0.000806719 -2.51941e-06 0.0171322 
0.000392379 -0.00015864 0.015211 
0.00121313 -0.000704882 0.0195211 
0.00149026 0.000595184 0.0171475 
0.00169003 -0.000387937 0.016768 
0.00408713 -0.0006573 0.0196757 
0.0120841 -0.000638955 0.0185483 
0.00284378 3.95907e-05 0.0116784 
-0.0143416 -0.000198837 0.0479026 
-0.00979585 -0.00365749 0.0459818 
0.00194001 -0.00205418 0.012552 
-0.00135736 -0.00869749 0.0120299 
-0.000678712 -0.00689353 0.0171276 
-0.000122881 -0.00527518 0.0173122 
0.000280289 -0.000113123 0.0118506 
0.000266801 0.000658688 0.0155752 
-0.000274117 -0.000105893 0.00882682 
-0.000432006 -6.21999e-05 0.0115183 
-0.00026398 -0.000328749 0 
0.00086407 0.000973348 0 
-0.000167102 0.000344005 0 
-0.00072845 0.00031699 0.00157556 
-0.000461912 -0.000484292 0.0176772 
4.70307e-05 -0.000769203 0.0179883 
-0.000191467 -0.00119257 0.0172717 
-5.11075e-05 -0.00159249 0.0168571 
0.000411339 -0.000272278 -8.06729e-05 
3.625e-05 -4.86876e-05 0.000540311 
-0.000141122 0.000113006 -0.000406696 
-0.00200201 0.000398598 0.00145939 
0.00122165 -0.000548209 0.0158241 
0.000566909 -0.000116626 0.0151004 
0.00104927 0.000223383 0.0173618 
0.000692332 -5.42913e-05 0.0143592 
-0.000996439 0.000603955 0 
0.00145915 -0.000485828 0 
0.000461675 0.000571357 0 
-0.00224524 -0.000416044 0.00379111 
0.00371037 0.000671954 0.0184023 
0.00292694 -0.000806894 0.0170598 
0.000952618 -0.00040915 0.0156164 
0.00147389 0.000702911 0.0176118 
-3.51256e-05 -1.45767e-05 0.00564655 
3.11094e-05 -2.51086e-05 9.89871e-05 
-4.21821e-06 4.25389e-05 1.15847e-05 
-1.19615e-05 6.9386e-05 0.00912746 
-2.01494e-06 -1.84324e-05 0.0178296 
-2.046e-05 1.99362e-05 0.016189 
-8.87466e-05 3.49275e-05 0.0157997 
0.000854147 -0.000105432 0.0169839 
-2.2136e-05 2.36488e-05 0.0137274 
-7.02292e-07 4.29322e-05 0.01095 
0.000175145 0.000137903 0.00949206 
5.62869e-05 -2.79604e-05 0.00861753 
-0.000877604 0.00228698 -0.00279721 
-0.00222274 -0.00588771 0.0101441 
-0.00083053 0.00137351 -0.000584217 
-0.000601661 -0.00615963 0.00516517 
-0.00294257 0.0029584 0 
-0.00145208 0.00265695 0 
0.000265134 0.000167583 0 
0.00442075 -0.0102131 -0.000887772 
0.000250921 0.000126263 -0.000428651 
0.000208984 -0.000413296 3.24902e-05 
0.000514154 0.000414294 -0.000547965 
-0.00286304 -0.00314913 0.00282629 
-0.00382309 -0.00372866 0 
0.0128489 0.00166771 0 
-0.00347313 -0.0127168 0 
0.0220662 0.00134421 0.01765 
0.000690836 -0.000110599 9.57001e-05 
-0.0011351 0.00157644 0.00449622 
0.000359932 0.000404815 0.00775903 
-0.00141019 0.00149315 0.00685508 
8.01891e-06 -9.31814e-05 -7.53328e-05 
-4.90251e-06 5.69682e-05 8.56127e-05 
8.03715e-06 -9.33934e-05 -0.000126054 
-0.000335329 0.000169497 0.0111781 
0.000428856 0.000170187 -0.000273512 
0.000122475 7.75476e-05 0.00139965 
0.000576715 0.000232824 -0.000165637 
-0.00390297 0.000359368 0.00089601 
9.11094e-05 6.03979e-05 0.000341423 
6.09549e-05 4.15999e-05 8.82138e-07 
-3.31739e-05 -2.27395e-05 1.84742e-05 
-0.00105664 -0.00039254 0.00756638 
0.0564353 -0.0431056 0.0926522 
-0.0515364 0.0127593 0.0550935 
0.0242336 -0.0255542 0.0379934 
-0.00101756 -0.00651846 -0.0153006 
2.72297e-05 -0.000158836 0.01856 
8.40528e-05 8.64683e-05 0.018355 
1.56628e-05 3.19726e-06 0.0186859 
0.000393936 3.56396e-05 0.0180729 
-4.84601e-05 -4.62695e-05 0.0166917 
-0.000416585 -0.000300145 0.0164215 
8.37255e-05 -1.47124e-05 0.0157538 
-0.00049365 9.06491e-06 0.0147912 
-0.016278 0.0309258 0.0781944 
-0.0385302 -0.0038427 0.0601375 
0.0221601 0.0239757 0.0574049 
-0.0175882 -0.00931065 -0.0548006 
0.00766404 -0.00186555 0 
-0.0135676 0.0070564 0 
0.00703419 0.00801184 0 
-0.0215235 0.006209 0.0308246 
-0.00582875 0.00439306 -0.00563922 
0.0414378 -0.00583275 0.0574968 
-0.00566391 -0.00162769 -0.0086221 
0.00542705 -6.4458e-05 -0.00417509 
0.00012517 -6.11008e-05 -0.000712892 
-0.00074174 -0.000426096 0.00567736 
-0.00010993 -0.00101967 0.00717844 
7.00064e-05 -9.49158e-05 0.00640318 
0.000398293 -0.00060928 0.0168175 
-0.000133126 -0.00161573 0.0164505 
-5.90805e-05 -0.0020396 0.0173323 
0.00123275 -0.00116377 0.0163232 
-0.000487344 0.000997644 -0.00390001 
0.00275568 -0.0067062 0.00708722 
-0.0104904 0.00391187 0.0109526 
0.000611499 0.00268521 0.00759335 
-0.000104237 0.000245646 0.0124348 
-5.42492e-05 -0.000702275 0.0155121 
1.91147e-05 -2.15922e-05 0.0163114 
2.01407e-05 -0.000550565 0.0159714 
0.000102321 0.000354143 -5.57479e-05 
0.000266734 9.54073e-05 -0.000428456 
-7.7663e-05 -0.000591697 -0.000279502 
-0.00311097 0.000820053 0.00410682 
1.01631e-05 3.55863e-06 0.0190853 
-8.26413e-05 -3.613e-05 0.0181526 
-0.000500366 -0.000524838 0.0176621 
-0.000549277 2.33331e-05 0.0180479 
0.000387952 -0.00100968 0.014968 
-0.000486798 -0.000327856 0.0163341 
-0.000156437 -0.000859716 0.0171761 
0.000122252 -0.00214335 0.0171538 
0.000290747 -9.74668e-05 -0.00185947 
0.000286504 -7.24367e-05 2.78111e-05 
0.000146549 -3.45765e-05 0.000209284 
-0.00360195 -0.00154097 0.00906135 
1.96308e-05 -0.00654841 0.00915862 
0.000931727 -0.00255722 0.00723426 
-0.000535054 -0.00161462 0.00201483 
-0.00252199 -0.0048762 0.00976856 
1.63054e-05 2.06077e-05 3.64235e-05 
0.000115201 0.000146942 0.000195697 
-0.000146665 -0.000179562 -0.00059351 
-0.000175752 0.000502879 0.000600294 
-4.72198e-06 -5.71607e-05 0.0125208 
-6.67306e-05 -8.09441e-07 0.0101006 
9.988e-06 7.20411e-05 0.0129682 
0.000434234 -0.000114609 0.0153015 
0.000325326 0.000517754 0.0121397 
-0.000819104 0.0017165 0.0150951 
0.00137079 0.00298142 0.0150848 
0.000119031 0.00377283 0.0108692 
-0.00437978 0.00668169 0 
-0.00171681 0.00214838 0 
0.00983246 -0.00866203 0 
0.0134174 -0.045879 0.0252066 
-3.6183e-06 -0.00149359 0.00919567 
0.000156281 -4.67e-05 0.00764338 
0.001085 -0.000544112 0.0072567 
0.000636935 -0.000842294 0.0036951 
5.69307e-05 -1.21445e-05 9.02835e-05 
3.21408e-05 6.52245e-05 9.35558e-05 
-3.39916e-05 -6.32455e-05 0.00478768 
-0.000144471 0.000217109 0.00955445 
1.27429e-05 6.69337e-05 0.0148075 
3.78948e-05 -5.95266e-05 0.0108734 
-2.38683e-05 -2.57525e-05 0.0123794 
-0.00019198 -8.40635e-05 0.0155534 
0.000547299 0.00030158 -0.000742752 
0.000403526 0.000751613 -0.000274196 
-0.00288596 0.00224997 0.00271627 
-0.000402874 0.00106634 0.00371896 
0.000875945 -0.00106767 0.0156337 
-0.000106086 -0.0015282 0.0163444 
0.000410732 -0.00059471 0.0167655 
0.00118159 -0.00126656 0.0165319 
-2.71263e-05 8.89027e-06 7.25847e-05 
6.79531e-08 5.66979e-05 -4.39689e-05 
5.41735e-06 -3.33992e-05 0.00565772 
-7.22729e-06 -4.15509e-05 0.0066682 
-0.00142891 3.22563e-05 0.00942246 
1.02633e-06 0.000107566 0.00841288 
-0.000282899 0.000569116 0.0144242 
-0.000643739 0.0001694 0.0112897 
1.57641e-05 0.000534644 0 
0.000316581 -0.00011277 0 
0.000191909 0.0002958 0 
-0.000342628 -0.00235832 0.000694323 
3.6198e-05 3.5143e-05 0.0166874 
5.58042e-05 -4.89173e-05 0.0180119 
-0.00050771 -0.000432037 0.016484 
-0.000529668 -0.000195834 0.0174424 
-0.000263973 -0.000569406 -0.000554369 
0.000103353 5.59795e-05 -0.00018598 
0.000267399 -0.000302736 -6.2262e-05 
7.72851e-05 0.000372486 5.4516e-05 
0.000246543 -0.00260657 0 
-0.000597915 0.00457099 0 
0.00648502 0.000130681 0 
-0.00296905 0.00860056 0.00139445 
2.83436e-05 4.05406e-05 -0.00105178 
-0.00013313 -8.84228e-05 0.000937118 
0.000193101 9.88046e-05 -0.000203438 
-0.00236236 0.000257908 0.00296966 
-0.000963755 -2.99701e-05 0.0123464 
0.00149038 -0.0014086 0.0138096 
0.000466297 0.00136766 0.0160053 
0.00159096 -0.00126424 0.0141242 
9.69608e-05 -0.00107523 -0.00196863 
0.00277951 0.00450713 0.00419269 
-0.00108731 -0.00247299 -0.00210738 
0.00211822 0.00170739 0.00293818 
0.0206679 0.00774916 0 
-0.0113436 -0.00838226 0 
-0.0041239 0.0015968 0 
0.0297266 0.00856287 0.0283686 
0.00100266 -0.00080003 0.0167159 
0.000436906 0.000295464 0.0128675 
-0.000161499 -0.00183653 0.0160511 
-0.000387157 -4.27488e-05 0.0161629 
0.00119318 -0.00138205 0 
0.00060631 0.00123549 0 
-0.000138932 -0.00131811 0 
-0.00354282 -0.00216911 0.00125278 
-5.60268e-05 -1.27307e-05 0.00544232 
-5.41495e-06 -5.99068e-05 0.00015448 
-6.56447e-06 -4.21162e-06 0.00616901 
-0.000219611 -8.5052e-05 0.0080932 
-0.000935545 0.000129228 0.0106944 
0.000721736 0.000139371 0.0183339 
-0.00242966 0.0013725 0.0173079 
0.00174764 0.000628755 0.0176819 
0.00120389 0.00110665 -0.00140888 
-0.000428023 -0.00148478 0.000752531 
0.00166053 0.00100409 -0.00144749 
-0.00593328 -0.00140175 0.00514486 
-0.00457726 -0.0051727 0.010706 
-0.00624293 -0.000975016 0.00429113 
-0.0015644 -0.00425822 0.00956439 
-0.00018051 -0.0033085 -0.000961862 
0.00783545 0.00165659 0.00759556 
0.0134392 -0.00605337 0.0235837 
-0.00538751 -0.00438178 0.0160113 
0.00261935 -0.00188251 0.0152571 
-0.000916626 -0.000664365 -0.000753301 
0.00147255 0.000868309 0.00983991 
0.00188934 0.00166821 0.00790498 
0.00280223 0.00135928 0.00561584 
-6.62951e-06 -1.91762e-05 -5.26531e-05 
-2.66586e-05 -5.09136e-05 0.000155386 
3.17019e-05 7.72652e-05 4.95138e-05 
-8.86712e-05 -0.000394466 0.0093066 
-0.00059837 -0.00124207 -0.00113745 
0.00207887 0.00165423 0.00898887 
-0.000466271 -0.000740942 -0.000147785 
0.00269988 0.00152043 0.00520882 
-8.11326e-06 -0.000312251 0.0103858 
0.000590713 -0.000155918 0.0151085 
0.00114279 -0.000441944 0.0160223 
0.000673423 -2.00332e-05 0.0143242 
3.24086e-06 3.9926e-05 0.0165931 
3.03731e-05 7.39794e-06 0.0143122 
-4.5522e-06 -5.53353e-05 0.0164212 
-0.000419637 -0.000137762 0.0177415 
-0.000218988 -0.000156054 -0.000292229 
-0.000184827 -9.09222e-05 0.000825136 
0.000572165 0.000368151 -0.000276518 
-0.00144847 -6.2102e-05 0.00141159 
-0.00207712 0.0058597 0.000106658 
-0.00637172 0.0122361 0.0271436 
-0.00242366 0.00403369 0.0196734 
-0.00613339 0.00226818 0.00964321 
7.09644e-05 4.2978e-05 -0.000252555 
0.000475578 0.000444279 -0.000297029 
-0.000257917 -0.000142642 -0.000115018 
0.000196379 -0.00211541 0.0029546 
1.05273e-05 -1.20774e-05 0.000881891 
-4.27171e-05 -0.000310353 -0.00149207 
-1.08075e-05 -1.83542e-05 -0.000726814 
-0.00161677 0.00184869 0.00634215 
0.00706111 -9.61828e-05 0 
0.00319575 0.000559669 0 
-0.00355027 0.00164788 0 
-0.00936607 0.00125582 0.00180447 
-0.00341713 -0.00146386 -0.0015844 
-0.00104472 -0.000521501 -0.00104517 
0.00557602 0.000827297 0.0028739 
0.00261146 -0.000623745 0.00225725 
-0.000544682 0.000259984 -0.000881776 
0.000719454 -0.00224578 0.00456324 
0.000336969 -0.00175159 0.00217421 
4.07447e-05 -0.000945604 0.00385481 
1.34409e-05 -9.40242e-06 0.000100624 
0.00014581 -0.000102478 0.000118168 
-4.37187e-06 3.0073e-06 -0.00013638 
7.13024e-05 -3.52212e-05 0.00950784 
0.0329073 0.00353432 0.119414 
0.025535 0.0111916 0.151176 
-0.0445839 -0.00332061 0.193062 
0.00971208 -0.00406974 0.0205079 
0.000887732 -0.00107451 0.0156915 
0.000411644 -0.00059851 0.0167514 
0.00138198 7.15842e-05 0.0165912 
0.00115976 -0.00124017 0.0165026 
-0.0116798 0.000420021 0.0156329 
-0.000444884 0.00180139 0.0210922 
0.000840328 -0.00593431 0.0193457 
-0.00625667 -0.00910676 0.0318513 
-0.00010581 2.9226e-05 -0.00019418 
-5.37957e-05 1.38626e-05 9.70061e-05 
0.000189658 -4.89001e-05 -0.000336629 
0.00159513 -8.24869e-05 0.0116271 
-0.000572335 0.000261113 0.010963 
0.000120125 0.00152276 0.00823359 
-0.000495771 0.00168797 0.0145073 
-0.000923541 0.000533062 0.015395 
0.000417397 0.000328771 0.0129717 
0.00106332 -0.000796747 0.0168305 
0.00206652 0.000704584 0.0154037 
-0.000478771 -5.55465e-05 0.0159578 
0.00815611 -0.0030059 0 
-0.0399851 -0.0161765 0 
0.0182052 0.00941522 0 
-0.0274659 -0.011071 0.0479958 
-0.00230735 -0.0200958 0.0806875 
0.0375863 -0.0166654 0.136827 
-0.0577576 0.00609028 0.108186 
-0.0119183 -0.0204402 -0.0240186 
0.00217604 0.004323 0.0058698 
-0.00114246 0.00375174 0.0124758 
-9.01885e-05 0.00239946 0.0106609 
0.00316798 -0.005535 0.0117678 
-0.00037437 -0.000892453 0.01531 
-5.77937e-05 -6.88487e-06 0.00919189 
-0.000181638 -0.000401186 0.00890523 
-0.000354144 -0.00067685 0.00722325 
-0.00117623 -7.98934e-06 -0.000563653 
-0.00124655 -5.66548e-05 -0.000602929 
0.00346621 -0.000772742 0.00119861 
0.00370736 -0.000908165 0.00272765 
-2.20016e-07 -0.000287434 0 
0.000731472 0.000691381 0 
-0.000283033 -0.000877853 0 
-0.000719376 -0.00196327 0.0010696 
0.00278624 0.000290757 0.016989 
0.00136724 -0.000751043 0.017182 
0.00128385 -0.000112775 0.0175122 
0.00482414 -0.000130467 0.0187939 
2.81013e-07 -0.00118927 0.011331 
-0.000192387 -0.000117159 0.00901878 
-0.000817423 -0.000673481 0.0154232 
-0.000112126 -0.000792824 0.00716571 
-0.000546349 -0.000859003 -0.000567872 
-0.00108781 -0.000564283 0.000164835 
0.00110509 0.00171187 0.000664377 
0.00137813 0.000906145 0.000818175 
0.000712261 0.000148465 -0.00157873 
0.000506553 0.000141127 0.000439325 
4.30635e-05 1.88746e-05 0.000339612 
-0.000248563 -0.00221585 0.00483907 
0.00029865 -0.00207827 0.0174763 
-8.61428e-06 -0.000902359 0.0174993 
-0.000381836 -0.00225195 0.016253 
-0.000115775 -0.00225577 0.0170635 
-1.04629e-07 -3.08427e-05 0.00943926 
6.97201e-05 0.000175036 0.00694633 
8.46679e-05 5.53055e-05 2.89975e-05 
-7.60758e-06 0.000134656 0.00695658 
7.70784e-05 0.000149348 0.000420648 
0.000147483 0.000259266 -4.98596e-06 
1.32815e-05 -6.06699e-06 -0.000899414 
-0.000320631 0.00149726 0.00420488 
0.000691174 -0.00197061 0 
-0.00373528 -0.00145122 0 
-0.00072353 0.00213346 0 
-0.00540133 -0.004843 0.000437885 
8.04795e-05 -4.7842e-05 0.000402234 
-7.02566e-05 -4.02291e-05 -0.000200443 
-0.000242377 0.000995822 0.00737815 
-5.82567e-05 0.000513751 0.00670904 
0.000863986 -0.00105428 0.0155714 
0.00131643 0.000171042 0.0161154 
0.00044284 -0.000633849 0.0169382 
-0.000212381 -0.00148602 0.0159208 
7.8576e-05 -3.97247e-05 0.00505493 
-1.16248e-05 -1.47026e-05 0.00734688 
4.6535e-05 8.70342e-06 0.0094493 
-0.000219575 9.44164e-05 0.00831592 
0.000190565 0.00113028 0.016433 
-0.000191754 0.000106191 0.0137582 
-0.000240507 0.000682892 0.01681 
7.38289e-05 0.000315407 0.0143826 
0.000844908 0.00105619 0.0159401 
0.00146985 -0.00135516 0.0138523 
-0.001616 0.000289944 0.0122264 
-0.00075469 -2.91285e-05 0.011684 
-3.23687e-05 -8.48144e-06 -3.07926e-05 
0.000121371 3.25738e-05 -3.60801e-05 
-8.76467e-05 -2.39441e-05 0.000108812 
0.000749048 -2.66198e-06 0.00920746 
3.90658e-05 1.07914e-05 0.000228597 
-0.000112667 -0.000247406 0.00895252 
2.91734e-05 -1.62696e-05 3.12638e-05 
2.28176e-05 -9.39476e-05 0.00876903 
-4.12395e-06 9.19581e-05 0.0066017 
7.0883e-05 3.63133e-05 0.0103438 
-3.66283e-06 -0.000110731 0.0121951 
-8.55195e-05 -0.000239732 0.00862756 
-4.09763e-05 -0.000148051 -0.000123188 
-4.01383e-07 -1.42888e-05 -0.00011611 
5.07861e-05 0.000185469 0.00017036 
-0.000179763 -0.000887681 0.00731139 
2.32402e-05 -3.34836e-05 0.00683208 
2.38009e-06 0.000118549 0.00700058 
-7.7335e-05 -1.67173e-05 0.000210315 
-5.42853e-05 -0.000225036 0.00906902 
-0.0295477 0.0112017 0 
-0.0311182 0.0157568 0 
0.0202249 -0.0117696 0 
-0.0200989 -0.0136411 0.0869902 
8.33168e-05 2.23326e-05 -8.07643e-06 
-4.04234e-05 -8.8295e-06 -0.000494611 
3.6862e-05 9.79734e-06 1.71422e-05 
0.000598799 -0.000585555 0.00942223 
-1.44594e-05 0.000218401 -0.000352376 
2.5677e-05 -0.000252529 -0.000152705 
2.0946e-05 -0.000229036 7.96335e-06 
0.000362302 0.00119303 0.00794924 
0.00228637 0.000146878 0.0111807 
-0.00193079 -0.0123788 0.00881782 
0.00234608 -0.00754802 0.00468949 
0.00084812 -0.000954633 0.00461479 
-0.00110996 -0.000121409 0.000342214 
0.000825602 0.00146088 0.00735658 
-0.000170725 0.000759735 -0.000385843 
0.00385735 0.00100745 0.00501227 
-0.000155107 -7.10096e-05 -0.000141335 
0.000172502 7.71186e-05 0.000529439 
-9.74486e-05 -4.3987e-05 -0.00021443 
-0.00150745 0.000284346 0.0100212 
-2.05813e-05 -4.04325e-05 -3.78389e-05 
-4.25603e-05 -8.34782e-05 0.000120682 
1.14136e-05 2.21579e-05 -0.000375327 
-0.000177971 -0.000871108 0.00690873 
-0.000286248 -0.000223583 0.0159313 
0.00090245 0.00418292 0.0157875 
-0.000517987 0.00431349 0.0153465 
-0.00344117 0.00333436 0.0138079 
-0.000778671 0.000114713 -8.90108e-05 
0.000111749 -0.00209965 0.0020722 
0.00097778 -0.00204314 0.00460614 
0.00202786 -0.00234194 0.00241574 
7.85328e-05 4.95338e-06 0.00479361 
4.84142e-05 5.09065e-05 0.000164656 
-5.17444e-05 -1.89288e-05 0.00753792 
-0.000166137 2.4435e-05 0.00850401 
6.57716e-05 0.000202831 0 
0.000173977 -0.000473513 0 
-6.38678e-05 0.000120443 0 
0.000119504 -0.000126505 -0.000162932 
-3.96303e-05 -0.000292904 2.96959e-05 
-0.000272675 0.00162134 0.00718683 
0.000376579 -0.0005975 -0.000354999 
-0.000468937 0.000973265 0.00478536 
-3.62736e-05 0.000781062 -0.000311606 
-4.5844e-05 -0.00131077 0.00109112 
8.83153e-05 -0.000125103 -0.000303519 
0.000155515 -0.00212862 0.00218048 
-5.59646e-06 8.03207e-05 0.0125011 
6.62182e-05 -3.19268e-05 0.0163641 
-6.26996e-06 1.40679e-05 0.0145003 
-9.67085e-05 -0.000433147 0.0158687 
-0.0213963 0.00397603 -0.0111267 
0.0173944 0.0265461 0.0500127 
-0.0109445 0.0189973 -0.000192383 
0.00910307 0.00345892 0.00781241 
-7.2743e-05 -8.86351e-05 0.0167438 
2.74853e-05 4.47398e-06 0.0158257 
8.22632e-06 3.43554e-05 0.0136736 
-0.000385917 1.80954e-05 0.0146346 
0.00108586 0.00283428 0.0150238 
-0.000740046 0.00175683 0.0147567 
-0.000923875 0.00461469 0.0153922 
7.75943e-05 0.00375215 0.0113813 
-0.00191916 0.000902666 -0.00180242 
0.00393649 -0.00131688 0.00344508 
-0.000770508 -0.000149484 -0.000789198 
0.00574409 -0.000541121 0.00530276 
0.000375206 0.000597823 -0.00048608 
0.000307951 -0.00038217 -0.000272362 
2.44943e-05 3.39146e-05 -0.000169412 
6.48765e-05 -0.00089893 0.00099985 
-0.000649394 -0.00210401 -0.00234465 
0.000888205 0.00419209 -0.00221828 
-0.000951956 -0.00652943 0.00804398 
-0.000890341 -0.00521356 0.00273119 
-0.000208381 -0.000330521 -0.00197997 
0.000953364 0.00222795 0.00278384 
-0.000192906 -0.000179927 4.35755e-05 
0.00065192 0.00145382 0.00391511 
6.29434e-05 3.85595e-05 0.0147823 
-0.000699006 -6.0391e-05 0.0171723 
-0.000598362 -0.000266152 0.0143351 
-0.000390826 -1.34817e-05 0.0154947 
-0.0115525 0.00978599 0 
0.0376867 -0.00981278 0 
-0.0146662 0.0116598 0 
0.0367131 -0.0157933 0.062893 
-0.000520511 0.000433286 0 
-0.00047739 -0.000273156 0 
-0.000101768 -0.000610286 0 
-0.00055483 -0.000565002 -0.00011194 
-0.00150422 7.71389e-05 0.0166258 
-0.000859073 -0.000122268 0.0169175 
-0.00110784 -0.000159373 0.0154853 
-0.000535437 -0.000214772 0.0146393 
0.00376454 0.000561649 0 
0.00167844 -0.00154082 0 
-0.00158021 0.000323945 0 
-0.0108754 -0.00105227 0.00385553 
8.76601e-05 -0.00214063 0.017253 
-8.00407e-05 -0.00102817 0.0173726 
0.000135688 -0.000719214 0.0179213 
-0.000118505 -0.0017136 0.0167566 
7.61052e-05 -0.000391066 0 
0.00161955 -0.00172253 0 
-0.00152296 -0.000491838 0 
0.00202653 0.00105446 -0.00118561 
-0.0111571 -0.00316392 0.0400511 
0.00477185 -0.0086785 0.0475025 
0.0120051 -0.010142 0.00931014 
-0.00694106 -0.0107677 0.0100165 
-1.899e-05 0.000189036 0.0134098 
-0.000901806 -0.000565972 0.0147679 
-0.000711531 0.000198675 0.0162592 
-0.000434736 -2.60929e-06 0.0154348 
-0.00207635 0.000916165 0.01785 
0.000670901 -0.00322286 0.023794 
-0.0101585 -0.001475 0.0127622 
-0.0122029 0.00663728 0.0297614 
0.000279536 0.000115469 0.000273192 
-0.00049336 0.000141394 -1.55004e-05 
-2.06092e-05 -0.000464435 -0.000609832 
0.00175452 0.00164369 0.000416037 
1.17601e-05 -1.1392e-05 0.000123045 
-4.19353e-06 4.06264e-06 -4.44836e-05 
-6.76929e-05 6.51231e-05 4.1756e-05 
9.61181e-05 -3.30621e-06 0.00946055 
0.029436 0.0080834 0.187709 
-0.0232892 0.0218864 -0.0058295 
-0.0233277 -0.0209219 0.175531 
0.0167829 -0.0215606 -0.00164447 
0.000353773 0.00040803 0.013449 
0.000148512 8.19492e-05 0.00892965 
-0.000212997 0.000368136 0.0112168 
0.000785022 -7.82925e-05 0.0142885 
-0.00105025 -0.00555379 0.0167695 
0.00135796 -0.000677469 0.0156981 
-0.0008753 -0.00205512 0.00620649 
0.000889769 -0.0025137 0.0166042 
-0.00256746 -0.00296135 -0.00623462 
0.00571036 0.000492547 -0.000479459 
-0.00403343 0.000993335 -0.00324986 
0.0250539 0.00397289 0.0211086 
0.00463159 0.00107767 0.0160068 
0.00213509 0.00197372 0.0146307 
-0.000321344 -0.00119019 0.0160074 
0.00277852 -0.00138846 0.0161549 
0.00014557 7.06654e-05 -0.000201834 
-6.128e-05 0.000243154 0.000142808 
-0.000641324 -0.000454599 0.00555206 
-4.97395e-05 -0.000208864 0.0059756 
0.000203416 -0.000244231 1.2344e-06 
-0.00017965 -0.000691154 -9.65411e-05 
1.94205e-05 -0.000266826 -0.000296355 
-0.000457953 0.000898416 0.00032195 
-3.24784e-05 1.45584e-05 0.0116635 
0.000154115 5.94459e-05 0.00932211 
1.34819e-05 -0.000153303 0.01312 
0.000185434 2.56081e-05 0.0151599 
-1.27042e-06 -9.28563e-07 -0.000489059 
5.69445e-05 5.46612e-05 0.000237156 
-0.000248529 -0.000239159 -4.50015e-05 
0.000327839 -9.66545e-06 0.00314235 
0.000177538 -0.00202674 0.0170806 
0.000182356 -0.00108369 0.0174276 
-0.000650789 -0.00484275 0.0190557 
-0.00058054 -0.00245301 0.0183095 
0.0034236 0.00288025 0.0133355 
0.000857837 0.00349585 0.0148676 
0.00434977 0.000435674 0.0156215 
0.00346314 -0.00240783 0.0159368 
-0.000424733 -0.00163966 0 
-0.00112423 0.0008193 0 
-0.00109096 -0.000723981 0 
0.00381371 0.00219083 -0.000943746 
-0.00366154 -0.00371652 0.0106793 
-0.00780755 0.000303526 0.0058438 
-0.00538072 -0.000130027 0.0116449 
-0.000521756 -0.00542212 0.00840492 
1.92995e-05 -0.00012271 -6.86313e-05 
6.20717e-05 5.15712e-05 -3.43958e-05 
-0.000354268 7.41899e-05 -0.000211187 
-0.000480929 -0.000879116 0.00033768 
0.000673884 0.00186579 0 
0.000483513 -0.00193564 0 
0.000223598 0.000617085 0 
0.00173282 -0.00249227 -3.79822e-05 
0.000181602 0.000223599 0.00040391 
1.87881e-05 5.02701e-05 -0.000573515 
-0.000148039 -0.000180272 -0.000374626 
-0.000361499 0.000491935 0.00387833 
-3.67772e-05 5.18369e-05 0.013783 
4.46424e-05 -0.000131167 0.0168545 
8.61917e-05 -0.000673868 0.0156877 
4.67097e-05 -0.000472042 0.0137481 
0.0483615 -0.0341678 0.0893139 
0.00719862 0.0103334 0.0488168 
-0.0341198 0.00966365 0.0450832 
-0.000708873 -0.0280836 0.00739678 
-2.08005e-05 -2.8309e-05 0.00036603 
3.3547e-05 4.58235e-05 -0.000327029 
-0.000153549 -0.00021069 -2.35905e-06 
3.88071e-05 0.000894545 0.00711656 
-0.000140416 7.31293e-05 -0.000182419 
7.30533e-05 -3.64387e-05 4.8775e-05 
-7.39365e-05 2.72082e-05 0.000228127 
-0.00113256 0.00023878 0.00863417 
-6.99999e-05 4.41112e-05 0.0167287 
-3.75138e-05 -4.94368e-05 0.0180659 
5.93529e-05 6.92493e-05 0.0157553 
-0.000381559 -0.000427866 0.0164038 
0.0114321 -0.0248003 0.175306 
-0.00952879 0.0534367 0.166423 
-0.0338604 0.0371512 0.0151977 
0.0226663 -0.0419543 -0.00843075 
5.66255e-05 -4.46758e-05 0.0184494 
-6.36826e-05 -3.70747e-05 0.0187632 
3.76833e-05 2.0515e-05 0.0186365 
-5.11464e-06 -6.75804e-06 0.0185662 
0.000122305 0.00132518 0.0146168 
0.00113717 -0.00173751 0.0153969 
0.00334475 0.000751031 0.0165095 
0.00172907 0.00261343 0.0148223 
-0.00062801 -0.000746563 0 
0.00134294 0.000166471 0 
-8.99958e-05 -0.000995511 0 
-0.0011219 -0.000395944 0.000781792 
-0.000466396 0.000365857 0.000125596 
0.000255034 -4.88617e-05 -0.000475692 
0.000669076 -0.00173412 0.00164482 
0.00120343 -0.00208102 0.000174909 
0.000993341 0.00034302 -0.00443482 
-0.00603294 -0.000166794 0.00922586 
0.00135084 0.000154121 -0.00132453 
-0.00409652 -0.00164643 0.00779122 
0.000218461 0.000209933 -0.000525014 
-1.8784e-05 -1.79067e-05 0.000284691 
9.45328e-05 9.11664e-05 0.000311367 
-0.000948818 8.26826e-05 0.000547201 
9.32443e-05 -1.28635e-05 -0.000336108 
-6.38689e-05 8.53359e-06 0.000208965 
0.000198672 -2.1329e-05 -0.000250415 
-0.000727244 -0.000597615 0.00994674 
-0.00281256 0.002442 -0.00368134 
0.0206758 -0.0055492 0.0281903 
0.0138316 -0.00434946 -0.00200605 
0.00105207 -0.00374642 0.00943061 
-0.00332787 -0.000750166 0.00442491 
-0.0008419 -0.000233463 8.50176e-05 
-0.00163634 -0.00225065 0.00721861 
-0.00488798 -0.00132129 0.00814161 
-3.584e-06 -3.7352e-05 0.00551493 
1.00852e-05 2.22494e-05 0.000139356 
-1.88962e-05 4.87122e-05 5.3137e-05 
8.42951e-05 -0.000118434 0.00886024 
-0.0013645 -0.00124837 0.0158815 
-0.000382933 -0.00131407 0.0159794 
0.000451081 -0.00147451 0.0147155 
-0.000911319 -0.00267124 0.0187026 
3.16236e-05 7.10982e-05 0.000263093 
3.17178e-06 1.4844e-05 -0.000280266 
-1.28503e-05 -2.15044e-05 -0.000400584 
9.12648e-05 -0.00168787 0.00480527 
-0.0429976 -0.0514996 0.111838 
0.0187402 0.0530247 0.120704 
-0.0090306 -0.00123617 0.1136 
0.00359561 0.02972 0.0156181 
-8.44788e-05 5.91336e-05 0.000212984 
0.000185171 -1.05258e-05 0.009411 
-0.000112169 4.42837e-05 5.23194e-05 
3.06411e-05 4.13074e-05 0.00701267 
-2.17451e-05 -1.88876e-05 0.00739804 
6.54977e-05 9.63458e-05 0.0132424 
2.36401e-05 5.84039e-06 0.00941452 
-0.000181857 0.000101214 0.0083258 
5.40024e-05 0.00048239 -0.000753085 
-0.000203516 -0.000196367 0.00095247 
-0.000394771 -0.000641852 0.000404656 
-0.000581447 0.000371639 -0.000629107 
0.00431356 0.000985424 0.0165322 
0.00283381 -0.000720247 0.0167698 
0.00197638 0.000749473 0.0148078 
0.00544184 0.000198638 0.0163463 
-0.000470147 -0.000874924 0 
-0.00168077 -0.00136819 0 
0.000990315 -0.00154511 0 
-0.000303357 0.00495054 -0.000592105 
0.000318535 -0.000177423 0 
-0.00068872 0.000208499 0 
-0.000740353 0.000114368 0 
-0.000373096 0.000553646 0.000468731 
-0.00149555 -0.00202538 0.0135466 
0.000388466 -0.00572604 0.0173025 
0.000772079 -0.00800588 0.0193207 
-0.00203278 -0.00460918 0.00974742 
-0.0153984 -0.00240704 0.00693899 
-0.0140253 0.00175434 0.0402661 
0.00248607 -0.000158761 0.0182768 
-0.00963305 -0.00347398 0.0428842 
-3.96035e-05 -5.53622e-05 0.00542128 
3.05333e-05 -5.63933e-05 7.50545e-05 
2.49384e-05 8.7059e-05 9.30001e-05 
-0.000310429 -0.000130299 0.00823765 
0.000462234 0.000192746 0.000101009 
-0.000823868 0.000278067 0.0108738 
0.000100443 -0.000573132 -0.000219147 
-0.00128881 0.000590614 0.00744476 
5.59647e-05 7.02888e-05 -6.67496e-07 
4.48597e-05 -1.36065e-05 8.79632e-05 
-2.91521e-05 -2.43664e-05 0.00696224 
-4.61228e-05 -6.76861e-05 0.00620176 
-0.0101487 0.000269621 0.0103565 
-0.00327845 5.47632e-05 0.00066509 
-0.00542544 -0.000518351 0.0120801 
-0.00667637 -0.000992033 0.00598108 
-0.000216509 0.000334584 0.0111183 
0.000180446 0.000171487 0.0091298 
0.000380673 0.000358778 0.0132154 
-0.000115362 0.000425844 0.00739753 
0.000374028 3.57437e-05 -0.000549196 
0.00131055 -0.000946176 -0.00128586 
-0.000267968 -0.000111382 -0.000459623 
-0.00215024 0.00344535 0.00315624 
0.000124614 -3.3504e-05 0.000124079 
6.23997e-05 -0.000278934 0.000202224 
-0.000155326 0.00030331 -3.15775e-05 
0.000377145 0.000229799 -0.000149058 
-0.00138611 -0.0079259 0.0204842 
-0.00101246 -0.00575664 0.0180311 
0.000578311 -0.00810111 0.010983 
1.32948e-05 -0.00515231 0.00849363 
-0.000870775 0.000130426 -3.81037e-06 
0.00113122 -0.00204974 0.00441469 
-0.000301018 0.000203424 -0.000208097 
0.00168285 -0.00198353 0.00197696 
0.00152024 0.00148889 -0.00145842 
0.00099273 0.0013865 -0.000968148 
-0.000777123 -0.00463295 0.00594661 
-0.0019366 -0.0051315 0.0032173 
0.00166369 -0.00147136 0.0143364 
0.00100637 0.0022247 0.0163412 
-0.000114461 0.00157811 0.0140864 
0.00200575 -0.00141471 0.0156727 
-1.81946e-06 -7.92476e-06 0.00684675 
-1.5763e-06 -3.07983e-05 0.00572701 
-7.56479e-05 2.57551e-05 0.000106933 
2.13325e-06 4.01862e-05 -5.00528e-05 
-0.00095957 0.000893848 0 
-0.00207431 0.0010512 0 
0.00220081 0.00164172 0 
-0.00596848 -0.00436797 0.00439713 
0.000302033 0.000318541 -0.000850945 
-6.63506e-05 0.0012901 -0.00109921 
0.000772317 -4.00426e-05 -0.000673 
-0.0020025 -0.00181348 0.00273457 
-2.70949e-05 -1.9604e-05 0.01159 
-5.24042e-05 -6.58801e-05 0.00975895 
0.000123847 5.61039e-05 0.00924586 
0.000132985 0.000130592 0.0153054 
8.84747e-05 -0.00150368 0.00738881 
-0.00102265 -0.000379789 0.00557774 
-0.00157095 -0.000259438 0.0117269 
-0.000257987 4.34828e-05 0.0115927 
0.0052909 -0.00786391 0.0156557 
0.0133949 -0.00308098 0.0369037 
0.00286571 0.00209306 0.0100391 
0.00800166 -0.00297344 0.00670124 
-0.000114504 -0.000751183 0.0160325 
-0.000174547 -0.00124708 0.0164874 
-0.000124483 -0.00192355 0.0177543 
0.000118745 -0.00051909 0.0155922 
0.000167896 -0.000262756 0.0118054 
-0.000126631 -0.00131121 0.0081945 
0.000705039 -0.00113472 0.0147163 
-0.000184971 -5.54339e-05 0.0110973 
-9.70712e-06 0.000118329 0.000763519 
-2.4683e-05 0.000300884 -1.88668e-05 
-2.83226e-05 0.000345251 -0.000813183 
-0.00182854 -0.000407138 0.00631605 
-6.62613e-05 -0.00026761 0.00893005 
0.000172353 -9.06652e-05 0.00783927 
1.5255e-05 -5.02099e-05 3.92913e-05 
9.43443e-06 -5.04135e-05 0.0087743 
0.0587994 0.00991272 0.112228 
-0.0415041 -0.0316941 0.123349 
0.0136166 -0.0160469 0.128853 
0.0209028 0.000804564 -0.00267672 
-0.000358994 -0.000204945 -0.000118391 
-0.00059252 4.08739e-05 -0.000454722 
0.000410478 0.000320393 -0.000246045 
0.000472259 0.000261643 0.000802664 
-0.000249754 0.000410004 0 
-0.00214635 -8.66635e-05 0 
-0.000503584 0.000431276 0 
0.00515741 0.000231141 -0.00177035 
-3.66971e-05 -5.23994e-05 1.69415e-05 
-1.72949e-05 -2.81697e-05 0.00014588 
5.9135e-06 9.52257e-06 -4.55426e-05 
0.000148964 0.000220289 0.00948734 
-0.00276838 -0.00018035 -0.00105269 
0.00847939 -0.000930012 0.00407011 
0.00214404 0.000606107 0.0101913 
0.00301474 0.00144086 0.00510821 
-0.00150489 0.000519057 0.016819 
0.0043338 0.00150061 0.0131228 
0.00393562 0.00453411 0.0156232 
0.000245592 0.00140727 0.00615477 
-0.000732946 0.00214302 0.0197357 
0.00020384 0.000469031 0.0175352 
0.00377297 0.000662973 0.0231656 
0.000983598 -0.000349847 0.0166532 
0.00199444 -0.000724642 0.0169795 
-0.000607462 -0.00128663 0.0115416 
-0.000908918 0.000370512 0.0114833 
-0.000428358 -0.000117895 0.0177165 
-0.000128737 5.6896e-05 0.000246698 
-1.73016e-05 1.00722e-05 -0.000125338 
5.38815e-05 -2.55714e-05 1.16284e-05 
-0.00030185 0.000133722 0.00889995 
-0.000341887 0.000546713 0.013075 
-0.000734016 -0.00104773 0.0146794 
-0.00341696 0.000887023 0.0169905 
-0.00091766 0.000279407 0.0157466 
-0.00057462 0.000826988 0.0141923 
0.000277808 0.000314605 0.0150846 
0.000330351 0.000805339 0.0157875 
-0.00044451 0.000246902 0.0120355 
-0.000576078 0.00074939 0.0145556 
0.000255355 0.000983173 0.0155261 
0.000297648 0.000320252 0.0149143 
9.98901e-05 0.00145035 0.0170433 
-8.96637e-05 -5.2592e-05 -0.000897853 
-0.00151943 0.000343876 0.00741121 
0.000212357 -0.000234921 0.000625062 
-0.000863411 0.000292091 0.00446736 
1.72818e-05 -0.000196193 0.000205215 
4.12604e-05 -8.48425e-05 -8.15881e-05 
-0.000229206 -0.000297552 0.00929041 
-0.000149805 -0.000358869 0.00743975 
-6.30502e-05 0.000291337 -0.000520658 
-0.000154239 -0.000712005 0.0100476 
5.02354e-05 0.0001093 -6.67592e-05 
0.000118488 -0.000583243 0.00941011 
0.000583896 8.26041e-05 0 
0.000311226 9.49817e-05 0 
-0.000848093 9.74631e-05 0 
-0.000103361 -0.00177675 0.000578896 
1.60178e-05 -5.44933e-05 0.00560081 
8.78213e-05 -5.49655e-05 6.8583e-05 
-4.63721e-05 2.8374e-05 -5.56926e-05 
-2.06289e-05 1.6161e-05 8.13774e-05 
2.0862e-05 2.13538e-05 0.0116021 
-6.46937e-06 -4.08689e-05 0.0140313 
-5.26561e-05 2.91295e-05 0.00985063 
0.000125449 2.20395e-05 0.0152051 
0.00210578 0.00275634 0.0144825 
-0.00212805 0.00019589 0.0120816 
0.0017993 0.00343076 0.0160593 
0.00217091 -0.00232595 0.014399 
0.000112968 -8.22957e-05 -7.63721e-05 
0.000117007 -8.54739e-05 0.000432772 
-5.68458e-05 4.13845e-05 9.61918e-05 
-0.000886601 0.000338674 0.00560857 
0.00115665 -0.000385347 0.0169927 
0.00107137 0.000375424 0.017512 
-0.000291757 0.000107791 0.0115635 
0.000540012 -5.62319e-05 0.0136431 
9.50698e-05 0.0003258 -0.00219936 
0.000831333 -1.42458e-05 -0.000417571 
-0.00323483 -0.000185461 0.00838579 
-0.0020548 0.000427811 0.00768454 
-0.000294753 -0.00461654 0.0183516 
-0.000105493 -0.00150974 0.0175394 
6.62728e-05 -0.00200176 0.0174806 
0.000499014 -0.00245591 0.0167964 
-3.38332e-05 7.28694e-05 0.000111702 
-5.48485e-05 -2.50587e-05 -3.24502e-06 
0.000195793 -0.000104077 0.00792837 
8.04626e-05 -7.51155e-05 0.00880571 
0.000604117 0.00234084 0 
-0.00221168 0.00389063 0 
0.0109458 -0.00166353 0 
0.0198366 -0.00970721 0.019058 
4.58538e-05 0.000186801 0.000240604 
-4.51256e-05 -0.000159812 0.000194805 
3.96572e-06 1.00439e-05 -8.89943e-05 
-0.000172334 -0.000695714 0.00740957 
-0.0494341 -0.00342831 0.174237 
0.00081163 -0.0271196 0.144357 
0.0130582 -0.0205892 0.0846038 
0.0377147 0.0608031 0.00419039 
-7.68496e-05 -0.000600898 -0.000432609 
0.00109806 0.00273958 0.00310809 
-0.000354582 -0.000337802 0.000549661 
0.000304417 0.00146822 0.00423735 
7.15788e-05 3.92963e-05 0.0139496 
5.64691e-05 -4.43015e-05 0.0169111 
-2.34024e-05 -2.34347e-05 0.0162837 
-8.44894e-05 -0.000660921 0.0154224 
-0.00433348 -0.0042691 0 
-0.000844127 0.000812739 0 
0.00301071 -0.00265375 0 
0.00678567 0.00106338 0.00137674 
0.000134674 1.2172e-05 -0.000297129 
-4.70519e-06 0.000225627 0 
9.75485e-05 1.83401e-05 0 
8.56146e-05 -0.000449147 0 
-0.0293617 0.0384577 0.0245819 
0.00318025 -0.0193837 0.0228231 
-0.00366602 0.0175484 0.0361598 
-0.00161815 0.00121423 0.00237147 
3.62547e-05 -0.000560248 -0.00074643 
2.50323e-05 -0.000368476 -0.000355586 
5.95101e-05 -0.000706761 0.00062829 
-0.00268248 0.00200462 0.00468476 
8.50049e-05 -0.00019691 -1.82058e-07 
0.000127569 -0.000110448 -5.42934e-05 
-0.000332656 0.00137994 0.00783485 
1.83114e-05 0.000615648 0.00727965 
0.000115412 -4.7508e-05 6.89216e-05 
-1.22324e-05 6.53331e-06 4.15168e-05 
-6.86497e-05 3.3548e-05 0.000131383 
-0.000318455 0.000129039 0.00871138 
-2.68261e-05 0.000183598 -0.000162472 
-4.353e-05 -0.000189816 0 
-3.01387e-05 0.000114025 0 
-9.08407e-05 -4.69995e-05 0 
0.000789145 -0.00188815 0 
6.17667e-05 -0.00115355 0 
0.00046095 -0.000385536 0 
-0.00105453 0.00527709 -7.78757e-06 
0.000285603 0.000514168 0.0134257 
0.00112613 0.000286293 0.016463 
0.00146397 0.000222371 0.0162796 
0.000448326 3.82181e-05 0.0145295 
2.88477e-05 4.63854e-05 0.00577179 
-2.55371e-05 -2.51538e-05 0.00997188 
-3.33002e-05 -4.08968e-05 0.0116159 
-0.000120544 6.12706e-05 0.00696153 
-4.03727e-06 1.14539e-05 0.00690742 
-7.68615e-05 -0.000224283 0.00894311 
-2.08843e-05 -2.08091e-06 0.000232268 
5.99989e-05 -6.20664e-05 0.00875558 
-5.84239e-05 0.00281042 0.0124785 
-0.00135551 0.00826049 0.0156486 
0.00224049 0.001811 0.00248214 
0.00288861 0.00446684 0.00494077 
0.0598795 -0.0186175 0.190905 
-0.00301956 0.00686067 0.1094 
-0.0217567 0.0367623 0.0895287 
-0.0190631 -0.0293396 0.0533092 
0.000787535 0.0019165 0 
0.00211437 0.000422716 0 
-0.00143024 0.000482562 0 
0.00422979 -0.00774419 -8.28103e-05 
-5.5999e-05 0.000210679 0.0114244 
0.000736514 0.000357381 0.017338 
0.000310009 0.000785363 0.0133187 
0.000634817 -0.000209247 0.0141511 
5.71531e-06 -1.64619e-05 0.00643405 
4.65524e-05 6.1621e-05 0.0117284 
2.39277e-07 -1.0442e-05 0.0058429 
-0.000144012 9.9461e-05 0.00850901 
-0.00384647 -0.00479376 0.0107149 
-0.00235349 -0.00460909 0.00993877 
0.00104832 -0.00801218 0.00449099 
-9.34464e-05 -0.00308511 0.000213033 
0.000390656 5.38219e-05 -0.000232539 
-0.000609221 0.00141163 0.00774166 
0.000277592 0.00045503 0.0076504 
-0.00113917 0.00147052 0.00488502 
-0.0592413 -0.01349 0.150114 
0.00529042 0.00238839 0.189201 
0.0322835 0.0478216 -0.0192295 
-0.0197049 -0.0149055 0.0236708 
-0.000101177 0.000136413 0.000276158 
1.63436e-05 -2.26359e-05 4.54693e-05 
-1.52515e-05 2.24646e-05 -0.000243653 
-3.19893e-05 0.000261645 0.00688214 
-0.000164007 2.93436e-05 -4.04257e-05 
-6.05987e-05 0.000572044 0.0083027 
-0.000262189 0.00149178 0.00799995 
0.000305813 0.00135116 0.00725633 
-6.83114e-05 -0.000107165 0.00036504 
-0.000455215 0.000112273 -0.000873948 
0.000169689 -0.00188568 0.00197805 
0.00111067 -0.00183504 0.00170489 
1.21827e-05 4.09394e-05 0.00696977 
-0.000143982 1.60566e-05 0.000197393 
2.34712e-05 -5.01572e-05 0.00553209 
0.00011909 -7.50814e-05 0.00876452 
-0.000445699 -2.98069e-05 0 
0.000120991 0.000694533 0 
-2.54052e-06 -0.000339872 0 
-0.000153863 0.000413474 -0.00032217 
-0.000220763 -0.000685538 0 
-0.000141726 0.00103669 0 
0.000434869 0.000106676 0 
-0.00348754 0.00251128 -6.43547e-05 
0.000134094 -0.000245655 -0.000375329 
0.000678843 -0.000191287 -0.000275178 
-0.000674653 -0.000250545 -5.64021e-05 
0.00142413 -0.000251691 0.000436198 
-4.4858e-06 -1.14058e-05 0.0165853 
-0.000498837 -0.000295872 0.0164698 
-0.000499965 -6.20026e-05 0.0149499 
-0.000505135 -0.000180557 0.0175077 
7.20341e-06 8.58692e-05 0.000108209 
-1.20568e-05 -0.000143724 -0.0010355 
7.7724e-06 9.26519e-05 2.39204e-05 
0.00129841 0.000569884 0.00919368 
1.41522e-05 1.65853e-06 0.00011634 
-2.1418e-05 -1.60521e-06 4.53401e-05 
5.39538e-05 4.36746e-06 -3.4982e-05 
-0.00020355 9.73322e-05 0.00905767 
9.85475e-05 -0.000108315 0 
-0.000411443 0.000340072 0 
-0.000179045 7.25874e-05 0 
-0.00021067 0.000134194 -0.000194924 
0.0103392 0.00368748 0.0216513 
0.00135637 0.000123704 0.00527313 
0.00413515 -8.01819e-05 0.00373838 
0.00344354 0.00256184 0.000675761 
0.00455666 -0.00764946 -0.00353721 
-7.58937e-05 -0.000774212 -0.000186014 
-0.00300531 -0.0180086 0.0141947 
-0.00527131 -0.00306295 0.00381539 
-0.000619616 4.42111e-05 0.0136528 
-0.00021711 -0.00143387 0.0161915 
-0.00177638 -0.00110217 0.0156319 
-0.000982924 -0.00247708 0.01835 
9.64553e-06 -1.52058e-05 4.68523e-05 
1.25201e-05 -2.34434e-05 -5.00575e-05 
-4.32827e-05 7.92894e-05 0.000120528 
-0.000130035 0.000138161 0.00712813 
3.27629e-05 -6.98228e-05 0.00012187 
-3.2572e-05 7.66738e-05 9.97511e-05 
4.10909e-05 -9.19807e-05 1.86289e-05 
0.000239137 -0.00042914 0.0103886 
-7.04907e-06 8.64076e-05 0.000119744 
8.78569e-06 -0.000107695 -7.12202e-05 
1.17984e-05 -0.000144625 -0.000886656 
0.00107952 0.000578152 0.0089652 
-0.0224116 0.0141213 0 
0.0161777 0.00328081 0 
-0.0479635 0.0135145 0 
0.0141527 0.0135342 0.119927 
7.40512e-05 0.000204924 -0.000137457 
-0.000112667 -1.65282e-05 0.000168155 
-0.000264082 9.12245e-05 8.05008e-05 
-0.000192566 0.000486503 0.000102207 
9.41558e-05 -5.36472e-05 0.0113725 
1.18364e-05 3.88692e-05 0.014574 
-1.35487e-05 -8.32617e-06 0.0154341 
-3.71314e-05 0.000295346 0.0141564 
1.02547e-05 -1.49772e-05 6.66334e-05 
3.8692e-05 -5.60691e-05 -0.000389524 
0.000132753 -0.000193401 0.000153579 
0.000221073 -0.000799363 0.00743164 
-0.000118567 6.0337e-05 -0.00016086 
1.08875e-06 -5.39948e-07 4.2976e-05 
-3.78129e-05 1.92403e-05 -5.75144e-05 
-0.000933161 0.000171822 0.00881417 
5.79657e-06 5.86992e-05 0.000117555 
-9.48131e-06 -9.60128e-05 -5.96794e-06 
1.85906e-05 0.000188258 -0.000109292 
-0.000389584 0.000160719 0.0110122 
-4.0132e-05 -7.28587e-05 -0.000100387 
-0.000220368 -0.000416969 0.00906874 
6.55595e-05 9.76874e-05 0.000183638 
-0.000203274 -0.00060855 0.00699059 
0.00114285 0.000771864 -0.0022093 
0.000145427 0.000827881 -0.00168092 
-0.000528364 -0.00233999 0.00212186 
0.0026357 -0.00759629 0.00783518 
-0.000176795 -4.89157e-05 -0.000340719 
0.000118512 3.18187e-05 3.76107e-05 
0.00015991 4.30188e-05 6.75098e-05 
-0.00146562 0.000279207 0.0106822 
-0.000598553 -0.000722085 0.0139121 
-0.000171566 -0.00123191 0.01658 
-0.000115554 -0.000778076 0.0158543 
8.16349e-05 -0.000518311 0.0157204 
-1.48636e-05 -1.47812e-05 0.000152735 
0.000131835 -0.00015518 -0.000201728 
1.62824e-05 1.07822e-05 -5.02534e-06 
1.41035e-05 1.73239e-05 -0.000243874 
0.00182448 -0.000637243 0.01703 
0.000132771 -0.00044105 0.0177523 
-0.00126697 0.000571753 0.0114895 
0.00168403 0.000470585 0.0174797 
3.61883e-05 4.96476e-05 0.000102983 
-5.16722e-05 -5.21995e-05 3.82908e-05 
2.71327e-05 -3.88865e-05 0.00685601 
-6.76031e-05 -0.000272139 0.00922297 
-2.77184e-05 1.85523e-05 1.31771e-05 
-5.16654e-05 4.35722e-05 7.62092e-05 
-2.22869e-07 -1.86715e-05 0.00597569 
-4.67107e-06 4.41229e-05 0.0070534 
-0.000176799 0.00195306 0 
0.00259493 0.000336485 0 
0.000954315 0.00251852 0 
0.000147178 -0.0118155 -0.00199138 
-0.000946798 -0.000947774 0 
-0.00107873 -0.00011591 0 
-0.000132353 -0.00064585 0 
0.000159088 0.000291945 -0.000624445 
-2.08211e-05 0.000433495 0 
-0.000377688 -0.000324477 0.000101457 
0.000215664 0.000153639 0 
-0.000196568 -0.000164165 0 
1.31819e-05 -7.72409e-06 0.0158563 
-7.72421e-05 2.42068e-05 0.0141038 
8.61996e-05 -2.37225e-05 0.017052 
0.000302988 -0.000104584 0.0150833 
2.90187e-05 0.0002248 0 
3.05855e-05 -0.000114637 -0.000115347 
0.000277756 -0.000174954 0 
-0.000146303 -0.000347979 0 
-6.83516e-05 -0.000200892 0.000218379 
0.000293635 0.000283666 0.00969012 
-5.79053e-05 4.75431e-05 6.5421e-05 
0.00036748 0.000142952 0.00714356 
4.61439e-05 -5.0263e-05 -0.000824499 
0.000189582 -0.000836874 0.00741934 
-9.49004e-06 -3.71331e-05 0.000253388 
-7.15133e-05 -0.000215057 0.00631682 
1.82842e-05 -7.78549e-05 0.000107907 
-5.50942e-06 1.30931e-05 0.000177922 
-9.70386e-06 4.58838e-05 -0.000149929 
0.00026093 -0.000380335 0.0106391 
0.0319313 -0.00290746 0.17897 
-0.0481565 -0.0154364 0.185907 
-0.0350279 -0.0309258 -0.0268891 
0.033067 0.0268585 0.0271713 
0.00135227 -0.0208546 0.224511 
-0.00636267 0.0242863 0.0523383 
-0.0122444 0.0569383 0.143251 
0.0161917 0.0194232 -0.0553901 
-0.0350793 0.0116227 0.0571335 
0.0295294 -0.0123135 0.190312 
-0.056114 -0.00362301 0.180321 
-0.0100998 -0.0244549 -0.0530583 
-8.34275e-05 2.2042e-05 0.0068498 
5.37908e-05 -8.04372e-05 0.000194518 
9.11369e-05 1.43669e-05 0.0065122 
-0.000151547 -0.00012127 0.00857099 
-1.02823e-05 -2.30278e-06 0.0111295 
0.000151028 0.000164537 0.00943264 
-0.000116459 -5.64875e-05 0.0104524 
0.000170348 0.000210381 0.0144534 
3.08732e-06 -2.71023e-06 -0.000148463 
-0.000143432 -0.00021051 9.03031e-05 
0.000142003 0.000198061 -0.000298858 
-0.000651926 -0.00103301 0.000761257 
-0.00183708 -1.42183e-05 0 
0.00219054 -0.00370029 0 
0.00029089 0.00273232 0 
0.00121328 -0.00152319 0.000812288 
0.00020323 -6.23527e-05 -0.00016425 
-0.000436155 0.00135506 0.00788649 
6.23914e-05 -0.000120794 -2.54902e-05 
2.45106e-05 0.000724833 0.00720123 
1.07509e-05 -1.83409e-05 0.0181824 
5.04355e-06 4.54852e-05 0.018722 
2.63415e-05 4.70104e-05 0.0184596 
5.89294e-05 -0.000655768 0.0181716 
-5.85315e-05 4.9101e-06 -0.000620074 
0.000289859 -2.43157e-05 0.000298451 
0.000524103 -4.3966e-05 0.0010834 
-0.00136501 -0.00155468 0.00274054 
-5.74035e-05 -0.000306779 -0.000175489 
-0.000188608 -0.000939973 -0.00030694 
-0.000261915 0.000494731 -0.000253387 
-0.000389566 0.0013682 0.0006136 
0.0142232 0.00193424 0 
-0.0143798 -0.00370171 0 
0.00643892 0.00732347 0 
0.0250356 0.0283358 0.0219618 
-0.00433086 -0.00101603 0.0105999 
-0.00233032 0.000485374 0.014443 
-0.00173477 -0.00274821 0.0145774 
-0.00201836 -0.000919435 0.00985437 
-0.0152724 0.0390404 0.195801 
0.0163082 -0.0338201 0.0860061 
0.000405486 -0.026571 0.151495 
-0.0178743 -0.022779 -0.0210314 
-3.86073e-05 0.000362482 -0.000268756 
-3.87218e-06 -0.000143693 -0.00020779 
0.000533363 -0.000862784 0.00103069 
3.3886e-05 -0.000231793 0.000530721 
0.00014892 0.000333612 0 
-0.000201231 -0.000248153 0 
6.70848e-05 -0.000189641 0 
0.000113579 0.000278812 -0.00010428 
-8.67172e-05 7.60905e-05 0.000327264 
0.000141868 -0.000117692 -0.000330715 
9.57066e-05 -8.28669e-05 -0.000327688 
-0.00114059 0.000158775 0.00504761 
-4.86642e-05 0.000234744 1.98767e-05 
-0.000120804 0.00118912 0.00791287 
-0.000448662 0.000245238 -0.000611593 
0.000292008 0.00137896 0.00726433 
2.2643e-05 -7.06889e-05 -0.000742178 
2.51975e-05 -9.78272e-05 0.00017866 
-1.43177e-05 5.33012e-05 1.83178e-05 
-0.000334754 -0.00152168 0.0112609 
0.000796581 -0.000328757 0.0164238 
-0.000444194 -0.00185228 0.0163271 
0.00135516 -0.00261054 0.0146565 
0.00141496 -0.00118407 0.0164322 
-0.019421 -0.00229488 0.0228708 
-0.0290073 -0.00396085 0.0398996 
0.00850097 0.00552465 -0.00594852 
-0.000265341 0.00316053 -0.0118336 
5.6392e-05 -0.00010907 0.0122385 
-5.47741e-05 -2.61018e-05 0.0109042 
7.05978e-06 3.72098e-05 0.00678873 
-0.000195897 -0.000193551 0.0084748 
-8.92629e-05 5.28923e-05 0.0126527 
3.03727e-05 -1.55946e-05 0.0067933 
-1.93333e-05 -3.70531e-05 0.010712 
-0.000142982 -0.000232232 0.00879981 
0.0006358 0.000461211 0.000601531 
-0.00100375 -0.00177907 0.0110605 
0.000249941 -3.19102e-05 -0.000710098 
-0.00163646 -0.00201966 0.00608057 
0.00020361 0.000292014 -0.000308351 
-1.48183e-05 0.000570242 0.00728687 
-9.06045e-06 4.62642e-05 8.68191e-05 
-0.000597433 0.00077465 0.00747664 
-0.00100024 0.000527128 0.0167908 
-0.000358009 -2.88368e-05 0.0165425 
0.000105709 8.06741e-05 0.0181387 
-0.000549793 -2.6981e-05 0.0181923 
0.000553103 0.000594786 4.39266e-05 
0.000597631 -0.000208614 -1.58893e-05 
-0.000520894 -0.00154403 0.00663277 
-0.000515483 -0.00218196 0.00364438 
2.70261e-05 -3.52241e-05 0.00615313 
-4.12152e-05 -1.23807e-05 0.00545717 
-3.67936e-05 3.69688e-05 0.0105373 
0.000166453 6.54011e-05 0.0093665 
0.000142102 -0.000257465 0 
-5.93622e-05 0.00037141 0 
0.000726267 -5.80491e-05 0 
0.000130389 -0.00112021 0.000228965 
1.27055e-05 -1.3793e-05 0.00525874 
-1.44878e-05 2.42183e-05 0.00593156 
5.40984e-05 -1.39521e-05 0.000220357 
-8.40774e-05 0.00013101 0.00772733 
1.16855e-05 1.2908e-05 7.41772e-05 
-0.000123143 7.77812e-05 0.00861572 
-0.00015166 0.000264519 0.000192907 
-0.000160184 -0.000200665 0.00640593 
-0.000786584 -0.000260659 0.0146823 
-0.00122261 -0.000202997 0.015638 
-0.0010439 -0.000164649 0.0170092 
-0.000410628 -0.00013912 0.0143172 
-0.000236481 0.000371909 0.0113038 
0.000226287 0.000109658 0.00693649 
0.00010003 -5.63111e-05 0.00934736 
-0.000140269 0.000195668 0.00693549 
-2.62532e-05 -4.2737e-05 0.00680743 
-3.62388e-05 4.12166e-05 0.000107898 
4.77557e-05 -4.64993e-05 5.35879e-05 
-2.33746e-05 2.12354e-05 -6.44054e-05 
-1.7358e-05 -5.70545e-05 0.00666887 
8.3442e-06 -8.60813e-06 0.0001274 
-6.1429e-06 1.34194e-05 -5.52924e-05 
4.43306e-05 -7.63878e-05 0.00582061 
-0.026622 0.0117927 0.0312929 
-0.0155424 0.0120713 0.0726686 
0.00933218 0.0042091 -0.00967549 
-0.00315295 0.00362891 -0.0140658 
1.90815e-05 -9.6482e-06 0.0181539 
3.06844e-05 5.116e-05 0.0184761 
-4.23897e-06 3.12563e-05 0.0173059 
6.22428e-05 -0.000653168 0.0182306 
5.49103e-06 -7.84305e-06 -4.36933e-05 
-6.16956e-07 7.61713e-06 9.62367e-05 
-2.39914e-05 3.42564e-05 0.00489095 
2.02695e-05 7.63863e-05 0.00693238 
-8.14486e-06 2.47221e-05 -3.17992e-06 
2.8191e-06 -2.16284e-05 0.000160363 
-5.76456e-05 -5.44109e-05 0.00711738 
-7.08294e-05 3.20926e-05 0.006635 
-0.00133789 -0.000909854 0 
-0.00258898 0.00103156 0 
-0.00274285 0.00271617 0 
0.00797997 -0.00258055 -0.00333671 
0.000277867 -5.56933e-05 -0.00115537 
0.000218705 -6.46658e-05 0.000768261 
0.000507155 -0.000133485 0.000455172 
0.00104598 0.00131621 0.00385039 
3.4121e-05 -8.54787e-05 0.0149367 
-0.000637127 -1.27085e-05 0.0171257 
-2.90252e-06 3.29595e-05 0.0164321 
-0.000615795 -0.000176028 0.0142132 
0.000594332 0.000154276 0 
0.000160708 0.000485596 0 
-0.000718352 -1.02784e-05 0 
1.01531e-05 0.00079698 -5.29522e-05 
0.0001304 -0.000544297 0 
-0.00107463 0.000313719 0 
0.00015128 0.000468261 0 
0.000811477 -0.00276823 0.000340551 
-1.01049e-05 -4.78459e-05 0.000938719 
-0.000126945 0.000531549 -0.000430887 
-0.000235747 0.00105538 -0.00153674 
0.00255375 0.000209437 0.0040937 
-0.000124493 -1.02779e-05 -5.41597e-05 
0.000122359 1.063e-05 -9.83424e-05 
-0.000112285 -9.37735e-06 -1.80571e-05 
-0.000148004 0.000283278 0.00899634 
0.00246824 0.00441077 0.0128395 
-5.84001e-06 0.00112622 0.00752877 
-0.000386089 0.000941019 0.0158152 
0.000354716 0.00129392 0.00752988 
0.00222369 -0.00376846 0 
-0.000744689 -0.00862964 0 
0.000997592 0.0143178 0 
-0.0155849 0.0283592 0.0207848 
1.52649e-05 -1.28777e-05 9.00892e-05 
2.64709e-05 2.80011e-06 0.00574981 
-9.40784e-06 4.50353e-06 -1.53072e-05 
6.53863e-05 -3.91309e-05 0.00765711 
-5.99541e-05 -0.00014602 0.000128464 
0.000342052 0.000152993 8.07597e-05 
6.79106e-05 0.000172303 -0.000257922 
3.19164e-05 8.698e-05 -0.000218923 
-3.35957e-05 3.65045e-05 -0.000187649 
0.00011955 -0.000142291 0.00757656 
1.15952e-05 2.11869e-05 0.000101261 
-0.00015527 -0.000159727 0.00654186 
0.000833108 0.00265125 0.0114298 
0.000140859 0.000803589 0.00784813 
0.00103516 0.00495 0.00472842 
0.000373617 0.00123882 0.00431624 
2.23175e-05 -1.38632e-06 -4.17123e-05 
0.000174245 -1.63964e-05 2.27797e-05 
-6.39819e-05 2.9458e-06 0.000183905 
-0.000425122 -0.000109859 0.0097437 
1.31531e-05 -4.69315e-05 0.013768 
0.000194669 0.000181267 0.00948476 
0.000221266 -8.39103e-05 0.00808636 
4.31715e-05 -8.28226e-05 0.00863172 
-1.92331e-05 6.12628e-06 0.00972836 
1.26567e-05 -0.000125036 0.0134675 
-1.06197e-05 0.00017854 0.00849392 
0.000202182 -0.000347229 0.0136931 
-8.00466e-05 4.04273e-05 0.0117571 
-3.05802e-05 -0.0002072 0.0131849 
3.28894e-05 -3.14611e-05 0.0148994 
0.000268082 -3.77389e-05 0.0149921 
-0.000453499 0.0015237 0.0142873 
4.66191e-05 0.00115833 0.00821793 
-0.000587255 0.000601422 0.0112136 
7.74177e-05 0.000402718 0.00844291 
-0.0151444 0.0199047 0.0964869 
0.010948 0.0208155 0.0988183 
-0.000865534 -0.0444752 0.140709 
0.00141768 0.0127149 0.038608 
-8.81542e-05 0.000111903 -0.000513786 
9.33852e-05 -0.000108327 0.000949763 
0.000370032 -0.000524597 -2.12208e-05 
-0.000352618 0.00199192 0.00181278 
-0.000178748 8.14199e-05 3.50495e-05 
0.000336573 -0.000155737 0.000463607 
-7.23756e-05 3.74872e-05 -0.000971979 
0.00180209 -0.000237879 0.00686859 
5.35468e-05 5.42281e-05 6.65638e-05 
7.59863e-06 9.4285e-06 0.000137156 
-1.22622e-05 -1.26646e-05 -3.34034e-05 
7.87643e-06 -8.23674e-05 0.00885184 
-2.45554e-05 -1.05634e-05 7.44588e-06 
1.25153e-05 5.11364e-06 2.33883e-05 
-1.81858e-06 -2.3689e-06 0.000160134 
0.000240879 7.27374e-05 0.00974046 
-4.97818e-05 -0.00194962 0.0181362 
-0.000133143 -0.00149244 0.016073 
0.000590939 -0.00318497 0.0143081 
-2.52051e-05 -0.00485599 0.0159573 
-0.000369099 0.000362134 6.36891e-05 
9.74976e-05 5.17561e-05 -0.000354089 
-0.000113071 -6.87407e-05 0.000149142 
4.14049e-05 1.33736e-05 -0.000408536 
2.53297e-06 1.44722e-05 0.00556468 
-2.21893e-05 -2.03353e-05 -5.01032e-05 
3.96751e-05 4.01612e-05 1.17904e-06 
-3.77727e-05 -4.28562e-05 0.000106352 
0.000329914 -0.000160887 0.0117995 
0.000253027 0.000683231 0.0159052 
0.000348731 0.000414294 0.01526 
-0.000516475 0.000148847 0.0117861 
-0.000210659 0.000238895 -0.000105061 
-0.000858188 -3.12353e-05 -0.000772568 
0.000708463 0.000114335 0.000734116 
0.00040378 -0.000525542 0.000635506 
4.08387e-05 -1.41544e-05 0.000151984 
-7.01745e-06 -1.37924e-05 0.00596053 
1.97822e-06 2.86424e-05 0.00577309 
-8.47137e-05 6.67148e-05 0.0069047 
2.08508e-05 -5.96354e-05 -0.000137923 
0.000173182 -0.000416926 0.00017782 
-8.45866e-05 0.000219823 0.000186395 
-5.84617e-05 -0.000499158 -0.000230173 
2.65686e-08 -2.10732e-06 0.0182878 
-0.000719122 -2.91126e-05 0.0169723 
3.59174e-06 2.04764e-05 0.0174314 
-0.000489711 -8.07524e-07 0.0182571 
0.000112073 -0.000241344 0.0119159 
0.00102262 -0.000891682 0.0136503 
0.000289333 0.000663763 0.0158713 
-0.000500225 5.54218e-05 0.0117335 
0.000760444 -0.00119248 0.0158652 
0.00109734 1.40137e-05 0.0167529 
0.00310023 -0.000273681 0.0164619 
0.00136745 -0.00110424 0.0162814 
0.00112673 -0.000909569 0 
0.00127327 -0.000239264 0 
-0.00135965 -0.000776395 0 
-0.00102435 0.00280408 -0.0013103 
-3.79459e-06 -2.84812e-05 0.015014 
-1.34406e-06 2.8996e-05 0.0176806 
-3.93527e-06 3.40279e-05 0.0161398 
0.00027389 0.000328553 0.0151894 
6.30402e-06 5.01848e-05 0.00615092 
-5.13095e-05 2.20421e-05 6.2226e-05 
-1.32093e-05 -6.39179e-05 -3.55162e-05 
8.69371e-06 1.99988e-05 0.00541418 
0.000241567 -4.95356e-05 -0.000530897 
7.83537e-05 -1.8303e-05 3.89854e-06 
-0.000485251 0.000102225 0.000852217 
-2.14044e-05 -0.00169484 0.00118767 
9.91322e-05 -5.07739e-06 0 
-3.60343e-05 -5.91728e-05 0 
0.000111172 -8.70509e-05 0 
-0.000114537 -3.51168e-05 0.000250268 
-0.000116081 0.000162141 -0.000235206 
9.17357e-05 -0.000137265 -0.000289124 
-9.49674e-05 0.000143822 0.000388891 
0.000358237 -0.00143145 0.00707065 
-0.000270127 -0.000275505 0 
1.51254e-05 -0.00016785 0.000431375 
-3.51645e-05 -9.0099e-05 0 
0.000523307 -0.000406659 0 
-0.000442138 0.000349063 0 
0.000472114 -0.000159886 0 
-0.000252874 0.000150488 0 
-0.000659872 -0.00101183 0.000478897 
1.43418e-05 5.98426e-05 0.000103509 
-6.23441e-06 -2.97598e-05 2.93809e-05 
-6.41989e-07 -4.8387e-06 3.82511e-05 
-6.56095e-06 0.000141273 0.00915772 
-8.51041e-05 6.81283e-05 0.0126675 
-0.000127064 -0.000237661 0.00885135 
3.52144e-05 -4.05791e-06 0.00704264 
8.04296e-05 -1.6969e-05 0.00869601 
1.10015e-05 1.08247e-05 -3.46471e-05 
-1.90514e-05 -1.88269e-05 0.000200963 
-7.39902e-05 -7.2692e-05 4.34548e-05 
0.00024929 7.80208e-05 0.00775008 
7.47234e-05 9.97552e-06 0.0114097 
-3.90884e-05 -5.62933e-05 0.00777636 
-3.53282e-05 -4.50903e-07 0.00572289 
0.000114827 5.56859e-05 0.00862895 
-3.69114e-05 -1.44489e-05 0.0175298 
4.70769e-05 -4.57252e-05 0.01532 
-0.000316257 0.000434071 0.0166811 
-0.000388671 9.30459e-05 0.0153591 
2.27009e-05 3.51375e-05 -5.6309e-05 
1.67949e-05 2.03525e-05 9.51161e-05 
-4.16283e-05 -1.94299e-06 0.00565904 
-3.83811e-05 -5.68839e-05 3.40321e-05 
-0.000401677 -3.91423e-05 -0.000963494 
-9.28715e-05 -5.77209e-06 0.000150837 
-0.000215803 -2.83754e-05 -0.00135491 
0.00146729 -0.00242581 0.00590592 
0.00650642 0.0202862 0 
-0.0111195 -0.0253432 0 
0.00488511 -0.0304882 0 
0.0026007 -0.0375838 0.104889 
5.89609e-05 -1.28613e-08 0.000514889 
-0.000145557 -3.29191e-06 -0.00089229 
-0.000336502 -2.30264e-05 -0.000305776 
-0.00103647 0.00162699 0.0055392 
-0.001038 0.000362279 -0.000931788 
0.000211418 -0.000126801 -0.0004451 
-0.000335071 -8.32512e-06 -0.000428445 
0.0013767 -0.00155328 0.00167471 
6.59581e-05 7.1368e-06 0.0113503 
-4.92406e-05 -7.41346e-07 0.00576845 
1.08862e-05 2.27077e-05 0.00616742 
0.00011087 5.46904e-05 0.00861161 
5.52437e-05 2.23682e-05 -5.6363e-05 
1.42524e-05 8.34299e-06 8.24344e-05 
-9.36427e-05 -3.82845e-05 8.16445e-05 
-7.32427e-06 -7.08201e-05 0.00693085 
-0.00168171 -0.000428139 0.012105 
-0.00111551 -0.000485978 0.00559424 
-0.0017734 9.58782e-05 0.00877793 
-0.000128305 0.000190897 0.0115773 
6.62895e-05 1.68056e-05 7.78935e-06 
-7.50869e-05 -1.7426e-05 0.000120838 
-1.7419e-05 -4.54756e-06 -1.26388e-05 
-0.00022287 -4.62225e-05 0.00893318 
-0.00322531 -0.001953 0 
-0.00125485 -6.32232e-05 0 
0.00473523 2.72595e-05 0 
0.00164306 -0.000198258 0.000514559 
0.00103506 -0.00132831 -0.00138914 
-0.00300606 0.001194 0.00270295 
0.000212508 -0.00132827 0.000847997 
-0.00383564 0.000528442 0.000410502 
-2.04251e-05 -7.01919e-08 0.000148803 
8.77661e-05 7.65904e-06 0.000112631 
-9.15723e-06 -1.07831e-06 -4.02884e-05 
-7.63613e-05 -3.57614e-05 0.00889383 
0.000410524 0.000391758 -0.000802519 
0.000331855 0.00100991 0.000483118 
-0.00249725 0.000121422 0.00166387 
-0.00311456 0.00130582 0.000173272 
6.13932e-05 1.88523e-05 0.000250868 
-1.34292e-05 -0.000354265 -9.78794e-05 
-4.4364e-05 -6.2165e-06 -0.000489888 
-0.000211378 -8.33453e-05 -9.55468e-05 
-0.000387675 -0.000453656 0.0164179 
-0.000205477 -3.30238e-05 0.0148649 
-0.0015616 -4.99753e-05 0.0168235 
-0.00113591 0.000167292 0.0153741 
-4.88049e-05 0.000102117 4.84885e-05 
-6.11499e-05 0.000101003 -0.000354764 
-1.79493e-05 2.51188e-05 -0.00017397 
7.45005e-05 0.00133621 0.00714693 
-0.000581309 -0.00302081 0.0147289 
-0.000502862 -0.00532349 0.0167275 
0.000138764 -0.00138877 0.0158433 
-0.000143719 -0.00261012 0.0173763 
0.000157954 0.00490153 0.00584735 
-0.020206 -0.00710183 0.0228 
0.000853231 -0.00147411 0.00391161 
-0.0106223 0.0030356 0.00500531 
0.000512329 -0.000514662 0.016917 
0.00102259 -0.000173443 0.016013 
0.000960841 -0.000110038 0.0171756 
0.00015247 3.63385e-05 0.0151975 
-1.86206e-05 8.51055e-06 0.0174789 
-0.00075101 -2.23044e-05 0.0170563 
0.000136783 -3.92386e-05 0.0149392 
-0.000433866 7.18247e-05 0.0154161 
-9.31357e-05 0.000206883 0.000321359 
-6.54143e-08 6.66561e-08 0 
-9.45532e-05 2.27306e-06 0 
-9.78988e-05 -0.000397651 0 
0.000344064 -0.00179142 0.00192176 
0.00207856 -0.00657751 0.00773812 
0.00111096 -0.00186734 0.00546817 
0.00218287 -0.00213613 0.00216391 
0.000338819 -0.000382049 0 
0.00017151 -0.000184407 -0.000268458 
-0.000346431 0.00016079 0 
0.000403551 -9.71746e-06 0 
8.20321e-05 -3.41566e-05 0.000125211 
-1.78631e-05 3.02459e-05 2.62517e-05 
-4.72619e-05 -2.62982e-05 0.00752492 
-0.000195671 5.65114e-05 0.00862184 
-4.67356e-06 8.49817e-07 0.000125529 
-3.77839e-06 5.91744e-06 -7.14816e-05 
1.53095e-05 -1.71969e-05 6.54323e-05 
-6.1425e-05 0.000116947 0.00711253 
-0.00135844 -0.00169691 0.00253109 
-0.00200901 -0.00477821 0.00950126 
0.000819467 -0.00241286 0.00748559 
-0.00164853 -0.000572865 0.00915326 
-0.00783024 0.00097021 0.014893 
-0.00106845 -0.00246917 0.0218004 
-0.00280162 0.0012287 0.017019 
-0.00185449 0.00299332 0.0061643 
-0.000550895 0.000234071 -0.000713694 
-0.000496684 0.000218443 -0.000135519 
0.000317853 -0.000122427 0.00127784 
0.00280964 0.000232947 0.00151912 
-7.76915e-05 0.000214697 -0.000335412 
-8.00666e-06 -1.00486e-05 0.000342881 
1.65069e-05 1.03097e-05 -0.000584814 
-0.000632585 -4.29606e-05 -0.000111124 
-2.05543e-05 2.31302e-05 -6.71916e-05 
5.24676e-05 -5.18179e-05 1.19417e-06 
2.35052e-05 1.78186e-05 0.00547488 
-3.57531e-05 3.04942e-05 0.00011272 
-0.000227026 0.000269641 0.00944418 
-0.000765499 0.00185603 0.0132211 
-0.000313725 0.00141271 0.00779927 
-0.000983653 0.000690144 0.00419511 
3.23658e-05 -1.19669e-05 0.00703552 
-2.53109e-05 3.91394e-05 0.0106349 
1.59535e-05 2.90102e-05 0.00565028 
-0.000137149 -0.000258067 0.00887325 
-0.00147952 0.0037403 0 
-0.0017111 0.00530987 0 
-0.0016574 0.000900328 0 
0.00490299 -0.00625219 -0.00431632 
-1.76379e-05 -2.94068e-05 0.0170874 
-8.3526e-06 -2.66123e-05 0.0178942 
-6.84623e-05 2.94849e-05 0.015797 
0.000821709 -8.24033e-05 0.0168958 
-0.000529778 -0.000218492 -0.000564399 
0.00316371 -0.000673285 0.00305933 
-0.0008147 0.00142928 -0.00103019 
0.00260883 -0.00240609 0.00222527 
-0.0283511 0.00164962 0.133113 
0.0397244 0.00801902 0.139327 
-0.00461591 0.0246473 0.0729181 
-0.00640589 0.0269055 -0.0217082 
8.82212e-06 -4.10168e-06 -7.99014e-05 
4.05726e-05 -1.26675e-05 -9.51326e-05 
8.49088e-05 -1.54212e-05 0.000288299 
0.000316105 -0.000131297 0.00912126 
0.00016455 0.0012539 0.0164053 
1.00603e-05 0.000562236 0.0146863 
-0.000181583 0.00172182 0.0170818 
-0.000180341 0.000680187 0.0158217 
0.00440056 0.0164352 0.00502138 
-0.0213635 0.029064 0.0462979 
0.019142 -0.00156787 -0.0111722 
-0.0100815 0.00621782 0.00516102 
0.000339422 0.00117116 -0.000855123 
-0.00205842 -0.00389701 0.000361168 
-7.70245e-05 -0.000269836 2.31353e-05 
-0.00134311 -0.00164524 0.00217011 
-5.19664e-05 8.19528e-06 0 
-2.25461e-05 4.14991e-05 0 
0.000105013 -0.000127539 0 
0.000575003 -0.00104865 0.000252557 
3.04149e-05 -3.06167e-06 0.0054557 
6.32434e-05 4.52694e-06 0.00641393 
-5.76137e-05 5.69685e-07 -2.04578e-05 
-3.10283e-05 8.38523e-05 0.000127819 
0.000189693 7.06913e-05 0 
-1.08318e-05 0.000272108 -0.000306949 
3.82459e-05 -0.000235103 0 
-8.93892e-05 0.000332512 0 
8.41716e-05 0.000315525 0.010735 
7.82657e-05 -0.000331818 0.00956807 
-0.000417292 -0.000256687 0.00972148 
-0.000204666 7.50748e-06 0.0154299 
-8.33373e-05 -8.07024e-05 -0.000223867 
0.00016046 0.000155399 0.000408212 
0.000165333 0.00016029 9.7475e-05 
-0.000792035 -0.00025535 0.00441242 
-0.000155086 0.00110511 0.00930614 
-0.00215654 0.00146105 0.0169389 
-0.00138112 -0.000839112 0.0213117 
-0.00249315 0.00123843 0.00670507 
-7.3983e-05 -5.03379e-05 0.000114068 
2.32841e-05 1.58061e-05 3.6799e-05 
-3.64225e-05 -2.47106e-05 -8.61158e-05 
-0.000240505 -0.000130444 0.00823599 
0.000102795 -3.5778e-05 9.46378e-05 
-0.000181195 0.00026419 0.00799077 
-4.06391e-05 -3.66036e-05 4.79684e-05 
-0.000227276 0.000507556 0.00803541 
2.32034e-05 -1.149e-05 0.00966987 
1.81749e-05 4.5737e-05 0.00666343 
-4.00356e-05 -3.67358e-05 0.0114971 
7.86458e-05 -7.68929e-05 0.00932808 
-7.97326e-05 -9.46769e-05 0.000153156 
-2.43042e-05 1.69614e-05 -4.85182e-05 
-4.41092e-06 -7.58229e-06 0.00545812 
3.55812e-05 -2.48211e-05 0.00620134 
8.22084e-05 3.20089e-05 0.000592006 
-7.90684e-05 -3.7243e-05 -4.66135e-05 
3.37841e-05 1.25296e-05 0.000293866 
0.00120336 -0.000157837 0.00354268 
-1.31217e-05 -9.28722e-07 -4.11658e-05 
2.77369e-05 1.77835e-06 0.000132237 
-0.000206939 -1.75821e-05 6.91353e-05 
0.00047845 -7.99218e-05 0.00907095 
-4.22921e-05 -6.06954e-05 -3.17004e-05 
2.37524e-05 3.35056e-05 -5.31638e-06 
6.51301e-05 9.66983e-05 0.000176896 
-0.000220893 -0.000414951 0.00907982 
-0.000756068 0.00730671 0 
0.00289628 -0.00252984 0 
-0.00382971 0.00481117 0 
0.00307929 -0.0304464 0.00167165 
-8.51688e-05 -2.62316e-05 0.0174335 
7.90601e-05 -6.42594e-05 0.0153711 
2.27079e-05 9.81464e-06 0.0173038 
-0.00026921 0.000427576 0.0167663 
0.0512363 0.00630457 0 
0.0571404 0.00675905 0 
-0.0404114 -0.0147978 0 
0.0100251 -0.00654398 0.124858 
-0.000123953 -3.11577e-05 2.82094e-05 
0.000125529 -0.00158511 0.00494932 
-0.000110117 -0.000163133 -0.00115235 
-8.21215e-05 -0.000985795 0.00389972 
6.18051e-05 2.00348e-05 -8.35218e-06 
4.93263e-07 6.63106e-05 0.000100923 
-7.1372e-05 -1.49448e-05 0.00700754 
-1.42935e-05 -1.2939e-05 0.00569227 
-7.85526e-05 4.16507e-05 0.0126939 
3.20714e-05 6.80779e-05 0.00716647 
1.48356e-05 -1.15033e-06 0.00677198 
-0.000121981 -0.000250013 0.00879277 
-8.47603e-05 1.82411e-05 0.0145079 
7.59006e-05 -1.4101e-05 0.0148512 
2.34335e-05 -0.000238589 0.0133976 
-9.13807e-05 -0.000416523 0.0158943 
0.000653995 7.09391e-05 9.89149e-05 
0.000300781 0.000805176 0.00763718 
-0.000789777 0.000268739 0.010771 
-0.00144918 0.000698903 0.00739309 
-0.000842943 -0.000321305 0.0146253 
-0.000483077 -0.000125632 0.0143321 
-0.000910889 -1.95028e-05 0.0171455 
-0.000388551 -7.49254e-05 0.0155016 
3.25041e-05 -1.10823e-05 0.00706712 
-4.21436e-05 4.83829e-05 0.0126139 
-2.5175e-05 1.45715e-05 0.0106095 
-0.000137326 -0.000238591 0.00887856 
-0.000836691 0.000214244 0.0169924 
-0.000899452 0.000156976 0.0160877 
-0.000975831 -0.00061296 0.0148587 
-0.000372686 1.81802e-05 0.0154551 
-1.46559e-05 5.80878e-06 0.0163424 
3.53442e-05 4.66761e-05 0.0160356 
-6.40847e-05 -7.2204e-05 0.0131784 
-2.07485e-05 0.00051475 0.0147841 
-2.18147e-05 1.373e-05 0.000136431 
-6.10753e-05 0.000114878 0.000236872 
-0.00010281 0.000129553 0.00777781 
-0.000141764 0.00010455 0.00700983 
-2.5833e-05 3.55794e-05 -0.000210291 
4.08703e-05 -5.63162e-05 0.000373959 
8.11706e-05 -0.000111327 -7.75786e-05 
-0.000276146 0.00127097 0.00731377 
-0.000135526 0.000259899 -0.000381167 
0.000201748 -0.000803267 -1.71689e-05 
-0.00098017 -1.70073e-05 -0.000664082 
0.000470384 -0.00066461 0.00149936 
-0.000136639 9.02906e-05 -2.655e-05 
0.000102664 -6.70216e-05 4.47792e-05 
-0.000159545 7.98973e-05 2.20731e-05 
4.11385e-05 -3.35521e-05 -0.000185115 
-2.66482e-05 -3.79062e-05 5.46315e-05 
2.09223e-05 3.23775e-05 0.000105163 
-1.05747e-05 -1.55751e-05 -8.48204e-06 
2.26308e-05 0.000170086 0.00954278 
9.98036e-06 7.8801e-06 0.00539907 
6.38966e-06 2.2989e-05 0.00624558 
-1.00493e-05 -6.9519e-05 0.0109591 
-0.000251046 -0.000140826 0.00794497 
0.00231333 -0.000105579 0.0160103 
0.000275879 0.000533666 0.0183174 
0.0050519 -0.000196982 0.0195074 
0.00577632 -0.000687219 0.0181378 
0.000967788 -9.92821e-05 -0.000207456 
-0.000665833 0.00117084 0.00714724 
-0.00013073 0.000199517 0.000225882 
-0.000688305 0.00140859 0.00464943 
-1.92617e-05 -0.000107495 -0.000916317 
9.66444e-05 0.000240932 0.00016142 
5.88431e-05 0.000128569 -0.000171168 
-0.000460627 0.00181575 0.00326018 
0.000139202 -0.000636989 -0.000849615 
0.000364119 -0.000231688 -0.000208051 
0.000608276 -0.000245544 -0.000217285 
0.00102242 0.00171364 0.00184374 
5.79757e-05 0.000450531 0 
0.000220642 -0.000154013 0 
-4.40444e-05 -6.38765e-05 0 
-0.00186061 0.000474409 0.000500534 
-0.0032168 0.00259958 -0.0015085 
0.0051532 -0.00166616 0.00364087 
0.00162775 -0.00121594 -0.0011747 
0.00188889 -0.00243048 0.00394205 
-0.000256781 -5.84202e-05 -0.000113851 
0.000149062 0.00187207 0.00724491 
-0.000259294 -0.000288894 5.46913e-05 
0.000443285 0.000996218 0.00472319 
-0.00113738 -0.00371823 0.0156174 
-0.000916192 -0.00110009 0.0162242 
0.000761292 -0.00448717 0.0166845 
-1.84686e-05 -0.00243072 0.0167569 
1.89191e-06 -4.92851e-05 -1.31727e-05 
5.0466e-06 1.19039e-05 0.00556782 
-1.09872e-05 6.75941e-05 0.00699485 
-8.62817e-05 -5.01195e-05 0.000134994 
-0.00087822 -0.000450583 0.00970467 
0.000400332 -0.000990345 0.00927909 
-1.32027e-05 -0.00079062 0.0165439 
-0.000137233 0.000491467 0.0156049 
-0.000438225 0.000339074 0 
0.000417373 2.97828e-05 0 
0.000310465 0.000252781 0 
-0.000474202 -0.00164146 6.92307e-05 
-5.41293e-05 5.84492e-05 9.85453e-05 
2.0606e-05 -3.88619e-05 0.00540311 
1.17026e-05 -1.48272e-05 -1.83166e-05 
4.06441e-05 -0.000177502 0.00767365 
-0.00353801 -0.00718298 -0.0077156 
-0.00756642 0.01146 0.0344307 
-0.013894 0.00910374 0.00526523 
0.000599207 0.00289464 -0.00141946 
7.68043e-05 -7.88252e-05 9.87995e-05 
3.29831e-06 4.62783e-05 0.00597714 
-1.94909e-05 -3.1038e-05 3.35831e-05 
-0.000113904 0.000191803 0.00783982 
1.52011e-05 -0.000279713 -0.000579103 
0.000503237 7.36347e-05 -0.000627099 
9.00793e-05 0.000342399 0.000570433 
-0.00215624 0.00279224 0.00189915 
-0.00034338 0.000574669 0.0142426 
-9.91289e-05 0.00149151 0.0170938 
2.99611e-05 0.000552992 0.0149413 
-0.000239462 0.000800277 0.0155681 
-0.00449265 -0.00112379 0.0105804 
-0.00167609 -0.00246482 0.0147758 
-0.00184883 -0.00390342 0.00906441 
-0.00174791 -0.00115961 0.00955787 
-0.00364612 0.00422775 0.0166599 
-0.000613853 0.00359492 0.00446789 
-0.00601315 0.00491213 0.00895148 
-0.000420617 0.00126762 0.00308677 
5.68328e-05 0.000413489 -0.000284674 
0.000144504 -0.000245397 -0.000184663 
-0.000146853 0.000278286 -7.09852e-05 
-0.000126068 -2.8691e-05 0.000541418 
1.04706e-05 3.62709e-05 0.0185838 
-0.000123779 5.99257e-05 0.0183164 
4.39261e-06 -0.000127733 0.0188558 
-0.000406189 5.00342e-05 0.0181072 
0.00525173 0.00691242 0.0175297 
0.0016477 5.30043e-05 0.00738298 
0.0012514 -0.00060095 0.00937395 
0.00312735 0.00323855 0.00593412 
1.17465e-05 -1.64776e-05 8.5788e-05 
0.000110662 3.63465e-05 0.000112539 
-9.20618e-05 -1.18992e-05 0.00685221 
-0.00020823 -8.55638e-05 0.00874691 
-0.000124945 4.02882e-05 0 
-6.01036e-05 2.66098e-05 0 
3.43134e-05 4.24003e-05 0 
0.000783378 -0.00096027 0.000163652 
-1.46145e-06 2.08294e-05 1.16493e-05 
1.46205e-06 -2.0838e-05 7.46644e-05 
-0.000102921 5.07839e-05 0.00664752 
3.53711e-06 -5.0413e-05 1.36307e-05 
3.24948e-05 2.1439e-05 1.13588e-06 
-1.14393e-05 -9.94436e-06 -6.64573e-05 
3.86608e-06 -4.18275e-05 0.00544805 
-6.87112e-05 -4.04907e-05 0.000131048 
0.000199914 -0.000658333 0.014917 
0.000334795 -0.00132273 0.0164475 
-0.000125495 -0.00141064 0.0173249 
0.00020815 -0.000128502 0.0139491 
-1.51224e-05 1.30139e-06 -0.000124291 
0.000183732 -1.58114e-05 0.000105518 
1.4117e-05 -1.21487e-06 5.76409e-06 
-0.000154469 0.000374374 0.00932058 
5.24974e-05 -2.36954e-05 5.00174e-05 
-1.91976e-05 1.01697e-05 -6.05713e-05 
-6.78392e-05 2.40088e-05 0.000121154 
-4.38224e-06 3.615e-05 0.00588979 
2.09478e-06 4.81143e-05 -0.000717837 
-1.69982e-05 -0.000126084 0.000974659 
-2.54655e-05 -6.84445e-05 -0.000749844 
0.00221576 -0.00015846 0.00306716 
8.58739e-06 -1.5213e-05 -4.73933e-05 
5.11451e-06 -6.61917e-06 2.11721e-05 
-2.79162e-05 4.62092e-05 8.83965e-05 
-2.9967e-05 7.52166e-05 0.00711146 
5.50296e-05 -2.4947e-05 0.0182524 
-0.000586697 -0.000212342 0.0173639 
-0.000834868 4.74388e-05 0.0171224 
-0.000556273 -2.28014e-05 0.0181681 
4.12623e-05 5.54366e-05 -0.000427546 
-1.94249e-05 -2.34897e-05 0.000236858 
3.6373e-05 9.62391e-05 0.000269464 
5.30836e-06 0.00115676 0.00730161 
8.23443e-05 0.00131604 0.00730378 
6.72586e-05 0.000198575 0.00657708 
-0.000320648 4.58418e-06 -7.44952e-05 
0.000525499 0.000901287 0.00482834 
-1.12557e-05 -2.41773e-06 -7.0105e-05 
3.36886e-05 -1.63234e-05 0.000112767 
0.000443776 5.86168e-05 0.00900397 
0.000387141 0.000229057 0.0073364 
-0.00084567 0.00186862 0.0117451 
0.00287324 0.00217585 0.00539555 
0.00286078 -0.000439898 0.00655429 
-4.43221e-05 0.00079835 0.0038599 
-0.00186528 -0.000374227 0 
0.00237167 -0.00123212 0 
-0.000904597 -0.000253768 0 
0.000704151 0.00241577 0.000262469 
0.000547923 0.00160289 0.0113939 
0.00167516 -0.000211352 0.00685327 
0.000441848 4.28686e-05 0.00681436 
0.000212161 0.00101094 0.00381971 
-0.000930171 -0.000888137 -0.0045804 
0.00272207 0.00302762 -0.00070213 
0.00422436 0.00280409 0.00396282 
0.00365497 -0.0037243 0.00918061 
-0.00131273 -0.00562767 0.0211413 
-0.00568284 -0.00626835 0.00523049 
-0.00859516 -0.00145786 0.0144498 
-0.00905156 -0.00446624 0.0300845 
3.00448e-07 4.0009e-06 0.000154957 
-0.000329014 -5.59686e-05 -0.00014704 
0.000148305 -5.79319e-05 0.000241521 
-0.000448318 0.000185167 -0.000353424 
-0.0524424 0.022705 0.0548241 
0.0140449 -0.00168108 0.0429358 
-0.0049795 0.00933033 -0.00146631 
-0.00851661 0.00141352 0.0426394 
-1.3497e-05 -0.00119871 0.0175058 
0.000187027 -0.00131636 0.0161059 
-2.92717e-05 -0.000655302 0.0158128 
0.000183672 -0.000357063 0.0139753 
-5.05363e-05 -6.62942e-05 0.00845792 
-5.75121e-06 -2.5803e-05 0.0056252 
9.9547e-05 -7.81975e-05 0.000242024 
2.67165e-05 4.44308e-05 -3.11838e-06 
0.00124629 0.00149068 -0.00306893 
0.00245503 -0.0074573 0.00796437 
-0.000295824 -0.00268143 0.00211552 
0.0021436 -0.00192646 0.00211173 
-0.000990192 -0.00339919 0.0141842 
0.00072595 -0.00561897 0.0181177 
0.000145042 -0.00541553 0.0171731 
-0.000148212 -0.0022786 0.017573 
-4.52239e-05 4.8626e-05 0.010878 
-3.34911e-06 2.8539e-05 0.0146419 
5.19765e-05 -7.44463e-05 0.0149238 
-5.94893e-05 -0.000218958 0.0132021 
-0.000124016 -0.00148048 0.00782897 
-0.00019268 3.24287e-05 0.0112798 
0.00024921 -0.000157261 0.0121281 
-3.29191e-05 -0.000167842 0.00624693 
1.68236e-05 -4.82678e-05 0.0112062 
2.7346e-06 -7.2425e-05 0.0105678 
-2.47039e-06 5.26729e-05 0.0146846 
4.03433e-05 0.00028426 0.0142602 
-0.00130496 -0.00145572 0.00239359 
-0.00511124 -0.00114348 0.01071 
-0.00185877 -0.00410504 0.00913374 
-0.00172641 -0.000954855 0.00948519 
6.84251e-05 2.02386e-05 0.01621 
-6.1595e-05 -0.000104509 0.0118866 
2.91346e-05 -4.24668e-05 0.0149689 
0.000170235 0.000360881 0.0152145 
-1.32156e-07 -0.00200158 0.0176446 
-0.000155015 -0.000636446 0.0160165 
0.000129985 -0.00106715 0.0170333 
0.000107224 -0.00163633 0.0167557 
7.69856e-06 4.90827e-05 0.0159382 
1.98255e-05 1.70497e-05 0.016045 
-7.68042e-05 -1.02877e-06 0.0131236 
0.000612071 -4.6733e-05 0.0149817 
-5.98124e-05 8.13547e-05 0 
-0.000162527 5.95548e-06 0 
9.45369e-05 5.96716e-05 -8.4416e-05 
0.000198908 5.06879e-07 0 
-0.00733874 -0.0289806 0.153428 
-0.0177917 -0.0300448 0.0825128 
0.00423819 0.0405319 0.200193 
0.0246648 -0.0233846 -0.0262164 
0.00293973 -0.000460854 0 
-0.000611595 0.00275319 0 
0.00287462 0.00104776 0 
-0.0033667 -0.00799146 -0.00217855 
-1.74069e-05 -0.00185677 0.0161113 
-0.000164644 -0.00485877 0.0166723 
7.52965e-05 -0.00198796 0.0175652 
-0.000262045 -0.00248469 0.0171199 
0.00741308 0.0203911 0 
-0.00178187 0.00998668 0 
-0.0110295 -0.012633 0 
-0.00797805 0.045652 0.0594218 
-3.96203e-05 3.91252e-06 0.000193752 
0.000101787 -1.00515e-05 -7.6634e-06 
6.55854e-05 -6.47659e-06 -0.000169941 
-0.000331872 -0.000300755 0.00980577 
-0.000259121 9.09571e-05 -0.000720794 
0.00023878 -0.00196963 0.00197056 
-0.00106074 0.000303596 -0.000770014 
0.00216686 -0.00207881 0.00151727 
2.23822e-05 -4.70724e-05 0.00567542 
-9.98546e-06 3.95862e-06 -3.62169e-06 
4.72917e-05 -1.54443e-05 0.000154819 
2.75236e-06 -2.62469e-06 -6.28998e-05 
1.09141e-05 2.90775e-05 0.0066808 
3.99873e-05 -0.000113033 0.0123218 
6.05352e-06 3.40372e-05 0.0068045 
-0.000176791 -0.000175419 0.00832865 
6.73657e-05 -3.18388e-05 0.000221236 
-3.39928e-05 -2.20884e-05 0.00567628 
-1.44912e-05 -6.77256e-05 0.00848332 
2.31782e-05 -6.7726e-08 6.21764e-05 
1.38299e-05 1.91759e-05 5.64558e-05 
-2.16032e-05 -3.30829e-05 8.88744e-05 
6.78538e-06 1.02787e-05 -2.15565e-05 
-5.67972e-05 -0.000293409 0.00919018 
-4.45874e-06 -1.38685e-05 0.0108626 
-7.95179e-06 -5.30911e-05 0.0109599 
1.12094e-05 5.9258e-05 0.00624123 
-0.000259769 -0.000205758 0.00795579 
1.40488e-05 2.65181e-05 0.00594343 
-9.7672e-05 0.00017198 0.00778646 
-7.08709e-05 -2.27062e-05 0.0100683 
-0.000107569 3.94844e-05 0.00691696 
7.67532e-05 3.12261e-05 7.27043e-05 
-4.34502e-05 -1.69785e-05 -6.74981e-05 
-1.79721e-05 -9.66564e-06 7.17227e-05 
4.916e-06 5.79895e-05 0.00536889 
3.30693e-05 -8.2035e-05 3.04807e-05 
-1.57396e-05 3.73105e-05 5.44655e-05 
-2.43933e-05 5.95003e-05 1.77579e-05 
-0.000150331 0.000467394 0.0081323 
0.000135256 9.48005e-05 0 
0.000155512 1.81778e-05 0 
2.24731e-05 -0.000143786 0 
-0.000144096 0.000185881 0.000179128 
3.80623e-05 3.21045e-06 2.98239e-06 
-3.5537e-05 -4.21056e-06 -0.000350849 
-9.52758e-05 -7.70963e-06 8.62471e-05 
0.000558476 -0.000455631 0.00931257 
0.000386764 -0.00256705 0 
-0.00493177 8.14753e-05 0 
0.00123447 0.00737985 0 
-0.00278587 0.0125127 0.00552051 
2.48378e-05 4.92912e-05 1.66236e-05 
-3.30818e-05 -7.5717e-05 0.000133085 
8.79836e-06 2.40536e-05 -9.57879e-05 
3.07758e-05 0.000485704 0.0072594 
-5.78734e-05 -0.000769224 -3.37371e-06 
-1.56057e-06 -0.000111735 -0.000528388 
-2.90913e-05 -0.000170351 0.00125421 
0.00134942 0.00025775 0.00186324 
0.000130767 0.000116361 -0.000783457 
-7.18773e-05 -6.05052e-05 0.000339886 
4.38722e-05 6.03598e-05 -0.000823095 
0.00161952 -0.000816035 0.00323781 
0.000362705 0.000180895 -4.73444e-05 
0.000122881 0.000205698 0 
-0.000262276 -0.000139398 0 
4.62012e-05 2.13332e-06 0 
5.33728e-05 -5.56355e-05 0.0150157 
-4.5559e-06 1.83953e-05 0.0174526 
1.31155e-05 4.65112e-07 0.0164569 
-0.000675519 -1.79372e-05 0.0170069 
-0.00388308 -0.0026366 0 
0.00532733 0.00429789 0 
0.000896051 0.00277975 0 
-0.00710664 0.00055594 0.000950051 
-2.03451e-06 2.12521e-05 0.0174423 
-2.26548e-06 -2.24806e-05 0.0183033 
3.47256e-05 2.06815e-05 0.0164961 
-0.000689208 -2.83792e-05 0.0169116 
0.000107933 5.47083e-05 0 
-0.000228876 6.62975e-05 0 
-1.72906e-05 -4.1111e-05 -0.000162345 
-0.00027743 -0.000186193 0 
0.000423739 0.00286457 0.0120239 
0.00127074 0.00529925 0.00478417 
0.0010269 0.0015381 0.00385279 
0.000215 0.000841332 0.00414193 
4.13714e-06 3.08856e-05 0.0146216 
1.2889e-05 -0.000128088 0.0106135 
-1.41486e-05 -2.18111e-05 0.0126615 
2.66574e-05 0.000345966 0.0142841 
7.83263e-06 1.51685e-05 0.00589984 
-1.73013e-05 2.03154e-05 0.000137582 
-0.00010172 0.000176745 0.00777802 
-8.44833e-05 4.8597e-05 0.00702465 
0.000157443 7.4159e-06 7.71931e-05 
0.000485804 3.76261e-05 0.00906695 
4.49752e-05 0.000142778 0.000207349 
0.00033706 4.15796e-05 0.00716117 
0.000751417 0.00192234 0.01178 
0.000317361 -0.000208981 0.00636205 
-2.36899e-05 0.00148411 0.0074225 
0.000359271 0.00129007 0.00428339 
0.000124528 -6.45636e-05 0.00761816 
-3.34368e-08 4.72261e-07 3.50559e-05 
4.61027e-07 -6.51155e-06 4.34255e-05 
-5.52888e-06 7.809e-05 6.04841e-05 
-0.000175297 5.89046e-05 -0.000306625 
0.000312928 -0.000524013 -1.3391e-05 
-0.000362507 -0.000437556 -4.95036e-05 
0.00342942 0.000941309 0.00340272 
5.27111e-07 7.66487e-06 -5.2363e-06 
1.95287e-06 2.83973e-05 6.53466e-06 
-1.59794e-06 -2.32361e-05 0.000102619 
-0.000108759 -7.30144e-05 0.00715226 
3.63436e-06 -2.23398e-05 0.0164055 
-5.90027e-05 0.000108224 0.012377 
2.86632e-05 1.01666e-05 0.0138922 
-5.24654e-05 -0.000620959 0.0153747 
-0.000144709 0.0010533 -0.000913256 
0.000456364 8.14379e-05 -0.000336125 
-0.00050883 -0.000103737 -0.000145701 
4.95393e-05 -0.000319453 0.00109781 
4.31329e-05 -0.000382276 -0.000110959 
0.000157058 0.000201915 0.00657185 
0.00111944 9.79424e-05 0.00629105 
0.000544604 0.000829371 0.00444837 
-5.71316e-05 1.51519e-05 0.013589 
0.000381951 -0.000644848 0.0171126 
2.83871e-05 -0.00117334 0.0160277 
-9.29285e-05 -0.000533837 0.0158714 
0.000244801 -9.84549e-05 -0.000274847 
-0.000154553 6.57955e-05 3.63972e-05 
0.000124405 -5.07867e-05 -0.000111269 
0.000181323 -0.000319744 9.8909e-05 
-0.000623661 -0.000834105 0.0136596 
-7.78404e-05 -9.38107e-05 0.0130713 
-0.000187572 -0.0010418 0.0165096 
0.000123458 -0.000517227 0.0160768 
0.000119785 0.000247448 0 
-0.000251293 1.227e-05 0 
-0.00086442 -0.00065057 0 
0.00354785 0.00115147 -0.000818402 
-0.000602559 -0.000674356 0.0177245 
1.1912e-06 8.67319e-05 0.0181013 
-0.000229402 -4.95543e-05 0.0166767 
-0.000671215 -5.67337e-06 0.018054 
4.6334e-05 -4.79491e-05 -0.000314889 
2.61557e-05 -2.68919e-05 0.000141993 
-0.000152934 0.000157717 4.07556e-05 
2.6784e-05 -0.00018661 0.00605598 
-3.52987e-05 1.94774e-05 3.87406e-05 
-3.97146e-05 1.14129e-05 6.09605e-05 
2.47701e-05 7.50477e-06 0.00525117 
5.40841e-05 0.000108277 0.00797205 
0.000347034 0.000360879 0.0122062 
-0.00056804 0.0019235 0.0149531 
-0.00187521 -3.18622e-05 0.0142459 
-0.000382045 -0.000103438 0.0163716 
1.51868e-05 1.23184e-05 -6.38781e-05 
-3.91631e-05 -2.64785e-05 1.90049e-05 
4.97269e-05 2.9253e-05 9.62321e-05 
-5.75815e-06 1.94418e-05 0.00553499 
6.15881e-05 -3.9292e-05 6.16984e-05 
-1.93824e-05 2.7315e-05 0.00577481 
-1.5542e-05 -1.1956e-05 -7.87064e-06 
-7.2555e-05 0.000101409 0.00701754 
-0.000156609 -0.000900161 0.0168121 
0.000428432 -0.00188658 0.01702 
0.000624718 -0.000761431 0.0150639 
7.15166e-05 -0.00217508 0.0173273 
0.000126804 -1.3978e-05 0.000460401 
0.000351297 -2.42193e-05 -0.000207147 
-0.000171039 2.24496e-05 -0.00098852 
0.0023977 0.001097 0.00332315 
-0.00117344 0.000628537 0.0172255 
-0.00197461 0.000238645 0.0144522 
-0.000754429 0.00153328 0.01495 
-0.000131408 -0.000157541 0.0161243 
1.14779e-05 5.67607e-05 9.32267e-05 
6.75649e-06 3.37626e-05 6.18354e-05 
-7.09939e-06 -2.93191e-05 5.72714e-05 
-1.76218e-05 -0.000390193 0.0092387 
0.00553891 -0.0461058 0.118055 
-0.00974435 -0.0407129 0.116181 
-0.00156399 0.0338874 0.228443 
-0.00790933 -0.019115 -0.0347187 
5.63684e-06 -4.14165e-06 2.28947e-05 
2.52173e-05 -1.80604e-05 6.37973e-05 
-1.46406e-05 9.30014e-06 6.08095e-05 
-0.000201658 2.5214e-05 0.00884681 
4.99468e-05 -7.134e-05 0.0149926 
1.98808e-05 3.8337e-05 0.0116875 
-3.73081e-05 2.5228e-05 0.0108285 
-7.05324e-05 -0.00017964 0.0131416 
-0.00148887 -0.000289362 0.016663 
-0.000246823 6.79847e-05 0.0149267 
-0.000371041 -0.000365137 0.0165018 
-0.000683453 -0.000202543 0.0175015 
4.3196e-05 -4.15002e-05 0.018282 
8.35091e-05 1.18795e-05 0.0165099 
-0.000736125 -2.47527e-06 0.0169536 
-0.000644696 -0.000136339 0.0174438 
0.000274497 -0.000421695 0 
-1.55633e-05 7.04537e-05 0 
0.000168594 0.000365359 0 
0.000107785 0.0009209 6.6482e-05 
0.000433796 -0.000941373 0 
6.26643e-05 0.00113258 0 
-0.001274 0.000229337 0 
0.00215656 -0.000160283 0.000774137 
-0.000291882 -6.20478e-05 -0.000539382 
-9.73501e-05 -1.98662e-05 -0.000286333 
-9.7426e-08 -7.65278e-06 0.00098042 
0.00107872 -0.00144062 0.00327048 
0.00335367 0.00433391 0 
0.0130545 0.00558978 0 
-0.0213951 -0.00236955 0 
-0.037231 -0.0216435 0.0354025 
4.38933e-05 -1.76182e-05 -2.53944e-05 
5.80589e-05 7.26695e-05 0.00011656 
-4.72219e-05 2.13085e-05 0.0061048 
-1.7929e-05 9.82441e-06 0.00551475 
-0.000160745 -0.00209872 0.0175588 
0.00041752 -0.00192542 0.0172753 
-0.000134564 -0.000916526 0.0166614 
0.000136202 -0.00224503 0.0169694 
4.76511e-05 1.9417e-05 -9.43584e-05 
-3.66951e-05 -1.35928e-05 0.00020944 
1.93538e-05 8.07833e-06 -1.90151e-05 
-0.000308711 -6.1405e-05 0.00842921 
-7.14532e-05 -4.90265e-05 9.92974e-05 
-8.11632e-05 -5.59623e-05 -0.000465329 
-0.000177873 -0.000122102 0.000126048 
-0.00089536 -7.0873e-05 0.00743142 
-6.94484e-05 6.92142e-05 -0.000521552 
0.000246912 -0.000255318 6.35713e-05 
-2.16467e-05 2.40518e-05 0.000317767 
-0.000636657 5.38148e-05 0.00515771 
9.34443e-06 6.61599e-07 1.02138e-05 
-4.20307e-06 -2.97583e-07 6.76731e-05 
3.3478e-05 0.000105538 0.00689995 
-4.40142e-05 -3.11627e-06 1.94186e-05 
-0.00066336 -0.000260842 0 
0.000109241 0.000392364 0 
-0.000803359 -0.000412383 0 
0.00175503 0.000442377 9.63856e-05 
-0.00635957 0.0240358 0 
0.00717368 -0.0121261 0 
-0.0136213 0.0148109 0 
-0.0175511 0.023508 0.0588282 
0.000991588 0.000633458 0 
0.000428632 -0.00506389 0 
0.000786915 0.000450241 0 
-0.00261957 -0.00214191 -0.00285847 
0.00594146 0.00337333 0 
0.00264208 -0.0133364 0 
-0.00128651 0.00209351 0 
0.0116285 -0.0182805 0.0198327 
6.94563e-05 -7.94305e-06 0.00670641 
-5.0815e-05 2.4199e-06 -1.53075e-06 
-3.53569e-05 -5.50598e-05 0.000111116 
1.5052e-05 9.7843e-06 0.0048039 
4.28859e-05 0.000764755 0 
-0.000331218 -0.000797231 0 
0.000100345 0.00299116 0 
7.84267e-05 -0.000659457 -0.00327398 
1.33334e-05 7.09047e-06 0.00476536 
-3.89256e-05 5.18472e-06 -8.46313e-05 
7.03456e-05 9.36675e-05 0.000202341 
7.82126e-05 -5.09839e-05 0.00600258 
-7.81802e-06 -1.33421e-05 -6.3179e-05 
-3.57861e-05 -8.96792e-06 0.00569023 
-2.79309e-05 -7.48223e-05 9.28587e-05 
2.46914e-05 5.34131e-05 6.72635e-05 
-0.00334932 0.00390309 0.0156076 
-0.000642621 0.00151335 0.00397287 
-0.00595536 0.00484765 0.0087032 
-0.00142263 -0.000186448 0.00765858 
-1.43924e-06 -2.27315e-05 -2.05023e-05 
-6.10615e-06 -6.72015e-05 8.97828e-05 
-1.57104e-06 -9.70822e-06 6.89362e-05 
-3.20546e-05 0.000146093 0.00917013 
-0.000332703 0.0045785 0 
0.00470116 -0.00265375 0 
-0.00245761 0.000812739 0 
0.00640953 0.00153187 0.0028269 
-4.93334e-05 7.03847e-05 0.000330395 
4.93146e-05 -7.07079e-05 -0.000830611 
0.000282353 -0.000401451 9.07524e-05 
0.000191917 -0.00110225 0.00306195 
-1.25129e-05 1.27272e-05 2.30486e-05 
-3.46458e-05 3.5265e-05 1.9839e-05 
-1.34495e-05 1.3633e-05 0.000104189 
-1.2655e-05 -0.000116061 0.00637883 
6.49718e-05 -4.38366e-05 0.000114609 
-4.31212e-06 2.4574e-06 -3.30121e-05 
3.42964e-05 -2.34629e-05 4.23426e-05 
-0.000311884 0.000184549 0.00873635 
-3.27815e-05 -7.11914e-06 5.17409e-05 
3.70537e-05 8.92996e-06 2.9808e-05 
2.26561e-05 5.74095e-06 4.63058e-05 
0.000147276 4.0623e-05 0.00722712 
-1.33432e-06 1.98203e-06 2.53824e-05 
-2.93162e-05 4.3003e-05 -0.000180163 
0.000121747 -0.000178981 0.000212055 
0.000159365 -8.17996e-05 0.00764227 
-0.00263795 -0.0115729 0 
-0.00414797 -0.00241694 0 
0.00490841 0.0219306 0 
0.00618369 0.033371 0.0413058 
-0.012023 -0.00184302 0 
0.000721049 0.00760945 0 
0.00324895 0.000653787 0 
-0.0189598 -0.000352145 0.016178 
-5.61588e-05 -4.71399e-06 0.0131568 
6.05715e-05 4.43886e-06 0.0160267 
-4.42707e-05 -4.11084e-05 0.0125991 
0.000566817 -3.51011e-05 0.0149648 
2.61391e-05 -1.94106e-05 6.74323e-05 
-0.000145126 0.000103664 0.000217422 
2.33065e-05 -1.50944e-05 -0.000258878 
-0.000166349 -9.7322e-06 0.00637541 
-5.18455e-05 5.72926e-05 0.0110438 
3.8501e-05 -5.62987e-05 0.00628362 
0.000174175 7.86657e-05 0.00934278 
2.95011e-05 2.75367e-06 0.00872553 
0.000131212 -0.000153698 0.0137704 
0.000210182 -3.94054e-05 0.00784871 
-0.000129505 -0.000352034 0.00892258 
-1.48104e-06 -6.40151e-05 0.00877935 
3.5596e-05 2.99088e-05 -0.000382196 
8.88737e-05 6.61406e-05 -0.000316716 
0.000154672 0.000102933 0.000358402 
-0.00165908 -6.72552e-05 0.00701556 
0.000236102 0.000228668 0.000126983 
4.1557e-05 4.22656e-05 0.000427143 
-3.87026e-05 -3.82451e-05 -0.00017356 
-6.82539e-05 -0.000383069 0.00338407 
-0.000150773 -5.59709e-05 0.000213067 
7.20098e-05 2.36814e-05 -0.000228874 
0.000267172 9.8827e-05 -0.00039233 
-3.26482e-05 0.000206893 6.22577e-05 
-1.6629e-05 -3.27372e-05 0.000133924 
5.52896e-05 0.000108479 0.00010751 
2.59188e-05 5.1166e-05 -0.000419029 
-3.42173e-05 0.000952307 0.00747646 
-0.000930169 -0.000825114 0.00200492 
0.00443833 -0.00793316 0.0122676 
0.0048929 -0.00682658 0.0164247 
0.00390833 -0.00112378 -0.00151043 
-5.70105e-05 6.08339e-05 -0.000114453 
0.000276732 -0.000271686 -0.000220399 
2.62804e-05 -4.10689e-05 0.000480958 
-0.000551891 9.85675e-05 0.000660595 
-1.25827e-05 1.40784e-05 -0.000981727 
-0.00049234 -0.000206 0.000228185 
7.93532e-05 2.09384e-05 0.000589345 
0.0021991 -0.000568624 0.00204237 
0.000105314 -0.000173581 -0.000235335 
9.84193e-06 -2.07741e-05 -0.000111021 
-5.93493e-05 9.34633e-05 4.7411e-05 
0.000294236 0.000138617 -3.80482e-05 
-0.000335607 0.000494058 -0.000255252 
-7.34028e-05 9.98284e-05 0.00040993 
-0.000108913 0.00016501 -0.000347479 
0.000200702 0.00055463 0.000924529 
-0.00132438 -0.000449963 0 
-7.62399e-05 0.0011901 0 
0.000994026 -0.000314845 0 
0.000778398 -4.89724e-06 8.47722e-05 
-8.00383e-05 7.90164e-05 -0.000708087 
-0.000214617 0.000210688 0.000156507 
-4.47652e-05 4.38836e-05 0.000140022 
0.000521989 0.000200048 0.00345954 
3.65429e-05 -2.00636e-08 0.00619259 
-3.18653e-05 2.24373e-05 -2.03554e-05 
4.1724e-05 5.59465e-05 0.000112107 
4.37947e-05 -1.91983e-05 0.00571012 
0.000183069 -0.000240454 -0.00013009 
0.000132884 -0.000103592 0 
7.53768e-05 4.67334e-05 0 
-0.000334924 -0.000167305 0 
-0.00443694 0.00202902 0 
0.00195234 -0.00109821 0 
-0.00517633 0.00180013 0 
0.0135748 -0.0104005 0.0028657 
-0.000644336 -0.00259016 0 
-0.000335418 -0.000769838 0 
0.000886675 0.000220244 0 
-0.00149973 -0.00410984 -0.00207382 
2.39358e-06 -7.18234e-06 0.000154493 
-0.000181972 -0.000166861 -0.000105016 
-2.74037e-05 2.99151e-05 -0.000327104 
-8.68436e-05 5.86714e-05 -4.09248e-05 
4.20386e-05 4.71535e-05 0.00742891 
-0.000108198 6.34938e-05 0.000183284 
-2.47004e-05 -3.5033e-05 -4.01873e-05 
-2.90294e-06 2.04842e-05 0.00589086 
-5.08785e-05 3.41771e-05 3.57628e-05 
2.4482e-05 -1.92583e-05 8.13332e-05 
2.83528e-05 -1.80603e-05 -5.44516e-05 
2.18405e-07 3.63698e-05 0.00582557 
-7.87045e-06 2.17258e-06 0.0178687 
1.48383e-05 -6.24668e-06 0.0186709 
-6.18398e-05 5.36579e-05 0.0175818 
0.000443542 -2.28191e-05 0.0182538 
1.46672e-05 -2.26381e-05 0.0105304 
-6.70901e-05 4.79939e-05 0.00720859 
4.49439e-05 1.76502e-05 0.0126132 
0.000147126 -7.15158e-05 0.00752716 
-0.000116894 0.000177904 -0.00021652 
9.04306e-05 -0.000133748 7.34603e-05 
4.46713e-05 -6.25743e-05 -4.84236e-05 
-0.00027656 -0.000187386 -9.04743e-05 
0.000941482 -0.000308032 3.28636e-06 
0.000156378 0.000581833 0.000274258 
-0.000993333 0.0017652 0.00439768 
-0.00144645 0.0013551 0.0068941 
-1.0832e-05 6.801e-05 0.00642927 
1.75755e-05 -5.8597e-05 -8.77978e-06 
6.89035e-05 -8.21091e-06 0.000100444 
-1.27501e-05 2.12324e-05 0.00583582 
0.000273043 -0.000274917 0.0120401 
-0.000371699 -1.79078e-05 0.0113322 
-0.000311852 0.000146459 0.00864405 
-8.91038e-05 -0.000207663 0.00624772 
-0.000826964 -0.000309143 0.00574694 
-0.000502442 -7.83404e-05 0.0113617 
-0.000116056 -0.00114878 0.00746356 
0.000159321 -0.000213904 0.00632297 
-7.25397e-05 -0.000190911 0 
-0.00017301 -0.000546617 0 
4.2294e-05 -5.30102e-05 0 
-0.00159685 0.000508335 0.000803458 
-0.0164504 -0.00975906 0 
0.00888148 0.00805994 0 
0.00503523 -0.0056498 0 
-0.0230462 -0.00379598 0.0258145 
2.78352e-05 4.06782e-05 1.07235e-05 
-2.13616e-05 -2.78564e-05 7.32364e-05 
-1.63258e-05 -2.5205e-05 -3.8925e-05 
1.20722e-05 2.86426e-05 0.00479739 
6.59284e-05 -0.000275645 -0.000129142 
-0.000341938 2.18085e-05 8.47985e-05 
0.000194701 0.000235001 0.00638613 
0.000524827 0.000858507 0.00459659 
3.15877e-05 3.59522e-05 0.00479159 
1.46208e-05 1.71126e-05 0.00761252 
-2.22368e-05 4.32722e-05 0.000112852 
-3.13982e-05 -1.76518e-05 -9.66073e-06 
6.5191e-05 0.000228362 0.0136646 
-0.000795869 0.000342276 0.0160194 
-0.000311802 0.000517292 0.0168082 
-0.000466389 -3.01001e-05 0.0153379 
-0.0106674 -0.0243534 0.211182 
0.00113983 0.0572204 0.154124 
0.00164835 0.0218992 0.0465901 
-0.0157106 0.0203958 -0.034841 
-4.69408e-06 6.66827e-07 -2.25048e-05 
3.86583e-05 -0.000124108 0.00862099 
4.2984e-05 -6.92815e-06 0.000157668 
-9.47743e-06 1.7506e-06 -2.16281e-05 
1.88295e-05 5.8666e-05 0.000159087 
-8.80199e-06 -2.43047e-05 -3.77751e-05 
8.73049e-06 1.33297e-05 -8.89654e-05 
7.89316e-06 7.25e-06 0.00476785 
-1.00132e-05 1.63025e-05 -1.9894e-05 
-1.14675e-05 1.45805e-05 5.14297e-05 
3.68458e-05 -5.7057e-05 2.00116e-05 
1.34993e-05 -0.00014659 0.00775169 
0.000119432 -5.37326e-05 0.000163736 
1.42129e-05 -7.32479e-06 -1.70309e-05 
-4.42067e-05 2.15897e-05 6.16061e-06 
0.000345049 -0.000136738 0.00882722 
0.000868718 0.000193348 0 
-0.00174099 -0.000507128 0 
-0.000542439 -0.000708908 0 
2.23984e-05 0.000208985 -0.000631012 
3.76744e-05 2.6674e-06 6.24106e-06 
1.26494e-05 8.95594e-07 8.85242e-05 
-1.26269e-05 -8.94e-07 5.12076e-06 
-3.92818e-05 -0.000105452 0.00662 
-0.000482585 -0.000627991 0 
-0.00087432 -0.001635 0 
-9.55154e-05 -0.000183198 0 
-0.000517762 0.00026626 -0.000448783 
1.26695e-05 -4.68249e-05 7.7194e-05 
-3.75765e-06 0.000632652 0.00824029 
7.61096e-06 0.000217093 -0.000133414 
-2.84239e-05 0.000974968 0.007226 
0.000797837 0.00153129 0 
0.00304264 -0.000316681 0 
2.56851e-05 0.000407964 0 
-0.00340502 -0.00499516 -0.00213631 
-0.000337912 0.000306021 0 
9.0095e-05 0.000130293 0 
4.34108e-05 -0.000173684 0 
0.000831913 -0.000751067 -0.000329502 
2.25721e-05 4.51642e-05 0.0185603 
5.07748e-05 -4.7708e-05 0.0187459 
-3.93134e-06 -1.31525e-05 0.0182751 
-0.000472844 -8.92201e-06 0.0182411 
0.000119564 0.00018868 -0.000155153 
-5.14791e-05 -9.22949e-05 0.000231234 
-6.94597e-05 -0.000109237 8.45492e-05 
-0.000750171 -0.00130045 0.000759032 
0.0020094 -0.000850971 -0.00296768 
-0.000148083 -0.000302816 2.31173e-05 
-0.0010378 -0.00195237 0.00468136 
-0.0026096 -0.00169532 0.00633015 
-0.00219749 -0.00162305 0 
-0.00480153 -0.00194927 0 
0.00376206 0.00290493 0 
0.00432054 0.0130243 0.000344121 
-3.13877e-05 -6.59113e-05 -2.12249e-05 
3.99829e-05 8.54914e-05 -2.01096e-05 
-2.22428e-05 -4.95188e-05 7.15163e-05 
-0.000218797 -0.00055507 0.00707524 
0.00030938 -0.000150345 0 
8.18052e-05 -1.51151e-05 0 
0.000122366 0.000181176 0 
0.000512872 -0.000594596 0.000142192 
5.09379e-05 0.000115264 -0.000111138 
4.72423e-05 7.24464e-05 0.000367045 
-5.782e-05 -0.000133457 0.000161899 
-0.000387616 -0.00154361 0.00491682 
-0.000346896 0.00166891 0.00766269 
-8.50387e-05 0.000622421 0.00821001 
0.000602197 0.00118878 0.0153502 
0.000294246 0.00132072 0.00755656 
-0.00584936 0.0110977 0 
0.0104392 -0.013795 0 
-0.0157772 0.00642566 0 
-0.0304423 0.0130401 0.0372693 
-0.0515259 -0.00390781 0.166629 
0.0586432 -0.0140249 -0.0136581 
0.051744 -0.011034 0.153245 
-0.0451719 0.0102363 0.0260022 
-1.68933e-05 1.64965e-05 0.000212562 
4.74723e-05 -4.62035e-05 -0.000308748 
-0.000160761 0.000155902 -1.18626e-05 
0.000221336 8.52419e-05 0.006504 
-0.000845885 0.0056034 0 
0.00837502 -0.00107518 0 
0.00550953 -0.00603303 0 
-0.00309042 -0.0317505 0.00849134 
0.000665484 0.0126919 0 
0.00250749 0.00281325 0 
0.00117812 -0.0088872 0 
-0.0131042 0.0358157 0.0269747 
1.66186e-05 1.49753e-05 -0.000153625 
0.000113952 0.00011152 3.97748e-05 
3.03214e-05 3.05528e-05 0.000119234 
1.08478e-05 -0.000155782 0.00757754 
5.42263e-05 1.94587e-05 0.00576059 
7.28065e-07 1.0587e-05 -1.72163e-05 
-6.19704e-07 -9.0113e-06 -3.98624e-06 
-1.5809e-06 -2.29884e-05 6.28164e-05 
-0.0144974 -0.00712778 0.204931 
0.031998 0.00188038 0.0630042 
0.0603377 0.0101363 0.136152 
0.00861505 -0.0182988 -0.0551838 
2.40771e-06 5.44228e-05 0.0102975 
0.00014229 0.000109738 0.00849507 
-0.000101846 -5.99813e-05 0.0138271 
5.77229e-05 -0.000345894 0.0136818 
0.000229815 0.00129116 0 
-0.00157964 0.000678643 0 
0.00299825 -0.000335447 0 
-0.00187123 -0.00436354 -0.00143433 
-6.52438e-06 -2.01658e-05 -5.50572e-05 
1.36523e-05 5.61078e-05 -3.49221e-05 
-2.66521e-05 -0.000124743 0.000232317 
-0.000138558 -0.000385841 0.00924785 
-1.19455e-06 4.40404e-06 2.68933e-05 
-1.26702e-05 3.66697e-05 0.000121751 
6.26343e-06 -1.79998e-05 -5.811e-05 
-3.43197e-05 0.000123307 0.00801673 
2.07568e-05 -4.545e-06 0.0186118 
-4.70402e-05 -6.56991e-06 0.0188051 
-2.58736e-05 -3.20858e-06 0.0184606 
-8.13343e-06 -7.27376e-06 0.0185738 
-2.78205e-05 3.16829e-05 0.0105429 
-1.64019e-05 4.79389e-06 0.0111659 
2.62912e-05 -5.38267e-05 0.00624487 
0.000143951 0.000101165 0.00924341 
-4.31281e-05 1.0128e-05 5.58683e-05 
-3.03073e-05 7.08257e-06 3.6136e-05 
2.49644e-05 -4.27957e-06 0.000110228 
-0.000139425 -4.39288e-06 0.00865054 
-7.18926e-05 -6.07341e-06 0 
-5.47636e-05 -9.26314e-05 0 
6.95715e-05 1.05436e-05 0 
-6.1729e-05 4.39807e-05 0.000247265 
-0.000236996 -0.000710798 0.0158968 
0.0002678 -0.00122594 0.0165188 
0.000221755 -0.000396304 0.01179 
0.00025042 -0.000381448 0.0136749 
-7.90395e-05 -0.000140456 4.34728e-05 
-9.51585e-06 2.14711e-06 -0.00057718 
-4.86322e-05 -8.94994e-05 0.000120823 
-0.000190622 -0.00141561 0.00442064 
-6.46771e-05 -0.000118503 0.000163924 
-2.21025e-05 -8.11493e-07 0.00567779 
4.7129e-05 -1.77618e-05 -4.88666e-05 
-5.6742e-05 2.9853e-05 0.006787 
8.78685e-06 -6.61104e-05 0 
-0.000133376 7.13342e-05 0 
1.51575e-05 9.51789e-05 0 
-5.7897e-05 0.000130192 2.25514e-06 
-0.000218205 -1.87781e-05 1.6241e-05 
-4.64894e-06 -4.00073e-07 -5.25523e-05 
0.000143075 1.23126e-05 6.2733e-05 
0.000297382 -0.000225679 0.00920146 
-0.00020157 0.000578963 0 
0.0015664 -0.000108026 0 
-0.000291036 -0.000791272 0 
-0.00213855 -0.00359878 9.68273e-06 
-0.000238089 2.48282e-05 -0.000365453 
0.000170098 5.83705e-05 0.000244562 
0.00050621 -0.000253215 -5.12214e-05 
-0.000211582 -0.000265365 -0.00078872 
2.40422e-07 -6.06597e-05 0.0140461 
8.65094e-06 4.58518e-05 0.01373 
9.66195e-05 -1.22475e-05 0.0105815 
-0.000419579 3.88954e-05 0.014691 
4.08581e-06 -4.06206e-05 0.0149631 
-0.000102751 5.35526e-05 0.016562 
3.40682e-05 -3.48115e-05 0.0124658 
-0.000445689 -0.000137981 0.013968 
3.11335e-05 3.31774e-05 0.00595629 
-5.4804e-05 -5.86398e-05 0.0104239 
-2.96257e-05 1.34981e-05 0.0101385 
-0.000127505 0.000133067 0.00771095 
-0.00124164 -0.000342491 0 
0.000145738 0.000560283 0 
-0.000658387 0.000283981 0 
0.00289928 0.000546136 -9.99121e-05 
-7.02812e-05 7.75224e-05 0.0110788 
2.31003e-05 -4.23612e-05 0.0054151 
3.43318e-05 -3.52442e-05 0.00629348 
4.71777e-05 -2.5626e-05 0.00869096 
-5.4554e-05 0.000249574 -0.00026849 
-0.000102805 0.000435097 0.000521014 
1.99383e-05 -6.68293e-05 -0.000612951 
-0.000958858 -0.00217898 0.00309936 
0.000984502 0.000575683 0 
-0.00049619 -0.00135837 0 
-0.00844562 -0.00171963 0 
-0.016199 -0.000323681 0.0140992 
2.4022e-05 0.000286357 -0.0010872 
-2.96676e-05 -0.000353657 0.000649008 
-4.1861e-05 -0.00049901 7.15126e-05 
-0.000723842 0.00116671 0.00642461 
-4.96347e-05 5.23894e-05 0.0145081 
4.44566e-05 -0.000106625 0.0173162 
1.1805e-05 3.58757e-05 0.0150844 
-1.28379e-05 -0.000434395 0.0156987 
-0.00393216 0.0329842 0 
0.00873851 -0.0185293 0 
-1.14897e-05 0.014619 0 
0.000689564 0.0337532 0.0793626 
8.4736e-06 -6.46927e-05 0.00967641 
-3.68909e-05 -3.10013e-05 0.0048237 
-1.47953e-05 5.03683e-05 0.00673515 
2.30596e-05 0.0001046 0.00920818 
1.71698e-05 3.94024e-05 0.0185529 
-4.86089e-06 -1.45772e-05 0.0182654 
1.50124e-05 -1.29773e-05 0.0174383 
-0.000467857 -5.52484e-08 0.0183175 
2.20387e-05 0.000360071 0 
4.22718e-05 -0.000139218 0 
-0.000164164 0.000257538 0 
0.000181534 -0.000144747 0.000104112 
-2.07531e-05 4.04032e-05 -0.000511996 
-0.000106925 0.000209949 3.37987e-05 
3.11552e-05 -6.11143e-05 7.90935e-05 
-0.000267138 0.00127398 0.00787109 
-7.17347e-06 1.54046e-06 7.12656e-05 
-2.79331e-05 8.55204e-06 0.000147134 
-1.84367e-06 1.55426e-06 -4.08228e-05 
0.000396552 -0.000103808 0.00886706 
-0.000106758 -0.000627675 0 
0.00190046 -0.00195158 0 
0.00129154 -0.00138206 0 
-0.000869498 0.00348908 -0.00156064 
-1.30668e-05 -0.000186236 -0.000102143 
-4.93848e-06 -7.03862e-05 9.84677e-05 
4.1521e-06 5.91782e-05 -0.000264534 
-0.000350631 -0.000328008 4.33422e-05 
-5.79439e-05 -3.09953e-05 0.0184574 
-3.25998e-06 1.58447e-07 0.0186465 
-2.97558e-05 5.76791e-06 0.0179084 
0.000490232 -3.4032e-05 0.0182282 
-6.98457e-05 6.94365e-05 2.19094e-05 
2.51553e-05 0.000192393 -4.51165e-05 
4.11871e-05 -3.91886e-05 3.19085e-05 
-3.18859e-05 2.31689e-05 -0.000207608 
-0.000258806 0.000188256 0.000234504 
-7.60375e-05 5.76922e-05 -0.000419486 
-3.74112e-05 2.72484e-05 2.6628e-05 
-0.000546238 0.000118815 0.0053774 
-0.000516955 -0.000200104 -0.000327779 
-0.000231306 -0.000700634 0 
0.000149694 0.000157243 0 
-0.000462845 5.66514e-05 0 
0.012685 -0.00117613 0 
-0.00788905 0.00229959 0 
-0.007852 0.00740345 0 
0.0311697 -0.00761145 0.0165158 
-0.00123855 0.00125648 -0.0012865 
0.000579647 -0.000495839 -6.66359e-05 
-0.000319392 0.000104968 -2.29286e-05 
0.00502795 0.00108582 0.00298233 
-1.21903e-05 -1.83507e-05 1.61986e-06 
3.97706e-05 6.53331e-05 -0.000115847 
0.000176282 -0.000100394 -2.75387e-05 
-4.2931e-05 -6.27885e-05 -3.14816e-05 
-3.44059e-05 2.27889e-05 -0.000132604 
-0.000224716 0.000153207 -3.28634e-05 
-0.000155147 0.000107833 0.000370041 
0.00164691 -0.000636244 0.00584611 
-0.000648768 0.00527739 0.0157346 
6.38701e-05 0.00501624 0.016895 
0.00152276 0.000772685 0.0179668 
0.00136023 0.00599203 0.020178 
-1.48985e-05 4.87334e-06 0.00686539 
1.3784e-05 -3.67409e-05 4.48593e-05 
-4.16048e-05 -6.80606e-05 0.000177178 
-5.39395e-05 5.77377e-05 0.00703507 
-0.00513793 0.0062018 0.0130724 
-0.00716654 0.0063721 -0.00204551 
-0.00287797 0.00704033 0.0423712 
-0.0116933 0.00279375 0.0425016 
4.68868e-06 -2.07924e-05 0.00690348 
-3.56711e-05 -2.92579e-05 0.000133518 
-4.49525e-05 2.86382e-05 2.88932e-07 
5.68321e-05 -5.98773e-05 0.00656814 
5.3919e-05 -9.29954e-05 0.00579661 
3.52322e-06 -2.57948e-07 7.89665e-05 
1.67566e-06 -1.22681e-07 -6.02547e-06 
-2.79955e-05 2.04965e-06 8.81232e-06 
-0.000248597 1.7601e-05 -0.000297812 
0.000148891 -1.05417e-05 4.68584e-05 
0.000114083 -8.07725e-06 2.85808e-05 
2.17373e-05 -0.000347092 -4.05886e-05 
9.88477e-06 2.34134e-05 0.000232929 
7.68495e-05 9.12832e-05 -0.000246612 
0.000205325 0.000273251 6.86792e-06 
-0.000601696 -0.00118363 0.00315372 
0.000152912 -1.07287e-05 -0.000311519 
-2.29949e-08 1.61338e-09 7.21658e-05 
-0.000252612 0.000244629 8.47327e-05 
4.37928e-05 -3.07262e-06 -0.000104857 
0.000197375 -0.000126352 0.000573861 
-0.000113568 7.39648e-05 -0.000211558 
-0.000403669 0.000267994 -0.000273439 
0.0013326 -0.000308848 0.000331187 
0.000119561 -0.000294738 5.53765e-05 
3.26302e-05 -3.31185e-05 -0.000973804 
-2.72121e-05 5.37441e-05 0.000266143 
-0.000643671 -0.00168575 0.00383995 
1.77222e-05 -6.4442e-05 -0.000117805 
-4.57668e-05 0.00015615 0.000987362 
-0.000141007 0.000528424 -0.000106419 
4.47203e-05 -0.00227013 0.00460733 
-4.31456e-05 -6.78934e-05 0.0130979 
2.3981e-05 5.90801e-05 0.0161415 
2.04287e-05 -3.80908e-05 0.0126593 
-2.34227e-05 0.000503114 0.0147476 
6.92054e-05 9.11136e-05 -0.000517927 
-5.53641e-05 -7.43409e-05 0.000196768 
0.000229727 0.000316255 0.000351535 
-0.000348141 0.000111884 0.00412108 
0.00107877 0.00132808 0 
0.000499289 0.0002676 0 
-0.00127991 0.000826462 0 
-0.00237829 -0.00236572 9.03644e-05 
1.60029e-06 1.32827e-05 -9.31839e-05 
-4.28478e-05 -0.000154967 0.000189757 
5.04808e-06 2.64023e-05 -0.00011592 
-0.000251699 -0.000664147 0.00735693 
-8.88059e-05 -3.86657e-05 5.10756e-05 
8.6115e-05 3.88466e-05 4.32368e-05 
1.04695e-05 6.27363e-06 0.000111625 
0.000271941 0.000139638 0.00716789 
-0.000176025 -0.000241147 9.26865e-05 
-3.31933e-05 -4.42593e-05 -0.000164689 
3.26184e-05 4.27311e-05 0.000276083 
-6.70632e-05 -0.000371404 0.00357666 
9.02289e-05 6.60598e-06 0.00026755 
-0.000530451 -3.88362e-05 6.48974e-05 
7.86974e-05 0.000359332 -0.000360808 
0.000133163 9.74936e-06 -8.6182e-05 
-0.0081816 0.000222333 0 
0.00506733 0.00548321 0 
-0.00137067 -0.00623187 0 
-0.0107883 0.00615145 0.00283627 
-2.3381e-05 -0.000126203 -7.82438e-05 
0.000132083 -2.51916e-05 0 
-6.75695e-05 4.4377e-05 0 
3.88879e-06 -7.76658e-05 0 
-0.00182192 0.000646624 0 
-0.00145185 0.00131013 0 
0.00212634 -3.56371e-05 0 
0.00445514 -0.00855946 -0.00129159 
8.16483e-05 0.000298483 -0.000172627 
-2.96601e-05 -0.000102979 0.000188375 
6.4656e-05 0.00024643 9.54049e-05 
-0.000291795 0.000670726 0.00718239 
0.00117672 -0.000749877 0.000820836 
0.00906621 -0.00814777 0.00732703 
-0.00264893 0.00186439 -0.00276135 
0.00221809 -0.00191945 0.00213491 
-0.000394182 -0.000145082 0 
0.000168514 0.000195326 0 
-3.93549e-05 -0.000148118 0 
-0.000305246 0.000761832 0.000434914 
1.47714e-05 6.72921e-06 0.00576486 
-4.42052e-06 -3.51458e-06 0.00601928 
-3.43111e-05 -1.68731e-05 0.0100538 
-9.84557e-05 7.14123e-05 0.00683624 
1.7434e-05 -7.23801e-05 -7.52538e-05 
-1.56888e-05 6.30986e-05 2.69617e-05 
1.84578e-07 1.21081e-06 3.87824e-05 
-0.000118819 0.0004601 0.00827807 
-0.00357095 -0.000658963 0 
0.000617118 0.00102826 0 
-0.00544077 -0.00299804 0 
0.0161162 0.000712238 -0.00140713 
4.75187e-06 -3.26784e-07 8.60918e-05 
1.87393e-05 -1.2887e-06 -2.67656e-05 
1.99654e-07 -1.37302e-08 5.41487e-06 
-4.44914e-05 6.45891e-05 0.0048238 
6.40213e-05 4.60024e-05 0.0167277 
-4.47588e-05 -5.16573e-06 0.0181956 
5.63863e-05 -4.96084e-05 0.0180107 
-0.000523619 -0.000204449 0.0174271 
-1.30962e-05 1.03199e-05 0.0140432 
-4.86519e-05 4.22156e-05 0.0117732 
-6.4267e-06 -6.21636e-06 0.0149207 
0.000233768 -6.06583e-05 0.0149428 
-1.23861e-05 -1.06591e-06 -7.4787e-05 
-1.56026e-05 -1.34271e-06 -1.98218e-05 
1.45653e-05 1.25344e-06 0.000116406 
-0.000198011 0.000134631 0.00907625 
-1.84847e-05 5.01741e-06 -4.98941e-05 
3.95214e-06 7.44497e-05 0.00761578 
-1.94727e-05 1.71783e-06 0.000122531 
2.04703e-05 -4.6583e-06 1.11799e-05 
0.00179553 0.000440092 0 
-0.00323577 -0.00112375 0 
-0.00320599 -0.000153419 0 
0.00841991 0.00531582 0.000923495 
-5.11138e-05 -0.000168543 0.000197398 
-0.000208683 -4.82664e-05 9.10915e-05 
0.000114419 -7.05695e-05 -0.000120416 
0.00028043 0.000124584 -0.000740577 
0.000187983 -0.000247892 0 
-0.00182278 0.000163014 0 
-0.00164368 0.000974791 0 
0.00253215 -0.000116836 4.27202e-05 
-1.3722e-05 -5.90245e-05 4.64735e-05 
8.78823e-05 7.4386e-06 0.00616726 
6.98232e-06 2.86816e-05 -3.80145e-05 
5.4466e-06 3.33153e-05 8.6571e-05 
4.2553e-05 2.60322e-05 8.13178e-06 
-3.73111e-05 5.40679e-05 0.000210837 
-9.65238e-05 -5.3997e-05 0.00651836 
-3.38563e-05 -2.64939e-06 0.00534278 
0.000166854 -8.72495e-05 0 
-0.000224527 3.20441e-05 0 
-0.000140813 6.65126e-05 0 
-0.000104123 2.71692e-06 -0.00017216 
0.00018478 7.67926e-05 0 
-5.79371e-05 -5.90537e-05 1.64285e-05 
-5.37249e-05 -7.84335e-05 0 
-1.331e-05 5.42137e-05 0 
3.01044e-05 -5.55852e-05 -0.000140227 
4.4783e-05 0.00017723 0 
6.48837e-05 9.21729e-05 0 
7.73044e-05 -0.000269858 0 
-0.000681707 4.86701e-05 -0.000204931 
0.000236035 -2.3363e-05 -0.000431143 
-0.000504459 4.86595e-05 0.000823332 
0.000468157 -0.000589889 0.00124767 
-1.86278e-05 4.11815e-06 2.89153e-05 
7.69886e-05 -1.79766e-05 -7.95395e-05 
-4.8385e-05 1.1022e-05 6.15118e-05 
-0.000297196 9.36306e-05 0.00882502 
0.000811683 0.00468991 0 
-0.000388503 0.00323103 0 
0.000343085 0.00148166 0 
-0.00149573 -0.00441166 -0.00535382 
-2.24264e-06 -6.80693e-06 -3.77582e-05 
-4.83069e-06 -3.28458e-05 0.000111811 
4.55238e-06 1.97762e-05 1.3354e-05 
-7.07102e-05 -3.80512e-05 0.00693879 
0.0151851 0.00274331 0 
-0.0177507 -0.00811537 0 
0.0256276 0.00754256 0 
0.0293743 -0.000916516 0.0482487 
4.40645e-05 4.50528e-05 3.73421e-05 
0.000252404 7.11809e-05 -5.31889e-05 
-0.000730659 0.00036368 -0.000547276 
0.0014757 0.00144914 0.00298231 
-0.00012668 -0.00032073 0 
-0.00110761 4.85826e-05 0 
0.000302652 0.000871874 0 
0.00253572 -0.000426761 6.887e-05 
-1.35595e-05 -1.18215e-06 9.05298e-05 
-3.11058e-05 -8.28668e-06 -6.16998e-05 
4.08028e-05 1.07023e-05 7.28313e-05 
-2.1404e-05 -7.05998e-05 0.00694348 
0.000129881 -0.000172432 -0.00070955 
-0.000182173 0.000249848 0.000160018 
1.66875e-05 -2.63164e-05 0.000343671 
3.74157e-05 0.00094483 0.00457437 
0.000651798 -0.000203058 0 
0.000858252 -0.00110098 0 
-0.000428966 -0.0007798 0 
-0.00239761 0.00428905 -9.58378e-05 
-0.000189105 0.000334534 -0.00105624 
8.09228e-05 -0.000151697 0.000289463 
-7.26103e-05 0.000138415 -0.000215961 
0.000403748 -0.00270121 0.00347632 
-2.89523e-05 0.000108372 2.86377e-06 
1.85089e-05 -7.49816e-05 0.000129612 
2.3119e-06 -1.06091e-05 4.48575e-05 
-0.000138185 0.000501951 0.00825464 
-1.21558e-05 5.11343e-05 0.0067123 
2.23504e-05 -5.02264e-06 0.0116362 
3.52569e-06 -2.98682e-05 0.0097499 
2.56485e-05 3.57992e-05 0.00912696 
-0.000434845 -0.000886868 0 
0.00189388 0.000855217 0 
0.0032247 -0.00052509 0 
-0.00269912 0.00525047 -0.00222242 
2.85296e-05 2.5943e-05 0.0110433 
4.62822e-05 -6.61113e-05 0.0124416 
-3.88226e-05 9.76486e-05 0.0141447 
-0.000419561 -0.000161657 0.0140333 
-4.57797e-06 6.65696e-05 -7.84987e-05 
8.26387e-06 -0.000120167 -3.72469e-05 
1.13639e-05 -0.000165245 0.000356622 
0.000446473 -0.000353462 0.000104869 
-7.0368e-05 5.49152e-05 0.0175622 
1.54471e-05 -2.26423e-05 0.0148904 
3.80262e-05 4.60194e-05 0.0152897 
-0.000332758 -3.34052e-06 0.0152944 
8.29134e-05 -6.4655e-05 0.0171877 
-2.04807e-05 1.15067e-05 0.0140885 
-3.8078e-05 -3.04987e-05 0.0149485 
0.000272829 -3.45384e-05 0.0148867 
3.69215e-05 -3.3099e-05 -1.29877e-05 
-4.64871e-05 5.80087e-05 0.0068745 
-4.89294e-06 2.78828e-05 0.00538073 
3.63929e-05 2.65478e-05 0.00013224 
-7.63234e-05 3.06089e-05 0.000255711 
-5.2333e-05 0.000602311 0.00827377 
-3.66391e-05 -8.00723e-05 -0.000120913 
8.86588e-05 0.00105127 0.00744557 
-0.0346196 0.00355922 0 
-0.0237571 0.000263965 0 
0.0315836 -0.00832206 0 
-0.0425203 -0.0094797 0.0827838 
3.59929e-05 0.000102978 -0.000266276 
2.05206e-05 1.94915e-05 0.000241672 
-1.92899e-06 -1.5266e-05 0.000112062 
8.28422e-06 0.00121135 0.00428997 
-0.00126929 -0.000615536 0 
0.000619534 -0.000424879 0 
0.00109443 -0.000797665 0 
-0.00250329 0.00284505 -0.000907141 
-0.000738469 -0.00118543 0 
-0.00155052 0.00171283 0 
0.00149289 0.00161755 0 
-0.000537159 -0.00229771 3.78303e-05 
0.000758327 -0.0153021 -0.0140492 
-0.0279296 0.00491674 0.01734 
-0.00524642 0.0075937 0.0018949 
-0.0236519 0.0173523 0.0582029 
-2.88503e-06 1.41789e-06 0.0141491 
-3.75259e-05 -3.99012e-05 0.0167722 
5.88244e-06 5.46807e-05 0.0137297 
-0.000415495 -5.58057e-05 0.0145295 
0.000194297 -8.62973e-05 0.00033184 
0.000286847 -0.000121091 -0.00014505 
-0.000134825 6.08881e-05 -0.000331378 
0.00141464 -0.000190279 0.000428875 
-6.01045e-05 3.36823e-05 0.00541264 
-6.94921e-06 2.63845e-05 -5.24636e-05 
-8.48806e-07 1.78639e-05 0.000154042 
6.52523e-06 -3.00742e-05 -8.81318e-06 
-3.93077e-05 -1.72131e-06 0.0182513 
4.2388e-05 2.66048e-05 0.0166672 
2.91412e-05 1.4968e-05 0.0165302 
-0.000518807 -0.000202243 0.0174996 
-4.94747e-05 -2.74014e-06 0.013856 
-1.76456e-05 2.85966e-05 0.0135571 
2.25211e-05 -0.000126822 0.0169097 
0.000115522 -0.00041623 0.0135261 
1.90951e-05 -0.000218872 -0.000228046 
9.91781e-06 -0.000199505 0.000400403 
-1.11491e-05 0.00021835 -0.000414308 
0.00122386 0.000618869 0.00398992 
5.22869e-05 3.50016e-05 8.30594e-06 
2.48512e-05 1.59954e-05 6.41177e-05 
-3.69077e-05 -2.57026e-05 8.77274e-05 
-0.000311613 -0.000102944 0.00824877 
-1.98571e-05 -2.69688e-05 0.000152516 
4.97165e-05 7.67913e-05 -0.000288857 
3.42823e-05 6.22529e-05 -0.000105867 
-0.00055997 -0.00157363 0.00487626 
1.13578e-05 -1.43282e-05 2.65866e-05 
-1.80938e-05 2.28311e-05 -4.21139e-05 
4.53667e-06 -5.89607e-06 2.69336e-06 
-6.83139e-05 0.000131863 0.00705495 
-8.35749e-05 -0.000255611 -0.00146824 
-4.55547e-05 -0.000202422 0.000462769 
0.000118608 0.00045635 0.000210131 
-0.000424422 0.00206254 0.00435882 
-5.70527e-05 5.12393e-05 0.014591 
1.71918e-05 -1.68972e-05 0.0163762 
3.1187e-05 -3.06447e-05 0.017263 
5.3246e-06 -0.000506851 0.0156901 
-5.94074e-05 -6.11719e-05 -1.66818e-05 
2.01731e-05 2.25155e-05 4.93268e-05 
-7.87387e-07 -9.27406e-06 -0.000212205 
-0.000204092 4.05638e-05 -7.80328e-05 
0.00207452 0.000737443 0 
0.000622382 -0.00149573 0 
-0.00170382 0.000508979 0 
0.00594989 0.00290845 0.000374058 
0.0165914 -0.0166443 0 
-0.0107034 0.0073204 0 
0.0127923 0.00182474 0 
0.0250002 -0.0217148 0.04029 
3.93098e-05 1.1816e-07 0.0106602 
5.53409e-06 -3.74504e-05 0.0053865 
-1.40934e-05 1.9364e-05 0.00717505 
7.92513e-05 -7.77287e-05 0.00739735 
2.69676e-05 0.00011436 -0.000232543 
-1.34301e-05 -3.8966e-05 -4.51661e-05 
3.88397e-07 -1.59667e-05 0.000154292 
0.000104759 0.000662843 0.00726313 
6.12186e-05 0.000247561 0 
-0.000141773 -0.000372818 0 
0.000102603 2.1512e-05 0 
7.50857e-05 8.46552e-05 4.32845e-05 
-0.000141487 -6.71998e-05 0 
0.000103075 -4.24213e-05 0 
-0.000105547 5.83258e-06 5.45404e-05 
3.39819e-05 0.00018291 0 
-0.000104928 5.02509e-05 0.0165943 
9.05618e-06 3.13199e-05 0.0142432 
4.22577e-05 -3.78288e-05 0.0124677 
-0.000458224 -0.000128136 0.0139234 
5.42535e-06 1.10075e-05 -0.000137306 
-7.36517e-05 -7.09024e-05 -0.000102976 
-7.82052e-06 -6.01094e-06 -4.89474e-05 
-6.15038e-05 -5.91749e-05 -0.000305231 
-0.000539602 -0.000160242 0 
0.000203098 0.000450032 0 
2.9414e-05 0.000180826 0 
3.50246e-05 0.000730912 8.4613e-05 
0.00148406 0.00168611 0 
-0.00130491 -0.000194141 0 
-0.000938778 -0.000801878 0 
-0.000795943 -0.000220322 -0.000403685 
-0.000558033 -0.000527489 0 
0.00131382 0.000701044 0 
-0.0016091 -0.00118547 0 
0.00472305 0.00336754 0.000158314 
0.000100458 4.96411e-05 0.00756497 
3.21966e-05 -1.23135e-05 0.00565172 
-4.04727e-05 -1.82166e-05 -6.29523e-06 
3.60097e-05 -5.51367e-05 0.000177226 
3.74077e-05 1.24602e-05 0.0135578 
-7.30276e-05 3.96277e-07 0.0138918 
6.84858e-05 7.60303e-05 0.00860825 
9.02405e-05 -0.000402663 0.0134668 
-0.00417788 -0.00322091 0 
-0.000593612 0.00455767 0 
-0.000216586 -0.00117383 0 
-0.00159936 0.00455844 0.0012696 
-1.79062e-05 4.34277e-05 -1.18905e-05 
1.49093e-05 -4.23481e-05 0.000101897 
4.24135e-06 -1.16355e-05 2.28704e-05 
-0.000154593 0.000197422 0.00803946 
1.81293e-05 -1.35674e-05 -4.3819e-05 
-3.32111e-05 2.6558e-05 2.33173e-05 
-2.01643e-05 1.07489e-06 0.00671568 
2.61107e-05 -2.37037e-05 7.6049e-05 
-0.000149879 -0.000152938 -0.000130669 
6.81911e-05 7.8e-05 0.000337807 
-7.41975e-05 -7.59555e-05 -7.27526e-05 
-0.000135676 0.000294633 -0.000242173 
0.000106511 -9.8913e-05 -0.000210237 
2.09125e-05 -3.41119e-05 0.000300423 
-0.000164049 -0.000274486 -0.000230816 
-2.08248e-05 3.37761e-05 -0.000294682 
0.00697792 -0.000217876 0 
-0.000698757 -0.00593333 0 
0.000926319 0.00642426 0 
0.000114839 0.0184989 0.00773505 
7.70575e-05 -3.67023e-05 0 
-0.000150133 -6.60389e-05 -8.33865e-05 
-0.000114686 -4.27293e-05 0 
-6.52923e-05 3.16023e-05 0 
9.39585e-05 -9.01811e-05 0.000113845 
-2.44922e-05 2.29883e-05 -0.00013388 
1.88941e-05 -1.76392e-05 0.000122281 
-4.32956e-05 0.000247336 0.006705 
-7.58805e-05 1.96279e-05 0.0126286 
0.000114477 -2.35409e-05 0.00709712 
-6.28449e-05 3.82818e-05 0.0110596 
2.75403e-05 1.28355e-05 0.0086761 
7.30329e-07 -0.000211177 0 
-5.10924e-05 6.26518e-06 0 
2.93036e-05 -0.000105287 0 
0.00107579 -0.000688369 0.000117688 
-0.0257544 -0.000822842 0.120363 
-0.0356013 -0.00471823 0.116488 
0.0439985 -0.000440607 0.216023 
-0.0415909 -0.00148179 -0.0286942 
1.40067e-05 5.1236e-05 3.11588e-05 
-8.12713e-06 -2.98523e-05 -1.58584e-05 
-3.54472e-05 -0.000140715 0.000119676 
0.000104058 0.000558231 0.00744105 
4.85542e-05 -9.81939e-05 0.000431813 
-0.000179718 0.000297837 -0.000457179 
-3.80448e-05 7.63893e-05 -0.000328767 
0.000434363 -0.00214768 0.00230608 
5.32211e-05 -2.25173e-05 0.00566035 
5.97375e-06 -2.31237e-05 -3.68562e-05 
3.27542e-06 -2.62046e-05 0.000127075 
-8.56708e-06 3.88882e-05 -9.49441e-06 
1.51083e-05 1.73382e-05 0.00600564 
2.45476e-05 -2.51397e-05 0.00527356 
-4.45724e-05 -2.62832e-05 0.0104447 
-0.000115666 0.000120645 0.00761771 
-2.17551e-05 -5.90222e-06 8.3417e-05 
-3.87451e-05 -9.07868e-06 5.28099e-06 
6.20406e-06 6.16233e-07 8.28949e-05 
-8.44328e-05 1.89152e-05 0.00880216 
7.36395e-05 2.03069e-05 0 
-0.000244377 0.000210433 0 
-2.98281e-05 -5.62865e-05 0 
-0.000508194 -0.0015957 0.000498852 
-7.07852e-05 0.000284953 -0.000717467 
-6.25706e-05 0.000285891 4.09838e-05 
3.24041e-05 -9.58423e-05 0.00101549 
0.00138822 0.000468065 0.00293246 
-0.00043353 -9.37375e-05 -0.000184887 
9.5873e-05 2.16878e-05 -1.55459e-05 
-0.00022946 -0.000486704 -0.000239101 
-0.000118848 -2.70598e-05 2.95705e-05 
-4.65847e-06 5.5867e-06 2.01972e-05 
4.60071e-06 -1.37332e-06 -8.15729e-05 
2.60779e-05 -4.49805e-05 9.07618e-05 
-9.82352e-05 0.000161333 0.00710476 
0.000280104 0.000142122 0.000247991 
-0.000222256 -0.000108297 -2.1231e-05 
6.15945e-05 1.86122e-06 -0.001099 
0.00122518 -0.000165316 0.00354431 
-5.71153e-05 0.00013076 6.15809e-05 
0.00017831 -0.000130319 -9.29467e-05 
-0.000102033 -0.00041403 0.000249363 
0.000381797 -0.000504801 -1.61429e-05 
-4.86424e-05 7.33472e-05 5.46227e-05 
1.23953e-05 -1.78013e-05 4.21641e-05 
2.05004e-05 -2.91746e-05 8.65546e-05 
0.000172294 -0.000206465 0.00770535 
-0.000526124 0.000117767 -0.000479621 
0.000163888 -3.06096e-05 0.000756808 
-0.000101082 1.92588e-05 -0.000428842 
0.00229806 0.000420981 0.00251336 
8.14623e-06 3.66794e-05 0.00540848 
-3.7685e-05 -9.16946e-06 3.27147e-05 
3.69893e-05 9.51511e-06 -5.6992e-05 
1.17777e-05 8.05614e-07 8.9321e-05 
-1.17522e-07 -8.60421e-09 0.000153567 
-0.000248997 -1.823e-05 -0.00043972 
-6.04004e-05 -4.42213e-06 -0.000296344 
0.000370011 0.00027816 0.000231563 
0.00353861 -0.000602843 0 
0.000664997 -0.000200605 0 
0.000128268 0.00067618 0 
-0.00512904 0.00419637 -0.00143154 
-1.08049e-05 3.87026e-06 -1.98141e-05 
-4.71468e-05 1.28224e-05 4.94628e-05 
4.40198e-05 -6.97342e-05 0.00859788 
3.07573e-05 -1.15222e-05 7.32909e-05 
1.15336e-05 1.95785e-06 5.83518e-05 
-4.09221e-05 -1.07661e-05 -6.23924e-05 
4.8457e-05 1.28549e-05 6.98474e-05 
-3.07098e-05 -4.25526e-05 0.00691556 
-0.0158215 0.00254192 0 
0.0272687 -0.00472748 0 
0.0124517 -0.00938628 0 
0.0203773 -0.0206966 0.0407628 
2.12978e-05 -8.56187e-06 0.0148 
3.93012e-05 -7.33342e-05 0.0125151 
-1.04178e-05 -3.09815e-06 0.0153066 
-0.000284275 3.6882e-05 0.0153745 
3.04503e-05 0.000291449 0.000303069 
-8.94005e-06 -0.000118525 0.000140557 
-3.21835e-05 -0.000352967 -7.40454e-06 
-0.00015382 0.000564129 0.00684351 
-6.70515e-05 0.000234907 -0.000335364 
5.44099e-05 -0.000189524 0.000291802 
-5.56001e-05 0.000184926 -0.000455266 
0.000487362 0.00109772 0.0075785 
6.09194e-06 3.3478e-06 -0.000228102 
-0.000151963 3.08067e-05 0.000166149 
0.000292641 -6.51761e-05 -3.72703e-05 
0.000338335 -0.000181498 -0.00017044 
-5.79493e-05 1.12698e-05 -8.10574e-05 
0.000107914 -2.47809e-05 -3.55632e-05 
-0.000254006 0.000121894 0.000224963 
2.64533e-05 -9.87634e-06 -0.000195601 
4.98475e-05 0.000147439 -0.000834628 
7.51251e-06 3.48409e-05 1.2518e-05 
-7.70349e-06 -1.7085e-05 0.000191455 
-0.0004514 2.19433e-05 7.85731e-05 
-1.79534e-05 -4.40461e-06 6.37951e-05 
2.00578e-05 5.33942e-06 2.25833e-05 
4.20243e-05 1.14289e-05 0.000101579 
0.000370259 0.000157808 0.00726656 
0.000173627 -0.00686204 0 
0.00145795 0.00121285 0 
0.00393931 0.000977044 0 
-0.00154791 -0.00980452 0.0104965 
9.57986e-06 -0.000130848 -0.000128857 
-6.9964e-05 -0.000105843 -0.00016333 
5.32591e-06 -7.27449e-05 0.000155385 
-6.17513e-06 8.4344e-05 2.51158e-05 
0.000177984 -0.000300761 5.76229e-05 
-0.00018157 0.000178578 -0.000107304 
-0.000334677 0.000557929 -9.79602e-05 
0.000501252 -0.00115663 0.000215082 
3.37137e-06 -8.6309e-05 0 
5.72042e-05 -3.29134e-05 0 
-6.02938e-05 0.000167939 -6.66357e-05 
-8.71142e-05 1.95538e-05 0 
5.46684e-06 1.34075e-05 0.000280339 
-4.88493e-07 -1.24143e-06 -2.54382e-05 
-4.16398e-05 0.000126049 -9.31867e-05 
1.80497e-06 0.000961538 0.00731372 
0.000185771 -0.000181499 -2.66613e-05 
0.000127455 -0.000125113 -9.11491e-05 
2.27192e-05 -1.90492e-05 0.000386108 
-0.000241391 0.000715119 0.00395611 
4.86342e-05 -0.000127034 0 
4.17795e-05 3.42875e-05 0 
-4.52333e-07 -3.7122e-07 0 
2.00737e-05 8.78896e-06 -0.000256879 
1.19467e-05 -1.03714e-05 0.00546688 
-4.15041e-05 5.42527e-05 8.7722e-05 
2.629e-05 -3.47153e-05 -6.3909e-05 
8.47363e-06 -9.776e-06 1.30911e-05 
-0.0384596 0.0107772 0.0830635 
0.0179465 -0.00833045 0.190619 
-0.0472874 -0.00659709 0.12036 
-0.0260379 0.000785874 0.00409065 
-0.000346643 0.000314176 0 
0.000332691 -7.83795e-05 0 
-7.97828e-05 0.000100394 0 
0.000201357 -0.000512361 -1.27475e-05 
1.08349e-05 0.000154425 -0.00011349 
-5.11036e-06 -7.2836e-05 0.000105357 
-4.26935e-05 -0.000105605 -0.000228015 
5.92521e-06 8.44496e-05 -7.92343e-06 
-0.000131077 0.000228829 -0.000321518 
4.83957e-05 -9.05419e-05 0 
0.000105531 -0.000197434 0 
-0.000151453 -5.16493e-05 0 
-0.00032254 -0.000196393 0 
0.000340756 7.84705e-05 0 
-5.71706e-05 -4.23056e-05 0 
-0.000363527 -0.00154362 0.000363575 
-1.96608e-05 -3.45814e-05 0.00563867 
2.59079e-05 5.13793e-05 5.70324e-05 
-1.32784e-06 4.08343e-08 4.95041e-05 
-1.09142e-05 -2.43936e-05 -7.79208e-05 
-3.70398e-05 -4.84638e-05 0 
0.000165275 8.83414e-05 0 
2.16891e-05 1.15931e-05 0 
-0.000176832 -9.98546e-05 -0.000184006 
0.0280922 -0.0110448 0.140701 
0.0319087 -0.014072 0.0876998 
-0.0427623 -0.0122256 0.211464 
0.0342895 0.0231016 0.0175762 
1.11534e-05 -4.24925e-05 6.91193e-05 
-2.01243e-05 2.92296e-05 0.00538633 
-1.22776e-05 3.86698e-05 2.17839e-05 
2.63456e-06 -3.91262e-06 -5.76222e-05 
1.99669e-05 -0.000138119 -0.000693939 
3.67439e-05 -0.000149799 -8.94305e-05 
-3.39395e-05 0.000133134 2.30788e-05 
-1.45509e-05 -0.00143089 0.00431551 
-2.96664e-05 -7.82979e-05 -0.000161972 
-0.000124714 -0.000282195 8.35877e-05 
0.000178434 0.000379875 -0.000508297 
1.92354e-05 -0.000885969 0.00085895 
-2.05279e-06 -3.98577e-05 0.00547212 
-5.70754e-05 5.20925e-05 0.0111169 
4.55838e-05 -2.96123e-05 0.00711343 
6.55003e-05 -3.29762e-06 0.00858131 
8.17527e-05 8.14749e-05 -0.000504768 
-0.000277603 -0.000267867 -5.05145e-05 
-7.04632e-05 -6.95923e-05 0.000308347 
-0.000365405 0.00012873 0.0040363 
7.84064e-05 7.90048e-05 0 
-5.13314e-05 -6.60359e-05 0 
-6.18194e-05 -7.72892e-05 0 
-2.28686e-05 5.65471e-05 8.68905e-05 
0.000163332 -0.00340888 0 
0.00242873 0.00062744 0 
0.00289161 -0.00230352 0 
-0.00810997 0.00762917 -0.00267504 
-1.2073e-07 5.36792e-06 -0.000187341 
-3.72862e-05 -1.99299e-05 0 
7.46194e-05 3.98849e-05 0 
-0.000102399 0.000234156 0 
-1.58891e-05 6.36229e-06 -7.81481e-05 
-4.12502e-06 3.3146e-06 4.07035e-05 
4.8214e-05 -2.40107e-05 6.45617e-05 
-3.36092e-05 1.74641e-05 0.00582666 
-4.96669e-06 -3.10897e-05 6.42227e-05 
4.17949e-06 5.1214e-05 2.91555e-05 
-6.14716e-08 -6.52721e-06 -1.96046e-05 
-4.79784e-05 -1.91296e-05 0.00718491 
9.62183e-06 4.7405e-06 -9.16727e-05 
-3.053e-05 -2.36277e-05 4.14692e-05 
2.37252e-05 2.1716e-05 6.52197e-05 
8.35314e-06 -1.05708e-05 0.00551249 
-4.23092e-05 7.9751e-05 0 
7.92929e-06 -9.66187e-06 0 
4.80487e-05 -5.85475e-05 0 
-6.11507e-05 7.80153e-05 -9.60932e-05 
-4.79548e-05 -4.96453e-05 0.00533294 
-1.8059e-05 -1.57767e-05 2.77713e-05 
4.69396e-05 3.6189e-05 6.77795e-05 
5.08294e-06 6.27499e-06 -6.11029e-05 
-9.37049e-07 -0.000140039 0 
-6.3247e-06 -2.08497e-05 0 
-3.13855e-05 -0.000103464 0 
8.60507e-05 0.000271964 -0.000141351 
-3.04532e-05 -7.66083e-05 -7.0331e-05 
-9.24518e-05 -0.000218583 0.000342693 
-3.10523e-05 -8.46048e-05 -0.000329718 
3.89883e-05 0.00193196 0.00363934 
0.000336319 -0.000233489 0 
0.00033823 -6.8998e-05 0 
-0.00035155 0.000305864 0 
0.000155682 -0.000472872 0.000406691 
0.0350601 -0.00811386 0 
-0.0357626 -0.0020926 0 
-0.0390144 0.00791058 0 
-0.0311155 -0.00102575 0.0956254 
1.9258e-05 4.31216e-06 4.36515e-05 
-8.1277e-05 -1.96044e-05 -7.10504e-05 
2.66109e-05 6.47134e-06 1.90224e-05 
0.000271121 0.000104392 0.00731922 
-2.32741e-06 2.75466e-07 3.7169e-05 
2.3821e-05 5.37532e-06 -7.00873e-05 
-4.37907e-05 -1.1253e-05 7.69071e-05 
3.43134e-05 3.11107e-05 0.00535686 
-0.000218452 9.67031e-06 8.61282e-05 
-7.44445e-05 0.000515381 0 
-0.00013209 -4.15485e-07 0 
0.000595789 0.000100781 0 
-3.19592e-05 6.32665e-05 4.66545e-05 
2.68342e-06 -8.22029e-06 -4.29606e-05 
4.93122e-05 -3.88962e-05 0.00728051 
1.9743e-05 -3.25092e-05 5.94401e-05 
8.9557e-05 2.71668e-05 0 
7.34903e-05 2.2293e-05 0 
-0.000244371 -0.00017458 0 
-2.30538e-05 -1.11578e-05 -0.000139237 
3.47874e-05 -3.1694e-05 0.00563232 
-8.16206e-06 3.15884e-05 5.37829e-05 
-5.16555e-06 1.21595e-05 -5.59347e-05 
7.3452e-06 -1.95962e-05 5.30469e-05 
1.1913e-05 3.14969e-05 0.000240446 
-4.52285e-06 -6.18689e-06 -0.000154532 
0.000489253 -0.000168252 5.40104e-05 
-2.16152e-05 -3.41195e-05 -0.000688646 
3.10289e-05 -6.33979e-05 7.95738e-05 
-3.66278e-06 9.28595e-06 -3.62133e-05 
-2.98889e-05 6.4106e-06 0.00604868 
-2.10995e-05 3.8158e-05 1.95908e-05 
-0.000146027 -0.000274253 1.57015e-05 
9.40031e-05 0.000175867 0 
6.18484e-05 0.00011571 0 
-2.95988e-05 -0.000197376 0 
-1.04328e-06 2.81592e-05 6.37216e-05 
6.92569e-05 -6.83331e-06 0.00765388 
3.08201e-06 -1.63644e-05 5.41496e-05 
-7.27566e-07 2.83945e-06 -1.64963e-05 
2.86364e-05 9.44015e-05 0 
2.90628e-05 9.58074e-05 0 
-5.93129e-05 -0.000171423 -0.000291053 
-0.000139632 0.000183333 0 
0.000219982 -7.13276e-05 -0.000174081 
-0.000260277 7.89542e-05 0 
-0.00015722 4.76923e-05 0 
0.000432644 -0.000184336 0 
-9.25482e-06 -3.14382e-05 -1.76268e-05 
4.9594e-05 0.000174579 0.000164648 
2.86749e-06 5.68638e-06 -4.11123e-05 
0.000119953 0.000402403 0.00727712 
2.33215e-05 -2.34903e-05 4.93158e-05 
2.7882e-05 -2.94721e-05 -0.000108636 
7.63145e-05 -7.73633e-05 0.000101446 
-0.000141364 7.6262e-05 0.00624947 
-4.25857e-05 -0.000128017 0.000395962 
-5.19405e-05 -0.000131951 0.000123385 
-4.8052e-05 -0.000102981 -0.000169661 
0.000254068 -0.00103427 0.000874537 
-1.7088e-05 4.69706e-05 0.00692527 
3.91392e-05 5.41505e-06 5.74611e-05 
-2.28096e-05 -1.07184e-06 4.32644e-05 
-7.40067e-06 -1.22456e-06 -1.82551e-05 
-4.60227e-05 -3.42545e-05 -0.000117503 
4.34468e-05 3.56559e-05 0 
-1.58586e-05 -1.30148e-05 0 
-9.09211e-05 -4.75134e-05 0 
-1.93411e-05 -3.62621e-05 1.518e-06 
1.42519e-06 7.76349e-06 -9.99308e-05 
1.57596e-05 2.40995e-05 0.000105565 
-1.21244e-05 2.40527e-05 0.00472361 
-3.39911e-05 -7.04546e-05 -2.34913e-05 
3.69746e-05 8.349e-05 0.000131214 
3.5261e-05 7.41783e-05 4.12031e-05 
-0.000326227 -0.000781398 0.00697105 
0.0018527 0.00131168 0 
-0.000481375 -4.89481e-05 0 
0.00216883 0.00146326 0 
-0.00595462 -0.000407557 0.000528475 
0.000102233 -0.000178422 -0.000236714 
-3.95862e-05 7.40606e-05 0 
-4.53651e-05 8.4872e-05 0 
0.000185292 4.53193e-05 0 
-2.54792e-06 -1.02837e-07 -2.72719e-05 
6.05699e-05 -1.57816e-05 8.07198e-05 
-3.99984e-05 4.91221e-05 0.00753281 
-3.46695e-05 1.15005e-05 3.06301e-05 
-0.000106637 3.71692e-05 0 
5.94792e-05 -1.80428e-05 0 
9.09258e-05 -2.7582e-05 0 
-8.4892e-05 2.67548e-05 -3.99248e-05 
-0.00296038 -0.000331007 0 
-0.00148373 -0.000534001 0 
-0.00384842 0.000978938 0 
0.0054078 0.00143046 -0.00400333 
3.68347e-05 6.16667e-05 -0.000107836 
-4.35441e-05 -8.14653e-05 0 
-1.02475e-05 -1.91718e-05 0 
6.29523e-05 6.56994e-06 0 
7.22182e-06 1.39654e-06 -2.52377e-05 
2.73591e-05 1.44197e-06 4.61357e-05 
-3.85765e-05 -5.17642e-06 5.07136e-05 
1.13298e-05 -4.4558e-05 0.00664426 
5.02548e-05 -0.000187573 0.000289386 
-1.94456e-05 7.04623e-05 -8.76546e-05 
4.65148e-06 7.85103e-06 -0.000262838 
-2.88837e-05 0.00130784 0.0073125 
-4.14485e-06 -5.58668e-06 -9.72338e-06 
-3.8105e-05 1.57032e-05 0.00706429 
-4.32146e-05 -4.97709e-05 5.23426e-05 
4.60872e-05 5.86677e-05 4.55249e-05 
-7.98825e-06 8.11061e-05 0 
-2.75536e-05 0.000279757 0 
0.000194123 -0.000265378 0 
2.38453e-05 -0.000236482 -2.21252e-05 
-0.000513869 -4.96043e-05 4.02423e-05 
0.000271621 2.67524e-05 0 
0.000361136 3.55687e-05 0 
-0.000455791 4.91013e-05 0 
5.09906e-05 -3.50101e-05 0.00559692 
1.83549e-05 -7.68496e-06 -7.33136e-05 
-4.68684e-05 2.33931e-05 5.71956e-05 
6.56361e-06 -4.8893e-06 4.76238e-05 
2.38162e-06 -1.86351e-05 -1.99887e-05 
-6.74209e-05 2.2751e-05 0.00665548 
7.23223e-07 -2.34817e-05 5.81671e-05 
-3.13356e-06 1.66621e-05 5.46163e-05 
3.25171e-05 3.90983e-05 9.50158e-06 
-2.47926e-06 -2.89316e-05 0.0067576 
-4.22529e-05 -5.63158e-05 8.76012e-05 
2.6515e-05 3.47637e-05 -4.45217e-05 
5.627e-05 -4.3974e-05 4.87377e-05 
-5.18999e-05 4.44462e-05 4.09485e-05 
1.89331e-05 3.51396e-05 0.00648375 
-1.11845e-06 3.84917e-07 -1.17773e-05 
6.66164e-05 0.000115165 0 
-3.26014e-06 -3.31007e-05 0 
-1.71877e-05 -0.00017451 0 
1.51229e-05 0.000108962 -0.000160688 
-0.000112843 5.78263e-05 0 
0.000119605 -9.81571e-05 0 
-6.40827e-05 5.25913e-05 0 
2.315e-06 -1.06903e-05 -0.000255343 
1.70169e-05 6.45458e-05 7.98118e-05 
-2.95117e-06 -1.43397e-05 -4.35589e-05 
-8.05775e-06 -2.33982e-05 2.98951e-05 
-4.57437e-05 -6.25719e-05 0.00688543 
0.000217268 -0.000116132 0 
-2.03677e-05 1.08868e-05 0 
0.000139567 0.000329034 0 
-0.00024095 0.000134377 -0.000155543 
0.000136124 3.38415e-05 0.000201618 
4.07501e-05 1.1439e-05 0.000137402 
-0.000124131 -3.16451e-05 -0.000230092 
8.08358e-05 -2.32464e-05 -0.000137356 
-6.23031e-05 -3.15691e-05 4.3517e-05 
4.60035e-06 1.38934e-06 -2.6865e-05 
-3.93602e-08 3.44928e-05 0.00616 
5.11262e-05 2.92146e-05 4.73972e-05 
-0.000179441 4.00318e-05 0 
0.000171741 0.000136945 0 
0.000317736 -7.02779e-05 0 
0.000107083 -0.00017648 -0.000188912 
3.05027e-05 3.71676e-05 0 
5.35278e-05 6.52238e-05 0 
-0.000107471 -0.000129403 -3.24822e-05 
-0.00011218 -5.35825e-05 0 
7.57845e-05 0.000118724 0 
-1.1612e-05 3.82797e-05 0 
-1.1889e-05 3.91927e-05 0 
2.25097e-05 -6.16155e-05 -0.00012768 
9.65018e-07 1.97527e-05 -3.30603e-05 
4.09757e-06 2.65054e-05 5.01412e-05 
-3.65042e-06 -5.0179e-05 4.35581e-05 
3.54912e-05 1.0835e-05 0.00575785 
0.000104841 4.03509e-05 -0.000307629 
0.000222494 -0.000127717 0 
-0.000114974 0.000140967 0 
0.0001544 -0.000106343 0 
-1.7241e-05 -8.63868e-06 -1.44882e-05 
8.03445e-05 4.1167e-05 4.46593e-05 
-5.66647e-05 -3.20532e-05 4.43391e-05 
-7.49661e-06 -4.22191e-05 0.00626012 
0.00450393 -0.0111737 0 
-0.00299127 0.00787773 0 
0.0049397 0.00721094 0 
0.00791025 -0.0189361 0.0111864 
-2.02328e-05 -4.15045e-06 -6.64373e-05 
-4.27335e-05 -1.29631e-05 0 
-4.20837e-05 -1.2766e-05 0 
0.000223698 0.000106662 0 
6.48394e-05 4.00049e-05 0.006094 
9.54488e-06 3.02997e-05 1.10103e-05 
-5.25092e-06 -1.41908e-05 -2.94656e-05 
-1.18377e-05 -4.85746e-05 9.02229e-05 
4.44321e-05 5.41406e-05 0 
3.98679e-06 4.85791e-06 0 
-9.46045e-05 -0.000117382 -4.40889e-05 
3.94439e-05 -7.45663e-05 0 
6.47998e-05 -5.31798e-05 0 
0.000122128 -0.000100228 0 
-0.000149584 6.75924e-05 0 
-0.000142533 0.000117363 -9.92785e-06 
-3.27768e-05 1.22723e-05 0.00580258 
4.0699e-05 -5.37481e-05 8.70088e-05 
-4.4378e-07 2.1388e-06 -3.3455e-05 
-2.97969e-05 3.61997e-05 2.25787e-06 
1.55399e-05 -2.32495e-06 -2.92578e-05 
8.76475e-05 -8.63253e-06 0 
1.84952e-05 -1.82162e-06 0 
-0.000120341 -5.93263e-05 0 
1.76993e-05 -8.05609e-05 -1.29086e-05 
-8.01898e-05 0.000329691 0.00043349 
-3.75661e-05 0.000455202 0.000102256 
-1.17895e-05 9.64801e-05 -0.000446212 
1.66192e-06 3.72943e-07 -2.14383e-05 
-2.32989e-05 1.81594e-06 1.91281e-05 
3.41544e-06 -4.24876e-05 0.00581911 
2.1921e-05 -3.84846e-06 6.7493e-05 
2.10417e-05 2.07243e-06 0 
-0.000155044 -1.52705e-05 0 
0.000119048 1.47176e-05 -0.000119548 
-5.09465e-05 -1.54371e-05 0 
-6.66962e-05 0.000105535 -6.88825e-06 
-1.21027e-05 5.23817e-05 -2.34085e-05 
-1.6094e-05 4.79667e-05 -0.000316585 
9.3146e-06 -1.84103e-05 0.000306295 
-1.49451e-05 -0.000132308 -7.00384e-05 
2.47057e-06 2.50842e-05 0 
4.69754e-06 4.76949e-05 0 
-8.75958e-05 -0.000116566 0 
1.0827e-05 -1.12943e-05 -0.000138323 
4.15735e-05 -2.22215e-05 0 
-1.83518e-06 9.80927e-07 0 
-0.000157509 -0.000127496 0 
7.60375e-05 -7.48904e-06 0 
7.09642e-05 -6.98936e-06 0 
-7.76557e-05 9.59561e-05 0 
-5.69736e-05 8.26096e-06 -9.69581e-05 
-5.80827e-07 3.12742e-05 0.00484628 
6.7555e-06 -1.84438e-06 -3.97559e-05 
3.13653e-05 -1.999e-06 3.67613e-05 
-3.65289e-05 5.02475e-06 4.81166e-05 
-1.96312e-05 0.000221457 7.35222e-05 
-1.21676e-05 0.00012354 0 
8.35554e-06 -8.48353e-05 0 
0.000214978 -0.000292838 0 
-5.5297e-05 6.73795e-05 0 
-0.000115589 0.000140846 0 
8.21259e-05 -9.55724e-05 0 
0.000164412 -0.000203838 -6.34887e-05 
5.22042e-05 -0.000172094 0 
2.33898e-05 -7.7106e-05 0 
-5.45287e-05 0.000202671 0.000216461 
-3.67472e-05 0.000401758 0 
-0.000322064 -0.0011773 0.00880565 
0.000251793 -0.000215797 0.000324331 
0.000120477 7.63198e-05 1.61035e-05 
0.00027393 -0.000364808 0.0103907 
0.000123901 -0.0011612 0.00844591 
-4.31925e-05 9.3382e-05 0.000124979 
8.40704e-05 -0.000188481 0.000425994 
7.49792e-06 -1.18103e-05 -0.000459853 
-0.00578129 0.00116807 0.00229432 
-0.00267748 0.00263491 0.00904029 
-0.000540393 0.00435576 0.00280473 
-0.00435976 0.00461538 0.00870629 
-0.00482939 0.00165572 0.00279156 
-0.000423717 0.00409459 0.00230242 
-0.00376607 0.00224949 0.00877396 
-0.00303586 0.000391154 0.00207311 
0.000393298 0.000821521 0.00808622 
-0.000180594 0.000508815 0.0124499 
0.000177412 -0.000700249 0.000461486 
-0.000106495 0.000657492 0.00834222 
0.000355047 0.00115862 0.00770463 
-0.000647668 -0.00010569 0.000154668 
-0.000392622 0.000105974 0.0130305 
0.00278637 0.000120266 0.0110068 
0.000168442 -3.77367e-05 0.00914341 
0.000235983 9.10548e-05 0.00701184 
0.00079046 -0.000471882 0.0150116 
0.00163746 -0.000353396 0.00742841 
0.000829179 -0.000327789 0.0150561 
2.60555e-05 0.000287885 0.00717311 
0.000581329 -0.000364609 0.008851 
0.000153945 -2.50654e-05 0.00930908 
-1.71708e-07 -0.000159481 0.0111395 
-0.000238502 0.000126593 0.00810798 
-0.000155175 0.000173475 0.0151718 
-3.62296e-05 -7.1745e-05 0.0102642 
-0.00049947 5.46985e-05 0.0151563 
-8.86439e-05 0.000251223 0.00805682 
5.62835e-06 -1.54578e-06 0.0110159 
-0.000415386 1.50892e-05 0.0115894 
-0.00135701 -0.00150438 0 
-0.00554123 -0.00189878 0.00191888 
0.00183572 -0.000320701 0 
0.00237424 0.000300545 0 
-0.00100907 -0.00389452 0.000198164 
0.00509059 0.000713183 0.00831625 
-0.00666142 -0.00510435 -0.0016659 
-0.00310649 -0.00205117 0.00131519 
-0.000153727 -0.000387969 0.00954112 
6.45847e-06 7.91681e-05 0.00036457 
-1.21026e-06 -1.48354e-05 0.000187165 
-2.63111e-06 -3.22522e-05 -0.000103635 
-0.000227196 -0.000441787 0.00933793 
-5.36663e-05 -5.3261e-05 0.000333909 
-4.55522e-05 4.10689e-05 0.000591913 
0.00014129 -2.60845e-05 0.0120646 
-0.000124763 -0.000120949 0.00833997 
7.58277e-05 2.38932e-05 0.000198194 
-6.86333e-05 -0.000155522 2.8118e-05 
-0.000412855 7.6917e-05 0.0097391 
-0.000264644 -0.00012088 0.00829312 
-2.83867e-05 -2.79345e-05 -9.59804e-05 
6.16262e-05 6.0613e-05 0.000153856 
1.7905e-05 1.76512e-05 0.000114893 
-0.000586132 0.000125136 0.0150162 
4.31602e-05 -3.01207e-05 0.0109429 
-0.000518134 -0.000111195 0.0142115 
-0.000427321 2.31201e-05 0.0116857 
-0.000460512 -8.34479e-05 0.0150997 
-0.000542427 6.00343e-05 0.01424 
0.000128133 -6.38563e-06 0.0110555 
5.12268e-05 -7.52261e-05 0.0139805 
0.000218712 4.19089e-06 0.0152224 
-1.2523e-05 -8.95517e-06 0.0115745 
2.55345e-05 -4.71813e-05 0.0158477 
-1.76745e-05 -1.20959e-05 0.0139853 
0.000389725 -6.66686e-05 0.0152315 
5.66482e-05 -3.31395e-05 0.0158289 
-0.000228472 0.000112112 0.0115391 
0.000712612 3.19034e-05 0.0140224 
0.000756501 -0.00118818 0.0143815 
0.000751271 0.000363142 0.0155913 
0.000254216 -0.000438546 0.0102659 
0.00013996 -0.000273664 0.0119743 
0.00104182 -0.000841969 0.0149621 
-0.00018289 -0.000422836 0.010496 
0.00062741 -5.12317e-05 0.0147979 
0.00112791 -0.000481752 0.0161389 
0.0109095 -0.00553534 0.00275089 
-0.00502678 -0.00488056 -0.0111491 
0.0220462 0.0154462 0.0332565 
-0.0010783 -0.00244223 -0.000919407 
0.0112058 0.000178629 0.00902235 
0.0202719 0.00157289 0.0214808 
-0.00418292 0.00149707 -0.00582809 
0.00536784 0.00026764 -0.000215614 
1.50929e-05 -7.03917e-05 0.000102845 
-7.31391e-06 0.000338798 0.00822435 
-5.7287e-06 2.4301e-05 5.314e-06 
2.49952e-06 -1.22054e-05 2.70855e-05 
2.03363e-05 -6.10659e-05 3.78558e-05 
-0.00019022 0.000505189 0.00802644 
0.000228399 -0.000250294 0.000332656 
-0.000210036 0.000295239 0.00807111 
0.000272331 -2.1131e-05 0.0151934 
1.44661e-05 -7.2151e-06 0.0115753 
-0.000114172 3.09935e-05 0.00987017 
0.000353724 0.000283995 0.012719 
0.000156199 -3.63743e-05 0.0152885 
-7.82593e-05 5.03162e-05 0.00984182 
2.83118e-05 2.16032e-05 0.0115659 
-7.20128e-06 -7.20104e-06 0.013958 
2.10184e-05 -2.57075e-05 0.00677789 
-4.87902e-05 -7.75558e-05 0.000149685 
-1.19714e-05 8.55479e-06 -2.85653e-05 
1.00451e-05 -9.61289e-06 0.00521591 
3.96799e-06 1.72615e-06 -5.33913e-05 
-6.15035e-05 -5.55465e-05 0.000157904 
2.12604e-05 -3.92371e-05 0.0067869 
3.61758e-05 3.53786e-05 -2.99245e-05 
-0.00232503 -0.00905262 0.0199356 
0.017791 -0.000548611 -0.00907143 
0.0102958 -0.0369723 0.0022758 
-0.0159678 -0.0329594 0.0637656 
0.0257552 -0.0275626 0.00780055 
-0.00607855 -0.00969373 0 
0.00119165 0.00704793 0 
-0.00613056 0.00192836 0 
-0.000446073 0.000828592 0 
0.0328935 0.00648621 0.00992777 
0.00909979 -0.00299608 0 
-0.00920917 7.65149e-05 0 
0.0645472 0.00946547 0.0487114 
-0.028379 -0.00513537 -0.0436596 
0.0677338 0.0107149 0.0592863 
-0.0318976 0.00551225 0.108498 
-0.0019188 -0.00294024 0.00780999 
5.53229e-05 -0.00187298 0.00729813 
-0.00126356 -0.0052597 0.0150046 
-0.000658225 -0.000449597 0.0115453 
-0.00205913 -0.00333163 0.00811516 
-0.00184492 -0.00608325 0.0156737 
7.96328e-05 -0.00124217 0.00682526 
-0.00180705 -0.00263109 0.00293061 
0.00101046 -0.000173562 0.000325553 
-0.00182771 -0.00174892 0.00604023 
-0.00126032 -0.00233909 0.00476986 
0.000424237 -4.12453e-05 -0.000193579 
-0.00116836 -0.00254302 0.0047425 
-0.00241331 -0.00327659 0.00725782 
0.00155105 0.000899135 -0.000673839 
0.000635365 -0.00155814 0.00784464 
4.79103e-05 -1.72353e-05 0.00738099 
4.74054e-05 -6.81382e-05 0.00018856 
-2.33106e-05 2.68274e-06 -4.91979e-05 
4.90107e-05 3.01326e-05 0.0055612 
5.00315e-07 1.80438e-06 -4.8248e-05 
2.16191e-05 -6.05687e-05 0.000171327 
8.44214e-05 -1.34947e-06 0.00734026 
-9.72298e-06 2.22505e-05 4.20738e-06 
0.050939 0.0427155 0.0676029 
-0.0393559 0.00874245 0.0566607 
-0.000624016 -0.0119186 -0.0328967 
0.024083 0.0440964 0.0436114 
0.00442675 0.0238877 -0.000806342 
0.00608593 0.0127122 0.0375992 
0.029017 0.00987041 0.0468797 
0.0009096 -0.0116432 0.0241142 
0.00102302 -0.00183723 0.00593695 
-0.000370775 0.000217403 8.96315e-05 
0.000965099 -0.00210281 0.0110987 
-0.000315785 0.000262854 -0.000229239 
0.000687692 -0.00284187 0.00546709 
0.000240238 -0.00157085 0.0119805 
0.00090734 0.00143596 4.8254e-05 
0.00247786 -0.00418223 0.0113342 
-0.000657117 -0.00349509 0.0120499 
-0.00250609 0.00433346 0.00717143 
-0.0026076 -0.00251694 0.0204889 
-0.00576829 -0.00111148 0.0141856 
-0.00215583 -0.000118394 0.0193994 
-0.001906 0.000600497 0.00874727 
-0.000604425 -0.00211188 0.0114407 
-8.00572e-05 0.000843415 0.010732 
0.00127199 -0.00175736 0.0152481 
0.000859602 -0.000289595 0.0190026 
-0.0016492 -0.00175231 0.0111282 
0.00161805 -0.000532686 0.0164567 
-0.00147152 -0.000937246 0.010779 
0.000109459 -0.00106476 0.0194284 
0.00193532 -0.00170125 0.0151191 
-0.00103644 -0.0040052 0.0172829 
0.000322912 -8.39926e-05 0.00763815 
0.000236442 -0.000126932 -0.000945663 
0.00024719 0.000496683 0.000491748 
0.00140349 -0.000435585 0.00782303 
0.000413085 3.21502e-05 0.00760335 
0.000329152 0.000225935 0.000262718 
8.41149e-06 6.07666e-06 -0.000633834 
-1.71565e-05 -1.17975e-05 3.07718e-05 
0.00226575 0.000313987 0.0155461 
0.00143087 -0.00109177 0.0164345 
0.000663262 -0.000247882 0.0178117 
0.00067629 -0.00049873 0.0168619 
0.000388885 -0.000209663 0.0181495 
0.0013341 -0.000960013 0.0165559 
0.0025031 0.000155498 0.0152514 
0.00265925 -0.000136041 0.0162026 
-0.00201854 -0.000608667 0.00721386 
8.60273e-05 0.00180915 0.0128631 
-0.000893088 0.00070017 0.00435017 
-0.00281699 0.000860719 0.0081855 
-0.00097872 0.000737043 0.00433401 
-0.000611722 0.00134343 0.0125886 
-0.00167006 -0.00026643 0.0073714 
-0.000207275 0.000308074 0.009625 
-8.12285e-05 0.000106261 0 
-0.000199179 6.17194e-05 0.000395502 
-7.16757e-05 -5.9654e-06 0 
9.67371e-05 2.40749e-05 0 
9.56433e-05 -5.46246e-05 -0.00018937 
-0.000545736 0.000153316 0.000785613 
0.000164929 0.000287119 -0.000220381 
-0.00180199 0.000283738 0.00136994 
0.00372795 0.00218997 0.00999074 
0.00688252 -0.000270962 0.0168152 
0.00180701 0.000508581 0.0156166 
0.00488488 0.000451827 0.00929714 
0.00188954 0.00016537 0.014768 
0.00618645 0.000326653 0.0170433 
0.00361538 0.00215553 0.00963219 
0.00426656 0.00130323 0.0164645 
-7.33707e-06 -2.98789e-05 -1.58038e-05 
-2.05308e-06 0.000348008 0.00750403 
5.48521e-06 2.99911e-05 9.44145e-05 
-3.6545e-06 -1.58734e-05 -1.85684e-05 
2.10327e-05 4.74545e-05 0.00010057 
-8.1828e-05 0.000358456 0.00760596 
-1.00349e-05 1.34996e-05 4.50541e-05 
9.30483e-05 5.27155e-05 0.00913732 
-0.00487316 -0.0155787 -0.0148743 
0.0334161 0.016583 0.0701344 
-0.00450513 0.00116836 0.00140233 
0.0357752 0.00139887 0.0164409 
0.00406902 0.00061321 0.00339707 
0.00217361 0.00762752 0.00343638 
0.030349 0.000348131 0.0418532 
0.00408023 -0.00300209 0.00438611 
0.00170809 0.00535663 0.00404962 
-0.0025107 0.0041709 0.00121924 
0.00412429 -0.00349478 -0.000811574 
0.00152148 -0.00194973 0.000356126 
0.00222076 -0.00326608 -0.00264317 
0.000807523 0.00269174 0.00553071 
0.0014036 0.0069169 0.00217918 
0.00438275 0.00366 0.0110609 
-0.00379984 0.00308351 0.0129953 
0.000203734 0.00374872 0.0103925 
-0.000309939 0.00192215 0.0158862 
-0.00243745 0.00216529 0.00816249 
-0.00227574 0.00281164 0.0126228 
-0.000633422 0.00181774 0.0151264 
-0.000344189 0.00385298 0.0105602 
-0.000916262 0.00470142 0.0155733 
0.00427225 0.00583159 0.0155444 
-0.000467702 -3.50441e-05 0.0130755 
-0.0121497 -0.000710957 0.0164055 
-0.00192796 0.00373363 0.019221 
-0.00970503 0.000645873 0.0129033 
-0.00227911 -0.00122186 0.01523 
0.0025296 0.00421115 0.016455 
0.00251942 0.00487569 0.0103939 
-0.00853041 0.00388685 0.0230146 
-0.00364904 0.0148296 0.0301586 
0.000312238 0.0016338 0.00885278 
-7.57247e-05 0.00129442 0.0194976 
0.000424516 0.00231008 0.0097046 
-0.0035323 0.0156275 0.0311709 
-0.0072783 0.00266192 0.0208038 
0.000895582 0.00403499 0.0047636 
-5.26477e-05 0.000107733 0.00888269 
-0.000110015 -0.000231089 0.0158611 
-5.33413e-05 0.000136122 0.0111278 
1.86868e-05 -7.23765e-05 0.0124019 
4.065e-05 -7.66592e-05 0.00882814 
3.31243e-05 -1.68491e-05 0.0110646 
-0.000231461 8.37107e-05 0.0158791 
-6.32854e-05 0.000137165 0.0134472 
-7.72252e-05 1.30772e-05 0.0152978 
8.02847e-05 -1.37124e-08 0.0113774 
-0.000259376 -7.19763e-05 0.0155776 
3.73438e-05 -3.05319e-06 0.0123792 
-7.1339e-05 7.79988e-06 0.0152905 
-0.000286099 0.000193318 0.0154399 
8.30155e-05 -0.000183837 0.0115022 
-7.02418e-05 0.000206493 0.0133609 
-0.00187028 -0.00407128 0.0188426 
0.00435374 -0.0077314 0.0122653 
0.00158679 -0.00182236 0.00415696 
-0.0022313 -0.00449542 0.0102421 
1.90459e-05 -0.00103784 0.0033267 
0.0039349 -0.00756341 0.0115537 
-0.0011667 -0.00440586 0.0194213 
0.00275972 -0.00473625 0.0133736 
-2.67231e-05 -0.000270612 7.66135e-05 
0.00092007 0.00031239 0.0096572 
-4.89518e-06 -4.95712e-05 0.000409942 
1.25892e-05 0.000127485 -8.65281e-06 
-0.000375909 0.000181843 8.94737e-05 
0.00220654 -0.000176613 0.0108677 
-0.00022446 -0.000307759 -0.000145016 
0.00078688 -0.000889028 0.0119832 
0.000509453 -0.00503531 -0.000741432 
0.00273294 -0.000877978 0.00273696 
-0.00208224 0.00157817 -0.00355457 
0.00542798 -0.0199872 0.00838943 
0.00337701 -0.00252869 0.000857054 
0.00038451 -0.00195524 0 
-0.0003791 -0.000982062 0 
-1.19343e-05 0.00172998 0 
0.00123965 -0.000224856 0.00372225 
-3.00777e-05 -1.95552e-05 0.000104156 
5.45213e-05 4.67561e-05 0.000656048 
-5.82191e-05 -4.22692e-05 -0.000128433 
0.00251982 -0.00115536 0.00499432 
-3.04482e-08 -8.96854e-05 0.000812899 
-0.000581789 0.000746523 -0.000881608 
0.00195451 -0.000429102 0.00756881 
-0.000314706 -0.000644514 -0.000256512 
0.000494166 0.000837232 -0.000526843 
-0.00953976 -0.000681677 0.00895877 
0.000991453 0.000327813 -0.00231179 
-0.00155327 -0.000807255 -1.5117e-05 
-0.00624912 -0.000315475 0.00847844 
0.000141512 0.000831935 -0.000557974 
-0.000940231 -0.00331263 0.0069088 
-0.00185379 -0.000372168 0.00969424 
-0.00230553 -0.000466565 0.0145831 
-0.000161905 0.00208828 0.0150552 
-0.00249914 0.00202428 0.00862308 
-5.57788e-05 0.00231089 0.0149393 
-0.00233868 -0.000116119 0.0141467 
-0.00187122 -0.000706913 0.0100489 
0.000326995 0.000292596 0.0122291 
-0.000592051 0.00174055 0.0162204 
0.000111772 0.00369222 0.0104013 
-0.00157936 -0.000489326 0.00905773 
-0.00232362 0.00223593 0.0081256 
-0.00135095 -0.000156797 0.00944673 
-3.84968e-05 0.00348448 0.0101257 
-0.000712183 0.00184013 0.0155257 
0.000546924 8.1e-05 0.0123193 
0.00202718 -0.00200936 0.00220371 
-7.522e-05 0.0004149 0.000976074 
0.000443682 -0.00227714 0.00503008 
9.79385e-05 0.000388978 -0.000770414 
0.00282088 -0.00136341 0.00189003 
-0.000855212 -0.00331389 0.00537298 
-0.000171323 0.000423831 0.000284243 
0.00503821 -0.00380341 0.0116693 
0.000274005 0.000177529 0.0066592 
0.000262839 -0.000183109 5.72281e-05 
3.79226e-05 -0.000177745 -0.000305923 
0.00087746 -0.000154059 0.00639438 
0.000205771 3.22544e-05 0.00679392 
5.08025e-05 -3.47102e-05 -0.000381895 
0.000208678 -0.000143364 9.63701e-05 
-1.88195e-05 1.29074e-05 3.74885e-05 
-0.000737114 -0.000219518 0.00973968 
-0.000203571 6.02333e-05 -5.52798e-05 
6.70631e-05 -3.00119e-05 -0.000280051 
-1.57625e-05 1.13548e-05 0.000191967 
-0.00126195 -0.000452955 0.00990191 
0.000173864 3.35331e-06 -0.00034971 
0.000233878 0.000259594 -0.000178082 
-0.00144777 -4.51585e-05 0.00921971 
-0.00163051 0.00184555 0.0062914 
1.97328e-05 2.32476e-06 -0.00151153 
4.32784e-06 -1.94065e-05 -0.000696948 
-1.42436e-05 -1.82159e-05 0.000787612 
-0.00141387 0.00226128 0.00657108 
-0.000290398 -0.00174841 -0.00109369 
0.00060309 -0.0012454 -0.000791475 
-0.00458662 0.00514085 0.00363993 
0.0101599 0.0119885 0.00509855 
0.00305184 -0.000108103 0 
-0.00325584 -0.00440183 0 
0.0017568 -0.00286002 0 
0.00340507 -0.00303641 0.0142838 
-0.00222258 0.00123205 -0.00446635 
0.0167339 0.00579824 0.00390552 
0.012774 0.00569849 0.0186072 
-0.00242176 -0.00317635 0.00587855 
0.00192084 0.00135499 -0.00221678 
-0.0025481 -0.00272387 0.00120093 
-0.000300503 -0.00280925 0.00467729 
-0.0014431 -0.00276764 0.0030223 
-0.00117679 -0.000659081 0.000603111 
0.000257577 -0.000439493 0.000128018 
0.000520404 0.000169089 -0.000569552 
-0.000153696 0.00129847 0.00742754 
-0.000642446 -0.000863666 -0.000564121 
0.00307046 0.00445248 0.00559099 
-0.000276737 0.00161663 0.00797994 
5.90662e-05 0.00241467 0.00727915 
0.00221174 0.00397534 0.00485167 
-0.000401023 -0.0010824 -0.00023902 
1.21127e-05 -0.000650296 -0.00027168 
-0.00045155 -2.12617e-05 0.0147521 
2.38874e-05 1.7478e-05 0.0157681 
0.000132476 0.000200661 0.0118619 
-0.000299957 -0.000322351 0.0165472 
-0.000338344 4.39155e-05 0.0147247 
4.98735e-05 3.32486e-05 0.0118052 
-2.18041e-05 9.1384e-07 0.0157854 
-3.23391e-05 1.92746e-05 0.0136127 
-8.1241e-05 -2.03724e-05 0.00542524 
1.40255e-06 7.37436e-05 7.59354e-05 
0.000228113 -2.54395e-06 0.00956816 
-7.99476e-06 -2.90763e-05 0.00610023 
-0.000100018 4.3544e-05 0.00537952 
0.000138673 -8.74795e-05 0.00972728 
0.000108957 2.82929e-06 5.20797e-05 
8.80033e-05 0.000109317 0.000175789 
-0.0223384 -0.0177131 0.0320173 
2.45775e-05 0.00588094 -0.00579537 
0.00068875 -0.000951572 0.000863858 
0.00294685 0.00437368 -0.00176682 
-0.0278928 -0.00771871 0.0443347 
0.00577772 -0.00339886 0 
0.00788543 0.00669101 0 
-0.0194857 -0.012765 0 
0.000293909 -0.00020078 -0.000225643 
0.0010653 0.00105471 -0.00147802 
-0.00551274 -0.00470897 0.00504823 
-0.000154303 0.0014024 -0.000463112 
-0.00301273 -0.00348972 0.00498809 
-0.000438668 0.000556082 -0.000903049 
0.000386411 -0.000166336 -0.000252344 
-0.000112814 0.000267698 -0.000190888 
-0.000660737 -0.000181456 0.0177139 
5.56251e-05 2.72117e-05 0.0141757 
-0.000500925 7.35686e-05 0.0145064 
-0.000490544 -0.000147491 0.0148172 
-0.000439836 -0.000233882 0.0177932 
-0.000674015 8.14228e-06 0.0143132 
5.57914e-05 0.000100663 0.0142662 
-2.94933e-06 -2.31762e-05 0.0164003 
0.000950006 -0.000741297 0.00352587 
9.44685e-05 6.60121e-05 -0.000853794 
0.000276619 0.000194654 0.000263598 
0.000221177 0.000155545 1.72062e-05 
0.00260071 -0.00110822 0.00324627 
-0.000246811 0.000314224 0.00108557 
-0.000140861 0.000117008 -0.0011129 
0.00208364 -0.00085972 0.00179552 
0.000503046 -0.00779629 -0.00590992 
-0.00699339 -0.0161436 0.0128881 
-0.00526167 0.0046772 -0.00585885 
0.012472 -0.0413701 0.0607338 
0.0023072 -0.0127242 -0.000330092 
-0.000587747 0.00271358 0 
-0.0102862 -0.00375134 0 
0.00616488 -0.000115079 0 
-3.35172e-05 0.000459429 0.0143574 
-7.97684e-05 3.27707e-05 0.0173811 
6.45251e-05 -5.70189e-05 0.0153014 
-0.000202559 0.000406094 0.0168487 
5.24871e-06 0.000351114 0.0142518 
-1.04331e-05 -2.39468e-05 0.0153159 
-4.62116e-05 7.39558e-05 0.0174348 
5.24015e-06 3.44336e-05 0.0145861 
-5.16406e-05 9.67359e-05 0.00701119 
5.95782e-06 1.98405e-06 0.00671899 
-5.02561e-05 -5.50927e-05 0.0115858 
-1.38671e-05 2.85261e-05 0.00575453 
-7.25496e-05 0.000129947 0.00704603 
-4.52704e-05 -6.61801e-05 0.0115762 
1.49621e-06 -7.95112e-06 0.00671954 
0.000102988 -5.00246e-07 0.00925578 
4.57794e-05 -0.000811823 0.00251935 
0.000215963 0.000222193 -0.000248581 
2.47406e-05 4.19701e-05 -0.000574646 
5.95835e-06 -8.1279e-07 0.000222745 
-0.000196545 -0.00113257 0.00255711 
-0.000119892 0.000349218 -0.000251052 
0.000606736 0.000687084 -0.000341075 
0.000786628 -0.000676817 0.000890277 
-0.000279016 -0.00122416 0.00039579 
-9.36817e-05 0.00028967 -0.000124015 
9.51838e-05 -0.000318853 0.000115101 
-0.00013719 -0.000214368 8.2919e-05 
-0.000135434 -0.00104879 2.54724e-05 
0.000194044 -0.000375147 0 
-6.71457e-05 7.84894e-05 0 
-0.00052419 0.000183207 0 
0.000577971 0.000624438 0.00782861 
-0.000144086 0.000133404 -6.62136e-05 
-8.93673e-05 -4.63803e-05 0.000757341 
0.00128027 0.000298784 0.00945183 
0.000329915 0.000898204 0.00780038 
1.60714e-05 -0.000162747 0.000426876 
2.83901e-06 -2.87493e-05 -5.86671e-05 
1.27325e-05 -0.000128936 5.08282e-05 
-4.8688e-05 -0.000803508 0.00280463 
6.30119e-05 6.61775e-05 -0.000757671 
-0.000173025 -0.000228414 -5.96539e-05 
1.22941e-05 1.94677e-05 0.000152641 
0.000355095 -0.000651416 0.002972 
-0.000243615 -0.000239257 -6.34142e-05 
-0.000421633 -4.46154e-05 -0.000842352 
0.000129293 -0.00136685 0.00152372 
6.9331e-05 0.000385238 0.0142684 
-3.11842e-05 2.34591e-05 0.0162119 
-4.56937e-05 -5.3656e-05 0.0126553 
-1.89537e-05 5.9641e-06 0.0146069 
-6.31218e-05 0.000419281 0.0144104 
3.21586e-05 -0.000147869 0.0125934 
1.48885e-05 9.27497e-05 0.016139 
1.22195e-05 0.000525163 0.0149177 
8.96099e-06 -6.15698e-05 0.00760689 
2.50295e-05 -4.11806e-05 7.36794e-05 
9.72032e-06 7.03605e-05 0.00713496 
5.79475e-05 -0.000119567 0.000124069 
6.76531e-05 -8.28448e-05 0.00747182 
-1.36134e-06 2.37969e-05 0.00709542 
-2.98043e-05 2.88488e-07 0.000227637 
3.1771e-06 -4.24886e-05 0.00540881 
TENSORS Stress float 
-9.89242 -0.00317784 -0.039366 
-0.00317784 -9.89837 0.0145832 
-0.039366 0.0145832 -9.99524 
-9.93168 0.0040775 -0.0442614 
0.0040775 -9.90674 0.0614113 
-0.0442614 0.0614113 -9.94761 
-9.92179 -0.000682771 -0.0484215 
-0.000682771 -9.88268 0.0458382 
-0.0484215 0.0458382 -9.98157 
-9.91686 -0.0329934 -0.0562695 
-0.0329934 -9.85135 0.0749243 
-0.0562695 0.0749243 -10.0178 
-10.1619 -0.0646809 -0.0611832 
-0.0646809 -10.0692 0.0540802 
-0.0611832 0.0540802 -10.2515 
-10.1453 0.0499571 -0.0686156 
0.0499571 -10.2011 -0.00726691 
-0.0686156 -0.00726691 -10.1361 
-10.0925 0.0196532 0.00463002 
0.0196532 -10.0992 0.0184157 
0.00463002 0.0184157 -10.2909 
-10.1229 -0.0561045 0.0016524 
-0.0561045 -10.1273 0.0266981 
0.0016524 0.0266981 -10.2324 
-10.3892 -0.0153398 -0.0871005 
-0.0153398 -9.71806 0.143649 
-0.0871005 0.143649 -10.7173 
-10.541 -0.164602 0.219303 
-0.164602 -9.79314 -0.0811365 
0.219303 -0.0811365 -10.4905 
-9.97959 0.040873 -0.203089 
0.040873 -10.5618 -0.025782 
-0.203089 -0.025782 -10.2832 
-10.0456 0.0492436 0.0907899 
0.0492436 -10.0279 -0.113261 
0.0907899 -0.113261 -10.751 
-10.0923 -0.0163555 0.00771605 
-0.0163555 -10.0441 0.013156 
0.00771605 0.013156 -10.0869 
-10.0753 -0.0174883 0.0127141 
-0.0174883 -10.0666 0.0150174 
0.0127141 0.0150174 -10.0813 
-10.0889 -0.0146857 0.00400858 
-0.0146857 -10.0483 0.0143696 
0.00400858 0.0143696 -10.086 
-10.106 -0.0154851 0.00766037 
-0.0154851 -10.0452 0.0135139 
0.00766037 0.0135139 -10.0721 
-9.91276 0.0318084 -0.0549926 
0.0318084 -9.95079 0.00172218 
-0.0549926 0.00172218 -10.1047 
-9.87529 0.0191019 -0.139398 
0.0191019 -9.96369 -0.0157056 
-0.139398 -0.0157056 -10.1293 
-9.81299 -0.00664532 -0.0988241 
-0.00664532 -9.96963 -0.0171472 
-0.0988241 -0.0171472 -10.1856 
-9.88881 0.0514426 -0.110056 
0.0514426 -9.95473 0.0017932 
-0.110056 0.0017932 -10.1247 
-9.91344 0.0711565 0.0222203 
0.0711565 -9.76266 -0.274811 
0.0222203 -0.274811 -10.1593 
-9.89369 -0.0101302 0.0223679 
-0.0101302 -9.84205 -0.250084 
0.0223679 -0.250084 -10.0997 
-10.0764 0.0253504 -0.0176223 
0.0253504 -9.99171 -0.217709 
-0.0176223 -0.217709 -9.7673 
-9.98425 0.060872 -0.172497 
0.060872 -9.91675 -0.113331 
-0.172497 -0.113331 -9.93444 
-9.85992 -0.299721 -0.0251534 
-0.299721 -10.137 0.075889 
-0.0251534 0.075889 -10.5251 
-10.0006 -0.116451 -0.076844 
-0.116451 -10.113 -0.0430006 
-0.076844 -0.0430006 -10.4085 
-10.0261 -0.14448 0.0204884 
-0.14448 -10.0406 -0.061595 
0.0204884 -0.061595 -10.4553 
-9.95605 -0.133441 -0.0481008 
-0.133441 -10.0997 -0.0607863 
-0.0481008 -0.0607863 -10.4663 
-9.87797 -0.0105077 -0.0412329 
-0.0105077 -9.92388 0.0273739 
-0.0412329 0.0273739 -9.99163 
-9.90216 0.00700961 -0.0263623 
0.00700961 -9.88824 0.0401768 
-0.0263623 0.0401768 -10.0031 
-9.91076 0.019274 -0.0069626 
0.019274 -9.8814 0.0177566 
-0.0069626 0.0177566 -10.0013 
-9.90271 -0.0378099 -0.0508022 
-0.0378099 -9.87049 0.0538831 
-0.0508022 0.0538831 -10.0203 
-9.91449 -0.0174896 0.0605436 
-0.0174896 -9.93078 0.052906 
0.0605436 0.052906 -9.94953 
-9.91069 -0.0118488 0.0439894 
-0.0118488 -9.93268 0.0362164 
0.0439894 0.0362164 -9.95143 
-9.89955 -0.0100221 0.0676663 
-0.0100221 -9.9463 0.0416758 
0.0676663 0.0416758 -9.94895 
-9.91734 -0.0227423 0.0642117 
-0.0227423 -9.9304 0.0495851 
0.0642117 0.0495851 -9.94706 
-10.0182 0.00473658 -0.0288915 
0.00473658 -10.4784 0.0939037 
-0.0288915 0.0939037 -10.7265 
-10.2417 0.0482362 0.0282835 
0.0482362 -10.3856 -0.0435474 
0.0282835 -0.0435474 -10.5958 
-10.4132 0.171554 -0.0299301 
0.171554 -10.3504 0.128354 
-0.0299301 0.128354 -10.4595 
-10.2615 0.0095183 0.032862 
0.0095183 -10.2877 -0.0772323 
0.032862 -0.0772323 -10.6738 
-9.92697 -0.031438 0.0536264 
-0.031438 -9.93057 0.0324888 
0.0536264 0.0324888 -9.90099 
-9.91897 -0.0203393 0.0484525 
-0.0203393 -9.93337 0.0315886 
0.0484525 0.0315886 -9.9062 
-9.91586 -0.0292096 0.0565521 
-0.0292096 -9.92972 0.0298477 
0.0565521 0.0298477 -9.91296 
-9.91172 -0.030247 0.0567262 
-0.030247 -9.94876 0.0293203 
0.0567262 0.0293203 -9.89806 
-10.2003 -0.0197641 -0.0616884 
-0.0197641 -10.1717 0.0348728 
-0.0616884 0.0348728 -10.2783 
-10.2972 -0.0288754 0.0387736 
-0.0288754 -10.3096 0.0609243 
0.0387736 0.0609243 -10.0436 
-10.1833 -0.0156438 -0.0605704 
-0.0156438 -10.1868 0.0100297 
-0.0605704 0.0100297 -10.2803 
-10.1803 0.00553938 -0.0126077 
0.00553938 -10.1868 0.0515141 
-0.0126077 0.0515141 -10.2832 
-9.92189 0.0090422 0.0471914 
0.0090422 -9.92464 -0.0485454 
0.0471914 -0.0485454 -9.93018 
-9.91834 0.00273756 0.0435287 
0.00273756 -9.93196 -0.0540483 
0.0435287 -0.0540483 -9.92642 
-9.92206 0.00223261 0.0451265 
0.00223261 -9.93493 -0.0546235 
0.0451265 -0.0546235 -9.91973 
-9.92029 0.00381375 0.0491496 
0.00381375 -9.93142 -0.0505768 
0.0491496 -0.0505768 -9.925 
-9.50365 -0.265245 -0.192332 
-0.265245 -10.7649 -0.313989 
-0.192332 -0.313989 -11.1091 
-9.68064 0.114764 0.437439 
0.114764 -10.8183 -0.059471 
0.437439 -0.059471 -10.8787 
-10.7847 0.0130061 0.00972151 
0.0130061 -10.1738 0.125625 
0.00972151 0.125625 -10.4192 
-10.0968 -0.116423 0.0838563 
-0.116423 -10.4049 0.0133624 
0.0838563 0.0133624 -10.8759 
-9.94271 -0.0326905 -0.0167222 
-0.0326905 -9.9221 -0.0222816 
-0.0167222 -0.0222816 -9.9415 
-9.79497 0.00821181 0.125124 
0.00821181 -9.91602 -0.0226846 
0.125124 -0.0226846 -10.0953 
-9.87757 0.0669386 0.0851879 
0.0669386 -9.94957 -0.13134 
0.0851879 -0.13134 -9.97918 
-9.81107 -0.164759 0.0773017 
-0.164759 -9.9444 -0.0491302 
0.0773017 -0.0491302 -10.0508 
-10.0301 0.0639078 -0.08082 
0.0639078 -9.75867 0.140066 
-0.08082 0.140066 -9.99925 
-9.92343 0.0531774 -0.0570331 
0.0531774 -9.87675 0.0211267 
-0.0570331 0.0211267 -9.98781 
-9.92439 -0.0320769 -0.0266482 
-0.0320769 -9.90677 0.0876813 
-0.0266482 0.0876813 -9.95682 
-9.89423 -0.0205854 -0.0540895 
-0.0205854 -9.85688 0.092296 
-0.0540895 0.092296 -10.0369 
-10.0165 0.055431 -0.168318 
0.055431 -9.62369 -0.622126 
-0.168318 -0.622126 -9.95589 
-10.1724 -0.00883874 0.00836081 
-0.00883874 -9.51713 -0.340854 
0.00836081 -0.340854 -9.90648 
-10.0582 0.0178541 0.0528873 
0.0178541 -9.44199 -0.260263 
0.0528873 -0.260263 -10.0959 
-10.3223 -0.0200506 0.13792 
-0.0200506 -9.70085 -0.219146 
0.13792 -0.219146 -9.57288 
-9.87883 0.0308742 -0.0360889 
0.0308742 -9.91289 -0.0646204 
-0.0360889 -0.0646204 -9.98103 
-9.84723 0.0703342 -0.0676156 
0.0703342 -9.90622 -0.0678546 
-0.0676156 -0.0678546 -10.0193 
-9.85735 0.0442623 -0.0746798 
0.0442623 -9.83377 -0.0476152 
-0.0746798 -0.0476152 -10.0816 
-9.97124 0.0460526 -0.122986 
0.0460526 -9.834 -0.0624765 
-0.122986 -0.0624765 -9.96751 
-9.91129 -0.0184132 0.037663 
-0.0184132 -9.89337 -0.0224731 
0.037663 -0.0224731 -9.99963 
-9.91289 -0.00532564 0.0302768 
-0.00532564 -9.88255 -0.0739244 
0.0302768 -0.0739244 -10.0089 
-9.93971 -0.0589302 0.0589064 
-0.0589302 -9.8314 -0.0809774 
0.0589064 -0.0809774 -10.0332 
-9.89942 0.033328 0.0647159 
0.033328 -9.93062 -0.0779259 
0.0647159 -0.0779259 -9.97425 
-9.92637 -0.00226043 0.0636409 
-0.00226043 -9.91717 -0.0444374 
0.0636409 -0.0444374 -9.94159 
-9.92859 -0.00226272 0.0611735 
-0.00226272 -9.92021 -0.0449257 
0.0611735 -0.0449257 -9.93634 
-9.92382 -0.00102853 0.0632109 
-0.00102853 -9.92512 -0.044162 
0.0632109 -0.044162 -9.93619 
-9.92767 -0.00339111 0.0625564 
-0.00339111 -9.91752 -0.0459254 
0.0625564 -0.0459254 -9.93995 
-9.84089 -0.0259252 -0.106836 
-0.0259252 -9.89769 0.0193895 
-0.106836 0.0193895 -10.0838 
-9.8667 0.00339928 -0.0207822 
0.00339928 -9.87989 -0.0265569 
-0.0207822 -0.0265569 -10.0758 
-9.86214 0.0202043 -0.0733157 
0.0202043 -9.90535 -0.000529505 
-0.0733157 -0.000529505 -10.0549 
-9.88772 0.0467005 -0.129821 
0.0467005 -9.89942 -0.00564022 
-0.129821 -0.00564022 -10.0353 
-9.95645 0.0178747 -0.000456243 
0.0178747 -9.94039 0.0233724 
-0.000456243 0.0233724 -9.93084 
-9.96299 0.0383203 0.0738758 
0.0383203 -9.90156 -0.00737519 
0.0738758 -0.00737519 -9.96313 
-9.92016 0.0194664 -0.00618171 
0.0194664 -9.92792 0.00125865 
-0.00618171 0.00125865 -9.97961 
-9.91006 0.0346572 -0.0116877 
0.0346572 -9.9535 0.00214163 
-0.0116877 0.00214163 -9.96411 
-9.8331 0.00587675 0.119787 
0.00587675 -9.8952 -0.0691354 
0.119787 -0.0691354 -9.91784 
-9.85029 -0.00551723 0.102803 
-0.00551723 -9.88175 -0.0793444 
0.102803 -0.0793444 -9.9141 
-9.86395 0.0119609 0.0739574 
0.0119609 -9.87886 -0.01104 
0.0739574 -0.01104 -9.90333 
-9.8393 -0.000775151 0.0973953 
-0.000775151 -9.91402 -0.0514472 
0.0973953 -0.0514472 -9.89282 
-9.95157 0.0944335 -0.0505949 
0.0944335 -9.97563 -0.00986253 
-0.0505949 -0.00986253 -10.0453 
-9.97121 0.0628495 0.00563587 
0.0628495 -9.9022 0.00876213 
0.00563587 0.00876213 -10.0991 
-9.93363 0.0849578 0.00639113 
0.0849578 -9.951 0.0217063 
0.00639113 0.0217063 -10.0879 
-9.94509 0.0753173 0.0105914 
0.0753173 -9.96875 -0.0277923 
0.0105914 -0.0277923 -10.0587 
-9.90744 -0.0148519 0.0341349 
-0.0148519 -9.9386 -0.0175358 
0.0341349 -0.0175358 -10.0116 
-9.95303 -0.06057 0.0730005 
-0.06057 -9.86694 -0.0625501 
0.0730005 -0.0625501 -10.0377 
-9.90944 0.0176509 0.00929261 
0.0176509 -9.89189 -0.0470243 
0.00929261 -0.0470243 -10.0563 
-9.92712 0.00738554 -0.0920483 
0.00738554 -9.89529 0.0266546 
-0.0920483 0.0266546 -10.0352 
-10.1082 0.0579929 -0.0864042 
0.0579929 -9.68295 -0.0277149 
-0.0864042 -0.0277149 -10.346 
-10.1961 0.125395 -0.0486749 
0.125395 -9.70374 -0.1269 
-0.0486749 -0.1269 -10.2373 
-10.0939 -0.128121 0.0430063 
-0.128121 -9.64728 -0.273776 
0.0430063 -0.273776 -10.396 
-9.97319 -0.0354523 0.0684588 
-0.0354523 -10.2177 -0.0101188 
0.0684588 -0.0101188 -9.94621 
-9.93059 -0.0258721 0.000594169 
-0.0258721 -9.87192 -0.0323999 
0.000594169 -0.0323999 -10.0178 
-9.91871 0.00428677 0.00901884 
0.00428677 -9.93444 -0.0297318 
0.00901884 -0.0297318 -9.96717 
-9.91645 -0.0058611 -0.0165122 
-0.0058611 -9.89319 -0.0446148 
-0.0165122 -0.0446148 -10.0107 
-9.93416 -0.00381303 0.0116406 
-0.00381303 -9.91693 -0.0532729 
0.0116406 -0.0532729 -9.96923 
-9.92544 0.0203401 -0.030388 
0.0203401 -9.88296 0.0250617 
-0.030388 0.0250617 -10.1289 
-9.93645 0.0181889 -0.0282347 
0.0181889 -9.88142 0.00528112 
-0.0282347 0.00528112 -10.1194 
-9.90627 0.0133484 -0.0428005 
0.0133484 -9.88187 0.0122562 
-0.0428005 0.0122562 -10.1491 
-9.91053 -0.000971015 -0.0397023 
-0.000971015 -9.88075 0.0106162 
-0.0397023 0.0106162 -10.146 
-10.0215 0.0127372 -0.0140362 
0.0127372 -10.0094 0.00878627 
-0.0140362 0.00878627 -10.0252 
-10.0234 -0.00248241 0.0188357 
-0.00248241 -10.0165 0.0054443 
0.0188357 0.0054443 -10.0162 
-10.0316 0.0196857 -0.0215398 
0.0196857 -10.0013 -0.0112611 
-0.0215398 -0.0112611 -10.0232 
-10.0377 -0.000452413 -0.00614582 
-0.000452413 -10.0002 -0.00350686 
-0.00614582 -0.00350686 -10.0181 
-9.96765 -0.00268113 0.052666 
-0.00268113 -9.96905 -0.0381458 
0.052666 -0.0381458 -9.97573 
-9.97199 0.00475335 0.0587498 
0.00475335 -9.96864 -0.0404729 
0.0587498 -0.0404729 -9.97181 
-9.96904 0.000510332 0.0561573 
0.000510332 -9.97089 -0.039149 
0.0561573 -0.039149 -9.97251 
-9.97152 -0.00191043 0.0556359 
-0.00191043 -9.96923 -0.0438325 
0.0556359 -0.0438325 -9.97169 
-9.81357 -0.0391748 -0.109638 
-0.0391748 -9.97207 -0.00969458 
-0.109638 -0.00969458 -10.1591 
-9.84435 -0.0438931 -0.111863 
-0.0438931 -9.94741 0.0101668 
-0.111863 0.0101668 -10.153 
-9.86508 0.0104689 -0.096717 
0.0104689 -9.95597 -0.0219481 
-0.096717 -0.0219481 -10.1237 
-9.89401 -0.0674775 -0.1141 
-0.0674775 -9.92719 -0.00937611 
-0.1141 -0.00937611 -10.1235 
-10.1132 -0.217197 0.00101059 
-0.217197 -9.71997 0.102305 
0.00101059 0.102305 -10.1001 
-9.93926 -0.268218 -0.0787235 
-0.268218 -9.92753 0.0873713 
-0.0787235 0.0873713 -10.0665 
-10.138 -0.23827 0.099609 
-0.23827 -9.6395 0.228441 
0.099609 0.228441 -10.1558 
-9.80142 -0.0969492 0.014811 
-0.0969492 -9.83777 0.0396463 
0.014811 0.0396463 -10.2941 
-9.9732 0.0412942 -0.0213007 
0.0412942 -9.883 0.012438 
-0.0213007 0.012438 -10.2089 
-10.0014 0.0434625 0.00247774 
0.0434625 -9.88492 -0.0321822 
0.00247774 -0.0321822 -10.1788 
-9.8967 0.0476689 0.0347307 
0.0476689 -9.94544 0.00546687 
0.0347307 0.00546687 -10.223 
-10.0734 0.0882855 0.0303063 
0.0882855 -9.85604 0.00346729 
0.0303063 0.00346729 -10.1357 
-10.4693 0.278585 -0.167448 
0.278585 -10.6228 0.235283 
-0.167448 0.235283 -9.7183 
-9.88449 -0.0523048 0.217623 
-0.0523048 -9.99947 -0.284334 
0.217623 -0.284334 -10.9264 
-10.0454 -0.132831 -0.0173101 
-0.132831 -10.3241 0.0426297 
-0.0173101 0.0426297 -10.4409 
-10.0015 -0.336987 -0.149104 
-0.336987 -10.0192 0.320213 
-0.149104 0.320213 -10.7897 
-9.96279 -0.00124333 -0.0129481 
-0.00124333 -9.96206 -0.0701441 
-0.0129481 -0.0701441 -9.95969 
-9.96562 0.00170626 -0.01872 
0.00170626 -9.9656 -0.0722199 
-0.01872 -0.0722199 -9.95332 
-9.9793 0.00434093 -0.0182623 
0.00434093 -9.96246 -0.0761046 
-0.0182623 -0.0761046 -9.94277 
-9.95872 0.00201699 -0.024051 
0.00201699 -9.96668 -0.0760117 
-0.024051 -0.0760117 -9.95913 
-9.7204 -0.0909735 0.167639 
-0.0909735 -10.0789 -0.0638083 
0.167639 -0.0638083 -10.221 
-10.0428 -0.0502212 0.0534478 
-0.0502212 -9.96601 -0.0565967 
0.0534478 -0.0565967 -10.0114 
-9.98575 0.0525407 0.0555069 
0.0525407 -10.0215 0.0246703 
0.0555069 0.0246703 -10.013 
-9.86072 -0.0246057 0.0196047 
-0.0246057 -9.98825 -0.0141239 
0.0196047 -0.0141239 -10.1713 
-9.98377 0.0016726 -0.0262123 
0.0016726 -9.97061 0.0226315 
-0.0262123 0.0226315 -9.98555 
-9.97745 0.00270293 -0.0282497 
0.00270293 -9.98123 0.0228377 
-0.0282497 0.0228377 -9.98125 
-9.98748 0.0019566 -0.0290416 
0.0019566 -9.97557 0.0238433 
-0.0290416 0.0238433 -9.97688 
-9.97505 0.00720758 -0.0199052 
0.00720758 -9.98511 0.0221434 
-0.0199052 0.0221434 -9.97976 
-10.1866 0.00682756 0.00881987 
0.00682756 -9.82164 -0.0245117 
0.00881987 -0.0245117 -10.2913 
-10.1664 -0.0147459 -0.0439614 
-0.0147459 -9.81894 -0.163071 
-0.0439614 -0.163071 -10.3142 
-10.0904 -0.0220037 0.199355 
-0.0220037 -9.8913 0.000120727 
0.199355 0.000120727 -10.3178 
-10.0411 0.00869825 0.00290479 
0.00869825 -10.0715 -0.0225115 
0.00290479 -0.0225115 -10.1869 
-9.97376 0.0015959 0.0343825 
0.0015959 -9.9605 -0.0304201 
0.0343825 -0.0304201 -9.97849 
-9.97153 0.00454391 0.0368208 
0.00454391 -9.97161 -0.0235389 
0.0368208 -0.0235389 -9.96962 
-9.96971 0.00777962 0.0341458 
0.00777962 -9.98324 -0.0259855 
0.0341458 -0.0259855 -9.95981 
-9.97097 0.00249426 0.0296882 
0.00249426 -9.97009 -0.0215585 
0.0296882 -0.0215585 -9.97169 
-9.86578 0.00616699 -0.034412 
0.00616699 -9.95419 0.0121491 
-0.034412 0.0121491 -10.1985 
-9.87595 0.0211712 -0.0297783 
0.0211712 -9.94659 0.0212266 
-0.0297783 0.0212266 -10.196 
-9.92568 0.00852295 -0.0487279 
0.00852295 -9.92192 0.00520856 
-0.0487279 0.00520856 -10.1709 
-9.84747 0.0853684 -0.0434707 
0.0853684 -9.97558 -0.00924209 
-0.0434707 -0.00924209 -10.1955 
-9.81215 0.107403 -0.0934398 
0.107403 -9.83774 -0.146174 
-0.0934398 -0.146174 -10.9518 
-10.3981 0.563504 0.0560901 
0.563504 -9.51528 0.0976333 
0.0560901 0.0976333 -10.6884 
-9.87268 -0.844445 -0.106191 
-0.844445 -10.9704 -0.33548 
-0.106191 -0.33548 -9.75865 
-10.2527 0.810257 -0.268886 
0.810257 -9.53059 -1.08404 
-0.268886 -1.08404 -10.8184 
-9.88726 0.00179428 0.109292 
0.00179428 -9.90826 -0.0199671 
0.109292 -0.0199671 -10.0432 
-9.86696 -0.0883539 0.0612262 
-0.0883539 -9.92844 -0.133591 
0.0612262 -0.133591 -10.0433 
-9.90349 -0.0129173 0.00878828 
-0.0129173 -9.91505 -0.0459706 
0.00878828 -0.0459706 -10.0202 
-9.86225 -0.0470243 -3.72712e-05 
-0.0470243 -9.97476 0.073714 
-3.72712e-05 0.073714 -10.0017 
-9.88518 0.0337185 -0.0885751 
0.0337185 -9.90759 0.0367284 
-0.0885751 0.0367284 -9.90117 
-9.88931 0.00276449 -0.0747903 
0.00276449 -9.88252 0.0239246 
-0.0747903 0.0239246 -9.92211 
-9.88483 0.0147937 -0.0363912 
0.0147937 -9.9015 0.0469176 
-0.0363912 0.0469176 -9.90761 
-9.89566 0.0300098 -0.0408957 
0.0300098 -9.87673 0.0361353 
-0.0408957 0.0361353 -9.92156 
-10.1057 0.04309 -0.014928 
0.04309 -10.0786 0.0313366 
-0.014928 0.0313366 -10.354 
-10.2265 0.0405134 -0.0223592 
0.0405134 -10.01 -0.18727 
-0.0223592 -0.18727 -10.3019 
-10.0991 0.0819085 -0.0639014 
0.0819085 -10.0993 0.0512961 
-0.0639014 0.0512961 -10.3399 
-10.0884 0.0342889 -0.0207729 
0.0342889 -10.0902 -0.00325781 
-0.0207729 -0.00325781 -10.3597 
-10.2072 0.0361263 -0.0733485 
0.0361263 -10.3715 0.108433 
-0.0733485 0.108433 -9.94395 
-10.0569 -0.0238214 0.0427946 
-0.0238214 -10.0793 0.03835 
0.0427946 0.03835 -10.3865 
-10.0336 0.052799 0.0271965 
0.052799 -10.1222 -0.0275278 
0.0271965 -0.0275278 -10.367 
-9.95778 -0.0458226 -0.192123 
-0.0458226 -10.1615 0.0411642 
-0.192123 0.0411642 -10.4035 
-9.87868 -0.0248319 0.047625 
-0.0248319 -9.90418 -0.0414619 
0.047625 -0.0414619 -10.0045 
-9.90456 0.00916079 0.0601425 
0.00916079 -9.90826 -0.0570257 
0.0601425 -0.0570257 -9.97455 
-9.91353 0.010151 0.0394921 
0.010151 -9.90152 -0.0484416 
0.0394921 -0.0484416 -9.97232 
-9.91326 0.00563217 0.0642856 
0.00563217 -9.90463 -0.0605786 
0.0642856 -0.0605786 -9.96948 
-9.98581 0.00385463 -0.00112976 
0.00385463 -9.97256 -0.0741327 
-0.00112976 -0.0741327 -9.9754 
-9.97871 0.00367029 0.00473434 
0.00367029 -9.97972 -0.0759443 
0.00473434 -0.0759443 -9.97533 
-9.95253 -0.00836753 0.00707308 
-0.00836753 -9.98824 -0.0669608 
0.00707308 -0.0669608 -9.99299 
-9.97911 -0.00177287 0.0042028 
-0.00177287 -9.9884 -0.0818036 
0.0042028 -0.0818036 -9.96625 
-9.96792 0.00302393 0.00789196 
0.00302393 -9.96965 -0.00909694 
0.00789196 -0.00909694 -9.97646 
-9.96991 0.00746979 0.0079854 
0.00746979 -9.97172 -0.00433172 
0.0079854 -0.00433172 -9.9724 
-9.97395 0.00530022 0.00567144 
0.00530022 -9.9731 -0.0075969 
0.00567144 -0.0075969 -9.96698 
-9.96728 0.00534881 0.00524214 
0.00534881 -9.97162 -0.00634324 
0.00524214 -0.00634324 -9.97513 
-9.86523 0.0526332 0.0458068 
0.0526332 -10.0063 0.215292 
0.0458068 0.215292 -9.67683 
-9.85051 0.023223 0.0551307 
0.023223 -9.94939 0.0627464 
0.0551307 0.0627464 -9.74843 
-9.90752 0.085509 0.108876 
0.085509 -9.94656 0.211838 
0.108876 0.211838 -9.69426 
-9.8986 -0.00502 0.0530019 
-0.00502 -9.85922 0.12739 
0.0530019 0.12739 -9.79052 
-9.91114 0.0108454 -0.0113179 
0.0108454 -9.93814 0.0233504 
-0.0113179 0.0233504 -10.1619 
-9.9124 0.0219769 -0.019807 
0.0219769 -9.93181 0.00534485 
-0.019807 0.00534485 -10.167 
-9.92466 0.0211705 -0.0141028 
0.0211705 -9.93084 0.00606663 
-0.0141028 0.00606663 -10.1557 
-9.94086 0.00513393 -0.027362 
0.00513393 -9.92313 -0.000814993 
-0.027362 -0.000814993 -10.1472 
-9.97067 0.0113601 0.0111569 
0.0113601 -9.97535 -0.014075 
0.0111569 -0.014075 -9.95788 
-9.96752 0.00649437 0.0165022 
0.00649437 -9.96851 -0.0128523 
0.0165022 -0.0128523 -9.96787 
-9.96513 0.00250551 0.0117534 
0.00250551 -9.96613 -0.0140709 
0.0117534 -0.0140709 -9.97264 
-9.9716 0.0033888 0.0153479 
0.0033888 -9.96221 -0.0192122 
0.0153479 -0.0192122 -9.97008 
-10.113 0.0529976 0.00834833 
0.0529976 -9.91998 0.00140861 
0.00834833 0.00140861 -10.1467 
-10.0127 -0.0222111 0.0680702 
-0.0222111 -9.99005 -0.0344196 
0.0680702 -0.0344196 -10.1769 
-10.0004 0.0442403 0.0136577 
0.0442403 -9.97599 -0.0404203 
0.0136577 -0.0404203 -10.2033 
-10.0742 0.0598497 0.0129994 
0.0598497 -9.89519 0.031279 
0.0129994 0.031279 -10.2103 
-9.93679 0.0121135 0.0329376 
0.0121135 -9.91327 -0.179927 
0.0329376 -0.179927 -9.92105 
-9.91891 0.0396404 -0.168933 
0.0396404 -9.7934 -0.00926039 
-0.168933 -0.00926039 -10.0588 
-9.81393 0.104203 0.0174503 
0.104203 -9.85639 0.0971417 
0.0174503 0.0971417 -10.1008 
-9.82041 0.0456802 -0.0787166 
0.0456802 -9.95576 -0.120837 
-0.0787166 -0.120837 -9.99494 
-10.3699 -0.0108465 -0.0153186 
-0.0108465 -10.1225 -0.193368 
-0.0153186 -0.193368 -10.4986 
-10.1891 -0.0666712 -0.0446982 
-0.0666712 -10.4877 -0.0853292 
-0.0446982 -0.0853292 -10.3142 
-10.3375 0.00534172 0.0174933 
0.00534172 -10.2173 -0.0923943 
0.0174933 -0.0923943 -10.4362 
-10.3139 -0.0301915 0.0046534 
-0.0301915 -10.2242 -0.0892193 
0.0046534 -0.0892193 -10.4529 
-9.95631 0.0059083 -0.0336037 
0.0059083 -9.96722 0.0321694 
-0.0336037 0.0321694 -9.96857 
-9.96711 0.00292467 -0.0288043 
0.00292467 -9.96909 0.0248185 
-0.0288043 0.0248185 -9.9559 
-9.96423 0.00379972 -0.0303998 
0.00379972 -9.96773 0.0310583 
-0.0303998 0.0310583 -9.96014 
-9.96379 0.00278166 -0.0302575 
0.00278166 -9.96342 0.0300066 
-0.0302575 0.0300066 -9.96489 
-9.93521 0.00938633 -0.0186199 
0.00938633 -9.93977 -0.0240067 
-0.0186199 -0.0240067 -9.95718 
-9.93572 0.00907563 -0.00877986 
0.00907563 -9.93501 -0.0336286 
-0.00877986 -0.0336286 -9.96144 
-9.92761 -0.00669278 0.00511713 
-0.00669278 -9.94073 -0.0194659 
0.00511713 -0.0194659 -9.96382 
-9.94321 -0.00447456 0.0121183 
-0.00447456 -9.9378 -0.0413045 
0.0121183 -0.0413045 -9.95115 
-9.92198 0.0331721 -0.0136092 
0.0331721 -9.88382 0.0133863 
-0.0136092 0.0133863 -9.98786 
-9.87398 0.0161007 -0.0591683 
0.0161007 -9.8434 -0.0420455 
-0.0591683 -0.0420455 -10.0763 
-9.9017 0.0199245 -0.0437767 
0.0199245 -9.87808 -0.0359539 
-0.0437767 -0.0359539 -10.0139 
-9.90929 -0.0369241 -0.0554783 
-0.0369241 -9.91682 -0.0597469 
-0.0554783 -0.0597469 -9.96755 
-10.2292 0.0600068 -0.301969 
0.0600068 -10.4304 -0.117647 
-0.301969 -0.117647 -9.84446 
-10.1371 0.112992 0.219522 
0.112992 -9.46513 0.076892 
0.219522 0.076892 -10.9018 
-10.1738 -0.253345 -0.366997 
-0.253345 -10.4354 -0.105885 
-0.366997 -0.105885 -9.89484 
-9.72407 0.309544 -0.246683 
0.309544 -10.2565 -0.239836 
-0.246683 -0.239836 -10.5234 
-9.97213 -0.0134108 0.027394 
-0.0134108 -9.9554 0.0380622 
0.027394 0.0380622 -9.95308 
-9.95958 -0.0234316 0.0261277 
-0.0234316 -9.96864 0.0257039 
0.0261277 0.0257039 -9.95238 
-9.96259 -0.0152721 0.031949 
-0.0152721 -9.96438 0.0304467 
0.031949 0.0304467 -9.95363 
-9.95767 -0.00444048 0.0292443 
-0.00444048 -9.9607 0.0404997 
0.0292443 0.0404997 -9.96223 
-9.89294 0.00925479 -0.0530043 
0.00925479 -9.89685 0.0642845 
-0.0530043 0.0642845 -9.93731 
-9.93066 -0.0504616 -0.0608504 
-0.0504616 -9.80581 0.0866724 
-0.0608504 0.0866724 -9.99063 
-9.89117 -0.0184647 -0.023571 
-0.0184647 -9.86982 0.0295538 
-0.023571 0.0295538 -9.96612 
-9.9266 -0.0185725 -0.0960987 
-0.0185725 -9.86036 0.0461852 
-0.0960987 0.0461852 -9.94014 
-9.94828 0.0156029 -0.0275268 
0.0156029 -9.8663 0.0900271 
-0.0275268 0.0900271 -9.9916 
-9.85911 0.0284666 -0.0525154 
0.0284666 -9.84338 0.0574834 
-0.0525154 0.0574834 -10.1037 
-9.91486 0.01957 -0.0252884 
0.01957 -9.88561 0.0474672 
-0.0252884 0.0474672 -10.0057 
-9.89239 0.00416913 -0.0335024 
0.00416913 -9.87984 0.0710172 
-0.0335024 0.0710172 -10.034 
-9.90574 -0.018074 0.0518448 
-0.018074 -9.95659 -0.00557316 
0.0518448 -0.00557316 -9.99457 
-9.93366 -0.0190626 0.0210414 
-0.0190626 -9.94916 0.0312085 
0.0210414 0.0312085 -9.97407 
-9.8918 -0.00845817 0.0722069 
-0.00845817 -9.87656 0.056543 
0.0722069 0.056543 -10.0885 
-9.93372 -0.0313631 0.0563872 
-0.0313631 -9.94518 -0.00546311 
0.0563872 -0.00546311 -9.978 
-9.84813 0.0317666 0.0102588 
0.0317666 -9.88826 -0.00952022 
0.0102588 -0.00952022 -10.1931 
-9.88556 0.0280073 -0.0436325 
0.0280073 -9.91245 0.0531407 
-0.0436325 0.0531407 -10.1315 
-9.87325 0.0212109 -0.0477651 
0.0212109 -9.91882 -0.00253711 
-0.0477651 -0.00253711 -10.1374 
-9.87497 0.0227037 -0.0494992 
0.0227037 -9.91011 0.0194056 
-0.0494992 0.0194056 -10.1444 
-10.0378 -0.0816665 -0.0744378 
-0.0816665 -9.92754 0.0331222 
-0.0744378 0.0331222 -10.2749 
-10.1768 0.0517357 0.0743526 
0.0517357 -9.98984 0.209877 
0.0743526 0.209877 -10.0736 
-10.0155 -0.0582111 -0.0444479 
-0.0582111 -9.92226 0.017624 
-0.0444479 0.017624 -10.3025 
-10.0466 -0.0616618 -0.0537627 
-0.0616618 -9.96572 0.0957896 
-0.0537627 0.0957896 -10.228 
-9.96562 -0.000196615 -0.000396065 
-0.000196615 -9.96189 -0.0701373 
-0.000396065 -0.0701373 -9.95969 
-9.97201 0.000465621 -0.0010906 
0.000465621 -9.97178 -0.0803667 
-0.0010906 -0.0803667 -9.94341 
-9.96746 -0.00127944 0.00276649 
-0.00127944 -9.96488 -0.0779616 
0.00276649 -0.0779616 -9.95486 
-9.96718 -0.000263887 0.0020739 
-0.000263887 -9.96471 -0.0786597 
0.0020739 -0.0786597 -9.95531 
-9.96562 -0.0021777 0.0103447 
-0.0021777 -9.96421 0.00436086 
0.0103447 0.00436086 -9.97312 
-9.97154 -0.00617155 0.0006335 
-0.00617155 -9.96119 0.00681871 
0.0006335 0.00681871 -9.97022 
-9.97562 -0.00428928 -0.00839905 
-0.00428928 -9.96424 0.00734475 
-0.00839905 0.00734475 -9.9631 
-9.9615 -0.00286068 0.00689174 
-0.00286068 -9.96049 0.00887918 
0.00689174 0.00887918 -9.98096 
-9.92693 0.000682645 0.0422838 
0.000682645 -9.93589 -0.0678798 
0.0422838 -0.0678798 -9.94095 
-9.93004 -0.000996621 0.0411887 
-0.000996621 -9.94061 -0.0619459 
0.0411887 -0.0619459 -9.93311 
-9.92606 -0.00419162 0.0450575 
-0.00419162 -9.92684 -0.0599996 
0.0450575 -0.0599996 -9.95085 
-9.92534 -0.00205283 0.042321 
-0.00205283 -9.93559 -0.0660115 
0.042321 -0.0660115 -9.94282 
-9.95734 -0.0141043 0.0173452 
-0.0141043 -9.96532 0.0434614 
0.0173452 0.0434614 -9.95115 
-9.96429 -0.00639632 0.0121238 
-0.00639632 -9.96653 0.0468928 
0.0121238 0.0468928 -9.94299 
-9.96411 0.000873603 0.0195597 
0.000873603 -9.97045 0.0496254 
0.0195597 0.0496254 -9.93925 
-9.9615 -0.00151266 0.0101864 
-0.00151266 -9.96679 0.042666 
0.0101864 0.042666 -9.94552 
-9.94871 -0.0526173 -0.0118119 
-0.0526173 -9.90653 -0.0354946 
-0.0118119 -0.0354946 -9.97166 
-9.92483 -0.00115173 0.00183711 
-0.00115173 -9.91954 -0.0308064 
0.00183711 -0.0308064 -9.98252 
-9.92901 -0.0191276 0.00036727 
-0.0191276 -9.91966 -0.0218634 
0.00036727 -0.0218634 -9.97823 
-9.92774 -0.0119494 -0.0229174 
-0.0119494 -9.92435 -0.00672984 
-0.0229174 -0.00672984 -9.97481 
-9.93718 0.00807515 0.0287373 
0.00807515 -9.92273 0.014607 
0.0287373 0.014607 -9.9149 
-9.9241 -0.0198274 0.0349335 
-0.0198274 -9.9185 0.0263302 
0.0349335 0.0263302 -9.9322 
-9.92807 0.00197055 0.0514177 
0.00197055 -9.90801 0.0388849 
0.0514177 0.0388849 -9.93872 
-9.90221 -0.0299189 0.0818318 
-0.0299189 -9.95264 0.0369858 
0.0818318 0.0369858 -9.91995 
-9.97217 -0.00200765 0.0482131 
-0.00200765 -9.97036 -0.0448472 
0.0482131 -0.0448472 -9.97489 
-9.97078 0.00534929 0.0507511 
0.00534929 -9.9681 -0.0499825 
0.0507511 -0.0499825 -9.97854 
-9.969 0.000614984 0.051128 
0.000614984 -9.97047 -0.0479421 
0.051128 -0.0479421 -9.97796 
-9.96449 -0.00232444 0.0539567 
-0.00232444 -9.97632 -0.0422331 
0.0539567 -0.0422331 -9.9766 
-9.92895 -0.0159349 0.00495586 
-0.0159349 -9.95043 -0.0283806 
0.00495586 -0.0283806 -9.97813 
-9.93703 -0.0193151 -0.000417945 
-0.0193151 -9.95722 -0.0194397 
-0.000417945 -0.0194397 -9.96326 
-9.94791 0.0198932 0.0301139 
0.0198932 -9.93045 -0.00865859 
0.0301139 -0.00865859 -9.97915 
-9.95188 0.0167872 0.0241441 
0.0167872 -9.94442 -0.0213715 
0.0241441 -0.0213715 -9.96121 
-9.93492 -0.0539048 0.00458616 
-0.0539048 -9.91665 0.0574369 
0.00458616 0.0574369 -10.0301 
-9.93489 -0.0940866 -0.0462361 
-0.0940866 -9.99246 0.0780251 
-0.0462361 0.0780251 -9.95437 
-9.90821 -0.162707 0.0983492 
-0.162707 -9.95466 0.240415 
0.0983492 0.240415 -10.0189 
-9.97314 -0.0870028 -0.0030159 
-0.0870028 -9.93185 0.0636859 
-0.0030159 0.0636859 -9.97673 
-9.91241 -0.0120988 0.0595996 
-0.0120988 -9.92241 -0.0260073 
0.0595996 -0.0260073 -9.9125 
-9.9172 0.0231218 0.0652909 
0.0231218 -9.92386 0.000897793 
0.0652909 0.000897793 -9.90626 
-9.93515 -0.00251728 0.129073 
-0.00251728 -9.93613 -0.0337473 
0.129073 -0.0337473 -9.87605 
-9.91117 -0.0341702 0.0698633 
-0.0341702 -9.92312 -0.0145066 
0.0698633 -0.0145066 -9.91303 
-9.88798 0.493451 0.845445 
0.493451 -9.74615 0.472115 
0.845445 0.472115 -10.1192 
-9.83405 0.641071 0.202482 
0.641071 -9.95473 0.0171158 
0.202482 0.0171158 -9.96458 
-10.201 0.249764 0.304994 
0.249764 -9.23459 0.288075 
0.304994 0.288075 -10.3178 
-9.28639 0.276176 -0.120353 
0.276176 -10.38 -0.0158063 
-0.120353 -0.0158063 -10.087 
-9.99833 0.0144522 -0.00980083 
0.0144522 -9.99052 0.0458642 
-0.00980083 0.0458642 -9.97589 
-10.039 0.0103288 -0.00846579 
0.0103288 -9.93997 -0.026927 
-0.00846579 -0.026927 -9.98574 
-9.92529 0.0337984 0.0108774 
0.0337984 -9.98061 0.00500756 
0.0108774 0.00500756 -10.0589 
-9.99295 -0.0267682 -0.0505939 
-0.0267682 -9.95177 -0.0175704 
-0.0505939 -0.0175704 -10.02 
-9.94595 3.16947e-05 -0.0218407 
3.16947e-05 -9.94367 0.0444754 
-0.0218407 0.0444754 -9.93043 
-9.92561 -0.00129927 -0.0149663 
-0.00129927 -9.94514 0.0578371 
-0.0149663 0.0578371 -9.9493 
-9.93542 0.00122679 -0.043898 
0.00122679 -9.97543 0.0330086 
-0.043898 0.0330086 -9.9092 
-9.9425 -0.00331737 -0.027072 
-0.00331737 -9.94842 0.0412058 
-0.027072 0.0412058 -9.92913 
-9.97068 -0.0145017 -0.440844 
-0.0145017 -9.62228 -0.356996 
-0.440844 -0.356996 -9.77577 
-10.0593 0.254055 0.132842 
0.254055 -10.2444 -0.103242 
0.132842 -0.103242 -9.06504 
-9.8882 -0.115235 -0.0687788 
-0.115235 -9.63083 -0.326669 
-0.0687788 -0.326669 -9.8497 
-9.77403 -0.605045 0.185258 
-0.605045 -9.8174 -0.250538 
0.185258 -0.250538 -9.7773 
-10.4536 -0.0121977 -0.0522976 
-0.0121977 -9.88119 -0.0230729 
-0.0522976 -0.0230729 -10.4186 
-10.1677 -0.0801901 0.0241668 
-0.0801901 -10.1065 0.0370693 
0.0241668 0.0370693 -10.4791 
-9.95678 -0.174451 -0.0701179 
-0.174451 -10.1789 -0.146198 
-0.0701179 -0.146198 -10.6176 
-9.99539 -0.0710958 0.148549 
-0.0710958 -10.2801 0.342939 
0.148549 0.342939 -10.4778 
-8.85725 -0.105158 -0.0477124 
-0.105158 -10.8451 -1.47644 
-0.0477124 -1.47644 -10.2911 
-10.1767 0.0392868 0.0351799 
0.0392868 -9.92827 -0.529886 
0.0351799 -0.529886 -9.88845 
-10.4462 0.188283 -0.131614 
0.188283 -9.865 -0.593515 
-0.131614 -0.593515 -9.68225 
-9.48211 -0.238893 -0.40414 
-0.238893 -11.1591 0.361274 
-0.40414 0.361274 -9.3522 
-9.97106 -0.00205408 -0.0547761 
-0.00205408 -9.97133 -0.0451138 
-0.0547761 -0.0451138 -9.9824 
-9.9708 0.00110069 -0.0539081 
0.00110069 -9.96823 -0.0429328 
-0.0539081 -0.0429328 -9.98574 
-9.97283 -0.000315107 -0.0506588 
-0.000315107 -9.97325 -0.0414138 
-0.0506588 -0.0414138 -9.9787 
-9.9683 0.00184486 -0.0527793 
0.00184486 -9.97292 -0.0440608 
-0.0527793 -0.0440608 -9.98356 
-10.2509 0.0252335 -0.203351 
0.0252335 -9.85062 0.112767 
-0.203351 0.112767 -10.4472 
-10.0882 -0.303675 0.0427387 
-0.303675 -9.79874 0.0882746 
0.0427387 0.0882746 -10.6618 
-10.2888 -0.354926 -0.0652422 
-0.354926 -10.0347 0.190185 
-0.0652422 0.190185 -10.2253 
-9.86021 0.192591 0.245615 
0.192591 -10.163 -0.0392752 
0.245615 -0.0392752 -10.5255 
-9.92351 0.0137114 -0.0071031 
0.0137114 -9.90799 0.00916386 
-0.0071031 0.00916386 -9.98614 
-9.93837 0.0483151 0.0766126 
0.0483151 -9.95222 0.00808628 
0.0766126 0.00808628 -9.92704 
-9.96043 0.0155357 0.00590698 
0.0155357 -9.94141 0.0148979 
0.00590698 0.0148979 -9.91579 
-9.96152 -0.0181983 0.00841487 
-0.0181983 -9.91549 0.0114025 
0.00841487 0.0114025 -9.94062 
-9.89036 -0.0867759 -0.0131701 
-0.0867759 -9.8761 0.00953123 
-0.0131701 0.00953123 -9.98446 
-9.90322 -0.0803148 -0.0111049 
-0.0803148 -9.93986 0.0230753 
-0.0111049 0.0230753 -9.90784 
-9.89276 -0.11375 -0.00854875 
-0.11375 -9.88843 0.0388445 
-0.00854875 0.0388445 -9.96973 
-9.8773 -0.0707337 0.0426957 
-0.0707337 -9.89224 0.014004 
0.0426957 0.014004 -9.98138 
-9.94532 0.00164566 -0.076168 
0.00164566 -9.93479 -0.0263662 
-0.076168 -0.0263662 -9.92679 
-9.94525 0.00363573 -0.074397 
0.00363573 -9.93554 -0.0176519 
-0.074397 -0.0176519 -9.92612 
-9.93896 0.00773145 -0.0752275 
0.00773145 -9.93387 -0.0190912 
-0.0752275 -0.0190912 -9.93408 
-9.91573 -0.00163483 -0.0551528 
-0.00163483 -9.95075 -0.0228873 
-0.0551528 -0.0228873 -9.94042 
-9.88951 0.0596959 -0.0478236 
0.0596959 -9.91062 -0.109061 
-0.0478236 -0.109061 -10.0009 
-9.94689 0.00607313 -0.0663148 
0.00607313 -9.91273 -0.00381998 
-0.0663148 -0.00381998 -9.94143 
-9.89252 -0.0010314 -0.108056 
-0.0010314 -9.95507 -0.0559202 
-0.108056 -0.0559202 -9.95344 
-9.92062 0.0104903 -0.0875917 
0.0104903 -9.90021 -0.0714421 
-0.0875917 -0.0714421 -9.9802 
-10.1926 -0.034021 0.00725308 
-0.034021 -10.2552 -0.0432787 
0.00725308 -0.0432787 -10.079 
-10.097 0.0269412 -0.00284077 
0.0269412 -10.1407 0.0226578 
-0.00284077 0.0226578 -10.289 
-10.193 -0.0171324 0.0138527 
-0.0171324 -10.1537 -0.0147095 
0.0138527 -0.0147095 -10.1801 
-10.1274 -0.0403114 0.0594917 
-0.0403114 -10.1622 -0.0415759 
0.0594917 -0.0415759 -10.2371 
-9.94133 0.00916639 -0.00819631 
0.00916639 -9.93992 -0.0151672 
-0.00819631 -0.0151672 -10.1645 
-9.95379 0.00390949 -0.000765548 
0.00390949 -9.9043 -0.00666738 
-0.000765548 -0.00666738 -10.1876 
-9.92793 -0.00664417 -0.0107224 
-0.00664417 -9.93999 -0.00565877 
-0.0107224 -0.00565877 -10.1778 
-9.90665 -0.00375248 -0.0123847 
-0.00375248 -9.96188 0.0462697 
-0.0123847 0.0462697 -10.1772 
-9.96771 -0.00361366 -0.0590064 
-0.00361366 -9.9658 -0.0457271 
-0.0590064 -0.0457271 -9.95623 
-9.96202 0.00303595 -0.0530418 
0.00303595 -9.9585 -0.0453668 
-0.0530418 -0.0453668 -9.96923 
-9.96531 -0.00704773 -0.0462757 
-0.00704773 -9.9657 -0.0437938 
-0.0462757 -0.0437938 -9.95874 
-9.95269 0.00368997 -0.0575255 
0.00368997 -9.95871 -0.0415358 
-0.0575255 -0.0415358 -9.97835 
-9.9417 -0.0493493 0.0238366 
-0.0493493 -9.88866 0.0124036 
0.0238366 0.0124036 -10.0138 
-9.92496 -0.00857105 0.0283472 
-0.00857105 -9.93367 0.0061686 
0.0283472 0.0061686 -9.98551 
-9.9226 -0.0144706 0.00693946 
-0.0144706 -9.92074 0.02517 
0.00693946 0.02517 -10.0008 
-9.92345 -0.0219249 0.00954767 
-0.0219249 -9.9212 0.016915 
0.00954767 0.016915 -9.99949 
-9.97287 -0.00111239 0.00910144 
-0.00111239 -9.97563 0.0449708 
0.00910144 0.0449708 -9.95251 
-9.96852 -0.000874838 0.0133672 
-0.000874838 -9.96494 0.039363 
0.0133672 0.039363 -9.96755 
-9.9681 -0.00291642 0.00855271 
-0.00291642 -9.97323 0.0465184 
0.00855271 0.0465184 -9.95968 
-9.96716 -0.000302607 0.00736327 
-0.000302607 -9.97184 0.0472726 
0.00736327 0.0472726 -9.96202 
-9.92943 0.000143388 0.0470195 
0.000143388 -9.93371 0.0496373 
0.0470195 0.0496373 -9.96069 
-9.93085 0.00733632 0.0524673 
0.00733632 -9.93352 0.0517592 
0.0524673 0.0517592 -9.95947 
-9.92429 -0.00793507 0.0420537 
-0.00793507 -9.94593 0.0610883 
0.0420537 0.0610883 -9.95362 
-9.92328 -0.000835666 0.0515472 
-0.000835666 -9.93465 0.0525156 
0.0515472 0.0525156 -9.9659 
-10.9159 0.139697 0.165351 
0.139697 -10.7275 0.193144 
0.165351 0.193144 -9.89483 
-10.0443 -0.0197343 -0.0841776 
-0.0197343 -10.0052 -0.242815 
-0.0841776 -0.242815 -11.4888 
-10.6669 -0.00937933 -0.0320799 
-0.00937933 -10.5894 0.0434815 
-0.0320799 0.0434815 -10.2819 
-10.8137 -0.190907 -0.168904 
-0.190907 -10.9979 -0.533109 
-0.168904 -0.533109 -9.72668 
-10.1549 -0.0209436 0.0231525 
-0.0209436 -10.141 -0.0202688 
0.0231525 -0.0202688 -10.2136 
-10.2187 -0.0162778 0.0044153 
-0.0162778 -10.2301 -0.0550919 
0.0044153 -0.0550919 -10.0607 
-10.1217 -0.0242008 0.0223579 
-0.0242008 -10.1215 0.0199037 
0.0223579 0.0199037 -10.2663 
-10.1654 -0.0121541 0.00199851 
-0.0121541 -10.0858 -0.0717665 
0.00199851 -0.0717665 -10.2583 
-9.96134 0.000292763 0.0619541 
0.000292763 -9.96219 -0.0374716 
0.0619541 -0.0374716 -9.96393 
-9.96036 0.00130392 0.0602612 
0.00130392 -9.96107 -0.0320367 
0.0602612 -0.0320367 -9.96602 
-9.96141 0.00531042 0.0555669 
0.00531042 -9.96427 -0.0469669 
0.0555669 -0.0469669 -9.96179 
-9.9536 -0.00443936 0.0497128 
-0.00443936 -9.96386 -0.0469447 
0.0497128 -0.0469447 -9.97 
-9.92987 0.0132687 0.034484 
0.0132687 -9.91795 0.0580789 
0.034484 0.0580789 -9.9646 
-9.92516 -0.0144382 0.0501704 
-0.0144382 -9.93573 0.042583 
0.0501704 0.042583 -9.95153 
-9.92774 -0.00759231 0.0544857 
-0.00759231 -9.94315 0.0435044 
0.0544857 0.0435044 -9.94152 
-9.92379 -0.0129774 0.0445221 
-0.0129774 -9.93774 0.0353315 
0.0445221 0.0353315 -9.95089 
-9.84854 -0.0288461 0.0811161 
-0.0288461 -9.97951 0.138493 
0.0811161 0.138493 -9.74975 
-9.85529 0.0118123 0.0323422 
0.0118123 -9.87323 0.112909 
0.0323422 0.112909 -9.84927 
-9.90772 0.0230514 0.046717 
0.0230514 -9.88397 0.0596456 
0.046717 0.0596456 -9.78611 
-9.91515 0.0246203 0.0599824 
0.0246203 -9.83888 0.104872 
0.0599824 0.104872 -9.82376 
-9.9902 0.0154706 0.0313484 
0.0154706 -9.8856 0.0578526 
0.0313484 0.0578526 -9.78143 
-9.92849 0.0696778 0.10805 
0.0696778 -9.84804 0.0343674 
0.10805 0.0343674 -9.8807 
-9.9027 0.00640819 0.000741003 
0.00640819 -9.92181 0.0411924 
0.000741003 0.0411924 -9.83272 
-9.97469 0.0324981 0.027952 
0.0324981 -9.91742 0.044854 
0.027952 0.044854 -9.76513 
-9.92526 -0.0281752 0.0226474 
-0.0281752 -9.92812 -0.0472558 
0.0226474 -0.0472558 -9.96965 
-9.90236 -0.0158002 0.0546621 
-0.0158002 -9.89686 -0.0314795 
0.0546621 -0.0314795 -10.0238 
-9.88373 0.00451632 0.0539984 
0.00451632 -9.93755 -0.0244108 
0.0539984 -0.0244108 -10.0017 
-9.89381 -0.0482336 -0.0228826 
-0.0482336 -9.92476 0.0110296 
-0.0228826 0.0110296 -10.0045 
-9.67518 0.0255285 0.734929 
0.0255285 -10.2803 -0.196555 
0.734929 -0.196555 -9.89175 
-9.65501 0.246709 0.381883 
0.246709 -10.6899 -0.135118 
0.381883 -0.135118 -9.50233 
-9.92334 -0.174661 0.424875 
-0.174661 -9.90334 -0.326128 
0.424875 -0.326128 -10.0206 
-9.37322 -0.293495 0.227973 
-0.293495 -10.3904 0.0202515 
0.227973 0.0202515 -10.0836 
-9.85242 0.0562603 -0.130056 
0.0562603 -9.90975 -0.0223547 
-0.130056 -0.0223547 -9.82918 
-9.87749 0.0295047 -0.305725 
0.0295047 -9.76301 -0.040472 
-0.305725 -0.040472 -9.95086 
-9.75445 0.0114031 -0.170341 
0.0114031 -9.8876 -0.000650728 
-0.170341 -0.000650728 -9.94931 
-9.76477 0.0130255 -0.163403 
0.0130255 -9.89563 0.0608592 
-0.163403 0.0608592 -9.93096 
-9.84519 0.0652316 0.0992732 
0.0652316 -9.79135 -0.0285153 
0.0992732 -0.0285153 -10.3983 
-10.3125 0.0559149 -0.0468363 
0.0559149 -9.99652 0.171044 
-0.0468363 0.171044 -9.7258 
-9.92681 0.00712154 0.0190854 
0.00712154 -9.73117 0.057833 
0.0190854 0.057833 -10.3768 
-9.95233 -0.123059 -0.230612 
-0.123059 -9.87672 0.0029019 
-0.230612 0.0029019 -10.2058 
-10.0612 -0.00770767 -0.0507706 
-0.00770767 -10.1555 -0.117955 
-0.0507706 -0.117955 -10.224 
-10.1371 0.0359593 0.0268818 
0.0359593 -10.0597 0.0118126 
0.0268818 0.0118126 -10.2438 
-10.1591 -0.0177629 -0.00913882 
-0.0177629 -10.0465 0.00300035 
-0.00913882 0.00300035 -10.2351 
-10.1783 -0.045458 -0.00950784 
-0.045458 -9.99577 -0.01468 
-0.00950784 -0.01468 -10.2665 
-9.97337 0.000422228 -0.00461791 
0.000422228 -9.97524 -0.000251521 
-0.00461791 -0.000251521 -9.98517 
-9.97667 -0.00127815 -0.00371652 
-0.00127815 -9.97315 0.00213443 
-0.00371652 0.00213443 -9.98396 
-9.98081 -0.00815903 -0.00917537 
-0.00815903 -9.97301 0.00721703 
-0.00917537 0.00721703 -9.97995 
-9.97823 0.000601693 -0.0077048 
0.000601693 -9.96946 0.00293813 
-0.0077048 0.00293813 -9.98609 
-9.94595 0.0021632 0.0629595 
0.0021632 -9.93564 -0.0479395 
0.0629595 -0.0479395 -9.9491 
-9.94594 -0.0017626 0.0627349 
-0.0017626 -9.94131 -0.0460118 
0.0627349 -0.0460118 -9.94344 
-9.93061 0.000825921 0.0653263 
0.000825921 -9.9421 -0.0495592 
0.0653263 -0.0495592 -9.95799 
-9.93543 -0.00461624 0.0641301 
-0.00461624 -9.9332 -0.0408229 
0.0641301 -0.0408229 -9.96207 
-10.0403 0.0846123 0.000923515 
0.0846123 -10.0247 0.0886327 
0.000923515 0.0886327 -10.3309 
-10.0863 0.0661574 -0.0346175 
0.0661574 -10.0546 -0.0401546 
-0.0346175 -0.0401546 -10.255 
-9.95783 -0.108255 -0.0776871 
-0.108255 -10.2385 0.0322701 
-0.0776871 0.0322701 -10.1995 
-9.91529 0.0129976 0.0261961 
0.0129976 -10.1462 -0.0790007 
0.0261961 -0.0790007 -10.3344 
-9.96617 0.00028332 0.0386542 
0.00028332 -9.96057 -0.0311059 
0.0386542 -0.0311059 -9.97174 
-9.9704 0.0094599 0.0380762 
0.0094599 -9.97185 -0.0281862 
0.0380762 -0.0281862 -9.95623 
-9.96981 0.00442381 0.0330404 
0.00442381 -9.96702 -0.0314695 
0.0330404 -0.0314695 -9.96165 
-9.96909 0.00585304 0.0373742 
0.00585304 -9.96374 -0.0259252 
0.0373742 -0.0259252 -9.96565 
-9.91122 -0.0130924 0.042805 
-0.0130924 -9.93476 -0.00155658 
0.042805 -0.00155658 -9.94021 
-9.9457 -0.00770686 0.0888351 
-0.00770686 -9.91202 -0.018476 
0.0888351 -0.018476 -9.92848 
-9.92168 -0.0055758 0.0915615 
-0.0055758 -9.93318 -0.0367249 
0.0915615 -0.0367249 -9.93133 
-9.89119 -0.00926819 0.0947201 
-0.00926819 -9.96357 -0.0124712 
0.0947201 -0.0124712 -9.93144 
-9.951 0.0161097 0.0161958 
0.0161097 -9.91236 -0.00820396 
0.0161958 -0.00820396 -9.94322 
-9.91077 0.0513805 0.0140147 
0.0513805 -9.94545 -0.00323549 
0.0140147 -0.00323549 -9.95036 
-9.9344 0.0305364 -0.00349518 
0.0305364 -9.93019 -0.00952531 
-0.00349518 -0.00952531 -9.94199 
-9.92562 0.0275806 0.0083751 
0.0275806 -9.9193 0.0231207 
0.0083751 0.0231207 -9.96166 
-9.90544 0.0738864 -0.14137 
0.0738864 -9.88568 -0.0337972 
-0.14137 -0.0337972 -9.97147 
-9.82411 0.0320501 -0.106466 
0.0320501 -9.92971 0.0141526 
-0.106466 0.0141526 -10.0088 
-9.95129 -0.0223586 -0.108384 
-0.0223586 -9.82343 -0.0219562 
-0.108384 -0.0219562 -9.98788 
-9.87501 0.0227566 -0.116507 
0.0227566 -9.90383 0.000126425 
-0.116507 0.000126425 -9.98376 
-9.97239 0.00147574 -0.00415059 
0.00147574 -9.97158 0.00643613 
-0.00415059 0.00643613 -9.98392 
-9.97762 0.00588188 -0.00741186 
0.00588188 -9.97029 0.000284787 
-0.00741186 0.000284787 -9.97998 
-9.9741 0.00192217 -0.00342867 
0.00192217 -9.97218 0.00416128 
-0.00342867 0.00416128 -9.98161 
-9.97472 0.00113066 -0.00949684 
0.00113066 -9.96935 0.00289255 
-0.00949684 0.00289255 -9.98382 
-9.94764 -0.0109435 -0.01784 
-0.0109435 -9.9491 0.00219108 
-0.01784 0.00219108 -9.88808 
-9.95364 0.0370912 0.0717844 
0.0370912 -9.96957 -0.0161817 
0.0717844 -0.0161817 -9.86161 
-10.088 -0.029775 -0.00671067 
-0.029775 -9.88494 -0.0184352 
-0.00671067 -0.0184352 -9.81185 
-9.97043 0.00208056 -0.0174135 
0.00208056 -9.90324 0.0352288 
-0.0174135 0.0352288 -9.91115 
-9.92316 -0.00892553 0.0155559 
-0.00892553 -9.93815 -0.010498 
0.0155559 -0.010498 -9.96918 
-9.93155 -0.00171731 0.0334331 
-0.00171731 -9.91799 0.014169 
0.0334331 0.014169 -9.98096 
-9.88774 -0.0179446 0.020151 
-0.0179446 -9.92348 0.000536901 
0.020151 0.000536901 -10.0193 
-9.94579 -0.0154982 0.0483818 
-0.0154982 -9.90003 0.00780217 
0.0483818 0.00780217 -9.98467 
-9.97601 0.0079987 -0.0239865 
0.0079987 -9.96188 0.0281182 
-0.0239865 0.0281182 -9.98385 
-9.99321 0.0135463 -0.0357433 
0.0135463 -9.96406 0.0205908 
-0.0357433 0.0205908 -9.96445 
-9.97941 0.00272867 -0.0347141 
0.00272867 -9.96881 0.0271537 
-0.0347141 0.0271537 -9.9735 
-9.97497 -0.00163634 -0.0359586 
-0.00163634 -9.97303 0.0297974 
-0.0359586 0.0297974 -9.97373 
-9.96311 -0.00214094 0.0420188 
-0.00214094 -10.2091 -0.0489053 
0.0420188 -0.0489053 -10.6434 
-10.4606 0.10221 -0.140344 
0.10221 -10.3306 0.160896 
-0.140344 0.160896 -10.0244 
-10.3225 -0.0413729 -0.059291 
-0.0413729 -10.2146 0.106811 
-0.059291 0.106811 -10.2785 
-10.3071 0.0569125 0.0431282 
0.0569125 -10.0863 0.236674 
0.0431282 0.236674 -10.4222 
-9.35432 -0.108161 0.439594 
-0.108161 -10.1934 -0.0547499 
0.439594 -0.0547499 -10.3329 
-9.78259 -0.107965 0.195375 
-0.107965 -9.93093 0.0537087 
0.195375 0.0537087 -10.167 
-10.072 0.0848754 0.0768755 
0.0848754 -9.75198 -0.0491651 
0.0768755 -0.0491651 -10.0565 
-9.86065 0.0174951 0.105165 
0.0174951 -9.99019 0.242428 
0.105165 0.242428 -10.0297 
-9.93876 0.0268711 -0.0121953 
0.0268711 -9.93755 0.0120363 
-0.0121953 0.0120363 -9.88768 
-9.92413 -0.00710135 0.00698061 
-0.00710135 -9.90307 0.0273836 
0.00698061 0.0273836 -9.93679 
-9.93679 0.020472 0.00606619 
0.020472 -9.92795 -0.000203111 
0.00606619 -0.000203111 -9.89924 
-9.93817 0.00951576 0.0124846 
0.00951576 -9.91715 0.0200134 
0.0124846 0.0200134 -9.90866 
-10.092 0.0154831 0.0168206 
0.0154831 -10.1327 -0.0614596 
0.0168206 -0.0614596 -10.2104 
-10.2278 -0.04516 0.125475 
-0.04516 -10.1332 -0.00207751 
0.125475 -0.00207751 -10.0741 
-10.0405 -0.0757185 -0.0113783 
-0.0757185 -10.1863 -0.0219599 
-0.0113783 -0.0219599 -10.2083 
-10.0072 -0.0127923 0.0723521 
-0.0127923 -10.1605 -0.102641 
0.0723521 -0.102641 -10.2675 
-9.91247 0.0687673 -0.0364555 
0.0687673 -9.93776 -0.00216982 
-0.0364555 -0.00216982 -9.9727 
-9.93212 0.0186053 -0.0240995 
0.0186053 -9.94474 0.00957119 
-0.0240995 0.00957119 -9.94606 
-9.93586 0.0141626 -0.0572389 
0.0141626 -9.95539 -0.00282481 
-0.0572389 -0.00282481 -9.93168 
-9.92419 0.0464087 -0.0141293 
0.0464087 -9.95287 -0.0188121 
-0.0141293 -0.0188121 -9.94587 
-9.93886 0.0224496 0.0163459 
0.0224496 -9.92991 -0.012423 
0.0163459 -0.012423 -9.93953 
-9.92375 0.0234084 0.00260808 
0.0234084 -9.93486 -0.012431 
0.00260808 -0.012431 -9.94969 
-9.9322 0.00699247 -0.00882839 
0.00699247 -9.92273 -0.0123656 
-0.00882839 -0.0123656 -9.95337 
-9.92955 0.0395967 0.00348484 
0.0395967 -9.90217 0.00671701 
0.00348484 0.00671701 -9.97658 
-9.89032 0.0369828 -0.0427344 
0.0369828 -9.96235 0.0381457 
-0.0427344 0.0381457 -9.91714 
-9.92097 0.0196115 -0.043013 
0.0196115 -9.91799 0.0422291 
-0.043013 0.0422291 -9.93084 
-9.93194 0.0227968 -0.0401575 
0.0227968 -9.90811 0.0236909 
-0.0401575 0.0236909 -9.92974 
-9.93073 0.0374247 -0.00367454 
0.0374247 -9.92314 0.0310058 
-0.00367454 0.0310058 -9.91593 
-9.91195 -0.0522146 0.00359198 
-0.0522146 -9.88858 0.0354407 
0.00359198 0.0354407 -9.95599 
-9.89399 -0.0765549 -0.0161027 
-0.0765549 -9.89128 0.0484827 
-0.0161027 0.0484827 -9.97124 
-9.87312 -0.0302613 0.0105928 
-0.0302613 -9.93162 -0.0336322 
0.0105928 -0.0336322 -9.95177 
-9.94304 -0.0327771 0.0117768 
-0.0327771 -9.88762 0.0242832 
0.0117768 0.0242832 -9.92585 
-9.98256 0.0082936 -0.0129235 
0.0082936 -9.96041 0.00116777 
-0.0129235 0.00116777 -9.94764 
-9.9518 0.00203623 -0.0127798 
0.00203623 -9.97454 0.0208017 
-0.0127798 0.0208017 -9.96427 
-9.95984 0.0133214 -0.0263508 
0.0133214 -9.97819 0.0205251 
-0.0263508 0.0205251 -9.95258 
-9.96586 0.00731337 -0.0166444 
0.00731337 -9.97265 0.0178985 
-0.0166444 0.0178985 -9.9521 
-9.93095 -0.0149786 0.0119539 
-0.0149786 -9.90423 -0.0133255 
0.0119539 -0.0133255 -9.98626 
-9.91325 0.0134825 0.0315698 
0.0134825 -9.92927 0.0198388 
0.0315698 0.0198388 -9.97891 
-9.92023 0.0147597 0.0267185 
0.0147597 -9.93195 0.0163959 
0.0267185 0.0163959 -9.96926 
-9.92966 -0.0289482 0.0488301 
-0.0289482 -9.9289 -0.0087198 
0.0488301 -0.0087198 -9.96287 
-9.9036 0.00572841 0.0335206 
0.00572841 -9.93016 -0.0204358 
0.0335206 -0.0204358 -9.88685 
-9.93361 -0.0252038 0.0648724 
-0.0252038 -9.98678 0.0412209 
0.0648724 0.0412209 -9.80022 
-9.93386 -2.18696e-05 0.0538871 
-2.18696e-05 -9.93173 0.0706394 
0.0538871 0.0706394 -9.85501 
-9.92592 0.00382992 0.0418874 
0.00382992 -9.94205 0.0476336 
0.0418874 0.0476336 -9.85263 
-9.95168 0.0251069 0.0383752 
0.0251069 -9.96149 -0.0136324 
0.0383752 -0.0136324 -9.95543 
-9.96272 0.0251983 0.0349864 
0.0251983 -9.95037 -0.0260638 
0.0349864 -0.0260638 -9.9555 
-9.9523 0.0132341 0.0187 
0.0132341 -9.95712 -0.0420632 
0.0187 -0.0420632 -9.95917 
-9.97758 0.0266433 0.0294741 
0.0266433 -9.94829 -0.000891517 
0.0294741 -0.000891517 -9.94272 
-9.91245 0.0225578 0.0150343 
0.0225578 -9.94793 -0.0116427 
0.0150343 -0.0116427 -9.94016 
-9.93552 0.0370603 0.0233952 
0.0370603 -9.92917 -0.0145497 
0.0233952 -0.0145497 -9.93584 
-9.96261 0.0405253 0.00558579 
0.0405253 -9.91269 -0.0106597 
0.00558579 -0.0106597 -9.92524 
-9.94143 0.0288048 0.0177136 
0.0288048 -9.92186 0.0127617 
0.0177136 0.0127617 -9.93725 
-9.94398 0.00604029 0.0517732 
0.00604029 -9.95456 0.08033 
0.0517732 0.08033 -9.8212 
-9.94497 0.00124369 0.0519237 
0.00124369 -9.9418 0.0698084 
0.0519237 0.0698084 -9.83297 
-9.9261 -0.0300253 0.0568757 
-0.0300253 -9.9382 0.0465898 
0.0568757 0.0465898 -9.85543 
-9.91195 0.000227241 0.0710086 
0.000227241 -9.92394 0.0316791 
0.0710086 0.0316791 -9.88385 
-9.94789 0.0142876 0.00727027 
0.0142876 -9.94412 0.0147618 
0.00727027 0.0147618 -9.95767 
-9.94662 0.0151442 0.00134444 
0.0151442 -9.93473 0.00152849 
0.00134444 0.00152849 -9.96833 
-9.96594 -0.00726677 -0.0322531 
-0.00726677 -9.92027 0.00468043 
-0.0322531 0.00468043 -9.96347 
-9.93598 0.0220774 -0.000431257 
0.0220774 -9.94985 0.0118466 
-0.000431257 0.0118466 -9.96386 
-9.90576 0.00185168 0.0810455 
0.00185168 -9.92697 -0.00824215 
0.0810455 -0.00824215 -9.90285 
-9.90071 -0.00157595 0.0875995 
-0.00157595 -9.92822 -0.00361868 
0.0875995 -0.00361868 -9.90665 
-9.90637 -0.003275 0.0874007 
-0.003275 -9.9232 -0.00782204 
0.0874007 -0.00782204 -9.90601 
-9.90962 -0.0020582 0.0820113 
-0.0020582 -9.93007 -0.0100124 
0.0820113 -0.0100124 -9.8959 
-9.92121 -0.0186681 0.0204536 
-0.0186681 -9.92024 -0.0397547 
0.0204536 -0.0397547 -9.98097 
-9.93577 -0.0222944 -0.00254415 
-0.0222944 -9.9687 -0.0369009 
-0.00254415 -0.0369009 -9.91796 
-9.9435 -0.0150562 0.00636414 
-0.0150562 -9.92824 0.000350977 
0.00636414 0.000350977 -9.95068 
-9.94882 -0.00954699 0.0067092 
-0.00954699 -9.98844 -0.0402426 
0.0067092 -0.0402426 -9.88516 
-9.97139 0.0150373 0.0188111 
0.0150373 -9.97044 -0.000726417 
0.0188111 -0.000726417 -9.97951 
-9.98469 -0.00157839 0.0079675 
-0.00157839 -9.97344 0.0327539 
0.0079675 0.0327539 -9.96321 
-9.97505 -0.00775827 0.0125533 
-0.00775827 -9.97076 0.0118362 
0.0125533 0.0118362 -9.97553 
-9.97402 -0.00817548 0.00987453 
-0.00817548 -9.97072 0.0087333 
0.00987453 0.0087333 -9.9766 
-9.91329 0.000302417 0.0425085 
0.000302417 -9.88149 0.0643712 
0.0425085 0.0643712 -9.93126 
-9.9087 -0.000947693 0.0470717 
-0.000947693 -9.88198 0.0570155 
0.0470717 0.0570155 -9.93536 
-9.9055 0.00418516 0.0354829 
0.00418516 -9.87177 0.0630619 
0.0354829 0.0630619 -9.94878 
-9.91194 0.00137558 0.0470401 
0.00137558 -9.86407 0.0873761 
0.0470401 0.0873761 -9.95004 
-10.1291 -0.0652556 -0.103242 
-0.0652556 -10.0137 -0.0605141 
-0.103242 -0.0605141 -10.3645 
-10.3463 0.183971 -0.0923386 
0.183971 -9.89296 0.0147162 
-0.0923386 0.0147162 -10.268 
-10.1726 0.0696874 -0.0408804 
0.0696874 -9.95338 0.065873 
-0.0408804 0.065873 -10.3813 
-9.96421 -8.3501e-06 0.161645 
-8.3501e-06 -10.0387 0.309984 
0.161645 0.309984 -10.5044 
-9.91563 -0.00262163 0.0182949 
-0.00262163 -9.91549 -0.0143365 
0.0182949 -0.0143365 -9.9927 
-9.91965 -0.0029358 0.0159618 
-0.0029358 -9.92553 0.000328917 
0.0159618 0.000328917 -9.97863 
-9.91849 -0.00045742 0.0147576 
-0.00045742 -9.93162 0.00140439 
0.0147576 0.00140439 -9.9737 
-9.92849 0.000969429 0.0193786 
0.000969429 -9.91983 0.00824909 
0.0193786 0.00824909 -9.9755 
-9.8719 -0.0982594 0.0495021 
-0.0982594 -9.89553 -0.0238227 
0.0495021 -0.0238227 -10.0038 
-10.0089 -0.17099 0.00635026 
-0.17099 -9.83357 0.144143 
0.00635026 0.144143 -9.92875 
-9.94625 -0.0522444 -0.145986 
-0.0522444 -9.95918 0.0502252 
-0.145986 0.0502252 -9.8658 
-9.84659 0.0593916 -0.0511554 
0.0593916 -10.0253 0.0890446 
-0.0511554 0.0890446 -9.89933 
-9.97714 -0.00267697 0.0122745 
-0.00267697 -9.97144 0.00531235 
0.0122745 0.00531235 -9.98303 
-9.97654 -0.000294181 0.00893505 
-0.000294181 -9.97442 0.0062297 
0.00893505 0.0062297 -9.98065 
-9.97406 0.000912599 0.00831808 
0.000912599 -9.97309 0.00571599 
0.00831808 0.00571599 -9.98446 
-9.97824 -0.000584073 0.00946989 
-0.000584073 -9.97145 0.00572319 
0.00946989 0.00572319 -9.98192 
-9.9436 -0.00638369 -0.0803977 
-0.00638369 -9.9455 0.0120896 
-0.0803977 0.0120896 -9.92762 
-9.94729 -0.00152361 -0.0717492 
-0.00152361 -9.95426 0.0264554 
-0.0717492 0.0264554 -9.91516 
-9.94975 0.000893261 -0.0780957 
0.000893261 -9.94843 0.0024253 
-0.0780957 0.0024253 -9.91853 
-9.91545 0.00098619 -0.0660156 
0.00098619 -9.94321 0.0160072 
-0.0660156 0.0160072 -9.95807 
-9.85607 -0.0123871 0.05537 
-0.0123871 -9.9027 -0.027148 
0.05537 -0.027148 -9.98655 
-9.85886 -0.0142756 0.0710458 
-0.0142756 -9.92727 -0.0796128 
0.0710458 -0.0796128 -9.9592 
-9.89151 -0.0184453 0.0492954 
-0.0184453 -9.91779 -0.0895662 
0.0492954 -0.0895662 -9.93604 
-9.88829 -0.0708695 0.0945228 
-0.0708695 -9.85244 -0.0846205 
0.0945228 -0.0846205 -10.0046 
-9.89779 0.0218849 0.06409 
0.0218849 -9.91017 0.0628645 
0.06409 0.0628645 -9.95583 
-9.89932 0.0123774 0.0518461 
0.0123774 -9.90778 0.065848 
0.0518461 0.065848 -9.95669 
-9.91886 -0.00628974 0.051274 
-0.00628974 -9.92683 0.0679914 
0.051274 0.0679914 -9.91809 
-9.88342 -0.00286237 0.0419799 
-0.00286237 -9.93409 0.0315067 
0.0419799 0.0315067 -9.94628 
-10.1579 -0.104418 0.200852 
-0.104418 -9.97237 -0.22454 
0.200852 -0.22454 -11.2192 
-10.3483 -0.0924049 -0.0494979 
-0.0924049 -10.7309 0.129778 
-0.0494979 0.129778 -10.2702 
-10.6036 0.00429451 -0.00590704 
0.00429451 -10.6353 0.128608 
-0.00590704 0.128608 -10.1106 
-10.4566 0.0515273 -0.278152 
0.0515273 -10.7706 -0.287896 
-0.278152 -0.287896 -10.1222 
-9.97894 0.0497529 -0.0393564 
0.0497529 -9.70105 -0.171266 
-0.0393564 -0.171266 -10.3434 
-10.114 -0.132823 -0.0298903 
-0.132823 -9.82202 -0.134671 
-0.0298903 -0.134671 -10.0873 
-9.92358 0.110985 -0.105141 
0.110985 -9.70614 -0.139012 
-0.105141 -0.139012 -10.3936 
-10.1145 0.0275217 0.14901 
0.0275217 -9.79054 -0.288022 
0.14901 -0.288022 -10.1182 
-9.87602 -0.0401842 -0.00669474 
-0.0401842 -9.87522 -0.0420914 
-0.00669474 -0.0420914 -9.94287 
-10.0115 -0.110639 0.0540414 
-0.110639 -9.67131 -0.202504 
0.0540414 -0.202504 -10.0113 
-9.9198 -0.0361397 0.0652503 
-0.0361397 -9.86893 -0.12315 
0.0652503 -0.12315 -9.90538 
-9.91399 0.0288161 0.0589964 
0.0288161 -9.88987 -0.151726 
0.0589964 -0.151726 -9.89025 
-9.96395 0.0136544 -0.0134935 
0.0136544 -9.97381 0.0241729 
-0.0134935 0.0241729 -9.96755 
-9.96351 0.00640015 -0.00952959 
0.00640015 -9.96864 0.0191983 
-0.00952959 0.0191983 -9.97316 
-9.96849 -0.00228827 -0.0114806 
-0.00228827 -9.96368 0.0334868 
-0.0114806 0.0334868 -9.97313 
-9.97536 0.00603379 -0.0267222 
0.00603379 -9.97803 0.0177761 
-0.0267222 0.0177761 -9.95192 
-9.94134 0.0597495 -0.0220665 
0.0597495 -9.88862 0.0909838 
-0.0220665 0.0909838 -9.90933 
-9.9461 0.0547636 -0.0196163 
0.0547636 -9.86648 0.0937095 
-0.0196163 0.0937095 -9.92671 
-9.9334 0.0494086 -0.0320095 
0.0494086 -9.88842 0.0879522 
-0.0320095 0.0879522 -9.91746 
-9.93456 0.086763 -0.00539886 
0.086763 -9.89065 0.077684 
-0.00539886 0.077684 -9.91407 
-9.91491 -0.0517679 0.0261859 
-0.0517679 -9.91537 -0.0157614 
0.0261859 -0.0157614 -9.9238 
-9.80756 -0.00178075 0.0329281 
-0.00178075 -9.88679 -0.0518787 
0.0329281 -0.0518787 -10.0597 
-9.90249 0.023527 0.00525358 
0.023527 -9.87821 -0.0356671 
0.00525358 -0.0356671 -9.97338 
-9.9028 -0.0294198 0.102923 
-0.0294198 -9.98113 -0.106721 
0.102923 -0.106721 -9.87015 
-10.1655 -0.32766 -0.123745 
-0.32766 -9.15208 0.0718357 
-0.123745 0.0718357 -10.3137 
-10.0404 -0.0773551 -0.460211 
-0.0773551 -9.79809 0.0321173 
-0.460211 0.0321173 -9.79283 
-10.1617 -0.309367 -0.273633 
-0.309367 -9.73837 0.0710398 
-0.273633 0.0710398 -9.73123 
-9.60655 -0.542422 -0.188212 
-0.542422 -9.72394 0.640497 
-0.188212 0.640497 -10.3008 
-9.78403 -0.240831 0.119892 
-0.240831 -9.71957 0.440142 
0.119892 0.440142 -9.91295 
-9.58677 -0.0370559 0.128518 
-0.0370559 -10.1744 0.359427 
0.128518 0.359427 -9.65534 
-10.1557 0.152454 -0.263349 
0.152454 -9.85451 0.435321 
-0.263349 0.435321 -9.40634 
-9.84415 0.181534 -0.234084 
0.181534 -9.70965 0.0529815 
-0.234084 0.0529815 -9.86275 
-9.95555 -0.0140722 0.00978723 
-0.0140722 -9.92938 -0.0309094 
0.00978723 -0.0309094 -9.94261 
-9.93842 -0.026899 -0.0239955 
-0.026899 -9.90354 0.0064086 
-0.0239955 0.0064086 -9.98559 
-9.93099 -0.000292938 0.00427626 
-0.000292938 -9.95159 -0.00568598 
0.00427626 -0.00568598 -9.94497 
-9.9365 -0.013545 -0.00748399 
-0.013545 -9.93371 -0.00764762 
-0.00748399 -0.00764762 -9.95734 
-9.93262 0.0649873 -0.0619898 
0.0649873 -9.83228 0.0975065 
-0.0619898 0.0975065 -9.97761 
-9.91209 0.061221 -0.0326916 
0.061221 -9.90767 0.0717671 
-0.0326916 0.0717671 -9.92275 
-9.90353 0.0306905 -0.0538631 
0.0306905 -9.90604 0.0769653 
-0.0538631 0.0769653 -9.93293 
-9.87517 0.0450051 -0.0679096 
0.0450051 -9.87588 0.00977826 
-0.0679096 0.00977826 -9.99145 
-9.95461 -0.00657462 0.0397461 
-0.00657462 -9.94682 -0.0656065 
0.0397461 -0.0656065 -9.94862 
-9.94925 -0.00530957 0.0383632 
-0.00530957 -9.9546 -0.069658 
0.0383632 -0.069658 -9.94619 
-9.94938 -0.00305785 0.0399741 
-0.00305785 -9.95146 -0.0676379 
0.0399741 -0.0676379 -9.94921 
-9.9527 -0.00478184 0.0384993 
-0.00478184 -9.95492 -0.0692458 
0.0384993 -0.0692458 -9.94242 
-9.96279 0.031078 0.00437118 
0.031078 -9.92985 -0.0152686 
0.00437118 -0.0152686 -9.95064 
-9.95903 0.0274551 4.35191e-05 
0.0274551 -9.93145 -0.013149 
4.35191e-05 -0.013149 -9.95279 
-9.96179 0.0225719 0.0137028 
0.0225719 -9.93237 -0.0145304 
0.0137028 -0.0145304 -9.94912 
-9.96735 0.0283836 0.00197092 
0.0283836 -9.93351 -0.0101615 
0.00197092 -0.0101615 -9.94241 
-9.89993 0.0102422 0.0273904 
0.0102422 -9.89393 0.0417813 
0.0273904 0.0417813 -9.97296 
-9.90047 0.0192573 0.0628168 
0.0192573 -9.88499 0.0519799 
0.0628168 0.0519799 -9.98136 
-9.92995 -0.0111689 0.0593419 
-0.0111689 -9.88719 0.0529218 
0.0593419 0.0529218 -9.94968 
-9.91308 0.0160772 0.0511318 
0.0160772 -9.88245 0.0444546 
0.0511318 0.0444546 -9.97129 
-9.97818 0.00112896 -0.0246544 
0.00112896 -9.98153 0.0578414 
-0.0246544 0.0578414 -9.97668 
-9.97958 -0.00473054 -0.0188987 
-0.00473054 -9.9735 0.0578466 
-0.0188987 0.0578466 -9.98331 
-9.97818 0.000125151 -0.0244007 
0.000125151 -9.98051 0.0574252 
-0.0244007 0.0574252 -9.97771 
-9.98148 -0.00262118 -0.0257564 
-0.00262118 -9.9797 0.0614408 
-0.0257564 0.0614408 -9.97521 
-9.93295 0.00150196 -0.083498 
0.00150196 -9.9317 0.0173789 
-0.083498 0.0173789 -9.9163 
-9.92416 0.00605813 -0.0796875 
0.00605813 -9.93805 0.0148184 
-0.0796875 0.0148184 -9.91873 
-9.92715 -0.00290318 -0.0790817 
-0.00290318 -9.9317 0.00840864 
-0.0790817 0.00840864 -9.9221 
-9.93226 0.00160255 -0.0846514 
0.00160255 -9.93351 0.00737358 
-0.0846514 0.00737358 -9.91518 
-9.97584 0.00563912 -0.00375636 
0.00563912 -9.90143 0.021625 
-0.00375636 0.021625 -10.1972 
-9.92173 -0.0017426 0.0151162 
-0.0017426 -9.96654 0.0424427 
0.0151162 0.0424427 -10.1862 
-9.94747 0.0537601 -0.0173747 
0.0537601 -9.89476 -0.0365177 
-0.0173747 -0.0365177 -10.2323 
-9.96978 0.0103282 0.00289475 
0.0103282 -9.91427 0.0221464 
0.00289475 0.0221464 -10.1904 
-9.57005 -0.0197997 0.181764 
-0.0197997 -9.42241 -0.428232 
0.181764 -0.428232 -9.58303 
-9.50868 -0.158368 0.00886417 
-0.158368 -9.59026 -0.831275 
0.00886417 -0.831275 -9.47655 
-9.60597 0.105154 0.015185 
0.105154 -9.41583 -0.635462 
0.015185 -0.635462 -9.55369 
-9.58616 -0.00603965 0.0646508 
-0.00603965 -9.30002 -0.317806 
0.0646508 -0.317806 -9.68932 
-9.37128 -0.190675 0.0332899 
-0.190675 -10.4722 0.20438 
0.0332899 0.20438 -9.84304 
-10.0555 0.379194 0.486517 
0.379194 -9.71727 0.0374132 
0.486517 0.0374132 -9.91372 
-10.1886 0.39429 -0.0405794 
0.39429 -9.3971 0.181898 
-0.0405794 0.181898 -10.1008 
-10.0986 0.232934 0.101764 
0.232934 -9.43451 0.459832 
0.101764 0.459832 -10.1534 
-9.9032 -0.0442525 -0.121508 
-0.0442525 -9.89044 0.0315849 
-0.121508 0.0315849 -9.9278 
-9.87218 -0.0238904 -0.129095 
-0.0238904 -9.92471 0.0314415 
-0.129095 0.0314415 -9.92454 
-9.78735 -0.0316952 -0.145462 
-0.0316952 -9.99225 0.0393735 
-0.145462 0.0393735 -9.94183 
-9.91452 0.0168244 -0.149287 
0.0168244 -9.91289 0.0288669 
-0.149287 0.0288669 -9.89402 
-9.88937 0.0275538 -0.0580982 
0.0275538 -9.94032 0.0290712 
-0.0580982 0.0290712 -9.9176 
-9.928 0.0196024 -0.0428021 
0.0196024 -9.92464 0.015978 
-0.0428021 0.015978 -9.89465 
-9.8854 0.0194184 -0.05967 
0.0194184 -9.94233 0.0426564 
-0.05967 0.0426564 -9.91956 
-9.92103 0.0343147 -0.0721809 
0.0343147 -9.95466 0.0165566 
-0.0721809 0.0165566 -9.87161 
-10.1001 -0.0528094 -0.224384 
-0.0528094 -10.0535 -0.0689192 
-0.224384 -0.0689192 -10.202 
-9.84662 -0.0118414 -0.010909 
-0.0118414 -10.1514 -0.0585199 
-0.010909 -0.0585199 -10.3576 
-9.93429 -0.0288614 -0.0432395 
-0.0288614 -10.1621 -0.0673558 
-0.0432395 -0.0673558 -10.2593 
-10.1894 -0.0168121 0.153868 
-0.0168121 -10.0564 0.106219 
0.153868 0.106219 -10.1099 
-9.95888 0.00510498 -0.0329596 
0.00510498 -9.95346 0.0550498 
-0.0329596 0.0550498 -9.93196 
-9.96281 0.00590486 -0.0198476 
0.00590486 -9.94869 0.0510425 
-0.0198476 0.0510425 -9.9328 
-9.93012 -0.0182851 -0.0227824 
-0.0182851 -9.94741 0.0426838 
-0.0227824 0.0426838 -9.96677 
-9.95389 0.00456392 -0.0270084 
0.00456392 -9.95227 0.0525622 
-0.0270084 0.0525622 -9.93814 
-9.97977 0.00873578 -0.0131268 
0.00873578 -9.96958 0.0152397 
-0.0131268 0.0152397 -9.96409 
-9.96534 0.00785277 -0.0134957 
0.00785277 -9.97597 0.0215013 
-0.0134957 0.0215013 -9.97213 
-9.96066 0.00601651 -0.0178368 
0.00601651 -9.97274 0.0200741 
-0.0178368 0.0200741 -9.98004 
-9.96922 0.00437972 -0.0131232 
0.00437972 -9.96968 0.015673 
-0.0131232 0.015673 -9.97454 
-9.96431 0.125985 0.0744822 
0.125985 -10.0283 0.0642803 
0.0744822 0.0642803 -10.3032 
-10.0025 0.113752 0.0342662 
0.113752 -10.0355 0.0296096 
0.0342662 0.0296096 -10.2578 
-10.039 0.0955084 0.0511487 
0.0955084 -10.0375 0.074583 
0.0511487 0.074583 -10.2193 
-9.99116 0.100589 -0.0565654 
0.100589 -10.0574 -0.0236833 
-0.0565654 -0.0236833 -10.2473 
-10.1695 -0.0131649 0.0239323 
-0.0131649 -9.88306 0.209054 
0.0239323 0.209054 -10.093 
-10.085 -0.194944 0.0766997 
-0.194944 -9.73597 0.274893 
0.0766997 0.274893 -10.3246 
-10.002 -0.0703266 0.0833515 
-0.0703266 -9.74363 0.321774 
0.0833515 0.321774 -10.3999 
-9.82904 -0.212622 -0.101276 
-0.212622 -10.0068 0.24777 
-0.101276 0.24777 -10.3097 
-9.92461 -0.00771607 0.0084569 
-0.00771607 -9.94124 -0.0504148 
0.0084569 -0.0504148 -9.8315 
-9.91069 -0.0176301 0.0611376 
-0.0176301 -9.99088 -0.0397205 
0.0611376 -0.0397205 -9.79578 
-9.9233 0.0388082 0.0146154 
0.0388082 -9.95376 0.0172453 
0.0146154 0.0172453 -9.82028 
-9.94103 0.0268223 0.0135254 
0.0268223 -9.95496 0.00103021 
0.0135254 0.00103021 -9.80136 
-9.88342 -0.00471286 0.0352216 
-0.00471286 -9.9052 -0.0252249 
0.0352216 -0.0252249 -9.95893 
-9.88941 -0.0154217 0.0423268 
-0.0154217 -9.90838 -0.0287687 
0.0423268 -0.0287687 -9.94977 
-9.86987 -0.0272019 0.0600129 
-0.0272019 -9.87709 -0.0332025 
0.0600129 -0.0332025 -10.0006 
-9.94906 -0.0212297 0.0554566 
-0.0212297 -9.90198 -0.116507 
0.0554566 -0.116507 -9.89652 
-9.9619 -0.00243672 0.0205523 
-0.00243672 -9.98205 -0.0440467 
0.0205523 -0.0440467 -9.97646 
-9.97599 -0.0015757 0.0299504 
-0.0015757 -9.98272 -0.0513872 
0.0299504 -0.0513872 -9.9617 
-9.98699 0.00209494 0.021215 
0.00209494 -9.97131 -0.0504648 
0.021215 -0.0504648 -9.9621 
-9.97857 0.00213941 0.0242899 
0.00213941 -9.97498 -0.0527303 
0.0242899 -0.0527303 -9.96686 
-9.91672 -0.0529972 -0.21104 
-0.0529972 -10.2017 0.0595714 
-0.21104 0.0595714 -10.1024 
-9.8252 -0.0534035 -0.0489449 
-0.0534035 -10.0924 -0.11473 
-0.0489449 -0.11473 -10.3033 
-9.90642 -0.168139 0.102526 
-0.168139 -10.0067 -0.0315963 
0.102526 -0.0315963 -10.3078 
-10.0097 -0.183767 -0.102168 
-0.183767 -9.92161 -0.0435829 
-0.102168 -0.0435829 -10.2896 
-9.99759 0.076659 0.0410415 
0.076659 -9.97319 0.0530459 
0.0410415 0.0530459 -9.72112 
-9.93027 -0.0305184 0.0424169 
-0.0305184 -9.96168 0.111343 
0.0424169 0.111343 -9.79993 
-9.90255 -0.0262049 0.041283 
-0.0262049 -9.99153 0.0585537 
0.041283 0.0585537 -9.79782 
-9.93878 0.087932 0.00979545 
0.087932 -9.89825 0.0533046 
0.00979545 0.0533046 -9.85486 
-9.89458 -0.0116074 -0.0536787 
-0.0116074 -9.85729 -0.0707471 
-0.0536787 -0.0707471 -9.99417 
-9.86907 0.0144655 -0.0607318 
0.0144655 -9.88503 -0.0888971 
-0.0607318 -0.0888971 -9.99194 
-9.88935 0.00140698 -0.0428802 
0.00140698 -9.85578 -0.0591584 
-0.0428802 -0.0591584 -10.0009 
-9.91004 -0.0339929 -0.046025 
-0.0339929 -9.84877 -0.0493778 
-0.046025 -0.0493778 -9.98723 
-9.96941 -0.00509506 -0.0359736 
-0.00509506 -9.98535 0.0169199 
-0.0359736 0.0169199 -9.986 
-9.97771 -0.00273379 -0.031665 
-0.00273379 -9.99038 0.0211049 
-0.031665 0.0211049 -9.97266 
-9.98823 0.00371912 -0.035902 
0.00371912 -9.97672 0.016695 
-0.035902 0.016695 -9.97579 
-9.98395 0.00442404 -0.0357892 
0.00442404 -9.98165 0.0109074 
-0.0357892 0.0109074 -9.97515 
-9.93577 -0.0452639 0.0109807 
-0.0452639 -10.0108 0.0947758 
0.0109807 0.0947758 -10.1208 
-10.1131 -0.175079 -0.197782 
-0.175079 -9.71417 -0.0288334 
-0.197782 -0.0288334 -10.2401 
-9.78982 -0.0538539 0.0519903 
-0.0538539 -9.96961 0.0317439 
0.0519903 0.0317439 -10.3079 
-9.96634 0.086667 -0.130101 
0.086667 -10.0727 -0.0356856 
-0.130101 -0.0356856 -10.0283 
-9.84635 -0.0385181 -0.165304 
-0.0385181 -9.84841 0.0649818 
-0.165304 0.0649818 -9.92368 
-9.81761 -0.0474672 -0.183416 
-0.0474672 -9.8712 0.0149692 
-0.183416 0.0149692 -9.92964 
-9.8496 -0.0634276 -0.193552 
-0.0634276 -9.83486 0.0340722 
-0.193552 0.0340722 -9.93398 
-9.81369 -0.060435 -0.155902 
-0.060435 -9.87631 0.0390926 
-0.155902 0.0390926 -9.92844 
-9.99009 0.00139281 -0.0179564 
0.00139281 -9.99279 0.063621 
-0.0179564 0.063621 -9.98902 
-9.99047 -0.000463858 -0.0183989 
-0.000463858 -9.99102 0.0637639 
-0.0183989 0.0637639 -9.99041 
-9.98444 -0.000610271 -0.0164396 
-0.000610271 -9.98044 0.062221 
-0.0164396 0.062221 -10.007 
-9.99165 -0.00212794 -0.0257255 
-0.00212794 -9.99281 0.0716944 
-0.0257255 0.0716944 -9.98744 
-9.99253 0.00033727 0.0220847 
0.00033727 -9.99512 -0.0404794 
0.0220847 -0.0404794 -9.9869 
-9.98837 0.000830692 0.0219706 
0.000830692 -9.98791 -0.0384452 
0.0219706 -0.0384452 -9.99827 
-9.98494 0.0031976 0.0225241 
0.0031976 -9.98792 -0.0421309 
0.0225241 -0.0421309 -10.0017 
-9.99429 -0.000794412 0.0287294 
-0.000794412 -9.99152 -0.0382902 
0.0287294 -0.0382902 -9.98874 
-9.76722 -0.317436 0.134621 
-0.317436 -10.2259 0.0381816 
0.134621 0.0381816 -10.3136 
-10.0232 -0.302285 -0.144698 
-0.302285 -9.93811 0.122701 
-0.144698 0.122701 -10.3455 
-10.0451 -0.337451 0.225515 
-0.337451 -10.0297 -0.272816 
0.225515 -0.272816 -10.232 
-10.2002 -0.317855 0.13074 
-0.317855 -9.82885 0.00446381 
0.13074 0.00446381 -10.2777 
-9.91579 -4.76446e-05 0.0540726 
-4.76446e-05 -9.92105 -0.0466746 
0.0540726 -0.0466746 -9.95595 
-9.9139 -0.00559979 0.0585587 
-0.00559979 -9.91552 -0.0522746 
0.0585587 -0.0522746 -9.96336 
-9.92174 0.00349032 0.0549055 
0.00349032 -9.92129 -0.0550377 
0.0549055 -0.0550377 -9.94975 
-9.92512 0.00239942 0.0571425 
0.00239942 -9.91834 -0.0438775 
0.0571425 -0.0438775 -9.94933 
-9.88014 -0.0122723 0.0125462 
-0.0122723 -9.87752 0.118416 
0.0125462 0.118416 -9.86331 
-9.94686 -0.00178445 -0.0203513 
-0.00178445 -9.83144 0.12694 
-0.0203513 0.12694 -9.84267 
-9.88226 0.0209854 0.0592086 
0.0209854 -9.86014 0.194239 
0.0592086 0.194239 -9.87857 
-9.92462 0.0149389 0.0183269 
0.0149389 -9.83332 0.115308 
0.0183269 0.115308 -9.86303 
-9.94389 0.00209399 -0.0195511 
0.00209399 -9.95605 0.0254275 
-0.0195511 0.0254275 -9.9314 
-9.93416 0.000891465 -0.0311774 
0.000891465 -9.9604 0.0355178 
-0.0311774 0.0355178 -9.93678 
-9.97387 0.0201946 -0.032144 
0.0201946 -9.95734 0.0519656 
-0.032144 0.0519656 -9.90013 
-9.92559 0.000870659 -0.0356523 
0.000870659 -9.93376 0.0457859 
-0.0356523 0.0457859 -9.97199 
-9.94443 0.0197056 -0.0883373 
0.0197056 -9.95521 -0.0344082 
-0.0883373 -0.0344082 -9.86371 
-9.90352 0.0224748 -0.0887348 
0.0224748 -9.89951 -0.00955792 
-0.0887348 -0.00955792 -9.96031 
-9.92146 -0.00552194 -0.0680025 
-0.00552194 -9.92924 -0.014505 
-0.0680025 -0.014505 -9.91264 
-9.91708 -0.00241568 -0.0697963 
-0.00241568 -9.93171 -0.02231 
-0.0697963 -0.02231 -9.91455 
-9.97817 0.00122238 -0.0458036 
0.00122238 -9.9722 0.0244213 
-0.0458036 0.0244213 -9.94363 
-9.97023 0.00527134 -0.0442804 
0.00527134 -9.97337 0.020826 
-0.0442804 0.020826 -9.9504 
-9.96988 0.00137307 -0.0442154 
0.00137307 -9.9667 0.0184055 
-0.0442154 0.0184055 -9.95742 
-9.96649 0.000833136 -0.0444811 
0.000833136 -9.97315 0.0178136 
-0.0444811 0.0178136 -9.95436 
-9.91977 -0.0628888 0.0814517 
-0.0628888 -9.93904 0.0570882 
0.0814517 0.0570882 -9.91217 
-9.97428 -0.0825227 0.112968 
-0.0825227 -10.0106 -0.0705 
0.112968 -0.0705 -9.78612 
-9.89447 -0.0147466 0.106835 
-0.0147466 -9.99909 0.0347417 
0.106835 0.0347417 -9.87742 
-9.9466 -0.00958201 -0.0063337 
-0.00958201 -9.88383 0.0538808 
-0.0063337 0.0538808 -9.94055 
-9.93909 0.010372 0.0703763 
0.010372 -9.95156 0.0347087 
0.0703763 0.0347087 -9.95343 
-9.94606 0.000495578 0.067955 
0.000495578 -9.95058 0.0389896 
0.067955 0.0389896 -9.94744 
-9.9654 0.00496676 0.0683764 
0.00496676 -9.94136 0.0565168 
0.0683764 0.0565168 -9.93732 
-9.9356 -0.000182594 0.0412706 
-0.000182594 -9.949 0.026321 
0.0412706 0.026321 -9.95948 
-9.78853 0.0267319 -0.00453963 
0.0267319 -9.84856 -0.171456 
-0.00453963 -0.171456 -9.93253 
-9.77987 -0.0133734 -0.100972 
-0.0133734 -9.94558 -0.152646 
-0.100972 -0.152646 -9.84418 
-9.82349 0.0914178 -0.0874107 
0.0914178 -9.81092 -0.0278293 
-0.0874107 -0.0278293 -9.93523 
-9.95639 0.158983 -0.122108 
0.158983 -9.69341 -0.196436 
-0.122108 -0.196436 -9.91984 
-9.9426 -0.00586941 0.00650534 
-0.00586941 -9.95363 -0.00276633 
0.00650534 -0.00276633 -9.96901 
-9.95231 0.00236009 -4.91311e-06 
0.00236009 -9.9568 -0.0109503 
-4.91311e-06 -0.0109503 -9.95613 
-9.94315 0.00309647 -0.0148508 
0.00309647 -9.97257 -0.0078905 
-0.0148508 -0.0078905 -9.94952 
-9.96619 0.00652337 0.0125867 
0.00652337 -9.93864 -0.0173496 
0.0125867 -0.0173496 -9.96041 
-9.9246 -0.00402606 0.0521613 
-0.00402606 -9.93523 0.0477362 
0.0521613 0.0477362 -9.95322 
-9.93341 -0.00241168 0.0459151 
-0.00241168 -9.92944 0.0527253 
0.0459151 0.0527253 -9.9502 
-9.93298 0.00587284 0.0401654 
0.00587284 -9.92954 0.0542007 
0.0401654 0.0542007 -9.95052 
-9.93251 -0.00340057 0.0398557 
-0.00340057 -9.93294 0.0510569 
0.0398557 0.0510569 -9.9476 
-10.1527 0.045317 0.114532 
0.045317 -9.9057 -0.154286 
0.114532 -0.154286 -10.514 
-9.95422 -0.00789752 0.154387 
-0.00789752 -10.1734 -0.135873 
0.154387 -0.135873 -10.4447 
-10.2946 0.125419 0.0412019 
0.125419 -9.94883 -0.115754 
0.0412019 -0.115754 -10.329 
-10.0491 -0.133702 -0.0417289 
-0.133702 -9.9825 -0.193414 
-0.0417289 -0.193414 -10.5408 
-9.94902 0.0554818 0.00167675 
0.0554818 -9.89343 0.310317 
0.00167675 0.310317 -9.81925 
-9.92979 0.0455236 0.0998555 
0.0455236 -10.1213 0.23672 
0.0998555 0.23672 -9.61063 
-9.92928 0.0645412 0.012776 
0.0645412 -9.96287 0.199066 
0.012776 0.199066 -9.76954 
-9.66355 0.0524962 0.0451063 
0.0524962 -9.91364 -0.0857217 
0.0451063 -0.0857217 -10.0845 
-9.96812 0.00406385 0.0569343 
0.00406385 -9.96831 -0.0405168 
0.0569343 -0.0405168 -9.9417 
-9.95925 0.00361212 0.0456001 
0.00361212 -9.94877 -0.0474323 
0.0456001 -0.0474323 -9.97011 
-9.94693 0.00184371 0.0548137 
0.00184371 -9.94722 -0.0579903 
0.0548137 -0.0579903 -9.98398 
-9.95236 -0.00528492 0.0470052 
-0.00528492 -9.96739 -0.0427334 
0.0470052 -0.0427334 -9.95838 
-9.91525 -0.00478428 -0.00308675 
-0.00478428 -9.94847 0.0141971 
-0.00308675 0.0141971 -9.969 
-9.92736 -0.0227124 0.00391664 
-0.0227124 -9.93321 -0.0150834 
0.00391664 -0.0150834 -9.97215 
-9.93217 -0.0128456 -0.00268188 
-0.0128456 -9.92744 -0.00791466 
-0.00268188 -0.00791466 -9.97312 
-9.93991 -0.0120694 -0.00921299 
-0.0120694 -9.91496 -0.0109415 
-0.00921299 -0.0109415 -9.97785 
-9.97927 0.00495556 0.0381369 
0.00495556 -9.81578 -0.065194 
0.0381369 -0.065194 -10.1143 
-9.94697 0.0414916 -0.0017916 
0.0414916 -9.93414 -0.0479791 
-0.0017916 -0.0479791 -10.0282 
-9.9701 0.00545834 0.031885 
0.00545834 -9.88423 -0.0457123 
0.031885 -0.0457123 -10.055 
-9.93604 -0.00814309 0.0195637 
-0.00814309 -9.8667 -0.0214688 
0.0195637 -0.0214688 -10.1066 
-9.97164 -0.000273929 -0.0183914 
-0.000273929 -9.9471 0.0247412 
-0.0183914 0.0247412 -9.96623 
-9.96192 -0.00172282 -0.0286694 
-0.00172282 -9.97529 0.033122 
-0.0286694 0.033122 -9.94777 
-9.96467 0.0069667 -0.0273068 
0.0069667 -9.97844 0.0313029 
-0.0273068 0.0313029 -9.94186 
-9.95762 -0.00158924 -0.0212746 
-0.00158924 -9.95537 0.0215254 
-0.0212746 0.0215254 -9.97199 
-9.83718 -0.199855 0.268218 
-0.199855 -9.69223 -0.020172 
0.268218 -0.020172 -9.60487 
-9.4773 0.0227635 0.416111 
0.0227635 -9.95339 0.200681 
0.416111 0.200681 -9.70359 
-9.46064 0.241855 0.39292 
0.241855 -9.95184 0.314484 
0.39292 0.314484 -9.7218 
-9.33184 -0.0480415 0.531813 
-0.0480415 -10.5192 0.0293226 
0.531813 0.0293226 -9.28324 
-10.679 1.6329 2.44814 
1.6329 -8.80611 1.22328 
2.44814 1.22328 -3.68749 
-9.40228 -1.40473 0.486055 
-1.40473 -7.70222 0.614725 
0.486055 0.614725 -6.06806 
-8.65736 1.8368 0.862931 
1.8368 -7.08446 -0.850103 
0.862931 -0.850103 -7.43075 
-10.1816 -0.544589 0.425017 
-0.544589 -8.21517 -0.254945 
0.425017 -0.254945 -4.77574 
-9.95685 0.00299788 -0.00682861 
0.00299788 -9.96997 -0.0634827 
-0.00682861 -0.0634827 -9.97323 
-9.96386 -0.00113599 -0.00954803 
-0.00113599 -9.97015 -0.0861675 
-0.00954803 -0.0861675 -9.96604 
-9.97715 -0.000964217 -0.00463285 
-0.000964217 -9.9609 -0.0906295 
-0.00463285 -0.0906295 -9.962 
-9.97329 0.00417904 -0.00587104 
0.00417904 -9.97482 -0.0836982 
-0.00587104 -0.0836982 -9.95194 
-9.96973 -0.00323061 0.0303588 
-0.00323061 -9.96376 0.033386 
0.0303588 0.033386 -9.97405 
-9.96663 -0.00621106 0.0269813 
-0.00621106 -9.97523 0.0332153 
0.0269813 0.0332153 -9.96569 
-9.97356 -0.00415358 0.0305828 
-0.00415358 -9.9688 0.0318866 
0.0305828 0.0318866 -9.96519 
-9.96635 -0.00122029 0.027673 
-0.00122029 -9.97126 0.0342274 
0.027673 0.0342274 -9.96994 
-9.93172 0.00232029 0.0124132 
0.00232029 -9.91652 -0.00345999 
0.0124132 -0.00345999 -10.001 
-9.9184 0.000140785 0.0213101 
0.000140785 -9.92552 0.00820023 
0.0213101 0.00820023 -10.0054 
-9.9311 -0.00276906 0.0166541 
-0.00276906 -9.92423 0.00172847 
0.0166541 0.00172847 -9.99395 
-9.9271 0.00196411 -0.0101893 
0.00196411 -9.90609 -0.0122141 
-0.0101893 -0.0122141 -10.0161 
-10.153 0.174817 -0.127609 
0.174817 -11.1262 -0.117256 
-0.127609 -0.117256 -10.1429 
-9.82212 0.20285 0.46178 
0.20285 -9.40158 0.390901 
0.46178 0.390901 -12.1984 
-10.8604 -0.0709233 -0.182918 
-0.0709233 -10.8921 -0.180323 
-0.182918 -0.180323 -9.66966 
-10.2769 -0.327178 -0.966348 
-0.327178 -11.0316 1.12812 
-0.966348 1.12812 -10.1136 
-9.93214 -0.00253704 0.0714348 
-0.00253704 -9.93359 -0.0146394 
0.0714348 -0.0146394 -9.93981 
-9.93741 0.0031094 0.078998 
0.0031094 -9.93322 -0.0105728 
0.078998 -0.0105728 -9.93492 
-9.93716 -0.00290033 0.0760549 
-0.00290033 -9.93341 -0.0223809 
0.0760549 -0.0223809 -9.93498 
-9.93439 0.00538738 0.0804201 
0.00538738 -9.93423 -0.0150987 
0.0804201 -0.0150987 -9.93693 
-9.94302 -0.00236609 0.0379423 
-0.00236609 -9.94828 -0.0562595 
0.0379423 -0.0562595 -9.9301 
-9.93527 -0.00198504 0.0398794 
-0.00198504 -9.94485 -0.0601956 
0.0398794 -0.0601956 -9.94128 
-9.9434 -0.000985838 0.0368561 
-0.000985838 -9.94832 -0.0564163 
0.0368561 -0.0564163 -9.92967 
-9.94 -0.00113464 0.0363148 
-0.00113464 -9.95921 -0.062211 
0.0363148 -0.062211 -9.92218 
-9.90551 0.0179722 -0.058625 
0.0179722 -9.91088 -0.0540397 
-0.058625 -0.0540397 -9.9572 
-9.95616 0.0100695 -0.10714 
0.0100695 -9.91446 -0.0917918 
-0.10714 -0.0917918 -9.90297 
-9.88185 0.0184285 -0.077263 
0.0184285 -9.89961 -0.073218 
-0.077263 -0.073218 -9.99212 
-9.91945 0.0166993 -0.0773153 
0.0166993 -9.90004 -0.0558041 
-0.0773153 -0.0558041 -9.9541 
-10.1444 0.00490708 -0.0411181 
0.00490708 -10.1619 0.0350565 
-0.0411181 0.0350565 -10.0527 
-10.0961 -0.00497709 -0.0191307 
-0.00497709 -10.0976 0.00592253 
-0.0191307 0.00592253 -10.1653 
-10.0837 0.000626986 -0.0117233 
0.000626986 -10.0907 -0.0202725 
-0.0117233 -0.0202725 -10.1846 
-10.0859 -0.0244721 -0.0632255 
-0.0244721 -10.0927 0.0109656 
-0.0632255 0.0109656 -10.1805 
-9.97175 0.00482627 -0.0181932 
0.00482627 -9.97833 -0.0674827 
-0.0181932 -0.0674827 -9.96564 
-9.97478 -0.00119314 -0.020837 
-0.00119314 -9.97588 -0.0629116 
-0.020837 -0.0629116 -9.96507 
-9.98064 -0.0161957 -0.0282642 
-0.0161957 -9.95438 -0.07114 
-0.0282642 -0.07114 -9.98071 
-9.98657 -0.00783749 -0.0166908 
-0.00783749 -9.97472 -0.0543231 
-0.0166908 -0.0543231 -9.95444 
-9.95781 0.0226675 0.0324349 
0.0226675 -9.9571 -0.0208655 
0.0324349 -0.0208655 -9.95639 
-9.95903 0.0142428 0.0258989 
0.0142428 -9.95567 -0.0238293 
0.0258989 -0.0238293 -9.9566 
-9.95396 0.0115273 0.0263592 
0.0115273 -9.95754 -0.0256688 
0.0263592 -0.0256688 -9.9598 
-9.96704 0.0091408 0.0233089 
0.0091408 -9.9492 -0.0268492 
0.0233089 -0.0268492 -9.95505 
-10.0959 -0.0421376 0.0203789 
-0.0421376 -10.1077 0.00291753 
0.0203789 0.00291753 -10.1713 
-10.0855 -0.0211446 -0.0214308 
-0.0211446 -10.1267 -0.0144522 
-0.0214308 -0.0144522 -10.1628 
-10.1241 0.00256867 -0.000139333 
0.00256867 -10.105 -0.014279 
-0.000139333 -0.014279 -10.1459 
-10.1105 0.00321466 -0.0153759 
0.00321466 -10.0855 -0.0360582 
-0.0153759 -0.0360582 -10.179 
-10.0476 -0.022933 -0.0178727 
-0.022933 -10.1691 0.0193114 
-0.0178727 0.0193114 -10.1098 
-10.0449 -0.00983515 -0.0246512 
-0.00983515 -10.1071 0.0347492 
-0.0246512 0.0347492 -10.1745 
-10.1075 0.00905133 -0.0112375 
0.00905133 -10.0498 -0.0106569 
-0.0112375 -0.0106569 -10.1692 
-10.1039 -0.0192338 -0.0222419 
-0.0192338 -10.0709 0.0401655 
-0.0222419 0.0401655 -10.1517 
-9.90293 -0.00396395 -0.0299872 
-0.00396395 -9.89582 -0.0336843 
-0.0299872 -0.0336843 -9.99826 
-9.88602 0.0188979 -0.0622153 
0.0188979 -9.89884 -0.0371865 
-0.0622153 -0.0371865 -10.0121 
-9.9146 0.0108021 -0.0554503 
0.0108021 -9.9183 -0.0517093 
-0.0554503 -0.0517093 -9.96411 
-9.89895 -0.00790127 -0.0500818 
-0.00790127 -9.90794 -0.0479828 
-0.0500818 -0.0479828 -9.99012 
-9.96337 0.00879114 0.0110785 
0.00879114 -9.97199 -0.0135608 
0.0110785 -0.0135608 -9.95097 
-9.96426 0.0120058 0.0154602 
0.0120058 -9.96731 -0.01152 
0.0154602 -0.01152 -9.95476 
-9.95974 0.0153532 0.0134628 
0.0153532 -9.96525 -0.0170848 
0.0134628 -0.0170848 -9.96134 
-9.97385 0.00565967 0.0225925 
0.00565967 -9.95804 -0.00403701 
0.0225925 -0.00403701 -9.95445 
-9.943 -0.000818213 0.061884 
-0.000818213 -9.93788 -0.0401885 
0.061884 -0.0401885 -9.97632 
-9.94956 0.00360543 0.0532474 
0.00360543 -9.95127 -0.0387688 
0.0532474 -0.0387688 -9.95636 
-9.96416 -0.00366722 0.0624016 
-0.00366722 -9.95621 -0.0441681 
0.0624016 -0.0441681 -9.93682 
-9.94968 0.00244084 0.058056 
0.00244084 -9.9512 -0.0401235 
0.058056 -0.0401235 -9.95632 
-10.0986 -0.0714648 -0.0253408 
-0.0714648 -10.1182 -0.00891481 
-0.0253408 -0.00891481 -10.1976 
-10.0694 0.0510007 -0.0252104 
0.0510007 -10.1009 0.0681346 
-0.0252104 0.0681346 -10.2441 
-10.1507 0.0138736 -0.0624814 
0.0138736 -10.1448 -0.0178581 
-0.0624814 -0.0178581 -10.1189 
-10.142 -0.0431005 -0.00530157 
-0.0431005 -10.1037 0.0622553 
-0.00530157 0.0622553 -10.1687 
-9.89841 0.00281608 -0.0375529 
0.00281608 -9.89415 0.0293982 
-0.0375529 0.0293982 -10.0087 
-9.92825 -0.00281482 -0.0484557 
-0.00281482 -9.90362 0.0618043 
-0.0484557 0.0618043 -9.96944 
-9.92633 0.00552846 -0.0275894 
0.00552846 -9.96447 0.0484531 
-0.0275894 0.0484531 -9.91051 
-9.92438 -0.00149985 -0.0456213 
-0.00149985 -9.91428 0.0498046 
-0.0456213 0.0498046 -9.96264 
-9.97073 -0.00779213 0.0128379 
-0.00779213 -9.97172 0.015808 
0.0128379 0.015808 -9.96549 
-9.96893 -0.00449912 0.0091393 
-0.00449912 -9.96747 0.0109474 
0.0091393 0.0109474 -9.97155 
-9.96713 -0.0067402 0.015898 
-0.0067402 -9.97331 0.0199879 
0.015898 0.0199879 -9.96751 
-9.97023 -0.00838345 0.0118912 
-0.00838345 -9.97637 0.0245159 
0.0118912 0.0245159 -9.96135 
-9.94719 0.0310466 -0.0417454 
0.0310466 -9.79385 0.0636557 
-0.0417454 0.0636557 -9.86965 
-9.88454 0.00523269 0.0712884 
0.00523269 -9.83637 0.18201 
0.0712884 0.18201 -9.88978 
-9.87649 0.0352699 0.0578346 
0.0352699 -9.79145 0.134076 
0.0578346 0.134076 -9.94275 
-9.92488 0.141151 0.0578071 
0.141151 -9.6944 0.182126 
0.0578071 0.182126 -9.99141 
-9.95644 0.00264039 -0.0648907 
0.00264039 -9.96793 0.00826712 
-0.0648907 0.00826712 -9.95695 
-9.96407 0.000715577 -0.0736686 
0.000715577 -9.96233 0.00911231 
-0.0736686 0.00911231 -9.95492 
-9.96784 7.87496e-05 -0.0753334 
7.87496e-05 -9.96584 0.0102723 
-0.0753334 0.0102723 -9.94765 
-9.9661 -0.00261248 -0.075514 
-0.00261248 -9.96198 0.00840313 
-0.075514 0.00840313 -9.95324 
-9.89801 -0.00365117 0.0582019 
-0.00365117 -9.87278 0.082004 
0.0582019 0.082004 -9.96345 
-9.9279 0.00913236 0.0292221 
0.00913236 -9.84458 0.0490068 
0.0292221 0.0490068 -9.96175 
-9.92536 0.0245733 0.0364241 
0.0245733 -9.83938 0.0529677 
0.0364241 0.0529677 -9.96949 
-9.93599 0.0194389 0.0241604 
0.0194389 -9.85446 0.0387705 
0.0241604 0.0387705 -9.94377 
-9.99402 -0.0235013 0.0380826 
-0.0235013 -9.87662 0.0933945 
0.0380826 0.0933945 -9.97153 
-9.9669 -0.0195827 0.0734286 
-0.0195827 -9.90479 0.0989882 
0.0734286 0.0989882 -9.97047 
-9.97707 -0.00294559 0.0759613 
-0.00294559 -9.9036 0.121184 
0.0759613 0.121184 -9.9615 
-9.93533 -0.0127149 0.0762951 
-0.0127149 -9.91439 0.088408 
0.0762951 0.088408 -9.99245 
-9.76484 0.00909057 0.150514 
0.00909057 -9.99828 -0.186894 
0.150514 -0.186894 -9.30658 
-9.84557 0.0442192 0.0454302 
0.0442192 -9.81859 -0.315783 
0.0454302 -0.315783 -9.40554 
-9.7482 0.323785 0.0455258 
0.323785 -10.079 0.0747938 
0.0455258 0.0747938 -9.2425 
-9.74524 -0.087241 0.173586 
-0.087241 -10.1029 -0.326612 
0.173586 -0.326612 -9.22152 
-9.96455 0.0039651 0.0147008 
0.0039651 -9.82339 -0.10138 
0.0147008 -0.10138 -10.0932 
-9.93244 0.0150153 -0.0148316 
0.0150153 -9.88973 -0.107557 
-0.0148316 -0.107557 -10.059 
-9.92837 -0.00752316 -0.00901665 
-0.00752316 -9.88285 -0.10331 
-0.00901665 -0.10331 -10.07 
-9.89909 -0.00443117 0.0186872 
-0.00443117 -9.9208 -0.0279639 
0.0186872 -0.0279639 -10.0613 
-9.93968 0.0048966 0.0577053 
0.0048966 -9.90725 0.0232513 
0.0577053 0.0232513 -9.95836 
-9.94066 0.00567392 0.0671525 
0.00567392 -9.93781 0.0453089 
0.0671525 0.0453089 -9.92682 
-9.93809 -0.00486316 0.0663998 
-0.00486316 -9.93862 0.0438003 
0.0663998 0.0438003 -9.92857 
-9.94128 0.0225438 0.0845898 
0.0225438 -9.93269 0.0473395 
0.0845898 0.0473395 -9.93132 
-9.98109 -0.00178465 -0.0524899 
-0.00178465 -9.97994 -0.0375316 
-0.0524899 -0.0375316 -9.99269 
-9.98603 0.00158044 -0.0458104 
0.00158044 -9.98438 -0.0402613 
-0.0458104 -0.0402613 -9.98331 
-9.98285 -0.00227108 -0.0474875 
-0.00227108 -9.98155 -0.0389563 
-0.0474875 -0.0389563 -9.98932 
-9.97944 -0.00163354 -0.0515615 
-0.00163354 -9.98517 -0.0406681 
-0.0515615 -0.0406681 -9.98912 
-9.90028 0.00901696 -0.0427781 
0.00901696 -9.91567 0.0271439 
-0.0427781 0.0271439 -10.1105 
-9.89977 0.0441585 -0.0190309 
0.0441585 -9.91022 0.0114516 
-0.0190309 0.0114516 -10.1165 
-9.9418 -0.00105028 -0.0619374 
-0.00105028 -9.90436 0.0243862 
-0.0619374 0.0243862 -10.0803 
-9.85483 0.0339216 -0.0501442 
0.0339216 -9.93074 0.0107869 
-0.0501442 0.0107869 -10.1409 
-9.92923 0.00906049 0.0409909 
0.00906049 -9.93704 0.0290845 
0.0409909 0.0290845 -9.95329 
-9.93565 0.018436 0.0583039 
0.018436 -9.92963 0.0512305 
0.0583039 0.0512305 -9.95428 
-9.93914 -0.00177624 0.0530717 
-0.00177624 -9.91605 0.0559642 
0.0530717 0.0559642 -9.96437 
-9.94894 -0.0076984 0.0634725 
-0.0076984 -9.9222 0.0478413 
0.0634725 0.0478413 -9.94842 
-9.96844 0.00148536 -0.0369175 
0.00148536 -9.95762 0.0307764 
-0.0369175 0.0307764 -9.97558 
-9.9652 0.00542829 -0.0328403 
0.00542829 -9.97262 0.0287686 
-0.0328403 0.0287686 -9.96382 
-9.97133 0.0047335 -0.0246897 
0.0047335 -9.97026 0.0297942 
-0.0246897 0.0297942 -9.96005 
-9.96639 0.00511891 -0.032599 
0.00511891 -9.96376 0.028557 
-0.032599 0.028557 -9.97148 
-9.73336 -0.047583 -0.11027 
-0.047583 -9.87192 -0.00260319 
-0.11027 -0.00260319 -9.93239 
-9.7862 -0.0230605 -0.149564 
-0.0230605 -9.92673 0.0263097 
-0.149564 0.0263097 -9.82473 
-9.79727 -0.043911 -0.138784 
-0.043911 -9.85509 0.0201352 
-0.138784 0.0201352 -9.8853 
-9.66229 -0.0996651 -0.227373 
-0.0996651 -9.93644 0.0872215 
-0.227373 0.0872215 -9.93894 
-9.92758 -0.044833 0.0398108 
-0.044833 -9.88977 0.013998 
0.0398108 0.013998 -9.95864 
-9.91515 -0.00223096 0.0124954 
-0.00223096 -9.88768 -0.0238823 
0.0124954 -0.0238823 -9.97316 
-9.89916 -0.0283104 -0.00817308 
-0.0283104 -9.85906 -0.0903756 
-0.00817308 -0.0903756 -10.0178 
-9.91402 0.00380941 0.0934896 
0.00380941 -9.92584 -0.0265113 
0.0934896 -0.0265113 -9.93612 
-10.1414 -0.0249361 -0.0122795 
-0.0249361 -10.0895 -0.018423 
-0.0122795 -0.018423 -10.1379 
-10.155 -0.0660585 -0.0302931 
-0.0660585 -9.96973 -0.0217912 
-0.0302931 -0.0217912 -10.244 
-10.0412 0.0113362 -0.0114783 
0.0113362 -10.1409 -0.00927534 
-0.0114783 -0.00927534 -10.1867 
-10.0496 0.0471092 -0.0132862 
0.0471092 -10.1879 -0.118926 
-0.0132862 -0.118926 -10.1313 
-10.2531 0.400746 0.577858 
0.400746 -9.21775 0.963412 
0.577858 0.963412 -10.7573 
-9.81431 0.751148 0.038147 
0.751148 -10.3141 0.581439 
0.038147 0.581439 -10.0997 
-10.2661 0.274891 0.172699 
0.274891 -10.2416 0.71071 
0.172699 0.71071 -9.7205 
-9.37888 -0.315809 -0.193375 
-0.315809 -9.77256 -0.615758 
-0.193375 -0.615758 -11.0767 
-9.97867 -0.00158903 0.0189851 
-0.00158903 -9.9761 0.0270608 
0.0189851 0.0270608 -9.97541 
-9.98145 -0.010514 0.0101968 
-0.010514 -9.97196 0.0281372 
0.0101968 0.0281372 -9.97678 
-9.9831 -0.00837426 0.0120935 
-0.00837426 -9.97986 0.0275591 
0.0120935 0.0275591 -9.96722 
-9.97405 0.00142047 0.00980459 
0.00142047 -9.98461 0.0192057 
0.00980459 0.0192057 -9.97152 
-9.9174 0.0395547 0.0420585 
0.0395547 -9.91921 0.0477584 
0.0420585 0.0477584 -9.95086 
-9.89502 0.00277576 -0.0115849 
0.00277576 -9.93227 -0.0251976 
-0.0115849 -0.0251976 -9.96018 
-9.93704 0.0165384 -0.00769729 
0.0165384 -9.9283 0.0421552 
-0.00769729 0.0421552 -9.92212 
-9.95099 0.0287592 -0.0117096 
0.0287592 -9.90853 0.00933933 
-0.0117096 0.00933933 -9.92795 
-9.98065 0.003753 0.0267054 
0.003753 -9.97751 -0.00196236 
0.0267054 -0.00196236 -9.99812 
-9.98477 0.00359109 0.00936938 
0.00359109 -9.98256 0.013819 
0.00936938 0.013819 -9.98895 
-9.98961 -0.00293024 0.01231 
-0.00293024 -9.98348 0.016183 
0.01231 0.016183 -9.98318 
-9.98884 -0.00593901 0.0153785 
-0.00593901 -9.97863 -0.000190903 
0.0153785 -0.000190903 -9.9888 
-10.0595 0.00631204 -0.0203207 
0.00631204 -10.0892 -0.0153296 
-0.0203207 -0.0153296 -10.1678 
-10.0855 -0.00713226 -0.0451596 
-0.00713226 -10.0768 0.0135548 
-0.0451596 0.0135548 -10.1541 
-10.0347 -0.0199136 -0.0208512 
-0.0199136 -10.0719 -0.0136402 
-0.0208512 -0.0136402 -10.2098 
-10.0532 -0.0085947 -0.0180575 
-0.0085947 -10.0763 -0.00138031 
-0.0180575 -0.00138031 -10.1869 
-9.98256 0.000615826 0.0228404 
0.000615826 -9.97883 -0.0201163 
0.0228404 -0.0201163 -9.98924 
-9.98074 0.00133036 0.0135118 
0.00133036 -9.98662 -0.0236029 
0.0135118 -0.0236029 -9.98328 
-9.98128 0.00600728 0.0154747 
0.00600728 -9.98374 -0.018713 
0.0154747 -0.018713 -9.98561 
-9.98613 0.00253269 0.0139128 
0.00253269 -9.9849 -0.0243192 
0.0139128 -0.0243192 -9.97961 
-9.90617 0.0312464 0.0583846 
0.0312464 -9.94433 -0.0533224 
0.0583846 -0.0533224 -9.80436 
-9.93489 -0.0216441 0.0717492 
-0.0216441 -9.88638 0.00660258 
0.0717492 0.00660258 -9.8336 
-9.95783 0.0114004 0.0592179 
0.0114004 -9.94329 -0.0461531 
0.0592179 -0.0461531 -9.75374 
-9.8549 0.0115363 0.0669096 
0.0115363 -9.94598 -0.0895978 
0.0669096 -0.0895978 -9.85398 
-9.94646 0.0105978 0.0251672 
0.0105978 -9.96031 -0.0206939 
0.0251672 -0.0206939 -9.96253 
-9.96248 0.0122298 0.0352236 
0.0122298 -9.94549 -0.0156995 
0.0352236 -0.0156995 -9.96133 
-9.95067 0.0205053 0.0305336 
0.0205053 -9.96235 -0.0186208 
0.0305336 -0.0186208 -9.95628 
-9.96409 0.0162717 0.0330693 
0.0162717 -9.9477 -0.0111212 
0.0330693 -0.0111212 -9.95752 
-9.97221 0.000434004 0.058631 
0.000434004 -9.96965 -0.0390801 
0.058631 -0.0390801 -9.98333 
-9.97559 0.000176547 0.0564064 
0.000176547 -9.9715 -0.0370614 
0.0564064 -0.0370614 -9.9781 
-9.97305 -0.00325469 0.059364 
-0.00325469 -9.97311 -0.0439362 
0.059364 -0.0439362 -9.97903 
-9.98178 0.000753228 0.0565887 
0.000753228 -9.96708 -0.0426199 
0.0565887 -0.0426199 -9.97633 
-10.7959 -0.0680688 -0.257781 
-0.0680688 -10.6532 -0.0993842 
-0.257781 -0.0993842 -9.46432 
-9.78759 -0.10474 0.162477 
-0.10474 -10.0326 0.193499 
0.162477 0.193499 -11.0931 
-10.3434 0.13527 0.0358325 
0.13527 -10.1693 -0.0396358 
0.0358325 -0.0396358 -10.4006 
-10.4515 -0.0493264 0.0951341 
-0.0493264 -10.0214 -0.546836 
0.0951341 -0.546836 -10.4405 
-9.973 0.00675842 0.0238837 
0.00675842 -9.96896 -0.0017433 
0.0238837 -0.0017433 -9.94888 
-9.97609 0.0035889 0.0264307 
0.0035889 -9.96632 -0.00513494 
0.0264307 -0.00513494 -9.94843 
-9.97256 0.00536568 0.026468 
0.00536568 -9.96472 -0.00189353 
0.026468 -0.00189353 -9.95356 
-9.97506 0.00248739 0.0236747 
0.00248739 -9.96268 -0.00230393 
0.0236747 -0.00230393 -9.95309 
-9.67317 0.0126878 0.126547 
0.0126878 -10.1889 -0.00222214 
0.126547 -0.00222214 -9.84481 
-10.0304 -0.069485 -0.057658 
-0.069485 -9.66523 -0.289958 
-0.057658 -0.289958 -10.0112 
-9.98063 -0.140394 0.00672793 
-0.140394 -9.60846 -0.269439 
0.00672793 -0.269439 -10.1178 
-10.0756 -0.137035 0.00536678 
-0.137035 -9.84033 -0.383439 
0.00536678 -0.383439 -9.79102 
-9.94399 0.05397 0.0175908 
0.05397 -9.93197 -0.0291337 
0.0175908 -0.0291337 -10.0012 
-9.92737 0.0242374 -0.00939165 
0.0242374 -9.92868 -0.0344365 
-0.00939165 -0.0344365 -10.0211 
-9.9453 0.0146831 -0.00860585 
0.0146831 -9.92634 -0.0608477 
-0.00860585 -0.0608477 -10.0056 
-9.92685 0.045371 0.0162383 
0.045371 -9.92285 -0.0523835 
0.0162383 -0.0523835 -10.0275 
-9.9809 -0.00984962 0.00585136 
-0.00984962 -9.98786 0.00757689 
0.00585136 0.00757689 -10.2008 
-9.97668 0.0104171 0.0140245 
0.0104171 -9.97163 0.0244003 
0.0140245 0.0244003 -10.2213 
-9.9665 -0.0181729 -0.0165408 
-0.0181729 -9.99632 -0.0266391 
-0.0165408 -0.0266391 -10.2067 
-9.98776 -0.0303492 0.015311 
-0.0303492 -9.99067 0.0200176 
0.015311 0.0200176 -10.1911 
-10.0142 -0.023469 -0.0208553 
-0.023469 -10.0055 0.00921535 
-0.0208553 0.00921535 -10.1299 
-10.006 0.0423554 0.0399393 
0.0423554 -9.95809 -0.00410415 
0.0399393 -0.00410415 -10.1855 
-10.0479 -0.00836107 0.0525595 
-0.00836107 -10.045 0.0898086 
0.0525595 0.0898086 -10.0566 
-10.0099 -0.0419813 -0.0546263 
-0.0419813 -10.066 -0.0396502 
-0.0546263 -0.0396502 -10.0737 
-9.90797 0.0254467 0.0394015 
0.0254467 -9.90466 0.0152202 
0.0394015 0.0152202 -10.0103 
-9.91446 0.0220889 0.0138778 
0.0220889 -9.90727 -0.0137414 
0.0138778 -0.0137414 -10.0012 
-9.92761 0.0397209 0.0164718 
0.0397209 -9.93485 -0.0237775 
0.0164718 -0.0237775 -9.9605 
-9.90023 0.0630567 0.0103596 
0.0630567 -9.90526 -0.0654052 
0.0103596 -0.0654052 -10.0175 
-9.97631 0.00970604 0.0189527 
0.00970604 -9.9707 -0.0392714 
0.0189527 -0.0392714 -9.97652 
-9.97645 -0.00375724 0.0171576 
-0.00375724 -9.98251 -0.0352229 
0.0171576 -0.0352229 -9.96457 
-9.9833 0.00654985 0.0194062 
0.00654985 -9.97978 -0.0294657 
0.0194062 -0.0294657 -9.96046 
-9.97383 -0.000731359 0.0134218 
-0.000731359 -9.98312 -0.0291774 
0.0134218 -0.0291774 -9.96658 
-9.92994 -0.00802506 0.0355175 
-0.00802506 -9.91959 0.0535389 
0.0355175 0.0535389 -9.94617 
-9.93619 0.00491063 0.0446971 
0.00491063 -9.92714 0.0525616 
0.0446971 0.0525616 -9.93238 
-9.94068 0.0020981 0.0609864 
0.0020981 -9.91953 0.0589563 
0.0609864 0.0589563 -9.93549 
-9.93497 -0.00580775 0.0521211 
-0.00580775 -9.92309 0.0466055 
0.0521211 0.0466055 -9.93764 
-9.9771 0.00258262 -0.0340828 
0.00258262 -9.98009 0.0331666 
-0.0340828 0.0331666 -9.97971 
-9.97026 0.00447141 -0.0284088 
0.00447141 -9.99431 0.0330192 
-0.0284088 0.0330192 -9.97232 
-9.96974 0.00155738 -0.0440431 
0.00155738 -9.97928 0.018387 
-0.0440431 0.018387 -9.98788 
-9.98517 0.00517011 -0.039928 
0.00517011 -9.97188 0.0305913 
-0.039928 0.0305913 -9.97985 
-9.934 -0.00656626 0.0359532 
-0.00656626 -9.89871 0.0719418 
0.0359532 0.0719418 -9.9834 
-9.94293 -0.0116261 0.0614551 
-0.0116261 -9.94896 0.0375161 
0.0614551 0.0375161 -9.92422 
-9.94379 0.00708615 0.0308686 
0.00708615 -9.9582 0.013776 
0.0308686 0.013776 -9.91411 
-9.92435 -0.0306818 0.0269619 
-0.0306818 -9.94874 0.0235863 
0.0269619 0.0235863 -9.94302 
-9.92911 -0.00833252 0.0170507 
-0.00833252 -9.91779 0.00435099 
0.0170507 0.00435099 -9.97644 
-9.96245 -0.0167295 -0.00352853 
-0.0167295 -9.94292 -0.00107896 
-0.00352853 -0.00107896 -9.91796 
-9.93816 -0.0235764 0.0145508 
-0.0235764 -9.92445 0.00369349 
0.0145508 0.00369349 -9.96073 
-9.93227 -0.0040567 0.0473018 
-0.0040567 -9.90697 -0.0147549 
0.0473018 -0.0147549 -9.98409 
-9.67215 0.223596 0.0469753 
0.223596 -9.47368 0.865267 
0.0469753 0.865267 -10.5112 
-9.9928 0.420688 -0.0475909 
0.420688 -9.84435 0.402698 
-0.0475909 0.402698 -9.81986 
-10.2446 0.320457 -0.0823663 
0.320457 -9.24681 -0.141086 
-0.0823663 -0.141086 -10.1656 
-9.80825 0.100457 -0.137381 
0.100457 -9.6243 0.332461 
-0.137381 0.332461 -10.2245 
-9.86852 0.140683 0.0137712 
0.140683 -10.0685 0.158884 
0.0137712 0.158884 -10.1003 
-9.99577 0.0450043 0.0327272 
0.0450043 -9.81826 -0.150597 
0.0327272 -0.150597 -10.2233 
-10.3303 -0.284611 0.211283 
-0.284611 -9.1611 0.154759 
0.211283 0.154759 -10.5459 
-10.0396 -0.0896428 0.0408446 
-0.0896428 -9.76274 -0.0868326 
0.0408446 -0.0868326 -10.2349 
-9.96911 0.00018583 -0.069864 
0.00018583 -9.97126 -0.0049603 
-0.069864 -0.0049603 -9.96842 
-9.98043 0.00121795 -0.074067 
0.00121795 -9.97409 -0.00220552 
-0.074067 -0.00220552 -9.95427 
-9.96859 0.00456103 -0.0726156 
0.00456103 -9.97929 -0.00398736 
-0.0726156 -0.00398736 -9.96091 
-9.96718 -0.0012214 -0.0735276 
-0.0012214 -9.97637 -0.00829865 
-0.0735276 -0.00829865 -9.96523 
-9.91687 -0.000568026 0.0377784 
-0.000568026 -9.91731 -0.0813998 
0.0377784 -0.0813998 -9.92963 
-9.91118 -0.00794456 0.0494843 
-0.00794456 -9.92142 -0.0583029 
0.0494843 -0.0583029 -9.93121 
-9.91347 -0.0023154 0.0451385 
-0.0023154 -9.90856 -0.0600426 
0.0451385 -0.0600426 -9.94177 
-9.91092 -0.00360826 0.0468054 
-0.00360826 -9.92015 -0.0700603 
0.0468054 -0.0700603 -9.93274 
-9.90275 -0.00340665 0.0389033 
-0.00340665 -9.92322 -0.0387179 
0.0389033 -0.0387179 -9.98687 
-9.88515 -0.0132549 0.0298155 
-0.0132549 -9.90525 -0.0509686 
0.0298155 -0.0509686 -10.0224 
-9.89449 0.00701974 0.0281066 
0.00701974 -9.93104 -0.0457756 
0.0281066 -0.0457756 -9.98731 
-9.92281 -0.0627531 -0.0316442 
-0.0627531 -9.91092 0.0240798 
-0.0316442 0.0240798 -9.97911 
-9.94112 0.00879284 -0.0143352 
0.00879284 -9.94279 -0.0241512 
-0.0143352 -0.0241512 -9.96135 
-9.92277 -0.00815479 0.00227311 
-0.00815479 -9.95425 0.00512266 
0.00227311 0.00512266 -9.96823 
-9.94189 0.000552835 -0.0140133 
0.000552835 -9.93143 -0.0129021 
-0.0140133 -0.0129021 -9.97193 
-9.93619 0.00491123 0.00919749 
0.00491123 -9.94017 -0.00674705 
0.00919749 -0.00674705 -9.96889 
-9.91424 -0.0129898 0.0778519 
-0.0129898 -9.90794 -0.0762004 
0.0778519 -0.0762004 -9.93904 
-9.91582 -0.0160082 0.0548644 
-0.0160082 -9.91968 -0.0767885 
0.0548644 -0.0767885 -9.92572 
-9.91192 -0.0187965 0.0539433 
-0.0187965 -9.91933 -0.067154 
0.0539433 -0.067154 -9.92998 
-9.91791 -0.00426996 0.0559712 
-0.00426996 -9.93889 -0.0765866 
0.0559712 -0.0765866 -9.90443 
-9.68037 0.30835 0.16621 
0.30835 -10.1732 0.396506 
0.16621 0.396506 -11.217 
-10.3437 -0.0104343 0.0856415 
-0.0104343 -10.3851 -0.114563 
0.0856415 -0.114563 -10.3418 
-10.6881 0.126788 -0.0198567 
0.126788 -10.6502 -0.229136 
-0.0198567 -0.229136 -9.73222 
-10.2763 -0.0293117 0.255335 
-0.0293117 -10.0952 -0.235203 
0.255335 -0.235203 -10.6991 
-10.0469 -0.0216334 -0.0209994 
-0.0216334 -10.0685 -0.0115945 
-0.0209994 -0.0115945 -10.2077 
-10.0539 -0.0136511 -0.0159503 
-0.0136511 -10.0688 0.00833003 
-0.0159503 0.00833003 -10.2004 
-10.053 -0.0158316 -0.0164386 
-0.0158316 -10.0626 0.00126777 
-0.0164386 0.00126777 -10.2076 
-10.0614 -0.0113573 -0.0326537 
-0.0113573 -10.0712 0.00551973 
-0.0326537 0.00551973 -10.1905 
-9.93537 0.00270552 0.0150162 
0.00270552 -9.95915 0.0164875 
0.0150162 0.0164875 -9.9494 
-9.94679 0.00265682 0.0128951 
0.00265682 -9.95676 -0.0023095 
0.0128951 -0.0023095 -9.94038 
-9.94369 0.0138468 0.0100287 
0.0138468 -9.95272 -0.00717338 
0.0100287 -0.00717338 -9.94751 
-9.96033 0.0170944 0.00869649 
0.0170944 -9.94908 0.0128276 
0.00869649 0.0128276 -9.93451 
-9.92252 0.000532979 -0.0211669 
0.000532979 -9.91255 -0.090056 
-0.0211669 -0.090056 -9.88876 
-9.92345 0.000538384 -0.0221011 
0.000538384 -9.91128 -0.0911983 
-0.0221011 -0.0911983 -9.8891 
-9.92315 0.000553052 -0.0190596 
0.000553052 -9.91425 -0.0901901 
-0.0190596 -0.0901901 -9.88644 
-9.92573 0.00248116 -0.0224604 
0.00248116 -9.9114 -0.0918085 
-0.0224604 -0.0918085 -9.88671 
-9.9092 0.00768911 0.0401639 
0.00768911 -9.91003 0.041487 
0.0401639 0.041487 -9.94963 
-9.90625 0.00867977 0.0473218 
0.00867977 -9.92243 0.053793 
0.0473218 0.053793 -9.94018 
-9.90395 0.00398207 0.0335742 
0.00398207 -9.91104 0.0628738 
0.0335742 0.0628738 -9.95387 
-9.90576 0.00659483 0.0503799 
0.00659483 -9.91661 0.0337728 
0.0503799 0.0337728 -9.94649 
-9.94351 0.0504663 0.00953942 
0.0504663 -9.91606 -0.00922323 
0.00953942 -0.00922323 -9.92043 
-9.93797 0.0153525 0.0412224 
0.0153525 -9.91806 -0.0432038 
0.0412224 -0.0432038 -9.92396 
-9.90863 0.0387618 0.0926083 
0.0387618 -9.96959 -0.0114819 
0.0926083 -0.0114819 -9.90178 
-9.92068 0.0249398 0.0513502 
0.0249398 -9.94281 -0.00373943 
0.0513502 -0.00373943 -9.91652 
-9.97306 -0.0045106 0.00737421 
-0.0045106 -9.98117 0.0339145 
0.00737421 0.0339145 -9.9477 
-9.96597 -0.00348394 0.0111335 
-0.00348394 -9.96721 0.0340569 
0.0111335 0.0340569 -9.96874 
-9.96625 -0.00167236 -0.00295175 
-0.00167236 -9.97442 0.0182719 
-0.00295175 0.0182719 -9.96126 
-9.96809 -0.00205336 0.0124424 
-0.00205336 -9.97867 0.0310629 
0.0124424 0.0310629 -9.95517 
-10.1477 0.00737264 0.0295934 
0.00737264 -10.2215 -0.0267241 
0.0295934 -0.0267241 -10.123 
-10.108 -0.0153889 -0.0210388 
-0.0153889 -10.1491 0.000626137 
-0.0210388 0.000626137 -10.2352 
-10.1635 -0.0170481 -0.0154426 
-0.0170481 -10.1003 0.00799209 
-0.0154426 0.00799209 -10.2284 
-10.1804 0.0871039 0.00727947 
0.0871039 -10.1965 0.04436 
0.00727947 0.04436 -10.1154 
-9.97941 0.00171868 0.0246979 
0.00171868 -9.98205 -0.0359778 
0.0246979 -0.0359778 -9.98618 
-9.98084 0.0014042 0.0306195 
0.0014042 -9.98417 -0.0360923 
0.0306195 -0.0360923 -9.98263 
-9.98344 -0.00133261 0.0296985 
-0.00133261 -9.98518 -0.0392364 
0.0296985 -0.0392364 -9.97902 
-9.97838 0.00476994 0.0310342 
0.00476994 -9.98778 -0.0339471 
0.0310342 -0.0339471 -9.98148 
-9.86545 0.0475213 -0.0899527 
0.0475213 -9.84676 -0.0892611 
-0.0899527 -0.0892611 -9.947 
-9.8825 0.0536985 -0.0620782 
0.0536985 -9.81639 -0.100775 
-0.0620782 -0.100775 -9.9603 
-9.88076 0.0052957 -0.0899573 
0.0052957 -9.87316 -0.116694 
-0.0899573 -0.116694 -9.90528 
-9.88083 0.110648 -0.0960631 
0.110648 -9.81023 -0.135431 
-0.0960631 -0.135431 -9.96814 
-9.9603 0.00104692 0.011254 
0.00104692 -9.95987 -0.0469497 
0.011254 -0.0469497 -9.94137 
-9.96522 0.00198275 0.00991756 
0.00198275 -9.96185 -0.0482787 
0.00991756 -0.0482787 -9.93447 
-9.96424 0.000274635 0.0145944 
0.000274635 -9.96294 -0.0493746 
0.0145944 -0.0493746 -9.93435 
-9.96386 -0.00172643 0.0126557 
-0.00172643 -9.96344 -0.0436555 
0.0126557 -0.0436555 -9.93424 
-9.87853 0.00421729 0.0417535 
0.00421729 -9.87551 -0.0199732 
0.0417535 -0.0199732 -10.0412 
-9.88867 0.0235777 0.0426134 
0.0235777 -9.87435 -0.0245453 
0.0426134 -0.0245453 -10.0323 
-9.88643 0.0165681 0.0410033 
0.0165681 -9.87921 -0.0287766 
0.0410033 -0.0287766 -10.0296 
-9.88649 0.0218223 0.0492386 
0.0218223 -9.87589 -0.0290771 
0.0492386 -0.0290771 -10.0329 
-9.9662 0.269428 -0.139378 
0.269428 -9.66286 -0.457448 
-0.139378 -0.457448 -9.94223 
-10.0233 0.0584518 -0.122273 
0.0584518 -9.66237 -0.22603 
-0.122273 -0.22603 -9.88566 
-9.58908 0.397184 -0.142254 
0.397184 -10.1608 -0.119786 
-0.142254 -0.119786 -9.82139 
-9.84738 0.337427 -0.0852468 
0.337427 -9.7437 -0.199127 
-0.0852468 -0.199127 -9.9802 
-9.88007 0.025439 0.0330266 
0.025439 -9.91008 -0.0148186 
0.0330266 -0.0148186 -10.0246 
-9.88267 0.0283098 0.0353745 
0.0283098 -9.90797 -0.0135172 
0.0353745 -0.0135172 -10.0241 
-9.88432 0.0326714 0.0311361 
0.0326714 -9.91336 -0.0210563 
0.0311361 -0.0210563 -10.0171 
-9.88561 0.0221199 0.0394626 
0.0221199 -9.89616 -0.0120347 
0.0394626 -0.0120347 -10.033 
-9.93307 0.0561698 -0.191868 
0.0561698 -9.99913 0.176862 
-0.191868 0.176862 -9.73896 
-9.83692 0.0401382 -0.0979444 
0.0401382 -9.92082 0.0461143 
-0.0979444 0.0461143 -9.91343 
-9.88596 -0.151654 -0.140342 
-0.151654 -9.80646 0.186786 
-0.140342 0.186786 -9.97875 
-9.8931 -0.0743928 -0.0693948 
-0.0743928 -9.90394 0.175375 
-0.0693948 0.175375 -9.87412 
-10.4018 0.129647 0.0557775 
0.129647 -10.0601 0.0334732 
0.0557775 0.0334732 -10.5354 
-10.3902 0.0951381 0.0765785 
0.0951381 -10.1254 0.00581456 
0.0765785 0.00581456 -10.4817 
-10.3217 0.143654 -0.00155571 
0.143654 -10.0043 0.00902173 
-0.00155571 0.00902173 -10.6713 
-10.3081 0.126721 0.0945689 
0.126721 -10.1859 -0.0850965 
0.0945689 -0.0850965 -10.5033 
-10.4329 0.0186081 -0.108952 
0.0186081 -10.3665 0.25069 
-0.108952 0.25069 -10.4889 
-10.449 0.2098 0.240945 
0.2098 -9.63834 -0.0482477 
0.240945 -0.0482477 -11.201 
-10.9942 0.0627155 -0.43534 
0.0627155 -10.7406 0.348503 
-0.43534 0.348503 -9.55356 
-10.4597 -0.328687 -0.18673 
-0.328687 -9.98643 0.372616 
-0.18673 0.372616 -10.8422 
-10.1303 -0.0803668 -0.0511038 
-0.0803668 -9.88856 -0.221124 
-0.0511038 -0.221124 -9.80082 
-9.59833 -0.17272 0.184012 
-0.17272 -10.1098 -0.184937 
0.184012 -0.184937 -10.1115 
-9.71582 0.10445 -0.0434079 
0.10445 -10.1178 0.385595 
-0.0434079 0.385595 -9.98603 
-9.7333 0.194371 0.345553 
0.194371 -9.92615 0.260879 
0.345553 0.260879 -10.1602 
-9.36034 0.292746 0.889672 
0.292746 -9.95636 0.345752 
0.889672 0.345752 -9.94949 
-9.97317 -0.321929 0.543908 
-0.321929 -10.0966 0.0453533 
0.543908 0.0453533 -9.19643 
-10.2012 -0.00827402 0.501782 
-0.00827402 -10.0635 0.224306 
0.501782 0.224306 -9.0015 
-9.43485 0.171923 0.209581 
0.171923 -9.46715 0.136815 
0.209581 0.136815 -10.3642 
-9.95057 0.0180268 0.00864488 
0.0180268 -9.94174 -0.0134203 
0.00864488 -0.0134203 -9.95757 
-9.95339 0.0132198 0.0116219 
0.0132198 -9.94778 -0.00817621 
0.0116219 -0.00817621 -9.94872 
-9.94908 0.010923 0.0110333 
0.010923 -9.94677 -0.00905498 
0.0110333 -0.00905498 -9.95403 
-9.95174 0.00983213 0.0182694 
0.00983213 -9.94174 -0.0226789 
0.0182694 -0.0226789 -9.9564 
-9.98537 0.00478088 -0.0148924 
0.00478088 -9.97212 -0.0728873 
-0.0148924 -0.0728873 -9.97755 
-9.95072 0.00059646 -0.0131298 
0.00059646 -9.9784 -0.0555765 
-0.0131298 -0.0555765 -10.0059 
-9.98357 0.00415122 -0.0151296 
0.00415122 -9.97353 -0.0771803 
-0.0151296 -0.0771803 -9.97794 
-9.97922 -0.000287953 -0.0249702 
-0.000287953 -9.99263 -0.0735954 
-0.0249702 -0.0735954 -9.9632 
-9.94146 -0.0459867 -0.0876688 
-0.0459867 -10.0065 0.117984 
-0.0876688 0.117984 -9.76801 
-9.90599 0.000884199 -0.141303 
0.000884199 -9.97527 0.11302 
-0.141303 0.11302 -9.83467 
-9.93608 -0.0104983 -0.0758264 
-0.0104983 -10.0426 0.0745187 
-0.0758264 0.0745187 -9.73727 
-9.94352 0.00897711 -0.0558125 
0.00897711 -10.0414 0.100471 
-0.0558125 0.100471 -9.73099 
-10.0242 -0.049121 0.0207761 
-0.049121 -9.98428 -0.0027306 
0.0207761 -0.0027306 -10.141 
-9.6669 -0.0650407 0.0132074 
-0.0650407 -10.1528 0.0281916 
0.0132074 0.0281916 -10.3298 
-9.90691 -0.0628406 -0.0632625 
-0.0628406 -10.1245 -0.0189517 
-0.0632625 -0.0189517 -10.118 
-9.97856 -0.107007 -0.060645 
-0.107007 -10.0014 -0.053117 
-0.060645 -0.053117 -10.1695 
-9.97351 -0.00180416 -0.0139387 
-0.00180416 -9.97959 0.0686925 
-0.0139387 0.0686925 -9.98914 
-9.983 -0.00108207 -0.015447 
-0.00108207 -9.97809 0.0722178 
-0.015447 0.0722178 -9.98115 
-9.9836 -0.000554262 -0.0144469 
-0.000554262 -9.97963 0.0757273 
-0.0144469 0.0757273 -9.97901 
-9.98189 -0.00119922 -0.0178851 
-0.00119922 -9.98304 0.0731428 
-0.0178851 0.0731428 -9.9773 
-9.87574 -0.101404 -0.015167 
-0.101404 -9.79928 0.133911 
-0.015167 0.133911 -9.92481 
-9.91097 -0.0712379 0.0186675 
-0.0712379 -9.79177 0.195903 
0.0186675 0.195903 -9.89709 
-9.87751 0.00440927 0.0763888 
0.00440927 -9.77646 0.155567 
0.0763888 0.155567 -9.94586 
-9.86121 0.0560715 0.0868033 
0.0560715 -9.71542 0.169008 
0.0868033 0.169008 -10.0232 
-9.94613 0.0285664 0.0281699 
0.0285664 -9.94621 -0.0175343 
0.0281699 -0.0175343 -9.93187 
-9.94613 0.0298718 0.0277569 
0.0298718 -9.94316 -0.0159322 
0.0277569 -0.0159322 -9.93492 
-9.94663 0.0162448 0.0192874 
0.0162448 -9.92165 -0.0222867 
0.0192874 -0.0222867 -9.95592 
-9.93961 0.019907 0.0282051 
0.019907 -9.92721 -0.0177814 
0.0282051 -0.0177814 -9.95738 
-9.98858 0.00307658 0.0308348 
0.00307658 -9.97964 -0.0270293 
0.0308348 -0.0270293 -9.98827 
-9.9773 -0.000551691 0.032359 
-0.000551691 -9.98707 -0.0222013 
0.032359 -0.0222013 -9.99212 
-9.98236 0.000977997 0.03443 
0.000977997 -9.99014 -0.0214899 
0.03443 -0.0214899 -9.98398 
-9.98776 0.00658224 0.030539 
0.00658224 -9.98282 -0.023034 
0.030539 -0.023034 -9.9859 
-9.9362 0.0159997 -0.000588539 
0.0159997 -9.92816 0.0051151 
-0.000588539 0.0051151 -9.97042 
-9.94332 -0.00436488 0.0127252 
-0.00436488 -9.93256 0.0122016 
0.0127252 0.0122016 -9.9589 
-9.93724 0.0110709 0.0115987 
0.0110709 -9.95411 0.0171888 
0.0115987 0.0171888 -9.94343 
-9.93448 0.0162708 -0.0391914 
0.0162708 -9.94314 0.0182364 
-0.0391914 0.0182364 -9.95716 
-9.97573 -0.000800517 -0.019294 
-0.000800517 -9.97515 0.0260414 
-0.019294 0.0260414 -9.97971 
-9.98012 0.00921083 -0.0141992 
0.00921083 -9.98017 0.0210877 
-0.0141992 0.0210877 -9.97031 
-9.97069 0.00857722 -0.0181853 
0.00857722 -9.97325 0.0284579 
-0.0181853 0.0284579 -9.98666 
-9.97422 0.000732614 -0.0138777 
0.000732614 -9.97932 0.0212493 
-0.0138777 0.0212493 -9.97705 
-9.93363 0.00359456 0.0417208 
0.00359456 -9.93206 0.0482168 
0.0417208 0.0482168 -9.94697 
-9.9226 -0.00652083 0.042601 
-0.00652083 -9.94835 0.0450721 
0.042601 0.0450721 -9.94171 
-9.93804 0.0133774 0.041847 
0.0133774 -9.92407 0.0545422 
0.041847 0.0545422 -9.95054 
-9.93093 -0.00823489 0.035173 
-0.00823489 -9.92856 0.0444502 
0.035173 0.0444502 -9.95316 
-9.87171 0.0143462 0.030659 
0.0143462 -9.82685 0.0329136 
0.030659 0.0329136 -9.97249 
-9.90721 -0.0133577 -0.0108706 
-0.0133577 -9.86753 0.119429 
-0.0108706 0.119429 -9.89631 
-9.9235 0.0068927 -0.00694254 
0.0068927 -9.86695 0.126202 
-0.00694254 0.126202 -9.8806 
-9.93874 -0.00706343 -0.0109007 
-0.00706343 -9.79431 0.15199 
-0.0109007 0.15199 -9.938 
-9.92002 0.192694 0.00667035 
0.192694 -9.70573 0.368651 
0.00667035 0.368651 -9.63267 
-9.72803 0.0559389 0.0927509 
0.0559389 -9.46526 0.32465 
0.0927509 0.32465 -10.0651 
-9.53786 0.168514 0.0682443 
0.168514 -9.5974 0.229799 
0.0682443 0.229799 -10.1232 
-9.70469 0.24336 -0.0308233 
0.24336 -9.45787 0.243776 
-0.0308233 0.243776 -10.0959 
-9.85405 -0.0376691 -0.0478515 
-0.0376691 -9.89712 0.0570545 
-0.0478515 0.0570545 -9.94516 
-9.87876 -0.0178029 -0.0989204 
-0.0178029 -9.91529 0.046181 
-0.0989204 0.046181 -9.90228 
-9.874 0.00226645 -0.0723125 
0.00226645 -9.92171 0.0674816 
-0.0723125 0.0674816 -9.90062 
-9.87046 -0.0580661 -0.0997838 
-0.0580661 -9.91267 0.0953879 
-0.0997838 0.0953879 -9.9132 
-9.91287 0.0301905 -0.0709039 
0.0301905 -9.87466 -0.048404 
-0.0709039 -0.048404 -9.92005 
-9.8408 0.0823172 -0.0928232 
0.0823172 -9.93861 -0.0855478 
-0.0928232 -0.0855478 -9.92818 
-9.93009 -0.00429214 -0.113623 
-0.00429214 -9.87418 -0.0691042 
-0.113623 -0.0691042 -9.90332 
-9.90935 -0.017183 -0.127677 
-0.017183 -9.91862 -0.0314217 
-0.127677 -0.0314217 -9.87962 
-9.96111 0.0600641 0.186814 
0.0600641 -9.83021 0.170125 
0.186814 0.170125 -9.9203 
-9.94559 -0.024981 0.0528359 
-0.024981 -9.80764 0.0549653 
0.0528359 0.0549653 -9.95839 
-9.89798 0.0586582 0.0979398 
0.0586582 -9.8604 0.137994 
0.0979398 0.137994 -9.95325 
-9.88259 0.207623 0.0999447 
0.207623 -9.90698 0.112004 
0.0999447 0.112004 -9.92206 
-9.92117 0.0282697 0.0386907 
0.0282697 -9.93305 -0.0345983 
0.0386907 -0.0345983 -9.93811 
-9.95238 0.00969087 0.0403159 
0.00969087 -9.92456 -0.0333945 
0.0403159 -0.0333945 -9.91539 
-9.91853 0.0319968 0.0834021 
0.0319968 -9.96388 -0.0290651 
0.0834021 -0.0290651 -9.90992 
-9.93388 0.0166754 0.0385729 
0.0166754 -9.95663 -0.0170366 
0.0385729 -0.0170366 -9.90182 
-9.97625 -0.00284084 0.0479861 
-0.00284084 -9.9747 -0.0353008 
0.0479861 -0.0353008 -9.98545 
-9.98113 -7.73282e-05 0.0466103 
-7.73282e-05 -9.97887 -0.0335027 
0.0466103 -0.0335027 -9.97639 
-9.98076 0.00535042 0.0495778 
0.00535042 -9.97728 -0.0341046 
0.0495778 -0.0341046 -9.97835 
-9.97963 -0.000122838 0.0455531 
-0.000122838 -9.978 -0.0370118 
0.0455531 -0.0370118 -9.97876 
-9.86385 -0.0331463 0.0286741 
-0.0331463 -9.91966 -0.0110282 
0.0286741 -0.0110282 -9.94466 
-9.91972 -0.0111243 0.00228449 
-0.0111243 -9.85111 -0.0779073 
0.00228449 -0.0779073 -9.95734 
-9.84646 -0.0558851 0.0393906 
-0.0558851 -9.90801 -0.0407512 
0.0393906 -0.0407512 -9.9737 
-9.87266 -0.00545207 0.094486 
-0.00545207 -9.92898 0.0159639 
0.094486 0.0159639 -9.92653 
-10.2299 -0.0549116 0.077734 
-0.0549116 -9.66411 -0.0338661 
0.077734 -0.0338661 -10.2522 
-10.1345 0.0432892 0.0574272 
0.0432892 -9.92672 -0.114007 
0.0574272 -0.114007 -10.0849 
-10.2541 0.0053686 -0.0564257 
0.0053686 -9.75788 -0.123638 
-0.0564257 -0.123638 -10.1341 
-10.1074 -0.209624 0.118432 
-0.209624 -9.64049 -0.281851 
0.118432 -0.281851 -10.3983 
-9.90024 0.000224074 -0.00126913 
0.000224074 -9.94627 -0.00464738 
-0.00126913 -0.00464738 -10.1262 
-9.91813 0.00275579 -0.00415195 
0.00275579 -9.91597 0.0179679 
-0.00415195 0.0179679 -10.1386 
-9.91736 0.00223676 -0.00293313 
0.00223676 -9.90993 0.00291992 
-0.00293313 0.00291992 -10.1454 
-9.90971 -0.00385254 -0.00674936 
-0.00385254 -9.89328 -0.00826874 
-0.00674936 -0.00826874 -10.1697 
-9.72983 0.0696207 0.0312485 
0.0696207 -9.90402 -0.0658562 
0.0312485 -0.0658562 -10.0764 
-9.82982 0.0325778 0.0601179 
0.0325778 -10.0361 0.139476 
0.0601179 0.139476 -9.84427 
-9.8416 0.0123121 0.205406 
0.0123121 -9.87142 -0.0369072 
0.205406 -0.0369072 -9.99719 
-9.80448 -0.0478973 0.209925 
-0.0478973 -10.0212 0.0649455 
0.209925 0.0649455 -9.8845 
-9.92049 0.0105565 0.0405235 
0.0105565 -9.92769 0.0683145 
0.0405235 0.0683145 -9.95821 
-9.92225 0.0141049 0.0649304 
0.0141049 -9.93086 0.103931 
0.0649304 0.103931 -9.95328 
-9.95942 0.0797801 0.0848336 
0.0797801 -9.83176 0.0849665 
0.0848336 0.0849665 -10.0152 
-9.94157 -0.0069687 0.0684915 
-0.0069687 -9.92493 0.117314 
0.0684915 0.117314 -9.9399 
-9.95849 0.00983408 -0.060817 
0.00983408 -9.91291 0.197687 
-0.060817 0.197687 -10.1075 
-9.97118 0.033374 -0.0513678 
0.033374 -9.90407 0.231192 
-0.0513678 0.231192 -10.1037 
-10.0437 -0.0384075 -0.0524385 
-0.0384075 -9.75944 0.245762 
-0.0524385 0.245762 -10.1758 
-9.96997 0.012271 -0.0111721 
0.012271 -9.8915 0.15276 
-0.0111721 0.15276 -10.1175 
-9.83976 -0.018723 0.13714 
-0.018723 -9.91673 0.0300096 
0.13714 0.0300096 -9.74919 
-9.86225 -0.0191864 0.103396 
-0.0191864 -9.91014 0.030076 
0.103396 0.030076 -9.7333 
-9.91011 -0.0230879 0.20013 
-0.0230879 -10.0048 0.149952 
0.20013 0.149952 -9.59075 
-9.75564 0.0290364 0.00683198 
0.0290364 -9.80062 0.190027 
0.00683198 0.190027 -9.94942 
-11.0767 -0.154752 -1.62744 
-0.154752 -9.36109 0.519252 
-1.62744 0.519252 -7.90916 
-10.9579 -0.294031 -0.322136 
-0.294031 -10.0207 -0.0346235 
-0.322136 -0.0346235 -7.3683 
-9.41103 1.04983 -0.265376 
1.04983 -9.68684 0.457273 
-0.265376 0.457273 -9.24903 
-8.9696 0.265781 0.351925 
0.265781 -9.02188 -0.440133 
0.351925 -0.440133 -10.3554 
-9.94256 -0.0122513 0.0678354 
-0.0122513 -9.95075 -0.0508536 
0.0678354 -0.0508536 -9.98322 
-9.97325 0.0168591 0.0572503 
0.0168591 -9.96174 -0.0446717 
0.0572503 -0.0446717 -9.94153 
-9.96199 0.00275783 0.0594224 
0.00275783 -9.9529 -0.040036 
0.0594224 -0.040036 -9.96163 
-9.94038 -0.0023218 0.0456312 
-0.0023218 -9.95567 -0.0244756 
0.0456312 -0.0244756 -9.98047 
-10.0754 -0.162451 0.195725 
-0.162451 -9.83943 -0.0175034 
0.195725 -0.0175034 -9.65372 
-10.0521 0.0532772 0.168034 
0.0532772 -10.0051 0.252227 
0.168034 0.252227 -9.51137 
-9.70875 -0.0144776 0.139018 
-0.0144776 -9.92802 -0.0691084 
0.139018 -0.0691084 -9.93182 
-9.73321 -0.0602492 0.042548 
-0.0602492 -10.6451 -0.148112 
0.042548 -0.148112 -9.19024 
-9.94545 0.00294743 0.00649565 
0.00294743 -9.97166 0.0260698 
0.00649565 0.0260698 -9.96217 
-9.95722 0.00942856 0.00675271 
0.00942856 -9.95995 0.000354626 
0.00675271 0.000354626 -9.9621 
-9.95809 0.00695718 0.00841723 
0.00695718 -9.96809 -0.00436371 
0.00841723 -0.00436371 -9.9531 
-9.95265 0.00603746 0.00668936 
0.00603746 -9.95293 -0.00523403 
0.00668936 -0.00523403 -9.9737 
-9.90376 -0.00193947 -0.0117801 
-0.00193947 -9.86476 -0.0878269 
-0.0117801 -0.0878269 -9.90786 
-9.90218 0.0113297 -0.0342159 
0.0113297 -9.87494 -0.143594 
-0.0342159 -0.143594 -9.89927 
-9.95169 0.0773923 -0.0270508 
0.0773923 -9.75337 -0.142841 
-0.0270508 -0.142841 -9.97133 
-9.91709 -0.0091793 -0.0353983 
-0.0091793 -9.8646 -0.14883 
-0.0353983 -0.14883 -9.89469 
-9.86651 0.277498 0.160342 
0.277498 -9.68423 -0.104544 
0.160342 -0.104544 -9.64888 
-10.0223 -0.1173 0.0105561 
-0.1173 -10.6119 -0.108724 
0.0105561 -0.108724 -8.56541 
-10.0031 -0.145823 0.137664 
-0.145823 -10.0448 0.369578 
0.137664 0.369578 -9.15166 
-9.79901 -0.0790886 0.100719 
-0.0790886 -10.2107 0.132252 
0.100719 0.132252 -9.18988 
-9.96884 -0.00296393 0.0317025 
-0.00296393 -9.95991 0.0283936 
0.0317025 0.0283936 -9.96994 
-9.96609 -0.00643576 0.0384853 
-0.00643576 -9.96457 0.0365359 
0.0384853 0.0365359 -9.96805 
-9.96312 -0.0245088 0.0296048 
-0.0245088 -9.9852 0.0271907 
0.0296048 0.0271907 -9.95038 
-9.97031 -0.0082573 0.0191796 
-0.0082573 -9.9673 0.0364614 
0.0191796 0.0364614 -9.96108 
-9.96566 0.00708845 0.0141087 
0.00708845 -9.97804 -0.0229344 
0.0141087 -0.0229344 -9.99511 
-9.97833 0.00885555 -0.000914888 
0.00885555 -9.99469 -0.00704595 
-0.000914888 -0.00704595 -9.96579 
-9.98047 0.000913662 0.00632964 
0.000913662 -9.97842 -0.0107305 
0.00632964 -0.0107305 -9.97993 
-9.97928 -0.00322066 0.009518 
-0.00322066 -9.97586 -0.0064263 
0.009518 -0.0064263 -9.98367 
-9.80215 0.064802 -0.0716213 
0.064802 -9.70936 -0.164615 
-0.0716213 -0.164615 -9.88435 
-9.81899 0.0235463 -0.088493 
0.0235463 -9.70563 -0.294385 
-0.088493 -0.294385 -9.87124 
-9.75231 0.0929875 -0.035903 
0.0929875 -9.72851 -0.138562 
-0.035903 -0.138562 -9.91503 
-9.87451 0.01297 -0.121098 
0.01297 -9.73866 -0.286134 
-0.121098 -0.286134 -9.78269 
-9.9447 0.00329053 0.0357161 
0.00329053 -9.94964 0.0649152 
0.0357161 0.0649152 -9.94834 
-9.94263 0.00136072 0.0356453 
0.00136072 -9.94768 0.0642519 
0.0356453 0.0642519 -9.95238 
-9.94382 0.00437266 0.0373589 
0.00437266 -9.94986 0.0623924 
0.0373589 0.0623924 -9.94901 
-9.94504 0.00311216 0.0365004 
0.00311216 -9.94839 0.0644061 
0.0365004 0.0644061 -9.94926 
-10.3099 -0.494729 1.32824 
-0.494729 -9.4754 -0.00801891 
1.32824 -0.00801891 -8.07555 
-9.44899 0.0949037 0.841043 
0.0949037 -9.44188 0.0928839 
0.841043 0.0928839 -8.96996 
-9.27584 -0.121942 0.545993 
-0.121942 -9.47733 0.680813 
0.545993 0.680813 -9.10767 
-9.87721 -0.215682 -0.250486 
-0.215682 -10.5354 -0.322929 
-0.250486 -0.322929 -7.4482 
-9.99156 0.00233924 0.045243 
0.00233924 -9.99022 -0.0395423 
0.045243 -0.0395423 -9.98799 
-9.98651 -0.000410304 0.0447296 
-0.000410304 -9.98699 -0.0397876 
0.0447296 -0.0397876 -9.99628 
-9.98194 0.00189504 0.0474037 
0.00189504 -9.98436 -0.0363235 
0.0474037 -0.0363235 -10.0035 
-9.99109 0.00519625 0.0397252 
0.00519625 -9.98887 -0.0389435 
0.0397252 -0.0389435 -9.9898 
-9.91018 0.000515145 -0.0807569 
0.000515145 -9.92952 -0.0268938 
-0.0807569 -0.0268938 -9.90688 
-9.93707 0.0107178 -0.0856758 
0.0107178 -9.9159 -0.0412404 
-0.0856758 -0.0412404 -9.89361 
-9.91727 0.00841863 -0.0909941 
0.00841863 -9.92198 -0.0298704 
-0.0909941 -0.0298704 -9.90733 
-9.90567 0.0284232 -0.0961289 
0.0284232 -9.94703 -0.0262798 
-0.0961289 -0.0262798 -9.89389 
-9.92595 0.00233615 -0.0456824 
0.00233615 -9.94865 -0.0585775 
-0.0456824 -0.0585775 -9.94987 
-9.93369 -0.00239681 -0.0467172 
-0.00239681 -9.94911 -0.0576457 
-0.0467172 -0.0576457 -9.94167 
-9.9318 -0.00789032 -0.0517906 
-0.00789032 -9.94575 -0.0568844 
-0.0517906 -0.0568844 -9.94693 
-9.93149 0.00351118 -0.0461209 
0.00351118 -9.93378 -0.0580525 
-0.0461209 -0.0580525 -9.95921 
-9.87991 -0.0221872 -0.0585639 
-0.0221872 -9.91537 0.03222 
-0.0585639 0.03222 -9.95579 
-9.80297 -0.0331658 -0.111266 
-0.0331658 -9.90118 0.104205 
-0.111266 0.104205 -10.0469 
-9.94613 -0.018887 -0.10222 
-0.018887 -9.92375 0.075369 
-0.10222 0.075369 -9.8812 
-9.91402 -0.0381072 -0.0870607 
-0.0381072 -9.90084 0.0561796 
-0.0870607 0.0561796 -9.93622 
-9.96718 -0.00271377 -0.0523082 
-0.00271377 -9.96307 -0.0304428 
-0.0523082 -0.0304428 -9.98184 
-9.96886 -0.00547302 -0.0424661 
-0.00547302 -9.9697 -0.0350529 
-0.0424661 -0.0350529 -9.97353 
-9.9794 -0.00580236 -0.0387588 
-0.00580236 -9.97661 -0.0372841 
-0.0387588 -0.0372841 -9.95609 
-9.9695 -0.00711379 -0.0429215 
-0.00711379 -9.9709 -0.0339819 
-0.0429215 -0.0339819 -9.9717 
-8.91961 -0.0329018 0.00672632 
-0.0329018 -8.92667 -2.15911 
0.00672632 -2.15911 -9.90521 
-10.2367 0.0901172 -0.115552 
0.0901172 -8.22674 -2.21141 
-0.115552 -2.21141 -9.28809 
-10.7446 -0.646363 0.21847 
-0.646363 -7.26346 -0.327455 
0.21847 -0.327455 -9.74339 
-8.70875 0.228135 0.349426 
0.228135 -10.749 -1.85208 
0.349426 -1.85208 -8.29376 
-10.3178 0.313392 0.0520754 
0.313392 -9.85013 0.159357 
0.0520754 0.159357 -10.1977 
-9.85975 -0.893745 0.600259 
-0.893745 -9.44966 0.67018 
0.600259 0.67018 -11.0562 
-9.97602 -0.429763 -0.450237 
-0.429763 -10.0721 0.633341 
-0.450237 0.633341 -10.3175 
-10.0336 -0.206725 0.0104286 
-0.206725 -9.7326 0.410152 
0.0104286 0.410152 -10.5994 
-10.3984 -0.156071 -0.33636 
-0.156071 -9.47563 0.0240629 
-0.33636 0.0240629 -10.6469 
-10.1562 0.150379 -0.150075 
0.150379 -9.92637 0.0404391 
-0.150075 0.0404391 -10.4384 
-10.003 0.298111 0.014725 
0.298111 -9.91885 -0.0135605 
0.014725 -0.0135605 -10.5992 
-10.3224 -0.0305296 0.117783 
-0.0305296 -9.80428 -0.00577094 
0.117783 -0.00577094 -10.3943 
-9.94105 -0.000222582 0.0564498 
-0.000222582 -9.9801 0.0247747 
0.0564498 0.0247747 -9.87403 
-9.94624 0.0205359 0.00748271 
0.0205359 -9.95767 0.0159133 
0.00748271 0.0159133 -9.89127 
-9.95318 0.0356069 0.00895465 
0.0356069 -9.94197 0.0228573 
0.00895465 0.0228573 -9.90002 
-9.9145 0.00729279 0.0146961 
0.00729279 -9.93563 0.015107 
0.0146961 0.015107 -9.94505 
-9.96358 -0.00249679 0.0168773 
-0.00249679 -9.96607 0.0439746 
0.0168773 0.0439746 -9.97154 
-9.97813 -0.00493287 0.0177739 
-0.00493287 -9.9761 0.0475384 
0.0177739 0.0475384 -9.94696 
-9.97238 0.00388884 0.0252101 
0.00388884 -9.96615 0.0599305 
0.0252101 0.0599305 -9.96267 
-9.96893 -0.00292905 0.0203909 
-0.00292905 -9.9704 0.0498962 
0.0203909 0.0498962 -9.96186 
-9.95115 0.00909759 -0.0198692 
0.00909759 -9.96764 -0.00397098 
-0.0198692 -0.00397098 -9.92392 
-9.93951 0.012931 -0.0452215 
0.012931 -9.96805 0.0148014 
-0.0452215 0.0148014 -9.93515 
-9.94542 0.00899428 -0.0223902 
0.00899428 -9.9495 0.0194206 
-0.0223902 0.0194206 -9.94779 
-9.9579 0.0449974 -0.000579423 
0.0449974 -9.95616 -0.018009 
-0.000579423 -0.018009 -9.92864 
-9.96235 -1.58167 0.737384 
-1.58167 -10.6063 -0.0199439 
0.737384 -0.0199439 -9.52379 
-9.84503 3.00474 -0.06315 
3.00474 -7.61643 -1.77827 
-0.06315 -1.77827 -12.631 
-10.5913 0.576413 0.0433264 
0.576413 -9.61423 -1.95755 
0.0433264 -1.95755 -9.88685 
-10.2051 0.82232 -0.94791 
0.82232 -10.3674 -1.60856 
-0.94791 -1.60856 -9.51995 
-9.91635 0.0712411 0.0811394 
0.0712411 -9.80451 0.289259 
0.0811394 0.289259 -9.76561 
-9.8761 0.0569949 0.0398543 
0.0569949 -9.82314 0.181038 
0.0398543 0.181038 -9.78723 
-9.89029 0.0118256 0.0540814 
0.0118256 -9.83823 0.166686 
0.0540814 0.166686 -9.75795 
-9.85722 0.0119174 0.0447694 
0.0119174 -9.80008 0.156798 
0.0447694 0.156798 -9.82917 
-10.0128 0.0400738 0.048484 
0.0400738 -9.9539 -0.382547 
0.048484 -0.382547 -9.89054 
-10.0475 -0.0652761 -0.0518528 
-0.0652761 -9.9035 -0.322817 
-0.0518528 -0.322817 -9.90627 
-9.95323 0.034853 0.0629263 
0.034853 -9.89816 -0.253008 
0.0629263 -0.253008 -10.0059 
-10.0101 0.0297142 0.225101 
0.0297142 -9.85375 -0.289825 
0.225101 -0.289825 -9.99341 
-10.0915 0.0134267 0.00819002 
0.0134267 -10.0863 -0.052208 
0.00819002 -0.052208 -10.2001 
-10.0769 0.00785501 -0.000381887 
0.00785501 -10.0543 -0.0402302 
-0.000381887 -0.0402302 -10.2467 
-10.1261 -0.0270315 0.00951847 
-0.0270315 -10.0333 -0.0344395 
0.00951847 -0.0344395 -10.2185 
-10.102 -0.052134 0.0140727 
-0.052134 -10.0965 0.0169957 
0.0140727 0.0169957 -10.1794 
-9.93154 -0.000776621 0.0961749 
-0.000776621 -9.95258 0.0632182 
0.0961749 0.0632182 -9.87898 
-9.9112 -0.00450116 0.065536 
-0.00450116 -9.9306 0.0135887 
0.065536 0.0135887 -9.9213 
-9.9358 0.00933841 0.0570184 
0.00933841 -9.91825 0.0337732 
0.0570184 0.0337732 -9.90906 
-9.9386 0.00830759 0.0639069 
0.00830759 -9.90609 0.0379662 
0.0639069 0.0379662 -9.91841 
-9.98045 -2.4079e-05 -0.0124381 
-2.4079e-05 -9.98376 -0.0593785 
-0.0124381 -0.0593785 -10.0116 
-9.99493 -0.00231582 -0.0113743 
-0.00231582 -9.98949 -0.0601707 
-0.0113743 -0.0601707 -9.99139 
-9.99609 -0.00139124 -0.0125078 
-0.00139124 -9.99679 -0.0630231 
-0.0125078 -0.0630231 -9.98292 
-9.99473 0.000323853 -0.00805748 
0.000323853 -9.99846 -0.0507861 
-0.00805748 -0.0507861 -9.98261 
-9.94659 0.0147148 0.0377672 
0.0147148 -9.95426 -0.0117157 
0.0377672 -0.0117157 -9.96369 
-9.94561 0.00471834 0.0213138 
0.00471834 -9.95783 -0.0276022 
0.0213138 -0.0276022 -9.9611 
-9.95178 0.0048292 0.0416252 
0.0048292 -9.94394 -0.0220711 
0.0416252 -0.0220711 -9.96882 
-9.95299 0.00313266 0.0202669 
0.00313266 -9.95119 -0.0142737 
0.0202669 -0.0142737 -9.96036 
-9.97098 0.0107386 -0.0259746 
0.0107386 -9.99212 -0.0455047 
-0.0259746 -0.0455047 -9.86119 
-9.94447 0.020387 0.0213142 
0.020387 -9.95026 -0.0564206 
0.0213142 -0.0564206 -9.92956 
-9.9893 0.00849353 -0.00158717 
0.00849353 -9.96487 -0.0640234 
-0.00158717 -0.0640234 -9.87012 
-9.99135 -0.00350677 -0.0053225 
-0.00350677 -9.9733 -0.0782817 
-0.0053225 -0.0782817 -9.85964 
-9.93128 -0.0479474 0.0423945 
-0.0479474 -9.82148 -0.133014 
0.0423945 -0.133014 -9.79016 
-9.9296 -0.0207912 0.00823211 
-0.0207912 -9.8141 -0.15314 
0.00823211 -0.15314 -9.79923 
-9.94861 0.000813482 0.0199613 
0.000813482 -9.77067 -0.195384 
0.0199613 -0.195384 -9.82365 
-9.86595 0.00734683 0.0281494 
0.00734683 -9.86695 -0.127194 
0.0281494 -0.127194 -9.81002 
-9.96806 0.000335856 -0.0515612 
0.000335856 -9.9656 0.00100224 
-0.0515612 0.00100224 -9.96197 
-9.97401 0.000232529 -0.0466275 
0.000232529 -9.96741 0.00864288 
-0.0466275 0.00864288 -9.95422 
-9.97974 0.0029158 -0.0533186 
0.0029158 -9.98438 -0.000585673 
-0.0533186 -0.000585673 -9.93151 
-9.97219 -0.000711406 -0.0402289 
-0.000711406 -9.96665 0.0113757 
-0.0402289 0.0113757 -9.95679 
-9.97613 0.00370348 -0.0157232 
0.00370348 -9.96114 0.00909407 
-0.0157232 0.00909407 -9.9599 
-9.9651 0.00512127 -0.0172823 
0.00512127 -9.96873 0.00631348 
-0.0172823 0.00631348 -9.96334 
-9.97068 0.00260627 -0.0167192 
0.00260627 -9.96186 0.00723884 
-0.0167192 0.00723884 -9.96464 
-9.96846 -0.00329819 -0.0191902 
-0.00329819 -9.9689 0.010916 
-0.0191902 0.010916 -9.95981 
-9.97152 0.000816796 0.0513862 
0.000816796 -9.97447 -0.00562478 
0.0513862 -0.00562478 -9.93998 
-9.96952 0.00231341 0.0494559 
0.00231341 -9.96948 -0.00243664 
0.0494559 -0.00243664 -9.94697 
-9.96898 -0.0012184 0.0490793 
-0.0012184 -9.9645 -0.00473008 
0.0490793 -0.00473008 -9.95248 
-9.96663 0.000478689 0.0510645 
0.000478689 -9.96809 0.000280564 
0.0510645 0.000280564 -9.95124 
-9.9315 0.00297295 -0.0490491 
0.00297295 -9.93379 -0.0570599 
-0.0490491 -0.0570599 -9.94814 
-9.93092 -0.00494498 -0.0353377 
-0.00494498 -9.93176 -0.0496847 
-0.0353377 -0.0496847 -9.95075 
-9.92643 0.00290187 -0.0496795 
0.00290187 -9.94117 -0.0561899 
-0.0496795 -0.0561899 -9.94583 
-9.92986 -0.0028095 -0.049501 
-0.0028095 -9.93072 -0.058801 
-0.049501 -0.058801 -9.95286 
-9.97234 -0.00123344 -0.0125781 
-0.00123344 -9.97848 0.0588849 
-0.0125781 0.0588849 -9.96566 
-9.97653 0.00287513 -0.0134748 
0.00287513 -9.97602 0.0625931 
-0.0134748 0.0625931 -9.96392 
-9.97319 0.0077205 -0.0128858 
0.0077205 -9.97175 0.0569671 
-0.0128858 0.0569671 -9.97154 
-9.97623 0.00376491 -0.011879 
0.00376491 -9.97697 0.0593444 
-0.011879 0.0593444 -9.96327 
-9.92536 0.00961744 0.0634538 
0.00961744 -9.92733 0.0350461 
0.0634538 0.0350461 -9.92371 
-9.92144 0.00350265 0.0762726 
0.00350265 -9.92622 0.0298652 
0.0762726 0.0298652 -9.92875 
-9.92418 0.00785886 0.068529 
0.00785886 -9.93375 0.0402823 
0.068529 0.0402823 -9.91847 
-9.91754 0.00477662 0.0757993 
0.00477662 -9.92912 0.0348047 
0.0757993 0.0348047 -9.92974 
-9.94491 0.0158041 0.0258983 
0.0158041 -9.97928 -0.00291093 
0.0258983 -0.00291093 -9.88453 
-9.94395 0.00635978 0.0156269 
0.00635978 -9.97142 -0.00194561 
0.0156269 -0.00194561 -9.89336 
-9.97317 0.0180342 0.0453077 
0.0180342 -9.95473 0.0251302 
0.0453077 0.0251302 -9.88083 
-9.92849 0.00448596 0.0214044 
0.00448596 -9.9171 -0.0225707 
0.0214044 -0.0225707 -9.96313 
-9.91544 -0.0252989 -0.0198766 
-0.0252989 -9.87542 0.00810402 
-0.0198766 0.00810402 -9.95831 
-9.90711 -0.0202946 -0.0264035 
-0.0202946 -9.87594 0.017832 
-0.0264035 0.017832 -9.96611 
-9.87516 -0.0295456 -0.0121406 
-0.0295456 -9.86375 0.0628049 
-0.0121406 0.0628049 -10.0103 
-9.90948 -0.0149213 -0.0631756 
-0.0149213 -9.90725 0.0232606 
-0.0631756 0.0232606 -9.93244 
-9.76355 0.143635 -0.443145 
0.143635 -10.2187 -1.90978 
-0.443145 -1.90978 -4.0242 
-7.47189 -2.48398 0.555801 
-2.48398 -10.5268 1.7034 
0.555801 1.7034 -6.00772 
-7.51429 -1.05127 -0.154523 
-1.05127 -10.7333 -1.30985 
-0.154523 -1.30985 -5.75879 
-8.87909 1.4505 -1.71921 
1.4505 -7.53907 -1.4556 
-1.71921 -1.4556 -7.58826 
-9.90511 0.0286814 0.0310054 
0.0286814 -9.97991 -0.00983734 
0.0310054 -0.00983734 -9.90926 
-9.91354 -0.0113602 0.0846358 
-0.0113602 -9.9711 0.0271063 
0.0846358 0.0271063 -9.90964 
-9.96131 -0.0860554 0.073578 
-0.0860554 -9.95083 0.00935223 
0.073578 0.00935223 -9.88214 
-9.94386 -0.020066 -0.000237865 
-0.020066 -9.92394 0.0505846 
-0.000237865 0.0505846 -9.92647 
-9.95317 0.013294 -0.0304616 
0.013294 -9.91711 0.0677633 
-0.0304616 0.0677633 -9.78543 
-9.90336 0.0105099 -0.0184133 
0.0105099 -9.92918 0.0509066 
-0.0184133 0.0509066 -9.82317 
-9.95476 -0.0112829 -0.0941744 
-0.0112829 -9.86743 0.0558257 
-0.0941744 0.0558257 -9.83351 
-9.95532 0.00208286 -0.0373065 
0.00208286 -9.89803 0.0564426 
-0.0373065 0.0564426 -9.80236 
-9.95185 -0.0117138 0.00241066 
-0.0117138 -9.96274 0.0128481 
0.00241066 0.0128481 -9.98299 
-9.96316 -0.0137553 0.00184016 
-0.0137553 -9.95664 -0.00233598 
0.00184016 -0.00233598 -9.97779 
-9.96268 -0.0214667 0.00929454 
-0.0214667 -9.95668 0.00555157 
0.00929454 0.00555157 -9.97822 
-9.95276 -0.00891059 0.00724529 
-0.00891059 -9.95918 0.00645115 
0.00724529 0.00645115 -9.98564 
-9.94382 -0.00302842 -0.0684893 
-0.00302842 -9.93679 -0.025038 
-0.0684893 -0.025038 -9.9444 
-9.93915 0.00110749 -0.0738902 
0.00110749 -9.94665 -0.0267247 
-0.0738902 -0.0267247 -9.93921 
-9.94602 0.0026197 -0.0748207 
0.0026197 -9.94465 -0.025821 
-0.0748207 -0.025821 -9.93434 
-9.93663 -0.000887714 -0.0638509 
-0.000887714 -9.93408 -0.0286278 
-0.0638509 -0.0286278 -9.95429 
-9.91359 0.001106 0.0446684 
0.001106 -9.92784 -0.0536953 
0.0446684 -0.0536953 -9.95835 
-9.927 0.00319493 0.0548214 
0.00319493 -9.92201 -0.0441172 
0.0548214 -0.0441172 -9.95076 
-9.91935 0.00245541 0.0636978 
0.00245541 -9.93823 -0.033885 
0.0636978 -0.033885 -9.94218 
-9.93625 0.00150672 0.0592555 
0.00150672 -9.91375 -0.0390479 
0.0592555 -0.0390479 -9.94977 
-9.92372 -0.00160501 0.0563744 
-0.00160501 -9.92422 -0.051109 
0.0563744 -0.051109 -9.94272 
-9.92259 -0.00127077 0.0585191 
-0.00127077 -9.91998 -0.0527087 
0.0585191 -0.0527087 -9.94809 
-9.92369 -0.00217402 0.0556873 
-0.00217402 -9.9217 -0.0496701 
0.0556873 -0.0496701 -9.94527 
-9.93187 -0.00581632 0.0503588 
-0.00581632 -9.92586 -0.04784 
0.0503588 -0.04784 -9.93293 
-9.90349 -0.00568325 -0.0185746 
-0.00568325 -9.85427 0.0657826 
-0.0185746 0.0657826 -9.93446 
-9.93699 -0.0253349 0.0322453 
-0.0253349 -9.81721 0.0252719 
0.0322453 0.0252719 -9.93802 
-9.9297 0.0346706 0.0136773 
0.0346706 -9.86763 0.1108 
0.0136773 0.1108 -9.89488 
-9.89309 0.0208142 -0.0250182 
0.0208142 -9.8226 0.125162 
-0.0250182 0.125162 -9.97652 
-9.94102 0.00176751 0.0358548 
0.00176751 -9.94829 0.0604071 
0.0358548 0.0604071 -9.964 
-9.94785 0.00134171 0.0389284 
0.00134171 -9.95468 0.0561017 
0.0389284 0.0561017 -9.95077 
-9.95041 0.00142623 0.0441695 
0.00142623 -9.95624 0.0597958 
0.0441695 0.0597958 -9.94665 
-9.94927 -0.00282634 0.0352935 
-0.00282634 -9.95219 0.0580962 
0.0352935 0.0580962 -9.95184 
-9.94968 0.179256 -0.0305702 
0.179256 -10.1102 0.224382 
-0.0305702 0.224382 -9.57095 
-9.77632 -0.0426926 0.105819 
-0.0426926 -9.86799 -0.0505467 
0.105819 -0.0505467 -9.98649 
-9.88696 0.0908225 0.0352501 
0.0908225 -9.91366 0.314945 
0.0352501 0.314945 -9.83018 
-9.89693 0.120642 0.0168605 
0.120642 -9.97466 0.205582 
0.0168605 0.205582 -9.75921 
-10.0389 0.129951 -0.234269 
0.129951 -9.43922 0.0975604 
-0.234269 0.0975604 -10.4044 
-9.97954 0.199095 0.0941822 
0.199095 -9.75641 0.26904 
0.0941822 0.26904 -10.1466 
-9.86524 0.000737838 0.149856 
0.000737838 -9.90578 0.150621 
0.149856 0.150621 -10.1115 
-9.97823 0.152332 0.0157822 
0.152332 -9.67397 0.147948 
0.0157822 0.147948 -10.2304 
-9.93119 -0.0180216 -0.131913 
-0.0180216 -9.96211 0.0982355 
-0.131913 0.0982355 -9.78923 
-9.96811 0.0187798 -0.00523379 
0.0187798 -9.97442 0.0502755 
-0.00523379 0.0502755 -9.74 
-9.86333 0.0326312 -0.11357 
0.0326312 -9.91008 0.0466948 
-0.11357 0.0466948 -9.90912 
-9.94412 -0.00407496 -0.0583929 
-0.00407496 -9.93847 0.0908062 
-0.0583929 0.0908062 -9.79995 
-9.63553 -0.461393 0.087003 
-0.461393 -9.96158 -0.0567471 
0.087003 -0.0567471 -10.1314 
-9.8442 -0.371709 -0.147698 
-0.371709 -9.9862 -0.426953 
-0.147698 -0.426953 -9.89814 
-9.52801 -0.368132 0.697242 
-0.368132 -9.92665 -0.178985 
0.697242 -0.178985 -10.2739 
-10.1034 0.0554693 0.0338384 
0.0554693 -9.7244 0.0215437 
0.0338384 0.0215437 -9.90074 
-9.74233 -0.26623 0.129425 
-0.26623 -9.88154 0.0128455 
0.129425 0.0128455 -10.2209 
-9.74499 -0.215119 0.165488 
-0.215119 -9.91814 -0.142679 
0.165488 -0.142679 -10.1816 
-9.82457 -0.175168 0.216569 
-0.175168 -9.91647 0.0573932 
0.216569 0.0573932 -10.1037 
-9.84398 -0.0640904 0.106493 
-0.0640904 -9.97932 0.0592035 
0.106493 0.0592035 -10.0214 
-9.92866 0.0135831 -0.0690935 
0.0135831 -9.9427 -0.0620623 
-0.0690935 -0.0620623 -9.89505 
-9.91066 0.0089258 -0.0432966 
0.0089258 -9.91732 -0.0642897 
-0.0432966 -0.0642897 -9.93843 
-9.91086 0.00329094 -0.0617913 
0.00329094 -9.91684 -0.0703446 
-0.0617913 -0.0703446 -9.93872 
-9.89784 9.28866e-05 -0.0614783 
9.28866e-05 -9.9413 -0.0640684 
-0.0614783 -0.0640684 -9.92727 
-9.95823 0.00349156 -0.0077848 
0.00349156 -9.9794 -0.00116835 
-0.0077848 -0.00116835 -10.1936 
-9.9784 -0.0162761 -0.00414503 
-0.0162761 -9.9805 -0.000489536 
-0.00414503 -0.000489536 -10.1723 
-9.95743 -0.00990712 0.00529925 
-0.00990712 -9.98136 -0.0180652 
0.00529925 -0.0180652 -10.1924 
-9.95362 0.0147818 -0.0107546 
0.0147818 -9.99045 0.00277154 
-0.0107546 0.00277154 -10.1871 
-9.98271 0.00263761 -0.0582785 
0.00263761 -9.97647 0.00555988 
-0.0582785 0.00555988 -9.96885 
-9.97019 -0.0105758 -0.0483882 
-0.0105758 -10.0006 0.00211152 
-0.0483882 0.00211152 -9.95728 
-9.96459 -0.00551176 -0.0657045 
-0.00551176 -9.97858 -0.00373183 
-0.0657045 -0.00373183 -9.98487 
-9.98491 0.00402618 -0.0558534 
0.00402618 -9.97167 0.0123572 
-0.0558534 0.0123572 -9.97145 
-5.62914 -3.16259 0.178962 
-3.16259 -3.93519 -2.85812 
0.178962 -2.85812 -19.1571 
-7.94795 -1.4853 1.4909 
-1.4853 -4.90323 -1.47926 
1.4909 -1.47926 -15.8703 
-14.4665 -0.698857 -2.15864 
-0.698857 -12.1853 3.74609 
-2.15864 3.74609 -2.06961 
-8.68215 2.82803 3.38057 
2.82803 -14.7134 -6.28912 
3.38057 -6.28912 -5.32588 
-9.93053 -0.0283852 0.0628339 
-0.0283852 -9.92513 0.0625713 
0.0628339 0.0625713 -10.0032 
-9.95025 -0.0338958 0.0591542 
-0.0338958 -9.93976 0.0503725 
0.0591542 0.0503725 -9.96886 
-9.93689 -0.0135663 0.0247782 
-0.0135663 -9.94753 0.042676 
0.0247782 0.042676 -9.97445 
-9.94687 -0.0118812 0.0368956 
-0.0118812 -9.93787 0.0624407 
0.0368956 0.0624407 -9.97414 
-9.98332 0.0684538 -0.117882 
0.0684538 -9.7451 0.300183 
-0.117882 0.300183 -9.70706 
-9.91473 -0.078501 -0.172962 
-0.078501 -9.63727 0.22792 
-0.172962 0.22792 -9.88348 
-9.86612 -0.0556412 -0.139428 
-0.0556412 -9.76999 0.253246 
-0.139428 0.253246 -9.79938 
-9.83285 -0.0561116 -0.0985795 
-0.0561116 -9.77254 0.21106 
-0.0985795 0.21106 -9.8301 
-9.89413 -0.009437 -0.0660629 
-0.009437 -9.87996 0.0518655 
-0.0660629 0.0518655 -9.94175 
-9.83652 -0.0370752 -0.100859 
-0.0370752 -9.87529 0.0989328 
-0.100859 0.0989328 -10.004 
-9.85108 -0.0331074 -0.0815571 
-0.0331074 -9.95588 0.0137813 
-0.0815571 0.0137813 -9.90887 
-9.91178 -0.0166164 -0.126602 
-0.0166164 -9.93557 0.0140818 
-0.126602 0.0140818 -9.86849 
-9.90704 0.0126092 -0.0561536 
0.0126092 -9.91255 0.0457643 
-0.0561536 0.0457643 -9.92764 
-9.91664 -7.19948e-05 -0.0502598 
-7.19948e-05 -9.88775 0.0428462 
-0.0502598 0.0428462 -9.94284 
-9.90023 0.0135108 -0.0547202 
0.0135108 -9.91552 0.0435738 
-0.0547202 0.0435738 -9.93148 
-9.90601 0.0208377 -0.0484977 
0.0208377 -9.91308 0.0405877 
-0.0484977 0.0405877 -9.92815 
-10.0917 -0.0116206 0.0141281 
-0.0116206 -10.1471 -0.0302975 
0.0141281 -0.0302975 -10.2504 
-10.1365 0.00882789 0.0330894 
0.00882789 -10.1554 0.00657195 
0.0330894 0.00657195 -10.1973 
-10.1467 0.0444994 0.0391605 
0.0444994 -10.1219 0.0546318 
0.0391605 0.0546318 -10.2206 
-10.1381 -0.0632359 0.0610076 
-0.0632359 -10.2136 0.0198525 
0.0610076 0.0198525 -10.1375 
-10.0683 4.68683e-05 -0.02385 
4.68683e-05 -10.0462 -0.0108901 
-0.02385 -0.0108901 -10.1321 
-10.0314 -0.00105962 -0.0274533 
-0.00105962 -10.0226 0.00569558 
-0.0274533 0.00569558 -10.1926 
-10.0358 -0.0176272 0.00236846 
-0.0176272 -10.0599 0.0102348 
0.00236846 0.0102348 -10.151 
-10.0216 -0.00934164 0.0557257 
-0.00934164 -10.0918 -0.0069111 
0.0557257 -0.0069111 -10.1331 
-9.88706 -0.0448256 -0.0463586 
-0.0448256 -9.82527 0.215295 
-0.0463586 0.215295 -9.7842 
-9.92682 -0.120392 -0.039909 
-0.120392 -9.78869 0.302595 
-0.039909 0.302595 -9.78103 
-9.85023 0.0127001 -0.0545255 
0.0127001 -9.89506 0.189621 
-0.0545255 0.189621 -9.75124 
-9.87783 -0.0212784 -0.027447 
-0.0212784 -9.78523 0.166136 
-0.027447 0.166136 -9.83348 
-9.91538 -0.0443441 -0.019805 
-0.0443441 -9.92029 0.0855603 
-0.019805 0.0855603 -9.95286 
-9.90456 -0.0243523 0.0088587 
-0.0243523 -9.9326 0.0968211 
0.0088587 0.0968211 -9.95137 
-9.93205 -0.0385406 -0.0175224 
-0.0385406 -9.90887 0.0911663 
-0.0175224 0.0911663 -9.9476 
-9.91844 -0.0371008 -0.0173396 
-0.0371008 -9.91989 0.0885938 
-0.0173396 0.0885938 -9.9502 
-9.90596 -0.0195447 -0.0238378 
-0.0195447 -9.90335 -0.0394483 
-0.0238378 -0.0394483 -9.98127 
-9.89926 -0.0144035 -0.0221496 
-0.0144035 -9.90164 -0.0277321 
-0.0221496 -0.0277321 -9.98968 
-9.89733 -0.0339597 -0.0269622 
-0.0339597 -9.90491 -0.0399613 
-0.0269622 -0.0399613 -9.98834 
-9.90173 -0.0205179 -0.0291086 
-0.0205179 -9.90887 -0.0243143 
-0.0291086 -0.0243143 -9.97999 
-12.1408 -1.67133 5.05878 
-1.67133 -7.05665 -0.648547 
5.05878 -0.648547 1.54297 
-12.1409 0.275512 5.06426 
0.275512 -8.57315 0.867472 
5.06426 0.867472 3.05949 
-4.06501 0.317969 -1.91115 
0.317969 -1.94367 1.25719 
-1.91115 1.25719 -11.6458 
2.20427 -0.720428 8.10144 
-0.720428 -8.52928 2.24318 
8.10144 2.24318 -11.3295 
-9.992 -0.0781391 0.0869547 
-0.0781391 -9.95535 0.0752028 
0.0869547 0.0752028 -10.1326 
-10.0115 -0.0504675 0.00427014 
-0.0504675 -9.94329 0.0581613 
0.00427014 0.0581613 -10.1251 
-9.86955 -0.0554738 0.0513903 
-0.0554738 -9.85231 0.118545 
0.0513903 0.118545 -10.3581 
-9.98242 -0.0630696 0.0387648 
-0.0630696 -9.96682 0.088724 
0.0387648 0.088724 -10.1307 
-9.8612 -0.0952374 -0.0822764 
-0.0952374 -10.0596 0.0415446 
-0.0822764 0.0415446 -10.3048 
-9.88866 -0.0987336 -0.0962979 
-0.0987336 -9.97665 -0.108205 
-0.0962979 -0.108205 -10.3603 
-9.82954 -0.142512 -0.0900349 
-0.142512 -10.0604 0.0237205 
-0.0900349 0.0237205 -10.3356 
-9.96855 -0.0082164 -0.0244903 
-0.0082164 -9.98071 0.010193 
-0.0244903 0.010193 -10.2763 
-9.95759 0.000389251 0.0307188 
0.000389251 -9.96851 -0.0529164 
0.0307188 -0.0529164 -9.95613 
-9.96121 0.00378058 0.0359206 
0.00378058 -9.9651 -0.0545605 
0.0359206 -0.0545605 -9.95593 
-9.96357 0.00228394 0.035172 
0.00228394 -9.9703 -0.0526806 
0.035172 -0.0526806 -9.94836 
-9.96414 0.00288166 0.0365511 
0.00288166 -9.96823 -0.0481016 
0.0365511 -0.0481016 -9.94987 
-9.89956 0.0466016 -0.122483 
0.0466016 -9.8754 -0.0832781 
-0.122483 -0.0832781 -9.98409 
-9.89163 0.00677354 -0.0635529 
0.00677354 -9.96213 -0.121883 
-0.0635529 -0.121883 -9.9053 
-9.87158 0.0508883 -0.0466448 
0.0508883 -9.93249 -0.0630519 
-0.0466448 -0.0630519 -9.95499 
-9.88566 0.030089 -0.0530772 
0.030089 -9.8998 -0.0773755 
-0.0530772 -0.0773755 -9.9736 
-9.95268 -0.00118318 -0.0357929 
-0.00118318 -9.95685 0.055568 
-0.0357929 0.055568 -9.89972 
-9.9351 0.0233206 -0.0304401 
0.0233206 -9.94329 0.0213626 
-0.0304401 0.0213626 -9.93086 
-9.94099 0.0114428 -0.0399829 
0.0114428 -9.94737 0.0265896 
-0.0399829 0.0265896 -9.9209 
-9.91182 0.0388278 -0.02321 
0.0388278 -10.0054 0.00542099 
-0.02321 0.00542099 -9.89202 
-9.95593 0.00370336 0.0603304 
0.00370336 -9.94474 -0.0418341 
0.0603304 -0.0418341 -9.94123 
-9.92943 -0.01034 0.0628729 
-0.01034 -9.94914 -0.0467517 
0.0628729 -0.0467517 -9.96333 
-9.95345 0.00833758 0.0618195 
0.00833758 -9.94382 -0.0374926 
0.0618195 -0.0374926 -9.94463 
-9.94962 -0.00370806 0.0439682 
-0.00370806 -9.93941 -0.0447539 
0.0439682 -0.0447539 -9.95287 
-9.9666 0.00193578 -0.049172 
0.00193578 -9.9606 0.0332269 
-0.049172 0.0332269 -9.94934 
-9.96165 0.00373948 -0.0490164 
0.00373948 -9.95855 0.0321787 
-0.0490164 0.0321787 -9.95634 
-9.96289 0.00228802 -0.0476744 
0.00228802 -9.9578 0.0296746 
-0.0476744 0.0296746 -9.95585 
-9.96514 0.00287207 -0.0451597 
0.00287207 -9.96091 0.0332819 
-0.0451597 0.0332819 -9.9505 
-9.89726 0.0045674 -0.0296447 
0.0045674 -9.90369 0.0082594 
-0.0296447 0.0082594 -10.0863 
-9.89681 0.00215805 -0.0192394 
0.00215805 -9.89732 0.00747058 
-0.0192394 0.00747058 -10.0931 
-9.89027 0.00992373 -0.0234585 
0.00992373 -9.89218 0.0166915 
-0.0234585 0.0166915 -10.1048 
-9.89853 0.00117781 -0.023841 
0.00117781 -9.89226 0.0175012 
-0.023841 0.0175012 -10.0964 
-9.94098 -0.0099436 0.0383203 
-0.0099436 -9.93179 -0.0723607 
0.0383203 -0.0723607 -9.92969 
-9.92776 -0.0051918 0.0363555 
-0.0051918 -9.93635 -0.0663088 
0.0363555 -0.0663088 -9.93836 
-9.94252 -0.0127119 0.0300923 
-0.0127119 -9.93597 -0.071722 
0.0300923 -0.071722 -9.92397 
-9.94209 -0.00541844 0.0325467 
-0.00541844 -9.94428 -0.0764427 
0.0325467 -0.0764427 -9.9161 
-9.94185 0.000422776 -0.0559918 
0.000422776 -9.93456 -0.0476631 
-0.0559918 -0.0476631 -9.9547 
-9.94525 -0.00284913 -0.0560592 
-0.00284913 -9.94018 -0.0465127 
-0.0560592 -0.0465127 -9.94568 
-9.94174 -7.53573e-05 -0.054999 
-7.53573e-05 -9.93479 -0.0476844 
-0.054999 -0.0476844 -9.95458 
-9.93813 -0.00629236 -0.0594406 
-0.00629236 -9.93388 -0.0420333 
-0.0594406 -0.0420333 -9.9591 
-9.97043 0.00337334 -0.0114897 
0.00337334 -9.96511 0.0379287 
-0.0114897 0.0379287 -9.97317 
-9.9645 0.00249458 -0.0218654 
0.00249458 -9.97164 0.0347114 
-0.0218654 0.0347114 -9.97256 
-9.96389 0.00514684 -0.0207588 
0.00514684 -9.97361 0.0335802 
-0.0207588 0.0335802 -9.9712 
-9.97428 0.00607854 -0.0306786 
0.00607854 -9.97698 0.0279189 
-0.0306786 0.0279189 -9.95745 
-9.90441 -0.119148 0.00287915 
-0.119148 -9.84126 -0.0352027 
0.00287915 -0.0352027 -9.87864 
-9.87324 -0.10897 -0.000502762 
-0.10897 -9.86813 -0.0192347 
-0.000502762 -0.0192347 -9.88294 
-9.85649 -0.120415 -0.00816979 
-0.120415 -9.8981 -0.0433 
-0.00816979 -0.0433 -9.86972 
-9.88822 -0.0982388 0.0350737 
-0.0982388 -9.83959 -0.0304925 
0.0350737 -0.0304925 -9.8965 
-10.0119 -0.230221 -0.130018 
-0.230221 -9.59178 0.0423497 
-0.130018 0.0423497 -10.0024 
-10.078 -0.178417 0.00456898 
-0.178417 -9.7602 0.180776 
0.00456898 0.180776 -9.76796 
-9.88634 -0.300086 -0.121266 
-0.300086 -9.6303 0.220757 
-0.121266 0.220757 -10.0895 
-9.89741 0.0355338 -0.118926 
0.0355338 -10.0251 0.161187 
-0.118926 0.161187 -9.68361 
-9.93238 0.0195972 0.0854389 
0.0195972 -9.99535 0.0538406 
0.0854389 0.0538406 -10.0044 
-10.0191 0.0295608 0.110311 
0.0295608 -9.92603 -0.0390458 
0.110311 -0.0390458 -9.98701 
-9.82214 -0.0599453 -0.155111 
-0.0599453 -10.1035 -0.0032043 
-0.155111 -0.0032043 -10.0065 
-9.81724 -0.027386 0.0500396 
-0.027386 -9.97005 -0.0591357 
0.0500396 -0.0591357 -10.1448 
-9.89458 -0.00900271 -0.00174857 
-0.00900271 -9.81978 -0.0589665 
-0.00174857 -0.0589665 -10.0331 
-9.9189 0.00978661 0.0265575 
0.00978661 -9.86084 -0.0855273 
0.0265575 -0.0855273 -9.96768 
-9.90779 -0.00953869 0.0071436 
-0.00953869 -9.89397 -0.165983 
0.0071436 -0.165983 -9.94566 
-9.94662 0.022599 -0.0148254 
0.022599 -9.945 -0.092341 
-0.0148254 -0.092341 -9.8558 
-9.92424 0.183592 -0.115184 
0.183592 -9.82921 0.0667201 
-0.115184 0.0667201 -10.3344 
-9.8348 0.258739 -0.178457 
0.258739 -10.0508 0.00492197 
-0.178457 0.00492197 -10.2023 
-10.0314 0.204673 -0.0714474 
0.204673 -9.9063 0.0319423 
-0.0714474 0.0319423 -10.1502 
-9.87248 0.139799 -0.161942 
0.139799 -9.92474 -0.0334509 
-0.161942 -0.0334509 -10.2907 
-9.9335 -0.00547565 -0.0389173 
-0.00547565 -9.93753 -0.0493292 
-0.0389173 -0.0493292 -9.95964 
-9.92886 -0.00599882 -0.0461388 
-0.00599882 -9.94319 -0.0572695 
-0.0461388 -0.0572695 -9.95862 
-9.92442 0.00312915 -0.0588651 
0.00312915 -9.94054 -0.0540076 
-0.0588651 -0.0540076 -9.9657 
-9.93113 -0.00383028 -0.0580377 
-0.00383028 -9.9431 -0.0512953 
-0.0580377 -0.0512953 -9.95643 
-9.80876 0.0337622 -0.214893 
0.0337622 -9.45396 -1.29628 
-0.214893 -1.29628 -9.44185 
-9.81469 -1.10445 -0.497511 
-1.10445 -8.53616 0.106012 
-0.497511 0.106012 -10.3537 
-9.10942 -0.031945 -0.131073 
-0.031945 -10.9879 -0.977984 
-0.131073 -0.977984 -8.60721 
-9.8597 0.114507 0.408344 
0.114507 -9.99516 -1.00598 
0.408344 -1.00598 -8.84971 
-10.1102 0.0758142 0.49142 
0.0758142 -9.21483 -0.439756 
0.49142 -0.439756 -10.1545 
-9.96448 -0.466523 0.50289 
-0.466523 -9.70985 -0.513779 
0.50289 -0.513779 -9.80517 
-10.2627 0.187909 0.0525502 
0.187909 -9.58365 -0.577702 
0.0525502 -0.577702 -9.63317 
-10.2699 0.0861296 0.602184 
0.0861296 -9.44668 -0.611871 
0.602184 -0.611871 -9.76293 
-9.97262 -0.00687339 0.0230829 
-0.00687339 -9.96789 0.0307105 
0.0230829 0.0307105 -9.97396 
-9.96611 -0.00746952 0.0235162 
-0.00746952 -9.97944 0.029941 
0.0235162 0.029941 -9.96892 
-9.96955 -0.00726809 0.0249474 
-0.00726809 -9.97476 0.0264899 
0.0249474 0.0264899 -9.97016 
-9.97193 -0.00655939 0.032165 
-0.00655939 -9.96911 0.0280421 
0.032165 0.0280421 -9.97342 
-9.98151 0.000584596 -0.0121109 
0.000584596 -9.98105 -0.00912642 
-0.0121109 -0.00912642 -9.99751 
-9.98455 -0.00722092 -0.0125164 
-0.00722092 -9.98341 -0.00818486 
-0.0125164 -0.00818486 -9.99211 
-9.98501 -0.00302751 -0.0121725 
-0.00302751 -9.98384 -0.00626453 
-0.0121725 -0.00626453 -9.99121 
-9.98462 -0.00167568 -0.00875505 
-0.00167568 -9.98438 -0.010224 
-0.00875505 -0.010224 -9.99106 
-9.34947 -0.320032 0.894419 
-0.320032 -10.7726 -1.35124 
0.894419 -1.35124 -7.29009 
-9.83978 0.483836 0.197602 
0.483836 -9.62526 -0.916373 
0.197602 -0.916373 -7.94714 
-10.396 -0.410482 1.04444 
-0.410482 -10.2626 0.287083 
1.04444 0.287083 -6.75359 
-9.26375 -0.020362 -1.13362 
-0.020362 -9.20417 -0.733988 
-1.13362 -0.733988 -8.94426 
-9.90034 0.114928 0.00959688 
0.114928 -10.0196 0.108953 
0.00959688 0.108953 -9.76959 
-10.0098 -0.0532531 0.0754668 
-0.0532531 -10.0489 0.205721 
0.0754668 0.205721 -9.63077 
-10.0696 0.0215536 0.169685 
0.0215536 -9.95878 0.192431 
0.169685 0.192431 -9.66112 
-10.0806 -0.112121 0.0607479 
-0.112121 -10.0334 0.15965 
0.0607479 0.15965 -9.57544 
-10.3636 -0.0419849 -0.0217358 
-0.0419849 -10.3051 -0.0725021 
-0.0217358 -0.0725021 -10.0717 
-10.0446 -0.0278338 -0.00524154 
-0.0278338 -10.2765 0.0180692 
-0.00524154 0.0180692 -10.4193 
-10.0136 -0.0613304 0.0859594 
-0.0613304 -10.1732 0.0532119 
0.0859594 0.0532119 -10.5536 
-9.97726 0.0644833 -0.178033 
0.0644833 -10.2015 -0.143958 
-0.178033 -0.143958 -10.5616 
-9.98884 0.106403 -0.00840979 
0.106403 -9.85245 -0.0539816 
-0.00840979 -0.0539816 -9.83304 
-9.88327 -0.00583059 -0.0175821 
-0.00583059 -9.74632 -0.167154 
-0.0175821 -0.167154 -10.0447 
-9.73447 -0.0327275 0.021156 
-0.0327275 -9.94068 -0.0141495 
0.021156 -0.0141495 -9.99918 
-9.98802 0.00925298 -0.0922974 
0.00925298 -9.85495 -0.154261 
-0.0922974 -0.154261 -9.83137 
-10.1251 -0.0476064 -0.0563548 
-0.0476064 -10.1661 -0.0110983 
-0.0563548 -0.0110983 -10.2731 
-10.185 0.00652454 -0.0418467 
0.00652454 -10.179 0.0163428 
-0.0418467 0.0163428 -10.2003 
-10.2449 -0.0196914 0.0144416 
-0.0196914 -10.2502 0.0473777 
0.0144416 0.0473777 -10.0691 
-10.2007 -0.0282203 -0.0335762 
-0.0282203 -10.1514 0.0565505 
-0.0335762 0.0565505 -10.2122 
-9.88838 0.00228289 0.0623997 
0.00228289 -9.95941 -0.0147392 
0.0623997 -0.0147392 -9.96978 
-9.88978 -0.0513557 0.0848676 
-0.0513557 -9.91689 -0.0151523 
0.0848676 -0.0151523 -10.0109 
-9.81545 -0.128018 0.0465343 
-0.128018 -9.93054 0.00933474 
0.0465343 0.00933474 -10.0716 
-9.92143 -0.0535977 0.117656 
-0.0535977 -9.8711 -0.0408955 
0.117656 -0.0408955 -10.025 
-9.90706 0.0224591 -0.0209439 
0.0224591 -9.90221 0.0199654 
-0.0209439 0.0199654 -10.0613 
-9.88368 0.00782616 0.00112902 
0.00782616 -9.85985 0.0674969 
0.00112902 0.0674969 -10.127 
-9.89022 -0.000453977 -0.0159277 
-0.000453977 -9.90188 0.00454032 
-0.0159277 0.00454032 -10.0784 
-9.9277 0.0073298 0.00534083 
0.0073298 -9.90885 0.0339351 
0.00534083 0.0339351 -10.034 
-10.0973 0.176154 -0.054055 
0.176154 -9.85129 -0.206234 
-0.054055 -0.206234 -10.8247 
-10.386 0.310358 0.161298 
0.310358 -9.81435 0.105178 
0.161298 0.105178 -10.5729 
-10.0961 0.0543894 0.127212 
0.0543894 -10.3568 0.378764 
0.127212 0.378764 -10.3204 
-10.1863 0.169754 0.24315 
0.169754 -9.83686 0.21099 
0.24315 0.21099 -10.7501 
-9.82028 0.0646347 -0.0112624 
0.0646347 -9.97514 -0.173481 
-0.0112624 -0.173481 -9.90039 
-9.97302 -0.00549135 -0.0120815 
-0.00549135 -9.76313 0.0481775 
-0.0120815 0.0481775 -9.95967 
-9.9409 -0.030842 -0.00932603 
-0.030842 -9.77804 0.0408195 
-0.00932603 0.0408195 -9.97687 
-9.99587 -0.0338086 -0.00545619 
-0.0338086 -9.66654 -0.0303718 
-0.00545619 -0.0303718 -10.0334 
-9.97063 -0.0114345 0.0158947 
-0.0114345 -9.94539 -0.00941378 
0.0158947 -0.00941378 -9.96324 
-9.9517 -0.0107983 0.0125728 
-0.0107983 -9.92564 -0.0150067 
0.0125728 -0.0150067 -10.0019 
-9.93574 -0.0184291 0.0147952 
-0.0184291 -9.96603 -0.0243598 
0.0147952 -0.0243598 -9.97748 
-9.94871 -0.023833 0.0421431 
-0.023833 -9.95849 -0.0175214 
0.0421431 -0.0175214 -9.97206 
-9.97389 0.014299 -0.0241839 
0.014299 -9.96706 0.0299811 
-0.0241839 0.0299811 -9.95361 
-9.97292 0.0137463 -0.0330684 
0.0137463 -9.96412 0.0337528 
-0.0330684 0.0337528 -9.95751 
-9.97206 0.0126534 -0.033011 
0.0126534 -9.96501 0.0302619 
-0.033011 0.0302619 -9.95749 
-9.96935 0.00992799 -0.0396026 
0.00992799 -9.96176 0.0299958 
-0.0396026 0.0299958 -9.96346 
-10.0913 0.081302 0.0605626 
0.081302 -9.91321 0.0717431 
0.0605626 0.0717431 -10.2155 
-10.0097 -0.0777364 0.00421616 
-0.0777364 -10.0921 0.0247866 
0.00421616 0.0247866 -10.1182 
-9.98431 -0.012437 -0.00783538 
-0.012437 -10.0514 -0.0304833 
-0.00783538 -0.0304833 -10.1843 
-10.0612 0.0136012 -0.00368638 
0.0136012 -9.99949 -0.00574094 
-0.00368638 -0.00574094 -10.1593 
-9.91966 0.00172933 -0.100026 
0.00172933 -9.91456 0.00386922 
-0.100026 0.00386922 -9.894 
-9.92243 -0.00277806 -0.0940372 
-0.00277806 -9.91364 0.0210857 
-0.0940372 0.0210857 -9.89215 
-9.90219 0.00715288 -0.0869045 
0.00715288 -9.92349 0.00075019 
-0.0869045 0.00075019 -9.90254 
-9.88433 -0.0145565 -0.108211 
-0.0145565 -9.95706 0.0055754 
-0.108211 0.0055754 -9.88683 
-9.96168 0.0174533 0.0316295 
0.0174533 -9.87758 -0.113237 
0.0316295 -0.113237 -10.0077 
-9.90839 0.0166356 0.015951 
0.0166356 -9.92331 -0.00106389 
0.015951 -0.00106389 -10.0153 
-9.90751 0.0398415 0.0230603 
0.0398415 -9.86302 -0.0488906 
0.0230603 -0.0488906 -10.0765 
-9.90962 0.0381695 0.0261932 
0.0381695 -9.88758 -0.0591008 
0.0261932 -0.0591008 -10.0498 
-9.97019 -0.00623204 -0.018262 
-0.00623204 -9.96848 -0.0146459 
-0.018262 -0.0146459 -9.98029 
-9.97491 -0.0047607 -0.0119859 
-0.0047607 -9.97589 -0.00998568 
-0.0119859 -0.00998568 -9.96816 
-9.96927 -0.00354986 -0.0141402 
-0.00354986 -9.9717 -0.0109428 
-0.0141402 -0.0109428 -9.97799 
-9.97302 -0.00153424 -0.0137011 
-0.00153424 -9.96951 -0.0112461 
-0.0137011 -0.0112461 -9.97643 
-9.91649 0.0227626 -0.0149686 
0.0227626 -9.89287 -0.0259947 
-0.0149686 -0.0259947 -9.99543 
-9.8403 0.0443741 -0.0466719 
0.0443741 -9.81375 -0.0213227 
-0.0466719 -0.0213227 -10.1507 
-9.93167 -0.00381381 0.0173308 
-0.00381381 -9.89649 0.00435377 
0.0173308 0.00435377 -9.97663 
-9.94989 0.0304855 -0.0947593 
0.0304855 -9.94829 -0.0723392 
-0.0947593 -0.0723392 -9.90661 
-9.95614 -0.107529 0.080519 
-0.107529 -9.82596 -0.115527 
0.080519 -0.115527 -10.288 
-9.93948 -0.230277 -0.00840972 
-0.230277 -9.87 0.00643742 
-0.00840972 0.00643742 -10.2606 
-9.96472 0.111896 -0.0302558 
0.111896 -9.92865 -0.153315 
-0.0302558 -0.153315 -10.1767 
-10.0078 -0.261557 0.0831202 
-0.261557 -9.77207 -0.122942 
0.0831202 -0.122942 -10.2902 
-9.91513 0.00335206 -0.057965 
0.00335206 -9.91641 -0.0497555 
-0.057965 -0.0497555 -9.94487 
-9.92317 0.0028744 -0.0559522 
0.0028744 -9.91275 -0.0529379 
-0.0559522 -0.0529379 -9.9405 
-9.92697 -0.00210734 -0.0628997 
-0.00210734 -9.91765 -0.050113 
-0.0628997 -0.050113 -9.9318 
-9.93345 -0.0088642 -0.0356185 
-0.0088642 -9.91044 -0.0480979 
-0.0356185 -0.0480979 -9.93253 
-9.94709 -0.00295884 -0.0634521 
-0.00295884 -9.94258 -0.045819 
-0.0634521 -0.045819 -9.97733 
-9.96679 -0.00194456 -0.049789 
-0.00194456 -9.95809 -0.047813 
-0.049789 -0.047813 -9.94212 
-9.94767 -0.00270034 -0.0552784 
-0.00270034 -9.95349 -0.0407773 
-0.0552784 -0.0407773 -9.96584 
-9.9562 0.00718354 -0.0511074 
0.00718354 -9.95402 -0.0429929 
-0.0511074 -0.0429929 -9.95678 
-9.87672 0.00338986 -0.0788492 
0.00338986 -9.87624 0.130762 
-0.0788492 0.130762 -9.8848 
-9.8713 0.0248739 -0.0404801 
0.0248739 -9.87986 0.115536 
-0.0404801 0.115536 -9.8866 
-9.93629 0.0251345 -0.100637 
0.0251345 -9.83115 0.0461058 
-0.100637 0.0461058 -9.87032 
-9.90472 -0.0189548 -0.0631134 
-0.0189548 -9.83722 0.110073 
-0.0631134 0.110073 -9.89583 
-9.8349 -0.0496854 -0.0430588 
-0.0496854 -9.88425 0.0760751 
-0.0430588 0.0760751 -10.0892 
-9.95043 -0.0992332 0.0221595 
-0.0992332 -9.91075 0.148552 
0.0221595 0.148552 -9.94721 
-10.0227 -0.0907111 0.120857 
-0.0907111 -9.80263 0.159346 
0.120857 0.159346 -9.98305 
-9.9406 -0.171821 -0.119617 
-0.171821 -9.96358 0.200028 
-0.119617 0.200028 -9.90421 
-9.81273 -0.0672055 -0.223245 
-0.0672055 -9.49963 1.26435 
-0.223245 1.26435 -9.27972 
-9.62669 -0.164551 -0.184329 
-0.164551 -10.1891 0.786747 
-0.184329 0.786747 -8.77633 
-9.20231 -0.0188497 -0.411843 
-0.0188497 -9.37819 0.340707 
-0.411843 0.340707 -10.0116 
-9.52857 0.0676347 0.0847232 
0.0676347 -10.3054 0.738258 
0.0847232 0.738258 -8.75808 
-10.6052 -0.0374431 -0.0808535 
-0.0374431 -9.96095 0.31989 
-0.0808535 0.31989 -11.0468 
-11.1205 -0.337675 0.167716 
-0.337675 -10.8552 -0.0326028 
0.167716 -0.0326028 -9.63727 
-10.3 -0.126464 -0.253091 
-0.126464 -10.0127 0.116966 
-0.253091 0.116966 -11.3003 
-10.1214 -0.154413 0.875922 
-0.154413 -10.2177 0.53332 
0.875922 0.53332 -11.2738 
-9.77394 -0.262807 -0.152802 
-0.262807 -9.76959 -0.0971876 
-0.152802 -0.0971876 -9.16625 
-9.78204 -0.0899619 0.169898 
-0.0899619 -9.41973 0.13081 
0.169898 0.13081 -9.50802 
-9.63091 0.130704 -0.0375309 
0.130704 -9.21612 0.235069 
-0.0375309 0.235069 -9.86275 
-9.67719 -0.100847 0.057434 
-0.100847 -9.34516 0.522475 
0.057434 0.522475 -9.68743 
-9.72903 -0.101219 0.469512 
-0.101219 -10.0466 0.410301 
0.469512 0.410301 -10.1095 
-9.86921 -0.0687186 -0.112625 
-0.0687186 -9.73642 -0.357821 
-0.112625 -0.357821 -10.2795 
-9.6523 -0.0466154 -0.0218036 
-0.0466154 -10.1273 0.170854 
-0.0218036 0.170854 -10.1055 
-9.40635 -0.202791 0.516759 
-0.202791 -9.91202 -0.500323 
0.516759 -0.500323 -10.5667 
-9.95847 -0.0761222 -0.0681305 
-0.0761222 -9.94318 -0.00774114 
-0.0681305 -0.00774114 -9.90658 
-9.93282 -0.0313511 -0.00181516 
-0.0313511 -9.92933 -0.0763703 
-0.00181516 -0.0763703 -9.94608 
-9.91539 -0.060412 -0.00304766 
-0.060412 -9.95157 0.016484 
-0.00304766 0.016484 -9.94127 
-9.95683 -0.0292973 -0.0152271 
-0.0292973 -9.93544 0.0325439 
-0.0152271 0.0325439 -9.91596 
-9.97944 0.00457962 0.0601333 
0.00457962 -9.97731 -0.0393578 
0.0601333 -0.0393578 -9.99114 
-9.98053 -0.00251289 0.0582369 
-0.00251289 -9.981 -0.0375681 
0.0582369 -0.0375681 -9.98636 
-9.98354 0.00239586 0.0574098 
0.00239586 -9.98096 -0.0371636 
0.0574098 -0.0371636 -9.98339 
-9.98322 -0.000872905 0.0596065 
-0.000872905 -9.97799 -0.0413217 
0.0596065 -0.0413217 -9.98668 
-9.96717 0.00408526 0.0335406 
0.00408526 -9.97302 -0.03964 
0.0335406 -0.03964 -9.96915 
-9.97394 0.00650036 0.0333282 
0.00650036 -9.97477 -0.0412384 
0.0333282 -0.0412384 -9.96063 
-9.96613 0.00433216 0.0367557 
0.00433216 -9.97652 -0.0400442 
0.0367557 -0.0400442 -9.96669 
-9.96955 0.00213374 0.0313312 
0.00213374 -9.97283 -0.0434962 
0.0313312 -0.0434962 -9.96696 
-9.95393 -0.0341385 -0.0100056 
-0.0341385 -9.87652 -0.0979924 
-0.0100056 -0.0979924 -10.1142 
-9.97984 -0.023853 -0.0188338 
-0.023853 -9.84308 -0.0979718 
-0.0188338 -0.0979718 -10.1217 
-9.94202 -0.00289151 -0.0298182 
-0.00289151 -9.91401 -0.0649566 
-0.0298182 -0.0649566 -10.0886 
-9.93685 -0.0628589 -0.00781209 
-0.0628589 -9.89131 -0.102523 
-0.00781209 -0.102523 -10.1165 
-9.88437 -0.0496335 -0.0593029 
-0.0496335 -9.87733 0.00673842 
-0.0593029 0.00673842 -10.5217 
-10.1549 0.0378683 0.0270669 
0.0378683 -10.1101 0.0376504 
0.0270669 0.0376504 -10.0184 
-10.2494 -0.0312277 0.0094217 
-0.0312277 -10.1463 0.00491687 
0.0094217 0.00491687 -9.8877 
-10.2266 -0.0112226 -0.0947266 
-0.0112226 -10.0692 0.377541 
-0.0947266 0.377541 -9.98759 
-9.92005 0.0643565 -0.0537774 
0.0643565 -9.87732 -0.0568846 
-0.0537774 -0.0568846 -10.0221 
-9.87412 0.000742735 -0.0601126 
0.000742735 -9.98075 -0.0890876 
-0.0601126 -0.0890876 -9.9646 
-9.94573 -6.59691e-05 -0.0423213 
-6.59691e-05 -9.89692 -0.0303669 
-0.0423213 -0.0303669 -9.97682 
-9.87647 0.013381 -0.0428023 
0.013381 -9.93242 -0.0555116 
-0.0428023 -0.0555116 -10.0106 
-9.97217 0.00335379 0.0300499 
0.00335379 -9.97177 0.0205737 
0.0300499 0.0205737 -9.97531 
-9.97499 -0.00550706 0.0198718 
-0.00550706 -9.9763 0.0461108 
0.0198718 0.0461108 -9.96795 
-9.97427 -0.0146823 0.0262154 
-0.0146823 -9.96895 0.0225596 
0.0262154 0.0225596 -9.97603 
-9.97293 -0.00746912 0.0207478 
-0.00746912 -9.96892 0.0162352 
0.0207478 0.0162352 -9.9774 
-9.86038 0.104213 0.0377468 
0.104213 -10.2167 0.0540757 
0.0377468 0.0540757 -10.3036 
-9.99741 -0.17972 -0.0999042 
-0.17972 -9.98696 -0.12329 
-0.0999042 -0.12329 -10.3964 
-9.84113 0.0802048 -0.00120648 
0.0802048 -10.1464 0.0397005 
-0.00120648 0.0397005 -10.3933 
-10.1706 -0.0255158 0.198625 
-0.0255158 -9.89089 0.259914 
0.198625 0.259914 -10.3192 
-9.97145 0.0156489 0.0226058 
0.0156489 -9.96649 -0.0236992 
0.0226058 -0.0236992 -9.94735 
-9.95953 0.00139028 0.0268739 
0.00139028 -9.97146 -0.024168 
0.0268739 -0.024168 -9.9543 
-9.96485 0.0070245 0.0225445 
0.0070245 -9.96893 -0.0231483 
0.0225445 -0.0231483 -9.95151 
-9.96322 0.00536851 0.0199346 
0.00536851 -9.97715 -0.0350092 
0.0199346 -0.0350092 -9.94491 
-9.98549 -0.00540695 -0.0407631 
-0.00540695 -9.98315 0.0321361 
-0.0407631 0.0321361 -10.0012 
-9.99448 0.00353494 -0.038135 
0.00353494 -9.98486 0.029217 
-0.038135 0.029217 -9.99053 
-9.98684 0.00322306 -0.0413751 
0.00322306 -9.98707 0.028221 
-0.0413751 0.028221 -9.99596 
-9.99178 0.00348036 -0.0379631 
0.00348036 -9.99069 0.0289882 
-0.0379631 0.0289882 -9.9874 
-9.9418 0.0105638 -0.0241733 
0.0105638 -9.93615 -0.0809197 
-0.0241733 -0.0809197 -9.91517 
-9.94177 0.00302283 -0.0438801 
0.00302283 -9.94634 -0.0724839 
-0.0438801 -0.0724839 -9.905 
-9.94226 0.00268887 -0.0200737 
0.00268887 -9.94467 -0.0780436 
-0.0200737 -0.0780436 -9.90618 
-9.93072 0.00091098 -0.0230307 
0.00091098 -9.91602 -0.0737214 
-0.0230307 -0.0737214 -9.94638 
-9.96536 -0.0050542 -0.0856584 
-0.0050542 -9.94999 -0.0170034 
-0.0856584 -0.0170034 -9.93046 
-9.95552 -0.00897567 -0.0677036 
-0.00897567 -9.94503 0.013668 
-0.0677036 0.013668 -9.94526 
-9.94306 -0.00431418 -0.0826594 
-0.00431418 -9.95239 0.0260866 
-0.0826594 0.0260866 -9.95036 
-9.94279 -0.00470749 -0.0657112 
-0.00470749 -9.96262 -0.00511605 
-0.0657112 -0.00511605 -9.94039 
-9.80063 0.0112322 0.232742 
0.0112322 -9.93845 -0.0186863 
0.232742 -0.0186863 -10.2016 
-9.78919 -0.047668 0.227115 
-0.047668 -9.99286 -0.0501512 
0.227115 -0.0501512 -10.1586 
-9.88738 0.0110742 0.300488 
0.0110742 -10.0076 -0.0517745 
0.300488 -0.0517745 -10.0457 
-10.1289 0.0619812 -0.103835 
0.0619812 -9.70516 0.05853 
-0.103835 0.05853 -10.1066 
-10.4099 0.0592472 0.0322859 
0.0592472 -10.4033 0.0166689 
0.0322859 0.0166689 -10.1751 
-10.3083 0.0160848 0.0615893 
0.0160848 -10.4519 0.030113 
0.0615893 0.030113 -10.228 
-10.2709 0.00969247 -0.0534363 
0.00969247 -10.1289 -0.0348924 
-0.0534363 -0.0348924 -10.5884 
-10.2859 -0.118747 0.091901 
-0.118747 -10.427 -0.123493 
0.091901 -0.123493 -10.2754 
-9.96793 -0.00234553 -0.0857432 
-0.00234553 -9.95607 0.00338538 
-0.0857432 0.00338538 -9.94263 
-9.9534 0.00919669 -0.0294065 
0.00919669 -9.92036 0.0413026 
-0.0294065 0.0413026 -9.99286 
-9.93103 0.0141749 -0.117399 
0.0141749 -9.93454 0.00416859 
-0.117399 0.00416859 -10.0011 
-9.94214 0.00500294 -0.0912267 
0.00500294 -9.94871 0.0143953 
-0.0912267 0.0143953 -9.97578 
-9.8794 -0.00779998 -0.0653285 
-0.00779998 -9.90402 -0.0519115 
-0.0653285 -0.0519115 -9.95038 
-9.86571 0.003618 -0.0782141 
0.003618 -9.87632 -0.0341905 
-0.0782141 -0.0341905 -9.99177 
-9.87484 -0.01002 -0.0741988 
-0.01002 -9.87051 -0.0830186 
-0.0741988 -0.0830186 -9.98845 
-9.87329 -0.0150033 -0.063534 
-0.0150033 -9.8773 -0.0654485 
-0.063534 -0.0654485 -9.9832 
-9.95332 -0.00745477 -0.0062212 
-0.00745477 -9.97776 0.00830871 
-0.0062212 0.00830871 -9.98745 
-9.9553 -0.0244542 0.0113289 
-0.0244542 -9.96592 0.00334368 
0.0113289 0.00334368 -9.99731 
-9.96965 -0.0334351 0.0278279 
-0.0334351 -9.96108 -0.0268309 
0.0278279 -0.0268309 -9.9878 
-9.95312 -0.0191537 0.00129944 
-0.0191537 -9.95759 0.00790018 
0.00129944 0.00790018 -10.0078 
-9.98897 0.14564 0.279372 
0.14564 -9.7243 -0.0903443 
0.279372 -0.0903443 -9.69203 
-9.5413 0.0375788 0.196246 
0.0375788 -9.85483 -0.0287115 
0.196246 -0.0287115 -10.0092 
-9.4666 0.0374603 0.380239 
0.0374603 -9.95734 -0.0584793 
0.380239 -0.0584793 -9.98136 
-9.50236 0.00481007 0.169809 
0.00481007 -9.89244 -0.0323097 
0.169809 -0.0323097 -10.0105 
-9.85881 0.00749349 0.0216647 
0.00749349 -9.84168 -0.158897 
0.0216647 -0.158897 -9.73962 
-9.87549 0.000373424 0.00582605 
0.000373424 -9.82549 -0.1853 
0.00582605 -0.1853 -9.73913 
-9.85127 -0.0126315 0.00219088 
-0.0126315 -9.84459 -0.194712 
0.00219088 -0.194712 -9.74425 
-9.91073 0.0108675 0.00368495 
0.0108675 -9.73606 -0.192057 
0.00368495 -0.192057 -9.79332 
-9.97553 -0.00713341 0.0163938 
-0.00713341 -9.9826 -0.00563552 
0.0163938 -0.00563552 -9.99132 
-9.97814 0.000345235 0.0187921 
0.000345235 -9.98517 0.00887589 
0.0187921 0.00887589 -9.98614 
-9.98509 -0.00162713 0.015344 
-0.00162713 -9.98199 -0.00491554 
0.015344 -0.00491554 -9.98237 
-9.98767 -0.000617553 0.0136688 
-0.000617553 -9.98093 0.00841131 
0.0136688 0.00841131 -9.98084 
-9.98083 0.00259768 0.0450281 
0.00259768 -9.98318 0.046909 
0.0450281 0.046909 -9.98862 
-9.98189 -0.00269716 0.0516085 
-0.00269716 -9.98134 0.0503566 
0.0516085 0.0503566 -9.9894 
-9.97891 -0.00247492 0.0468063 
-0.00247492 -9.98036 0.0454829 
0.0468063 0.0454829 -9.99337 
-9.98404 -0.000564733 0.0515096 
-0.000564733 -9.98487 0.0517735 
0.0515096 0.0517735 -9.98373 
-9.87615 -0.0226358 0.0188247 
-0.0226358 -9.84469 -0.0920491 
0.0188247 -0.0920491 -9.89981 
-9.89815 -0.0198177 0.0245092 
-0.0198177 -9.83371 -0.105324 
0.0245092 -0.105324 -9.8888 
-9.90089 -0.021735 0.0309472 
-0.021735 -9.86926 -0.0882867 
0.0309472 -0.0882867 -9.85051 
-9.86793 -0.00580455 0.0261152 
-0.00580455 -9.84554 -0.102974 
0.0261152 -0.102974 -9.90719 
-9.9788 0.00344402 0.0258444 
0.00344402 -9.987 0.0226652 
0.0258444 0.0226652 -9.98778 
-9.98227 -0.00269284 0.01483 
-0.00269284 -9.98176 0.0301468 
0.01483 0.0301468 -9.98956 
-9.97953 -0.00258273 0.0260605 
-0.00258273 -9.98817 0.0278051 
0.0260605 0.0278051 -9.98588 
-9.97981 -0.0057056 0.014961 
-0.0057056 -9.9895 0.027609 
0.014961 0.027609 -9.98428 
-9.98021 0.0250206 0.227209 
0.0250206 -9.9298 -0.0670235 
0.227209 -0.0670235 -9.45405 
-9.94144 -0.121441 0.182817 
-0.121441 -9.80715 0.108372 
0.182817 0.108372 -9.61547 
-9.80003 -0.0454837 0.152977 
-0.0454837 -9.83099 0.147401 
0.152977 0.147401 -9.73304 
-9.837 -0.0421486 0.578355 
-0.0421486 -9.82084 -0.0880427 
0.578355 -0.0880427 -9.70622 
-9.94324 0.0944296 0.102605 
0.0944296 -10.0753 0.147074 
0.102605 0.147074 -9.48919 
-10.1087 0.0962753 0.0296763 
0.0962753 -9.90117 0.379541 
0.0296763 0.379541 -9.49781 
-9.91804 0.16129 0.0609624 
0.16129 -10.0027 0.126905 
0.0609624 0.126905 -9.587 
-9.86008 0.0646758 -0.0430147 
0.0646758 -9.88764 0.0883587 
-0.0430147 0.0883587 -9.76 
-9.81597 -0.0604291 0.0791576 
-0.0604291 -10.2835 0.0542175 
0.0791576 0.0542175 -10.3628 
-10.1858 -0.0561826 0.0556818 
-0.0561826 -10.006 -0.143223 
0.0556818 -0.143223 -10.2705 
-10.0053 0.0119585 0.121754 
0.0119585 -10.2172 0.0276079 
0.121754 0.0276079 -10.2398 
-10.0187 0.0633575 -0.0484208 
0.0633575 -10.1762 0.0968087 
-0.0484208 0.0968087 -10.2674 
-9.75409 0.162209 0.135381 
0.162209 -10.0856 0.0634897 
0.135381 0.0634897 -9.81019 
-9.70098 0.111327 -0.0132769 
0.111327 -9.84155 0.0296882 
-0.0132769 0.0296882 -10.1074 
-9.7423 0.138073 0.00772429 
0.138073 -9.91561 0.0221643 
0.00772429 0.0221643 -9.99199 
-9.6917 0.0946403 0.00764064 
0.0946403 -9.99481 0.0544064 
0.00764064 0.0544064 -9.96339 
-9.91539 0.0188002 0.0124697 
0.0188002 -9.92859 0.0635622 
0.0124697 0.0635622 -9.69154 
-9.89099 0.0466221 0.0140779 
0.0466221 -9.97295 0.0985217 
0.0140779 0.0985217 -9.67159 
-9.92606 0.0511263 0.0667395 
0.0511263 -9.97734 0.110856 
0.0667395 0.110856 -9.63213 
-9.79791 -0.0133409 0.0893215 
-0.0133409 -9.89811 0.0452483 
0.0893215 0.0452483 -9.83951 
-9.89945 -0.0156357 0.0223604 
-0.0156357 -9.87484 -0.0211906 
0.0223604 -0.0211906 -9.97659 
-9.89267 0.0141066 0.0575268 
0.0141066 -9.92249 -0.0702907 
0.0575268 -0.0702907 -9.93573 
-9.92207 -0.0892833 0.0610328 
-0.0892833 -9.81153 -0.0796469 
0.0610328 -0.0796469 -10.0173 
-9.89158 -0.0202096 0.0725771 
-0.0202096 -9.91089 -0.0447836 
0.0725771 -0.0447836 -9.94841 
-9.97803 0.000494195 0.0363987 
0.000494195 -9.98154 -0.00151414 
0.0363987 -0.00151414 -9.97552 
-9.97667 0.000274597 0.0381632 
0.000274597 -9.99038 -0.00356542 
0.0381632 -0.00356542 -9.96805 
-9.98156 0.000476678 0.0337649 
0.000476678 -9.97772 -0.00408039 
0.0337649 -0.00408039 -9.97581 
-9.98407 0.00209455 0.0350779 
0.00209455 -9.97764 4.17105e-05 
0.0350779 4.17105e-05 -9.97339 
-9.89634 -0.0311178 0.0443358 
-0.0311178 -9.91842 0.0765178 
0.0443358 0.0765178 -9.99139 
-9.8785 -0.114974 0.0919536 
-0.114974 -9.94114 -0.0043976 
0.0919536 -0.0043976 -9.98652 
-9.87847 -0.00231736 0.0763274 
-0.00231736 -9.91067 0.0553191 
0.0763274 0.0553191 -10.017 
-9.94434 -0.0133779 0.0187491 
-0.0133779 -9.90165 0.0560202 
0.0187491 0.0560202 -9.96016 
-10.0581 0.00259757 -0.0141255 
0.00259757 -10.0486 -0.0300298 
-0.0141255 -0.0300298 -10.2392 
-10.1449 -0.0186281 0.0135782 
-0.0186281 -9.99631 -0.0580744 
0.0135782 -0.0580744 -10.2047 
-10.051 0.00576923 -0.046295 
0.00576923 -10.032 -0.0217967 
-0.046295 -0.0217967 -10.2629 
-10.0302 -0.0536074 -0.0234384 
-0.0536074 -10.03 -0.0290448 
-0.0234384 -0.0290448 -10.2857 
-9.96529 0.00360557 -0.0124061 
0.00360557 -9.96702 -0.0792186 
-0.0124061 -0.0792186 -9.89259 
-9.94726 0.01069 -0.0166458 
0.01069 -9.93803 -0.0661025 
-0.0166458 -0.0661025 -9.9396 
-9.92795 -0.00175409 -0.0241448 
-0.00175409 -9.92863 -0.0882753 
-0.0241448 -0.0882753 -9.9683 
-9.95003 0.00614414 -0.0282409 
0.00614414 -9.93656 -0.0613836 
-0.0282409 -0.0613836 -9.9383 
-10.8561 0.53166 0.06198 
0.53166 -11.8291 0.182566 
0.06198 0.182566 -9.3423 
-10.7856 -0.447969 -0.0172721 
-0.447969 -9.89681 -0.322979 
-0.0172721 -0.322979 -11.3451 
-8.78956 -0.598826 -0.691893 
-0.598826 -11.0265 -0.238381 
-0.691893 -0.238381 -12.2115 
-9.77925 0.225468 -0.585256 
0.225468 -9.95147 1.42338 
-0.585256 1.42338 -12.2968 
-9.97262 -0.868876 0.459983 
-0.868876 -8.2715 0.301688 
0.459983 0.301688 -13.6328 
-10.8866 -0.876238 0.206645 
-0.876238 -10.9388 -0.298639 
0.206645 -0.298639 -10.0516 
-10.49 0.685701 0.2699 
0.685701 -9.69524 0.135767 
0.2699 0.135767 -11.6917 
-10.5823 -0.569053 -1.01149 
-0.569053 -9.40974 -0.386037 
-1.01149 -0.386037 -11.8849 
-9.30475 0.352935 -0.27558 
0.352935 -10.8213 0.868201 
-0.27558 0.868201 -7.09426 
-10.174 0.355233 0.365159 
0.355233 -10.1153 -0.668108 
0.365159 -0.668108 -6.93101 
-8.90644 -0.0436379 -0.0723865 
-0.0436379 -9.29659 0.819469 
-0.0723865 0.819469 -9.01726 
-9.32213 0.33373 -0.825469 
0.33373 -9.59266 0.463927 
-0.825469 0.463927 -8.30549 
-9.91129 0.0062526 -0.0458079 
0.0062526 -9.91457 0.0489603 
-0.0458079 0.0489603 -9.95595 
-9.90973 0.00669329 -0.0496141 
0.00669329 -9.9095 0.0489613 
-0.0496141 0.0489613 -9.96258 
-9.91264 0.000961134 -0.045021 
0.000961134 -9.9102 0.0532241 
-0.045021 0.0532241 -9.95897 
-9.92285 0.0154031 -0.0607733 
0.0154031 -9.91305 0.0516523 
-0.0607733 0.0516523 -9.94591 
-9.98183 0.000100245 0.0657477 
0.000100245 -9.9802 0.0282547 
0.0657477 0.0282547 -9.98721 
-9.98122 -0.000216914 0.0611282 
-0.000216914 -9.97821 0.0264646 
0.0611282 0.0264646 -9.98983 
-9.97936 0.000700318 0.0611552 
0.000700318 -9.98409 0.0300489 
0.0611552 0.0300489 -9.9858 
-9.98408 -0.0026007 0.0671809 
-0.0026007 -9.98424 0.0313747 
0.0671809 0.0313747 -9.98093 
-9.96391 0.17701 -0.0418309 
0.17701 -10.124 0.0489716 
-0.0418309 0.0489716 -10.1442 
-9.77045 -0.301838 -0.101261 
-0.301838 -10.5653 -0.350758 
-0.101261 -0.350758 -9.89647 
-9.46331 -0.282103 0.0431185 
-0.282103 -10.2617 -0.00312297 
0.0431185 -0.00312297 -10.5072 
-9.82085 0.26883 0.030001 
0.26883 -10.1498 -0.197779 
0.030001 -0.197779 -10.2616 
-9.80881 -0.00981308 0.0761255 
-0.00981308 -9.30156 0.0695739 
0.0761255 0.0695739 -9.16983 
-9.78549 -0.0323948 0.26993 
-0.0323948 -9.54641 -0.0379766 
0.26993 -0.0379766 -8.9483 
-9.7172 -0.0425502 0.200434 
-0.0425502 -9.52586 -0.0268142 
0.200434 -0.0268142 -9.03714 
-9.81157 -0.0597232 0.172653 
-0.0597232 -9.64956 0.0227299 
0.172653 0.0227299 -8.81907 
-9.90836 -0.336091 -0.0484424 
-0.336091 -11.0974 -0.117885 
-0.0484424 -0.117885 -10.2965 
-10.318 0.278736 0.150734 
0.278736 -9.97762 0.240681 
0.150734 0.240681 -11.0067 
-10.5905 0.398534 -0.332061 
0.398534 -9.55011 -0.369966 
-0.332061 -0.369966 -11.1616 
-10.4675 0.14598 0.0445518 
0.14598 -9.9348 -0.0115176 
0.0445518 -0.0115176 -10.9 
-9.98487 -0.0407998 -0.0210978 
-0.0407998 -10.1012 -0.029446 
-0.0210978 -0.029446 -10.1766 
-10.1222 -0.0247027 0.0397205 
-0.0247027 -10.1206 0.0123847 
0.0397205 0.0123847 -10.0197 
-10.1752 -0.0737665 0.0517189 
-0.0737665 -10.0461 0.00560235 
0.0517189 0.00560235 -10.0412 
-10.0693 0.0245722 0.0480389 
0.0245722 -10.0749 -0.000152164 
0.0480389 -0.000152164 -10.1183 
-9.97211 0.453675 0.420174 
0.453675 -9.89215 0.0634182 
0.420174 0.0634182 -10.691 
-9.55066 0.129842 0.128317 
0.129842 -10.1122 -0.207185 
0.128317 -0.207185 -10.8925 
-9.86381 0.681199 0.481188 
0.681199 -9.42993 0.343357 
0.481188 0.343357 -11.2616 
-9.58293 -0.351838 0.288847 
-0.351838 -10.7956 0.345137 
0.288847 0.345137 -10.1768 
-9.85288 0.0398602 -0.0634057 
0.0398602 -9.76468 -0.0959734 
-0.0634057 -0.0959734 -9.94146 
-9.86344 0.0592577 -0.0220271 
0.0592577 -9.74345 -0.102366 
-0.0220271 -0.102366 -9.95214 
-9.83321 0.0356163 -0.0538148 
0.0356163 -9.80057 -0.0987217 
-0.0538148 -0.0987217 -9.92525 
-9.84641 0.0400882 -0.0693625 
0.0400882 -9.77574 -0.0908551 
-0.0693625 -0.0908551 -9.93687 
-9.97702 0.00548568 0.0399194 
0.00548568 -9.97353 -0.036935 
0.0399194 -0.036935 -9.98264 
-9.97602 0.00240198 0.0394746 
0.00240198 -9.97823 -0.0350312 
0.0394746 -0.0350312 -9.97894 
-9.98082 0.00513312 0.0392866 
0.00513312 -9.97775 -0.0340838 
0.0392866 -0.0340838 -9.97463 
-9.97517 0.00290321 0.0359451 
0.00290321 -9.9808 -0.0328925 
0.0359451 -0.0328925 -9.97723 
-9.82406 -0.313902 -0.134177 
-0.313902 -9.87252 0.117702 
-0.134177 0.117702 -10.1827 
-9.79118 -0.286513 -0.22227 
-0.286513 -9.86403 0.158244 
-0.22227 0.158244 -10.2241 
-9.79835 -0.298481 -0.181609 
-0.298481 -9.89897 0.164293 
-0.181609 0.164293 -10.182 
-10.0347 0.48116 -0.494927 
0.48116 -10.0446 0.263016 
-0.494927 0.263016 -9.79997 
-9.90601 0.00710024 -0.00481868 
0.00710024 -9.83125 -0.114962 
-0.00481868 -0.114962 -9.91503 
-9.77773 0.0791024 -0.0961234 
0.0791024 -9.97064 0.062455 
-0.0961234 0.062455 -9.90391 
-9.82121 0.0967567 -0.13913 
0.0967567 -9.89451 -0.15391 
-0.13913 -0.15391 -9.93657 
-9.8758 -0.0172814 -0.241385 
-0.0172814 -9.91197 0.0317723 
-0.241385 0.0317723 -9.86453 
-9.9086 0.0386622 -0.0874281 
0.0386622 -9.78975 0.181724 
-0.0874281 0.181724 -9.91928 
-9.96754 0.0627506 -0.0780787 
0.0627506 -9.83501 0.110761 
-0.0780787 0.110761 -9.81509 
-10.0149 -0.132427 -0.205605 
-0.132427 -9.71034 0.314373 
-0.205605 0.314373 -9.89242 
-9.80259 0.00188058 -0.128867 
0.00188058 -9.93328 -0.0245595 
-0.128867 -0.0245595 -9.88175 
-9.79109 0.230716 -0.54642 
0.230716 -10.2935 -0.189824 
-0.54642 -0.189824 -9.71407 
-9.94873 0.650651 -0.444996 
0.650651 -10.1141 -0.191887 
-0.444996 -0.191887 -9.73582 
-9.16156 0.242082 -0.978175 
0.242082 -10.3613 -0.129737 
-0.978175 -0.129737 -10.2758 
-9.58935 -0.151242 0.318544 
-0.151242 -9.69562 0.334358 
0.318544 0.334358 -10.5137 
-9.92889 0.0150583 0.010711 
0.0150583 -9.89023 -0.155374 
0.010711 -0.155374 -10.0048 
-9.96258 0.0500272 0.0574276 
0.0500272 -9.7224 -0.0987298 
0.0574276 -0.0987298 -10.1389 
-9.98482 -0.0155706 0.0952362 
-0.0155706 -9.65897 -0.0812192 
0.0952362 -0.0812192 -10.1801 
-9.99762 0.129059 0.0561162 
0.129059 -9.84741 -0.197837 
0.0561162 -0.197837 -9.97886 
-9.95445 -0.0135952 0.00905076 
-0.0135952 -9.96257 0.00235081 
0.00905076 0.00235081 -9.97128 
-9.95819 -0.0147403 0.0108154 
-0.0147403 -9.96387 0.00338226 
0.0108154 0.00338226 -9.96625 
-9.96244 -0.0130638 0.00230018 
-0.0130638 -9.95641 0.00125575 
0.00230018 0.00125575 -9.96945 
-9.95118 -0.00261464 0.0114863 
-0.00261464 -9.95005 0.0122638 
0.0114863 0.0122638 -9.98708 
-10.1842 0.14023 0.0301239 
0.14023 -9.77341 0.037965 
0.0301239 0.037965 -10.1693 
-10.1383 0.0945723 -0.132938 
0.0945723 -9.68399 -0.0618785 
-0.132938 -0.0618785 -10.3046 
-9.80379 -0.0530527 0.0151699 
-0.0530527 -9.95655 0.0584738 
0.0151699 0.0584738 -10.3665 
-9.73748 -0.112116 -0.208422 
-0.112116 -10.3911 -0.374888 
-0.208422 -0.374888 -9.99823 
-9.92434 0.0224057 0.0178381 
0.0224057 -9.93504 -0.00757583 
0.0178381 -0.00757583 -9.97697 
-9.9319 0.0165336 0.013849 
0.0165336 -9.91624 -0.0155222 
0.013849 -0.0155222 -9.9882 
-9.92843 0.0165878 0.0120228 
0.0165878 -9.91651 -0.0125875 
0.0120228 -0.0125875 -9.9914 
-9.9267 0.0207906 0.0193996 
0.0207906 -9.92108 -0.0119072 
0.0193996 -0.0119072 -9.98857 
-9.88177 -0.000456804 -0.0141607 
-0.000456804 -9.88735 -0.0415895 
-0.0141607 -0.0415895 -9.98018 
-9.89002 0.0485337 -0.0142753 
0.0485337 -9.90444 -0.0159961 
-0.0142753 -0.0159961 -9.95484 
-9.89574 0.00909985 -0.0511678 
0.00909985 -9.95556 -0.0510982 
-0.0511678 -0.0510982 -9.898 
-9.85442 0.00887671 -0.043653 
0.00887671 -9.89662 -0.0550633 
-0.043653 -0.0550633 -9.99826 
-9.92258 -0.0226478 -0.0652699 
-0.0226478 -9.97479 0.0412173 
-0.0652699 0.0412173 -9.66488 
-9.87035 -0.0439759 -0.0669328 
-0.0439759 -9.91506 0.0184503 
-0.0669328 0.0184503 -9.77684 
-9.87101 -0.0245049 -0.0418272 
-0.0245049 -9.89476 0.0371753 
-0.0418272 0.0371753 -9.79649 
-9.83053 0.00284675 0.0166239 
0.00284675 -9.93252 -0.0380952 
0.0166239 -0.0380952 -9.79921 
-10.1553 -0.0427096 0.00137482 
-0.0427096 -10.0945 0.0149621 
0.00137482 0.0149621 -10.1563 
-10.1134 -0.00793011 0.0478541 
-0.00793011 -10.1252 -0.00223198 
0.0478541 -0.00223198 -10.1676 
-10.052 0.0464212 -0.00172487 
0.0464212 -10.1473 0.0232752 
-0.00172487 0.0232752 -10.2068 
-10.1205 0.000418204 0.0463487 
0.000418204 -10.1082 0.000906539 
0.0463487 0.000906539 -10.1774 
-9.71085 0.0297027 -0.174767 
0.0297027 -9.86426 -0.0715392 
-0.174767 -0.0715392 -9.89682 
-9.79553 -0.0869944 -0.209011 
-0.0869944 -9.85429 -0.064213 
-0.209011 -0.064213 -9.8221 
-9.71434 0.059557 -0.113598 
0.059557 -9.8795 -0.00038374 
-0.113598 -0.00038374 -9.87809 
-9.62606 0.181318 -0.256537 
0.181318 -9.89085 -0.107799 
-0.256537 -0.107799 -9.95502 
-9.89035 0.0107408 -0.0627334 
0.0107408 -9.92749 0.0596077 
-0.0627334 0.0596077 -9.92833 
-9.89508 -0.00245323 -0.0618206 
-0.00245323 -9.92315 0.0550178 
-0.0618206 0.0550178 -9.92793 
-9.88917 -0.011514 -0.0522126 
-0.011514 -9.91877 0.064292 
-0.0522126 0.064292 -9.93822 
-9.90532 -0.00939194 -0.0532758 
-0.00939194 -9.89475 0.047733 
-0.0532758 0.047733 -9.9461 
-9.90046 0.0105439 -0.117485 
0.0105439 -9.86876 -0.0403116 
-0.117485 -0.0403116 -9.95932 
-9.88686 0.0298746 -0.00482174 
0.0298746 -9.9418 0.018371 
-0.00482174 0.018371 -9.89989 
-9.94765 0.00407159 -0.0779157 
0.00407159 -9.91991 -0.0161112 
-0.0779157 -0.0161112 -9.86098 
-9.94278 0.0120628 -0.0785796 
0.0120628 -9.90527 -0.0016358 
-0.0785796 -0.0016358 -9.88049 
-9.96862 0.00735966 0.0436423 
0.00735966 -9.95589 0.0619065 
0.0436423 0.0619065 -9.96944 
-9.96136 0.00462649 0.0415672 
0.00462649 -9.96302 0.0617355 
0.0415672 0.0617355 -9.96957 
-9.95885 -0.0126512 0.0440192 
-0.0126512 -9.98182 0.0576529 
0.0440192 0.0576529 -9.95328 
-9.96542 0.00864322 0.0365628 
0.00864322 -9.95934 0.040367 
0.0365628 0.040367 -9.96919 
-10.943 -1.63066 1.43843 
-1.63066 -7.75735 -1.16156 
1.43843 -1.16156 -4.5247 
-9.68058 -0.364637 0.956093 
-0.364637 -8.29357 1.45444 
0.956093 1.45444 -5.25089 
-10.9282 -0.215605 -0.480565 
-0.215605 -7.24284 1.0402 
-0.480565 1.0402 -5.05403 
-9.64255 -1.56724 0.992672 
-1.56724 -7.85179 -1.14473 
0.992672 -1.14473 -5.7307 
-9.90578 0.0114686 -0.038796 
0.0114686 -9.90563 -0.0523801 
-0.038796 -0.0523801 -9.96726 
-9.89218 0.0280775 -0.0270891 
0.0280775 -9.88689 -0.0607054 
-0.0270891 -0.0607054 -9.99961 
-9.91895 0.0204547 -0.0522789 
0.0204547 -9.89847 -0.0473751 
-0.0522789 -0.0473751 -9.96126 
-9.92229 0.0260045 -0.0976081 
0.0260045 -9.93856 -0.0766821 
-0.0976081 -0.0766821 -9.91783 
-9.92164 0.00494046 -0.162704 
0.00494046 -9.99274 0.0595317 
-0.162704 0.0595317 -9.96411 
-9.93798 0.108455 -0.0752699 
0.108455 -10.0288 0.047775 
-0.0752699 0.047775 -9.9117 
-9.95523 0.0360952 -0.071562 
0.0360952 -9.95096 0.0391636 
-0.071562 0.0391636 -9.9723 
-9.97291 0.00781399 -0.0951392 
0.00781399 -10.053 0.0317595 
-0.0951392 0.0317595 -9.85259 
-10.4638 -0.0937433 -0.185604 
-0.0937433 -10.6833 -0.189005 
-0.185604 -0.189005 -9.92183 
-10.1714 -0.119571 -0.173301 
-0.119571 -10.2705 0.0871888 
-0.173301 0.0871888 -10.627 
-10.1153 -0.0775706 -0.0794974 
-0.0775706 -10.3038 0.0829319 
-0.0794974 0.0829319 -10.6499 
-10.2085 0.0687855 -0.235658 
0.0687855 -10.1964 -0.147175 
-0.235658 -0.147175 -10.6639 
-9.97934 0.0414416 -0.0699235 
0.0414416 -10.0093 -0.0677557 
-0.0699235 -0.0677557 -9.982 
-9.92486 0.0237904 0.0246676 
0.0237904 -9.99017 0.0325614 
0.0246676 0.0325614 -10.0556 
-9.93569 0.0595711 -0.00137896 
0.0595711 -9.95907 -0.0122809 
-0.00137896 -0.0122809 -10.0759 
-9.9332 0.0430335 0.00130653 
0.0430335 -9.98346 -0.00670303 
0.00130653 -0.00670303 -10.054 
-8.4678 0.116329 2.70707 
0.116329 -9.04891 1.51351 
2.70707 1.51351 -8.97328 
-8.59458 1.28074 3.26646 
1.28074 -9.30333 1.7491 
3.26646 1.7491 -8.59208 
-10.5528 -0.92219 1.51021 
-0.92219 -9.16138 1.01979 
1.51021 1.01979 -6.77585 
-6.37328 2.4278 -1.37752 
2.4278 -11.284 -0.979047 
-1.37752 -0.979047 -8.8327 
-9.87559 0.0306745 -0.109351 
0.0306745 -9.85332 -0.0561885 
-0.109351 -0.0561885 -9.94451 
-9.87991 0.013281 -0.0859257 
0.013281 -9.90771 0.000967931 
-0.0859257 0.000967931 -9.8858 
-9.86522 0.0511306 -0.077641 
0.0511306 -9.89746 -0.0163747 
-0.077641 -0.0163747 -9.91075 
-9.89029 0.0663523 -0.112155 
0.0663523 -9.85666 -0.0135506 
-0.112155 -0.0135506 -9.92647 
-9.81352 -0.0782419 0.0315116 
-0.0782419 -9.81685 -0.0409416 
0.0315116 -0.0409416 -9.88398 
-9.82155 -0.0906708 0.0549966 
-0.0906708 -9.81758 -0.0754255 
0.0549966 -0.0754255 -9.87523 
-9.82323 -0.0708595 0.0612414 
-0.0708595 -9.83417 -0.0310353 
0.0612414 -0.0310353 -9.85696 
-9.82388 -0.0889481 0.0317594 
-0.0889481 -9.81283 -0.0356803 
0.0317594 -0.0356803 -9.87765 
-9.933 0.00520347 -0.001823 
0.00520347 -9.92381 -0.0914455 
-0.001823 -0.0914455 -9.91801 
-9.92324 0.00271481 0.0183902 
0.00271481 -9.91948 -0.0691488 
0.0183902 -0.0691488 -9.93211 
-9.93219 0.00342569 0.0025511 
0.00342569 -9.93418 -0.0801802 
0.0025511 -0.0801802 -9.90846 
-9.94117 -0.00889192 0.0162683 
-0.00889192 -9.95629 -0.0888616 
0.0162683 -0.0888616 -9.87736 
-9.93959 0.0204644 0.0349947 
0.0204644 -9.90537 -0.00206549 
0.0349947 -0.00206549 -9.92095 
-9.90962 0.0205569 0.0440714 
0.0205569 -9.92216 -0.0342486 
0.0440714 -0.0342486 -9.93412 
-9.93509 0.0376209 0.0403761 
0.0376209 -9.92679 -0.0452227 
0.0403761 -0.0452227 -9.90403 
-9.93866 0.056098 0.0557872 
0.056098 -9.94309 -0.0531828 
0.0557872 -0.0531828 -9.88416 
-9.96309 0.015273 -0.0997955 
0.015273 -9.90147 0.198869 
-0.0997955 0.198869 -9.9388 
-9.88551 -0.134265 -0.0908188 
-0.134265 -9.89519 0.118423 
-0.0908188 0.118423 -10.0227 
-9.9532 0.0798118 -0.0195007 
0.0798118 -9.85463 0.0492705 
-0.0195007 0.0492705 -9.99553 
-9.94788 -0.0348079 -0.0917496 
-0.0348079 -9.86658 0.0392583 
-0.0917496 0.0392583 -9.9889 
-9.59982 1.3588 -2.42891 
1.3588 -13.384 0.915995 
-2.42891 0.915995 -6.13566 
-7.94883 0.93836 0.424408 
0.93836 -9.52982 -0.230548 
0.424408 -0.230548 -11.6408 
-1.4947 4.10252 0.893124 
4.10252 -9.33023 -1.12669 
0.893124 -1.12669 -18.2945 
-10.8407 0.796116 2.86788 
0.796116 -8.15677 0.954022 
2.86788 0.954022 -10.1219 
-9.99032 0.00670391 -0.00172133 
0.00670391 -10.0134 -0.00560874 
-0.00172133 -0.00560874 -10.0149 
-9.99278 0.00130771 0.00252235 
0.00130771 -10.0084 -0.00974364 
0.00252235 -0.00974364 -10.0174 
-9.98071 -0.0084351 0.0155581 
-0.0084351 -10.0178 0.0149156 
0.0155581 0.0149156 -10.0201 
-9.9962 0.00638847 0.00859874 
0.00638847 -10.0039 -0.00590399 
0.00859874 -0.00590399 -10.0185 
-9.91094 -0.001724 0.0834669 
-0.001724 -9.93048 -0.0145956 
0.0834669 -0.0145956 -9.93179 
-9.93676 -0.00441422 0.0808646 
-0.00441422 -9.92027 -0.0145104 
0.0808646 -0.0145104 -9.91618 
-9.92487 -0.00435865 0.0785248 
-0.00435865 -9.92402 -0.0158449 
0.0785248 -0.0158449 -9.92433 
-9.92124 -0.00273292 0.0695078 
-0.00273292 -9.92211 -0.0142154 
0.0695078 -0.0142154 -9.92986 
-9.97167 0.00479647 0.0767217 
0.00479647 -9.94103 0.020659 
0.0767217 0.020659 -9.91805 
-9.94127 -0.000804374 0.0692164 
-0.000804374 -9.93976 0.00298406 
0.0692164 0.00298406 -9.94971 
-9.93865 0.00152986 0.0819364 
0.00152986 -9.95721 0.00826441 
0.0819364 0.00826441 -9.93488 
-9.93923 0.00151079 0.0745876 
0.00151079 -9.95626 0.0100532 
0.0745876 0.0100532 -9.93525 
-9.97976 -0.00478818 -0.0136993 
-0.00478818 -9.95768 -0.0017414 
-0.0136993 -0.0017414 -9.95417 
-9.97061 -0.00165882 -0.0171394 
-0.00165882 -9.9647 -0.00184636 
-0.0171394 -0.00184636 -9.95631 
-9.97053 -0.00288034 -0.0152609 
-0.00288034 -9.96251 0.000103295 
-0.0152609 0.000103295 -9.95858 
-9.96697 -0.00438472 -0.0146986 
-0.00438472 -9.9675 0.00527821 
-0.0146986 0.00527821 -9.95715 
-9.89299 -0.085926 0.0784522 
-0.085926 -9.98187 -0.143935 
0.0784522 -0.143935 -9.7041 
-9.84125 0.0232867 0.124841 
0.0232867 -9.94867 -0.0605292 
0.124841 -0.0605292 -9.78905 
-9.88689 -0.0245079 0.0897395 
-0.0245079 -9.91357 -0.0725546 
0.0897395 -0.0725546 -9.77851 
-9.91012 -0.00190162 0.0273579 
-0.00190162 -9.88808 -0.0695243 
0.0273579 -0.0695243 -9.78077 
-10.0883 -0.0479159 -0.0312017 
-0.0479159 -10.0585 -0.0562863 
-0.0312017 -0.0562863 -10.2288 
-10.0665 0.000510533 0.00869528 
0.000510533 -10.1053 -0.019395 
0.00869528 -0.019395 -10.2038 
-10.0383 0.00449564 -0.00528398 
0.00449564 -10.112 -0.00934121 
-0.00528398 -0.00934121 -10.2253 
-10.1252 -0.00417025 0.0714607 
-0.00417025 -10.0883 -0.00459722 
0.0714607 -0.00459722 -10.162 
-10.1515 -0.0149082 0.0251549 
-0.0149082 -10.1836 -0.0234526 
0.0251549 -0.0234526 -10.2239 
-10.1258 0.0164374 0.0643863 
0.0164374 -10.0615 -0.0358769 
0.0643863 -0.0358769 -10.3716 
-10.3044 -0.0473234 -0.00482787 
-0.0473234 -10.2236 -0.0595836 
-0.00482787 -0.0595836 -10.031 
-10.1654 -0.0248369 -0.0650265 
-0.0248369 -10.1432 0.0569543 
-0.0650265 0.0569543 -10.2503 
-9.98601 -0.000669356 0.0329337 
-0.000669356 -9.97918 -0.00665929 
0.0329337 -0.00665929 -9.98996 
-9.98962 -0.0033057 0.0397098 
-0.0033057 -9.98544 -0.0118024 
0.0397098 -0.0118024 -9.98009 
-9.9916 0.0033215 0.0326202 
0.0033215 -9.9819 -0.0116039 
0.0326202 -0.0116039 -9.98166 
-9.99103 0.00412006 0.0309968 
0.00412006 -9.98274 -0.0151774 
0.0309968 -0.0151774 -9.98138 
-9.91579 0.00760252 0.0431877 
0.00760252 -9.90125 0.0547562 
0.0431877 0.0547562 -9.98118 
-9.91434 -0.00512534 0.0210962 
-0.00512534 -9.91215 0.0668764 
0.0210962 0.0668764 -9.97173 
-9.91186 -0.0134585 0.0450845 
-0.0134585 -9.90981 0.0555276 
0.0450845 0.0555276 -9.97655 
-9.91208 -0.00191391 0.0606546 
-0.00191391 -9.89844 0.0672581 
0.0606546 0.0672581 -9.98769 
-9.9193 0.0034085 0.0165308 
0.0034085 -9.73729 -0.0924639 
0.0165308 -0.0924639 -9.87636 
-9.90648 -0.00242426 0.0062939 
-0.00242426 -9.73087 -0.160284 
0.0062939 -0.160284 -9.89559 
-9.88914 0.0184943 0.00746139 
0.0184943 -9.73705 -0.166203 
0.00746139 -0.166203 -9.90676 
-9.80997 -0.0131992 -0.00304123 
-0.0131992 -9.90054 -0.20734 
-0.00304123 -0.20734 -9.82243 
-9.98876 -0.00149468 0.020703 
-0.00149468 -9.9905 0.0330553 
0.020703 0.0330553 -9.99691 
-9.99002 -0.00249143 0.0198698 
-0.00249143 -9.99062 0.035129 
0.0198698 0.035129 -9.99552 
-9.98943 0.000220179 0.0177317 
0.000220179 -9.98801 0.0331264 
0.0177317 0.0331264 -9.99873 
-9.99116 -0.00139897 0.0206809 
-0.00139897 -9.99361 0.0343729 
0.0206809 0.0343729 -9.9914 
-9.94162 -0.0041224 0.0729478 
-0.0041224 -9.94777 -0.073196 
0.0729478 -0.073196 -9.91447 
-9.93636 -0.018066 0.0358124 
-0.018066 -9.92438 -0.0565921 
0.0358124 -0.0565921 -9.94311 
-9.89804 -0.0196167 0.0919583 
-0.0196167 -9.97128 -0.0687283 
0.0919583 -0.0687283 -9.93454 
-9.93536 -0.00992341 0.0695621 
-0.00992341 -9.93587 -0.0638941 
0.0695621 -0.0638941 -9.93262 
-9.88453 0.00961171 -0.113798 
0.00961171 -9.78684 0.141122 
-0.113798 0.141122 -9.96158 
-10.0174 -0.126883 -0.181672 
-0.126883 -9.78914 0.223095 
-0.181672 0.223095 -9.82641 
-9.69688 -0.0371206 -0.0198743 
-0.0371206 -9.83499 0.127661 
-0.0198743 0.127661 -10.1011 
-9.81734 -0.0135451 -0.112302 
-0.0135451 -9.96898 0.00757879 
-0.112302 0.00757879 -9.84664 
-10.1001 0.0998487 0.0681771 
0.0998487 -9.31842 0.880722 
0.0681771 0.880722 -10.4063 
-9.62935 0.209507 0.15321 
0.209507 -9.69315 0.132496 
0.15321 0.132496 -10.5023 
-10.3731 0.155433 -0.387034 
0.155433 -9.75057 0.495566 
-0.387034 0.495566 -9.70111 
-10.3159 -0.0639865 -0.0711454 
-0.0639865 -9.41233 0.215662 
-0.0711454 0.215662 -10.0966 
-9.83559 -0.0157971 0.0409768 
-0.0157971 -10.0076 -0.0209836 
0.0409768 -0.0209836 -10.0097 
-9.85484 -0.0615689 0.0186343 
-0.0615689 -9.93678 0.00292042 
0.0186343 0.00292042 -10.0613 
-9.84533 -0.0637652 0.00839483 
-0.0637652 -9.96333 0.00935811 
0.00839483 0.00935811 -10.0442 
-9.81259 -0.100936 0.0218457 
-0.100936 -9.99196 0.00635803 
0.0218457 0.00635803 -10.0483 
-9.76727 0.365409 -0.321638 
0.365409 -9.35316 -1.05719 
-0.321638 -1.05719 -10.3951 
-10.4974 0.39115 -0.626575 
0.39115 -10.0415 -0.90047 
-0.626575 -0.90047 -8.97662 
-10.2396 -0.017166 -0.464043 
-0.017166 -9.15554 -0.194573 
-0.464043 -0.194573 -10.1204 
-9.4899 -0.311482 0.366099 
-0.311482 -9.51751 0.166875 
0.366099 0.166875 -10.5081 
-9.93436 -0.0702013 0.0140132 
-0.0702013 -9.77187 -0.0905574 
0.0140132 -0.0905574 -9.95614 
-9.82003 -0.0379081 0.0242183 
-0.0379081 -9.90999 -0.183637 
0.0242183 -0.183637 -9.93236 
-9.94757 -0.0455839 -0.0439999 
-0.0455839 -9.81723 -0.139056 
-0.0439999 -0.139056 -9.89757 
-9.88382 -0.0271136 0.0648989 
-0.0271136 -9.89302 -0.0889926 
0.0648989 -0.0889926 -9.88553 
-9.94934 0.0163814 -0.0303262 
0.0163814 -9.9518 -0.00243952 
-0.0303262 -0.00243952 -9.8955 
-10.0192 0.0443752 -0.0211355 
0.0443752 -9.93098 0.00587355 
-0.0211355 0.00587355 -9.84644 
-9.97856 -0.0223141 -0.103033 
-0.0223141 -9.96618 0.00268689 
-0.103033 0.00268689 -9.8519 
-9.96191 0.00183992 -0.0354072 
0.00183992 -9.94302 0.0124206 
-0.0354072 0.0124206 -9.89172 
-9.98541 0.00159716 0.0102734 
0.00159716 -9.98534 -0.0255134 
0.0102734 -0.0255134 -10.0113 
-9.99673 0.00170625 0.0130811 
0.00170625 -9.99524 -0.0215392 
0.0130811 -0.0215392 -9.99008 
-9.9964 -0.00169106 0.0119594 
-0.00169106 -9.99201 -0.0216102 
0.0119594 -0.0216102 -9.99364 
-9.99746 0.00177559 0.00861727 
0.00177559 -9.99552 -0.0206465 
0.00861727 -0.0206465 -9.98906 
-9.97823 -0.000845769 -0.0157787 
-0.000845769 -9.97903 0.0109681 
-0.0157787 0.0109681 -9.9927 
-9.98294 0.00677767 -0.00898253 
0.00677767 -9.98293 0.0024363 
-0.00898253 0.0024363 -9.98408 
-9.97992 0.000954617 -0.00906998 
0.000954617 -9.98113 0.00576147 
-0.00906998 0.00576147 -9.9889 
-9.97682 -0.000907518 -0.00797265 
-0.000907518 -9.98157 -0.000565109 
-0.00797265 -0.000565109 -9.99157 
-9.92762 0.0207965 -0.0411919 
0.0207965 -9.94092 0.0365974 
-0.0411919 0.0365974 -9.92311 
-9.9482 0.00981428 -0.0372837 
0.00981428 -9.9666 0.0558376 
-0.0372837 0.0558376 -9.87684 
-9.97945 0.0294536 -0.0108481 
0.0294536 -9.98358 -0.00705696 
-0.0108481 -0.00705696 -9.82862 
-9.94002 0.00074987 -0.0166813 
0.00074987 -9.9738 0.0590646 
-0.0166813 0.0590646 -9.87782 
-9.97429 0.00166408 0.0708145 
0.00166408 -9.97183 0.0264484 
0.0708145 0.0264484 -9.972 
-9.97299 -0.00179126 0.0628624 
-0.00179126 -9.96523 0.0205134 
0.0628624 0.0205134 -9.97989 
-9.97416 0.00195258 0.0707463 
0.00195258 -9.97173 0.0273683 
0.0707463 0.0273683 -9.97222 
-9.97828 0.00121227 0.071845 
0.00121227 -9.97807 0.02985 
0.071845 0.02985 -9.96177 
-9.94167 -0.00097615 0.0459782 
-0.00097615 -9.94946 0.053863 
0.0459782 0.053863 -9.95152 
-9.94181 -0.00412569 0.0467236 
-0.00412569 -9.95678 0.0584453 
0.0467236 0.0584453 -9.94405 
-9.94033 0.00866169 0.0386041 
0.00866169 -9.93493 0.0568549 
0.0386041 0.0568549 -9.96739 
-9.93962 -0.00252026 0.0409945 
-0.00252026 -9.957 0.0412529 
0.0409945 0.0412529 -9.94603 
-9.97939 -0.00610443 -0.0621151 
-0.00610443 -9.98092 -0.00483454 
-0.0621151 -0.00483454 -9.98421 
-9.98444 -0.00641042 -0.0603911 
-0.00641042 -9.98637 -0.00267758 
-0.0603911 -0.00267758 -9.97371 
-9.98563 0.000864174 -0.061502 
0.000864174 -9.97943 -0.00521762 
-0.061502 -0.00521762 -9.97946 
-9.98614 0.00491614 -0.0675992 
0.00491614 -9.98243 -0.0134404 
-0.0675992 -0.0134404 -9.97595 
-10.1169 -0.0145268 0.0227307 
-0.0145268 -10.1237 -0.0170967 
0.0227307 -0.0170967 -10.1713 
-10.107 -0.0175372 0.0346366 
-0.0175372 -10.1075 0.00909171 
0.0346366 0.00909171 -10.1975 
-10.131 -0.00286551 0.0158477 
-0.00286551 -10.157 -0.036802 
0.0158477 -0.036802 -10.1239 
-10.1488 -0.00558133 0.0506151 
-0.00558133 -10.0761 -0.0397958 
0.0506151 -0.0397958 -10.187 
-9.96351 -0.00392592 0.0345509 
-0.00392592 -9.97112 0.0435853 
0.0345509 0.0435853 -9.95238 
-9.96014 -0.00404385 0.0329842 
-0.00404385 -9.96413 0.0459582 
0.0329842 0.0459582 -9.96273 
-9.95912 -0.00346589 0.0297565 
-0.00346589 -9.96531 0.0443194 
0.0297565 0.0443194 -9.96257 
-9.96213 0.000539215 0.0344848 
0.000539215 -9.9649 0.0447521 
0.0344848 0.0447521 -9.95997 
-11.5776 -0.0720899 0.0523739 
-0.0720899 -10.8583 -0.729427 
0.0523739 -0.729427 -11.9368 
-12.104 -0.0197877 -0.143707 
-0.0197877 -11.6874 -0.181964 
-0.143707 -0.181964 -10.5813 
-11.4552 -0.150075 0.245778 
-0.150075 -11.0921 -0.500902 
0.245778 -0.500902 -11.8253 
-11.4321 -0.062155 0.18234 
-0.062155 -10.8705 -0.28089 
0.18234 -0.28089 -12.0701 
-10.0436 -0.0846265 0.0230303 
-0.0846265 -10.1376 0.013752 
0.0230303 0.013752 -10.1919 
-10.2003 0.074601 -0.0407299 
0.074601 -10.0842 0.0444888 
-0.0407299 0.0444888 -10.0887 
-10.0959 0.0341974 -0.0739309 
0.0341974 -10.047 -0.0140141 
-0.0739309 -0.0140141 -10.2303 
-10.0068 -0.0376669 -0.0989831 
-0.0376669 -10.1904 -0.0117816 
-0.0989831 -0.0117816 -10.176 
-9.83224 -0.0829343 -0.117202 
-0.0829343 -10.1534 0.118786 
-0.117202 0.118786 -10.0563 
-9.67215 0.0257618 -0.452846 
0.0257618 -9.89126 -0.0445851 
-0.452846 -0.0445851 -10.4785 
-9.64716 -0.103237 -0.0720853 
-0.103237 -10.0655 0.025566 
-0.0720853 0.025566 -10.3293 
-10.0332 -0.120087 -0.0747646 
-0.120087 -9.92478 0.000509307 
-0.0747646 0.000509307 -10.0839 
-9.91768 -0.0118694 0.0775434 
-0.0118694 -9.90717 -0.00412273 
0.0775434 -0.00412273 -9.91967 
-9.90062 -0.00549072 0.0815408 
-0.00549072 -9.9287 -0.0272125 
0.0815408 -0.0272125 -9.9152 
-9.90147 -0.0145264 0.0800221 
-0.0145264 -9.91832 -0.0103526 
0.0800221 -0.0103526 -9.92474 
-9.9076 -0.0149824 0.0757243 
-0.0149824 -9.9177 -0.0228714 
0.0757243 -0.0228714 -9.91923 
-10.9755 0.248139 0.112708 
0.248139 -10.2154 0.147563 
0.112708 0.147563 -11.8334 
-9.67754 0.516367 -0.803958 
0.516367 -8.65926 0.305196 
-0.803958 0.305196 -14.6875 
-11.0762 0.424172 0.106719 
0.424172 -10.4254 0.291108 
0.106719 0.291108 -11.5226 
-11.2875 0.325313 0.0958423 
0.325313 -10.0714 -0.373432 
0.0958423 -0.373432 -11.6654 
-9.91142 -0.0613728 0.0328226 
-0.0613728 -9.90831 -0.0191787 
0.0328226 -0.0191787 -10.0309 
-9.85354 -0.0864615 -0.0302341 
-0.0864615 -9.93441 0.0120016 
-0.0302341 0.0120016 -10.0627 
-9.9465 -0.0312605 -0.119809 
-0.0312605 -9.98365 0.0875659 
-0.119809 0.0875659 -9.92052 
-9.90374 -0.0711005 -0.0210728 
-0.0711005 -9.91888 0.00652266 
-0.0210728 0.00652266 -10.028 
-9.92642 0.0063004 0.276478 
0.0063004 -9.84647 0.161135 
0.276478 0.161135 -9.8568 
-9.86469 0.0202242 -0.321217 
0.0202242 -9.96076 -0.343347 
-0.321217 -0.343347 -9.80424 
-10.034 -0.0546306 -0.421941 
-0.0546306 -9.56851 -0.251447 
-0.421941 -0.251447 -10.0272 
-10.236 -0.038627 0.0289771 
-0.038627 -9.81912 -0.524986 
0.0289771 -0.524986 -9.57458 
-9.96442 0.0296919 -0.00568015 
0.0296919 -9.96282 -0.0173514 
-0.00568015 -0.0173514 -9.94978 
-9.96348 0.0288123 -0.00807747 
0.0288123 -9.95783 -0.0252594 
-0.00807747 -0.0252594 -9.95571 
-9.96572 0.0463497 -0.0287231 
0.0463497 -9.95878 -0.00754779 
-0.0287231 -0.00754779 -9.95253 
-9.97781 0.0320194 -0.0111139 
0.0320194 -9.96004 -0.0338261 
-0.0111139 -0.0338261 -9.93917 
-9.76454 0.109072 -0.0248459 
0.109072 -9.93386 0.00147139 
-0.0248459 0.00147139 -10.0601 
-9.82287 0.0307914 0.0180404 
0.0307914 -9.89961 0.00515616 
0.0180404 0.00515616 -10.036 
-9.78565 0.074676 -0.102863 
0.074676 -10.0249 0.00782647 
-0.102863 0.00782647 -9.94796 
-9.7977 0.0974438 -0.0103725 
0.0974438 -9.93254 0.038193 
-0.0103725 0.038193 -10.0283 
-9.97592 0.00246506 0.0443084 
0.00246506 -9.97685 -0.0422801 
0.0443084 -0.0422801 -9.98151 
-9.97803 0.00298496 0.0456374 
0.00298496 -9.97629 -0.0428738 
0.0456374 -0.0428738 -9.97995 
-9.96858 0.00169523 0.04676 
0.00169523 -9.98133 -0.0461525 
0.04676 -0.0461525 -9.98436 
-9.97364 0.000123868 0.0447231 
0.000123868 -9.98344 -0.0348406 
0.0447231 -0.0348406 -9.97721 
-9.92178 0.00842321 0.0563474 
0.00842321 -9.93885 -0.0489799 
0.0563474 -0.0489799 -9.93631 
-9.92253 -0.00180319 0.0588446 
-0.00180319 -9.93611 -0.0653031 
0.0588446 -0.0653031 -9.9383 
-9.92413 0.0130832 0.0501582 
0.0130832 -9.93169 -0.044897 
0.0501582 -0.044897 -9.94112 
-9.92298 0.0208223 0.0629645 
0.0208223 -9.94775 -0.0442106 
0.0629645 -0.0442106 -9.92622 
-9.92562 0.00755044 -0.0437638 
0.00755044 -9.89767 -0.0422586 
-0.0437638 -0.0422586 -9.96994 
-9.97735 -0.0121282 -0.0215743 
-0.0121282 -9.88524 -0.0310246 
-0.0215743 -0.0310246 -9.93064 
-9.80677 0.0840326 -0.0287221 
0.0840326 -9.93552 -0.0261716 
-0.0287221 -0.0261716 -10.0509 
-9.93243 0.0419792 -0.119177 
0.0419792 -9.88911 -0.0376533 
-0.119177 -0.0376533 -9.97168 
-9.84348 0.158037 0.0749643 
0.158037 -9.8401 0.0114012 
0.0749643 0.0114012 -9.38004 
-9.86464 0.0381581 -0.069365 
0.0381581 -9.82528 0.109269 
-0.069365 0.109269 -9.37369 
-9.85743 0.109845 0.0942437 
0.109845 -9.84802 0.0636764 
0.0942437 0.0636764 -9.35818 
-9.99901 0.0960336 0.0479897 
0.0960336 -9.70724 0.12818 
0.0479897 0.12818 -9.35738 
-10.0569 -0.00572933 0.00245643 
-0.00572933 -10.0587 -0.014766 
0.00245643 -0.014766 -10.1667 
-10.0977 0.00190965 -0.00531882 
0.00190965 -10.123 -0.00199944 
-0.00531882 -0.00199944 -10.0617 
-10.0533 0.00310989 -0.0193845 
0.00310989 -10.0532 0.00436761 
-0.0193845 0.00436761 -10.1759 
-10.084 -0.0169472 -0.0394015 
-0.0169472 -10.0921 -0.0567489 
-0.0394015 -0.0567489 -10.1062 
-9.93214 -0.0424447 0.0440539 
-0.0424447 -9.94812 -2.32253e-05 
0.0440539 -2.32253e-05 -9.88654 
-9.91473 -0.0429876 0.0423944 
-0.0429876 -9.92568 0.0429351 
0.0423944 0.0429351 -9.92639 
-9.91816 -0.0439946 0.00266923 
-0.0439946 -9.91531 -0.0373617 
0.00266923 -0.0373617 -9.93333 
-9.91874 -0.0306292 0.037195 
-0.0306292 -9.9437 -0.00544757 
0.037195 -0.00544757 -9.90436 
-9.92026 0.00648842 0.0120739 
0.00648842 -9.92086 -0.0904481 
0.0120739 -0.0904481 -9.9763 
-9.94249 -0.00542951 0.00280308 
-0.00542951 -9.94141 -0.0723282 
0.00280308 -0.0723282 -9.93351 
-9.96056 0.0087604 -0.00830357 
0.0087604 -9.96346 -0.0926705 
-0.00830357 -0.0926705 -9.8934 
-9.94482 -0.00933947 0.00794036 
-0.00933947 -9.94126 -0.075647 
0.00794036 -0.075647 -9.93133 
-9.91182 -0.012096 0.0574129 
-0.012096 -9.91457 -0.067387 
0.0574129 -0.067387 -9.92877 
-9.90677 -0.0176718 0.0394307 
-0.0176718 -9.92071 -0.071616 
0.0394307 -0.071616 -9.92768 
-9.90929 -0.0113009 0.044867 
-0.0113009 -9.91927 -0.0639516 
0.044867 -0.0639516 -9.92659 
-9.90433 -0.00955408 0.0520652 
-0.00955408 -9.92638 -0.0691895 
0.0520652 -0.0691895 -9.92445 
-9.96377 0.00139275 0.0533714 
0.00139275 -9.96601 -0.0545277 
0.0533714 -0.0545277 -9.96444 
-9.98119 0.00748424 0.0592105 
0.00748424 -9.96897 -0.0469567 
0.0592105 -0.0469567 -9.94405 
-9.94219 -0.00649096 0.0578393 
-0.00649096 -9.95853 -0.0563274 
0.0578393 -0.0563274 -9.9935 
-9.96322 -0.00731096 0.0343548 
-0.00731096 -9.96561 -0.0572699 
0.0343548 -0.0572699 -9.96538 
-9.92444 -0.109671 0.047091 
-0.109671 -9.89106 0.0795354 
0.047091 0.0795354 -10.0763 
-9.89191 -0.0832506 0.0643128 
-0.0832506 -9.78079 0.0668647 
0.0643128 0.0668647 -10.2191 
-9.94234 -0.082994 -0.00349503 
-0.082994 -9.89065 0.059403 
-0.00349503 0.059403 -10.0588 
-9.93811 -0.104836 0.056267 
-0.104836 -9.87376 0.0711775 
0.056267 0.0711775 -10.0799 
-10.0598 0.0166936 -0.0412608 
0.0166936 -9.81222 0.23208 
-0.0412608 0.23208 -9.19643 
-9.85422 0.0940879 -0.0404517 
0.0940879 -9.86233 0.218047 
-0.0404517 0.218047 -9.35193 
-9.96251 -0.10908 -0.198316 
-0.10908 -9.80613 0.0652573 
-0.198316 0.0652573 -9.29984 
-9.96478 0.0803434 -0.00587033 
0.0803434 -9.95175 0.223738 
-0.00587033 0.223738 -9.15195 
-9.96868 -0.00432127 0.0211757 
-0.00432127 -9.98008 0.0438263 
0.0211757 0.0438263 -9.97807 
-9.97644 0.000957732 0.0235333 
0.000957732 -9.97592 0.0415869 
0.0235333 0.0415869 -9.97447 
-9.97211 -0.00645165 0.0232374 
-0.00645165 -9.9887 0.0431168 
0.0232374 0.0431168 -9.96603 
-9.98004 0.00115546 0.0265234 
0.00115546 -9.97271 0.0502803 
0.0265234 0.0502803 -9.97408 
-9.87354 0.0218105 -0.0332133 
0.0218105 -9.89482 -0.0251455 
-0.0332133 -0.0251455 -9.96549 
-9.87638 0.0198721 -0.0412659 
0.0198721 -9.89692 -0.0310418 
-0.0412659 -0.0310418 -9.96056 
-9.9088 0.0167018 -0.0341795 
0.0167018 -9.90723 -0.0606149 
-0.0341795 -0.0606149 -9.91782 
-9.87554 0.0253933 -0.0513046 
0.0253933 -9.88954 -0.0403313 
-0.0513046 -0.0403313 -9.96877 
-9.94828 0.000520204 -0.0190477 
0.000520204 -9.95123 -0.0222132 
-0.0190477 -0.0222132 -10.2114 
-9.98286 -0.0168385 -0.0678005 
-0.0168385 -9.85476 0.0337194 
-0.0678005 0.0337194 -10.2733 
-9.97517 0.0190321 0.0419041 
0.0190321 -9.93627 0.042132 
0.0419041 0.042132 -10.1995 
-10.0022 0.0101454 -0.00216768 
0.0101454 -9.92208 -0.0223648 
-0.00216768 -0.0223648 -10.1866 
-9.92578 -0.00256488 0.0545012 
-0.00256488 -9.91598 -0.0412748 
0.0545012 -0.0412748 -9.96141 
-9.93832 -0.00231874 0.0490205 
-0.00231874 -9.93159 -0.0536743 
0.0490205 -0.0536743 -9.93327 
-9.92555 0.00565388 0.0489364 
0.00565388 -9.9305 -0.0454523 
0.0489364 -0.0454523 -9.94713 
-9.92026 0.00267802 0.0459175 
0.00267802 -9.94051 -0.0525106 
0.0459175 -0.0525106 -9.9424 
-9.95766 0.000570053 0.0138188 
0.000570053 -9.95773 -0.0488692 
0.0138188 -0.0488692 -9.94307 
-9.95985 -0.00253019 0.0117769 
-0.00253019 -9.96197 -0.0489107 
0.0117769 -0.0489107 -9.93664 
-9.95747 -0.00333649 0.0135431 
-0.00333649 -9.96502 -0.0454441 
0.0135431 -0.0454441 -9.93597 
-9.96691 -0.00254437 0.00594677 
-0.00254437 -9.96123 -0.0441294 
0.00594677 -0.0441294 -9.93032 
-10.0616 -0.0246284 -0.0119675 
-0.0246284 -10.1086 0.00591108 
-0.0119675 0.00591108 -10.205 
-10.076 -0.0159772 -0.00886457 
-0.0159772 -10.0713 0.0152361 
-0.00886457 0.0152361 -10.2279 
-10.0693 -0.00586949 0.000395801 
-0.00586949 -10.0725 0.0141716 
0.000395801 0.0141716 -10.2334 
-10.0927 -0.012884 0.00071031 
-0.012884 -10.0945 0.0553992 
0.00071031 0.0553992 -10.188 
-10.1845 0.159223 0.054625 
0.159223 -9.64141 -0.0226182 
0.054625 -0.0226182 -10.3249 
-10.0852 0.0662427 0.0197414 
0.0662427 -9.95185 -0.0813541 
0.0197414 -0.0813541 -10.1138 
-9.95675 -0.00736518 0.0548135 
-0.00736518 -10.1012 0.046816 
0.0548135 0.046816 -10.0929 
-10.0186 0.0945924 -0.0035149 
0.0945924 -10.0014 -0.0733889 
-0.0035149 -0.0733889 -10.1308 
-11.2481 -0.41479 -0.69397 
-0.41479 -10.6636 0.173494 
-0.69397 0.173494 -9.78297 
-10.1006 -0.367369 -0.114378 
-0.367369 -10.6336 -0.00526135 
-0.114378 -0.00526135 -10.9604 
-9.6544 0.130517 1.01268 
0.130517 -9.70888 0.159083 
1.01268 0.159083 -12.3314 
-8.68431 -0.30251 -0.572008 
-0.30251 -10.8513 0.0249696 
-0.572008 0.0249696 -12.1591 
-9.90056 -0.0351404 0.0549109 
-0.0351404 -9.88409 -0.0640008 
0.0549109 -0.0640008 -9.84399 
-9.90945 0.0145398 0.0820901 
0.0145398 -9.92148 -0.0702729 
0.0820901 -0.0702729 -9.79771 
-9.89067 0.0514532 0.0159169 
0.0514532 -9.89933 -0.0193139 
0.0159169 -0.0193139 -9.83864 
-9.89536 -0.0081592 0.0268584 
-0.0081592 -9.90933 -0.0650762 
0.0268584 -0.0650762 -9.82395 
-10.6883 -0.206607 -0.205507 
-0.206607 -10.084 0.178859 
-0.205507 0.178859 -10.2324 
-9.6809 0.149213 0.216721 
0.149213 -10.7549 -0.212377 
0.216721 -0.212377 -10.5689 
-9.73214 0.543713 -0.539668 
0.543713 -10.6417 0.158953 
-0.539668 0.158953 -10.6309 
-10.2097 -0.0519635 0.0845942 
-0.0519635 -9.94097 -0.0999315 
0.0845942 -0.0999315 -10.8541 
-9.93211 0.0141966 -0.0525696 
0.0141966 -9.94307 0.0449403 
-0.0525696 0.0449403 -9.95078 
-9.95541 0.00256462 -0.0352622 
0.00256462 -9.92492 0.0571892 
-0.0352622 0.0571892 -9.94563 
-9.93208 0.00904788 -0.0510621 
0.00904788 -9.93906 0.0389754 
-0.0510621 0.0389754 -9.95481 
-9.94068 0.0221885 -0.0431656 
0.0221885 -9.94619 0.0452403 
-0.0431656 0.0452403 -9.93909 
-9.95886 -0.00513502 0.000374687 
-0.00513502 -9.95774 0.00680159 
0.000374687 0.00680159 -9.95737 
-9.96594 -0.00270566 0.00600955 
-0.00270566 -9.9563 0.0120782 
0.00600955 0.0120782 -9.95173 
-9.97406 -0.00299725 -0.022409 
-0.00299725 -9.96631 -0.00787555 
-0.022409 -0.00787555 -9.9336 
-9.94739 0.00129001 0.00938445 
0.00129001 -9.9471 -0.0006096 
0.00938445 -0.0006096 -9.97948 
-9.93788 0.00124766 0.0418244 
0.00124766 -9.94581 0.0583872 
0.0418244 0.0583872 -9.95822 
-9.93886 0.0017816 0.0463991 
0.0017816 -9.94704 0.0552163 
0.0463991 0.0552163 -9.95602 
-9.93879 0.00102698 0.0406919 
0.00102698 -9.94794 0.0545324 
0.0406919 0.0545324 -9.95519 
-9.94252 -0.000271986 0.0468951 
-0.000271986 -9.94873 0.0601941 
0.0468951 0.0601941 -9.95066 
-9.9498 -0.0207258 0.0375495 
-0.0207258 -9.85255 -0.0499601 
0.0375495 -0.0499601 -10.155 
-9.99232 0.0205864 -0.0438593 
0.0205864 -9.99893 -0.0470547 
-0.0438593 -0.0470547 -9.96613 
-9.92039 -0.0348627 0.00495193 
-0.0348627 -9.9657 -0.0165525 
0.00495193 -0.0165525 -10.0713 
-9.92083 -0.0991415 -0.0420869 
-0.0991415 -9.93641 -0.026486 
-0.0420869 -0.026486 -10.1001 
-9.62647 0.0263177 -0.0593473 
0.0263177 -9.86963 0.00732103 
-0.0593473 0.00732103 -10.2584 
-9.63495 0.0341265 0.00437585 
0.0341265 -9.84162 0.00774095 
0.00437585 0.00774095 -10.2779 
-9.86345 0.165922 0.276971 
0.165922 -10.1434 -0.0166839 
0.276971 -0.0166839 -9.74763 
-9.57433 0.112983 0.0274329 
0.112983 -10.0133 -0.0236484 
0.0274329 -0.0236484 -10.1669 
-9.98256 -0.0240833 -0.0516066 
-0.0240833 -10.0527 0.103147 
-0.0516066 0.103147 -9.70451 
-9.90275 0.0153975 -0.0290793 
0.0153975 -9.98365 -0.00184421 
-0.0290793 -0.00184421 -9.8534 
-10.0334 -0.0106157 -0.0267588 
-0.0106157 -9.98611 0.0242614 
-0.0267588 0.0242614 -9.72034 
-9.8947 -0.0464161 -0.298845 
-0.0464161 -10.1619 0.100764 
-0.298845 0.100764 -9.68325 
-9.95883 0.00509327 -0.00573968 
0.00509327 -9.96181 -0.00656054 
-0.00573968 -0.00656054 -9.96222 
-9.96531 -0.0041578 -0.000193859 
-0.0041578 -9.94927 0.0084349 
-0.000193859 0.0084349 -9.96829 
-9.9538 -0.00336198 -0.00316497 
-0.00336198 -9.96286 -0.00666022 
-0.00316497 -0.00666022 -9.9662 
-9.94528 0.00377195 -0.00218785 
0.00377195 -9.9556 0.0135049 
-0.00218785 0.0135049 -9.98198 
-11.3161 -0.35531 1.13559 
-0.35531 -8.0685 1.54954 
1.13559 1.54954 -11.3012 
-9.47905 0.943688 0.36146 
0.943688 -11.282 0.718734 
0.36146 0.718734 -9.92482 
-11.0152 0.181459 0.613882 
0.181459 -9.63624 1.91408 
0.613882 1.91408 -10.0344 
-10.3374 -0.572379 -0.313623 
-0.572379 -10.3355 2.22544 
-0.313623 2.22544 -10.013 
-9.92825 0.0276784 0.0281195 
0.0276784 -9.95017 -0.0215843 
0.0281195 -0.0215843 -10.0027 
-9.91729 -0.0113002 0.0368201 
-0.0113002 -9.93067 -0.0306494 
0.0368201 -0.0306494 -10.0332 
-9.93221 0.0204862 0.00996129 
0.0204862 -9.92211 -0.00683947 
0.00996129 -0.00683947 -10.0268 
-9.93067 0.0177223 0.0259958 
0.0177223 -9.92711 -0.0170846 
0.0259958 -0.0170846 -10.0234 
-9.91763 -0.00254265 -0.0887028 
-0.00254265 -9.93858 0.00212774 
-0.0887028 0.00212774 -9.95796 
-9.93193 -0.00406054 -0.0797214 
-0.00406054 -9.94318 0.0109134 
-0.0797214 0.0109134 -9.93906 
-9.96852 0.00359764 -0.0889233 
0.00359764 -9.93236 0.00427821 
-0.0889233 0.00427821 -9.91329 
-9.93363 0.00304618 -0.0593997 
0.00304618 -9.94522 0.00919294 
-0.0593997 0.00919294 -9.93532 
-10.0777 -0.0127713 -0.00740684 
-0.0127713 -10.0649 0.0328923 
-0.00740684 0.0328923 -10.1271 
-10.1044 -0.00644736 -0.00371549 
-0.00644736 -10.0889 -0.00178604 
-0.00371549 -0.00178604 -10.0764 
-10.0948 -0.0141444 -0.00243764 
-0.0141444 -10.0705 0.0127784 
-0.00243764 0.0127784 -10.1044 
-10.0938 -0.0190755 0.000989243 
-0.0190755 -10.065 0.00616067 
0.000989243 0.00616067 -10.1108 
-9.94528 -0.000782537 0.0501562 
-0.000782537 -9.94373 0.0502442 
0.0501562 0.0502442 -9.95593 
-9.94265 -0.00625616 0.0465401 
-0.00625616 -9.95055 0.0472226 
0.0465401 0.0472226 -9.95174 
-9.93914 -0.00211332 0.0546232 
-0.00211332 -9.94119 0.0456382 
0.0546232 0.0456382 -9.9646 
-9.94699 0.00252168 0.0488195 
0.00252168 -9.93846 0.0493456 
0.0488195 0.0493456 -9.95948 
-10.1765 -0.51306 -0.0809687 
-0.51306 -10.2863 -0.0293672 
-0.0809687 -0.0293672 -10.4746 
-9.98234 0.0520465 -0.34101 
0.0520465 -9.9959 0.337413 
-0.34101 0.337413 -10.9591 
-10.0422 -0.501026 0.146989 
-0.501026 -10.1003 -0.131355 
0.146989 -0.131355 -10.7949 
-10.3625 0.304434 0.543171 
0.304434 -10.4113 -0.216353 
0.543171 -0.216353 -10.1636 
-9.93378 -0.00761678 0.078835 
-0.00761678 -9.95248 -0.00597473 
0.078835 -0.00597473 -9.95836 
-9.95109 0.00313254 0.0794446 
0.00313254 -9.95569 0.0189137 
0.0794446 0.0189137 -9.93784 
-9.95917 -0.00344458 0.0732314 
-0.00344458 -9.94658 0.00174915 
0.0732314 0.00174915 -9.93888 
-9.95155 -0.00254861 0.0755599 
-0.00254861 -9.95362 0.0084806 
0.0755599 0.0084806 -9.93945 
-9.92313 -0.022607 -0.0245721 
-0.022607 -9.92548 0.00267474 
-0.0245721 0.00267474 -10.0276 
-9.91076 0.0146805 -0.0180284 
0.0146805 -9.91253 0.00979495 
-0.0180284 0.00979495 -10.0529 
-9.9159 0.00503811 -0.0216578 
0.00503811 -9.90876 0.0158975 
-0.0216578 0.0158975 -10.0515 
-9.92136 0.0161272 0.00045832 
0.0161272 -9.91033 0.0256517 
0.00045832 0.0256517 -10.0445 
-9.95234 -1.34597e-05 0.0464364 
-1.34597e-05 -9.95456 0.0563827 
0.0464364 0.0563827 -9.97593 
-9.95571 0.00291777 0.0375685 
0.00291777 -9.96058 0.0506613 
0.0375685 0.0506613 -9.96653 
-9.9619 0.00210129 0.0339155 
0.00210129 -9.97149 0.062216 
0.0339155 0.062216 -9.94944 
-9.95484 0.00315514 0.0355955 
0.00315514 -9.96305 0.0554444 
0.0355955 0.0554444 -9.96494 
-9.93299 0.0113483 0.0400348 
0.0113483 -9.94401 -0.0293972 
0.0400348 -0.0293972 -9.94084 
-9.92145 0.00986804 0.0227561 
0.00986804 -9.95597 -0.0282269 
0.0227561 -0.0282269 -9.94042 
-9.93607 0.0118465 0.0395369 
0.0118465 -9.94449 -0.0268666 
0.0395369 -0.0268666 -9.93729 
-9.94002 0.0135306 0.0403825 
0.0135306 -9.9428 -0.0293452 
0.0403825 -0.0293452 -9.93502 
-9.98595 0.000589274 0.0150767 
0.000589274 -9.97034 -0.00536498 
0.0150767 -0.00536498 -9.96077 
-9.97572 0.00151738 0.0140186 
0.00151738 -9.96836 -0.00242902 
0.0140186 -0.00242902 -9.97297 
-9.96193 -0.00413244 0.0265113 
-0.00413244 -9.97407 0.0106366 
0.0265113 0.0106366 -9.98104 
-9.9814 0.00409998 0.0165779 
0.00409998 -9.97079 0.00167977 
0.0165779 0.00167977 -9.96485 
-9.96503 -0.0122456 -0.0180632 
-0.0122456 -9.96204 -0.0155674 
-0.0180632 -0.0155674 -9.95265 
-9.96069 -0.0263135 -0.0011713 
-0.0263135 -9.96184 0.00159574 
-0.0011713 0.00159574 -9.95718 
-9.95215 -0.00878822 -0.0151653 
-0.00878822 -9.95915 -0.00667222 
-0.0151653 -0.00667222 -9.96841 
-9.95782 -0.00829156 -0.010443 
-0.00829156 -9.95402 -0.0105873 
-0.010443 -0.0105873 -9.96787 
-9.93528 -0.00109093 -0.0914289 
-0.00109093 -9.93203 -0.0119664 
-0.0914289 -0.0119664 -9.90223 
-9.90247 0.00829379 -0.0819019 
0.00829379 -9.92741 -0.0184418 
-0.0819019 -0.0184418 -9.93966 
-9.92405 0.00184039 -0.0847893 
0.00184039 -9.92676 -0.00560801 
-0.0847893 -0.00560801 -9.91873 
-9.92991 -0.00134573 -0.0715811 
-0.00134573 -9.92678 -0.00104907 
-0.0715811 -0.00104907 -9.91285 
-9.97399 0.00344625 -0.00398393 
0.00344625 -9.95151 0.0626646 
-0.00398393 0.0626646 -9.96282 
-9.98052 -0.00130476 -0.0203848 
-0.00130476 -9.96812 0.0692126 
-0.0203848 0.0692126 -9.93967 
-9.96095 -0.00133868 -0.00965138 
-0.00133868 -9.96754 0.0781517 
-0.00965138 0.0781517 -9.95982 
-9.95962 -0.00429454 -0.0116322 
-0.00429454 -9.97218 0.0718522 
-0.0116322 0.0718522 -9.95651 
-9.77402 0.135098 0.0694986 
0.135098 -9.6069 0.290067 
0.0694986 0.290067 -11.2371 
-10.4318 0.106513 -0.0830267 
0.106513 -10.288 -0.0407703 
-0.0830267 -0.0407703 -9.89822 
-10.4032 -0.0982508 0.00239116 
-0.0982508 -10.2998 -0.10059 
0.00239116 -0.10059 -9.91501 
-10.3938 0.392309 -0.416692 
0.392309 -9.75459 -0.632858 
-0.416692 -0.632858 -10.4696 
-9.9421 -0.0543565 -0.0379637 
-0.0543565 -10.0009 -0.0220284 
-0.0379637 -0.0220284 -10.0441 
-9.89274 -0.00536029 0.00267924 
-0.00536029 -9.9781 0.0236211 
0.00267924 0.0236211 -10.1162 
-9.89599 -0.00303676 0.00469396 
-0.00303676 -9.9861 0.0278127 
0.00469396 0.0278127 -10.105 
-9.94267 -0.0228625 0.0128304 
-0.0228625 -9.98728 -0.0584338 
0.0128304 -0.0584338 -10.0571 
-9.88009 -0.0288364 -0.0434638 
-0.0288364 -9.80875 0.184065 
-0.0434638 0.184065 -9.69856 
-9.85751 -0.0303185 -0.0476246 
-0.0303185 -9.815 0.189437 
-0.0476246 0.189437 -9.71489 
-9.90875 -0.078693 -0.0738245 
-0.078693 -9.85192 0.229773 
-0.0738245 0.229773 -9.62673 
-9.86354 -0.0683554 -0.0618961 
-0.0683554 -9.81054 0.196918 
-0.0618961 0.196918 -9.71332 
-9.91813 -0.000557236 0.0515621 
-0.000557236 -9.89566 -0.0502439 
0.0515621 -0.0502439 -9.91852 
-9.90958 -0.000484078 0.0543168 
-0.000484078 -9.90153 -0.0501356 
0.0543168 -0.0501356 -9.9212 
-9.91053 0.0128486 0.0483765 
0.0128486 -9.90233 -0.043117 
0.0483765 -0.043117 -9.91946 
-9.94014 -0.00316887 0.0533425 
-0.00316887 -9.88771 -0.0733994 
0.0533425 -0.0733994 -9.90446 
-9.18899 -0.407929 0.89848 
-0.407929 -10.7077 0.305728 
0.89848 0.305728 -9.96719 
-10.7352 0.902974 0.683808 
0.902974 -9.33341 1.09649 
0.683808 1.09649 -9.79524 
-9.87165 0.254442 0.999027 
0.254442 -9.37605 0.312795 
0.999027 0.312795 -10.6162 
-10.2775 -0.558461 3.06202 
-0.558461 -10.2063 -0.102169 
3.06202 -0.102169 -9.38007 
-9.94295 0.0030219 0.0537335 
0.0030219 -9.96075 0.00590423 
0.0537335 0.00590423 -9.95915 
-9.95722 -0.000383235 0.0556233 
-0.000383235 -9.9657 0.0115734 
0.0556233 0.0115734 -9.93993 
-9.96598 0.00132588 0.0631675 
0.00132588 -9.96045 0.013921 
0.0631675 0.013921 -9.93641 
-9.96119 -0.00399125 0.0551345 
-0.00399125 -9.96335 0.0107325 
0.0551345 0.0107325 -9.9383 
-10.0431 0.109637 -0.0102631 
0.109637 -9.86209 -0.188615 
-0.0102631 -0.188615 -9.74116 
-9.93553 -0.0324068 0.0286105 
-0.0324068 -9.64613 -0.0492083 
0.0286105 -0.0492083 -10.0647 
-9.88262 -0.0482837 0.0343181 
-0.0482837 -9.74435 0.0369235 
0.0343181 0.0369235 -10.0194 
-9.86724 -0.0430776 -0.00221173 
-0.0430776 -9.69409 -0.0430193 
-0.00221173 -0.0430193 -10.0851 
-9.92964 0.0497133 -0.0185661 
0.0497133 -9.92091 0.0168202 
-0.0185661 0.0168202 -9.94405 
-9.90293 0.0253369 -0.011714 
0.0253369 -9.96037 -0.00993925 
-0.011714 -0.00993925 -9.93131 
-9.93024 0.0619018 0.0165768 
0.0619018 -9.92901 0.0180443 
0.0165768 0.0180443 -9.93535 
-9.9385 0.0411093 0.00239707 
0.0411093 -9.91027 0.0248544 
0.00239707 0.0248544 -9.94584 
-9.97631 0.0524565 0.0121539 
0.0524565 -9.72775 0.0455165 
0.0121539 0.0455165 -9.9063 
-9.80786 -0.023686 -0.0343577 
-0.023686 -9.77257 0.192438 
-0.0343577 0.192438 -10.0299 
-9.81923 -0.0408636 0.0380054 
-0.0408636 -9.95973 0.172246 
0.0380054 0.172246 -9.83139 
-9.95776 -0.0282762 -0.0219437 
-0.0282762 -9.69119 0.188143 
-0.0219437 0.188143 -9.96141 
-9.91462 0.00621298 -0.0842225 
0.00621298 -9.92547 -0.00958012 
-0.0842225 -0.00958012 -9.91213 
-9.91454 0.00501218 -0.0890735 
0.00501218 -9.92195 -0.0114811 
-0.0890735 -0.0114811 -9.91573 
-9.90911 0.00429343 -0.0848219 
0.00429343 -9.93432 -0.0143222 
-0.0848219 -0.0143222 -9.90879 
-9.91653 0.00646392 -0.089027 
0.00646392 -9.92271 -0.0112579 
-0.089027 -0.0112579 -9.91298 
-10.1624 0.0232287 0.12435 
0.0232287 -9.97501 0.0926384 
0.12435 0.0926384 -10.6225 
-10.2581 -0.0713493 -0.0192667 
-0.0713493 -10.1612 -0.0445531 
-0.0192667 -0.0445531 -10.3406 
-10.4268 0.00614026 -0.0406344 
0.00614026 -10.3197 -0.0932166 
-0.0406344 -0.0932166 -10.0134 
-10.1218 0.145743 -0.276636 
0.145743 -10.171 0.0533569 
-0.276636 0.0533569 -10.4672 
-9.87976 0.0437443 0.0810394 
0.0437443 -9.83833 0.0539645 
0.0810394 0.0539645 -10.1275 
-9.89568 -0.143831 0.094144 
-0.143831 -9.96051 -0.0404427 
0.094144 -0.0404427 -9.98937 
-9.80073 0.0784776 0.0186198 
0.0784776 -9.98131 0.047556 
0.0186198 0.047556 -10.0635 
-9.95089 -0.0603234 0.14975 
-0.0603234 -9.93012 0.0273796 
0.14975 0.0273796 -9.96455 
-9.98323 0.0500491 0.0508832 
0.0500491 -10.0032 -0.0647205 
0.0508832 -0.0647205 -10.0912 
-9.96537 -0.00977298 -0.0253701 
-0.00977298 -10.0323 0.00327299 
-0.0253701 0.00327299 -10.08 
-9.98071 0.0170685 -0.0562663 
0.0170685 -10.0256 0.0265684 
-0.0562663 0.0265684 -10.0713 
-9.95862 -0.00665353 -0.0218745 
-0.00665353 -10.0141 0.0159333 
-0.0218745 0.0159333 -10.1049 
-9.93759 0.00131646 0.0457823 
0.00131646 -9.93285 0.0435003 
0.0457823 0.0435003 -9.9506 
-9.94191 0.00437845 0.0438159 
0.00437845 -9.93318 0.0425728 
0.0438159 0.0425728 -9.94595 
-9.93633 0.00435897 0.0491265 
0.00435897 -9.93594 0.0488678 
0.0491265 0.0488678 -9.94878 
-9.93646 0.00419474 0.0504783 
0.00419474 -9.93653 0.0501576 
0.0504783 0.0501576 -9.94806 
-10.1063 -0.0491233 -0.0145108 
-0.0491233 -10.2632 -0.0443276 
-0.0145108 -0.0443276 -10.1436 
-10.2451 0.0337574 0.0305356 
0.0337574 -9.96485 0.00593569 
0.0305356 0.00593569 -10.3032 
-10.1365 -0.0467362 -0.0457644 
-0.0467362 -10.14 -0.101249 
-0.0457644 -0.101249 -10.2367 
-10.1204 0.00599532 -0.0157156 
0.00599532 -10.1559 -0.126744 
-0.0157156 -0.126744 -10.2368 
-9.94033 0.00940566 0.0776265 
0.00940566 -9.94251 0.0262939 
0.0776265 0.0262939 -9.93573 
-9.94666 -0.000736042 0.0756837 
-0.000736042 -9.92802 0.0144184 
0.0756837 0.0144184 -9.9439 
-9.94261 -0.00129959 0.0753431 
-0.00129959 -9.94866 0.0246915 
0.0753431 0.0246915 -9.9273 
-9.92833 -0.000607673 0.0717871 
-0.000607673 -9.9338 0.0110799 
0.0717871 0.0110799 -9.95644 
-9.93347 -0.00279523 -0.000455609 
-0.00279523 -9.93336 -0.0166339 
-0.000455609 -0.0166339 -10.1948 
-9.95931 -0.0317112 -0.0194633 
-0.0317112 -9.93786 0.019829 
-0.0194633 0.019829 -10.1645 
-9.93165 -0.00287248 -0.00476337 
-0.00287248 -9.91352 -0.00131056 
-0.00476337 -0.00131056 -10.2165 
-9.93746 -0.0118662 -0.0391707 
-0.0118662 -9.92387 -0.0222913 
-0.0391707 -0.0222913 -10.2003 
-9.97984 -0.00141813 0.0408676 
-0.00141813 -9.97564 -0.0224577 
0.0408676 -0.0224577 -9.98011 
-9.98222 0.00455364 0.0343206 
0.00455364 -9.9741 -0.0265649 
0.0343206 -0.0265649 -9.97926 
-9.98147 0.0024301 0.0342176 
0.0024301 -9.97119 -0.0230604 
0.0342176 -0.0230604 -9.98293 
-9.98209 0.00157151 0.0413488 
0.00157151 -9.97817 -0.0233346 
0.0413488 -0.0233346 -9.97533 
-9.92019 -0.0419612 -0.0665788 
-0.0419612 -9.95166 0.0627182 
-0.0665788 0.0627182 -9.85888 
-9.91887 -0.00995556 -0.05593 
-0.00995556 -9.95175 0.0236358 
-0.05593 0.0236358 -9.86012 
-9.88245 -0.0278467 -0.0509211 
-0.0278467 -9.95656 0.0155721 
-0.0509211 0.0155721 -9.89172 
-9.91098 -0.0285762 0.03409 
-0.0285762 -9.87768 0.0356801 
0.03409 0.0356801 -9.94207 
-10.6311 -0.0546856 -0.0231778 
-0.0546856 -10.7033 -0.0429124 
-0.0231778 -0.0429124 -10.19 
-10.092 0.054599 -0.21711 
0.054599 -9.90976 0.272824 
-0.21711 0.272824 -11.5227 
-10.5333 -0.0889303 -0.0152394 
-0.0889303 -10.5113 -0.0288007 
-0.0152394 -0.0288007 -10.4798 
-10.2043 -0.185031 0.442502 
-0.185031 -10.4691 -0.0253075 
0.442502 -0.0253075 -10.851 
-9.90243 -0.026257 -0.0439816 
-0.026257 -9.85848 0.0724256 
-0.0439816 0.0724256 -9.90675 
-9.86598 -0.02559 -0.0559806 
-0.02559 -9.86906 0.0473289 
-0.0559806 0.0473289 -9.93262 
-9.89963 -0.0160125 -0.0437205 
-0.0160125 -9.8784 0.0809296 
-0.0437205 0.0809296 -9.88963 
-9.88446 -0.0268267 -0.0799588 
-0.0268267 -9.8679 0.082667 
-0.0799588 0.082667 -9.9153 
-9.89845 0.00866596 -0.0245226 
0.00866596 -9.87588 -0.0991592 
-0.0245226 -0.0991592 -9.8819 
-9.91045 0.0114376 -0.0234991 
0.0114376 -9.87115 -0.0982804 
-0.0234991 -0.0982804 -9.87464 
-9.89434 0.0135539 -0.0244646 
0.0135539 -9.87832 -0.0982054 
-0.0244646 -0.0982054 -9.88357 
-9.89857 0.00583236 -0.0260563 
0.00583236 -9.87904 -0.100149 
-0.0260563 -0.100149 -9.87864 
-9.97752 0.00259786 0.00690227 
0.00259786 -9.96189 0.0557378 
0.00690227 0.0557378 -9.95889 
-9.96597 0.00569973 0.00441972 
0.00569973 -9.98233 0.0545482 
0.00441972 0.0545482 -9.94999 
-9.96435 0.00409756 0.00990064 
0.00409756 -9.97452 0.0474852 
0.00990064 0.0474852 -9.95942 
-9.97317 0.00409511 -0.00147556 
0.00409511 -9.97567 0.0544493 
-0.00147556 0.0544493 -9.94945 
-9.97468 0.00252157 0.0296294 
0.00252157 -9.95441 0.097196 
0.0296294 0.097196 -9.99653 
-10.0126 -0.00607568 0.0592174 
-0.00607568 -9.91217 0.11344 
0.0592174 0.11344 -10.0008 
-9.9669 -0.0431152 0.0669822 
-0.0431152 -10.0093 0.116745 
0.0669822 0.116745 -9.94943 
-9.91394 -0.0264083 0.0675575 
-0.0264083 -9.98479 0.0462674 
0.0675575 0.0462674 -10.0269 
-10.0168 0.0619649 0.0962512 
0.0619649 -9.57175 0.522672 
0.0962512 0.522672 -9.39334 
-9.92614 0.314501 0.0114296 
0.314501 -9.97274 -0.0159686 
0.0114296 -0.0159686 -9.08299 
-10.3117 -0.109284 -0.282787 
-0.109284 -9.88237 -0.114012 
-0.282787 -0.114012 -8.78785 
-10.4955 0.294931 -1.29372 
0.294931 -10.0396 0.465615 
-1.29372 0.465615 -8.44675 
-9.96362 -0.0134604 -0.0138249 
-0.0134604 -9.97613 -0.00801172 
-0.0138249 -0.00801172 -9.93884 
-9.95009 0.00197703 0.0191142 
0.00197703 -9.9461 -0.00336893 
0.0191142 -0.00336893 -9.98241 
-9.97126 0.00408038 0.0190044 
0.00408038 -9.95865 0.00417093 
0.0190044 0.00417093 -9.94869 
-9.97185 0.0123256 0.0144608 
0.0123256 -9.95263 -0.003097 
0.0144608 -0.003097 -9.95412 
-9.95333 0.00127254 0.00610942 
0.00127254 -9.98268 -0.0583535 
0.00610942 -0.0583535 -9.98534 
-9.9671 0.00321627 -0.00870181 
0.00321627 -10.0054 -0.0505928 
-0.00870181 -0.0505928 -9.94885 
-9.98771 -0.0041755 0.00518526 
-0.0041755 -9.9705 -0.0477622 
0.00518526 -0.0477622 -9.96314 
-9.98872 0.000883929 -0.000610379 
0.000883929 -9.96893 -0.0345489 
-0.000610379 -0.0345489 -9.96371 
-9.93093 -0.00369613 0.0146977 
-0.00369613 -9.93168 -0.0892945 
0.0146977 -0.0892945 -9.92623 
-9.91705 -0.00885758 0.0257978 
-0.00885758 -9.91514 -0.0721127 
0.0257978 -0.0721127 -9.95665 
-9.92714 -0.00221926 0.0112822 
-0.00221926 -9.93121 -0.0944245 
0.0112822 -0.0944245 -9.9305 
-9.95814 -0.0150733 1.83468e-05 
-0.0150733 -9.94325 -0.0800736 
1.83468e-05 -0.0800736 -9.88745 
-9.99393 -0.077488 0.0700617 
-0.077488 -10.0112 -0.0162947 
0.0700617 -0.0162947 -10.3328 
-10.0157 -0.0309722 0.0119249 
-0.0309722 -10.1163 -0.021253 
0.0119249 -0.021253 -10.2059 
-10.0313 -0.0671589 0.133888 
-0.0671589 -10.067 0.0192797 
0.133888 0.0192797 -10.2395 
-10.0922 0.00247388 -0.0197346 
0.00247388 -9.99898 0.0473945 
-0.0197346 0.0473945 -10.2466 
-9.68625 0.00209866 0.195478 
0.00209866 -9.98639 0.178949 
0.195478 0.178949 -9.96321 
-9.77344 -0.0377867 0.241551 
-0.0377867 -10.0065 0.161932 
0.241551 0.161932 -9.85592 
-9.71514 -0.0125712 0.194464 
-0.0125712 -9.92487 0.132875 
0.194464 0.132875 -9.99583 
-9.90007 -0.0210746 0.261842 
-0.0210746 -9.92376 0.0983778 
0.261842 0.0983778 -9.81201 
-9.92172 -0.00700213 0.00211656 
-0.00700213 -9.92391 0.0625905 
0.00211656 0.0625905 -9.90265 
-9.91702 0.0102662 0.0320272 
0.0102662 -9.93463 0.0608441 
0.0320272 0.0608441 -9.89662 
-9.91897 0.0189155 0.0472984 
0.0189155 -9.91978 0.0649564 
0.0472984 0.0649564 -9.90953 
-9.90447 0.0055957 0.0645912 
0.0055957 -9.97435 0.0529892 
0.0645912 0.0529892 -9.86947 
-10.1579 0.224103 0.222867 
0.224103 -10.2006 0.0100969 
0.222867 0.0100969 -10.248 
-10.4034 -0.180446 0.00660388 
-0.180446 -10.1286 -0.0618858 
0.00660388 -0.0618858 -10.0744 
-10.002 0.057931 0.0119829 
0.057931 -10.2356 -0.0425658 
0.0119829 -0.0425658 -10.3688 
-10.1623 -0.062021 0.0295829 
-0.062021 -10.0465 0.031263 
0.0295829 0.031263 -10.3976 
-10.033 -0.110606 -0.331608 
-0.110606 -10.1839 0.00911266 
-0.331608 0.00911266 -10.4662 
-9.78585 -0.0109157 0.0548554 
-0.0109157 -10.2079 -0.262426 
0.0548554 -0.262426 -10.6893 
-9.8356 -0.348564 -0.0644905 
-0.348564 -10.2522 -0.0114037 
-0.0644905 -0.0114037 -10.5952 
-10.0157 0.00402221 -0.402768 
0.00402221 -10.4636 0.0540386 
-0.402768 0.0540386 -10.2037 
-9.85907 -0.0416324 -0.0543757 
-0.0416324 -9.86924 0.110541 
-0.0543757 0.110541 -9.91936 
-9.84919 -0.0406665 -0.0612443 
-0.0406665 -9.89031 0.0508939 
-0.0612443 0.0508939 -9.90819 
-9.88717 -0.0507074 -0.0549936 
-0.0507074 -9.8422 0.131228 
-0.0549936 0.131228 -9.91832 
-9.86818 -0.0492963 -0.0414862 
-0.0492963 -9.86776 0.119135 
-0.0414862 0.119135 -9.91174 
-9.9498 0.00401482 -0.0114258 
0.00401482 -9.96088 0.0412769 
-0.0114258 0.0412769 -9.92392 
-9.95399 0.0031474 -0.0101539 
0.0031474 -9.95686 0.0418553 
-0.0101539 0.0418553 -9.92375 
-9.96381 -0.00491825 -0.00982296 
-0.00491825 -9.95324 0.0368586 
-0.00982296 0.0368586 -9.91756 
-9.96353 -0.00873925 -0.00998804 
-0.00873925 -9.9464 0.033624 
-0.00998804 0.033624 -9.92469 
-10.544 0.294462 1.84644 
0.294462 -9.43821 -0.523709 
1.84644 -0.523709 -8.68366 
-9.90344 -0.611665 0.734344 
-0.611665 -9.48666 0.3088 
0.734344 0.3088 -9.27582 
-11.1002 -0.288938 0.872862 
-0.288938 -9.72322 0.41479 
0.872862 0.41479 -7.8425 
-9.03902 -0.913864 -0.174564 
-0.913864 -9.60499 -0.0858528 
-0.174564 -0.0858528 -10.0219 
-9.88993 -0.0653505 0.0415733 
-0.0653505 -9.92584 0.0394673 
0.0415733 0.0394673 -9.94613 
-9.92955 -0.0544418 0.0376387 
-0.0544418 -9.9014 0.0370294 
0.0376387 0.0370294 -9.93095 
-9.9125 -0.0478436 0.0388643 
-0.0478436 -9.9136 0.0348219 
0.0388643 0.0348219 -9.9358 
-9.9112 -0.00787315 0.00940953 
-0.00787315 -9.92923 0.0664842 
0.00940953 0.0664842 -9.92148 
-9.92876 0.0443534 0.0794181 
0.0443534 -9.93141 -0.0580288 
0.0794181 -0.0580288 -9.98871 
-9.88724 0.034545 0.072894 
0.034545 -9.96065 -0.0169142 
0.072894 -0.0169142 -10.001 
-9.85209 -0.0365315 -0.0448024 
-0.0365315 -9.987 -0.00294926 
-0.0448024 -0.00294926 -10.0098 
-9.91269 -0.023119 0.0993179 
-0.023119 -9.89656 -0.0792403 
0.0993179 -0.0792403 -10.0396 
-9.98139 -0.00776245 0.00597648 
-0.00776245 -9.9808 -0.0554032 
0.00597648 -0.0554032 -9.96568 
-9.98669 0.00860424 -0.000171041 
0.00860424 -9.98228 -0.0634231 
-0.000171041 -0.0634231 -9.9589 
-9.97421 0.0123353 -0.000449873 
0.0123353 -9.97051 -0.0469694 
-0.000449873 -0.0469694 -9.98314 
-9.97755 -0.00666804 0.00932377 
-0.00666804 -9.98126 -0.0623479 
0.00932377 -0.0623479 -9.96905 
-10.5889 0.0770978 -1.05404 
0.0770978 -9.43932 -0.712974 
-1.05404 -0.712974 -9.49912 
-9.86986 0.111444 0.603007 
0.111444 -9.07759 -0.228933 
0.603007 -0.228933 -10.5799 
-10.4479 0.77433 0.279427 
0.77433 -9.9259 0.908886 
0.279427 0.908886 -9.15358 
-9.24293 0.237622 0.743879 
0.237622 -10.2359 0.672459 
0.743879 0.672459 -10.0486 
-8.38969 -3.14627 0.507206 
-3.14627 -9.22823 -1.749 
0.507206 -1.749 -12.413 
-10.2301 -0.624518 1.08869 
-0.624518 -10.7688 -2.07311 
1.08869 -2.07311 -9.032 
-10.9156 1.13616 -0.337113 
1.13616 -9.63084 0.14178 
-0.337113 0.14178 -9.48449 
-10.1568 -0.455929 0.40895 
-0.455929 -9.45306 -1.45891 
0.40895 -1.45891 -10.4211 
-9.98064 -0.0034315 0.0150507 
-0.0034315 -9.97694 0.0540041 
0.0150507 0.0540041 -9.99212 
-9.97759 0.00346108 0.00803224 
0.00346108 -9.98716 0.0437501 
0.00803224 0.0437501 -9.98496 
-9.98648 0.000913184 0.00312434 
0.000913184 -9.98185 0.0482369 
0.00312434 0.0482369 -9.98137 
-9.98946 -0.00479939 -0.000370319 
-0.00479939 -9.98829 0.0470035 
-0.000370319 0.0470035 -9.97196 
-9.89966 0.0278247 -0.0667123 
0.0278247 -9.95513 0.0299459 
-0.0667123 0.0299459 -9.91608 
-9.89702 0.0282625 -0.0767427 
0.0282625 -9.9537 0.0356951 
-0.0767427 0.0356951 -9.92015 
-9.91186 0.0115311 -0.0591407 
0.0115311 -9.94335 0.0246137 
-0.0591407 0.0246137 -9.91566 
-9.89435 0.0328971 -0.0836335 
0.0328971 -9.94673 0.0275625 
-0.0836335 0.0275625 -9.92979 
-10.0002 -0.0767035 0.0248882 
-0.0767035 -9.96004 -0.0168416 
0.0248882 -0.0168416 -9.7322 
-9.94796 -0.163126 -0.110151 
-0.163126 -9.83593 -0.163075 
-0.110151 -0.163075 -9.90858 
-9.76215 -0.159401 0.0865561 
-0.159401 -9.99645 -0.03984 
0.0865561 -0.03984 -9.93387 
-9.84258 -0.202529 0.0639176 
-0.202529 -9.82799 -0.0496605 
0.0639176 -0.0496605 -10.0219 
-9.84971 -0.35615 0.0642155 
-0.35615 -10.0493 0.031211 
0.0642155 0.031211 -9.87014 
-9.92039 0.103503 0.250095 
0.103503 -9.76015 -0.0890338 
0.250095 -0.0890338 -10.0886 
-9.88355 -0.485918 -0.194262 
-0.485918 -9.3873 0.44904 
-0.194262 0.44904 -10.4983 
-9.90746 -0.285169 -0.193015 
-0.285169 -9.96351 0.109522 
-0.193015 0.109522 -9.8982 
-9.98086 -0.00155246 0.0466025 
-0.00155246 -9.98167 0.032156 
0.0466025 0.032156 -9.94926 
-9.96905 -0.000783318 0.0468237 
-0.000783318 -9.97005 0.0305011 
0.0468237 0.0305011 -9.9727 
-9.96589 0.00122271 0.0552141 
0.00122271 -9.96559 0.0182159 
0.0552141 0.0182159 -9.98031 
-9.97156 -0.00611186 0.05013 
-0.00611186 -9.97466 0.0290322 
0.05013 0.0290322 -9.96557 
-9.88537 0.034096 0.122998 
0.034096 -9.92731 -0.166057 
0.122998 -0.166057 -10.0328 
-9.64244 0.401749 -0.137937 
0.401749 -10.078 -0.0539613 
-0.137937 -0.0539613 -10.125 
-10.0875 0.0308169 -0.068092 
0.0308169 -9.79419 -0.113396 
-0.068092 -0.113396 -9.96378 
-9.91073 0.122765 0.0374464 
0.122765 -9.90356 -0.0963063 
0.0374464 -0.0963063 -10.0311 
-10.1748 0.191981 0.0364219 
0.191981 -9.89996 0.122618 
0.0364219 0.122618 -10.3353 
-10.1715 -0.00228427 0.00459848 
-0.00228427 -10.0079 -0.0216447 
0.00459848 -0.0216447 -10.2307 
-10.1747 0.0432296 -0.0410953 
0.0432296 -9.99873 0.0483249 
-0.0410953 0.0483249 -10.2366 
-10.1423 -0.0742137 0.0992422 
-0.0742137 -10.036 -0.0755272 
0.0992422 -0.0755272 -10.2319 
-9.77977 -0.0292853 0.15131 
-0.0292853 -9.92686 -0.0299963 
0.15131 -0.0299963 -9.99006 
-9.74462 -0.0284318 0.157756 
-0.0284318 -9.97918 -0.0610229 
0.157756 -0.0610229 -9.97289 
-9.79158 -0.0294242 0.162644 
-0.0294242 -9.9294 -0.000492818 
0.162644 -0.000492818 -9.97572 
-9.77316 -0.0478084 0.144609 
-0.0478084 -9.90241 -0.030815 
0.144609 -0.030815 -10.0211 
-9.89053 0.0653104 -0.035243 
0.0653104 -9.87358 -0.0117371 
-0.035243 -0.0117371 -9.98177 
-9.86958 0.0615909 -0.035855 
0.0615909 -9.87488 -0.00463094 
-0.035855 -0.00463094 -10.0014 
-9.9181 0.0417395 -0.060529 
0.0417395 -9.89064 -0.00609293 
-0.060529 -0.00609293 -9.93715 
-9.93671 0.0290772 -0.0165679 
0.0290772 -9.88334 -0.0158911 
-0.0165679 -0.0158911 -9.92584 
-9.92961 -0.144164 0.0614452 
-0.144164 -9.99916 0.112974 
0.0614452 0.112974 -9.97071 
-9.99594 -0.0431231 -0.0425961 
-0.0431231 -9.92241 0.0981245 
-0.0425961 0.0981245 -9.98113 
-9.73626 -0.213359 -0.0925433 
-0.213359 -9.9994 0.0399867 
-0.0925433 0.0399867 -10.1638 
-9.96762 -0.143384 0.05805 
-0.143384 -9.93905 0.161032 
0.05805 0.161032 -9.9928 
-9.85949 0.0294186 0.174566 
0.0294186 -9.97672 -0.0764525 
0.174566 -0.0764525 -9.8881 
-9.88427 -0.0424564 0.19557 
-0.0424564 -10.0037 -0.120219 
0.19557 -0.120219 -9.83635 
-9.90188 0.0525188 0.17837 
0.0525188 -10.0514 0.0269307 
0.17837 0.0269307 -9.77105 
-9.93845 0.0617418 0.0392838 
0.0617418 -9.86973 -0.00378809 
0.0392838 -0.00378809 -9.91613 
-9.96802 -0.0029029 -0.008451 
-0.0029029 -9.96779 -0.00768711 
-0.008451 -0.00768711 -9.98352 
-9.97021 -0.00746802 -0.00355005 
-0.00746802 -9.97341 0.00454499 
-0.00355005 0.00454499 -9.97571 
-9.96606 -0.00476401 -0.00483035 
-0.00476401 -9.96245 0.000459767 
-0.00483035 0.000459767 -9.99082 
-9.97313 -0.00759137 0.00465427 
-0.00759137 -9.9717 -0.00199058 
0.00465427 -0.00199058 -9.97449 
-9.91223 0.0099064 0.0321495 
0.0099064 -9.89539 0.026798 
0.0321495 0.026798 -9.97559 
-9.92338 -0.0121631 0.048705 
-0.0121631 -9.89978 0.0474342 
0.048705 0.0474342 -9.96005 
-9.90338 0.0134335 0.0502937 
0.0134335 -9.90265 0.0509818 
0.0502937 0.0509818 -9.97718 
-9.9049 0.00835972 0.03949 
0.00835972 -9.90811 0.0568785 
0.03949 0.0568785 -9.9702 
-9.91384 -0.0252416 -0.0309809 
-0.0252416 -9.93343 0.0174639 
-0.0309809 0.0174639 -9.98513 
-9.90254 -0.03437 -0.0457541 
-0.03437 -9.93121 -0.00244445 
-0.0457541 -0.00244445 -9.99865 
-9.93139 -0.0291065 -0.0119427 
-0.0291065 -9.93086 -0.034887 
-0.0119427 -0.034887 -9.97016 
-9.9146 -0.017754 -0.000790957 
-0.017754 -9.93162 -0.0291507 
-0.000790957 -0.0291507 -9.98617 
-9.94236 0.0507397 -0.232553 
0.0507397 -9.99188 -0.0165846 
-0.232553 -0.0165846 -9.77622 
-9.99189 0.029436 -0.227424 
0.029436 -9.88738 -0.0526801 
-0.227424 -0.0526801 -9.83119 
-9.63472 0.1941 -0.4185 
0.1941 -10.1001 -0.271348 
-0.4185 -0.271348 -9.97567 
-9.7625 -0.157275 0.0562934 
-0.157275 -9.81465 0.0431889 
0.0562934 0.0431889 -10.1333 
-10.0735 -0.0731182 -0.175172 
-0.0731182 -9.75194 -0.115927 
-0.175172 -0.115927 -9.20066 
-10.1124 -0.0415691 -0.264344 
-0.0415691 -9.7107 -0.0989992 
-0.264344 -0.0989992 -9.20298 
-9.95124 -0.0944826 -0.254929 
-0.0944826 -9.90073 0.124631 
-0.254929 0.124631 -9.17412 
-10.0685 -0.159117 -0.251743 
-0.159117 -9.7353 -0.0741386 
-0.251743 -0.0741386 -9.22229 
-9.9406 0.00426128 0.0756037 
0.00426128 -9.9414 0.00852163 
0.0756037 0.00852163 -9.93408 
-9.94043 -0.000189341 0.0833901 
-0.000189341 -9.9436 0.00694157 
0.0833901 0.00694157 -9.93205 
-9.94579 0.0108733 0.0713829 
0.0108733 -9.95553 0.0100251 
0.0713829 0.0100251 -9.91477 
-9.93289 0.00537103 0.0724421 
0.00537103 -9.9301 0.0100258 
0.0724421 0.0100258 -9.95309 
-10.4571 -0.0295348 -0.159081 
-0.0295348 -9.48552 -0.472584 
-0.159081 -0.472584 -10.3156 
-9.97926 -0.0974166 0.0173886 
-0.0974166 -9.90317 -0.225494 
0.0173886 -0.225494 -10.3758 
-10.105 -0.297856 0.0225407 
-0.297856 -9.92926 -0.10615 
0.0225407 -0.10615 -10.2239 
-10.2442 -0.202054 0.2422 
-0.202054 -9.80182 -0.204641 
0.2422 -0.204641 -10.2122 
-9.97656 -0.0104372 -0.0295773 
-0.0104372 -9.97918 -0.015827 
-0.0295773 -0.015827 -9.96256 
-9.97158 -0.00693018 -0.023254 
-0.00693018 -9.97035 -0.0146085 
-0.023254 -0.0146085 -9.97637 
-9.97099 0.00139112 -0.0316887 
0.00139112 -9.96892 -0.0198178 
-0.0316887 -0.0198178 -9.97838 
-9.98481 -0.0107542 -0.0236523 
-0.0107542 -9.9744 -0.0233138 
-0.0236523 -0.0233138 -9.95908 
-9.81182 0.139293 -0.332598 
0.139293 -9.84376 -0.0397401 
-0.332598 -0.0397401 -10.0659 
-10.0429 0.0723277 -0.247427 
0.0723277 -9.82175 -0.0492216 
-0.247427 -0.0492216 -9.85675 
-9.84469 0.0763594 -0.240036 
0.0763594 -9.86615 -0.0490999 
-0.240036 -0.0490999 -10.0106 
-9.76374 0.0534361 0.0264738 
0.0534361 -10.0453 0.0826122 
0.0264738 0.0826122 -9.91238 
-9.94946 0.000313216 -0.0518448 
0.000313216 -9.95078 -0.0566287 
-0.0518448 -0.0566287 -9.96795 
-9.95419 -0.00618448 -0.0485271 
-0.00618448 -9.95062 -0.0564228 
-0.0485271 -0.0564228 -9.96339 
-9.95507 -0.00301104 -0.0555581 
-0.00301104 -9.95912 -0.0420898 
-0.0555581 -0.0420898 -9.95401 
-9.94859 0.00381072 -0.0578354 
0.00381072 -9.96138 -0.0386058 
-0.0578354 -0.0386058 -9.95823 
-10.0211 -0.0634279 -0.022773 
-0.0634279 -9.78985 0.0672696 
-0.022773 0.0672696 -10.1065 
-9.99935 -0.0498439 -0.0125772 
-0.0498439 -9.86044 0.0516829 
-0.0125772 0.0516829 -10.0576 
-9.99744 -0.0215782 0.00372067 
-0.0215782 -9.90362 0.0510174 
0.00372067 0.0510174 -10.0164 
-9.95305 -0.0607581 -0.0205679 
-0.0607581 -9.94487 0.0542268 
-0.0205679 0.0542268 -10.0195 
-9.80012 -0.0156656 0.232642 
-0.0156656 -9.99227 -0.215702 
0.232642 -0.215702 -9.80717 
-9.78754 0.0560335 0.109581 
0.0560335 -9.96742 -0.0722437 
0.109581 -0.0722437 -9.8446 
-9.93945 -0.0128784 0.188149 
-0.0128784 -9.87347 -0.036642 
0.188149 -0.036642 -9.78664 
-9.82296 -0.208634 0.121104 
-0.208634 -9.95186 -0.19891 
0.121104 -0.19891 -9.82474 
-10.0663 0.00381724 -0.00197645 
0.00381724 -10.073 0.0253871 
-0.00197645 0.0253871 -10.2566 
-10.0892 -0.0542672 0.00677703 
-0.0542672 -10.0849 0.0343531 
0.00677703 0.0343531 -10.2217 
-10.0815 0.00175869 -0.00588301 
0.00175869 -10.094 0.0367548 
-0.00588301 0.0367548 -10.2203 
-10.0439 -0.00420254 0.0242211 
-0.00420254 -10.1822 -0.0159524 
0.0242211 -0.0159524 -10.1697 
-9.95891 0.00601517 0.0545946 
0.00601517 -9.95452 -0.00396962 
0.0545946 -0.00396962 -9.92376 
-9.96166 0.000209093 0.0598281 
0.000209093 -9.95743 -0.00537377 
0.0598281 -0.00537377 -9.9181 
-9.94645 0.000551225 0.0561526 
0.000551225 -9.95033 0.012775 
0.0561526 0.012775 -9.94041 
-9.96068 0.00564178 0.0558465 
0.00564178 -9.95136 -0.000880595 
0.0558465 -0.000880595 -9.92515 
-9.93659 -0.0275628 -0.0502618 
-0.0275628 -9.9051 -0.0807801 
-0.0502618 -0.0807801 -9.89849 
-9.94009 -0.0351974 -0.0893494 
-0.0351974 -9.87467 -0.0798598 
-0.0893494 -0.0798598 -9.92542 
-9.97127 -0.0216413 -0.0429936 
-0.0216413 -9.90885 -0.0437996 
-0.0429936 -0.0437996 -9.86006 
-9.93727 -0.0313572 -0.0516698 
-0.0313572 -9.91404 -0.0863275 
-0.0516698 -0.0863275 -9.88886 
-9.75677 0.135268 -0.108461 
0.135268 -10.0902 0.32339 
-0.108461 0.32339 -10.6372 
-10.0432 0.0401631 0.0140405 
0.0401631 -10.228 -0.161226 
0.0140405 -0.161226 -10.213 
-10.0538 -0.180638 0.0597429 
-0.180638 -10.105 0.00340732 
0.0597429 0.00340732 -10.3252 
-10.0251 -0.262577 0.1528 
-0.262577 -10.0155 -0.0954407 
0.1528 -0.0954407 -10.4435 
-9.91648 -0.144363 0.144835 
-0.144363 -9.92154 -0.0966073 
0.144835 -0.0966073 -9.88222 
-9.72597 -0.227943 0.153636 
-0.227943 -9.96904 -0.271261 
0.153636 -0.271261 -10.0252 
-9.73585 -0.232896 0.208544 
-0.232896 -10.0823 -0.128056 
0.208544 -0.128056 -9.9021 
-9.86551 -0.208675 0.27492 
-0.208675 -9.97081 -0.140159 
0.27492 -0.140159 -9.88393 
-10.1674 0.0102084 -0.0599996 
0.0102084 -10.2275 -0.0229444 
-0.0599996 -0.0229444 -10.0576 
-10.1108 -0.00838053 -0.0509372 
-0.00838053 -10.1224 0.0151568 
-0.0509372 0.0151568 -10.2192 
-10.0947 -0.0142239 -0.0453587 
-0.0142239 -10.1027 0.0572475 
-0.0453587 0.0572475 -10.255 
-10.1411 -0.0216981 0.0241482 
-0.0216981 -10.0841 -0.0140632 
0.0241482 -0.0140632 -10.2272 
-7.22695 1.778 -0.703723 
1.778 -10.9983 0.577967 
-0.703723 0.577967 -5.76426 
-9.55741 0.140221 -0.925956 
0.140221 -10.474 0.845544 
-0.925956 0.845544 -3.95808 
-8.46432 -3.14313 -2.43975 
-3.14313 -7.11565 0.494044 
-2.43975 0.494044 -8.40956 
-8.23847 2.17393 0.174238 
2.17393 -10.2499 -2.23421 
0.174238 -2.23421 -5.50117 
-9.89346 -0.0233045 0.023411 
-0.0233045 -9.9225 0.0171995 
0.023411 0.0171995 -9.96732 
-9.91499 -0.0454043 0.0146844 
-0.0454043 -9.90982 0.0138804 
0.0146844 0.0138804 -9.95847 
-9.90433 -0.0244483 0.0180662 
-0.0244483 -9.91727 0.00854786 
0.0180662 0.00854786 -9.96168 
-9.91301 -0.0382857 0.00314455 
-0.0382857 -9.90953 0.0216541 
0.00314455 0.0216541 -9.96074 
-9.97315 0.00243647 -0.0691308 
0.00243647 -9.96803 0.0195797 
-0.0691308 0.0195797 -9.97532 
-9.97071 0.000685263 -0.0744264 
0.000685263 -9.97623 0.00566173 
-0.0744264 0.00566173 -9.96957 
-9.97661 -0.00101842 -0.0758708 
-0.00101842 -9.96848 0.0134199 
-0.0758708 0.0134199 -9.97141 
-9.98151 0.00377076 -0.0755182 
0.00377076 -9.97092 0.0034661 
-0.0755182 0.0034661 -9.96407 
-9.86112 0.0426094 -0.161903 
0.0426094 -9.83501 0.0959815 
-0.161903 0.0959815 -9.41295 
-10.4021 -0.181532 -0.229557 
-0.181532 -9.79658 0.138256 
-0.229557 0.138256 -8.91037 
-10.1786 0.0344713 0.251183 
0.0344713 -9.54241 0.0840876 
0.251183 0.0840876 -9.38806 
-10.5061 -0.000822735 -0.164624 
-0.000822735 -9.75348 -0.065874 
-0.164624 -0.065874 -8.84949 
-10.1564 -0.10315 -0.0631597 
-0.10315 -9.9832 -0.0521709 
-0.0631597 -0.0521709 -10.1133 
-10.036 0.135892 -0.0717825 
0.135892 -10.0065 0.035111 
-0.0717825 0.035111 -10.2104 
-10.1047 -0.0684012 -0.025767 
-0.0684012 -9.97218 -0.00122057 
-0.025767 -0.00122057 -10.176 
-10.0535 0.00862906 0.0686448 
0.00862906 -10.104 -0.00673687 
0.0686448 -0.00673687 -10.0954 
-9.94303 -0.0162447 -0.0811747 
-0.0162447 -9.92142 -0.0786066 
-0.0811747 -0.0786066 -9.93782 
-9.95121 -0.0318444 -0.0637645 
-0.0318444 -9.91367 -0.0703572 
-0.0637645 -0.0703572 -9.93739 
-9.93898 -0.0285481 -0.071134 
-0.0285481 -9.93531 -0.0824102 
-0.071134 -0.0824102 -9.92797 
-9.93715 -0.0265477 -0.076031 
-0.0265477 -9.91395 -0.0744 
-0.076031 -0.0744 -9.95116 
-9.88659 0.0124224 0.0534206 
0.0124224 -9.88438 0.0403419 
0.0534206 0.0403419 -9.92732 
-9.93668 -0.0107804 0.0046624 
-0.0107804 -9.91488 0.0717369 
0.0046624 0.0717369 -9.84672 
-9.87469 0.0229382 0.0407664 
0.0229382 -9.88591 0.0853427 
0.0407664 0.0853427 -9.93768 
-9.92365 0.040209 0.0232458 
0.040209 -9.86501 0.0936995 
0.0232458 0.0936995 -9.90963 
-9.89118 -0.00712677 -0.0939242 
-0.00712677 -9.95115 0.0491493 
-0.0939242 0.0491493 -9.92289 
-9.92638 -0.00863896 -0.123774 
-0.00863896 -9.9103 0.0345359 
-0.123774 0.0345359 -9.92854 
-9.87699 0.0627148 -0.134108 
0.0627148 -10.0399 0.134437 
-0.134108 0.134437 -9.8483 
-9.85268 -0.135109 -0.142983 
-0.135109 -9.9077 0.116017 
-0.142983 0.116017 -10.0048 
-9.90807 0.0283919 -0.0800351 
0.0283919 -9.88287 -0.0103764 
-0.0800351 -0.0103764 -9.94484 
-9.88187 -0.0141365 -0.0418804 
-0.0141365 -9.91164 0.0789487 
-0.0418804 0.0789487 -9.94228 
-9.90518 -0.0311671 -0.020034 
-0.0311671 -9.90287 0.0269314 
-0.020034 0.0269314 -9.92773 
-9.90615 -0.0268938 -0.100306 
-0.0268938 -9.86285 0.0329056 
-0.100306 0.0329056 -9.96678 
-10.1727 0.020024 -0.156056 
0.020024 -10.594 -0.0947554 
-0.156056 -0.0947554 -11.1168 
-10.9322 -0.0558373 0.152667 
-0.0558373 -10.3647 -0.0970592 
0.152667 -0.0970592 -10.5865 
-10.7975 0.0280323 0.246888 
0.0280323 -10.2782 -0.0694165 
0.246888 -0.0694165 -10.8078 
-10.5429 -0.136399 0.392086 
-0.136399 -10.3194 0.123558 
0.392086 0.123558 -11.0212 
-9.84654 0.177445 0.103695 
0.177445 -10.0913 -0.0670483 
0.103695 -0.0670483 -10.1566 
-9.85059 0.293375 0.224097 
0.293375 -9.97972 0.187865 
0.224097 0.187865 -10.2641 
-10.0493 0.0262684 -0.117678 
0.0262684 -9.84183 -0.023763 
-0.117678 -0.023763 -10.2032 
-9.90299 0.129052 0.204234 
0.129052 -10.0428 -0.00887582 
0.204234 -0.00887582 -10.1486 
-9.94931 0.268766 0.000132142 
0.268766 -9.44322 -0.247469 
0.000132142 -0.247469 -10.2659 
-10.0873 0.30496 -0.0142044 
0.30496 -9.40375 -0.224245 
-0.0142044 -0.224245 -10.1674 
-9.94073 -0.237423 -0.0743438 
-0.237423 -9.76143 -0.411767 
-0.0743438 -0.411767 -9.9563 
-9.88424 0.370576 -0.197 
0.370576 -9.6812 -0.0504658 
-0.197 -0.0504658 -10.093 
-10.1102 -0.0579843 0.0356821 
-0.0579843 -9.88879 -0.344578 
0.0356821 -0.344578 -9.87617 
-10.2756 0.123301 0.0827529 
0.123301 -9.88704 -0.288287 
0.0827529 -0.288287 -9.71252 
-9.9012 0.067187 0.0877665 
0.067187 -10.0451 -0.338572 
0.0877665 -0.338572 -9.92884 
-10.2094 -0.0697569 0.0950643 
-0.0697569 -9.92005 -0.337475 
0.0950643 -0.337475 -9.74572 
-9.55341 0.42045 -0.942628 
0.42045 -9.98588 -0.411108 
-0.942628 -0.411108 -11.6529 
-11.0766 0.302186 0.0447362 
0.302186 -11.8675 0.0178999 
0.0447362 0.0178999 -8.24803 
-9.44043 0.846739 -0.955452 
0.846739 -9.95009 -0.888585 
-0.955452 -0.888585 -11.8016 
-9.50159 0.699969 -0.231159 
0.699969 -9.88102 0.00910898 
-0.231159 0.00910898 -11.8095 
-9.73645 -0.220735 -0.120519 
-0.220735 -10.1424 0.0927614 
-0.120519 0.0927614 -10.0084 
-9.80456 -0.0266976 -0.202314 
-0.0266976 -10.1426 0.0553125 
-0.202314 0.0553125 -9.94007 
-9.65325 -0.0389672 -0.103764 
-0.0389672 -10.1449 0.0504514 
-0.103764 0.0504514 -10.0891 
-9.82031 -0.0806394 -0.300099 
-0.0806394 -10.0781 -0.0672893 
-0.300099 -0.0672893 -9.98875 
-10.1496 0.200092 -0.0741884 
0.200092 -9.98546 -0.0488283 
-0.0741884 -0.0488283 -9.66026 
-9.88258 -0.58288 0.345436 
-0.58288 -9.61877 -0.317767 
0.345436 -0.317767 -10.294 
-9.60467 -0.273211 0.0604551 
-0.273211 -9.9466 0.00707549 
0.0604551 0.00707549 -10.2441 
-9.71547 -0.201719 0.190009 
-0.201719 -9.98068 -0.0177065 
0.190009 -0.0177065 -10.0992 
-9.84256 0.0189956 -0.147229 
0.0189956 -10.0092 -0.0254223 
-0.147229 -0.0254223 -9.90901 
-9.93318 0.0668777 -0.101657 
0.0668777 -9.93112 0.0453127 
-0.101657 0.0453127 -9.89642 
-9.86776 0.052363 -0.0955888 
0.052363 -9.97788 0.0159786 
-0.0955888 0.0159786 -9.91509 
-9.82578 0.224705 -0.130648 
0.224705 -9.89595 0.0192532 
-0.130648 0.0192532 -10.039 
-9.93321 0.015771 0.0386203 
0.015771 -9.91994 -0.0446249 
0.0386203 -0.0446249 -9.92389 
-9.91911 -0.0222689 0.0670958 
-0.0222689 -9.91562 -0.0458194 
0.0670958 -0.0458194 -9.94231 
-9.92269 0.001488 0.0521734 
0.001488 -9.92049 -0.0399407 
0.0521734 -0.0399407 -9.93385 
-9.90357 -0.00401593 0.0541639 
-0.00401593 -9.92103 -0.0276532 
0.0541639 -0.0276532 -9.95244 
-9.94201 0.0084556 0.0200351 
0.0084556 -9.92574 0.00639415 
0.0200351 0.00639415 -10.2186 
-9.93564 -0.000463808 0.00763122 
-0.000463808 -9.94781 -0.022646 
0.00763122 -0.022646 -10.2029 
-9.97901 -0.00130274 0.0108306 
-0.00130274 -9.9513 0.0259316 
0.0108306 0.0259316 -10.1561 
-9.94396 0.0016133 0.00756182 
0.0016133 -9.90197 0.00770182 
0.00756182 0.00770182 -10.2404 
-9.94965 0.0120189 -0.018513 
0.0120189 -9.95522 -0.00575064 
-0.018513 -0.00575064 -9.94417 
-9.95157 0.0185405 -0.0180199 
0.0185405 -9.95023 0.0126228 
-0.0180199 0.0126228 -9.94723 
-9.93659 0.00614205 -0.0138071 
0.00614205 -9.95593 0.0130377 
-0.0138071 0.0130377 -9.95651 
-9.95148 0.0339908 -0.000979964 
0.0339908 -9.951 -0.00454529 
-0.000979964 -0.00454529 -9.94656 
-9.21741 -0.0729026 0.157556 
-0.0729026 -9.28992 0.689769 
0.157556 0.689769 -9.50743 
-10.0359 -0.441633 0.0149334 
-0.441633 -10.8605 -0.198941 
0.0149334 -0.198941 -7.11838 
-9.66658 0.12483 0.383321 
0.12483 -10.2833 1.63255 
0.383321 1.63255 -8.06483 
-9.64808 -0.280841 0.288701 
-0.280841 -10.0672 0.787355 
0.288701 0.787355 -8.29944 
-10.1031 -0.0020093 -0.0305406 
-0.0020093 -10.0544 -0.0293137 
-0.0305406 -0.0293137 -10.2834 
-10.1041 -0.0232501 -0.0092064 
-0.0232501 -10.0544 -0.00358434 
-0.0092064 -0.00358434 -10.2824 
-10.1028 0.0132082 0.000557141 
0.0132082 -10.0851 -0.00992746 
0.000557141 -0.00992746 -10.253 
-10.1584 0.0328135 0.0174624 
0.0328135 -10.0483 -0.0305266 
0.0174624 -0.0305266 -10.2342 
-9.9609 -0.0589395 -0.0218144 
-0.0589395 -10.1165 -0.0312187 
-0.0218144 -0.0312187 -10.0836 
-10.1038 0.0218734 0.0467236 
0.0218734 -9.81557 -0.0469289 
0.0467236 -0.0469289 -10.2417 
-10.0282 -0.0489484 -0.0157515 
-0.0489484 -9.97898 0.0888366 
-0.0157515 0.0888366 -10.1538 
-10.0477 0.0102951 -0.0158371 
0.0102951 -9.95669 0.0273518 
-0.0158371 0.0273518 -10.1566 
-11.0912 -0.0531489 0.10078 
-0.0531489 -9.62525 0.25636 
0.10078 0.25636 -10.8577 
-11.4623 -0.992137 0.21001 
-0.992137 -11.4557 1.08755 
0.21001 1.08755 -8.65622 
-9.29399 0.180215 -0.593564 
0.180215 -9.2317 -1.1171 
-0.593564 -1.1171 -13.0485 
-10.8549 0.931109 1.18223 
0.931109 -8.2901 0.970135 
1.18223 0.970135 -12.4292 
-10.072 -0.123372 0.0656953 
-0.123372 -10.0347 -0.138537 
0.0656953 -0.138537 -9.91734 
-9.94796 -0.0821297 0.0439062 
-0.0821297 -10.0563 -0.101097 
0.0439062 -0.101097 -10.0197 
-10.0856 -0.189079 0.0844246 
-0.189079 -10.0017 -0.230203 
0.0844246 -0.230203 -9.93668 
-10.0502 -0.075447 0.00527918 
-0.075447 -10.1539 -0.164745 
0.00527918 -0.164745 -9.81992 
-9.99949 0.165503 -0.134694 
0.165503 -9.86252 0.0283157 
-0.134694 0.0283157 -9.45519 
-9.44042 -0.464504 -0.966002 
-0.464504 -9.68029 -0.148205 
-0.966002 -0.148205 -10.1965 
-10.4806 -0.17338 -0.696562 
-0.17338 -9.76222 0.214679 
-0.696562 0.214679 -9.07433 
-10.1198 -0.176724 -0.589265 
-0.176724 -9.84793 0.0087037 
-0.589265 0.0087037 -9.34945 
-9.82554 0.299865 0.256436 
0.299865 -9.95957 -0.16955 
0.256436 -0.16955 -9.72883 
-9.73604 -0.143342 0.276703 
-0.143342 -9.63709 -0.157506 
0.276703 -0.157506 -10.1408 
-10.214 -0.439064 0.827529 
-0.439064 -9.90287 -0.698588 
0.827529 -0.698588 -9.39702 
-9.85381 -0.236806 -0.00945647 
-0.236806 -10.2341 -0.488977 
-0.00945647 -0.488977 -9.42599 
-9.99232 0.124261 -0.0170691 
0.124261 -9.84212 0.118475 
-0.0170691 0.118475 -10.2405 
-10.0099 0.0387008 0.041284 
0.0387008 -9.76614 0.131769 
0.041284 0.131769 -10.2989 
-10.0111 0.109125 0.0569251 
0.109125 -9.78138 0.107481 
0.0569251 0.107481 -10.2825 
-10.0502 0.0617181 0.0280514 
0.0617181 -9.76841 0.148006 
0.0280514 0.148006 -10.2563 
-9.97329 -0.00148647 0.0404176 
-0.00148647 -9.97505 0.0527276 
0.0404176 0.0527276 -9.97488 
-9.97189 -0.00068098 0.0423528 
-0.00068098 -9.97139 0.0567696 
0.0423528 0.0567696 -9.97994 
-9.97407 -0.00103869 0.0393885 
-0.00103869 -9.97295 0.0578354 
0.0393885 0.0578354 -9.9762 
-9.97718 -0.00312859 0.0408111 
-0.00312859 -9.96717 0.0591931 
0.0408111 0.0591931 -9.97886 
-9.74816 -0.10035 -0.223095 
-0.10035 -9.86518 -0.0438691 
-0.223095 -0.0438691 -10.1471 
-9.5756 -0.0613903 0.034875 
-0.0613903 -10.0225 -0.0304605 
0.034875 -0.0304605 -10.1623 
-9.87172 -0.00164388 0.214133 
-0.00164388 -10.1265 -0.0689416 
0.214133 -0.0689416 -9.76225 
-9.69906 -0.124562 -0.0248889 
-0.124562 -9.91707 0.0218828 
-0.0248889 0.0218828 -10.1443 
-10.0541 -0.159653 0.129847 
-0.159653 -9.9094 -0.0878683 
0.129847 -0.0878683 -9.76282 
-10.0328 -0.046315 0.234328 
-0.046315 -10.0185 -0.0698731 
0.234328 -0.0698731 -9.67497 
-10.0863 -0.0734642 0.202768 
-0.0734642 -9.96481 -0.0477095 
0.202768 -0.0477095 -9.67527 
-9.9794 -0.069679 0.192624 
-0.069679 -9.98608 -0.0515094 
0.192624 -0.0515094 -9.76086 
-9.95073 -0.00142981 0.00815563 
-0.00142981 -9.94031 -0.0865603 
0.00815563 -0.0865603 -9.94547 
-9.94854 0.00829301 0.000636864 
0.00829301 -9.91511 -0.0834461 
0.000636864 -0.0834461 -9.97287 
-9.94837 -0.00822359 0.00471582 
-0.00822359 -9.97083 -0.1024 
0.00471582 -0.1024 -9.91732 
-9.94442 -0.00214586 0.0231271 
-0.00214586 -9.95872 -0.0800562 
0.0231271 -0.0800562 -9.93338 
-9.99626 -0.0776517 0.0723091 
-0.0776517 -10.129 0.0746404 
0.0723091 0.0746404 -10.2514 
-10.0604 -0.0506912 -0.0137197 
-0.0506912 -10.0469 -0.059677 
-0.0137197 -0.059677 -10.2693 
-10.0215 -0.0173353 0.0891365 
-0.0173353 -10.1043 -0.00642426 
0.0891365 -0.00642426 -10.2509 
-10.0492 0.0502604 -0.020789 
0.0502604 -10.1304 0.062575 
-0.020789 0.062575 -10.197 
-9.90639 0.0107809 -0.0932671 
0.0107809 -9.89804 -0.0464653 
-0.0932671 -0.0464653 -9.88746 
-9.85503 0.0389219 -0.00478886 
0.0389219 -9.8882 -0.0384958 
-0.00478886 -0.0384958 -9.94865 
-9.83715 0.0179449 -0.0587323 
0.0179449 -9.885 -0.107096 
-0.0587323 -0.107096 -9.96973 
-9.88667 0.034149 -0.0604234 
0.034149 -9.87554 -0.0591029 
-0.0604234 -0.0591029 -9.92968 
-9.93615 0.0583917 -0.305926 
0.0583917 -9.42198 0.151194 
-0.305926 0.151194 -9.76824 
-9.85002 -0.185842 0.380783 
-0.185842 -9.6139 0.0390424 
0.380783 0.0390424 -9.66244 
-10.1018 -0.15977 -0.07497 
-0.15977 -10.1491 0.347179 
-0.07497 0.347179 -8.8755 
-9.82065 0.223141 -0.260964 
0.223141 -9.90676 0.181784 
-0.260964 0.181784 -9.39896 
-9.72616 0.037136 -0.248085 
0.037136 -10.2746 -0.0679598 
-0.248085 -0.0679598 -10.3668 
-10.0056 -0.0350976 0.0976914 
-0.0350976 -10.1296 0.0739785 
0.0976914 0.0739785 -10.2323 
-10.2149 -0.00864824 0.160563 
-0.00864824 -10.0232 -0.0276356 
0.160563 -0.0276356 -10.1294 
-9.84671 -0.0416293 0.116085 
-0.0416293 -10.0201 0.0705194 
0.116085 0.0705194 -10.5008 
-9.7111 0.0848577 0.0334477 
0.0848577 -9.63698 0.730008 
0.0334477 0.730008 -9.63141 
-9.5157 0.190777 -0.38513 
0.190777 -10.1896 0.825717 
-0.38513 0.825717 -9.2742 
-9.74304 -0.0531176 0.290333 
-0.0531176 -9.28431 0.963685 
0.290333 0.963685 -9.95214 
-9.62609 0.550334 0.074755 
0.550334 -9.27311 0.401709 
0.074755 0.401709 -10.0803 
-9.67586 -0.0713309 -0.115168 
-0.0713309 -9.91186 0.0433759 
-0.115168 0.0433759 -9.87863 
-9.75771 0.00449034 -0.188778 
0.00449034 -9.79054 -0.0258712 
-0.188778 -0.0258712 -9.9181 
-9.82522 0.0174757 -0.164688 
0.0174757 -9.82763 0.00804446 
-0.164688 0.00804446 -9.81349 
-9.68538 -0.00865057 -0.212595 
-0.00865057 -9.90047 -3.31953e-05 
-0.212595 -3.31953e-05 -9.88051 
-9.73712 -0.170326 0.0611706 
-0.170326 -10.0444 0.219851 
0.0611706 0.219851 -10.5277 
-10.4127 -0.184621 0.0478908 
-0.184621 -9.5779 0.141813 
0.0478908 0.141813 -10.3187 
-10.3222 -0.253437 -0.103518 
-0.253437 -9.5334 -0.10848 
-0.103518 -0.10848 -10.4537 
-9.84676 -0.103063 -0.162314 
-0.103063 -10.2383 -0.348603 
-0.162314 -0.348603 -10.2242 
-9.97166 -0.00128884 0.0162468 
-0.00128884 -10.0077 0.0481284 
0.0162468 0.0481284 -10.0344 
-10.024 0.0286042 0.00470533 
0.0286042 -9.98045 -0.0189988 
0.00470533 -0.0189988 -10.0093 
-10.0349 -0.0672989 -0.00441648 
-0.0672989 -9.91106 -0.0164245 
-0.00441648 -0.0164245 -10.0678 
-9.91681 -0.00977617 -0.00475009 
-0.00977617 -9.97495 -0.00991934 
-0.00475009 -0.00991934 -10.122 
-9.98624 0.00557722 -0.0433953 
0.00557722 -9.96637 0.0179631 
-0.0433953 0.0179631 -9.98202 
-9.98105 -0.00416292 -0.0477424 
-0.00416292 -9.97669 0.0164706 
-0.0477424 0.0164706 -9.97688 
-9.98896 0.00580786 -0.0386297 
0.00580786 -9.97435 0.0180361 
-0.0386297 0.0180361 -9.97131 
-9.98142 -0.000267321 -0.0484678 
-0.000267321 -9.98233 0.0162837 
-0.0484678 0.0162837 -9.97088 
-10.2 -0.0295584 0.0436784 
-0.0295584 -10.1607 0.0436049 
0.0436784 0.0436049 -10.1314 
-10.0673 0.0422918 0.0118244 
0.0422918 -10.1998 -0.00793198 
0.0118244 -0.00793198 -10.2249 
-10.1138 0.0181312 0.0679029 
0.0181312 -10.1681 0.0237552 
0.0679029 0.0237552 -10.2102 
-10.1262 -0.00435231 0.0469182 
-0.00435231 -10.1628 0.0419978 
0.0469182 0.0419978 -10.2031 
-9.8891 -0.0401324 -0.0307019 
-0.0401324 -9.92338 0.0292732 
-0.0307019 0.0292732 -9.97895 
-9.92642 0.00502884 -0.034937 
0.00502884 -9.91762 0.035324 
-0.034937 0.035324 -9.9474 
-9.92852 0.0307165 -0.0344231 
0.0307165 -9.92976 0.0383642 
-0.0344231 0.0383642 -9.93316 
-9.94451 -0.0107162 -0.0669556 
-0.0107162 -9.88946 0.0427941 
-0.0669556 0.0427941 -9.95747 
-9.69853 -0.739723 0.464551 
-0.739723 -9.53183 -0.654181 
0.464551 -0.654181 -9.88199 
-8.98392 -0.721261 0.595653 
-0.721261 -9.83945 -0.178769 
0.595653 -0.178769 -10.289 
-9.45441 -0.656309 0.181213 
-0.656309 -10.1667 -0.63065 
0.181213 -0.63065 -9.49123 
-9.2358 -0.640073 0.630964 
-0.640073 -10.0016 -0.127459 
0.630964 -0.127459 -9.87498 
-9.81765 -0.00267012 -0.2136 
-0.00267012 -9.93154 -0.120161 
-0.2136 -0.120161 -9.46656 
-9.85746 0.0343945 -0.167744 
0.0343945 -9.91556 -0.0297563 
-0.167744 -0.0297563 -9.44273 
-10.1162 0.0633992 -0.173049 
0.0633992 -9.86608 -0.192812 
-0.173049 -0.192812 -9.23343 
-10.0217 0.0637678 0.139766 
0.0637678 -9.53729 -0.195673 
0.139766 -0.195673 -9.65671 
-9.913 -0.00813266 -0.0608273 
-0.00813266 -9.94041 -0.0387013 
-0.0608273 -0.0387013 -9.90943 
-9.91879 0.00176301 -0.0337849 
0.00176301 -9.91142 -0.0652735 
-0.0337849 -0.0652735 -9.93263 
-9.94893 0.00861823 -0.0854026 
0.00861823 -9.94139 -0.0696925 
-0.0854026 -0.0696925 -9.87252 
-9.90701 -0.00640676 -0.069794 
-0.00640676 -9.93563 -0.0472997 
-0.069794 -0.0472997 -9.9202 
-10.0793 -0.0603416 0.129593 
-0.0603416 -9.95079 -0.0551352 
0.129593 -0.0551352 -10.1225 
-9.93543 -0.00846928 -0.0621857 
-0.00846928 -9.99962 0.054465 
-0.0621857 0.054465 -10.2176 
-9.48294 -0.24155 0.0466353 
-0.24155 -10.1686 -0.131547 
0.0466353 -0.131547 -10.5011 
-9.76506 -0.0780248 -0.0400173 
-0.0780248 -10.1276 -0.14417 
-0.0400173 -0.14417 -10.2599 
-9.90902 0.0100168 0.0103896 
0.0100168 -9.88138 -0.0560535 
0.0103896 -0.0560535 -10.0954 
-9.94412 -0.00154662 0.0325358 
-0.00154662 -9.88516 -0.106061 
0.0325358 -0.106061 -10.0565 
-9.91429 -0.00665835 0.0147536 
-0.00665835 -9.88162 -0.0549742 
0.0147536 -0.0549742 -10.0899 
-9.8923 0.041829 -0.00010331 
0.041829 -9.93774 -0.01729 
-0.00010331 -0.01729 -10.0558 
-9.98865 0.000518968 -0.0336835 
0.000518968 -9.9888 0.0132042 
-0.0336835 0.0132042 -10.0003 
-9.98939 -0.00868586 -0.0357934 
-0.00868586 -9.98911 0.00904854 
-0.0357934 0.00904854 -9.99928 
-9.99882 0.000725657 -0.0393392 
0.000725657 -9.99171 0.0159352 
-0.0393392 0.0159352 -9.98726 
-9.9961 0.00160266 -0.0390007 
0.00160266 -9.99728 0.0149575 
-0.0390007 0.0149575 -9.98441 
-9.90559 -0.0029506 -0.0508739 
-0.0029506 -9.91132 0.0465719 
-0.0508739 0.0465719 -9.93976 
-9.89996 -0.00289493 -0.0493701 
-0.00289493 -9.91247 0.0520149 
-0.0493701 0.0520149 -9.94424 
-9.90282 -0.00465289 -0.0565299 
-0.00465289 -9.9189 0.047114 
-0.0565299 0.047114 -9.93495 
-9.90252 -0.000883545 -0.0505533 
-0.000883545 -9.90792 0.0500316 
-0.0505533 0.0500316 -9.94622 
-9.98454 -0.0018404 0.0385972 
-0.0018404 -9.9792 0.0289529 
0.0385972 0.0289529 -9.98602 
-9.97334 0.00419939 0.0283038 
0.00419939 -9.98361 0.0406312 
0.0283038 0.0406312 -9.9928 
-9.9832 -0.00618905 0.0409279 
-0.00618905 -9.98228 0.0340071 
0.0409279 0.0340071 -9.98428 
-9.97703 -0.000770237 0.0293117 
-0.000770237 -9.98791 0.0374004 
0.0293117 0.0374004 -9.98482 
-9.88553 0.0371193 0.0238726 
0.0371193 -9.88633 -0.0369849 
0.0238726 -0.0369849 -10.0891 
-9.89771 0.0251138 -0.0458147 
0.0251138 -9.94691 -0.0592367 
-0.0458147 -0.0592367 -10.0163 
-9.95203 0.00401148 -0.0736934 
0.00401148 -9.96621 0.0057902 
-0.0736934 0.0057902 -9.94271 
-9.92138 0.0321328 -0.0427116 
0.0321328 -9.93779 -0.0500344 
-0.0427116 -0.0500344 -10.0018 
-9.98369 0.0207011 0.119113 
0.0207011 -10.0763 0.085596 
0.119113 0.085596 -9.59243 
-9.93523 0.0202597 0.115401 
0.0202597 -10.0876 -0.0716238 
0.115401 -0.0716238 -9.62962 
-9.90321 -0.0463708 0.0606451 
-0.0463708 -10.0886 -0.0585148 
0.0606451 -0.0585148 -9.66061 
-9.78108 0.0213912 0.142187 
0.0213912 -9.9011 -0.0408563 
0.142187 -0.0408563 -9.97026 
-9.9878 0.00308046 0.0263434 
0.00308046 -9.99084 0.00531749 
0.0263434 0.00531749 -10.0062 
-9.99608 -0.00147856 0.021554 
-0.00147856 -9.9965 0.0056871 
0.021554 0.0056871 -9.99223 
-9.99124 -0.000380416 0.0232051 
-0.000380416 -9.99679 0.0069541 
0.0232051 0.0069541 -9.99677 
-9.99911 -0.00145442 0.0222164 
-0.00145442 -9.99568 0.00828331 
0.0222164 0.00828331 -9.99001 
-9.96932 0.00654092 0.0249288 
0.00654092 -9.97997 -0.0658058 
0.0249288 -0.0658058 -9.99134 
-9.98082 -0.0043618 0.0313229 
-0.0043618 -9.97902 -0.0720786 
0.0313229 -0.0720786 -9.98079 
-9.98303 -0.00381543 0.0308829 
-0.00381543 -9.97805 -0.0685664 
0.0308829 -0.0685664 -9.97955 
-9.98008 0.00440903 0.0303067 
0.00440903 -9.98894 -0.0719473 
0.0303067 -0.0719473 -9.97161 
-9.88948 -0.00572251 0.0115714 
-0.00572251 -9.90778 0.000666159 
0.0115714 0.000666159 -10.0732 
-9.87568 -0.00203728 0.0116584 
-0.00203728 -9.87781 0.0526479 
0.0116584 0.0526479 -10.1169 
-9.91123 -0.0137368 0.0242214 
-0.0137368 -9.89733 0.00474486 
0.0242214 0.00474486 -10.0619 
-9.92411 0.00296716 0.00621681 
0.00296716 -9.91511 0.0278037 
0.00621681 0.0278037 -10.0312 
-11.6889 -0.175119 -0.422276 
-0.175119 -11.0889 0.00899274 
-0.422276 0.00899274 -9.71398 
-10.3356 0.216242 0.538096 
0.216242 -10.4927 -0.168858 
0.538096 -0.168858 -11.6635 
-11.0288 0.160867 -0.0767654 
0.160867 -10.2831 -0.320633 
-0.0767654 -0.320633 -11.1799 
-10.5886 0.426897 -0.486568 
0.426897 -10.7027 -0.605671 
-0.486568 -0.605671 -11.2005 
-9.9804 0.00895395 -0.048612 
0.00895395 -9.9689 0.00664742 
-0.048612 0.00664742 -9.98276 
-9.97851 -0.00187257 -0.0470044 
-0.00187257 -9.98072 0.00691718 
-0.0470044 0.00691718 -9.97283 
-9.97819 -0.00433555 -0.0483436 
-0.00433555 -9.98081 0.00415534 
-0.0483436 0.00415534 -9.97306 
-9.98309 0.00363201 -0.0525169 
0.00363201 -9.97755 0.00888251 
-0.0525169 0.00888251 -9.97143 
-9.84823 0.00271056 0.0883443 
0.00271056 -9.89759 0.0146298 
0.0883443 0.0146298 -9.91175 
-9.88482 -0.000135736 0.100299 
-0.000135736 -9.89493 -0.0128096 
0.100299 -0.0128096 -9.87782 
-9.83084 0.0123809 0.100697 
0.0123809 -9.90269 0.010432 
0.100697 0.010432 -9.92405 
-9.84796 0.00307292 0.0969575 
0.00307292 -9.88782 0.0098089 
0.0969575 0.0098089 -9.92179 
-9.96221 0.00172343 0.0354208 
0.00172343 -9.9669 -0.0698178 
0.0354208 -0.0698178 -9.97014 
-9.9708 0.000242291 0.0335002 
0.000242291 -9.97457 -0.0735495 
0.0335002 -0.0735495 -9.95389 
-9.96241 -0.0021021 0.0393892 
-0.0021021 -9.95991 -0.0602061 
0.0393892 -0.0602061 -9.97695 
-9.96216 0.00147681 0.0371165 
0.00147681 -9.96873 -0.0696131 
0.0371165 -0.0696131 -9.96837 
-9.75486 -0.0510118 -0.0908646 
-0.0510118 -9.81451 0.228108 
-0.0908646 0.228108 -9.48955 
-10.0422 0.0960076 0.00943264 
0.0960076 -9.74025 -0.0764956 
0.00943264 -0.0764956 -9.27646 
-9.99893 -0.156225 0.0956118 
-0.156225 -9.69851 0.0517398 
0.0956118 0.0517398 -9.36148 
-9.91638 0.0513255 0.0404192 
0.0513255 -9.73705 -0.0332949 
0.0404192 -0.0332949 -9.40549 
-9.99406 -0.00057961 0.0606829 
-0.00057961 -9.98888 0.0226092 
0.0606829 0.0226092 -9.99859 
-9.99245 -0.00132272 0.0585688 
-0.00132272 -9.99037 0.0223551 
0.0585688 0.0223551 -9.99872 
-9.99417 -0.00132193 0.0600528 
-0.00132193 -9.99443 0.0235977 
0.0600528 0.0235977 -9.99293 
-9.99462 -0.00012053 0.0603841 
-0.00012053 -9.99592 0.0234078 
0.0603841 0.0234078 -9.99099 
-9.90402 -0.0216921 -0.061569 
-0.0216921 -9.91905 0.122685 
-0.061569 0.122685 -9.80775 
-9.89299 -0.0451945 -0.00249404 
-0.0451945 -9.93595 0.0231046 
-0.00249404 0.0231046 -9.80188 
-9.84712 -0.0677245 -0.00573104 
-0.0677245 -9.98268 0.106254 
-0.00573104 0.106254 -9.80102 
-9.90936 -0.00359699 -0.0126167 
-0.00359699 -9.88892 0.09591 
-0.0126167 0.09591 -9.83254 
-9.5631 0.815109 0.0472937 
0.815109 -10.3283 -0.256179 
0.0472937 -0.256179 -11.2578 
-10.2328 0.663284 0.258997 
0.663284 -9.66053 -0.0339606 
0.258997 -0.0339606 -11.2559 
-10.6684 0.721283 0.426124 
0.721283 -9.28197 0.0335419 
0.426124 0.0335419 -11.1988 
-10.057 0.617502 -0.130549 
0.617502 -10.0489 0.48498 
-0.130549 0.48498 -11.0433 
-10.4078 0.0269757 0.0785224 
0.0269757 -9.52684 -0.0152968 
0.0785224 -0.0152968 -10.8137 
-10.33 -0.0472989 0.0629359 
-0.0472989 -9.58286 -0.133253 
0.0629359 -0.133253 -10.8355 
-9.69117 0.140187 0.335827 
0.140187 -10.5508 0.609582 
0.335827 0.609582 -10.5064 
-10.3627 -0.0053408 0.1603 
-0.0053408 -9.46174 0.0439264 
0.1603 0.0439264 -10.924 
-9.83819 0.182148 0.286766 
0.182148 -9.95478 0.0688397 
0.286766 0.0688397 -9.86613 
-9.79668 0.257648 0.208704 
0.257648 -9.97411 0.0368065 
0.208704 0.0368065 -9.88831 
-9.8686 0.180061 0.189553 
0.180061 -9.94136 0.0339122 
0.189553 0.0339122 -9.84914 
-9.81839 0.134801 0.144507 
0.134801 -10.0547 -0.0339286 
0.144507 -0.0339286 -9.78596 
-9.96488 0.00461899 -0.0757428 
0.00461899 -9.90174 -0.0232655 
-0.0757428 -0.0232655 -9.89817 
-9.92796 0.0055118 -0.0766652 
0.0055118 -9.91271 -0.0213983 
-0.0766652 -0.0213983 -9.92412 
-9.88849 0.00400717 -0.089906 
0.00400717 -9.93719 -0.0320386 
-0.089906 -0.0320386 -9.93911 
-9.90553 0.0173489 -0.0528795 
0.0173489 -9.92816 -0.0421885 
-0.0528795 -0.0421885 -9.93111 
-10.3929 1.27111 -0.792397 
1.27111 -10.4312 -0.391697 
-0.792397 -0.391697 -9.95398 
-10.3396 -0.24075 0.0490723 
-0.24075 -9.66693 -1.45606 
0.0490723 -1.45606 -10.7715 
-9.62881 -2.56094 -0.810843 
-2.56094 -8.80997 -1.56708 
-0.810843 -1.56708 -12.3392 
-10.1772 -0.633763 0.693971 
-0.633763 -10.5073 -1.33056 
0.693971 -1.33056 -10.0935 
-9.96733 0.00609838 -0.0120976 
0.00609838 -9.98168 -0.0581065 
-0.0120976 -0.0581065 -9.98645 
-9.98673 -0.000899924 -0.0142551 
-0.000899924 -9.97845 -0.0523439 
-0.0142551 -0.0523439 -9.97027 
-9.97913 0.00646493 -0.00619992 
0.00646493 -9.9955 -0.054704 
-0.00619992 -0.054704 -9.96083 
-9.98764 -0.00738343 -0.0170347 
-0.00738343 -9.9796 -0.0385518 
-0.0170347 -0.0385518 -9.96822 
-9.94935 0.0206935 -0.0781102 
0.0206935 -10.0306 0.0768508 
-0.0781102 0.0768508 -9.81621 
-9.98178 0.0221889 -0.0637713 
0.0221889 -9.96809 0.114611 
-0.0637713 0.114611 -9.84632 
-10.0502 -0.0593099 0.0214607 
-0.0593099 -10.0375 0.102484 
0.0214607 0.102484 -9.70839 
-9.94618 -0.0180657 -0.024182 
-0.0180657 -9.95418 0.0947297 
-0.024182 0.0947297 -9.89582 
-9.35392 -3.44662 -0.389506 
-3.44662 -4.15323 -0.177351 
-0.389506 -0.177351 -16.6443 
-12.2616 -1.08048 1.45134 
-1.08048 -13.5821 -1.44534 
1.45134 -1.44534 -4.30768 
-8.25369 -0.944321 0.517019 
-0.944321 -8.16665 0.31518 
0.517019 0.31518 -13.7311 
-9.45604 0.823635 -1.17042 
0.823635 -10.3363 6.45868 
-1.17042 6.45868 -10.3591 
-9.89581 0.698795 0.27438 
0.698795 -10.0615 -0.405461 
0.27438 -0.405461 -10.6209 
-10.2017 0.465728 0.233278 
0.465728 -9.97961 0.324297 
0.233278 0.324297 -10.3968 
-9.92703 -0.0403987 0.118061 
-0.0403987 -10.3985 -0.028072 
0.118061 -0.028072 -10.2527 
-9.81443 0.125406 0.166987 
0.125406 -10.1854 0.0410887 
0.166987 0.0410887 -10.5784 
-9.84022 0.00364606 -0.0617023 
0.00364606 -9.87912 -0.00873151 
-0.0617023 -0.00873151 -10.0526 
-9.85489 0.012514 -0.0363005 
0.012514 -9.86347 -0.0016862 
-0.0363005 -0.0016862 -10.0536 
-9.84635 -0.00114327 -0.0353606 
-0.00114327 -9.86286 -0.00255743 
-0.0353606 -0.00255743 -10.0628 
-9.85337 0.0077409 -0.0299391 
0.0077409 -9.88947 -0.000255586 
-0.0299391 -0.000255586 -10.0291 
-9.92565 0.00991884 -0.0257179 
0.00991884 -9.88464 0.0507483 
-0.0257179 0.0507483 -10.0461 
-9.92454 0.00683198 -0.030365 
0.00683198 -9.89228 0.071556 
-0.030365 0.071556 -10.0395 
-9.88963 0.0170383 0.01278 
0.0170383 -9.8637 0.050255 
0.01278 0.050255 -10.103 
-9.92605 0.011325 0.00605031 
0.011325 -9.89345 0.0397481 
0.00605031 0.0397481 -10.0369 
-9.98806 -0.253231 0.0338613 
-0.253231 -9.72295 -0.017268 
0.0338613 -0.017268 -10.272 
-9.99059 0.202638 0.146344 
0.202638 -10.1005 -0.152595 
0.146344 -0.152595 -9.89186 
-10.0468 -0.232838 0.0550195 
-0.232838 -9.67931 -0.039961 
0.0550195 -0.039961 -10.2568 
-10.0561 -0.468648 0.231291 
-0.468648 -9.53996 -0.29734 
0.231291 -0.29734 -10.3869 
-10.072 -0.00874862 -0.0101272 
-0.00874862 -10.1235 -0.00914281 
-0.0101272 -0.00914281 -10.1248 
-10.1093 -0.00175588 -0.00905191 
-0.00175588 -10.0498 -0.0086109 
-0.00905191 -0.0086109 -10.1612 
-9.97003 -0.0417221 -0.0225216 
-0.0417221 -10.1409 -0.0292141 
-0.0225216 -0.0292141 -10.2094 
-10.176 0.0389572 -0.140006 
0.0389572 -10.0278 -0.00603824 
-0.140006 -0.00603824 -10.1165 
-10.245 0.0341314 0.0205583 
0.0341314 -9.89109 0.126383 
0.0205583 0.126383 -10.3797 
-10.0118 0.0127889 0.0554226 
0.0127889 -10.3247 0.0102677 
0.0554226 0.0102677 -10.1792 
-10.0815 0.00626281 -0.000265025 
0.00626281 -10.1963 -0.0406033 
-0.000265025 -0.0406033 -10.238 
-10.0488 -0.00842705 -0.0475623 
-0.00842705 -10.2309 -0.0174576 
-0.0475623 -0.0174576 -10.2361 
-9.56107 0.0183987 0.0911886 
0.0183987 -10.2207 0.0372062 
0.0911886 0.0372062 -10.4525 
-10.1769 -0.0135798 0.47616 
-0.0135798 -9.86175 0.07509 
0.47616 0.07509 -10.1956 
-9.56098 0.0253958 0.157547 
0.0253958 -10.2032 0.0625581 
0.157547 0.0625581 -10.4701 
-9.81395 -0.00954367 0.0222119 
-0.00954367 -10.0636 0.064745 
0.0222119 0.064745 -10.3566 
-9.93262 -0.28021 0.14715 
-0.28021 -9.54138 -0.388187 
0.14715 -0.388187 -10.2042 
-9.85112 -0.239543 -0.0369099 
-0.239543 -9.69562 -0.284686 
-0.0369099 -0.284686 -10.1315 
-9.86718 0.0182685 0.00838465 
0.0182685 -9.85858 -0.263966 
0.00838465 -0.263966 -9.95246 
-9.89653 -0.279345 -0.039578 
-0.279345 -9.59605 -0.239967 
-0.039578 -0.239967 -10.1856 
-9.97768 -0.00742513 -0.0167842 
-0.00742513 -9.96407 -0.020268 
-0.0167842 -0.020268 -9.9589 
-9.98058 -0.00937374 -0.0216158 
-0.00937374 -9.96166 -0.0202656 
-0.0216158 -0.0202656 -9.95842 
-9.97303 -0.0125251 -0.0243527 
-0.0125251 -9.96934 -0.0188553 
-0.0243527 -0.0188553 -9.95829 
-9.97135 -0.00505593 -0.023709 
-0.00505593 -9.97284 -0.0172319 
-0.023709 -0.0172319 -9.95647 
-10.3404 0.0092795 0.0334475 
0.0092795 -10.2969 0.0265903 
0.0334475 0.0265903 -10.2593 
-10.2694 0.0219419 -0.0658615 
0.0219419 -10.243 0.0545655 
-0.0658615 0.0545655 -10.3841 
-10.2755 0.00626972 -0.048564 
0.00626972 -10.247 0.0260486 
-0.048564 0.0260486 -10.3741 
-10.3715 -0.0116265 -0.0385576 
-0.0116265 -10.2416 0.00537451 
-0.0385576 0.00537451 -10.2834 
-9.96852 -0.00606128 -0.00913074 
-0.00606128 -9.98688 0.0458893 
-0.00913074 0.0458893 -9.98237 
-9.98296 2.78041e-05 -0.00748463 
2.78041e-05 -9.97989 0.0471174 
-0.00748463 0.0471174 -9.97493 
-9.98519 0.000334611 -0.0104129 
0.000334611 -9.97924 0.047637 
-0.0104129 0.047637 -9.97335 
-9.97842 -0.00240705 -0.00471065 
-0.00240705 -9.98835 0.0537816 
-0.00471065 0.0537816 -9.97101 
-9.8474 0.12929 -0.10033 
0.12929 -9.94589 -0.0518467 
-0.10033 -0.0518467 -9.79539 
-9.81437 0.143856 -0.174375 
0.143856 -9.96087 -0.076499 
-0.174375 -0.076499 -9.81343 
-9.82243 0.0832759 -0.125527 
0.0832759 -9.89637 -0.107331 
-0.125527 -0.107331 -9.86988 
-9.81706 0.174216 -0.0781881 
0.174216 -9.68794 -0.0889942 
-0.0781881 -0.0889942 -10.0837 
-9.87366 0.0386549 -0.103816 
0.0386549 -9.95234 -0.00226125 
-0.103816 -0.00226125 -10.0081 
-9.88176 0.147047 -0.0826015 
0.147047 -9.86728 -0.0296676 
-0.0826015 -0.0296676 -10.085 
-9.93879 0.0784748 -0.0393959 
0.0784748 -9.82217 0.21783 
-0.0393959 0.21783 -10.0731 
-9.88171 0.131561 -0.0242613 
0.131561 -9.91346 -0.037659 
-0.0242613 -0.037659 -10.0389 
-9.96206 -0.00504614 0.00315694 
-0.00504614 -9.96457 0.00395322 
0.00315694 0.00395322 -9.99718 
-9.97746 -0.00663231 -0.00463096 
-0.00663231 -9.97156 0.0101049 
-0.00463096 0.0101049 -9.9748 
-9.97103 -0.0040544 0.0020513 
-0.0040544 -9.96744 -0.00419275 
0.0020513 -0.00419275 -9.98534 
-9.97185 0.000742675 -0.00789971 
0.000742675 -9.96981 0.00600231 
-0.00789971 0.00600231 -9.98215 
-10.2147 -0.0600985 -0.896501 
-0.0600985 -8.58873 1.91004 
-0.896501 1.91004 -11.6174 
-9.80231 -0.287371 -0.546328 
-0.287371 -9.32537 1.57287 
-0.546328 1.57287 -11.2932 
-9.72992 0.902299 -0.569766 
0.902299 -10.8105 1.73172 
-0.569766 1.73172 -9.88042 
-10.9924 -1.12326 0.467983 
-1.12326 -9.02078 -1.03853 
0.467983 -1.03853 -10.4076 
-9.94337 0.0114335 0.0106703 
0.0114335 -9.91706 -0.0289937 
0.0106703 -0.0289937 -9.90972 
-9.96139 0.00745896 -0.0147147 
0.00745896 -9.93042 -0.00945712 
-0.0147147 -0.00945712 -9.87834 
-9.96557 0.00943658 -0.0071349 
0.00943658 -9.91837 -0.0123639 
-0.0071349 -0.0123639 -9.88621 
-9.96576 0.00322066 -0.0019573 
0.00322066 -9.92226 -0.0110773 
-0.0019573 -0.0110773 -9.88213 
-9.97026 0.00207198 0.0490414 
0.00207198 -9.97438 0.0471805 
0.0490414 0.0471805 -9.97565 
-9.97299 -0.00284909 0.0501317 
-0.00284909 -9.97474 0.0495181 
0.0501317 0.0495181 -9.97256 
-9.97029 -0.000238476 0.0474604 
-0.000238476 -9.97001 0.0482427 
0.0474604 0.0482427 -9.97999 
-9.97288 0.00116341 0.0488635 
0.00116341 -9.96974 0.0500979 
0.0488635 0.0500979 -9.97768 
-9.94025 -0.00485154 0.0792075 
-0.00485154 -9.93942 -0.0221554 
0.0792075 -0.0221554 -9.88735 
-9.93843 0.00137088 0.0710932 
0.00137088 -9.92777 -0.0157027 
0.0710932 -0.0157027 -9.90082 
-9.94074 -0.00223072 0.0572753 
-0.00223072 -9.92203 -0.0181732 
0.0572753 -0.0181732 -9.90425 
-9.91115 0.00112348 0.0726417 
0.00112348 -9.93703 0.00298356 
0.0726417 0.00298356 -9.91885 
-9.95736 0.00627255 0.00301318 
0.00627255 -9.95257 0.00592457 
0.00301318 0.00592457 -9.97568 
-9.95256 0.00993485 -0.00736697 
0.00993485 -9.96086 0.00671193 
-0.00736697 0.00671193 -9.97218 
-9.95772 0.0169117 0.0114508 
0.0169117 -9.95559 -0.00996056 
0.0114508 -0.00996056 -9.9723 
-9.9544 -0.000876706 -0.00215278 
-0.000876706 -9.9477 0.00550424 
-0.00215278 0.00550424 -9.98351 
-9.96781 0.000360584 0.0361768 
0.000360584 -9.96823 0.0583661 
0.0361768 0.0583661 -9.97501 
-9.96561 -0.00114846 0.0398915 
-0.00114846 -9.96973 0.0588507 
0.0398915 0.0588507 -9.97571 
-9.96819 0.000678729 0.0379743 
0.000678729 -9.97122 0.0556751 
0.0379743 0.0556751 -9.97165 
-9.97142 0.00490817 0.0421859 
0.00490817 -9.97367 0.056755 
0.0421859 0.056755 -9.96597 
-10.0301 0.0726927 0.0708518 
0.0726927 -9.83319 0.271538 
0.0708518 0.271538 -10.2191 
-9.93004 0.00533255 0.00262862 
0.00533255 -9.94407 0.176547 
0.00262862 0.176547 -10.2083 
-9.95973 0.00818609 0.0433283 
0.00818609 -9.9259 0.246848 
0.0433283 0.246848 -10.1968 
-9.93619 0.0316109 0.00924836 
0.0316109 -9.95207 0.22279 
0.00924836 0.22279 -10.1941 
-9.94118 -0.00157417 -0.0140042 
-0.00157417 -9.9311 0.00867274 
-0.0140042 0.00867274 -9.99096 
-9.94238 -0.00367624 -0.0232584 
-0.00367624 -9.93187 0.00985002 
-0.0232584 0.00985002 -9.98898 
-9.9375 -0.00196449 0.00130405 
-0.00196449 -9.94669 -0.00790672 
0.00130405 -0.00790672 -9.97904 
-9.93888 -0.0063276 -0.0403997 
-0.0063276 -9.92471 -0.0224755 
-0.0403997 -0.0224755 -9.99963 
-9.885 -0.388334 0.170982 
-0.388334 -9.98653 -0.0398862 
0.170982 -0.0398862 -10.4501 
-10.1206 0.293491 0.0634039 
0.293491 -10.1438 0.0308357 
0.0634039 0.0308357 -10.0572 
-9.97986 -0.0222652 -0.127728 
-0.0222652 -9.94739 0.0841425 
-0.127728 0.0841425 -10.3944 
-9.83635 -0.0941147 -0.142068 
-0.0941147 -10.1837 0.121119 
-0.142068 0.121119 -10.3016 
-9.81792 -0.204929 0.00724337 
-0.204929 -9.74686 0.123933 
0.00724337 0.123933 -10.0866 
-9.81596 -0.210104 0.0225725 
-0.210104 -9.72167 0.0958156 
0.0225725 0.0958156 -10.1137 
-9.7982 -0.216261 -0.0166413 
-0.216261 -9.74803 0.129386 
-0.0166413 0.129386 -10.1051 
-9.85292 -0.0924549 -0.126934 
-0.0924549 -9.79428 0.0096783 
-0.126934 0.0096783 -10.0042 
-10.0859 -0.0537666 -0.189265 
-0.0537666 -9.94503 0.018837 
-0.189265 0.018837 -9.65706 
-10.0193 -0.0179143 -0.23094 
-0.0179143 -9.94279 0.0236467 
-0.23094 0.0236467 -9.72589 
-9.9242 0.0190292 -0.166694 
0.0190292 -9.96629 0.0103222 
-0.166694 0.0103222 -9.79752 
-9.97228 0.04373 -0.303829 
0.04373 -9.9836 -0.0512647 
-0.303829 -0.0512647 -9.73212 
-9.98177 0.0661192 0.00912562 
0.0661192 -9.98159 -0.183027 
0.00912562 -0.183027 -9.94622 
-9.93962 0.0911417 -0.0197495 
0.0911417 -9.849 0.00873928 
-0.0197495 0.00873928 -10.121 
-9.88561 0.0190677 0.0519789 
0.0190677 -9.93743 0.111291 
0.0519789 0.111291 -10.0865 
-9.95001 0.0471341 -0.0556774 
0.0471341 -9.86224 0.0566919 
-0.0556774 0.0566919 -10.0973 
-9.87234 -0.0242545 -0.0704169 
-0.0242545 -9.8989 0.0279899 
-0.0704169 0.0279899 -9.9036 
-9.87904 -0.0146397 -0.0768256 
-0.0146397 -9.90495 0.0225642 
-0.0768256 0.0225642 -9.89085 
-9.92339 0.00498617 -0.0820057 
0.00498617 -9.86536 0.010847 
-0.0820057 0.010847 -9.88609 
-9.87237 -0.00421132 -0.0857226 
-0.00421132 -9.90762 0.0306894 
-0.0857226 0.0306894 -9.89485 
-9.93312 0.0222748 0.0167532 
0.0222748 -9.78044 -0.0861558 
0.0167532 -0.0861558 -9.84303 
-9.94587 -0.014664 0.0395215 
-0.014664 -9.73606 -0.173813 
0.0395215 -0.173813 -9.87466 
-9.81319 -0.00178572 0.00546344 
-0.00178572 -9.64547 -0.102764 
0.00546344 -0.102764 -10.0979 
-9.89494 -0.0210476 0.0074412 
-0.0210476 -9.75245 -0.144092 
0.0074412 -0.144092 -9.9092 
-9.96172 -0.00518344 0.00480596 
-0.00518344 -9.94517 0.00403843 
0.00480596 0.00403843 -9.97183 
-9.96008 -0.0111232 0.00079973 
-0.0111232 -9.94778 -0.00223826 
0.00079973 -0.00223826 -9.97085 
-9.95839 -0.00827221 0.00239825 
-0.00827221 -9.9508 -0.00443519 
0.00239825 -0.00443519 -9.96953 
-9.94689 -0.00399703 -0.00182681 
-0.00399703 -9.95347 0.00407686 
-0.00182681 0.00407686 -9.97835 
-9.89165 -0.002355 -0.0663493 
-0.002355 -9.8553 0.058401 
-0.0663493 0.058401 -10.0146 
-9.94094 0.0129517 0.0321126 
0.0129517 -9.902 0.0687105 
0.0321126 0.0687105 -9.9186 
-9.85188 -0.0156588 -0.0632459 
-0.0156588 -9.93146 0.0368623 
-0.0632459 0.0368623 -9.9782 
-9.83987 -0.105823 0.00427557 
-0.105823 -9.96414 0.0908758 
0.00427557 0.0908758 -9.95752 
-10.1408 0.0479379 0.0944111 
0.0479379 -9.88027 -0.0502487 
0.0944111 -0.0502487 -10.2203 
-10.1365 -0.0125989 -0.052752 
-0.0125989 -9.99179 0.107936 
-0.052752 0.107936 -10.1131 
-10.0121 -0.00231166 -0.0337883 
-0.00231166 -10.1047 0.0221126 
-0.0337883 0.0221126 -10.1246 
-10.0061 -0.00300442 -0.0117176 
-0.00300442 -10.0602 0.0182587 
-0.0117176 0.0182587 -10.1751 
-9.91527 -0.00565246 -0.00752296 
-0.00565246 -9.82103 0.093555 
-0.00752296 0.093555 -10.0558 
-9.92309 -0.0268032 -0.00763198 
-0.0268032 -9.81513 0.0898077 
-0.00763198 0.0898077 -10.0538 
-9.89962 0.014815 0.0121538 
0.014815 -9.83004 0.105684 
0.0121538 0.105684 -10.0624 
-9.91693 -0.00368019 -0.0177024 
-0.00368019 -9.838 0.111443 
-0.0177024 0.111443 -10.0371 
-12.3651 -2.39094 3.11034 
-2.39094 -15.5957 -1.4778 
3.11034 -1.4778 -5.67857 
-5.60455 0.664929 -1.08378 
0.664929 -11.1376 1.174 
-1.08378 1.174 -16.8972 
-3.1081 -1.21275 -1.67093 
-1.21275 -7.36014 0.272525 
-1.67093 0.272525 -23.1711 
-13.2272 1.08921 -5.71522 
1.08921 -9.71875 0.978688 
-5.71522 0.978688 -10.6934 
-9.97935 -0.00301836 -0.0415857 
-0.00301836 -9.97837 -0.0351612 
-0.0415857 -0.0351612 -9.98133 
-9.97551 -0.00607179 -0.0415689 
-0.00607179 -9.97966 -0.0349271 
-0.0415689 -0.0349271 -9.98388 
-9.9804 -0.00180743 -0.0427354 
-0.00180743 -9.97788 -0.0346856 
-0.0427354 -0.0346856 -9.98077 
-9.97859 -0.00599237 -0.0421548 
-0.00599237 -9.98212 -0.0325371 
-0.0421548 -0.0325371 -9.97834 
-9.91236 -0.0512912 -0.00497486 
-0.0512912 -9.95105 0.0119834 
-0.00497486 0.0119834 -9.94128 
-9.94681 -0.0344548 -0.0126542 
-0.0344548 -9.92438 -0.0331577 
-0.0126542 -0.0331577 -9.93351 
-9.93684 0.0106216 0.0131753 
0.0106216 -9.91521 -0.0093648 
0.0131753 -0.0093648 -9.95264 
-9.93195 -0.030001 -0.0176864 
-0.030001 -9.93239 0.00517656 
-0.0176864 0.00517656 -9.94036 
-10.0986 0.0171594 -0.00776404 
0.0171594 -10.0772 -0.0586632 
-0.00776404 -0.0586632 -10.1929 
-10.1122 -0.0188167 0.0133446 
-0.0188167 -10.1462 -0.0031967 
0.0133446 -0.0031967 -10.1103 
-10.1227 0.0419319 0.00834813 
0.0419319 -10.1374 -0.0330199 
0.00834813 -0.0330199 -10.1086 
-10.1627 -0.000230429 -0.0198044 
-0.000230429 -10.1082 -0.00181311 
-0.0198044 -0.00181311 -10.0978 
-9.93861 0.00251402 0.0519498 
0.00251402 -9.93469 0.0349063 
0.0519498 0.0349063 -9.91151 
-9.92361 0.013324 0.0426079 
0.013324 -9.91807 0.0407643 
0.0426079 0.0407643 -9.94313 
-9.90831 -0.00303335 0.0670987 
-0.00303335 -9.90844 0.0463686 
0.0670987 0.0463686 -9.96807 
-9.93016 0.0193219 0.0515845 
0.0193219 -9.91865 0.0378504 
0.0515845 0.0378504 -9.936 
-10.0225 0.0126152 0.0418415 
0.0126152 -9.7885 -0.0301036 
0.0418415 -0.0301036 -9.85815 
-9.81524 -0.0750133 0.0499011 
-0.0750133 -9.80432 -0.172287 
0.0499011 -0.172287 -10.0496 
-9.76454 0.0502608 -0.0145622 
0.0502608 -9.88728 0.0111448 
-0.0145622 0.0111448 -10.0174 
-9.95953 -0.0530431 0.0138511 
-0.0530431 -9.88787 -0.170152 
0.0138511 -0.170152 -9.82178 
-9.96779 0.00209744 -0.0200138 
0.00209744 -9.97028 0.0721562 
-0.0200138 0.0721562 -9.97471 
-9.97065 -0.00248522 -0.0194661 
-0.00248522 -9.97281 0.0801563 
-0.0194661 0.0801563 -9.96932 
-9.97353 -0.00210563 -0.0193529 
-0.00210563 -9.97238 0.0733199 
-0.0193529 0.0733199 -9.96687 
-9.97246 -0.00324998 -0.021898 
-0.00324998 -9.97496 0.0748164 
-0.021898 0.0748164 -9.96536 
-9.93943 -0.000261299 -0.0773558 
-0.000261299 -9.93347 0.0253887 
-0.0773558 0.0253887 -9.93676 
-9.93696 -0.00195224 -0.0742019 
-0.00195224 -9.94577 0.0263938 
-0.0742019 0.0263938 -9.92693 
-9.92631 -0.000951627 -0.0715582 
-0.000951627 -9.93938 0.0221 
-0.0715582 0.0221 -9.94398 
-9.94655 -0.0118991 -0.0776049 
-0.0118991 -9.92866 0.0372478 
-0.0776049 0.0372478 -9.93446 
-8.97175 -0.219312 -0.726124 
-0.219312 -9.10509 -0.133657 
-0.726124 -0.133657 -9.88202 
-9.92355 -0.396936 -0.613122 
-0.396936 -9.72955 -0.27127 
-0.613122 -0.27127 -8.30575 
-10.2534 -0.141186 -1.30749 
-0.141186 -9.64434 -0.356894 
-1.30749 -0.356894 -8.06109 
-10.5252 -0.59078 0.0745074 
-0.59078 -9.92595 -0.107138 
0.0745074 -0.107138 -7.50772 
-10.2946 -0.0827777 0.132521 
-0.0827777 -10.3636 0.0406686 
0.132521 0.0406686 -10.2529 
-10.0419 0.036381 0.00212378 
0.036381 -10.1333 -0.104613 
0.00212378 -0.104613 -10.7359 
-10.4795 0.0244469 0.111365 
0.0244469 -10.3359 0.0907047 
0.111365 0.0907047 -10.0957 
-10.3305 -0.00409544 0.100018 
-0.00409544 -10.5636 -0.154034 
0.100018 -0.154034 -10.0171 
-10.1372 -0.0671499 -0.0101084 
-0.0671499 -10.0682 -0.015573 
-0.0101084 -0.015573 -10.1957 
-10.0603 0.0297324 0.0166076 
0.0297324 -10.1676 0.0586344 
0.0166076 0.0586344 -10.1732 
-10.0994 0.0518803 -0.0159661 
0.0518803 -10.1695 -0.0303994 
-0.0159661 -0.0303994 -10.1322 
-10.1788 -0.0408995 0.0518696 
-0.0408995 -10.1037 0.0675352 
0.0518696 0.0675352 -10.1186 
-10.2424 0.0529694 0.329335 
0.0529694 -10.2636 0.18912 
0.329335 0.18912 -10.7094 
-10.2899 -0.0552694 -0.184107 
-0.0552694 -10.5003 0.163806 
-0.184107 0.163806 -10.4252 
-10.4362 -0.0491892 -0.199821 
-0.0491892 -10.211 -0.0258294 
-0.199821 -0.0258294 -10.5682 
-10.1772 -0.0507168 -0.075917 
-0.0507168 -10.4103 -0.147606 
-0.075917 -0.147606 -10.628 
-9.96473 0.00338276 0.037792 
0.00338276 -9.96698 -0.0410424 
0.037792 -0.0410424 -9.97162 
-9.96977 0.0017799 0.0420776 
0.0017799 -9.96949 -0.0346474 
0.0420776 -0.0346474 -9.96407 
-9.96767 0.00419355 0.0379733 
0.00419355 -9.96642 -0.0391605 
0.0379733 -0.0391605 -9.96924 
-9.96493 0.00410157 0.0389061 
0.00410157 -9.96955 -0.0399629 
0.0389061 -0.0399629 -9.96886 
-9.99449 0.0328919 -0.033191 
0.0328919 -9.91602 0.00322778 
-0.033191 0.00322778 -10.1703 
-10.0002 0.0343429 -0.0352134 
0.0343429 -9.92073 0.00254297 
-0.0352134 0.00254297 -10.1599 
-9.98633 0.0259984 -0.0129486 
0.0259984 -9.93454 0.00219529 
-0.0129486 0.00219529 -10.16 
-9.9839 0.0284858 -0.0327349 
0.0284858 -9.90136 0.00937323 
-0.0327349 0.00937323 -10.1956 
-9.60542 0.0781785 0.0347776 
0.0781785 -9.89964 -0.113916 
0.0347776 -0.113916 -10.0596 
-9.73806 0.00861469 -0.155416 
0.00861469 -9.85681 -0.084402 
-0.155416 -0.084402 -9.96982 
-9.83893 0.0592074 -0.0682014 
0.0592074 -9.84015 0.19708 
-0.0682014 0.19708 -9.88561 
-9.75842 0.189578 -0.235946 
0.189578 -9.89569 0.0500628 
-0.235946 0.0500628 -9.91058 
-10.2124 0.0372553 0.0998233 
0.0372553 -9.96353 -0.0165217 
0.0998233 -0.0165217 -10.2988 
-10.1047 -0.195424 0.0152394 
-0.195424 -10.2696 -0.113107 
0.0152394 -0.113107 -10.1005 
-10.1435 0.0480839 -0.0552094 
0.0480839 -10.0648 -0.127717 
-0.0552094 -0.127717 -10.2664 
-10.0189 -0.146408 -0.123304 
-0.146408 -10.123 -0.0394483 
-0.123304 -0.0394483 -10.3328 
-9.96847 0.00139295 0.0585636 
0.00139295 -9.96786 0.0336221 
0.0585636 0.0336221 -9.97656 
-9.96974 -0.00159713 0.0623896 
-0.00159713 -9.96726 0.0318186 
0.0623896 0.0318186 -9.97589 
-9.96763 -0.00145581 0.0616235 
-0.00145581 -9.9723 0.0311089 
0.0616235 0.0311089 -9.97296 
-9.97378 0.000155649 0.0634797 
0.000155649 -9.97312 0.0299179 
0.0634797 0.0299179 -9.96599 
-10.0869 -0.0473584 -0.015825 
-0.0473584 -10.0751 -0.0147408 
-0.015825 -0.0147408 -9.99683 
-10.0141 0.013435 0.0193614 
0.013435 -10.0468 0.0374293 
0.0193614 0.0374293 -10.0978 
-10.0482 -0.00135543 0.00754224 
-0.00135543 -10.0244 0.0232093 
0.00754224 0.0232093 -10.0862 
-10.1127 -0.00334419 -0.0576199 
-0.00334419 -10.0354 -0.0150535 
-0.0576199 -0.0150535 -10.0107 
-9.98105 -0.00197013 -0.0374056 
-0.00197013 -9.9817 -0.0327725 
-0.0374056 -0.0327725 -9.98569 
-9.98873 -0.000834326 -0.0382415 
-0.000834326 -9.97966 -0.0365219 
-0.0382415 -0.0365219 -9.98006 
-9.97918 0.000713354 -0.0467364 
0.000713354 -9.97807 -0.0227687 
-0.0467364 -0.0227687 -9.99119 
-9.98488 -0.00513404 -0.0406283 
-0.00513404 -9.97945 -0.0247983 
-0.0406283 -0.0247983 -9.9841 
-9.5561 -0.21837 -0.0416735 
-0.21837 -9.85816 -0.0207677 
-0.0416735 -0.0207677 -10.3595 
-9.44901 -0.358629 -0.447309 
-0.358629 -10.0578 0.0488244 
-0.447309 0.0488244 -10.267 
-10.1265 0.325644 -0.164685 
0.325644 -9.89513 0.0433786 
-0.164685 0.0433786 -9.75217 
-9.64739 -0.332793 -0.0452784 
-0.332793 -9.85148 0.105811 
-0.0452784 0.105811 -10.2749 
-10.1327 0.109016 -0.0202325 
0.109016 -9.87539 -0.0518745 
-0.0202325 -0.0518745 -10.2059 
-10.0221 -0.034415 -0.0788674 
-0.034415 -9.90207 -0.0927971 
-0.0788674 -0.0927971 -10.2898 
-9.93574 0.0185378 0.117551 
0.0185378 -10.0404 -0.014031 
0.117551 -0.014031 -10.2379 
-10.1248 0.181848 0.0804749 
0.181848 -9.71095 0.0963308 
0.0804749 0.0963308 -10.3782 
-9.89994 -0.0157278 0.0636416 
-0.0157278 -9.90078 -0.0437635 
0.0636416 -0.0437635 -9.92555 
-9.90066 -0.0164448 0.0677258 
-0.0164448 -9.90529 -0.046914 
0.0677258 -0.046914 -9.92031 
-9.90423 -0.0113325 0.0647076 
-0.0113325 -9.90285 -0.0469856 
0.0647076 -0.0469856 -9.91918 
-9.90102 -0.0201415 0.073865 
-0.0201415 -9.90599 -0.045127 
0.073865 -0.045127 -9.91926 
-9.98704 0.0180265 0.00980389 
0.0180265 -10.002 0.0443916 
0.00980389 0.0443916 -10.2188 
-10.0564 -0.0367963 0.0371824 
-0.0367963 -9.94856 0.0567218 
0.0371824 0.0567218 -10.2029 
-10.0059 -0.0482604 -0.000956008 
-0.0482604 -9.96482 0.0294896 
-0.000956008 0.0294896 -10.2371 
-9.96777 -0.0881883 -0.0190693 
-0.0881883 -9.99355 0.0573882 
-0.0190693 0.0573882 -10.2466 
-10.1905 0.0958115 0.0181249 
0.0958115 -9.83288 -0.0884712 
0.0181249 -0.0884712 -10.2591 
-9.95493 -0.0340505 -0.0276302 
-0.0340505 -10.0862 0.136245 
-0.0276302 0.136245 -10.2413 
-10.0797 -0.0144865 0.00358491 
-0.0144865 -10.1067 0.00866321 
0.00358491 0.00866321 -10.0961 
-10.0739 0.0791389 0.118849 
0.0791389 -10.0146 -0.0160073 
0.118849 -0.0160073 -10.194 
-9.85596 0.00676411 0.0840727 
0.00676411 -9.92478 0.0132315 
0.0840727 0.0132315 -9.88156 
-9.86248 0.0187745 0.0876054 
0.0187745 -9.88659 0.00989081 
0.0876054 0.00989081 -9.91322 
-9.85238 0.0246653 0.0942916 
0.0246653 -9.91199 0.00401395 
0.0942916 0.00401395 -9.89793 
-9.85733 0.017053 0.0888292 
0.017053 -9.90934 0.00956263 
0.0888292 0.00956263 -9.89563 
-11.1692 -0.152227 -0.199426 
-0.152227 -11.0685 0.553187 
-0.199426 0.553187 -9.84893 
-10.8564 -0.264558 -0.584972 
-0.264558 -11.5967 0.588507 
-0.584972 0.588507 -9.63358 
-9.83676 0.0611396 0.457522 
0.0611396 -9.4454 -0.689745 
0.457522 -0.689745 -12.8045 
-10.7625 -1.62201 0.0660315 
-1.62201 -8.23023 1.96336 
0.0660315 1.96336 -13.0939 
-9.87169 0.074769 -0.141191 
0.074769 -10.0128 0.076998 
-0.141191 0.076998 -9.97178 
-9.93266 0.0290612 -0.0649279 
0.0290612 -9.96227 0.0619235 
-0.0649279 0.0619235 -9.96139 
-9.95288 -0.0329236 -0.106735 
-0.0329236 -9.9575 0.01819 
-0.106735 0.01819 -9.94593 
-9.95093 0.0336158 -0.0969533 
0.0336158 -10.0459 -0.0503673 
-0.0969533 -0.0503673 -9.85945 
-10.0711 -0.0179629 -0.00639014 
-0.0179629 -10.0663 -0.00311143 
-0.00639014 -0.00311143 -10.1379 
-10.0693 0.00776935 -0.00932299 
0.00776935 -10.0886 -0.0149584 
-0.00932299 -0.0149584 -10.1174 
-10.0567 0.0214974 -0.0057473 
0.0214974 -10.078 -0.0196118 
-0.0057473 -0.0196118 -10.1406 
-10.0815 -0.0339857 0.035244 
-0.0339857 -10.0706 0.0343339 
0.035244 0.0343339 -10.1232 
-10.6677 0.309068 0.220232 
0.309068 -9.78419 0.587345 
0.220232 0.587345 -11.8502 
-11.6437 0.607762 0.542159 
0.607762 -11.4359 0.135952 
0.542159 0.135952 -9.22255 
-10.9576 0.303036 -0.0810832 
0.303036 -8.82051 1.14943 
-0.0810832 1.14943 -12.524 
-10.681 -0.189625 0.335521 
-0.189625 -9.44363 -0.196515 
0.335521 -0.196515 -12.1775 
-9.93945 -0.00136253 -0.04603 
-0.00136253 -9.94827 0.0563362 
-0.04603 0.0563362 -9.9499 
-9.93823 0.00307825 -0.0445099 
0.00307825 -9.94651 0.0584725 
-0.0445099 0.0584725 -9.95288 
-9.94433 -0.000101365 -0.0440416 
-0.000101365 -9.94894 0.0565657 
-0.0440416 0.0565657 -9.94435 
-9.94174 0.000530774 -0.0469645 
0.000530774 -9.94297 0.0577037 
-0.0469645 0.0577037 -9.95292 
-9.95649 -0.00667939 -0.042695 
-0.00667939 -9.95669 -0.0348837 
-0.042695 -0.0348837 -9.95512 
-9.95246 -0.00983417 -0.0426439 
-0.00983417 -9.96167 -0.0310608 
-0.0426439 -0.0310608 -9.95416 
-9.96 -0.00708426 -0.0417954 
-0.00708426 -9.95576 -0.0395202 
-0.0417954 -0.0395202 -9.95253 
-9.95414 -0.00301159 -0.0449255 
-0.00301159 -9.95086 -0.0327317 
-0.0449255 -0.0327317 -9.96329 
-8.11894 1.2409 -0.0219035 
1.2409 -10.7766 1.92373 
-0.0219035 1.92373 -9.63834 
-9.1602 0.543143 0.252846 
0.543143 -10.0294 0.872507 
0.252846 0.872507 -9.34424 
-10.3675 0.316547 0.396019 
0.316547 -9.2392 0.867679 
0.396019 0.867679 -8.92721 
-8.82875 0.464313 1.37426 
0.464313 -10.5646 -0.0556348 
1.37426 -0.0556348 -9.14056 
-9.96676 -0.00322489 0.0425555 
-0.00322489 -9.95828 0.0111523 
0.0425555 0.0111523 -9.96228 
-9.96224 -0.00111078 0.0551541 
-0.00111078 -9.9668 0.00732985 
0.0551541 0.00732985 -9.95829 
-9.96373 0.00181613 0.0521663 
0.00181613 -9.97309 0.00822715 
0.0521663 0.00822715 -9.95051 
-9.97769 0.00154345 0.0594555 
0.00154345 -9.97867 0.00958199 
0.0594555 0.00958199 -9.93097 
-9.97397 0.00177313 0.0504379 
0.00177313 -9.97052 0.0494806 
0.0504379 0.0494806 -9.97833 
-9.97266 -0.0031944 0.0503122 
-0.0031944 -9.96847 0.0458781 
0.0503122 0.0458781 -9.98169 
-9.97682 0.00214547 0.0485754 
0.00214547 -9.97318 0.0477686 
0.0485754 0.0477686 -9.97282 
-9.97707 0.00196232 0.0519147 
0.00196232 -9.97662 0.0526359 
0.0519147 0.0526359 -9.96913 
-9.92041 0.0167875 -0.0217696 
0.0167875 -9.92578 0.00560593 
-0.0217696 0.00560593 -9.8516 
-9.95189 -0.0204849 -0.00317549 
-0.0204849 -9.89915 0.0605834 
-0.00317549 0.0605834 -9.84674 
-9.93038 -0.0316534 -0.0641079 
-0.0316534 -9.92663 0.0874891 
-0.0641079 0.0874891 -9.84077 
-9.93459 -0.00520751 -0.0343941 
-0.00520751 -9.9148 0.0726538 
-0.0343941 0.0726538 -9.8484 
-9.93536 0.0341104 0.0341661 
0.0341104 -9.8775 0.0388971 
0.0341661 0.0388971 -10.2249 
-10.0444 -0.00104494 -0.0139774 
-0.00104494 -9.78815 -0.00351987 
-0.0139774 -0.00351987 -10.2052 
-9.94521 -0.0171084 -0.0191636 
-0.0171084 -9.93307 0.0015285 
-0.0191636 0.0015285 -10.1595 
-9.92186 -0.000999108 -0.0122903 
-0.000999108 -9.89878 0.0468067 
-0.0122903 0.0468067 -10.2171 
-9.77534 0.0541765 -0.284796 
0.0541765 -10.0052 0.0264177 
-0.284796 0.0264177 -9.98309 
-9.80829 0.118352 -0.168189 
0.118352 -9.98093 0.0476282 
-0.168189 0.0476282 -9.97436 
-9.89384 0.0339869 -0.0900994 
0.0339869 -9.87913 0.041557 
-0.0900994 0.041557 -9.99061 
-9.82099 0.18415 -0.0337929 
0.18415 -9.95759 -0.103039 
-0.0337929 -0.103039 -9.985 
-9.89238 0.0185218 -0.0395081 
0.0185218 -9.91644 0.00255234 
-0.0395081 0.00255234 -9.92852 
-9.90834 0.0494357 -0.0547834 
0.0494357 -9.90011 -0.00812151 
-0.0547834 -0.00812151 -9.92889 
-9.87383 0.0139304 -0.0517541 
0.0139304 -9.9135 0.00776336 
-0.0517541 0.00776336 -9.95001 
-9.91867 0.0457161 -0.0188417 
0.0457161 -9.87681 8.96369e-05 
-0.0188417 8.96369e-05 -9.94185 
-9.93202 0.0216481 -0.00755891 
0.0216481 -9.93015 0.051665 
-0.00755891 0.051665 -9.91523 
-10.0112 0.0943671 -0.00689545 
0.0943671 -9.8942 0.0642796 
-0.00689545 0.0642796 -9.87201 
-9.92451 0.0203061 0.044728 
0.0203061 -9.93455 0.0360475 
0.044728 0.0360475 -9.91834 
-9.94781 0.0359942 -0.027393 
0.0359942 -9.89978 0.0172468 
-0.027393 0.0172468 -9.92981 
-10.0338 -0.161059 0.0416955 
-0.161059 -9.82457 -0.117623 
0.0416955 -0.117623 -10.8608 
-10.2451 0.0512932 0.0159099 
0.0512932 -10.5993 0.049178 
0.0159099 0.049178 -9.87484 
-10.3046 0.163703 0.0513722 
0.163703 -10.2892 0.0696456 
0.0513722 0.0696456 -10.1255 
-10.1958 0.133727 0.672189 
0.133727 -10.4611 -0.0901097 
0.672189 -0.0901097 -10.0623 
-9.9249 -0.00232924 -0.0373996 
-0.00232924 -9.92761 0.048262 
-0.0373996 0.048262 -9.88926 
-9.94306 0.00768052 -0.0434535 
0.00768052 -9.94382 0.0819815 
-0.0434535 0.0819815 -9.85489 
-9.93105 0.000737753 -0.0199353 
0.000737753 -9.92729 0.0427927 
-0.0199353 0.0427927 -9.88342 
-9.91357 -0.0136773 -0.0127379 
-0.0136773 -9.90264 0.0767259 
-0.0127379 0.0767259 -9.92556 
-9.08066 -0.0236147 -0.148659 
-0.0236147 -10.4941 0.519732 
-0.148659 0.519732 -7.26557 
-8.47134 1.12439 -0.425464 
1.12439 -9.37606 -1.47852 
-0.425464 -1.47852 -8.99288 
-9.44971 -0.299119 -0.302123 
-0.299119 -10.7997 -0.827875 
-0.302123 -0.827875 -6.59084 
-9.21756 -0.0770293 -0.0586377 
-0.0770293 -10.2982 -0.205755 
-0.0586377 -0.205755 -7.32449 
-10.0816 0.0352034 0.299306 
0.0352034 -9.91821 0.091888 
0.299306 0.091888 -9.82172 
-9.84852 0.00397853 0.125778 
0.00397853 -9.9709 0.0186146 
0.125778 0.0186146 -10.0021 
-9.92276 0.033463 0.235514 
0.033463 -9.9548 -0.00855955 
0.235514 -0.00855955 -9.94396 
-9.93403 0.0011445 0.443081 
0.0011445 -9.91569 0.026656 
0.443081 0.026656 -9.97181 
-9.8979 0.0225235 -0.0268325 
0.0225235 -9.8639 -0.0983361 
-0.0268325 -0.0983361 -9.85289 
-9.9116 0.019277 -0.0259554 
0.019277 -9.82659 -0.105104 
-0.0259554 -0.105104 -9.8765 
-9.88229 0.0184382 -0.0209339 
0.0184382 -9.84249 -0.0963131 
-0.0209339 -0.0963131 -9.88991 
-9.86557 -0.0132426 -0.0278702 
-0.0132426 -9.84443 -0.101864 
-0.0278702 -0.101864 -9.90469 
-10.0224 0.0734914 -0.0593189 
0.0734914 -9.79573 0.10043 
-0.0593189 0.10043 -10.0044 
-9.89912 0.126134 -0.0739371 
0.126134 -9.94453 0.0452224 
-0.0739371 0.0452224 -9.97898 
-9.89086 0.0201825 -0.140555 
0.0201825 -9.94221 0.00814836 
-0.140555 0.00814836 -9.98956 
-9.79183 0.178248 -0.0362439 
0.178248 -9.97251 0.0321314 
-0.0362439 0.0321314 -10.0583 
-9.82473 0.0575706 -0.484084 
0.0575706 -9.77296 -0.211851 
-0.484084 -0.211851 -9.77871 
-9.98068 0.0820964 -0.119569 
0.0820964 -9.75843 0.0515441 
-0.119569 0.0515441 -9.63729 
-9.7322 0.0789564 -0.467852 
0.0789564 -10.0107 -0.0703637 
-0.467852 -0.0703637 -9.63353 
-10.1813 0.203899 -0.429957 
0.203899 -10.0004 -0.104273 
-0.429957 -0.104273 -9.19469 
-10.1843 0.0276465 0.0153521 
0.0276465 -10.2207 -0.0131071 
0.0153521 -0.0131071 -10.2229 
-10.2419 -0.0372984 0.0433672 
-0.0372984 -10.2671 -0.0137356 
0.0433672 -0.0137356 -10.119 
-10.1413 -0.045162 -0.0403804 
-0.045162 -10.1613 0.0392168 
-0.0403804 0.0392168 -10.3254 
-10.2132 -0.0960549 -0.0231283 
-0.0960549 -10.1516 -0.0889439 
-0.0231283 -0.0889439 -10.2632 
-9.95887 -0.109911 1.30937 
-0.109911 -8.67024 -0.76818 
1.30937 -0.76818 -9.45196 
-10.1249 -0.277656 -1.15939 
-0.277656 -9.74404 1.14506 
-1.15939 1.14506 -8.21217 
-10.8808 0.370984 0.572159 
0.370984 -9.80293 1.03674 
0.572159 1.03674 -7.39731 
-10.406 0.36278 -0.808455 
0.36278 -8.87556 1.12555 
-0.808455 1.12555 -8.79953 
-9.6671 -0.245437 -0.25364 
-0.245437 -10.8326 0.208332 
-0.25364 0.208332 -10.3776 
-10.2264 -0.347074 -1.01224 
-0.347074 -10.5955 0.734893 
-1.01224 0.734893 -10.0554 
-9.18289 -0.0498404 -1.13305 
-0.0498404 -10.6593 -0.0173728 
-1.13305 -0.0173728 -11.0351 
-9.6991 -0.0607701 -0.178712 
-0.0607701 -10.5008 0.123957 
-0.178712 0.123957 -10.6774 
-9.90997 0.000949226 -0.0624208 
0.000949226 -9.97895 -0.110701 
-0.0624208 -0.110701 -10.0861 
-9.93095 0.0335267 -0.0334187 
0.0335267 -9.90907 0.00163889 
-0.0334187 0.00163889 -10.135 
-10.038 0.0464248 0.058465 
0.0464248 -9.97679 0.128621 
0.058465 0.128621 -9.96016 
-10.0025 0.0204265 -0.00665703 
0.0204265 -9.89 0.00284693 
-0.00665703 0.00284693 -10.0825 
-9.94668 -0.00700908 -0.0206509 
-0.00700908 -9.95091 4.14743e-05 
-0.0206509 4.14743e-05 -9.99162 
-9.9429 0.00180462 -0.0129545 
0.00180462 -9.95399 0.0115766 
-0.0129545 0.0115766 -9.99232 
-9.95914 -0.0127589 -0.00595473 
-0.0127589 -9.9215 -0.00479041 
-0.00595473 -0.00479041 -10.0086 
-9.95426 -0.00981758 0.00312133 
-0.00981758 -9.93771 -0.00273252 
0.00312133 -0.00273252 -9.99724 
-9.96602 0.00519174 0.00301376 
0.00519174 -9.9641 -0.0221015 
0.00301376 -0.0221015 -9.98359 
-9.97319 -0.00808873 0.000763238 
-0.00808873 -9.97222 -0.00385946 
0.000763238 -0.00385946 -9.9683 
-9.98856 0.00134683 0.00164719 
0.00134683 -9.98625 -0.000158349 
0.00164719 -0.000158349 -9.9389 
-9.97073 -0.00182918 0.000717988 
-0.00182918 -9.96828 -0.00161711 
0.000717988 -0.00161711 -9.97471 
-9.9439 0.00100354 0.00899077 
0.00100354 -9.95363 0.000414509 
0.00899077 0.000414509 -9.9942 
-9.95451 0.00406981 0.0157125 
0.00406981 -9.95494 0.00513638 
0.0157125 0.00513638 -9.98228 
-9.94673 0.000956712 0.00824898 
0.000956712 -9.95014 0.00251837 
0.00824898 0.00251837 -9.99486 
-9.9658 -0.003879 -0.000449672 
-0.003879 -9.94267 0.00349537 
-0.000449672 0.00349537 -9.98325 
-9.87214 -0.0517872 0.0303746 
-0.0517872 -10.0519 0.0808277 
0.0303746 0.0808277 -10.1703 
-10.0367 0.0364855 -0.0388219 
0.0364855 -9.99881 0.0304169 
-0.0388219 0.0304169 -10.0589 
-9.99813 -0.00531992 -0.00483364 
-0.00531992 -10.0806 -0.0192375 
-0.00483364 -0.0192375 -10.0156 
-9.99886 0.0311758 -0.0116003 
0.0311758 -10.0191 0.00582772 
-0.0116003 0.00582772 -10.0765 
-9.82625 0.0631333 0.207011 
0.0631333 -9.90711 -0.0812365 
0.207011 -0.0812365 -10.2687 
-9.96245 -0.00189803 0.213779 
-0.00189803 -9.94651 -0.0525758 
0.213779 -0.0525758 -10.0932 
-9.94732 -0.0198236 0.240412 
-0.0198236 -10.0378 -0.0769682 
0.240412 -0.0769682 -10.017 
-9.88361 0.0435654 0.0691551 
0.0435654 -10.0667 0.016493 
0.0691551 0.016493 -10.0518 
-9.9676 -0.0125444 -0.0162525 
-0.0125444 -9.98121 -0.00805909 
-0.0162525 -0.00805909 -9.97716 
-9.97507 -0.0126444 -0.0177155 
-0.0126444 -9.98166 -0.025597 
-0.0177155 -0.025597 -9.96924 
-9.96974 -0.00898932 -0.0170821 
-0.00898932 -9.98194 -0.0189107 
-0.0170821 -0.0189107 -9.97429 
-9.97354 -0.00747927 -0.0159258 
-0.00747927 -9.98192 -0.0103626 
-0.0159258 -0.0103626 -9.97051 
-9.96961 -0.000584295 0.051841 
-0.000584295 -9.96525 0.0238349 
0.051841 0.0238349 -9.97252 
-9.97036 -8.89886e-05 0.0441235 
-8.89886e-05 -9.96861 0.0235312 
0.0441235 0.0235312 -9.96841 
-9.98177 -0.00337647 0.0431921 
-0.00337647 -9.98085 0.0238071 
0.0431921 0.0238071 -9.94476 
-9.969 -0.00118909 0.0456082 
-0.00118909 -9.97483 0.022857 
0.0456082 0.022857 -9.96355 
-9.91531 0.0152024 -0.0500841 
0.0152024 -9.92402 -0.0702254 
-0.0500841 -0.0702254 -9.92276 
-9.92845 0.00319951 -0.0527987 
0.00319951 -9.9235 -0.0691446 
-0.0527987 -0.0691446 -9.91013 
-9.90604 0.000834258 -0.0385789 
0.000834258 -9.92734 -0.0782083 
-0.0385789 -0.0782083 -9.92871 
-9.91447 0.00358958 -0.0364632 
0.00358958 -9.91261 -0.0678274 
-0.0364632 -0.0678274 -9.93501 
-9.85565 -0.0115289 -0.083369 
-0.0115289 -9.92911 0.0358899 
-0.083369 0.0358899 -9.90253 
-9.88293 -0.0087422 -0.0713357 
-0.0087422 -9.89118 -0.0326492 
-0.0713357 -0.0326492 -9.91318 
-9.90715 0.00164246 -0.105072 
0.00164246 -9.90403 0.0394011 
-0.105072 0.0394011 -9.8761 
-9.88836 -0.0168674 -0.135932 
-0.0168674 -9.92671 -0.011964 
-0.135932 -0.011964 -9.87221 
-9.90438 0.0320185 0.0482204 
0.0320185 -9.96727 -0.111019 
0.0482204 -0.111019 -10.0468 
-10.0488 0.128034 0.00861573 
0.128034 -9.88867 -0.0834735 
0.00861573 -0.0834735 -9.98096 
-10.0315 -0.152636 0.141505 
-0.152636 -9.92739 -0.215451 
0.141505 -0.215451 -9.95956 
-9.98708 0.0287532 0.0587607 
0.0287532 -9.92082 -0.104482 
0.0587607 -0.104482 -10.0105 
-9.97831 0.00404564 -0.00450791 
0.00404564 -9.98056 0.0500699 
-0.00450791 0.0500699 -9.96975 
-9.97605 0.00393096 0.000562585 
0.00393096 -9.98461 0.0470181 
0.000562585 0.0470181 -9.96797 
-9.96893 0.00689509 0.00266788 
0.00689509 -9.98795 0.0432271 
0.00266788 0.0432271 -9.97175 
-9.97836 0.0030261 -0.00702365 
0.0030261 -9.9843 0.05278 
-0.00702365 0.05278 -9.96597 
-9.67876 0.116585 -0.0427794 
0.116585 -9.9598 -0.000692404 
-0.0427794 -0.000692404 -10.1151 
-10.0593 -0.0501502 -0.0121411 
-0.0501502 -9.83554 -0.0123249 
-0.0121411 -0.0123249 -9.85879 
-9.88814 0.0374879 -0.0767994 
0.0374879 -9.89131 -0.0237932 
-0.0767994 -0.0237932 -9.97418 
-9.9065 0.0252979 -0.205228 
0.0252979 -9.87836 -0.10566 
-0.205228 -0.10566 -9.96878 
-9.91587 0.00086379 0.00641214 
0.00086379 -9.89935 -0.0314067 
0.00641214 -0.0314067 -10.1097 
-9.91877 0.00330095 0.0100425 
0.00330095 -9.89208 -0.0364847 
0.0100425 -0.0364847 -10.1141 
-9.92174 -0.0112455 -8.70779e-05 
-0.0112455 -9.8941 -0.00785971 
-8.70779e-05 -0.00785971 -10.1091 
-9.91041 0.0165175 0.0100959 
0.0165175 -9.92103 -0.0337156 
0.0100959 -0.0337156 -10.0935 
-9.92332 -0.00732597 -0.0436814 
-0.00732597 -9.93916 0.0593551 
-0.0436814 0.0593551 -9.94244 
-9.92352 -0.000733052 -0.0447686 
-0.000733052 -9.93059 0.0596361 
-0.0447686 0.0596361 -9.95081 
-9.92502 -0.00445709 -0.0469705 
-0.00445709 -9.93646 0.0615916 
-0.0469705 0.0615916 -9.94345 
-9.92664 -0.00699781 -0.0440004 
-0.00699781 -9.9352 0.0545969 
-0.0440004 0.0545969 -9.94309 
-9.98564 -0.00700072 0.0195064 
-0.00700072 -9.96674 0.0316141 
0.0195064 0.0316141 -9.98566 
-9.98009 -0.00320891 0.0212361 
-0.00320891 -9.97984 0.0342682 
0.0212361 0.0342682 -9.9781 
-9.98132 -0.00109894 0.0366908 
-0.00109894 -9.97077 0.0311957 
0.0366908 0.0311957 -9.98595 
-9.97857 -0.00618185 0.0396349 
-0.00618185 -9.98098 0.0294126 
0.0396349 0.0294126 -9.97848 
-9.86142 0.0137279 0.0606374 
0.0137279 -9.90628 0.0245662 
0.0606374 0.0245662 -9.94283 
-9.87527 0.0273595 0.0388042 
0.0273595 -9.89524 0.0351786 
0.0388042 0.0351786 -9.94003 
-9.87543 0.0151564 0.00108024 
0.0151564 -9.89164 0.0837388 
0.00108024 0.0837388 -9.94346 
-9.88575 0.038819 0.087686 
0.038819 -9.84909 0.0488294 
0.087686 0.0488294 -9.97569 
-9.97895 -0.00407038 0.000265278 
-0.00407038 -9.97986 -0.000239936 
0.000265278 -0.000239936 -9.99263 
-9.9771 0.00618836 0.000100003 
0.00618836 -9.97645 -0.0030904 
0.000100003 -0.0030904 -9.9979 
-9.97445 -0.008349 0.000758245 
-0.008349 -9.97914 0.00222015 
0.000758245 0.00222015 -9.99786 
-9.98333 0.00297609 -0.00556883 
0.00297609 -9.9771 0.00733806 
-0.00556883 0.00733806 -9.99101 
-9.98287 -0.0171486 -0.0299157 
-0.0171486 -9.96624 0.0083703 
-0.0299157 0.0083703 -10.2017 
-9.94035 -0.0128767 -0.00828458 
-0.0128767 -9.99279 0.0325826 
-0.00828458 0.0325826 -10.2177 
-9.95753 -0.0180697 0.0190555 
-0.0180697 -10.0055 0.00524688 
0.0190555 0.00524688 -10.1878 
-9.92139 -0.0121054 -0.00211387 
-0.0121054 -10.0174 0.00832075 
-0.00211387 0.00832075 -10.212 
-9.92468 0.00797153 0.00837208 
0.00797153 -9.94021 -0.132026 
0.00837208 -0.132026 -9.64113 
-9.89448 0.0290136 0.0591158 
0.0290136 -9.84026 -0.0872563 
0.0591158 -0.0872563 -9.77127 
-9.89326 0.0174651 0.0184929 
0.0174651 -9.88596 -0.0630047 
0.0184929 -0.0630047 -9.7268 
-9.89413 0.00753105 0.0202335 
0.00753105 -9.88237 -0.0313188 
0.0202335 -0.0313188 -9.72951 
-9.79752 0.0147052 -0.0911326 
0.0147052 -9.8565 -0.0169743 
-0.0911326 -0.0169743 -9.95928 
-9.73971 -0.00537583 -0.0563551 
-0.00537583 -9.95849 -0.00937248 
-0.0563551 -0.00937248 -9.9151 
-9.86359 -0.0289382 -0.122717 
-0.0289382 -9.91669 0.000688755 
-0.122717 0.000688755 -9.83303 
-9.80634 0.000100033 -0.153853 
0.000100033 -9.83771 0.0178637 
-0.153853 0.0178637 -9.96925 
-9.97245 0.00406002 0.040213 
0.00406002 -9.97039 -0.0153926 
0.040213 -0.0153926 -9.96962 
-9.98013 0.0027784 0.0406977 
0.0027784 -9.96911 -0.0174536 
0.0406977 -0.0174536 -9.96322 
-9.97835 0.00578384 0.0450627 
0.00578384 -9.97835 -0.0119083 
0.0450627 -0.0119083 -9.95577 
-9.97682 -5.12135e-05 0.0391251 
-5.12135e-05 -9.97013 -0.0177213 
0.0391251 -0.0177213 -9.9655 
-9.97691 -0.00372233 0.0324542 
-0.00372233 -9.97157 -0.0662006 
0.0324542 -0.0662006 -9.97096 
-9.9635 0.00328779 0.0404679 
0.00328779 -9.97056 -0.0599282 
0.0404679 -0.0599282 -9.98538 
-9.9656 0.000449938 0.0382938 
0.000449938 -9.97441 -0.0719295 
0.0382938 -0.0719295 -9.97943 
-9.97764 -0.0022575 0.0328429 
-0.0022575 -9.97939 -0.073676 
0.0328429 -0.073676 -9.96241 
-9.86574 -0.0237278 -0.0496037 
-0.0237278 -9.84497 -0.0105484 
-0.0496037 -0.0105484 -10.153 
-9.89306 0.0285705 -0.0199321 
0.0285705 -9.85458 -0.0469305 
-0.0199321 -0.0469305 -10.1161 
-9.90771 -0.0524251 -0.0417925 
-0.0524251 -9.79249 -0.0826094 
-0.0417925 -0.0826094 -10.1635 
-9.92311 -0.020694 -0.0180387 
-0.020694 -9.8697 -0.0487501 
-0.0180387 -0.0487501 -10.0709 
-10.5847 0.191405 -0.217484 
0.191405 -9.77417 0.148058 
-0.217484 0.148058 -11.1654 
-10.4627 0.154077 -0.119717 
0.154077 -9.85835 -0.258315 
-0.119717 -0.258315 -11.2031 
-10.1983 0.236815 0.137581 
0.236815 -10.7256 -0.0527551 
0.137581 -0.0527551 -10.6003 
-10.6059 0.259511 -0.237859 
0.259511 -9.90326 -0.0742032 
-0.237859 -0.0742032 -11.0151 
-9.96115 0.000307584 -0.0247588 
0.000307584 -9.96524 -0.0526895 
-0.0247588 -0.0526895 -9.95099 
-9.97007 0.000112218 -0.018549 
0.000112218 -9.97225 -0.0573601 
-0.018549 -0.0573601 -9.93505 
-9.96113 0.00159003 -0.0247291 
0.00159003 -9.97256 -0.0534725 
-0.0247291 -0.0534725 -9.94368 
-9.95448 -0.00505098 -0.0258003 
-0.00505098 -9.9696 -0.0419192 
-0.0258003 -0.0419192 -9.95329 
-9.89906 0.004757 -0.0455892 
0.004757 -9.91877 0.0310659 
-0.0455892 0.0310659 -9.94925 
-9.89236 -0.00445933 -0.0569609 
-0.00445933 -9.88585 0.0297365 
-0.0569609 0.0297365 -9.98888 
-9.89882 -0.00111428 -0.0398316 
-0.00111428 -9.91692 0.0381184 
-0.0398316 0.0381184 -9.95135 
-9.93186 -0.0167102 -0.0692829 
-0.0167102 -9.91646 0.0673708 
-0.0692829 0.0673708 -9.91877 
-9.9502 -0.0193037 0.0139888 
-0.0193037 -9.9427 -0.0488144 
0.0139888 -0.0488144 -9.89027 
-9.95933 -0.0143168 -0.00192891 
-0.0143168 -9.93607 -0.0658158 
-0.00192891 -0.0658158 -9.88777 
-9.93585 -0.00335852 0.017354 
-0.00335852 -9.94615 -0.0410936 
0.017354 -0.0410936 -9.90118 
-9.94631 -0.0117874 -0.00581047 
-0.0117874 -9.95 -0.0531076 
-0.00581047 -0.0531076 -9.88686 
-9.92996 0.00265765 0.00933982 
0.00265765 -9.91787 -0.0868733 
0.00933982 -0.0868733 -9.89719 
-9.92226 0.00396781 0.00943127 
0.00396781 -9.92721 -0.0930669 
0.00943127 -0.0930669 -9.89555 
-9.95175 -0.00247045 0.00139682 
-0.00247045 -9.90297 -0.100434 
0.00139682 -0.100434 -9.89031 
-9.92963 0.00351816 0.0170324 
0.00351816 -9.92179 -0.0928044 
0.0170324 -0.0928044 -9.89361 
-9.93128 -0.00680266 0.0260206 
-0.00680266 -9.89257 -0.00628675 
0.0260206 -0.00628675 -9.82387 
-9.9273 0.0138859 -0.0102474 
0.0138859 -9.91378 0.000257797 
-0.0102474 0.000257797 -9.80664 
-9.93015 0.0119375 -0.00368208 
0.0119375 -9.90212 -0.013724 
-0.00368208 -0.013724 -9.81546 
-9.96915 -0.00701467 0.00689926 
-0.00701467 -9.91611 -0.043003 
0.00689926 -0.043003 -9.76246 
-9.94286 0.00883913 -0.0511399 
0.00883913 -9.92052 0.0509545 
-0.0511399 0.0509545 -9.95476 
-9.94083 0.00418772 -0.0560616 
0.00418772 -9.92531 0.0513322 
-0.0560616 0.0513322 -9.952 
-9.93903 -0.00313158 -0.0526308 
-0.00313158 -9.92596 0.0485794 
-0.0526308 0.0485794 -9.95315 
-9.93035 -0.000301578 -0.055381 
-0.000301578 -9.93131 0.0402648 
-0.055381 0.0402648 -9.95648 
-9.86696 0.0877742 -0.0441569 
0.0877742 -9.91635 -0.0223405 
-0.0441569 -0.0223405 -9.95967 
-9.865 0.0399695 -0.0459871 
0.0399695 -9.9222 -0.00210805 
-0.0459871 -0.00210805 -9.95577 
-9.91653 0.0423128 -0.0401681 
0.0423128 -9.8529 -0.0290911 
-0.0401681 -0.0290911 -9.97354 
-9.89292 0.0496714 -0.0596911 
0.0496714 -9.90653 0.00118297 
-0.0596911 0.00118297 -9.94352 
-9.90193 -0.00621506 -0.0877873 
-0.00621506 -9.91866 0.00381997 
-0.0877873 0.00381997 -9.91453 
-9.92159 -0.0021717 -0.0832993 
-0.0021717 -9.89767 0.0225053 
-0.0832993 0.0225053 -9.91586 
-9.90611 -0.00731433 -0.0865771 
-0.00731433 -9.92288 0.0118586 
-0.0865771 0.0118586 -9.90614 
-9.90806 -0.0111437 -0.0884326 
-0.0111437 -9.91968 0.0117939 
-0.0884326 0.0117939 -9.90738 
-9.97255 -0.00538712 0.0138134 
-0.00538712 -9.95694 -0.0114958 
0.0138134 -0.0114958 -10.0023 
-9.97055 -0.0201798 -0.0142459 
-0.0201798 -9.96141 0.00634802 
-0.0142459 0.00634802 -9.99979 
-9.95911 -0.0168165 -0.00513531 
-0.0168165 -9.96903 0.00327672 
-0.00513531 0.00327672 -10.0036 
-9.94907 -0.0200168 -0.0013461 
-0.0200168 -9.98215 -0.00411622 
-0.0013461 -0.00411622 -10.0005 
-9.93426 0.0203597 -0.00818031 
0.0203597 -9.93135 0.0173411 
-0.00818031 0.0173411 -9.94874 
-9.93814 0.0272882 -0.012323 
0.0272882 -9.93843 0.0180527 
-0.012323 0.0180527 -9.93778 
-9.93093 0.0135663 -0.0211085 
0.0135663 -9.94006 0.0165161 
-0.0211085 0.0165161 -9.94337 
-9.92622 0.01212 -0.0140673 
0.01212 -9.94361 0.0181436 
-0.0140673 0.0181436 -9.94452 
-9.93781 0.00534561 0.0421802 
0.00534561 -9.94446 0.0584608 
0.0421802 0.0584608 -9.94584 
-9.93794 -0.0020733 0.0321286 
-0.0020733 -9.9376 0.0620666 
0.0321286 0.0620666 -9.95256 
-9.93271 0.00311638 0.042277 
0.00311638 -9.94951 0.0602345 
0.042277 0.0602345 -9.94588 
-9.93581 0.00169644 0.037555 
0.00169644 -9.93864 0.0617544 
0.037555 0.0617544 -9.95366 
-9.80332 0.116508 -0.251256 
0.116508 -9.6065 -0.288865 
-0.251256 -0.288865 -9.58561 
-9.65108 0.0710167 -0.0638545 
0.0710167 -9.77252 -0.288525 
-0.0638545 -0.288525 -9.57182 
-9.66582 0.113362 -0.25984 
0.113362 -9.63083 -0.272079 
-0.25984 -0.272079 -9.69878 
-9.83211 0.140304 -0.285204 
0.140304 -9.77825 -0.492477 
-0.285204 -0.492477 -9.38507 
-9.99511 0.000543253 0.0309838 
0.000543253 -9.99326 -0.0226319 
0.0309838 -0.0226319 -9.99112 
-9.99167 -0.000498896 0.0283959 
-0.000498896 -9.98898 -0.0206415 
0.0283959 -0.0206415 -9.99884 
-9.98912 -0.00330306 0.0299781 
-0.00330306 -9.99206 -0.0185045 
0.0299781 -0.0185045 -9.99831 
-9.99521 0.00174129 0.0312405 
0.00174129 -9.99605 -0.0227823 
0.0312405 -0.0227823 -9.98823 
-9.20679 -0.738788 0.989174 
-0.738788 -10.4234 0.291154 
0.989174 0.291154 -11.5295 
-9.43153 0.013377 0.0605052 
0.013377 -10.8602 -0.475196 
0.0605052 -0.475196 -10.8679 
-10.2395 -0.811265 0.611479 
-0.811265 -9.73238 -1.11706 
0.611479 -1.11706 -11.1878 
-9.51036 -0.306003 0.384183 
-0.306003 -10.4544 -0.217241 
0.384183 -0.217241 -11.1949 
-9.89697 0.014801 -0.038238 
0.014801 -9.92456 -0.0682858 
-0.038238 -0.0682858 -9.94552 
-9.9115 0.0190443 -0.0589202 
0.0190443 -9.94769 -0.057702 
-0.0589202 -0.057702 -9.90786 
-9.91489 0.00618652 -0.0454287 
0.00618652 -9.92092 -0.0637172 
-0.0454287 -0.0637172 -9.93123 
-9.92353 0.00721839 -0.0500771 
0.00721839 -9.91515 -0.058505 
-0.0500771 -0.058505 -9.92836 
-9.8947 -0.00120704 -0.0195424 
-0.00120704 -9.9529 -0.051046 
-0.0195424 -0.051046 -9.89137 
-9.91784 0.0392237 -0.0323586 
0.0392237 -9.86133 -0.027695 
-0.0323586 -0.027695 -9.9598 
-9.87263 0.00676479 -0.0487026 
0.00676479 -9.94982 -0.0588145 
-0.0487026 -0.0588145 -9.91653 
-9.88882 -0.0165388 -0.0638181 
-0.0165388 -9.90408 -0.0829234 
-0.0638181 -0.0829234 -9.94608 
-9.90316 0.0661353 -0.0609648 
0.0661353 -9.94225 0.00507707 
-0.0609648 0.00507707 -10.081 
-9.90656 0.0908133 -0.0403289 
0.0908133 -9.9378 0.0181802 
-0.0403289 0.0181802 -10.0821 
-9.88974 0.0700226 -0.0231374 
0.0700226 -9.95668 0.0263758 
-0.0231374 0.0263758 -10.08 
-9.91202 0.111785 -0.031857 
0.111785 -9.91741 0.014388 
-0.031857 0.014388 -10.097 
-9.97061 0.0380921 -0.0121066 
0.0380921 -9.91266 -0.0157229 
-0.0121066 -0.0157229 -9.93345 
-9.9474 0.0300981 -0.0111647 
0.0300981 -9.91513 -0.0103571 
-0.0111647 -0.0103571 -9.9542 
-9.96816 0.0356871 -0.0122809 
0.0356871 -9.91862 -0.0138538 
-0.0122809 -0.0138538 -9.92994 
-9.95697 0.0289891 -0.00825906 
0.0289891 -9.91125 -0.0113042 
-0.00825906 -0.0113042 -9.94851 
-9.77599 -0.288185 0.103519 
-0.288185 -9.77623 -0.0310927 
0.103519 -0.0310927 -10.0082 
-9.91222 0.00795685 -0.0594577 
0.00795685 -9.92383 -0.0548042 
-0.0594577 -0.0548042 -9.72436 
-9.83779 -0.165611 0.0372414 
-0.165611 -9.71961 -0.0382022 
0.0372414 -0.0382022 -10.003 
-9.91575 -0.213003 -0.0105182 
-0.213003 -9.70181 0.0640084 
-0.0105182 0.0640084 -9.94286 
-10.0833 0.0124994 0.0239761 
0.0124994 -10.1019 0.0185532 
0.0239761 0.0185532 -10.2328 
-10.0762 -0.0175624 0.0100779 
-0.0175624 -10.0997 0.0305801 
0.0100779 0.0305801 -10.2421 
-10.0781 0.000183421 0.0107974 
0.000183421 -10.0834 0.0295877 
0.0107974 0.0295877 -10.2565 
-10.1529 -0.0150496 -0.0285534 
-0.0150496 -10.0889 0.0733674 
-0.0285534 0.0733674 -10.1762 
-10.1065 -0.101767 -0.0317299 
-0.101767 -10.2907 0.0112769 
-0.0317299 0.0112769 -10.2003 
-10.4152 0.0729787 0.0249448 
0.0729787 -10.3465 -0.110379 
0.0249448 -0.110379 -9.83572 
-10.1111 -0.041442 -0.114318 
-0.041442 -9.90627 0.0770076 
-0.114318 0.0770076 -10.5801 
-10.2046 -0.0494215 0.27713 
-0.0494215 -10.1895 0.125811 
0.27713 0.125811 -10.2034 
-9.83832 0.546573 -0.0869082 
0.546573 -9.62625 -0.199294 
-0.0869082 -0.199294 -10.1248 
-9.91975 0.518264 -0.126842 
0.518264 -9.63495 -0.100996 
-0.126842 -0.100996 -10.0346 
-9.87751 0.241723 -0.168893 
0.241723 -9.62772 -0.218243 
-0.168893 -0.218243 -10.0841 
-9.8161 0.494828 -0.190817 
0.494828 -9.68178 -0.111519 
-0.190817 -0.111519 -10.0915 
-9.58212 -0.22734 0.132571 
-0.22734 -10.3291 -0.14475 
0.132571 -0.14475 -11.0277 
-10.0451 -0.00840667 0.120537 
-0.00840667 -10.3253 -0.0683209 
0.120537 -0.0683209 -10.5685 
-10.0199 0.271314 -0.0111297 
0.271314 -10.1622 -0.0140938 
-0.0111297 -0.0140938 -10.7569 
-10.1204 0.000529401 0.147241 
0.000529401 -10.214 -0.0504161 
0.147241 -0.0504161 -10.6046 
-9.96316 0.00506736 -0.0272609 
0.00506736 -9.97037 0.0147415 
-0.0272609 0.0147415 -9.96151 
-9.96934 0.00789776 -0.01483 
0.00789776 -9.96377 0.00876636 
-0.01483 0.00876636 -9.96192 
-9.97228 0.0059035 -0.024097 
0.0059035 -9.97303 0.0188031 
-0.024097 0.0188031 -9.94972 
-9.97228 0.00441995 -0.0210876 
0.00441995 -9.96658 0.017496 
-0.0210876 0.017496 -9.95617 
-9.8849 0.0522144 -0.0774279 
0.0522144 -9.86976 -0.0432196 
-0.0774279 -0.0432196 -9.93588 
-9.89763 0.104359 -0.121231 
0.104359 -9.88223 -0.0588647 
-0.121231 -0.0588647 -9.91068 
-9.89814 0.122197 -0.122056 
0.122197 -9.85596 -0.0403686 
-0.122056 -0.0403686 -9.93644 
-9.85516 0.09202 -0.097936 
0.09202 -9.88918 0.0106469 
-0.097936 0.0106469 -9.9462 
-9.9248 0.0153585 0.0439516 
0.0153585 -9.92199 -0.0477125 
0.0439516 -0.0477125 -9.93689 
-9.91865 0.0153401 0.0527225 
0.0153401 -9.91656 -0.0448202 
0.0527225 -0.0448202 -9.94846 
-9.92678 0.0233772 0.0572987 
0.0233772 -9.91806 -0.0562449 
0.0572987 -0.0562449 -9.93884 
-9.92652 0.0147953 0.0536441 
0.0147953 -9.92165 -0.0504456 
0.0536441 -0.0504456 -9.9355 
-9.89049 0.0153402 0.0702667 
0.0153402 -9.90611 0.0293336 
0.0702667 0.0293336 -9.92445 
-9.89417 0.00717119 0.0748881 
0.00717119 -9.90703 0.0328291 
0.0748881 0.0328291 -9.91986 
-9.90188 0.00796081 0.0822444 
0.00796081 -9.89862 0.0272469 
0.0822444 0.0272469 -9.92056 
-9.89151 0.00823478 0.0778002 
0.00823478 -9.90978 0.0351976 
0.0778002 0.0351976 -9.91976 
-9.97019 -0.00358087 -0.0362231 
-0.00358087 -9.97028 -0.0234019 
-0.0362231 -0.0234019 -9.97319 
-9.97219 -0.00329651 -0.0376782 
-0.00329651 -9.9669 -0.0256808 
-0.0376782 -0.0256808 -9.97457 
-9.9773 -0.00589324 -0.0400357 
-0.00589324 -9.97027 -0.0238155 
-0.0400357 -0.0238155 -9.96609 
-9.97633 -0.00634181 -0.035168 
-0.00634181 -9.97362 -0.030264 
-0.035168 -0.030264 -9.96371 
-9.89073 -0.00463886 0.0314579 
-0.00463886 -9.86783 -0.111692 
0.0314579 -0.111692 -9.87932 
-9.86715 -0.0163138 0.0385889 
-0.0163138 -9.87537 -0.12992 
0.0385889 -0.12992 -9.89536 
-9.87934 0.0117856 0.0326718 
0.0117856 -9.88436 -0.111437 
0.0326718 -0.111437 -9.87418 
-9.896 -0.0114202 0.0298983 
-0.0114202 -9.84588 -0.10125 
0.0298983 -0.10125 -9.89599 
-10.5228 -0.131979 0.0805043 
-0.131979 -7.77792 -0.333705 
0.0805043 -0.333705 -3.0737 
-9.8869 0.925612 -1.0386 
0.925612 -7.43135 0.922232 
-1.0386 0.922232 -4.05623 
-9.7048 -0.840861 -0.232427 
-0.840861 -7.46132 -0.611642 
-0.232427 -0.611642 -4.20835 
-9.60251 -0.981112 -0.167693 
-0.981112 -7.31593 1.35796 
-0.167693 1.35796 -4.45603 
-9.93211 -0.136616 0.195885 
-0.136616 -9.8476 -0.111416 
0.195885 -0.111416 -9.91736 
-9.9951 -0.254688 0.256719 
-0.254688 -9.8448 -0.126038 
0.256719 -0.126038 -9.85718 
-9.91347 0.0509666 0.125083 
0.0509666 -9.86043 -0.188838 
0.125083 -0.188838 -9.92318 
-9.79101 -0.077383 0.231718 
-0.077383 -10.0201 -0.111342 
0.231718 -0.111342 -9.886 
-9.92092 -0.00779035 0.0417675 
-0.00779035 -9.94642 0.0340874 
0.0417675 0.0340874 -9.97725 
-9.88377 -0.00710491 0.0307509 
-0.00710491 -9.93856 0.0567679 
0.0307509 0.0567679 -10.0223 
-9.91336 -0.0548863 0.046754 
-0.0548863 -9.93094 0.0884364 
0.046754 0.0884364 -10.0003 
-9.9484 -0.012287 0.0465173 
-0.012287 -9.93159 0.065139 
0.0465173 0.065139 -9.9646 
-9.92052 -0.060198 0.0302744 
-0.060198 -9.8871 -0.0102851 
0.0302744 -0.0102851 -9.96565 
-9.93415 0.0324081 0.0319982 
0.0324081 -9.92412 -0.0165914 
0.0319982 -0.0165914 -9.915 
-9.91764 0.000295005 0.0359425 
0.000295005 -9.91807 -0.0306671 
0.0359425 -0.0306671 -9.93756 
-9.92133 -0.000722106 0.0649473 
-0.000722106 -9.89722 -0.0529052 
0.0649473 -0.0529052 -9.95473 
-9.89708 -0.00979707 0.0266105 
-0.00979707 -9.88462 0.0238228 
0.0266105 0.0238228 -10.0447 
-9.87821 -0.0218576 -0.00369093 
-0.0218576 -9.87001 0.0426548 
-0.00369093 0.0426548 -10.0782 
-9.88572 -0.0112606 0.0355623 
-0.0112606 -9.90938 0.0336501 
0.0355623 0.0336501 -10.0313 
-9.90668 -0.00713001 -0.00840723 
-0.00713001 -9.9108 0.0244406 
-0.00840723 0.0244406 -10.0089 
-9.97955 -0.000924329 0.0415437 
-0.000924329 -9.98244 0.0556152 
0.0415437 0.0556152 -9.98485 
-9.98015 0.00280808 0.0422567 
0.00280808 -9.98209 0.0557574 
0.0422567 0.0557574 -9.98459 
-9.97576 -0.00434648 0.0382163 
-0.00434648 -9.97736 0.0507362 
0.0382163 0.0507362 -9.99371 
-9.98214 -0.00142634 0.0453777 
-0.00142634 -9.98462 0.0552353 
0.0453777 0.0552353 -9.98007 
-9.95483 0.000424035 -0.012872 
0.000424035 -9.94408 0.00184131 
-0.012872 0.00184131 -9.97912 
-9.95696 0.00515922 -0.0131001 
0.00515922 -9.95118 -4.21036e-05 
-0.0131001 -4.21036e-05 -9.96989 
-9.94752 0.00602124 -0.018242 
0.00602124 -9.9411 0.00620371 
-0.018242 0.00620371 -9.98941 
-9.93807 0.0034101 0.00911428 
0.0034101 -9.96119 0.00403459 
0.00911428 0.00403459 -9.97877 
-9.97433 0.0174518 -0.0221772 
0.0174518 -9.83078 -0.0438506 
-0.0221772 -0.0438506 -10.2864 
-9.92977 0.016 -0.0382738 
0.016 -9.88321 -0.00420952 
-0.0382738 -0.00420952 -10.2786 
-9.92898 -0.000126565 -0.0121798 
-0.000126565 -9.87065 0.0176785 
-0.0121798 0.0176785 -10.2919 
-9.95954 0.0116378 -0.0239869 
0.0116378 -9.86042 -0.0126877 
-0.0239869 -0.0126877 -10.2716 
-4.27662 4.68197 2.07189 
4.68197 -1.96175 6.61491 
2.07189 6.61491 -23.1788 
-13.9995 1.16129 -2.97646 
1.16129 -11.4541 -4.63111 
-2.97646 -4.63111 -3.9635 
-8.49363 2.06213 2.39938 
2.06213 -3.91779 3.53393 
2.39938 3.53393 -17.0057 
-9.17054 -3.43384 2.46181 
-3.43384 -15.7035 4.14406 
2.46181 4.14406 -4.54308 
-9.95696 0.00871401 -0.0696716 
0.00871401 -9.94355 -0.0291188 
-0.0696716 -0.0291188 -9.9488 
-9.96188 -0.000509025 -0.0634305 
-0.000509025 -9.94616 -0.0372245 
-0.0634305 -0.0372245 -9.94128 
-9.94328 0.0018342 -0.0644038 
0.0018342 -9.93841 -0.0198217 
-0.0644038 -0.0198217 -9.96762 
-9.95312 0.00643854 -0.0688542 
0.00643854 -9.94941 -0.0322682 
-0.0688542 -0.0322682 -9.94679 
-10.0114 0.0117531 -0.00443768 
0.0117531 -10.0101 -0.0202634 
-0.00443768 -0.0202634 -10.0417 
-10.007 -0.00381442 -0.00609877 
-0.00381442 -10.0289 -0.00658265 
-0.00609877 -0.00658265 -10.0273 
-10.0143 0.00563852 -0.0365368 
0.00563852 -10.032 0.0291837 
-0.0365368 0.0291837 -10.0168 
-9.98988 0.0117961 -0.0275707 
0.0117961 -10.0277 -0.01605 
-0.0275707 -0.01605 -10.0456 
-9.91315 0.0370182 0.0466944 
0.0370182 -9.87409 0.0344864 
0.0466944 0.0344864 -9.956 
-9.87663 0.00717117 0.0451783 
0.00717117 -9.89633 0.0519772 
0.0451783 0.0519772 -9.97028 
-9.84944 0.0205462 0.0598135 
0.0205462 -9.9019 0.0372531 
0.0598135 0.0372531 -9.9919 
-9.89793 6.11009e-05 0.0462454 
6.11009e-05 -9.91482 0.0479281 
0.0462454 0.0479281 -9.93049 
-9.93004 0.00382089 0.043575 
0.00382089 -9.94256 -0.0521283 
0.043575 -0.0521283 -9.94885 
-9.93591 0.0056402 0.0452498 
0.0056402 -9.93871 -0.0403703 
0.0452498 -0.0403703 -9.94683 
-9.93255 0.00059743 0.0496606 
0.00059743 -9.94294 -0.0484067 
0.0496606 -0.0484067 -9.94596 
-9.93743 0.0076844 0.0414181 
0.0076844 -9.93798 -0.0445049 
0.0414181 -0.0445049 -9.94605 
-15.6441 5.31754 3.62972 
5.31754 -10.6935 6.39776 
3.62972 6.39776 0.376965 
-11.5028 -2.45904 2.23967 
-2.45904 -8.27489 1.39122 
2.23967 1.39122 -6.18303 
-10.6688 -2.19039 -0.191533 
-2.19039 -9.93759 0.73071 
-0.191533 0.73071 -5.35431 
-6.93466 5.08266 -3.55573 
5.08266 -5.57169 1.37865 
-3.55573 1.37865 -13.4543 
-9.94266 -0.0079015 0.0658976 
-0.0079015 -9.93753 -0.0372909 
0.0658976 -0.0372909 -9.94167 
-9.94281 -0.00265164 0.0618184 
-0.00265164 -9.94503 -0.0373463 
0.0618184 -0.0373463 -9.93401 
-9.94186 -0.0021698 0.0652194 
-0.0021698 -9.93583 -0.0327474 
0.0652194 -0.0327474 -9.94417 
-9.93718 -0.00506761 0.0685411 
-0.00506761 -9.93376 -0.0303385 
0.0685411 -0.0303385 -9.95091 
-9.94337 0.00179687 -0.0125566 
0.00179687 -9.94222 -0.0904258 
-0.0125566 -0.0904258 -9.9575 
-9.94067 -0.00706709 -0.00935731 
-0.00706709 -9.97671 -0.086334 
-0.00935731 -0.086334 -9.92571 
-9.95521 0.00235645 -0.00700039 
0.00235645 -9.93754 -0.0897614 
-0.00700039 -0.0897614 -9.95034 
-9.95055 0.012244 -0.00249382 
0.012244 -9.94298 -0.0747702 
-0.00249382 -0.0747702 -9.94955 
-10.8836 -0.0537614 0.0538814 
-0.0537614 -9.88494 -0.484642 
0.0538814 -0.484642 -11.0252 
-10.4062 0.0230473 0.0142763 
0.0230473 -10.23 -0.0660754 
0.0142763 -0.0660754 -11.1576 
-10.3027 -0.0316823 -0.172056 
-0.0316823 -11.2715 0.0212015 
-0.172056 0.0212015 -10.2196 
-10.8867 0.215913 0.303086 
0.215913 -9.95399 -0.129068 
0.303086 -0.129068 -10.953 
-9.96774 0.00113792 0.0529231 
0.00113792 -9.96199 -0.0127763 
0.0529231 -0.0127763 -9.95657 
-9.96747 0.00113661 0.0511678 
0.00113661 -9.96737 -0.015598 
0.0511678 -0.015598 -9.95147 
-9.96926 0.00252616 0.0535735 
0.00252616 -9.96905 -0.0141844 
0.0535735 -0.0141844 -9.948 
-9.96447 0.00184139 0.0551825 
0.00184139 -9.96455 -0.017824 
0.0551825 -0.017824 -9.95729 
-9.45534 0.121402 0.00579952 
0.121402 -10.3949 -0.0641364 
0.00579952 -0.0641364 -10.1409 
-9.66817 0.157536 0.211099 
0.157536 -9.92071 -0.112528 
0.211099 -0.112528 -10.4023 
-10.2006 -0.109696 -0.415888 
-0.109696 -9.82982 0.0847771 
-0.415888 0.0847771 -9.96075 
-9.53472 0.0780943 -0.174643 
0.0780943 -10.1962 -0.0975154 
-0.174643 -0.0975154 -10.2603 
-10.1531 -0.0147624 -0.068373 
-0.0147624 -10.0486 0.0858751 
-0.068373 0.0858751 -10.3138 
-10.1386 0.0394154 0.0154158 
0.0394154 -10.157 0.0167972 
0.0154158 0.0167972 -10.2199 
-10.1806 0.0242006 0.0798526 
0.0242006 -10.3752 -0.024281 
0.0798526 -0.024281 -9.95965 
-10.1597 -0.122298 -0.0500926 
-0.122298 -10.1604 -0.0739608 
-0.0500926 -0.0739608 -10.1954 
-9.94291 -0.00936276 -0.0342093 
-0.00936276 -9.93644 -0.0382892 
-0.0342093 -0.0382892 -9.93953 
-9.9422 -0.00870057 -0.0428547 
-0.00870057 -9.93762 -0.0405756 
-0.0428547 -0.0405756 -9.93906 
-9.95605 -0.013371 -0.052915 
-0.013371 -9.94011 -0.0452662 
-0.052915 -0.0452662 -9.92272 
-9.92831 0.000634347 -0.0517182 
0.000634347 -9.93105 -0.0352854 
-0.0517182 -0.0352854 -9.95953 
-9.99026 3.90117e-05 -0.0604685 
3.90117e-05 -9.98677 0.0125003 
-0.0604685 0.0125003 -10.0015 
-9.99567 -0.00391524 -0.0560444 
-0.00391524 -9.98827 0.0115754 
-0.0560444 0.0115754 -9.99458 
-9.99713 0.0016288 -0.0552087 
0.0016288 -9.99297 0.00917777 
-0.0552087 0.00917777 -9.98842 
-9.99651 0.00013129 -0.0537428 
0.00013129 -9.99651 0.00918272 
-0.0537428 0.00918272 -9.98549 
-9.90013 -0.00804644 0.0775182 
-0.00804644 -9.9162 -0.0442957 
0.0775182 -0.0442957 -9.8377 
-9.89715 0.017406 0.0648056 
0.017406 -9.91217 -0.0329939 
0.0648056 -0.0329939 -9.84471 
-9.90248 0.00943988 0.0856076 
0.00943988 -9.93715 -0.0659231 
0.0856076 -0.0659231 -9.81439 
-9.89741 0.00959382 0.0844869 
0.00959382 -9.90327 -0.0366273 
0.0844869 -0.0366273 -9.85335 
-9.91211 -0.0749592 -0.128941 
-0.0749592 -9.88985 0.0229259 
-0.128941 0.0229259 -9.72147 
-9.90924 -0.0139132 -0.136994 
-0.0139132 -9.9264 0.0380303 
-0.136994 0.0380303 -9.6878 
-9.85579 0.0320325 -0.107723 
0.0320325 -9.82495 0.0997322 
-0.107723 0.0997322 -9.8427 
-9.78832 -0.032844 -0.138863 
-0.032844 -9.94736 -0.0259506 
-0.138863 -0.0259506 -9.78775 
-9.94122 0.00150631 0.021507 
0.00150631 -9.95646 -0.052767 
0.021507 -0.052767 -9.91722 
-9.92081 -0.000736094 -0.0232415 
-0.000736094 -9.94891 -0.0314127 
-0.0232415 -0.0314127 -9.94517 
-9.95131 -0.0044108 0.0114931 
-0.0044108 -9.953 -0.0600412 
0.0114931 -0.0600412 -9.9106 
-9.96066 0.00482329 0.0169781 
0.00482329 -9.97028 -0.0357955 
0.0169781 -0.0357955 -9.88396 
-9.92554 -0.00779574 -0.0397943 
-0.00779574 -9.92599 0.0497867 
-0.0397943 0.0497867 -9.94445 
-9.92914 -0.00441606 -0.0512044 
-0.00441606 -9.9221 0.045473 
-0.0512044 0.045473 -9.94475 
-9.93063 -0.00291236 -0.0519161 
-0.00291236 -9.92144 0.0425716 
-0.0519161 0.0425716 -9.94392 
-9.92832 -0.000250756 -0.0562052 
-0.000250756 -9.92184 0.0505624 
-0.0562052 0.0505624 -9.94582 
-9.91455 -0.00754666 0.0382134 
-0.00754666 -9.92136 -0.0654564 
0.0382134 -0.0654564 -9.92719 
-9.90613 -0.00491048 0.0451185 
-0.00491048 -9.93287 -0.0623324 
0.0451185 -0.0623324 -9.9241 
-9.91707 -0.00895637 0.041425 
-0.00895637 -9.9191 -0.0646613 
0.041425 -0.0646613 -9.92693 
-9.90882 -0.000986129 0.0375842 
-0.000986129 -9.92271 -0.0621335 
0.0375842 -0.0621335 -9.93157 
-9.92012 0.0920872 -0.194265 
0.0920872 -9.87473 -0.0145023 
-0.194265 -0.0145023 -9.6443 
-9.53345 -0.0506213 -0.494964 
-0.0506213 -10.0607 0.0398466 
-0.494964 0.0398466 -9.84503 
-9.91295 -0.0328634 -0.103677 
-0.0328634 -9.85714 -0.0290034 
-0.103677 -0.0290034 -9.66905 
-10.4447 0.127408 -0.461059 
0.127408 -9.62915 -0.160167 
-0.461059 -0.160167 -9.36531 
-9.88565 0.031442 -0.0497116 
0.031442 -9.93165 0.0562664 
-0.0497116 0.0562664 -9.89839 
-9.89441 0.044634 -0.0511076 
0.044634 -9.86569 0.0480318 
-0.0511076 0.0480318 -9.9556 
-9.89575 0.00672676 -0.0541299 
0.00672676 -9.87825 0.0636867 
-0.0541299 0.0636867 -9.94169 
-9.88161 0.0454526 -0.0145011 
0.0454526 -9.87632 0.0366527 
-0.0145011 0.0366527 -9.95777 
-9.88317 0.0503016 0.0230797 
0.0503016 -9.90811 -0.039719 
0.0230797 -0.039719 -10.1616 
-9.91574 0.0780093 0.070969 
0.0780093 -9.87672 -0.00479529 
0.070969 -0.00479529 -10.1604 
-9.94731 0.077857 0.0131809 
0.077857 -9.83338 -0.037345 
0.0131809 -0.037345 -10.1722 
-9.89061 0.05728 0.0347744 
0.05728 -9.89391 -0.0200353 
0.0347744 -0.0200353 -10.1683 
-9.81169 0.325518 -0.279005 
0.325518 -10.0998 -0.188845 
-0.279005 -0.188845 -10.6819 
-10.1355 -0.0570728 -0.149704 
-0.0570728 -9.56467 -0.313398 
-0.149704 -0.313398 -10.8932 
-10.6259 -0.28868 -0.723292 
-0.28868 -8.64817 -0.0434698 
-0.723292 -0.0434698 -11.3193 
-10.0835 -0.32351 0.331331 
-0.32351 -9.59977 -0.521114 
0.331331 -0.521114 -10.91 
-9.67386 -0.00838376 0.00337347 
-0.00838376 -10.1004 -0.0293024 
0.00337347 -0.0293024 -9.63747 
-10.0522 -0.00425116 -0.106214 
-0.00425116 -10.0079 0.0345793 
-0.106214 0.0345793 -9.35163 
-9.86261 -0.0742849 -0.203579 
-0.0742849 -10.0284 -0.0890956 
-0.203579 -0.0890956 -9.5207 
-9.98049 0.0373144 -0.151394 
0.0373144 -9.99685 -0.0366821 
-0.151394 -0.0366821 -9.43436 
-9.89678 0.000195008 -0.0140091 
0.000195008 -9.96465 0.057112 
-0.0140091 0.057112 -9.89933 
-9.92806 0.00799732 -0.000483623 
0.00799732 -9.92911 0.0971156 
-0.000483623 0.0971156 -9.90359 
-9.93233 -0.00297638 -0.0120581 
-0.00297638 -9.92728 0.0655987 
-0.0120581 0.0655987 -9.90116 
-9.93922 -0.00585806 -0.0121349 
-0.00585806 -9.92343 0.0687052 
-0.0121349 0.0687052 -9.89811 
-10.2216 -0.0162349 -0.101111 
-0.0162349 -10.1167 0.0434005 
-0.101111 0.0434005 -10.6573 
-10.406 -0.176241 0.024447 
-0.176241 -10.4471 -0.0687953 
0.024447 -0.0687953 -10.1425 
-10.4266 -0.0560424 0.0155351 
-0.0560424 -10.4257 -0.0384926 
0.0155351 -0.0384926 -10.1433 
-10.2537 0.0161901 0.0971945 
0.0161901 -10.5149 0.116947 
0.0971945 0.116947 -10.2271 
-10.0387 0.00933945 -0.00457964 
0.00933945 -10.0522 -0.0674548 
-0.00457964 -0.0674548 -10.22 
-10.0345 0.00529493 -0.0188012 
0.00529493 -10.0308 -0.0367321 
-0.0188012 -0.0367321 -10.2456 
-10.0483 -0.04069 -0.00936377 
-0.04069 -10.0076 -0.0441492 
-0.00936377 -0.0441492 -10.2549 
-10.0079 -0.0548053 -0.0510109 
-0.0548053 -10.1497 0.0257582 
-0.0510109 0.0257582 -10.1532 
-9.87428 -0.174337 -0.0439053 
-0.174337 -9.86245 0.00837314 
-0.0439053 0.00837314 -9.9108 
-9.91211 -0.185615 0.0349129 
-0.185615 -9.84099 0.0212938 
0.0349129 0.0212938 -9.89443 
-9.78892 -0.244205 0.109903 
-0.244205 -9.83444 0.0582656 
0.109903 0.0582656 -10.0242 
-9.85871 -0.232644 0.0209215 
-0.232644 -9.8403 0.00615103 
0.0209215 0.00615103 -9.94853 
-9.93886 0.054456 0.0201898 
0.054456 -9.93152 0.0400434 
0.0201898 0.0400434 -9.92472 
-9.933 0.0519161 0.0270212 
0.0519161 -9.93929 0.0239896 
0.0270212 0.0239896 -9.9228 
-9.96749 0.0754328 -0.00693649 
0.0754328 -9.95542 0.069803 
-0.00693649 0.069803 -9.87219 
-9.93423 0.0341925 -0.0195463 
0.0341925 -9.91516 0.0220292 
-0.0195463 0.0220292 -9.94571 
-9.90531 0.0109404 0.0146981 
0.0109404 -9.88849 -0.00229723 
0.0146981 -0.00229723 -10.078 
-9.91127 0.0112068 0.0220743 
0.0112068 -9.8923 -0.0128733 
0.0220743 -0.0128733 -10.0682 
-9.89926 0.00479084 0.0237142 
0.00479084 -9.89451 -0.0193073 
0.0237142 -0.0193073 -10.0781 
-9.91131 0.00917801 0.026554 
0.00917801 -9.90267 -0.0136027 
0.026554 -0.0136027 -10.0578 
-9.96758 0.0679541 -0.111451 
0.0679541 -9.83161 -0.205997 
-0.111451 -0.205997 -9.93469 
-9.94959 -0.00679554 -0.0567056 
-0.00679554 -9.7952 -0.155012 
-0.0567056 -0.155012 -9.98909 
-9.95154 0.0016613 -0.0453413 
0.0016613 -9.71731 -0.127384 
-0.0453413 -0.127384 -10.065 
-9.78051 0.0604232 -0.106313 
0.0604232 -10.0156 -0.0624833 
-0.106313 -0.0624833 -9.93779 
-9.6475 -0.010915 0.459538 
-0.010915 -9.67763 0.19152 
0.459538 0.19152 -9.50986 
-9.93913 0.081403 0.424353 
0.081403 -9.79029 0.159604 
0.424353 0.159604 -9.10556 
-9.66181 0.116221 0.438495 
0.116221 -9.78157 0.216936 
0.438495 0.216936 -9.39161 
-9.83969 -0.332602 -0.242216 
-0.332602 -9.65724 0.349915 
-0.242216 0.349915 -9.33805 
-9.67427 0.72076 -0.681363 
0.72076 -9.22511 -1.38908 
-0.681363 -1.38908 -9.90778 
-9.6123 0.217276 -0.858002 
0.217276 -9.7745 -0.820403 
-0.858002 -0.820403 -9.42036 
-9.58004 -0.0770793 -0.634688 
-0.0770793 -10.106 -1.08728 
-0.634688 -1.08728 -9.12117 
-9.3052 0.0645057 1.01134 
0.0645057 -9.57342 0.0546126 
1.01134 0.0546126 -9.92854 
-9.95439 -0.00150319 0.0647011 
-0.00150319 -9.9559 -0.0330048 
0.0647011 -0.0330048 -9.93983 
-9.95535 -0.00126645 0.0720788 
-0.00126645 -9.95543 -0.0259401 
0.0720788 -0.0259401 -9.93934 
-9.95717 -0.00485646 0.0705082 
-0.00485646 -9.94769 -0.0251764 
0.0705082 -0.0251764 -9.94527 
-9.9484 -0.00251167 0.0713277 
-0.00251167 -9.94749 -0.0246999 
0.0713277 -0.0246999 -9.95422 
-9.8467 0.110809 -0.0789772 
0.110809 -9.92056 -0.0238066 
-0.0789772 -0.0238066 -9.82197 
-9.93754 0.0239795 -0.063664 
0.0239795 -9.89638 -0.0587767 
-0.063664 -0.0587767 -9.75531 
-9.86977 0.110282 -0.108975 
0.110282 -9.92284 -0.0663541 
-0.108975 -0.0663541 -9.79661 
-9.86876 0.0608297 -0.0919604 
0.0608297 -9.89726 -0.0897103 
-0.0919604 -0.0897103 -9.82321 
-9.88265 -0.0987919 0.0524233 
-0.0987919 -9.92343 0.084435 
0.0524233 0.084435 -9.93456 
-9.83905 -0.201942 -0.0120684 
-0.201942 -9.98014 -0.0190638 
-0.0120684 -0.0190638 -9.92144 
-9.96159 -0.0625912 0.0139631 
-0.0625912 -9.80132 -0.0140385 
0.0139631 -0.0140385 -9.97772 
-10.0196 -0.0775516 -0.217551 
-0.0775516 -9.88893 0.0368609 
-0.217551 0.0368609 -9.83212 
-9.88316 0.0954905 -0.0119943 
0.0954905 -9.90003 0.0440455 
-0.0119943 0.0440455 -10.002 
-9.88542 0.0173691 0.00185022 
0.0173691 -9.95706 0.0856426 
0.00185022 0.0856426 -9.94267 
-9.92652 0.0577904 0.00708031 
0.0577904 -9.87929 0.0473476 
0.00708031 0.0473476 -9.97935 
-9.90377 0.0639481 -0.00664539 
0.0639481 -9.87081 0.0580651 
-0.00664539 0.0580651 -10.0106 
-9.84876 -0.214205 -0.17764 
-0.214205 -9.82401 0.0663981 
-0.17764 0.0663981 -9.98009 
-9.85501 -0.18344 -0.113264 
-0.18344 -9.95596 0.297963 
-0.113264 0.297963 -9.84188 
-9.63171 -0.204937 -0.153102 
-0.204937 -9.92388 -0.00417813 
-0.153102 -0.00417813 -10.0973 
-9.70224 -0.192481 -0.525014 
-0.192481 -9.62739 0.0428194 
-0.525014 0.0428194 -10.3232 
-9.99534 -0.000298594 -0.00845706 
-0.000298594 -9.99582 0.0532104 
-0.00845706 0.0532104 -9.98722 
-9.98737 -0.000156356 -0.0067358 
-0.000156356 -9.987 0.0572982 
-0.0067358 0.0572982 -10.004 
-9.98818 0.00277292 -0.0062868 
0.00277292 -9.99248 0.0518043 
-0.0062868 0.0518043 -9.99771 
-9.99847 -0.001372 -0.00376484 
-0.001372 -9.99393 0.0519136 
-0.00376484 0.0519136 -9.98597 
-10.1897 -0.133164 0.00971341 
-0.133164 -11.0383 0.1716 
0.00971341 0.1716 -10.874 
-11.0655 0.0349014 0.0746315 
0.0349014 -10.5475 0.16576 
0.0746315 0.16576 -10.4889 
-10.5251 -0.17886 0.0931721 
-0.17886 -9.80198 0.553958 
0.0931721 0.553958 -11.7749 
-10.8313 0.0151097 -0.468701 
0.0151097 -10.1423 0.163165 
-0.468701 0.163165 -11.1283 
-9.97975 -0.00234248 -0.00871946 
-0.00234248 -9.98165 0.00115583 
-0.00871946 0.00115583 -9.99361 
-9.9797 0.00157688 -0.00820776 
0.00157688 -9.98287 -0.000828294 
-0.00820776 -0.000828294 -9.99243 
-9.98147 -0.0065299 -0.00839255 
-0.0065299 -9.9827 0.00707414 
-0.00839255 0.00707414 -9.99083 
-9.9845 0.00103449 -0.00763106 
0.00103449 -9.98072 0.000988758 
-0.00763106 0.000988758 -9.98979 
-9.96177 0.0136531 0.0324859 
0.0136531 -9.94513 -0.0210507 
0.0324859 -0.0210507 -9.9312 
-9.94399 0.0112767 0.0179407 
0.0112767 -9.95381 -0.0186061 
0.0179407 -0.0186061 -9.9403 
-9.95365 0.00460904 0.0214655 
0.00460904 -9.95002 -0.0165205 
0.0214655 -0.0165205 -9.93443 
-9.94981 0.011646 0.0216376 
0.011646 -9.96023 -0.0218435 
0.0216376 -0.0218435 -9.92806 
-9.87431 0.257433 -0.0699648 
0.257433 -9.82338 -0.230591 
-0.0699648 -0.230591 -11.3215 
-10.4397 -0.114148 -0.0612343 
-0.114148 -10.784 0.264966 
-0.0612343 0.264966 -9.79545 
-9.85397 0.0213854 -0.193187 
0.0213854 -10.5196 -0.0441849 
-0.193187 -0.0441849 -10.6456 
-9.91756 -0.213561 -0.847662 
-0.213561 -11.2502 -0.626141 
-0.847662 -0.626141 -9.8514 
-9.98589 -0.00175088 0.0397197 
-0.00175088 -9.96876 -0.00345576 
0.0397197 -0.00345576 -9.97954 
-9.98513 -0.00368996 0.0543925 
-0.00368996 -9.97235 0.00455999 
0.0543925 0.00455999 -9.97671 
-9.98434 0.0020547 0.0401316 
0.0020547 -9.97793 -0.00552494 
0.0401316 -0.00552494 -9.97192 
-9.98822 0.00175833 0.0558842 
0.00175833 -9.97878 0.00639466 
0.0558842 0.00639466 -9.96719 
-9.94966 -0.031899 -0.0278939 
-0.031899 -10.0077 -0.0123344 
-0.0278939 -0.0123344 -10.0024 
-10.0157 -0.00976411 0.0660967 
-0.00976411 -9.94258 -0.00516455 
0.0660967 -0.00516455 -10.0016 
-10.0165 -0.0100109 -0.0785549 
-0.0100109 -9.92007 0.0117597 
-0.0785549 0.0117597 -10.0232 
-9.89684 -0.0419289 -0.0120824 
-0.0419289 -10.0051 -0.000940989 
-0.0120824 -0.000940989 -10.0579 
-8.44339 -0.106653 -0.49117 
-0.106653 -10.7078 -0.479092 
-0.49117 -0.479092 -11.394 
-9.2884 0.0245876 -1.00426 
0.0245876 -10.9995 -0.311541 
-1.00426 -0.311541 -10.2572 
-10.8948 0.842285 -0.237732 
0.842285 -9.42489 -0.0944947 
-0.237732 -0.0944947 -10.2254 
-9.89788 -0.124057 -1.24612 
-0.124057 -9.86146 -0.300434 
-1.24612 -0.300434 -10.7858 
-9.95547 -0.0172892 -0.0452127 
-0.0172892 -9.93928 0.0156045 
-0.0452127 0.0156045 -9.88654 
-9.95485 -0.0104052 -0.0588737 
-0.0104052 -9.94043 -0.000913524 
-0.0588737 -0.000913524 -9.88601 
-9.94118 0.0100036 -0.0465234 
0.0100036 -9.93159 0.0274552 
-0.0465234 0.0274552 -9.90852 
-9.94963 -0.00540515 -0.0599626 
-0.00540515 -9.9439 0.0131399 
-0.0599626 0.0131399 -9.88775 
-10.1337 -0.0557761 -0.0904355 
-0.0557761 -9.93696 0.0754634 
-0.0904355 0.0754634 -9.90742 
-10.095 -0.0480167 -0.209443 
-0.0480167 -9.94648 0.280141 
-0.209443 0.280141 -9.93657 
-10.0275 -0.0265475 -0.132073 
-0.0265475 -10.0131 0.303398 
-0.132073 0.303398 -9.93748 
-10.3461 0.0430204 -0.0429833 
0.0430204 -9.63876 0.288385 
-0.0429833 0.288385 -9.99323 
-10.1768 0.00172763 0.0320075 
0.00172763 -10.1865 -0.027095 
0.0320075 -0.027095 -10.1098 
-10.1844 0.0334901 0.0289873 
0.0334901 -10.1363 -0.00679545 
0.0289873 -0.00679545 -10.1523 
-10.1183 -0.00368985 -0.0262176 
-0.00368985 -10.1305 0.0208795 
-0.0262176 0.0208795 -10.2242 
-10.0942 -0.0107182 0.0370984 
-0.0107182 -10.1774 0.02378 
0.0370984 0.02378 -10.2014 
-9.97842 0.000839393 0.0655459 
0.000839393 -9.98468 -0.0277343 
0.0655459 -0.0277343 -9.98571 
-9.98368 0.000301737 0.0628226 
0.000301737 -9.98217 -0.028067 
0.0628226 -0.028067 -9.98297 
-9.98242 0.00100468 0.0655145 
0.00100468 -9.97715 -0.029482 
0.0655145 -0.029482 -9.98924 
-9.98169 -0.000299718 0.0689446 
-0.000299718 -9.98399 -0.0294788 
0.0689446 -0.0294788 -9.98313 
-9.92635 0.0152746 -0.051174 
0.0152746 -9.89853 0.0421083 
-0.051174 0.0421083 -9.91737 
-9.92448 0.0138614 -0.054067 
0.0138614 -9.9212 0.0319134 
-0.054067 0.0319134 -9.89657 
-9.89892 -0.0370826 -0.0297454 
-0.0370826 -9.8809 0.0238062 
-0.0297454 0.0238062 -9.96243 
-9.88857 -0.0104238 -0.0518461 
-0.0104238 -9.90508 0.0681984 
-0.0518461 0.0681984 -9.94861 
-9.9368 -0.00953742 0.0374303 
-0.00953742 -9.92788 0.042701 
0.0374303 0.042701 -9.9433 
-9.93004 -0.00852407 0.0371635 
-0.00852407 -9.93543 0.0453886 
0.0371635 0.0453886 -9.94252 
-9.92284 -0.00740227 0.0435335 
-0.00740227 -9.92828 0.0424499 
0.0435335 0.0424499 -9.95687 
-9.92214 -0.0171468 0.0405619 
-0.0171468 -9.93317 0.0381387 
0.0405619 0.0381387 -9.95268 
-10.0396 -0.0228556 -0.0165965 
-0.0228556 -10.0148 -0.0253297 
-0.0165965 -0.0253297 -10.1838 
-10.0194 0.0280733 -0.00657067 
0.0280733 -10.0022 0.0348449 
-0.00657067 0.0348449 -10.2166 
-10.022 -0.0169989 -0.00371105 
-0.0169989 -10.0235 -0.012126 
-0.00371105 -0.012126 -10.1927 
-9.99931 -0.0309072 0.0413771 
-0.0309072 -10.0239 -0.0245071 
0.0413771 -0.0245071 -10.215 
-9.93684 0.0024099 -0.0584891 
0.0024099 -9.93915 -0.0403554 
-0.0584891 -0.0403554 -9.95178 
-9.94267 -0.00106737 -0.0515272 
-0.00106737 -9.93806 -0.0462326 
-0.0515272 -0.0462326 -9.94704 
-9.93809 -0.00415338 -0.0545208 
-0.00415338 -9.94145 -0.0403909 
-0.0545208 -0.0403909 -9.94823 
-9.93715 -0.00129222 -0.0556097 
-0.00129222 -9.94136 -0.0446115 
-0.0556097 -0.0446115 -9.94927 
-9.92542 0.0169276 0.0386152 
0.0169276 -9.91825 0.0755835 
0.0386152 0.0755835 -9.94598 
-9.9232 0.00198954 0.0324119 
0.00198954 -9.93695 0.0630572 
0.0324119 0.0630572 -9.92949 
-9.91878 -0.00234043 0.0365091 
-0.00234043 -9.94932 0.0568463 
0.0365091 0.0568463 -9.92155 
-9.91756 0.00721054 0.0293222 
0.00721054 -9.91309 0.0547929 
0.0293222 0.0547929 -9.95899 
-10.1289 -0.0438716 -0.142995 
-0.0438716 -9.95525 0.197726 
-0.142995 0.197726 -9.95257 
-10.0906 -0.0516465 -0.120311 
-0.0516465 -9.97665 0.178085 
-0.120311 0.178085 -9.9694 
-10.1253 -0.0680453 -0.125555 
-0.0680453 -9.93521 0.144489 
-0.125555 0.144489 -9.97621 
-10.1022 -0.0895621 -0.147712 
-0.0895621 -9.94822 0.142481 
-0.147712 0.142481 -9.98624 
-9.72533 0.187816 0.248336 
0.187816 -10.3731 0.104956 
0.248336 0.104956 -10.3155 
-9.78496 -0.000134172 0.259093 
-0.000134172 -10.18 0.112765 
0.259093 0.112765 -10.449 
-9.61319 0.112549 0.066035 
0.112549 -10.2817 -0.0681806 
0.066035 -0.0681806 -10.5191 
-10.2539 -0.0243704 -0.353787 
-0.0243704 -9.88973 -0.218972 
-0.353787 -0.218972 -10.2704 
-9.95444 -0.0110549 -0.00313164 
-0.0110549 -9.95281 0.00102062 
-0.00313164 0.00102062 -9.97425 
-9.95386 -0.0131687 -0.00336709 
-0.0131687 -9.9563 0.00198433 
-0.00336709 0.00198433 -9.97133 
-9.95451 -0.0111994 0.000713067 
-0.0111994 -9.95579 0.00319611 
0.000713067 0.00319611 -9.97119 
-9.94954 -0.0100252 -0.00310288 
-0.0100252 -9.95647 -0.00102529 
-0.00310288 -0.00102529 -9.97548 
-10.0299 -0.0570643 -0.194455 
-0.0570643 -10.0338 0.0750926 
-0.194455 0.0750926 -9.65205 
-9.89655 0.125405 -0.174592 
0.125405 -9.8427 -0.00201243 
-0.174592 -0.00201243 -9.97642 
-10.0299 -0.071029 -0.185052 
-0.071029 -10.0586 0.121365 
-0.185052 0.121365 -9.62717 
-10.1243 -0.0180335 -0.168951 
-0.0180335 -10.0706 -0.014109 
-0.168951 -0.014109 -9.52078 
-10.4134 0.146396 0.236386 
0.146396 -10.7254 0.143671 
0.236386 0.143671 -10.3294 
-11.0344 0.0350149 0.554096 
0.0350149 -10.8473 0.146363 
0.554096 0.146363 -9.58662 
-10.1276 -0.420952 -0.433342 
-0.420952 -9.74288 -0.0804427 
-0.433342 -0.0804427 -11.5978 
-10.7002 0.500821 0.193452 
0.500821 -9.94775 0.523207 
0.193452 0.523207 -10.8203 
-10.7151 0.157322 0.158638 
0.157322 -11.0806 -0.333448 
0.158638 -0.333448 -9.94611 
-10.9472 0.0868497 -0.0606327 
0.0868497 -10.7997 -0.239809 
-0.0606327 -0.239809 -9.99489 
-9.79544 -0.0857102 0.0368666 
-0.0857102 -9.88905 0.32534 
0.0368666 0.32534 -12.0573 
-10.8411 0.101061 -0.165183 
0.101061 -11.4066 0.674178 
-0.165183 0.674178 -9.49406 
-9.89554 -0.0198332 -0.0786737 
-0.0198332 -9.88534 0.038358 
-0.0786737 0.038358 -9.91308 
-9.89672 -0.0161501 -0.0781675 
-0.0161501 -9.88595 0.0387189 
-0.0781675 0.0387189 -9.91128 
-9.9028 -0.0172404 -0.0814747 
-0.0172404 -9.88301 0.0559542 
-0.0814747 0.0559542 -9.90815 
-9.87382 -0.00584917 -0.0699722 
-0.00584917 -9.91808 0.0285887 
-0.0699722 0.0285887 -9.90206 
-10.0499 -0.0418198 0.146286 
-0.0418198 -9.91784 0.0100286 
0.146286 0.0100286 -9.81944 
-9.93326 0.0228051 0.336876 
0.0228051 -9.87661 0.0637566 
0.336876 0.0637566 -9.97729 
-9.97881 0.0618451 0.237391 
0.0618451 -9.88669 0.00670844 
0.237391 0.00670844 -9.92166 
-9.88139 0.07979 0.0632446 
0.07979 -9.98702 -0.0262015 
0.0632446 -0.0262015 -9.91875 
-9.8933 0.0138686 0.123544 
0.0138686 -9.98256 -0.093898 
0.123544 -0.093898 -9.79894 
-9.89089 0.00641897 0.0607736 
0.00641897 -9.90084 -0.0779895 
0.0607736 -0.0779895 -9.88307 
-9.95929 0.00152272 0.0747744 
0.00152272 -9.89242 -0.0658338 
0.0747744 -0.0658338 -9.82309 
-9.95144 0.00412104 0.0744654 
0.00412104 -9.89506 -0.0326787 
0.0744654 -0.0326787 -9.8283 
-9.09114 -1.50827 1.59637 
-1.50827 -9.48967 0.53229 
1.59637 0.53229 -11.1178 
-9.47272 -0.568137 1.19541 
-0.568137 -10.1612 -0.118263 
1.19541 -0.118263 -10.0647 
-9.52141 0.999581 0.816753 
0.999581 -10.652 0.730011 
0.816753 0.730011 -9.52513 
-9.95315 -0.782522 0.754759 
-0.782522 -9.97466 -0.875436 
0.754759 -0.875436 -9.77077 
-10.1137 -0.00761551 0.0354196 
-0.00761551 -10.1098 0.00299421 
0.0354196 0.00299421 -10.0414 
-9.91577 0.04248 -0.199448 
0.04248 -10.0478 -0.0298766 
-0.199448 -0.0298766 -10.3013 
-10.1766 -0.0293181 0.0344038 
-0.0293181 -10.0889 -0.0178168 
0.0344038 -0.0178168 -9.99935 
-10.1137 -0.0889722 0.0989192 
-0.0889722 -10.1295 0.0482049 
0.0989192 0.0482049 -10.0217 
-10.5761 0.0245013 0.0907165 
0.0245013 -10.475 -0.10561 
0.0907165 -0.10561 -10.1033 
-9.9529 -0.0315182 -0.145194 
-0.0315182 -9.85375 -0.00440785 
-0.145194 -0.00440785 -11.3477 
-10.5899 0.0377785 0.0988739 
0.0377785 -10.5042 0.038653 
0.0988739 0.038653 -10.0603 
-10.6519 0.0172545 -0.294403 
0.0172545 -10.4687 -0.0839035 
-0.294403 -0.0839035 -10.0338 
-9.88094 -0.00287127 0.0322664 
-0.00287127 -9.94542 0.0701005 
0.0322664 0.0701005 -9.87878 
-9.91541 0.0288263 0.0309224 
0.0288263 -9.85641 0.0453671 
0.0309224 0.0453671 -9.93332 
-9.89019 0.013468 0.0246298 
0.013468 -9.90548 0.0685124 
0.0246298 0.0685124 -9.90947 
-9.88048 0.0260273 0.0275326 
0.0260273 -9.88421 0.0940396 
0.0275326 0.0940396 -9.94045 
-9.93783 0.000491057 -0.00185787 
0.000491057 -9.92839 -0.0938038 
-0.00185787 -0.0938038 -9.91135 
-9.93397 0.0014517 -0.0024405 
0.0014517 -9.92818 -0.0882178 
-0.0024405 -0.0882178 -9.91543 
-9.9193 0.0065557 -0.0055341 
0.0065557 -9.92238 -0.092961 
-0.0055341 -0.092961 -9.93589 
-9.94234 0.00674098 -0.000321827 
0.00674098 -9.93503 -0.0778163 
-0.000321827 -0.0778163 -9.90021 
-9.93708 0.0110644 -0.0360931 
0.0110644 -9.93348 -0.0825255 
-0.0360931 -0.0825255 -9.92342 
-9.92313 0.0102732 -0.0290084 
0.0102732 -9.94173 -0.0823846 
-0.0290084 -0.0823846 -9.92912 
-9.93161 0.0111297 -0.0399779 
0.0111297 -9.94881 -0.0699508 
-0.0399779 -0.0699508 -9.91355 
-9.91872 0.00190964 -0.0111921 
0.00190964 -9.92394 -0.0693337 
-0.0111921 -0.0693337 -9.95131 
-9.87298 0.0967146 -0.0307616 
0.0967146 -9.80976 0.0716471 
-0.0307616 0.0716471 -10.0144 
-9.8514 0.0727312 -0.0601515 
0.0727312 -9.82086 0.0888763 
-0.0601515 0.0888763 -10.0248 
-9.9772 0.0216439 -0.0177703 
0.0216439 -9.83258 0.0390265 
-0.0177703 0.0390265 -9.88731 
-9.85726 0.00697795 -0.070169 
0.00697795 -9.76019 0.0224817 
-0.070169 0.0224817 -10.0796 
-9.94071 -0.00318885 0.0715904 
-0.00318885 -9.94899 0.0248288 
0.0715904 0.0248288 -9.98075 
-9.95722 -0.00438237 0.0616352 
-0.00438237 -9.95303 0.0297369 
0.0616352 0.0297369 -9.96021 
-9.96589 0.00268286 0.0638079 
0.00268286 -9.95948 0.0382068 
0.0638079 0.0382068 -9.94509 
-9.95995 -0.00066437 0.0573817 
-0.00066437 -9.95355 0.0314442 
0.0573817 0.0314442 -9.95696 
-9.94336 0.0769763 -0.0414479 
0.0769763 -9.93483 -0.0016298 
-0.0414479 -0.0016298 -10.1277 
-10.0058 0.103231 0.0601396 
0.103231 -9.9896 0.0824224 
0.0601396 0.0824224 -10.0105 
-9.95318 0.214492 -0.0186664 
0.214492 -9.96026 0.0194214 
-0.0186664 0.0194214 -10.0925 
-9.8839 0.0864481 -0.0830011 
0.0864481 -9.96111 0.0686913 
-0.0830011 0.0686913 -10.1609 
-9.96671 0.000125496 -0.063235 
0.000125496 -9.96457 0.0338614 
-0.063235 0.0338614 -9.96939 
-9.96981 0.000840133 -0.0622124 
0.000840133 -9.96284 0.0356307 
-0.0622124 0.0356307 -9.96802 
-9.96976 -0.000710233 -0.057405 
-0.000710233 -9.96824 0.0322078 
-0.057405 0.0322078 -9.96267 
-9.96966 -0.00302108 -0.0610864 
-0.00302108 -9.96504 0.03767 
-0.0610864 0.03767 -9.96596 
-9.87427 -0.110851 0.0130361 
-0.110851 -9.87593 0.157493 
0.0130361 0.157493 -9.81723 
-9.87837 0.0468808 -0.0112418 
0.0468808 -9.9553 0.00391552 
-0.0112418 0.00391552 -9.73377 
-9.89901 -0.0546346 -0.0894796 
-0.0546346 -9.92398 0.108744 
-0.0894796 0.108744 -9.74444 
-9.84435 -0.0702986 -0.20423 
-0.0702986 -10.0357 0.124828 
-0.20423 0.124828 -9.68736 
-9.98174 0.00121189 -0.00161779 
0.00121189 -9.97899 -0.00615476 
-0.00161779 -0.00615476 -9.98745 
-9.98087 -0.00294266 0.00217463 
-0.00294266 -9.9762 -0.00631601 
0.00217463 -0.00631601 -9.99111 
-9.98071 -0.00130037 0.0030673 
-0.00130037 -9.98103 -0.00721191 
0.0030673 -0.00721191 -9.98643 
-9.98135 0.000442484 -0.000756088 
0.000442484 -9.98297 -0.00586118 
-0.000756088 -0.00586118 -9.98386 
-9.93995 0.0101039 0.0596945 
0.0101039 -9.93422 -0.019984 
0.0596945 -0.019984 -9.95681 
-9.94442 -0.00478027 0.0794853 
-0.00478027 -9.94515 -0.0274739 
0.0794853 -0.0274739 -9.94142 
-9.93341 -0.00595925 0.0702664 
-0.00595925 -9.9605 -0.0164229 
0.0702664 -0.0164229 -9.93707 
-9.93947 -0.000735812 0.0755869 
-0.000735812 -9.94767 -0.0243731 
0.0755869 -0.0243731 -9.94384 
-9.96629 0.00103255 -0.00760859 
0.00103255 -9.96663 -0.0483448 
-0.00760859 -0.0483448 -9.95731 
-9.98139 -0.00559362 -0.00293341 
-0.00559362 -9.98582 -0.0531984 
-0.00293341 -0.0531984 -9.92302 
-9.97027 0.000792118 -0.00685813 
0.000792118 -9.97009 -0.0365163 
-0.00685813 -0.0365163 -9.94988 
-9.96875 0.00119933 -0.00887797 
0.00119933 -9.97185 -0.0392796 
-0.00887797 -0.0392796 -9.94963 
-9.94858 0.0111241 -0.010931 
0.0111241 -9.94355 0.00996779 
-0.010931 0.00996779 -9.96402 
-9.94372 0.00824778 -0.0173422 
0.00824778 -9.94788 0.00889352 
-0.0173422 0.00889352 -9.96453 
-9.95044 0.0104445 -0.0175384 
0.0104445 -9.95535 0.0165828 
-0.0175384 0.0165828 -9.95035 
-9.94038 0.025387 -0.000329608 
0.025387 -9.97019 0.00281289 
-0.000329608 0.00281289 -9.94558 
-9.94679 0.00183707 0.0113598 
0.00183707 -9.94018 0.0693063 
0.0113598 0.0693063 -9.938 
-9.9391 0.00355305 0.00790018 
0.00355305 -9.95265 0.0734346 
0.00790018 0.0734346 -9.93322 
-9.94425 0.00207431 0.0155981 
0.00207431 -9.94204 0.0753514 
0.0155981 0.0753514 -9.93868 
-9.94808 0.00142686 0.0107605 
0.00142686 -9.93602 0.073531 
0.0107605 0.073531 -9.94087 
-9.91327 -0.0326955 -0.0179293 
-0.0326955 -9.93265 0.0170327 
-0.0179293 0.0170327 -10.0528 
-9.89224 0.0115377 -0.0270512 
0.0115377 -9.88149 -0.0654062 
-0.0270512 -0.0654062 -10.1249 
-9.85475 -0.0450241 -0.0949906 
-0.0450241 -9.85312 -0.0305696 
-0.0949906 -0.0305696 -10.1908 
-9.91896 -0.0461681 -0.0115709 
-0.0461681 -9.89381 -0.0588901 
-0.0115709 -0.0588901 -10.0859 
-9.94515 0.0118993 -0.00868838 
0.0118993 -9.93074 -0.0341171 
-0.00868838 -0.0341171 -9.94003 
-9.93528 0.0354614 0.00406571 
0.0354614 -9.92471 -0.0173576 
0.00406571 -0.0173576 -9.95594 
-9.92315 -0.0012488 -0.0107339 
-0.0012488 -9.94042 0.013618 
-0.0107339 0.013618 -9.95235 
-9.92168 0.0120165 -0.00316809 
0.0120165 -9.92173 -0.0115528 
-0.00316809 -0.0115528 -9.97251 
-9.99827 -0.00347936 0.00545667 
-0.00347936 -9.99377 0.0453637 
0.00545667 0.0453637 -9.99086 
-9.98797 0.00196226 0.00131476 
0.00196226 -9.98447 0.0383713 
0.00131476 0.0383713 -10.0105 
-9.99896 -5.49037e-05 0.00542222 
-5.49037e-05 -9.9939 0.0440338 
0.00542222 0.0440338 -9.99003 
-9.99899 -0.000289667 0.00227132 
-0.000289667 -9.99705 0.0449095 
0.00227132 0.0449095 -9.98687 
-9.94864 0.00526353 -0.00578665 
0.00526353 -9.95214 2.57743e-05 
-0.00578665 2.57743e-05 -9.98861 
-9.95564 -0.0068409 -0.0182162 
-0.0068409 -9.95549 -0.000187857 
-0.0182162 -0.000187857 -9.97826 
-9.94997 0.0016929 0.00547253 
0.0016929 -9.95933 0.00510103 
0.00547253 0.00510103 -9.98009 
-9.95696 -0.00843442 0.0101307 
-0.00843442 -9.9432 0.0118277 
0.0101307 0.0118277 -9.98922 
-9.85167 0.0207354 0.084951 
0.0207354 -9.90264 0.0294577 
0.084951 0.0294577 -9.89333 
-9.86158 0.0108433 0.0894819 
0.0108433 -9.89289 0.0135164 
0.0894819 0.0135164 -9.89316 
-9.85116 0.0215138 0.0828334 
0.0215138 -9.90262 0.0233132 
0.0828334 0.0233132 -9.89385 
-9.85036 0.0115912 0.0877275 
0.0115912 -9.91041 0.0395346 
0.0877275 0.0395346 -9.88686 
-9.97397 -0.0101593 0.0407348 
-0.0101593 -9.9768 0.0245813 
0.0407348 0.0245813 -9.99447 
-9.98243 0.00170337 0.0471609 
0.00170337 -9.97942 0.0264382 
0.0471609 0.0264382 -9.98339 
-9.98082 0.00211754 0.0471907 
0.00211754 -9.98064 0.0288967 
0.0471907 0.0288967 -9.98378 
-9.98317 -0.00802261 0.0477575 
-0.00802261 -9.98796 0.0319935 
0.0477575 0.0319935 -9.97411 
-10.3213 0.0633385 -0.196077 
0.0633385 -10.4746 -0.0992336 
-0.196077 -0.0992336 -10.8433 
-10.1965 0.0243386 -0.128907 
0.0243386 -10.3855 0.00275043 
-0.128907 0.00275043 -11.0573 
-10.5106 -0.0560297 -0.0185179 
-0.0560297 -10.9907 0.157041 
-0.0185179 0.157041 -10.1379 
-10.3268 0.0442365 0.0499109 
0.0442365 -10.7245 -0.441006 
0.0499109 -0.441006 -10.5879 
-9.7533 -0.503871 0.214633 
-0.503871 -10.0725 0.144564 
0.214633 0.144564 -10.7779 
-10.0411 -0.0896378 0.171144 
-0.0896378 -10.0535 0.169441 
0.171144 0.169441 -10.5091 
-9.86133 -0.227181 -0.00231767 
-0.227181 -10.2083 0.00766772 
-0.00231767 0.00766772 -10.534 
-9.8943 0.0517114 -0.00104127 
0.0517114 -10.1264 -0.131781 
-0.00104127 -0.131781 -10.583 
-9.93461 0.000276155 0.0489186 
0.000276155 -9.93789 0.0418294 
0.0489186 0.0418294 -9.95059 
-9.93745 -0.00175133 0.0554582 
-0.00175133 -9.93645 0.0414748 
0.0554582 0.0414748 -9.94919 
-9.93591 -0.00568341 0.0506353 
-0.00568341 -9.93275 0.0383572 
0.0506353 0.0383572 -9.95443 
-9.93449 -0.00140341 0.0546492 
-0.00140341 -9.93385 0.0436118 
0.0546492 0.0436118 -9.95476 
-9.92104 -0.0719604 -0.05486 
-0.0719604 -9.92377 -0.0074341 
-0.05486 -0.0074341 -10.0203 
-9.92005 -0.0246552 -0.0218769 
-0.0246552 -9.89929 -0.0525477 
-0.0218769 -0.0525477 -10.0458 
-9.90515 -0.00939181 -0.0590759 
-0.00939181 -9.91074 -0.00420946 
-0.0590759 -0.00420946 -10.0493 
-9.89186 -0.0967598 -0.0740954 
-0.0967598 -9.89916 -0.0243959 
-0.0740954 -0.0243959 -10.0741 
-10.1087 0.120399 -0.132966 
0.120399 -10.0824 -0.0200608 
-0.132966 -0.0200608 -11.7721 
-11.1189 0.260427 -0.148665 
0.260427 -11.1073 0.0116953 
-0.148665 0.0116953 -9.73692 
-10.3599 0.125763 -0.0545829 
0.125763 -10.349 -0.268096 
-0.0545829 -0.268096 -11.2541 
-10.7166 0.115206 0.971193 
0.115206 -10.4264 -0.542292 
0.971193 -0.542292 -10.8201 
-9.98158 0.00209375 0.0610774 
0.00209375 -9.97452 0.0282534 
0.0610774 0.0282534 -9.98144 
-9.98275 0.00485449 0.0488959 
0.00485449 -9.97933 0.0297876 
0.0488959 0.0297876 -9.97546 
-9.98255 0.00757251 0.047829 
0.00757251 -9.97275 0.029129 
0.047829 0.029129 -9.98224 
-9.98009 0.00183047 0.0622133 
0.00183047 -9.98031 0.0300978 
0.0622133 0.0300978 -9.97714 
-9.98524 0.00310726 -0.012192 
0.00310726 -9.98558 0.0190543 
-0.012192 0.0190543 -10.0045 
-9.99151 0.00408268 -0.0142707 
0.00408268 -9.99447 0.021672 
-0.0142707 0.021672 -9.98929 
-9.99175 0.00746735 -0.0127727 
0.00746735 -9.98858 0.019553 
-0.0127727 0.019553 -9.99495 
-9.99106 0.00338277 -0.0138774 
0.00338277 -9.99556 0.0185928 
-0.0138774 0.0185928 -9.98865 
-9.71408 0.517738 -1.28199 
0.517738 -9.52515 -0.450272 
-1.28199 -0.450272 -10.4346 
-9.94952 0.199254 -0.418501 
0.199254 -10.21 -0.431754 
-0.418501 -0.431754 -9.5143 
-9.39111 0.202724 0.196214 
0.202724 -9.74674 0.0334581 
0.196214 0.0334581 -10.536 
-9.42307 0.22419 -0.426794 
0.22419 -10.4486 -0.331757 
-0.426794 -0.331757 -9.80217 
-9.96422 0.0123683 0.0316071 
0.0123683 -9.95321 -0.0352521 
0.0316071 -0.0352521 -9.95385 
-9.95713 0.00443103 0.0354159 
0.00443103 -9.96345 -0.0340396 
0.0354159 -0.0340396 -9.95071 
-9.95255 0.0137938 0.0381334 
0.0137938 -9.95812 -0.0220266 
0.0381334 -0.0220266 -9.96063 
-9.95929 0.0127945 0.0376151 
0.0127945 -9.95695 -0.0342563 
0.0376151 -0.0342563 -9.95505 
-10.3132 0.011415 -0.0293565 
0.011415 -10.3918 -0.0100327 
-0.0293565 -0.0100327 -10.0806 
-10.1335 0.0258829 0.169918 
0.0258829 -10.1995 0.0161934 
0.169918 0.0161934 -10.4527 
-10.2414 -0.00990992 0.0471387 
-0.00990992 -10.251 0.0108698 
0.0471387 0.0108698 -10.2932 
-10.004 -0.0113203 0.00134667 
-0.0113203 -10.2977 0.082651 
0.00134667 0.082651 -10.484 
-9.921 0.0332267 -0.066463 
0.0332267 -9.91986 -0.00184048 
-0.066463 -0.00184048 -9.82243 
-9.94167 -0.00561801 -0.0311755 
-0.00561801 -9.89075 -0.0151814 
-0.0311755 -0.0151814 -9.83087 
-9.91423 0.0148196 -0.0523676 
0.0148196 -9.90025 0.010074 
-0.0523676 0.010074 -9.84881 
-9.95597 -0.0140064 -0.0194794 
-0.0140064 -9.89864 -0.00169731 
-0.0194794 -0.00169731 -9.80869 
-9.89343 0.039295 0.0529139 
0.039295 -9.87728 -0.0426368 
0.0529139 -0.0426368 -10.1748 
-9.90433 0.0183494 0.0413672 
0.0183494 -9.85689 -0.0182453 
0.0413672 -0.0182453 -10.1842 
-9.93598 0.0414989 0.0562739 
0.0414989 -9.88409 -0.0181274 
0.0562739 -0.0181274 -10.1254 
-9.95229 0.0526952 0.0513015 
0.0526952 -9.8495 -0.0378283 
0.0513015 -0.0378283 -10.1437 
-10.4455 0.127107 0.0977835 
0.127107 -9.52038 -0.0869055 
0.0977835 -0.0869055 -9.6566 
-9.45639 0.165002 -0.352655 
0.165002 -10.1437 -0.0297 
-0.352655 -0.0297 -10.0224 
-9.80253 -0.0463799 -0.502928 
-0.0463799 -10.0141 -0.0738673 
-0.502928 -0.0738673 -9.80588 
-9.87253 0.119609 -0.346785 
0.119609 -9.73535 0.00873627 
-0.346785 0.00873627 -10.0146 
-9.92664 0.0141146 0.0322623 
0.0141146 -9.93757 0.060768 
0.0322623 0.060768 -9.9417 
-9.93133 0.00724994 0.0414097 
0.00724994 -9.93911 0.0677521 
0.0414097 0.0677521 -9.93547 
-9.9277 0.00500186 0.0436682 
0.00500186 -9.93935 0.06304 
0.0436682 0.06304 -9.93886 
-9.9361 0.00175134 0.0391565 
0.00175134 -9.93446 0.0692849 
0.0391565 0.0692849 -9.93535 
-9.88421 -0.0614962 0.182097 
-0.0614962 -9.76593 0.00811563 
0.182097 0.00811563 -9.71725 
-9.89708 0.0204841 -0.133371 
0.0204841 -10.0101 0.443842 
-0.133371 0.443842 -9.46019 
-9.87875 0.012413 -0.114415 
0.012413 -10.1156 0.332307 
-0.114415 0.332307 -9.37306 
-10.1147 0.0932401 0.0157549 
0.0932401 -10.3132 0.358562 
0.0157549 0.358562 -8.93948 
-10.1234 -0.0540628 -0.0756659 
-0.0540628 -10.2121 -0.107421 
-0.0756659 -0.107421 -11.0886 
-10.5389 0.138412 -0.00335361 
0.138412 -10.591 0.10458 
-0.00335361 0.10458 -10.2942 
-10.6902 0.0814374 0.101147 
0.0814374 -10.5134 0.0341831 
0.101147 0.0341831 -10.2204 
-10.7647 0.000892796 -0.407777 
0.000892796 -10.5913 0.108314 
-0.407777 0.108314 -10.068 
-9.93837 0.00542167 0.012693 
0.00542167 -9.93549 -0.0252507 
0.012693 -0.0252507 -9.92567 
-9.94706 0.0158691 0.0124509 
0.0158691 -9.93064 -0.0171785 
0.0124509 -0.0171785 -9.92183 
-9.94611 0.00865585 0.0135577 
0.00865585 -9.93052 -0.0227809 
0.0135577 -0.0227809 -9.9229 
-9.94393 0.005581 0.0168079 
0.005581 -9.9301 -0.0221885 
0.0168079 -0.0221885 -9.9255 
-9.95634 -0.0129471 0.010256 
-0.0129471 -9.94097 -0.0139596 
0.010256 -0.0139596 -9.92825 
-9.93517 -0.0126105 0.0097332 
-0.0126105 -9.94151 -0.00169466 
0.0097332 -0.00169466 -9.94888 
-9.94123 -0.00558416 0.0146867 
-0.00558416 -9.93134 -0.011114 
0.0146867 -0.011114 -9.95299 
-9.9504 -0.0274504 0.0237021 
-0.0274504 -9.94155 -0.00700213 
0.0237021 -0.00700213 -9.9336 
-9.93978 0.00513202 -0.0677639 
0.00513202 -9.93745 -0.0421414 
-0.0677639 -0.0421414 -9.93997 
-9.95063 3.40583e-05 -0.0582864 
3.40583e-05 -9.9408 -0.0448602 
-0.0582864 -0.0448602 -9.92576 
-9.94155 0.000407276 -0.0672745 
0.000407276 -9.93257 -0.0383571 
-0.0672745 -0.0383571 -9.94308 
-9.92975 0.000231808 -0.0621005 
0.000231808 -9.92882 -0.027506 
-0.0621005 -0.027506 -9.95863 
-9.98823 -0.0111498 -0.076658 
-0.0111498 -9.99886 0.0110754 
-0.076658 0.0110754 -9.7085 
-9.92083 -0.0540394 -0.065719 
-0.0540394 -9.9456 -0.0871194 
-0.065719 -0.0871194 -9.82917 
-9.89077 -0.0248591 -0.0756556 
-0.0248591 -9.99553 -0.0252557 
-0.0756556 -0.0252557 -9.80928 
-9.9042 0.00548123 0.0160177 
0.00548123 -9.90653 -0.0607662 
0.0160177 -0.0607662 -9.88487 
-9.91191 -0.0492702 0.01522 
-0.0492702 -9.91188 -0.0378978 
0.01522 -0.0378978 -9.90995 
-9.93528 -0.0426209 0.0115735 
-0.0426209 -9.8736 -0.0472683 
0.0115735 -0.0472683 -9.92486 
-9.91895 -0.079405 -0.0118641 
-0.079405 -9.95953 -0.0690654 
-0.0118641 -0.0690654 -9.85527 
-9.88772 -0.0534101 0.0117272 
-0.0534101 -9.92277 -0.00970088 
0.0117272 -0.00970088 -9.92325 
-9.93254 0.0182158 0.0730094 
0.0182158 -9.86998 -0.0405147 
0.0730094 -0.0405147 -9.92444 
-9.90016 -0.00742677 0.0567049 
-0.00742677 -9.94321 -0.0352209 
0.0567049 -0.0352209 -9.8836 
-9.90604 -0.0255743 0.0820141 
-0.0255743 -9.84927 -0.0582066 
0.0820141 -0.0582066 -9.97166 
-9.88052 -0.0379746 0.0112578 
-0.0379746 -9.924 -0.0547394 
0.0112578 -0.0547394 -9.92245 
-9.6538 -0.0253189 0.0462549 
-0.0253189 -9.64245 0.307057 
0.0462549 0.307057 -9.99827 
-9.93995 -0.0276924 0.0266031 
-0.0276924 -9.55424 0.226648 
0.0266031 0.226648 -9.80033 
-9.92413 0.0423817 0.0566958 
0.0423817 -9.52683 0.250915 
0.0566958 0.250915 -9.84356 
-9.81203 -0.100743 -0.0720262 
-0.100743 -9.75325 0.471574 
-0.0720262 0.471574 -9.72925 
-9.95733 -0.0860254 -0.227816 
-0.0860254 -9.95415 -0.0460822 
-0.227816 -0.0460822 -9.86336 
-9.76468 -0.0917118 -0.0206773 
-0.0917118 -9.93153 0.0171124 
-0.0206773 0.0171124 -10.0786 
-9.8452 -0.051721 0.0659177 
-0.051721 -9.87719 -0.0260327 
0.0659177 -0.0260327 -10.0525 
-9.80797 -0.0343844 0.0212631 
-0.0343844 -9.92139 0.0351521 
0.0212631 0.0351521 -10.0455 
-9.83308 0.0263606 -0.30133 
0.0263606 -9.86928 0.0594941 
-0.30133 0.0594941 -9.93516 
-9.91725 0.0961264 -0.56223 
0.0961264 -9.96359 -0.0114692 
-0.56223 -0.0114692 -9.75668 
-9.73319 0.00537603 -0.263379 
0.00537603 -10.0339 0.174958 
-0.263379 0.174958 -9.87048 
-9.64421 -0.109794 -0.391287 
-0.109794 -10.0393 0.00281684 
-0.391287 0.00281684 -9.95404 
-10.1652 0.00851431 -0.00569957 
0.00851431 -10.2041 -0.00836362 
-0.00569957 -0.00836362 -10.2185 
-10.2005 0.0069286 0.0221738 
0.0069286 -10.2304 -0.00775586 
0.0221738 -0.00775586 -10.1569 
-10.1723 -0.030009 0.0101255 
-0.030009 -10.1848 -0.00945631 
0.0101255 -0.00945631 -10.2307 
-10.1788 0.0207883 -0.0151669 
0.0207883 -10.2034 0.0226168 
-0.0151669 0.0226168 -10.2057 
-9.91447 0.0151262 0.0762876 
0.0151262 -9.92882 0.029215 
0.0762876 0.029215 -9.92635 
-9.92139 0.00217781 0.0809738 
0.00217781 -9.9128 0.0193107 
0.0809738 0.0193107 -9.93546 
-9.93607 0.00102359 0.079325 
0.00102359 -9.92384 0.0180114 
0.079325 0.0180114 -9.90973 
-9.91561 0.0063073 0.0702531 
0.0063073 -9.9297 0.0192315 
0.0702531 0.0192315 -9.92434 
-9.96915 -0.000434051 -0.0238283 
-0.000434051 -9.97078 0.0625817 
-0.0238283 0.0625817 -9.96174 
-9.96814 -0.00105342 -0.0284432 
-0.00105342 -9.96966 0.0662104 
-0.0284432 0.0662104 -9.96387 
-9.96658 0.00266663 -0.0268253 
0.00266663 -9.96915 0.0676844 
-0.0268253 0.0676844 -9.96594 
-9.971 -0.00283504 -0.0259889 
-0.00283504 -9.97187 0.0662972 
-0.0259889 0.0662972 -9.9588 
-9.94125 -0.00483208 0.010586 
-0.00483208 -9.95751 -0.0743308 
0.010586 -0.0743308 -9.86341 
-9.91442 -0.0338174 0.0714936 
-0.0338174 -9.9016 -0.0890338 
0.0714936 -0.0890338 -9.94614 
-9.84902 -0.0248044 0.0617308 
-0.0248044 -9.9016 -0.024864 
0.0617308 -0.024864 -10.0116 
-9.89083 -0.010718 0.0545904 
-0.010718 -9.90751 -0.0747914 
0.0545904 -0.0747914 -9.96382 
-9.96433 0.000477311 -0.0895278 
0.000477311 -9.93297 -0.0041924 
-0.0895278 -0.0041924 -9.91301 
-9.92108 0.00515244 -0.0827247 
0.00515244 -9.94789 -0.00962473 
-0.0827247 -0.00962473 -9.94134 
-9.92935 -0.000394132 -0.0852598 
-0.000394132 -9.9336 -0.00208325 
-0.0852598 -0.00208325 -9.94736 
-9.93328 -0.0108423 -0.068918 
-0.0108423 -9.94621 -0.0115152 
-0.068918 -0.0115152 -9.93082 
-9.93225 0.0153439 0.0494016 
0.0153439 -9.92973 -0.0345034 
0.0494016 -0.0345034 -9.92352 
-9.95473 0.00779376 0.0609591 
0.00779376 -9.90419 -0.0501467 
0.0609591 -0.0501467 -9.92658 
-9.92822 0.00343581 0.0499408 
0.00343581 -9.92986 -0.0460664 
0.0499408 -0.0460664 -9.92742 
-9.93202 0.00626378 0.0478648 
0.00626378 -9.92684 -0.046178 
0.0478648 -0.046178 -9.92664 
-9.92782 0.00886259 0.0344698 
0.00886259 -9.9236 0.0729882 
0.0344698 0.0729882 -9.92019 
-9.92161 0.00636461 0.0375582 
0.00636461 -9.92401 0.0722166 
0.0375582 0.0722166 -9.92599 
-9.9234 0.00607154 0.0340172 
0.00607154 -9.92171 0.0697721 
0.0340172 0.0697721 -9.92651 
-9.91884 0.00649369 0.0361457 
0.00649369 -9.92304 0.0734203 
0.0361457 0.0734203 -9.92973 
-14.1389 0.279603 -0.00612507 
0.279603 -11.1606 4.33533 
-0.00612507 4.33533 -5.61618 
-9.1211 -1.15612 -0.896282 
-1.15612 -2.72481 -3.67367 
-0.896282 -3.67367 -19.0698 
-8.92492 1.09918 1.00153 
1.09918 -3.29768 -3.47686 
1.00153 -3.47686 -18.6931 
-8.25172 0.0306502 0.0782105 
0.0306502 -15.1388 -4.5123 
0.0782105 -4.5123 -7.52511 
-9.95984 -0.0154729 -0.0415451 
-0.0154729 -9.93248 -0.0349654 
-0.0415451 -0.0349654 -9.93024 
-9.97539 -0.00145773 -0.0585951 
-0.00145773 -9.94399 -0.0636982 
-0.0585951 -0.0636982 -9.90317 
-9.95231 -0.0151875 -0.0412515 
-0.0151875 -9.95226 -0.0525236 
-0.0412515 -0.0525236 -9.91799 
-9.9919 -0.0440446 -0.0101732 
-0.0440446 -9.93221 -0.028196 
-0.0101732 -0.028196 -9.89845 
-10.0216 -0.00658998 -0.0190234 
-0.00658998 -10.0167 -0.0090274 
-0.0190234 -0.0090274 -10.1189 
-10.0598 -0.0153252 -0.000148864 
-0.0153252 -10.1033 -0.0130082 
-0.000148864 -0.0130082 -9.99412 
-10.0459 -0.00813384 0.00391685 
-0.00813384 -10.0697 -0.0132882 
0.00391685 -0.0132882 -10.0416 
-10.0332 -0.00978589 0.0527141 
-0.00978589 -10.0591 -0.00754311 
0.0527141 -0.00754311 -10.065 
-9.36289 0.114764 0.0750933 
0.114764 -9.65656 0.312453 
0.0750933 0.312453 -10.4195 
-9.45395 0.240314 -0.153418 
0.240314 -10.4401 -0.28932 
-0.153418 -0.28932 -9.54488 
-10.2053 0.27553 -0.0128643 
0.27553 -9.49572 0.616523 
-0.0128643 0.616523 -9.73786 
-10.0142 -0.0577235 0.0741059 
-0.0577235 -9.28436 0.343725 
0.0741059 0.343725 -10.1403 
-9.96847 0.000887305 -0.00359307 
0.000887305 -9.97225 0.00166539 
-0.00359307 0.00166539 -9.99695 
-9.96899 0.000104908 0.00254716 
0.000104908 -9.96806 0.00194875 
0.00254716 0.00194875 -10.0006 
-9.97995 0.00614279 0.00757242 
0.00614279 -9.96874 -0.00216308 
0.00757242 -0.00216308 -9.98899 
-9.97427 0.00197478 0.0065367 
0.00197478 -9.97263 0.00406129 
0.0065367 0.00406129 -9.99077 
-10.4311 0.100752 -0.0257051 
0.100752 -9.58056 0.13841 
-0.0257051 0.13841 -10.7072 
-10.33 -0.0258776 -0.147645 
-0.0258776 -9.74299 -0.0673299 
-0.147645 -0.0673299 -10.6459 
-10.3605 0.0366317 -0.017269 
0.0366317 -9.58942 -0.100428 
-0.017269 -0.100428 -10.769 
-9.77636 -0.0401657 0.0510662 
-0.0401657 -10.6049 -0.851898 
0.0510662 -0.851898 -10.3376 
-9.88691 0.0121032 -0.0143099 
0.0121032 -9.90452 -0.166388 
-0.0143099 -0.166388 -9.8294 
-9.93019 0.0129931 -0.0570503 
0.0129931 -9.85122 -0.117928 
-0.0570503 -0.117928 -9.83943 
-9.87061 -0.0393426 0.0723124 
-0.0393426 -9.85712 -0.162287 
0.0723124 -0.162287 -9.8931 
-9.9124 -0.00633575 0.0569834 
-0.00633575 -9.89025 -0.142457 
0.0569834 -0.142457 -9.81819 
-9.33535 -0.0563262 0.324623 
-0.0563262 -10.0663 -0.11065 
0.324623 -0.11065 -10.3033 
-9.74183 -0.138359 0.266651 
-0.138359 -9.94508 0.00955063 
0.266651 0.00955063 -10.0181 
-9.5844 0.0473665 0.100138 
0.0473665 -9.79748 0.0335253 
0.100138 0.0335253 -10.3231 
-9.59149 0.00416007 0.0664889 
0.00416007 -10.0009 0.130542 
0.0664889 0.130542 -10.1126 
-9.86851 -0.0308339 0.157422 
-0.0308339 -10.0358 0.00854315 
0.157422 0.00854315 -10.0127 
-9.88726 0.013931 0.114428 
0.013931 -10.0136 0.025675 
0.114428 0.025675 -10.0161 
-9.88165 0.0356485 0.153958 
0.0356485 -10.0283 0.0094273 
0.153958 0.0094273 -10.007 
-9.8631 0.0508023 0.158956 
0.0508023 -10.0238 0.0296112 
0.158956 0.0296112 -10.0301 
-9.97991 -0.00367402 -0.0567441 
-0.00367402 -9.97533 -0.0368929 
-0.0567441 -0.0368929 -9.98943 
-9.98022 0.00069157 -0.0615374 
0.00069157 -9.98073 -0.0421955 
-0.0615374 -0.0421955 -9.98372 
-9.98005 0.00244882 -0.0609037 
0.00244882 -9.98168 -0.0403389 
-0.0609037 -0.0403389 -9.98294 
-9.98542 -0.00325207 -0.063865 
-0.00325207 -9.98087 -0.0421999 
-0.063865 -0.0421999 -9.97838 
-8.68154 0.691336 0.103166 
0.691336 -10.2335 -0.330981 
0.103166 -0.330981 -12.1334 
-10.6033 0.781147 -0.131946 
0.781147 -10.3746 -0.0425399 
-0.131946 -0.0425399 -10.0706 
-10.0704 -0.515894 -0.191835 
-0.515894 -10.7191 -0.179448 
-0.191835 -0.179448 -10.2589 
-10.0595 0.519653 0.170778 
0.519653 -10.236 0.466383 
0.170778 0.466383 -10.753 
-9.97402 0.00548565 0.000598197 
0.00548565 -9.9771 0.00571078 
0.000598197 0.00571078 -9.99403 
-9.97387 -0.00459329 -0.00219307 
-0.00459329 -9.97805 0.00136867 
-0.00219307 0.00136867 -9.99323 
-9.97762 -0.00182618 -0.00262723 
-0.00182618 -9.97904 0.00473437 
-0.00262723 0.00473437 -9.98849 
-9.98038 0.00757604 0.00423323 
0.00757604 -9.97823 -0.00347036 
0.00423323 -0.00347036 -9.98654 
-9.91426 -0.00941806 -0.0496402 
-0.00941806 -9.8993 -0.0379783 
-0.0496402 -0.0379783 -9.93261 
-9.89326 -0.00253523 -0.0470209 
-0.00253523 -9.9147 -0.0597 
-0.0470209 -0.0597 -9.9382 
-9.9081 -0.019222 -0.0435568 
-0.019222 -9.90039 -0.0480266 
-0.0435568 -0.0480266 -9.93768 
-9.90249 -0.00534097 -0.0595046 
-0.00534097 -9.90473 -0.0600498 
-0.0595046 -0.0600498 -9.93895 
-9.87253 0.0244498 0.0768605 
0.0244498 -9.90634 0.0308684 
0.0768605 0.0308684 -9.9265 
-9.88998 0.0167235 0.0861322 
0.0167235 -9.9087 0.0356369 
0.0861322 0.0356369 -9.9067 
-9.90881 0.00514997 0.0848084 
0.00514997 -9.90192 0.0320527 
0.0848084 0.0320527 -9.89465 
-9.87134 0.0116623 0.103575 
0.0116623 -9.92143 0.0404206 
0.103575 0.0404206 -9.9126 
-9.92295 0.0240182 0.0491106 
0.0240182 -9.9351 -0.00229015 
0.0491106 -0.00229015 -9.96353 
-9.92298 -0.0024079 0.0325394 
-0.0024079 -9.92692 -0.00763449 
0.0325394 -0.00763449 -9.97167 
-9.91986 0.0200451 0.0220943 
0.0200451 -9.91337 0.00245571 
0.0220943 0.00245571 -9.98835 
-9.9159 -0.00932397 0.0437612 
-0.00932397 -9.91961 -0.0173786 
0.0437612 -0.0173786 -9.98606 
-9.96404 0.061172 0.0210388 
0.061172 -9.83989 -0.0113132 
0.0210388 -0.0113132 -10.0737 
-9.86521 0.0455423 0.0512166 
0.0455423 -9.92144 -0.0502608 
0.0512166 -0.0502608 -10.091 
-9.91818 0.0108624 0.0606491 
0.0108624 -9.91106 -0.0934147 
0.0606491 -0.0934147 -10.0484 
-9.90451 -0.0653755 -0.00353127 
-0.0653755 -9.97003 -0.101034 
-0.00353127 -0.101034 -10.0031 
-9.89641 0.039387 -0.145572 
0.039387 -9.84892 0.00975125 
-0.145572 0.00975125 -9.86815 
-9.65477 0.0134478 -0.402294 
0.0134478 -10.0571 0.0417137 
-0.402294 0.0417137 -9.90164 
-9.60974 -0.10756 -0.119126 
-0.10756 -9.94588 0.213381 
-0.119126 0.213381 -10.0579 
-9.63406 -0.00956122 -0.17782 
-0.00956122 -9.99396 0.0771498 
-0.17782 0.0771498 -9.98546 
-9.59924 -0.054736 0.0349263 
-0.054736 -9.89896 -0.378566 
0.0349263 -0.378566 -9.07533 
-9.62746 0.0289458 0.0244888 
0.0289458 -9.82737 -0.44634 
0.0244888 -0.44634 -9.1187 
-9.68398 -0.109465 -0.00916431 
-0.109465 -9.93084 -0.303385 
-0.00916431 -0.303385 -8.95871 
-9.55274 -0.0752233 0.0858138 
-0.0752233 -10.0176 -0.291314 
0.0858138 -0.291314 -9.00322 
-9.95157 -0.00825841 -0.00303676 
-0.00825841 -10.1406 -0.0147305 
-0.00303676 -0.0147305 -9.42535 
-9.98139 -0.0782593 -0.0116325 
-0.0782593 -10.196 0.139229 
-0.0116325 0.139229 -9.34014 
-9.81156 -0.0450912 0.0873653 
-0.0450912 -10.0005 0.0599635 
0.0873653 0.0599635 -9.70555 
-9.95574 0.0490917 -0.100495 
0.0490917 -10.2026 -0.212351 
-0.100495 -0.212351 -9.35923 
-9.78689 0.0788664 -0.0464646 
0.0788664 -9.75818 -0.48516 
-0.0464646 -0.48516 -9.56313 
-9.61308 -0.0753612 -0.0027941 
-0.0753612 -9.81641 -0.461713 
-0.0027941 -0.461713 -9.67871 
-9.70211 0.0814394 -0.0411635 
0.0814394 -9.93416 -0.476919 
-0.0411635 -0.476919 -9.47193 
-9.60747 -0.249989 0.204397 
-0.249989 -9.8509 -0.133173 
0.204397 -0.133173 -9.64983 
-9.87609 -0.0339954 -0.0561724 
-0.0339954 -9.91288 -0.012758 
-0.0561724 -0.012758 -10.1655 
-9.93152 -0.0280059 -0.0271644 
-0.0280059 -9.92464 -0.034236 
-0.0271644 -0.034236 -10.0983 
-9.85472 -0.0405501 -0.0469657 
-0.0405501 -9.87319 -0.0835499 
-0.0469657 -0.0835499 -10.2265 
-9.91483 -0.0775143 -0.0629768 
-0.0775143 -9.90454 -0.00229695 
-0.0629768 -0.00229695 -10.1351 
-9.98626 0.00078881 0.056747 
0.00078881 -9.98451 -0.0330207 
0.056747 -0.0330207 -10.0061 
-9.98883 0.0022064 0.056884 
0.0022064 -9.99435 -0.0346481 
0.056884 -0.0346481 -9.99367 
-9.99305 0.000994066 0.057126 
0.000994066 -9.99242 -0.0352143 
0.057126 -0.0352143 -9.99138 
-9.99445 0.000944244 0.0552191 
0.000944244 -9.99366 -0.0339991 
0.0552191 -0.0339991 -9.98874 
-9.96756 -0.00262505 0.0239543 
-0.00262505 -9.96323 0.0128724 
0.0239543 0.0128724 -9.96309 
-9.96701 -0.00942647 0.0210381 
-0.00942647 -9.96844 0.0156491 
0.0210381 0.0156491 -9.95844 
-9.98162 -0.00298423 0.008893 
-0.00298423 -9.96586 0.0174458 
0.008893 0.0174458 -9.94641 
-9.96286 -0.00515847 0.0247718 
-0.00515847 -9.96532 0.0212877 
0.0247718 0.0212877 -9.96571 
-10.1014 0.154018 -0.0665315 
0.154018 -10.3139 1.18666 
-0.0665315 1.18666 -9.6887 
-9.89165 -0.057744 -0.197137 
-0.057744 -10.0973 0.983552 
-0.197137 0.983552 -10.1151 
-10.1423 0.137911 -0.280643 
0.137911 -9.34499 1.24208 
-0.280643 1.24208 -10.6167 
-9.26435 -0.0718743 0.0938136 
-0.0718743 -10.1502 -0.184864 
0.0938136 -0.184864 -10.6895 
-9.93229 -0.00765819 0.0438164 
-0.00765819 -9.93233 0.0350833 
0.0438164 0.0350833 -9.89959 
-9.93689 -0.00357487 0.0305082 
-0.00357487 -9.92078 0.0244363 
0.0305082 0.0244363 -9.90654 
-9.92045 -0.00108119 0.0530058 
-0.00108119 -9.93896 0.0275138 
0.0530058 0.0275138 -9.9048 
-9.96713 0.00624292 0.0630675 
0.00624292 -9.93104 0.0203871 
0.0630675 0.0203871 -9.86604 
-9.9743 0.00267324 0.00263987 
0.00267324 -9.97049 0.0754694 
0.00263987 0.0754694 -9.96497 
-9.97405 7.26169e-05 -0.00323268 
7.26169e-05 -9.98437 0.0760032 
-0.00323268 0.0760032 -9.95134 
-9.97243 0.00017219 -0.00041058 
0.00017219 -9.96645 0.0638831 
-0.00041058 0.0638831 -9.97088 
-9.97308 0.000747645 0.0019527 
0.000747645 -9.97177 0.0741131 
0.0019527 0.0741131 -9.96491 
-9.8851 -0.0111294 -0.0738353 
-0.0111294 -9.92615 -0.0454177 
-0.0738353 -0.0454177 -9.9128 
-9.91534 -0.0115155 -0.0882434 
-0.0115155 -9.92801 -0.0578942 
-0.0882434 -0.0578942 -9.8807 
-9.90455 -0.0234139 -0.0806271 
-0.0234139 -9.92718 -0.0724928 
-0.0806271 -0.0724928 -9.89232 
-9.93218 -0.0144851 -0.0792702 
-0.0144851 -9.96261 -0.0398994 
-0.0792702 -0.0398994 -9.82926 
-9.89242 0.0371937 0.0346055 
0.0371937 -9.87622 0.0227785 
0.0346055 0.0227785 -9.9537 
-9.88867 0.0361352 0.0542978 
0.0361352 -9.92097 0.0314426 
0.0542978 0.0314426 -9.9127 
-9.89456 0.0152147 0.0163678 
0.0152147 -9.86708 0.0375513 
0.0163678 0.0375513 -9.96069 
-9.86296 0.0332168 0.0459243 
0.0332168 -9.87902 0.0576926 
0.0459243 0.0576926 -9.98036 
-9.91949 -0.0517922 -0.0317689 
-0.0517922 -9.88733 0.0151228 
-0.0317689 0.0151228 -9.96331 
-9.93461 0.0285066 -0.0348465 
0.0285066 -9.92054 0.0204124 
-0.0348465 0.0204124 -9.91498 
-9.91906 -0.00390723 -0.038721 
-0.00390723 -9.91168 0.0323608 
-0.038721 0.0323608 -9.93939 
-9.91972 -0.00563465 -0.0636294 
-0.00563465 -9.89597 0.0509891 
-0.0636294 0.0509891 -9.95444 
-9.90588 -0.00964996 0.0510185 
-0.00964996 -9.90218 -0.0443005 
0.0510185 -0.0443005 -9.93598 
-9.89786 -0.00943502 0.060904 
-0.00943502 -9.91262 -0.0502445 
0.060904 -0.0502445 -9.93357 
-9.90253 -0.018022 0.0559076 
-0.018022 -9.90535 -0.0333839 
0.0559076 -0.0333839 -9.93616 
-9.91066 0.00403067 0.0833214 
0.00403067 -9.90635 -0.0275823 
0.0833214 -0.0275823 -9.92703 
-9.88279 -0.0299728 0.0481972 
-0.0299728 -9.95054 -0.0173685 
0.0481972 -0.0173685 -9.88431 
-9.90748 -0.0299263 0.0392031 
-0.0299263 -9.92212 -0.0296612 
0.0392031 -0.0296612 -9.88804 
-9.97168 -0.0782327 0.0493532 
-0.0782327 -9.92317 -0.0117142 
0.0493532 -0.0117142 -9.82278 
-9.93079 -0.0591985 -0.00239381 
-0.0591985 -9.87548 0.00668316 
-0.00239381 0.00668316 -9.91137 
-9.93733 -0.00742523 0.0693736 
-0.00742523 -9.94401 -0.0111288 
0.0693736 -0.0111288 -9.90366 
-9.95269 0.00220628 0.0871591 
0.00220628 -9.95044 -0.0222339 
0.0871591 -0.0222339 -9.88187 
-9.94847 0.00289306 0.088671 
0.00289306 -9.95746 -0.0126814 
0.088671 -0.0126814 -9.87907 
-9.96199 -0.00997572 0.0553941 
-0.00997572 -9.96584 -0.0299839 
0.0553941 -0.0299839 -9.85716 
-9.56788 -0.0447485 -0.158385 
-0.0447485 -10.1655 -0.0268366 
-0.158385 -0.0268366 -10.1439 
-9.78268 -0.0225861 -0.19786 
-0.0225861 -10.0354 -0.016567 
-0.19786 -0.016567 -10.0591 
-9.51628 -0.289816 -0.0840499 
-0.289816 -10.3154 0.096019 
-0.0840499 0.096019 -10.0456 
-9.52993 0.0453612 -0.17999 
0.0453612 -10.1803 -0.0117559 
-0.17999 -0.0117559 -10.167 
-6.11877 -2.04953 3.19453 
-2.04953 -14.5067 0.200979 
3.19453 0.200979 2.22566 
-4.36907 -0.547314 -1.56713 
-0.547314 -8.84139 3.57872 
-1.56713 3.57872 -5.18935 
-9.84809 1.30374 -0.691779 
1.30374 -5.72377 0.363971 
-0.691779 0.363971 -2.82795 
-8.21825 0.0425383 -0.146987 
0.0425383 -8.4591 1.28551 
-0.146987 1.28551 -1.72246 
-9.82932 0.0678437 0.179719 
0.0678437 -9.90685 0.0661361 
0.179719 0.0661361 -9.8928 
-9.83613 0.0317226 0.153968 
0.0317226 -10.0626 0.0148979 
0.153968 0.0148979 -9.73026 
-9.84998 0.202883 0.193387 
0.202883 -9.86673 0.159904 
0.193387 0.159904 -9.91227 
-9.85651 0.0400976 0.0364947 
0.0400976 -9.95538 0.0198699 
0.0364947 0.0198699 -9.81708 
-9.77026 0.126485 0.0764029 
0.126485 -9.90743 0.00969285 
0.0764029 0.00969285 -9.85906 
-9.88924 0.131609 0.0779123 
0.131609 -9.73309 -0.0231373 
0.0779123 -0.0231373 -9.91442 
-9.73592 0.0381984 0.0421264 
0.0381984 -9.97053 -0.0921129 
0.0421264 -0.0921129 -9.8303 
-9.75994 0.150322 0.0906812 
0.150322 -9.91015 -0.0219648 
0.0906812 -0.0219648 -9.86665 
-9.92922 0.00337128 0.00231115 
0.00337128 -9.9264 -0.0821593 
0.00231115 -0.0821593 -9.94617 
-9.92239 0.0222198 -0.0282783 
0.0222198 -9.92834 -0.0386112 
-0.0282783 -0.0386112 -9.95106 
-9.93538 0.0196671 0.0111114 
0.0196671 -9.93015 -0.0525258 
0.0111114 -0.0525258 -9.93626 
-9.92032 0.00907766 -0.0288893 
0.00907766 -9.94423 -0.052536 
-0.0288893 -0.052536 -9.93725 
-9.96309 0.00324479 -0.0795172 
0.00324479 -9.95113 -0.00220605 
-0.0795172 -0.00220605 -9.95064 
-9.95159 0.0085831 -0.0854564 
0.0085831 -9.96289 -0.014981 
-0.0854564 -0.014981 -9.95038 
-9.96707 0.0122507 -0.075959 
0.0122507 -9.95455 -0.0235465 
-0.075959 -0.0235465 -9.94324 
-9.94972 -0.00530403 -0.0641502 
-0.00530403 -9.95644 0.00921923 
-0.0641502 0.00921923 -9.95869 
-10.1228 0.0560304 0.0521074 
0.0560304 -9.95601 0.0600045 
0.0521074 0.0600045 -9.98542 
-10.0898 -0.0103765 -0.0200113 
-0.0103765 -9.96455 -0.0712703 
-0.0200113 -0.0712703 -10.0099 
-9.88001 -0.00737525 0.0332882 
-0.00737525 -10.0798 0.117388 
0.0332882 0.117388 -10.1044 
-9.99483 0.011572 -0.0268095 
0.011572 -10.1148 -0.0150603 
-0.0268095 -0.0150603 -9.95468 
-10.2468 -0.0720134 -0.0657348 
-0.0720134 -10.2291 0.0123327 
-0.0657348 0.0123327 -10.1092 
-10.065 -0.0251796 0.00709211 
-0.0251796 -9.93639 0.00154495 
0.00709211 0.00154495 -10.5836 
-10.2682 0.0315399 -0.0293731 
0.0315399 -10.2532 -0.0082604 
-0.0293731 -0.0082604 -10.0636 
-10.2831 0.0220513 0.118486 
0.0220513 -10.2723 0.325694 
0.118486 0.325694 -10.0296 
-9.9293 -0.02201 -0.0201179 
-0.02201 -9.95246 -0.0523584 
-0.0201179 -0.0523584 -9.93303 
-9.94324 -0.0311311 -0.0573413 
-0.0311311 -9.93088 -0.063004 
-0.0573413 -0.063004 -9.94066 
-9.94111 -0.00401959 -0.0705955 
-0.00401959 -9.93827 -0.0282845 
-0.0705955 -0.0282845 -9.9354 
-9.9529 -0.0304117 -0.045392 
-0.0304117 -9.93441 -0.0187854 
-0.045392 -0.0187854 -9.92749 
-9.96177 0.0101115 -0.013899 
0.0101115 -9.96893 0.000576843 
-0.013899 0.000576843 -10.0322 
-9.96642 0.00985291 -0.0180102 
0.00985291 -9.96947 -0.00727145 
-0.0180102 -0.00727145 -10.027 
-9.96802 0.00797081 -0.00899969 
0.00797081 -9.97811 -1.50087e-05 
-0.00899969 -1.50087e-05 -10.0168 
-9.96964 0.0166877 -0.0120957 
0.0166877 -9.98338 -0.0104713 
-0.0120957 -0.0104713 -10.0099 
-9.88814 -0.0345072 -0.0470557 
-0.0345072 -9.8706 -0.0228081 
-0.0470557 -0.0228081 -10.1277 
-9.89629 -0.00961281 -0.0216149 
-0.00961281 -9.89755 -0.00441441 
-0.0216149 -0.00441441 -10.0926 
-9.88391 -0.0104124 -0.0285231 
-0.0104124 -9.89896 -0.013669 
-0.0285231 -0.013669 -10.1036 
-9.88274 0.00149732 -0.0207688 
0.00149732 -9.8971 -0.0335438 
-0.0207688 -0.0335438 -10.1066 
-9.97972 -0.00366852 -0.0621433 
-0.00366852 -9.97841 -0.0244272 
-0.0621433 -0.0244272 -9.9897 
-9.9835 -0.00247851 -0.0693732 
-0.00247851 -9.97815 -0.0309942 
-0.0693732 -0.0309942 -9.98618 
-9.98356 0.00228022 -0.0648917 
0.00228022 -9.98211 -0.0254283 
-0.0648917 -0.0254283 -9.98216 
-9.98847 -0.000825319 -0.0713574 
-0.000825319 -9.97935 -0.0337573 
-0.0713574 -0.0337573 -9.98001 
-9.84783 0.657876 2.45627 
0.657876 -10.5041 0.931473 
2.45627 0.931473 -9.38686 
-10.6602 0.323878 0.409743 
0.323878 -10.5971 1.64111 
0.409743 1.64111 -8.4815 
-9.46729 0.738945 0.990276 
0.738945 -10.7935 0.61396 
0.990276 0.61396 -9.47809 
-10.1007 0.848569 1.00267 
0.848569 -10.0431 0.863337 
1.00267 0.863337 -9.59498 
-9.95538 -0.00473008 0.0300035 
-0.00473008 -9.96662 -0.0704928 
0.0300035 -0.0704928 -9.94878 
-9.94987 -0.00622759 0.0366798 
-0.00622759 -9.9663 -0.0648388 
0.0366798 -0.0648388 -9.95461 
-9.94983 -0.00324064 0.0421366 
-0.00324064 -9.95993 -0.0599681 
0.0421366 -0.0599681 -9.96102 
-9.95139 -0.00713336 0.0375674 
-0.00713336 -9.96489 -0.0677939 
0.0375674 -0.0677939 -9.95449 
-9.95791 0.0202878 -0.00410153 
0.0202878 -9.94683 -0.0340107 
-0.00410153 -0.0340107 -9.92877 
-9.9435 -0.00237402 -5.73521e-05 
-0.00237402 -9.92752 -0.0830844 
-5.73521e-05 -0.0830844 -9.9625 
-9.93995 0.0498474 0.00783466 
0.0498474 -9.92552 -0.0276165 
0.00783466 -0.0276165 -9.96804 
-9.93081 0.0308836 -0.0125685 
0.0308836 -9.92706 -0.0127146 
-0.0125685 -0.0127146 -9.97564 
-9.96876 0.0212988 0.00314325 
0.0212988 -9.96445 0.0255388 
0.00314325 0.0255388 -10.0921 
-9.973 0.0102163 0.0313001 
0.0102163 -10.0129 0.0194872 
0.0313001 0.0194872 -10.0394 
-10.0793 0.0285908 -0.01811 
0.0285908 -10.0367 -0.00370026 
-0.01811 -0.00370026 -9.90927 
-10.0138 0.0329784 0.0725351 
0.0329784 -9.9582 -0.0747182 
0.0725351 -0.0747182 -10.0533 
-10.2167 -0.145336 -0.0569948 
-0.145336 -10.4057 0.0097318 
-0.0569948 0.0097318 -10.3161 
-10.3622 -0.0298155 -0.121153 
-0.0298155 -10.6846 -0.197147 
-0.121153 -0.197147 -9.89168 
-9.99982 0.0265096 0.130204 
0.0265096 -9.83207 -0.00125475 
0.130204 -0.00125475 -11.1066 
-10.2285 -0.263956 -0.125825 
-0.263956 -10.6155 0.322342 
-0.125825 0.322342 -10.0945 
-9.8812 -0.0131482 -0.0320557 
-0.0131482 -9.90202 0.0416051 
-0.0320557 0.0416051 -9.96124 
-9.88245 0.00455287 -0.0350687 
0.00455287 -9.88966 0.0478214 
-0.0350687 0.0478214 -9.97235 
-9.87834 -0.0100914 -0.0295092 
-0.0100914 -9.91765 0.037077 
-0.0295092 0.037077 -9.94847 
-9.8836 -0.0163632 -0.0261693 
-0.0163632 -9.90321 0.0336973 
-0.0261693 0.0336973 -9.95764 
-9.84558 -0.0418983 0.104712 
-0.0418983 -9.82716 -0.116563 
0.104712 -0.116563 -9.87691 
-9.86254 -0.058138 0.140095 
-0.058138 -9.80738 -0.104173 
0.140095 -0.104173 -9.87973 
-9.8517 -0.0658315 0.133965 
-0.0658315 -9.82309 -0.0849394 
0.133965 -0.0849394 -9.87485 
-9.83323 -0.0707301 0.145431 
-0.0707301 -9.82334 -0.06289 
0.145431 -0.06289 -9.89307 
-9.98152 0.00139541 -0.0041294 
0.00139541 -9.96593 0.0809303 
-0.0041294 0.0809303 -9.96622 
-9.9646 0.00348048 -0.00886311 
0.00348048 -9.97422 0.0803751 
-0.00886311 0.0803751 -9.97484 
-9.95892 -0.00360844 -0.00319333 
-0.00360844 -9.97065 0.0589903 
-0.00319333 0.0589903 -9.98409 
-9.97818 -0.00304944 -0.00459649 
-0.00304944 -9.98081 0.0776616 
-0.00459649 0.0776616 -9.95467 
-10.1 0.030753 -0.118157 
0.030753 -9.92969 0.0225773 
-0.118157 0.0225773 -9.96158 
-10.0126 0.0987809 0.16033 
0.0987809 -9.80203 -0.0530449 
0.16033 -0.0530449 -10.1766 
-9.94841 -0.113502 0.0488116 
-0.113502 -10.0097 0.0463693 
0.0488116 0.0463693 -10.0332 
-9.92118 -0.123446 -0.00999277 
-0.123446 -9.96414 0.044592 
-0.00999277 0.044592 -10.106 
-9.98151 7.43638e-05 -0.000660302 
7.43638e-05 -9.97769 0.00268808 
-0.000660302 0.00268808 -9.99945 
-9.98275 0.00123866 -0.0013017 
0.00123866 -9.9755 0.00287675 
-0.0013017 0.00287675 -10.0004 
-9.97774 -0.000453793 0.0021442 
-0.000453793 -9.97933 0.00378994 
0.0021442 0.00378994 -10.0016 
-9.97868 -0.00113271 0.00116219 
-0.00113271 -9.98262 0.00808221 
0.00116219 0.00808221 -9.99735 
-9.92835 -0.00373485 0.013617 
-0.00373485 -9.90985 0.00863585 
0.013617 0.00863585 -10.0431 
-9.91058 0.00920121 -0.00184052 
0.00920121 -9.94487 -0.00139841 
-0.00184052 -0.00139841 -10.0258 
-9.9055 0.0044874 0.0162504 
0.0044874 -9.91207 0.00470664 
0.0162504 0.00470664 -10.0637 
-9.92674 -0.0006873 0.00716792 
-0.0006873 -9.90926 0.0199554 
0.00716792 0.0199554 -10.0453 
-9.8443 0.0227876 0.108198 
0.0227876 -9.93862 0.0865615 
0.108198 0.0865615 -9.93775 
-9.87402 -0.003924 0.116228 
-0.003924 -9.9073 0.06732 
0.116228 0.06732 -9.93934 
-9.87586 0.0137372 0.0995957 
0.0137372 -9.88344 0.0858792 
0.0995957 0.0858792 -9.96136 
-9.88942 0.0441407 0.0856001 
0.0441407 -9.86526 0.082883 
0.0856001 0.082883 -9.96598 
-9.96534 0.00570706 -0.0368886 
0.00570706 -9.96854 0.0383314 
-0.0368886 0.0383314 -9.97349 
-9.97156 0.00701165 -0.0348049 
0.00701165 -9.96624 0.0373152 
-0.0348049 0.0373152 -9.96958 
-9.96966 0.00759715 -0.0401276 
0.00759715 -9.97216 0.0331886 
-0.0401276 0.0331886 -9.96555 
-9.96778 -0.000631973 -0.0426256 
-0.000631973 -9.96907 0.0347896 
-0.0426256 0.0347896 -9.97052 
-9.97952 -0.0053396 0.00337902 
-0.0053396 -9.97522 0.0121594 
0.00337902 0.0121594 -9.98863 
-9.97497 -0.010137 0.0188762 
-0.010137 -9.98186 0.00375402 
0.0188762 0.00375402 -9.98654 
-9.98375 -0.00381652 0.00689972 
-0.00381652 -9.98167 0.0128382 
0.00689972 0.0128382 -9.97794 
-9.9764 -0.00601726 0.0156325 
-0.00601726 -9.97929 0.0110069 
0.0156325 0.0110069 -9.98767 
-9.96996 0.00477098 -0.026885 
0.00477098 -9.98465 0.0200889 
-0.026885 0.0200889 -9.98501 
-9.97575 0.00642065 -0.0291364 
0.00642065 -9.98574 0.0244394 
-0.0291364 0.0244394 -9.97811 
-9.98097 0.00298861 -0.0246497 
0.00298861 -9.97618 0.0293886 
-0.0246497 0.0293886 -9.98246 
-9.98333 0.00708857 -0.0223305 
0.00708857 -9.97658 0.0256526 
-0.0223305 0.0256526 -9.9797 
-9.92843 -0.0148475 -0.0482021 
-0.0148475 -9.87156 -0.012889 
-0.0482021 -0.012889 -9.95843 
-9.87336 0.0565258 -0.0104345 
0.0565258 -9.9281 -0.00823693 
-0.0104345 -0.00823693 -9.95696 
-9.96725 -0.0347358 -0.0454969 
-0.0347358 -9.87853 -0.0222423 
-0.0454969 -0.0222423 -9.91265 
-9.8705 -0.0100774 -0.045363 
-0.0100774 -9.90901 -0.0647271 
-0.045363 -0.0647271 -9.97891 
-9.98026 0.00319405 -0.00428893 
0.00319405 -9.97967 -0.00217342 
-0.00428893 -0.00217342 -9.98546 
-9.97155 -0.00365265 -0.0015747 
-0.00365265 -9.98396 -0.00752466 
-0.0015747 -0.00752466 -9.98987 
-9.9783 -0.00801516 -0.0046337 
-0.00801516 -9.98078 0.00531478 
-0.0046337 0.00531478 -9.98631 
-9.97895 0.00176647 -0.00313281 
0.00176647 -9.97915 -0.00122625 
-0.00313281 -0.00122625 -9.98728 
-9.93966 0.0233144 -0.0227955 
0.0233144 -9.94328 -0.0249954 
-0.0227955 -0.0249954 -9.994 
-9.93952 -0.00432903 -0.0132566 
-0.00432903 -9.96323 -0.0131001 
-0.0132566 -0.0131001 -9.97418 
-9.93568 0.00111761 -0.0146125 
0.00111761 -9.9636 -0.00824462 
-0.0146125 -0.00824462 -9.97767 
-9.94403 0.00316847 -0.00316868 
0.00316847 -9.93989 -0.011678 
-0.00316868 -0.011678 -9.99302 
-9.90937 -0.00750579 -0.0813942 
-0.00750579 -9.91109 0.0348454 
-0.0813942 0.0348454 -9.93205 
-9.91972 -0.00907326 -0.0769554 
-0.00907326 -9.91961 0.0262488 
-0.0769554 0.0262488 -9.91318 
-9.92167 -0.00794923 -0.0775258 
-0.00794923 -9.90883 0.0340932 
-0.0775258 0.0340932 -9.92202 
-9.9125 -0.000253164 -0.073772 
-0.000253164 -9.92571 0.0245904 
-0.073772 0.0245904 -9.91431 
-9.28296 -2.19865 -1.27951 
-2.19865 -6.85087 -0.692855 
-1.27951 -0.692855 1.66179 
-4.05498 0.11252 0.0105829 
0.11252 -6.99598 -0.764514 
0.0105829 -0.764514 -3.42108 
-7.04842 0.820693 -0.363313 
0.820693 -8.44449 -0.80734 
-0.363313 -0.80734 1.02087 
-6.57655 1.19003 2.34866 
1.19003 -6.97598 -0.274612 
2.34866 -0.274612 -0.919502 
-9.98126 -0.00601413 -0.0229545 
-0.00601413 -9.983 -0.0209259 
-0.0229545 -0.0209259 -9.98356 
-9.99556 0.00107532 -0.0219439 
0.00107532 -9.9824 -0.0129186 
-0.0219439 -0.0129186 -9.96985 
-9.98257 -8.56605e-05 -0.0107568 
-8.56605e-05 -9.96032 -0.0265464 
-0.0107568 -0.0265464 -10.0049 
-9.98402 -0.0072993 -0.0208757 
-0.0072993 -9.97703 -0.0241357 
-0.0208757 -0.0241357 -9.98677 
-10.2528 0.0527238 -0.0495592 
0.0527238 -10.1956 -0.0266295 
-0.0495592 -0.0266295 -10.3727 
-10.4845 0.0698813 0.0360168 
0.0698813 -10.5095 -0.0211506 
0.0360168 -0.0211506 -9.82698 
-10.1831 0.0501988 -0.0377902 
0.0501988 -10.1135 -0.112777 
-0.0377902 -0.112777 -10.5245 
-10.2828 0.0403611 -0.0179081 
0.0403611 -10.16 0.134996 
-0.0179081 0.134996 -10.3782 
-10.1067 0.0149761 -0.00761524 
0.0149761 -10.0853 -0.0391896 
-0.00761524 -0.0391896 -10.2524 
-10.1148 0.0160502 0.0156011 
0.0160502 -10.1035 -0.0139703 
0.0156011 -0.0139703 -10.2261 
-10.1121 0.0391118 -0.00223782 
0.0391118 -10.0982 -0.0358627 
-0.00223782 -0.0358627 -10.2341 
-10.1141 0.0332574 0.0136682 
0.0332574 -10.0942 -0.013124 
0.0136682 -0.013124 -10.2361 
-9.94555 -0.000626489 -0.0114457 
-0.000626489 -9.92807 0.0848864 
-0.0114457 0.0848864 -9.92397 
-9.94056 -0.00662001 -0.0165544 
-0.00662001 -9.93668 0.0842211 
-0.0165544 0.0842211 -9.92034 
-9.94223 -0.00496587 -0.0119129 
-0.00496587 -9.92875 0.0806521 
-0.0119129 0.0806521 -9.9266 
-9.93323 -0.00825971 -0.00513167 
-0.00825971 -9.92847 0.0804138 
-0.00513167 0.0804138 -9.93588 
-9.94605 0.0402931 -0.0180863 
0.0402931 -9.89904 0.0726901 
-0.0180863 0.0726901 -9.95525 
-9.95282 0.0485121 -0.0160278 
0.0485121 -9.93735 0.0687398 
-0.0160278 0.0687398 -9.91017 
-9.94917 0.0349294 -0.0326633 
0.0349294 -9.89304 0.0808679 
-0.0326633 0.0808679 -9.95812 
-9.92529 0.0105294 -0.0183743 
0.0105294 -9.92556 0.0276209 
-0.0183743 0.0276209 -9.94949 
-9.9754 0.0214456 -0.0896439 
0.0214456 -9.49298 0.137641 
-0.0896439 0.137641 -9.39149 
-9.83366 0.200648 0.329635 
0.200648 -9.9358 -0.281368 
0.329635 -0.281368 -9.09042 
-10.1196 0.0332446 0.501072 
0.0332446 -9.85738 -0.219558 
0.501072 -0.219558 -8.88294 
-9.90734 0.0617206 0.37104 
0.0617206 -9.43377 0.00662065 
0.37104 0.00662065 -9.51877 
-9.86968 -0.040661 -0.0276193 
-0.040661 -9.8807 0.0347379 
-0.0276193 0.0347379 -9.97561 
-9.83497 -0.00925322 -0.0543192 
-0.00925322 -9.91055 0.0353866 
-0.0543192 0.0353866 -9.98047 
-9.85732 0.0424179 -0.0498229 
0.0424179 -9.92585 0.0113343 
-0.0498229 0.0113343 -9.94282 
-9.79855 -0.0607308 -0.0928808 
-0.0607308 -9.935 0.067761 
-0.0928808 0.067761 -9.99244 
-9.89726 0.0168124 -0.0189524 
0.0168124 -10.0283 -0.031558 
-0.0189524 -0.031558 -10.2289 
-9.9895 0.00715291 -0.0318213 
0.00715291 -9.96397 0.0267213 
-0.0318213 0.0267213 -10.201 
-9.90967 0.0858186 0.0132571 
0.0858186 -9.9825 0.0361359 
0.0132571 0.0361359 -10.2623 
-9.87824 0.00406031 0.025091 
0.00406031 -9.9969 0.0078628 
0.025091 0.0078628 -10.2793 
-9.8789 0.101205 0.048016 
0.101205 -9.88072 0.0297617 
0.048016 0.0297617 -9.9492 
-9.92081 0.0758034 0.0264158 
0.0758034 -9.9292 0.00394115 
0.0264158 0.00394115 -9.8588 
-9.88819 0.0824582 0.0424947 
0.0824582 -9.89009 0.0488216 
0.0424947 0.0488216 -9.93054 
-9.89472 0.0164069 0.140143 
0.0164069 -9.86506 0.0790398 
0.140143 0.0790398 -9.94904 
-9.937 0.0245318 0.0639448 
0.0245318 -9.9086 -0.0764604 
0.0639448 -0.0764604 -9.93329 
-9.9306 0.10113 0.0124813 
0.10113 -9.89204 -0.0958948 
0.0124813 -0.0958948 -9.95624 
-9.93101 -0.0017338 0.0400524 
-0.0017338 -9.91874 -0.0573591 
0.0400524 -0.0573591 -9.92913 
-9.91506 0.0342459 0.0589138 
0.0342459 -9.91612 -0.0420865 
0.0589138 -0.0420865 -9.9477 
-10.6768 -0.018499 0.270738 
-0.018499 -10.0882 -0.267513 
0.270738 -0.267513 -10.8771 
-9.9498 -0.220447 0.0792952 
-0.220447 -10.4935 -0.302789 
0.0792952 -0.302789 -11.1989 
-9.34614 -0.230174 0.337687 
-0.230174 -8.46325 0.844019 
0.337687 0.844019 -13.8328 
-10.6932 -0.23703 0.034485 
-0.23703 -9.8553 0.202794 
0.034485 0.202794 -11.0936 
-9.96334 0.00212129 -0.0295262 
0.00212129 -9.98606 -0.00709614 
-0.0295262 -0.00709614 -10.0025 
-9.98553 -0.00435211 -0.0235628 
-0.00435211 -9.97998 -0.0190216 
-0.0235628 -0.0190216 -9.98642 
-9.98166 -0.00587893 -0.0266091 
-0.00587893 -9.9818 -0.0163994 
-0.0266091 -0.0163994 -9.98846 
-9.98474 -0.000286708 -0.0154902 
-0.000286708 -9.99308 -0.0214222 
-0.0154902 -0.0214222 -9.9741 
-9.67015 -0.274108 -0.0922367 
-0.274108 -9.72004 -0.182914 
-0.0922367 -0.182914 -9.98705 
-9.6349 -0.0407692 -0.00978973 
-0.0407692 -10.0628 0.163466 
-0.00978973 0.163466 -9.67954 
-9.86466 -0.382794 -0.26267 
-0.382794 -9.93611 0.0601396 
-0.26267 0.0601396 -9.57647 
-9.72647 0.145809 -0.110586 
0.145809 -9.85293 -0.122661 
-0.110586 -0.122661 -9.79784 
-9.97648 -0.0135295 0.0147502 
-0.0135295 -9.96859 0.0238738 
0.0147502 0.0238738 -9.9718 
-9.97411 -0.00285172 0.0196114 
-0.00285172 -9.96999 0.0202914 
0.0196114 0.0202914 -9.97278 
-9.97303 -0.00188725 0.0168433 
-0.00188725 -9.97255 0.0204634 
0.0168433 0.0204634 -9.97129 
-9.96651 -0.0064827 0.0225511 
-0.0064827 -9.97706 0.00260092 
0.0225511 0.00260092 -9.9733 
-10.0331 -0.112323 0.214893 
-0.112323 -9.90324 0.471184 
0.214893 0.471184 -9.64646 
-9.57088 -0.00896 -0.0607173 
-0.00896 -9.93928 0.0237107 
-0.0607173 0.0237107 -10.0727 
-10.2108 -0.0558501 -0.277397 
-0.0558501 -10.6087 0.653262 
-0.277397 0.653262 -8.76325 
-10.2221 0.118309 -0.0517724 
0.118309 -9.80334 0.607307 
-0.0517724 0.607307 -9.55738 
-9.79498 -0.162771 -0.275576 
-0.162771 -9.98862 0.236103 
-0.275576 0.236103 -9.93915 
-9.78497 -0.0977197 -0.186595 
-0.0977197 -9.95496 -0.0643396 
-0.186595 -0.0643396 -9.98282 
-9.87095 -0.175202 -0.153437 
-0.175202 -9.93309 0.379529 
-0.153437 0.379529 -9.91871 
-10.0507 -0.0927261 -0.360154 
-0.0927261 -10.2283 -0.014812 
-0.360154 -0.014812 -9.4438 
-9.92516 -0.00730644 0.0172975 
-0.00730644 -9.95738 -0.00344143 
0.0172975 -0.00344143 -10.1743 
-9.93416 0.000825422 0.0210131 
0.000825422 -9.94224 0.00123161 
0.0210131 0.00123161 -10.1804 
-9.93205 0.000440013 0.0188129 
0.000440013 -9.95023 -0.00669897 
0.0188129 -0.00669897 -10.1745 
-9.95008 0.00525126 0.018074 
0.00525126 -9.94984 -0.0124274 
0.018074 -0.0124274 -10.1569 
-9.9154 0.000438335 -0.0496749 
0.000438335 -9.91874 -0.0389541 
-0.0496749 -0.0389541 -9.94668 
-9.91739 0.00130254 -0.0532685 
0.00130254 -9.91643 -0.048388 
-0.0532685 -0.048388 -9.94699 
-9.91907 0.00506983 -0.0533281 
0.00506983 -9.91633 -0.0490904 
-0.0533281 -0.0490904 -9.94541 
-9.92322 0.00459465 -0.0500268 
0.00459465 -9.90792 -0.0475595 
-0.0500268 -0.0475595 -9.94968 
-9.86402 -0.092993 -0.164196 
-0.092993 -9.80888 -0.0401745 
-0.164196 -0.0401745 -9.88223 
-9.78961 -0.0992717 -0.151366 
-0.0992717 -9.86174 -0.0358654 
-0.151366 -0.0358654 -9.90378 
-9.78689 -0.0615579 -0.0803954 
-0.0615579 -9.85235 0.00582006 
-0.0803954 0.00582006 -9.9159 
-9.73601 -0.152484 -0.160716 
-0.152484 -9.91886 -0.096377 
-0.160716 -0.096377 -9.90026 
-9.86852 0.0653465 0.0583373 
0.0653465 -9.89602 -0.0272103 
0.0583373 -0.0272103 -10.1929 
-9.91268 -0.0474723 0.0987905 
-0.0474723 -9.93785 -0.0835249 
0.0987905 -0.0835249 -10.1069 
-9.86198 0.0892121 0.0698451 
0.0892121 -9.92333 -0.0403582 
0.0698451 -0.0403582 -10.1722 
-9.87037 0.098533 0.108759 
0.098533 -9.91819 -0.0129567 
0.108759 -0.0129567 -10.1689 
-9.92529 0.0477339 0.00560707 
0.0477339 -10.0043 -0.00354717 
0.00560707 -0.00354717 -10.0693 
-10.0416 -0.0329386 -0.0065937 
-0.0329386 -9.96307 -0.0080325 
-0.0065937 -0.0080325 -9.99419 
-10.0137 0.00196051 -0.012521 
0.00196051 -9.97065 -0.0101028 
-0.012521 -0.0101028 -10.0145 
-10.0174 0.0206674 -0.0722002 
0.0206674 -9.9402 -0.0237098 
-0.0722002 -0.0237098 -10.0412 
-9.98201 0.00302845 -0.0260355 
0.00302845 -9.97695 0.0369534 
-0.0260355 0.0369534 -9.97918 
-9.96891 -0.00184132 -0.0240321 
-0.00184132 -9.98376 0.0398862 
-0.0240321 0.0398862 -9.98547 
-9.97819 0.00207211 -0.0255564 
0.00207211 -9.98229 0.0382834 
-0.0255564 0.0382834 -9.97766 
-9.97793 0.00307419 -0.0296182 
0.00307419 -9.98314 0.0349309 
-0.0296182 0.0349309 -9.97707 
-9.92054 -0.00534286 -0.00496115 
-0.00534286 -9.91216 0.0877342 
-0.00496115 0.0877342 -9.90673 
-9.92413 0.0016503 0.00119083 
0.0016503 -9.90318 0.0889139 
0.00119083 0.0889139 -9.91212 
-9.91892 0.00561754 -0.00527044 
0.00561754 -9.92433 0.0836424 
-0.00527044 0.0836424 -9.89617 
-9.92435 0.00158671 0.000971265 
0.00158671 -9.91381 0.0892419 
0.000971265 0.0892419 -9.90126 
-9.98882 0.00169574 0.000466929 
0.00169574 -9.98762 0.00148099 
0.000466929 0.00148099 -9.99869 
-9.99245 0.000284522 -0.00334013 
0.000284522 -9.99246 0.000886136 
-0.00334013 0.000886136 -9.99022 
-9.98543 0.00204943 -0.000284446 
0.00204943 -9.9879 -0.00173425 
-0.000284446 -0.00173425 -10.0018 
-9.98965 0.000173373 -0.00330916 
0.000173373 -9.99003 0.00285548 
-0.00330916 0.00285548 -9.99545 
-9.82609 -0.053792 -0.0782975 
-0.053792 -9.76436 0.163883 
-0.0782975 0.163883 -9.99103 
-9.86309 -0.0374273 -0.0712513 
-0.0374273 -9.8129 0.137379 
-0.0712513 0.137379 -9.9055 
-9.8729 -0.0942954 -0.00353265 
-0.0942954 -9.83555 0.0659519 
-0.00353265 0.0659519 -9.87304 
-9.86738 0.0219784 -0.104031 
0.0219784 -9.89304 0.154706 
-0.104031 0.154706 -9.82107 
-9.9314 -0.0154505 0.0208765 
-0.0154505 -9.91615 -0.00289458 
0.0208765 -0.00289458 -10.1662 
-9.962 -0.00272081 0.0191412 
-0.00272081 -9.85547 -0.0102486 
0.0191412 -0.0102486 -10.1962 
-9.93325 -0.0130864 0.0115884 
-0.0130864 -9.90818 -0.0234428 
0.0115884 -0.0234428 -10.1723 
-9.94394 -0.00203345 -0.0102088 
-0.00203345 -9.89673 -0.0153463 
-0.0102088 -0.0153463 -10.173 
-9.92468 0.0122018 -0.176036 
0.0122018 -9.87318 -0.272245 
-0.176036 -0.272245 -9.93602 
-9.98409 -0.0310246 -0.0642292 
-0.0310246 -9.88898 -0.120919 
-0.0642292 -0.120919 -9.8608 
-9.8614 0.0172827 -0.126112 
0.0172827 -9.91959 -0.0714365 
-0.126112 -0.0714365 -9.95288 
-9.97651 -0.019932 0.00758042 
-0.019932 -10.0132 -0.126969 
0.00758042 -0.126969 -9.7442 
-4.26565 0.363251 0.448732 
0.363251 -6.18952 0.135006 
0.448732 0.135006 -4.35857 
-7.97022 1.31596 3.65515 
1.31596 -10.3197 -1.77596 
3.65515 -1.77596 3.47615 
-8.14502 -3.05151 1.59936 
-3.05151 -5.20125 0.51783 
1.59936 0.51783 -1.46747 
-5.26669 0.65607 -0.164652 
0.65607 -6.75218 -2.11187 
-0.164652 -2.11187 -2.79487 
-9.94026 0.0117156 -0.00406422 
0.0117156 -9.93794 0.000892694 
-0.00406422 0.000892694 -9.89769 
-9.93024 -0.000946623 0.00623718 
-0.000946623 -9.96972 -0.00570253 
0.00623718 -0.00570253 -9.87593 
-9.93339 0.00278272 0.00209006 
0.00278272 -9.94386 -0.0021995 
0.00209006 -0.0021995 -9.89864 
-9.9419 -0.000578269 7.78941e-05 
-0.000578269 -9.94252 0.00875744 
7.78941e-05 0.00875744 -9.89147 
-9.91383 0.00429092 -0.0291757 
0.00429092 -9.88849 0.00167754 
-0.0291757 0.00167754 -9.76653 
-9.93967 -0.0174157 -0.0343278 
-0.0174157 -9.86107 0.0110649 
-0.0343278 0.0110649 -9.76809 
-10.0189 -0.000475191 -0.0327477 
-0.000475191 -9.86341 0.0163487 
-0.0327477 0.0163487 -9.68657 
-9.94635 -0.0448529 -0.00735004 
-0.0448529 -9.88369 0.00150796 
-0.00735004 0.00150796 -9.7388 
-10.0229 -0.0777538 0.00857218 
-0.0777538 -10.1292 -0.00509058 
0.00857218 -0.00509058 -10.2161 
-10.1267 0.0143149 0.00869242 
0.0143149 -10.182 -0.023166 
0.00869242 -0.023166 -10.0595 
-10.163 0.00466445 0.00299967 
0.00466445 -10.0513 0.0126071 
0.00299967 0.0126071 -10.154 
-10.0889 -0.00408157 -0.0129987 
-0.00408157 -10.1244 -0.0242575 
-0.0129987 -0.0242575 -10.1549 
-9.96079 0.00267453 0.078708 
0.00267453 -9.9587 -0.00338995 
0.078708 -0.00338995 -9.94433 
-9.95474 0.00128135 0.0693598 
0.00128135 -9.95891 0.00368321 
0.0693598 0.00368321 -9.95017 
-9.95182 0.0038796 0.0744744 
0.0038796 -9.95108 0.0172534 
0.0744744 0.0172534 -9.96092 
-9.95777 0.000630917 0.0689625 
0.000630917 -9.95213 0.0099471 
0.0689625 0.0099471 -9.95392 
-10.5557 -0.101693 -0.131705 
-0.101693 -10.1606 -0.217376 
-0.131705 -0.217376 -10.5833 
-10.5602 -0.0628326 -0.105524 
-0.0628326 -10.2063 -0.0986561 
-0.105524 -0.0986561 -10.5332 
-10.2914 -0.0440252 -0.0922054 
-0.0440252 -10.3908 -0.0774194 
-0.0922054 -0.0774194 -10.6175 
-10.2783 -0.00571682 -0.258287 
-0.00571682 -10.4136 -0.02157 
-0.258287 -0.02157 -10.6077 
-9.96972 0.000572946 0.000498127 
0.000572946 -9.99684 -0.00364784 
0.000498127 -0.00364784 -10.0114 
-9.98256 0.00401529 -0.000888171 
0.00401529 -9.99643 -0.0065649 
-0.000888171 -0.0065649 -9.99898 
-9.98216 0.0137936 0.00922537 
0.0137936 -9.99311 0.0140846 
0.00922537 0.0140846 -10.0027 
-9.97774 0.00550015 0.00328052 
0.00550015 -9.99524 -0.000103873 
0.00328052 -0.000103873 -10.005 
-9.88884 -0.0477877 -0.00695884 
-0.0477877 -9.81491 -0.166288 
-0.00695884 -0.166288 -9.91756 
-9.9003 0.00527474 -0.0318388 
0.00527474 -9.89065 -0.126358 
-0.0318388 -0.126358 -9.83036 
-9.85127 0.030555 0.0198588 
0.030555 -9.91648 -0.146066 
0.0198588 -0.146066 -9.85356 
-9.86722 0.122441 0.0900608 
0.122441 -9.96596 -0.249426 
0.0900608 -0.249426 -9.78813 
-9.89102 0.0377379 -0.0342467 
0.0377379 -9.94266 0.0460116 
-0.0342467 0.0460116 -9.90878 
-9.89899 -0.0183951 -0.0440828 
-0.0183951 -9.91195 0.0426777 
-0.0440828 0.0426777 -9.93152 
-9.89051 -0.0315165 -0.0392399 
-0.0315165 -9.88037 0.0362597 
-0.0392399 0.0362597 -9.97158 
-9.85621 -0.030024 -0.0425175 
-0.030024 -9.93496 0.0654318 
-0.0425175 0.0654318 -9.95129 
-9.93688 -0.00334892 -0.0250066 
-0.00334892 -9.90989 0.0022134 
-0.0250066 0.0022134 -9.98441 
-9.90054 -0.000897211 -0.055335 
-0.000897211 -9.94803 -0.00553334 
-0.055335 -0.00553334 -9.98261 
-9.92955 -0.0122396 -0.0294808 
-0.0122396 -9.93555 -0.0073663 
-0.0294808 -0.0073663 -9.96608 
-9.91566 -0.00590244 0.00724501 
-0.00590244 -9.90874 0.0103381 
0.00724501 0.0103381 -10.0068 
-9.953 -0.00668386 0.0491498 
-0.00668386 -9.9448 0.0362516 
0.0491498 0.0362516 -9.92866 
-9.91863 0.00744614 0.0533141 
0.00744614 -9.94368 -0.00282553 
0.0533141 -0.00282553 -9.96415 
-9.95513 0.00822218 0.0674052 
0.00822218 -9.95905 0.0360948 
0.0674052 0.0360948 -9.91228 
-9.96193 -0.00760057 0.0462559 
-0.00760057 -9.94233 0.0250272 
0.0462559 0.0250272 -9.9222 
-10.0542 0.0914226 -0.0196391 
0.0914226 -9.90161 0.265697 
-0.0196391 0.265697 -9.82187 
-9.92142 0.0945267 -0.00682798 
0.0945267 -9.73659 -0.0303717 
-0.00682798 -0.0303717 -10.1197 
-9.85161 0.0261291 -0.0589479 
0.0261291 -9.87082 -0.171528 
-0.0589479 -0.171528 -10.0552 
-9.90859 0.064644 0.0265993 
0.064644 -9.7898 -0.0543207 
0.0265993 -0.0543207 -10.0793 
-9.79279 -0.0219824 -0.230078 
-0.0219824 -9.95885 -0.0541599 
-0.230078 -0.0541599 -10.2012 
-9.76117 -0.026911 -0.233984 
-0.026911 -9.98018 -0.034549 
-0.233984 -0.034549 -10.2115 
-9.7699 -0.0661352 -0.237227 
-0.0661352 -10.0276 -0.0253661 
-0.237227 -0.0253661 -10.1554 
-9.84553 -0.109564 -0.0227459 
-0.109564 -9.96796 0.0161947 
-0.0227459 0.0161947 -10.1394 
-9.9315 -0.0176598 -0.0665392 
-0.0176598 -10.0685 -0.0100293 
-0.0665392 -0.0100293 -10.3904 
-9.985 0.0055603 0.0362641 
0.0055603 -10.1171 0.0462514 
0.0362641 0.0462514 -10.2882 
-9.96163 -0.00718402 0.00847112 
-0.00718402 -10.1166 -0.0321303 
0.00847112 -0.0321303 -10.3122 
-9.95934 -0.0469595 -0.0275437 
-0.0469595 -10.025 -0.0328619 
-0.0275437 -0.0328619 -10.4061 
-9.8747 0.0106746 0.0372438 
0.0106746 -9.88627 -0.110619 
0.0372438 -0.110619 -9.95555 
-9.8881 -0.028302 0.0461341 
-0.028302 -9.86073 -0.0840795 
0.0461341 -0.0840795 -9.96769 
-9.89039 0.0249951 0.0532589 
0.0249951 -9.86618 -0.0820691 
0.0532589 -0.0820691 -9.95994 
-9.89899 -0.0120692 0.0990346 
-0.0120692 -9.84156 -0.111075 
0.0990346 -0.111075 -9.97596 
-9.85187 -0.0132131 0.115433 
-0.0132131 -9.95711 0.0637192 
0.115433 0.0637192 -9.93839 
-9.87801 -0.029064 0.0467347 
-0.029064 -9.91374 0.0405241 
0.0467347 0.0405241 -9.95562 
-9.87173 0.00231901 0.0683638 
0.00231901 -9.91535 0.0775167 
0.0683638 0.0775167 -9.96029 
-9.85482 0.0336183 0.0504789 
0.0336183 -9.90103 0.105318 
0.0504789 0.105318 -9.99152 
-9.93322 0.0157975 0.0151003 
0.0157975 -9.82998 0.0563919 
0.0151003 0.0563919 -9.97501 
-9.95295 0.00261609 0.0256733 
0.00261609 -9.83194 0.0646865 
0.0256733 0.0646865 -9.95332 
-9.92426 0.00804607 0.0134819 
0.00804607 -9.81764 0.0782826 
0.0134819 0.0782826 -9.99631 
-9.9472 -0.00774773 0.0207814 
-0.00774773 -9.82257 0.0492994 
0.0207814 0.0492994 -9.96844 
-9.92402 -0.00576227 0.0486154 
-0.00576227 -9.93877 0.00675606 
0.0486154 0.00675606 -9.89639 
-9.943 -3.23737e-05 0.018857 
-3.23737e-05 -9.90793 0.0165315 
0.018857 0.0165315 -9.90825 
-9.93295 0.000284442 0.0389035 
0.000284442 -9.93656 -0.000427127 
0.0389035 -0.000427127 -9.88968 
-9.97188 -0.0024292 0.0616553 
-0.0024292 -9.93332 0.0165487 
0.0616553 0.0165487 -9.85398 
-9.90302 0.00115768 -0.269922 
0.00115768 -10.1828 -0.0215324 
-0.269922 -0.0215324 -10.0373 
-9.91925 -0.0707424 -0.207041 
-0.0707424 -10.1609 -0.00183891 
-0.207041 -0.00183891 -10.043 
-9.94968 -0.0510264 -0.206194 
-0.0510264 -10.1303 -0.00283588 
-0.206194 -0.00283588 -10.0431 
-9.86944 -0.138225 -0.204887 
-0.138225 -10.1766 0.0145757 
-0.204887 0.0145757 -10.0771 
-9.95524 0.0134027 0.0211006 
0.0134027 -9.94463 0.0535794 
0.0211006 0.0535794 -9.90307 
-9.95237 0.0237281 0.0138856 
0.0237281 -9.93858 0.0665552 
0.0138856 0.0665552 -9.91198 
-9.9368 -0.00469018 0.0238156 
-0.00469018 -9.94842 0.0579076 
0.0238156 0.0579076 -9.91771 
-9.95757 -0.00916379 0.0155412 
-0.00916379 -9.95993 0.0935136 
0.0155412 0.0935136 -9.88544 
-9.98286 -0.0245056 -0.0236999 
-0.0245056 -9.97516 0.0145028 
-0.0236999 0.0145028 -9.97221 
-9.97462 -0.00882104 0.0222878 
-0.00882104 -9.97444 -0.0114418 
0.0222878 -0.0114418 -9.98117 
-9.98119 -0.0131061 -0.00311789 
-0.0131061 -9.94598 -0.0103928 
-0.00311789 -0.0103928 -10.0031 
-9.96657 -0.0176961 -0.00175268 
-0.0176961 -9.95482 -0.0110869 
-0.00175268 -0.0110869 -10.0088 
-9.83608 -0.0911406 -0.136209 
-0.0911406 -9.89675 -0.0539481 
-0.136209 -0.0539481 -9.98844 
-9.86647 -0.106008 -0.165692 
-0.106008 -9.93241 -0.0615376 
-0.165692 -0.0615376 -9.92239 
-9.83265 -0.0796931 -0.0893979 
-0.0796931 -9.87239 -0.0389361 
-0.0893979 -0.0389361 -10.0162 
-9.8508 -0.0248399 -0.15782 
-0.0248399 -9.85441 -0.0979971 
-0.15782 -0.0979971 -10.0161 
-9.91078 0.00330807 -0.0268575 
0.00330807 -9.91636 0.00899431 
-0.0268575 0.00899431 -10.0494 
-9.9227 0.00414739 -0.0258724 
0.00414739 -9.9099 0.00560674 
-0.0258724 0.00560674 -10.044 
-9.91282 -0.00153551 -0.0172916 
-0.00153551 -9.92203 0.00207139 
-0.0172916 0.00207139 -10.0417 
-9.92581 0.00872559 -0.0284725 
0.00872559 -9.90571 -0.0123886 
-0.0284725 -0.0123886 -10.0451 
-9.94179 -7.03616e-05 0.0716321 
-7.03616e-05 -9.94327 -0.0321755 
0.0716321 -0.0321755 -9.98759 
-9.97598 -0.0023943 0.0787632 
-0.0023943 -9.96886 -0.0188531 
0.0787632 -0.0188531 -9.9278 
-9.96086 -0.00165807 0.0635047 
-0.00165807 -9.95479 -0.0159671 
0.0635047 -0.0159671 -9.95699 
-9.96175 -0.00256263 0.0565192 
-0.00256263 -9.95451 -0.0209071 
0.0565192 -0.0209071 -9.95639 
-9.95684 0.008338 0.0432795 
0.008338 -9.96372 -0.0383096 
0.0432795 -0.0383096 -9.95805 
-9.95641 0.00916153 0.0406493 
0.00916153 -9.96178 -0.0431414 
0.0406493 -0.0431414 -9.96042 
-9.95409 0.00879166 0.0408836 
0.00879166 -9.96388 -0.0400003 
0.0408836 -0.0400003 -9.96064 
-9.95278 0.00701609 0.0334784 
0.00701609 -9.96289 -0.0454116 
0.0334784 -0.0454116 -9.96294 
-9.99283 -0.00101667 0.0505807 
-0.00101667 -9.99132 -0.0322553 
0.0505807 -0.0322553 -9.99188 
-9.99227 -0.00047886 0.0506807 
-0.00047886 -9.99405 -0.0338723 
0.0506807 -0.0338723 -9.98971 
-9.98374 0.000653166 0.0505305 
0.000653166 -9.98214 -0.0296776 
0.0505305 -0.0296776 -10.0102 
-9.99367 0.000927154 0.0522579 
0.000927154 -9.99508 -0.0307175 
0.0522579 -0.0307175 -9.98728 
-9.95723 -0.0515069 0.0255968 
-0.0515069 -9.82375 0.0278305 
0.0255968 0.0278305 -10.1955 
-9.92922 0.00838149 0.0289514 
0.00838149 -9.89578 0.0114766 
0.0289514 0.0114766 -10.1515 
-9.9297 -0.00930292 -0.00806649 
-0.00930292 -9.8728 0.0498004 
-0.00806649 0.0498004 -10.174 
-9.92687 -0.0352376 -0.0318667 
-0.0352376 -9.88917 0.0439793 
-0.0318667 0.0439793 -10.1605 
-9.89913 0.00720437 0.0154066 
0.00720437 -9.84657 0.102876 
0.0154066 0.102876 -9.99842 
-9.94272 -0.0631278 0.0443348 
-0.0631278 -9.82394 0.0930202 
0.0443348 0.0930202 -9.97746 
-9.92533 -0.129709 0.00492247 
-0.129709 -9.89124 0.132427 
0.00492247 0.132427 -9.92754 
-10.0423 -0.0923342 0.00702035 
-0.0923342 -9.73946 0.177722 
0.00702035 0.177722 -9.96234 
-10.0075 0.0099296 0.00945585 
0.0099296 -10.0659 0.0126491 
0.00945585 0.0126491 -10.0631 
-10.0539 -0.0056859 0.0016742 
-0.0056859 -10.0506 -0.00919058 
0.0016742 -0.00919058 -10.0321 
-10.0666 -0.00236574 -0.00541517 
-0.00236574 -10.0339 0.0129865 
-0.00541517 0.0129865 -10.0362 
-10.0647 -0.000287821 -0.0179502 
-0.000287821 -10.0338 0.0121103 
-0.0179502 0.0121103 -10.0381 
-10.0527 0.00583041 -0.0288609 
0.00583041 -10.0716 -0.0150415 
-0.0288609 -0.0150415 -10.1513 
-10.1005 0.00328147 -0.00105123 
0.00328147 -10.1109 0.00748893 
-0.00105123 0.00748893 -10.0642 
-10.0868 -0.0143407 -0.00628439 
-0.0143407 -10.0859 0.00616216 
-0.00628439 0.00616216 -10.103 
-10.0782 0.023641 -0.0107338 
0.023641 -10.0746 0.0352177 
-0.0107338 0.0352177 -10.1228 
-9.91709 -0.0139471 0.0182469 
-0.0139471 -9.78661 -0.10297 
0.0182469 -0.10297 -9.96454 
-9.92688 -0.0098898 0.0160608 
-0.0098898 -9.78174 -0.0497603 
0.0160608 -0.0497603 -9.95963 
-9.78143 -0.0332793 -0.0307536 
-0.0332793 -10.0603 0.000903126 
-0.0307536 0.000903126 -9.82652 
-9.89598 -0.0960539 0.0401702 
-0.0960539 -9.8229 -0.0659104 
0.0401702 -0.0659104 -9.94937 
-9.94851 0.00250237 0.0179148 
0.00250237 -9.94801 0.0661705 
0.0179148 0.0661705 -9.94528 
-9.95258 0.00520695 0.0264417 
0.00520695 -9.94768 0.0736358 
0.0264417 0.0736358 -9.94154 
-9.95345 0.00458185 0.018781 
0.00458185 -9.9478 0.0732914 
0.018781 0.0732914 -9.94054 
-9.93753 -0.00295246 0.0175353 
-0.00295246 -9.95105 0.0732151 
0.0175353 0.0732151 -9.95321 
-9.93254 0.00538728 0.00981181 
0.00538728 -9.94839 -0.0128 
0.00981181 -0.0128 -9.97253 
-9.95916 -0.0308602 0.013982 
-0.0308602 -9.9273 -0.0275394 
0.013982 -0.0275394 -9.96699 
-9.92589 0.0134312 0.0264054 
0.0134312 -9.95922 0.00365989 
0.0264054 0.00365989 -9.96835 
-9.93669 0.00923063 0.000958264 
0.00923063 -9.92997 -0.011055 
0.000958264 -0.011055 -9.98679 
-9.94086 -0.00453924 0.0475411 
-0.00453924 -9.94262 0.0410318 
0.0475411 0.0410318 -9.96011 
-9.94924 0.000817012 0.0461587 
0.000817012 -9.93401 0.0392653 
0.0461587 0.0392653 -9.96034 
-9.94119 -0.00443713 0.0481861 
-0.00443713 -9.94396 0.0499498 
0.0481861 0.0499498 -9.95844 
-9.94225 -0.00609014 0.0429323 
-0.00609014 -9.94261 0.0408662 
0.0429323 0.0408662 -9.95873 
-9.68304 0.250479 -0.300994 
0.250479 -9.89868 0.00760631 
-0.300994 0.00760631 -9.96622 
-9.64402 0.197065 -0.310594 
0.197065 -9.79681 -0.1741 
-0.310594 -0.1741 -10.1071 
-9.80355 0.243295 -0.247638 
0.243295 -10.0125 -0.0735527 
-0.247638 -0.0735527 -9.73193 
-9.86909 -0.0407346 -0.31649 
-0.0407346 -9.95176 -0.0418047 
-0.31649 -0.0418047 -9.72708 
-10.0238 0.0639966 0.22382 
0.0639966 -9.9579 0.066669 
0.22382 0.066669 -9.84529 
-9.86532 -0.0116672 0.385895 
-0.0116672 -10.0992 -0.0506591 
0.385895 -0.0506591 -9.8625 
-10.0531 0.0176554 0.0215049 
0.0176554 -9.86405 -0.0142629 
0.0215049 -0.0142629 -9.90986 
-10.0181 0.175063 0.175821 
0.175063 -9.95448 0.0984229 
0.175821 0.0984229 -9.85445 
-9.93392 0.00379566 0.0220119 
0.00379566 -9.94116 0.0675321 
0.0220119 0.0675321 -9.93559 
-9.94149 0.0101153 0.0282411 
0.0101153 -9.93777 0.0695693 
0.0282411 0.0695693 -9.93141 
-9.93952 0.00539055 0.0291846 
0.00539055 -9.9423 0.0735584 
0.0291846 0.0735584 -9.92885 
-9.93757 0.00793189 0.0182455 
0.00793189 -9.93582 0.0728408 
0.0182455 0.0728408 -9.93727 
-9.94428 0.00545787 -0.00851496 
0.00545787 -9.92361 -0.0877565 
-0.00851496 -0.0877565 -9.93526 
-9.93096 0.00195664 -0.00539257 
0.00195664 -9.96646 -0.0955013 
-0.00539257 -0.0955013 -9.90573 
-9.9395 7.91939e-05 -0.00403431 
7.91939e-05 -9.9167 -0.0936421 
-0.00403431 -0.0936421 -9.94695 
-9.94146 -0.00767655 -0.0152544 
-0.00767655 -9.93466 -0.0693318 
-0.0152544 -0.0693318 -9.92703 
-9.85956 0.123952 -0.089725 
0.123952 -9.85321 -0.224171 
-0.089725 -0.224171 -9.68294 
-9.98895 -0.0611918 -0.020303 
-0.0611918 -9.84066 -0.163512 
-0.020303 -0.163512 -9.5661 
-9.89643 -0.0277128 0.0523996 
-0.0277128 -9.77869 -0.217939 
0.0523996 -0.217939 -9.72058 
-9.74325 0.133332 0.162133 
0.133332 -10.0649 -0.284674 
0.162133 -0.284674 -9.58752 
-9.89849 -0.0394753 -0.0768032 
-0.0394753 -9.90986 0.0563451 
-0.0768032 0.0563451 -9.85404 
-9.92758 -0.0310173 -0.0877458 
-0.0310173 -9.87157 0.113989 
-0.0877458 0.113989 -9.86325 
-9.91148 0.0442744 -0.00187165 
0.0442744 -9.8818 0.0153915 
-0.00187165 0.0153915 -9.86911 
-9.89514 -0.0328918 -0.0857994 
-0.0328918 -9.88667 0.0770672 
-0.0857994 0.0770672 -9.88058 
-9.96667 -0.00223429 0.0641033 
-0.00223429 -9.97068 -0.0215545 
0.0641033 -0.0215545 -9.97271 
-9.96946 -5.43665e-05 0.0647314 
-5.43665e-05 -9.97171 -0.0218481 
0.0647314 -0.0218481 -9.96889 
-9.96937 -0.000747093 0.0683484 
-0.000747093 -9.9696 -0.0243601 
0.0683484 -0.0243601 -9.97108 
-9.96988 -0.000372836 0.0694799 
-0.000372836 -9.97019 -0.0227892 
0.0694799 -0.0227892 -9.96999 
-9.93061 0.0039019 0.00524921 
0.0039019 -9.90192 -0.0257652 
0.00524921 -0.0257652 -10.0099 
-9.88642 -0.0172307 -0.0226686 
-0.0172307 -9.881 -0.0186817 
-0.0226686 -0.0186817 -10.075 
-9.90455 -0.0264637 -0.0302651 
-0.0264637 -9.87213 -0.0182097 
-0.0302651 -0.0182097 -10.0658 
-9.8817 -0.0189912 -0.0340721 
-0.0189912 -9.87647 -0.0769271 
-0.0340721 -0.0769271 -10.0843 
-9.97642 -0.00427459 -0.0718972 
-0.00427459 -9.9724 0.0327663 
-0.0718972 0.0327663 -9.97378 
-9.97465 -0.000448009 -0.069624 
-0.000448009 -9.97057 0.0284796 
-0.069624 0.0284796 -9.97738 
-9.9795 -0.00148967 -0.0663819 
-0.00148967 -9.97517 0.0267139 
-0.0663819 0.0267139 -9.96793 
-9.98223 -0.00305164 -0.0700163 
-0.00305164 -9.96875 0.0325659 
-0.0700163 0.0325659 -9.97162 
-9.96042 -0.110573 0.025322 
-0.110573 -9.804 -0.00882766 
0.025322 -0.00882766 -9.90143 
-9.95041 0.00955584 0.0851337 
0.00955584 -9.88488 -0.117116 
0.0851337 -0.117116 -9.83055 
-9.78209 -0.0348012 0.030614 
-0.0348012 -9.87275 -0.0412123 
0.030614 -0.0412123 -10.011 
-9.80841 -0.0036568 0.0181449 
-0.0036568 -9.79924 -0.189523 
0.0181449 -0.189523 -10.0582 
-9.99491 0.00200302 0.0455548 
0.00200302 -9.9915 -0.0487383 
0.0455548 -0.0487383 -9.99346 
-9.98691 0.00414629 0.0455006 
0.00414629 -9.99133 -0.0505535 
0.0455006 -0.0505535 -10.0016 
-9.99194 -0.00156221 0.0449499 
-0.00156221 -9.99282 -0.0463422 
0.0449499 -0.0463422 -9.9951 
-9.99505 0.000767454 0.0456701 
0.000767454 -9.99407 -0.0466092 
0.0456701 -0.0466092 -9.99074 
-9.98788 -0.0473257 0.0446561 
-0.0473257 -9.9602 0.0236287 
0.0446561 0.0236287 -10.1255 
-10.0268 -0.00143837 -0.0139001 
-0.00143837 -9.95151 0.0051524 
-0.0139001 0.0051524 -10.0953 
-10.029 0.013018 0.00138735 
0.013018 -9.97221 0.0190927 
0.00138735 0.0190927 -10.0724 
-10.0031 -0.00220986 -0.0294985 
-0.00220986 -9.93353 0.0220295 
-0.0294985 0.0220295 -10.137 
-9.97047 0.00338882 0.00549111 
0.00338882 -9.96926 0.00169463 
0.00549111 0.00169463 -9.98769 
-9.97227 0.00356632 0.00436502 
0.00356632 -9.96914 0.00157165 
0.00436502 0.00157165 -9.98601 
-9.97593 0.00406442 0.00218498 
0.00406442 -9.96742 0.00201898 
0.00218498 0.00201898 -9.98407 
-9.97138 0.00535767 0.00312145 
0.00535767 -9.9732 -0.000648842 
0.00312145 -0.000648842 -9.98284 
-9.99365 -0.0041758 -0.0581439 
-0.0041758 -10.029 -0.0128807 
-0.0581439 -0.0128807 -9.78377 
-9.98352 0.000892447 -0.0558538 
0.000892447 -10.0213 -0.0239028 
-0.0558538 -0.0239028 -9.80161 
-9.97081 0.0191883 -0.0577747 
0.0191883 -10.0316 -0.0130761 
-0.0577747 -0.0130761 -9.80395 
-10.0253 -0.0162451 -0.118773 
-0.0162451 -9.98379 -0.0375848 
-0.118773 -0.0375848 -9.79728 
-9.95196 -0.017371 0.110441 
-0.017371 -10.0418 -0.0709504 
0.110441 -0.0709504 -9.77331 
-9.97003 0.0146397 0.103329 
0.0146397 -10.0127 -0.0356662 
0.103329 -0.0356662 -9.78435 
-9.87572 0.0321869 0.149109 
0.0321869 -10.0566 -0.00747444 
0.149109 -0.00747444 -9.8347 
-9.95095 0.0773767 0.0976848 
0.0773767 -9.90664 -0.0364236 
0.0976848 -0.0364236 -9.90944 
-10.0042 -0.119126 0.084929 
-0.119126 -10.055 -0.135941 
0.084929 -0.135941 -9.99715 
-9.85831 -0.147687 0.0332351 
-0.147687 -10.0356 -0.217408 
0.0332351 -0.217408 -10.1624 
-10.0002 -0.126006 0.1123 
-0.126006 -10.1155 -0.18494 
0.1123 -0.18494 -9.94068 
-9.98159 -0.0881971 0.074362 
-0.0881971 -10.0503 -0.129188 
0.074362 -0.129188 -10.0245 
-9.7473 0.0314406 0.127147 
0.0314406 -9.93373 0.0632881 
0.127147 0.0632881 -9.99526 
-9.72847 -0.00544717 0.0600354 
-0.00544717 -9.88788 0.0459608 
0.0600354 0.0459608 -10.0599 
-9.77255 0.053667 0.121755 
0.053667 -9.89096 0.0853788 
0.121755 0.0853788 -10.0128 
-9.84263 0.0404891 0.106267 
0.0404891 -9.93891 0.0599615 
0.106267 0.0599615 -9.89475 
-9.91385 0.00405134 -0.0462376 
0.00405134 -9.91209 -0.0429819 
-0.0462376 -0.0429819 -9.96099 
-9.90581 0.00613772 -0.0529244 
0.00613772 -9.91232 -0.0504314 
-0.0529244 -0.0504314 -9.9688 
-9.91809 -0.010496 -0.0544776 
-0.010496 -9.91504 -0.047664 
-0.0544776 -0.047664 -9.9538 
-9.91106 0.00491864 -0.0537808 
0.00491864 -9.90802 -0.0492871 
-0.0537808 -0.0492871 -9.96785 
-10.469 0.243064 -0.470832 
0.243064 -10.7029 -0.28587 
-0.470832 -0.28587 -10.2151 
-9.83569 -0.521303 0.0478308 
-0.521303 -9.63689 0.44409 
0.0478308 0.44409 -11.9144 
-10.6502 -0.00653707 -0.451522 
-0.00653707 -10.7557 -0.248292 
-0.451522 -0.248292 -9.98105 
-9.37587 0.143017 -1.11117 
0.143017 -11.2825 0.123424 
-1.11117 0.123424 -10.7285 
-9.56148 0.0495141 0.550221 
0.0495141 -10.4271 0.202653 
0.550221 0.202653 -9.63626 
-9.73795 0.343234 0.436165 
0.343234 -9.83467 -0.0848356 
0.436165 -0.0848356 -10.0522 
-9.60374 -0.0150798 0.330157 
-0.0150798 -9.65054 -0.0584465 
0.330157 -0.0584465 -10.3706 
-9.81464 -0.329918 -0.273848 
-0.329918 -10.0576 0.130298 
-0.273848 0.130298 -9.7526 
-9.90975 0.0257861 0.0814465 
0.0257861 -9.88963 0.0217578 
0.0814465 0.0217578 -9.93788 
-9.8736 -0.00562228 0.0425029 
-0.00562228 -9.91476 -0.0818221 
0.0425029 -0.0818221 -9.94889 
-9.89648 -0.0299446 0.0102181 
-0.0299446 -9.90478 -0.0286326 
0.0102181 -0.0286326 -9.936 
-9.89895 -0.028356 0.0881877 
-0.028356 -9.88123 -0.0295274 
0.0881877 -0.0295274 -9.95708 
-9.97937 -0.00363781 -0.0284286 
-0.00363781 -9.98282 -0.0160079 
-0.0284286 -0.0160079 -9.98383 
-9.99351 0.00165672 -0.0306103 
0.00165672 -9.98174 -0.0074973 
-0.0306103 -0.0074973 -9.97078 
-9.98626 0.00518438 -0.0177447 
0.00518438 -9.95984 -0.0187538 
-0.0177447 -0.0187538 -9.99992 
-9.98265 -0.002607 -0.0260871 
-0.002607 -9.97849 -0.0164645 
-0.0260871 -0.0164645 -9.98488 
-9.94517 -0.00121431 -0.0400538 
-0.00121431 -9.95081 0.061172 
-0.0400538 0.061172 -9.93289 
-9.93456 -0.00362019 -0.0391693 
-0.00362019 -9.94001 0.0604074 
-0.0391693 0.0604074 -9.9543 
-9.93952 -0.000271984 -0.0392564 
-0.000271984 -9.9468 0.0683363 
-0.0392564 0.0683363 -9.94256 
-9.94207 0.000471077 -0.0349722 
0.000471077 -9.94565 0.0717881 
-0.0349722 0.0717881 -9.94116 
-9.82182 0.152969 0.0324641 
0.152969 -9.81466 0.0858419 
0.0324641 0.0858419 -9.83229 
-9.8806 0.0841553 0.058291 
0.0841553 -9.80412 0.135714 
0.058291 0.135714 -9.78406 
-9.92293 0.0216274 -0.0219209 
0.0216274 -9.80502 0.0661356 
-0.0219209 0.0661356 -9.74082 
-9.91631 0.162704 0.11155 
0.162704 -9.82272 0.20479 
0.11155 0.20479 -9.72975 
-10.0907 -0.00219384 0.0274316 
-0.00219384 -10.1144 0.00454278 
0.0274316 0.00454278 -10.198 
-10.1166 0.00177939 0.0315887 
0.00177939 -10.1065 0.00295909 
0.0315887 0.00295909 -10.18 
-10.0993 -0.0090236 0.021627 
-0.0090236 -10.1108 0.0122271 
0.021627 0.0122271 -10.193 
-10.1049 -0.00165689 0.0239473 
-0.00165689 -10.1084 0.00192121 
0.0239473 0.00192121 -10.1898 
-9.98638 -0.00110711 4.12795e-05 
-0.00110711 -9.98657 0.00253715 
4.12795e-05 0.00253715 -9.98989 
-9.98142 0.00101318 0.00389743 
0.00101318 -9.98093 0.00383324 
0.00389743 0.00383324 -10.0005 
-9.98004 -0.000352358 -0.00116301 
-0.000352358 -9.98177 0.00506119 
-0.00116301 0.00506119 -10.001 
-9.98357 -0.000412505 -0.00126029 
-0.000412505 -9.98732 -0.00140909 
-0.00126029 -0.00140909 -9.99195 
-9.97516 0.00197765 -0.000860712 
0.00197765 -9.97274 -0.00272139 
-0.000860712 -0.00272139 -10.002 
-9.9725 -0.00274458 0.00241636 
-0.00274458 -9.97974 0.011492 
0.00241636 0.011492 -9.9977 
-9.97301 0.000981961 0.0032776 
0.000981961 -9.97113 0.00076477 
0.0032776 0.00076477 -10.0058 
-9.97722 0.000847393 0.0054634 
0.000847393 -9.97486 0.00611179 
0.0054634 0.00611179 -9.99787 
-9.9856 0.00841898 -0.0669631 
0.00841898 -9.96317 -0.00809039 
-0.0669631 -0.00809039 -9.99351 
-9.97837 -0.0038627 -0.0708395 
-0.0038627 -9.98308 -0.00332775 
-0.0708395 -0.00332775 -9.98082 
-9.98226 -0.00257175 -0.0710118 
-0.00257175 -9.98049 -0.00590968 
-0.0710118 -0.00590968 -9.97953 
-9.99055 0.00324285 -0.078834 
0.00324285 -9.9811 -0.00438941 
-0.078834 -0.00438941 -9.97063 
-9.93807 0.0619833 -0.00576188 
0.0619833 -9.65587 0.342723 
-0.00576188 0.342723 -10.0566 
-9.80761 -0.209605 0.00491187 
-0.209605 -9.42505 0.169625 
0.00491187 0.169625 -10.4178 
-9.78565 -0.00409837 -0.0388078 
-0.00409837 -9.74504 0.490145 
-0.0388078 0.490145 -10.1198 
-10.1553 -0.0220574 -0.173739 
-0.0220574 -9.81342 0.143599 
-0.173739 0.143599 -9.68177 
-10.012 0.0201651 0.0139722 
0.0201651 -9.99818 0.0222858 
0.0139722 0.0222858 -10.0022 
-9.98301 0.0427391 -0.0259608 
0.0427391 -9.95835 0.0205276 
-0.0259608 0.0205276 -10.071 
-10.0135 -0.0605085 0.029661 
-0.0605085 -9.95172 0.0127892 
0.029661 0.0127892 -10.0471 
-10.0031 -0.0667174 -0.0545486 
-0.0667174 -9.99511 -0.0107138 
-0.0545486 -0.0107138 -10.0142 
-10.0153 0.0454648 0.0285218 
0.0454648 -10.0801 0.109406 
0.0285218 0.109406 -10.0492 
-10.119 -0.0117252 0.00374311 
-0.0117252 -9.98339 -0.0189158 
0.00374311 -0.0189158 -10.0423 
-9.97496 0.0284556 0.0254459 
0.0284556 -10.0919 -0.0725287 
0.0254459 -0.0725287 -10.0778 
-10.0803 -0.00465596 0.0299918 
-0.00465596 -9.96835 -0.0174716 
0.0299918 -0.0174716 -10.0959 
-9.90153 0.059123 0.0117339 
0.059123 -9.95741 -0.0586757 
0.0117339 -0.0586757 -10.1093 
-10.0612 -0.282745 -0.0235464 
-0.282745 -9.82212 0.0133929 
-0.0235464 0.0133929 -10.0849 
-9.99822 -0.102483 -0.0960047 
-0.102483 -9.86116 -0.102236 
-0.0960047 -0.102236 -10.1089 
-10.0074 -0.0674858 -0.0335866 
-0.0674858 -9.96872 0.25099 
-0.0335866 0.25099 -9.99214 
-9.82667 0.0344207 -0.0232316 
0.0344207 -9.89415 -0.0144383 
-0.0232316 -0.0144383 -9.9404 
-9.95366 -0.018232 -0.0519881 
-0.018232 -9.85039 -0.0396739 
-0.0519881 -0.0396739 -9.85718 
-9.90452 0.0136841 -0.0538415 
0.0136841 -9.85964 -0.0244264 
-0.0538415 -0.0244264 -9.89707 
-9.86455 0.0197674 -0.090905 
0.0197674 -9.84773 -0.0263031 
-0.090905 -0.0263031 -9.94893 
-10.3128 0.106394 0.0341712 
0.106394 -10.2715 0.0331272 
0.0341712 0.0331272 -10.2193 
-10.6051 -0.15662 0.0823077 
-0.15662 -10.4649 -0.0238236 
0.0823077 -0.0238236 -9.73359 
-9.76931 -0.115828 -0.108171 
-0.115828 -9.91844 -0.0969422 
-0.108171 -0.0969422 -11.1158 
-10.3837 -0.0925558 -0.180428 
-0.0925558 -10.245 0.728127 
-0.180428 0.728127 -10.1747 
-9.90998 -0.0511419 -0.0986767 
-0.0511419 -9.90697 0.0822965 
-0.0986767 0.0822965 -9.72271 
-9.8713 0.00588998 -0.112858 
0.00588998 -9.86462 0.0751241 
-0.112858 0.0751241 -9.80374 
-9.95539 -0.0280875 -0.121788 
-0.0280875 -9.92122 0.0673162 
-0.121788 0.0673162 -9.66305 
-9.95076 -0.0431887 -0.0267568 
-0.0431887 -9.8227 0.097588 
-0.0267568 0.097588 -9.76621 
-9.90261 -0.027466 0.0287748 
-0.027466 -9.93525 0.0262268 
0.0287748 0.0262268 -9.95971 
-9.97557 -0.000662993 -0.00363678 
-0.000662993 -9.95778 -0.0288573 
-0.00363678 -0.0288573 -9.86422 
-9.9527 -0.045761 0.121168 
-0.045761 -10.0139 -0.0848067 
0.121168 -0.0848067 -9.83097 
-9.95841 -0.00664362 0.0202369 
-0.00664362 -9.98403 -0.0134466 
0.0202369 -0.0134466 -9.85512 
-9.97183 -0.0170791 -0.0280779 
-0.0170791 -9.96172 -0.0396424 
-0.0280779 -0.0396424 -9.94802 
-9.95273 -0.00246986 -0.0344508 
-0.00246986 -9.96264 -0.0184985 
-0.0344508 -0.0184985 -9.96621 
-9.96303 -0.00627822 -0.0417582 
-0.00627822 -9.96683 -0.0359577 
-0.0417582 -0.0359577 -9.95172 
-9.96202 0.003539 -0.028448 
0.003539 -9.9554 -0.0244442 
-0.028448 -0.0244442 -9.96416 
-9.97192 -0.098469 9.72302e-06 
-0.098469 -9.79566 -0.349788 
9.72302e-06 -0.349788 -10.037 
-9.95708 -0.0211243 -0.0660173 
-0.0211243 -9.62021 -0.254858 
-0.0660173 -0.254858 -10.2273 
-9.95818 -0.0270203 -0.0905906 
-0.0270203 -9.7165 -0.237643 
-0.0905906 -0.237643 -10.1299 
-9.88258 -0.125731 0.00662884 
-0.125731 -9.94327 -0.0475758 
0.00662884 -0.0475758 -9.97876 
-9.93659 0.000985707 -0.0871495 
0.000985707 -9.95974 0.0149724 
-0.0871495 0.0149724 -9.97392 
-9.98486 -0.00214695 -0.0838665 
-0.00214695 -9.95055 0.0102213 
-0.0838665 0.0102213 -9.93485 
-9.9561 -0.000383169 -0.0779966 
-0.000383169 -9.96018 0.0054849 
-0.0779966 0.0054849 -9.95397 
-9.95611 0.000761786 -0.0576548 
0.000761786 -9.95683 0.00783609 
-0.0576548 0.00783609 -9.95731 
-10.0544 0.147139 0.0730437 
0.147139 -9.72283 -0.363638 
0.0730437 -0.363638 -10.384 
-10.1564 -0.124055 -0.000726179 
-0.124055 -9.92635 -0.391563 
-0.000726179 -0.391563 -10.0784 
-10.271 0.394344 0.0846071 
0.394344 -9.6619 -0.278259 
0.0846071 -0.278259 -10.2283 
-10.2013 0.0946149 0.0674381 
0.0946149 -9.70728 -0.117183 
0.0674381 -0.117183 -10.2526 
-10.0035 -0.46381 0.000432042 
-0.46381 -10.1951 0.0119655 
0.000432042 0.0119655 -11.5854 
-9.64449 0.566648 0.258402 
0.566648 -10.4763 0.186571 
0.258402 0.186571 -11.6632 
-11.4256 0.824161 -0.104115 
0.824161 -10.5425 0.304977 
-0.104115 0.304977 -9.81593 
-10.2339 0.724054 0.873145 
0.724054 -10.9421 -0.714358 
0.873145 -0.714358 -10.608 
-9.90706 -0.00956414 0.0565986 
-0.00956414 -9.89627 -0.0468906 
0.0565986 -0.0468906 -9.95322 
-9.91542 -0.0203568 0.0705021 
-0.0203568 -9.91765 -0.02368 
0.0705021 -0.02368 -9.92349 
-9.912 -0.0092356 0.0538612 
-0.0092356 -9.90479 -0.0331938 
0.0538612 -0.0331938 -9.93976 
-9.90643 0.00223175 0.049237 
0.00223175 -9.90558 -0.0379713 
0.049237 -0.0379713 -9.94454 
-9.94877 0.00658102 -0.0467919 
0.00658102 -9.95227 0.0106871 
-0.0467919 0.0106871 -9.90368 
-9.95582 -0.0024659 -0.0637874 
-0.0024659 -9.95441 0.0328739 
-0.0637874 0.0328739 -9.89449 
-9.95284 0.00381565 -0.0435211 
0.00381565 -9.9468 0.0182372 
-0.0435211 0.0182372 -9.90508 
-9.93684 -0.00132388 -0.0541622 
-0.00132388 -9.93021 0.019722 
-0.0541622 0.019722 -9.93767 
-10.0695 0.112778 0.063129 
0.112778 -9.19384 -0.125652 
0.063129 -0.125652 -10.1716 
-10.0075 0.0881072 0.235783 
0.0881072 -9.73131 -0.215938 
0.235783 -0.215938 -9.69611 
-10.1891 0.0183618 -0.00249927 
0.0183618 -9.4859 -0.22912 
-0.00249927 -0.22912 -9.75993 
-9.83815 -0.15373 -0.108677 
-0.15373 -9.23527 -0.604735 
-0.108677 -0.604735 -10.3615 
-9.98504 0.000175989 0.00357764 
0.000175989 -9.97278 -0.00604838 
0.00357764 -0.00604838 -9.99334 
-9.97793 0.00179133 0.00915513 
0.00179133 -9.98346 -0.00127901 
0.00915513 -0.00127901 -9.98977 
-9.98502 0.00286926 0.0046171 
0.00286926 -9.97997 -0.00377128 
0.0046171 -0.00377128 -9.98616 
-9.98324 0.00489678 0.008028 
0.00489678 -9.97907 0.00281053 
0.008028 0.00281053 -9.98884 
-9.94177 0.000634246 -0.0516065 
0.000634246 -9.9396 -0.0495772 
-0.0516065 -0.0495772 -9.95363 
-9.94383 -0.00148601 -0.0476833 
-0.00148601 -9.94218 -0.053179 
-0.0476833 -0.053179 -9.94899 
-9.94133 -0.000296617 -0.0516328 
-0.000296617 -9.94045 -0.0485993 
-0.0516328 -0.0485993 -9.95322 
-9.94001 0.000257537 -0.0517984 
0.000257537 -9.94027 -0.0489933 
-0.0517984 -0.0489933 -9.95472 
-9.82082 -0.0011467 -0.0426183 
-0.0011467 -10.2324 0.0548463 
-0.0426183 0.0548463 -10.0103 
-9.87247 0.00884497 0.119985 
0.00884497 -10.1222 -0.0228008 
0.119985 -0.0228008 -10.0689 
-10.07 -0.0602595 -0.115848 
-0.0602595 -9.84918 0.0998324 
-0.115848 0.0998324 -10.1444 
-10.0619 -0.0644499 0.0648319 
-0.0644499 -9.98866 -0.0488539 
0.0648319 -0.0488539 -10.013 
-9.88932 0.0120536 -0.0646469 
0.0120536 -9.99641 0.0148307 
-0.0646469 0.0148307 -10.0921 
-9.92602 -0.0466712 -0.029416 
-0.0466712 -9.93118 -0.0534658 
-0.029416 -0.0534658 -10.1206 
-9.90567 -0.0473145 -0.068612 
-0.0473145 -9.90205 -0.0199733 
-0.068612 -0.0199733 -10.1701 
-9.89526 -0.0873811 -0.0608174 
-0.0873811 -9.89727 0.000447329 
-0.0608174 0.000447329 -10.1853 
-10.0403 0.285324 -0.193514 
0.285324 -9.9486 -0.289305 
-0.193514 -0.289305 -10.0951 
-9.79211 -0.0537205 0.0422762 
-0.0537205 -10.3256 -0.0751208 
0.0422762 -0.0751208 -9.96633 
-9.8676 0.161361 -0.167301 
0.161361 -9.9869 -0.272035 
-0.167301 -0.272035 -10.2295 
-9.90123 0.254014 -0.132774 
0.254014 -9.98638 -0.328542 
-0.132774 -0.328542 -10.1964 
-6.89453 0.132775 -0.474222 
0.132775 -3.35882 0.0779393 
-0.474222 0.0779393 -2.90532 
-9.33797 -0.288117 -0.351052 
-0.288117 -4.6004 0.00761666 
-0.351052 0.00761666 0.779698 
-8.35094 0.34507 -0.49343 
0.34507 -4.44774 -1.2362 
-0.49343 -1.2362 -0.359998 
-6.77388 0.585525 -1.78376 
0.585525 -4.05346 -0.253029 
-1.78376 -0.253029 -2.33133 
-9.87522 0.000589938 0.084963 
0.000589938 -9.88488 -0.00795565 
0.084963 -0.00795565 -9.88179 
-9.84819 0.0159854 0.0728265 
0.0159854 -9.91436 0.0183832 
0.0728265 0.0183832 -9.87934 
-9.89396 -0.00452163 0.082909 
-0.00452163 -9.86884 0.0126025 
0.082909 0.0126025 -9.87909 
-9.8585 0.000608765 0.0900158 
0.000608765 -9.88684 0.0165484 
0.0900158 0.0165484 -9.89654 
-9.95419 0.00237502 -0.0556936 
0.00237502 -9.94767 -0.023464 
-0.0556936 -0.023464 -9.93148 
-9.9349 -0.00584586 -0.0745646 
-0.00584586 -9.94045 -0.0278978 
-0.0745646 -0.0278978 -9.95799 
-9.94984 -0.0146501 -0.0509882 
-0.0146501 -9.95944 -0.0362466 
-0.0509882 -0.0362466 -9.92406 
-9.95105 0.0081638 -0.0610704 
0.0081638 -9.94452 -0.0283974 
-0.0610704 -0.0283974 -9.93777 
-11.3377 -0.32983 0.427144 
-0.32983 -11.4444 -0.359389 
0.427144 -0.359389 -10.9161 
-10.4765 -0.358047 0.486736 
-0.358047 -12.0699 -0.379237 
0.486736 -0.379237 -11.1518 
-10.7188 -0.182917 1.04108 
-0.182917 -10.7791 -0.304065 
1.04108 -0.304065 -12.2003 
-10.7524 -0.615027 0.309674 
-0.615027 -10.9349 0.391235 
0.309674 0.391235 -12.0109 
-10.02 -0.503661 0.273178 
-0.503661 -9.99244 0.100479 
0.273178 0.100479 -9.74701 
-9.88959 -0.0832427 -0.114948 
-0.0832427 -10.1906 0.733476 
-0.114948 0.733476 -9.6792 
-10.0564 0.327405 0.558026 
0.327405 -9.85682 0.358148 
0.558026 0.358148 -9.84617 
-9.90532 0.0344181 0.152599 
0.0344181 -9.73307 -0.165229 
0.152599 -0.165229 -10.121 
-10.4122 0.233048 -0.523551 
0.233048 -11.1929 -0.0394838 
-0.523551 -0.0394838 -12.0713 
-10.1474 0.12577 -0.422858 
0.12577 -10.8587 0.0322302 
-0.422858 0.0322302 -12.6703 
-9.98123 0.680995 -0.629471 
0.680995 -11.5208 -0.190434 
-0.629471 -0.190434 -12.1743 
-10.5684 0.354517 -1.37885 
0.354517 -11.4137 -0.401633 
-1.37885 -0.401633 -11.6943 
-9.95342 -0.00509295 0.050126 
-0.00509295 -9.91397 0.0372298 
0.050126 0.0372298 -9.9166 
-9.94621 -0.0148492 0.0488205 
-0.0148492 -9.91123 0.0329368 
0.0488205 0.0329368 -9.92655 
-9.89074 0.0206012 0.0668243 
0.0206012 -9.92551 0.0481769 
0.0668243 0.0481769 -9.96773 
-9.92037 0.0200339 0.017336 
0.0200339 -9.90688 0.0516496 
0.017336 0.0516496 -9.95673 
-9.9414 0.00478623 0.076339 
0.00478623 -9.95072 0.00502185 
0.076339 0.00502185 -9.94405 
-9.9233 0.00498193 0.08215 
0.00498193 -9.949 2.2814e-05 
0.08215 2.2814e-05 -9.96387 
-9.96281 -0.00408266 0.0880502 
-0.00408266 -9.9434 0.00575483 
0.0880502 0.00575483 -9.92995 
-9.94842 -0.00319661 0.0674325 
-0.00319661 -9.95365 0.00727351 
0.0674325 0.00727351 -9.9341 
-9.96097 0.0147574 -0.0595625 
0.0147574 -9.96126 -0.0422792 
-0.0595625 -0.0422792 -9.92154 
-9.93244 0.00687591 -0.0360513 
0.00687591 -9.93621 -0.02525 
-0.0360513 -0.02525 -9.97511 
-9.95964 -0.00842181 -0.0580243 
-0.00842181 -9.95523 -0.0180198 
-0.0580243 -0.0180198 -9.9289 
-9.95171 -0.018702 -0.048725 
-0.018702 -9.95382 -0.0265364 
-0.048725 -0.0265364 -9.93824 
-9.94636 0.00787363 -0.0228952 
0.00787363 -9.94899 -0.0459441 
-0.0228952 -0.0459441 -9.8791 
-9.94281 0.0132083 -0.0178185 
0.0132083 -9.95854 -0.0537583 
-0.0178185 -0.0537583 -9.8731 
-9.93691 0.00786512 -0.0545818 
0.00786512 -9.93172 -0.0601981 
-0.0545818 -0.0601981 -9.90583 
-9.9168 0.00277345 -0.0465539 
0.00277345 -9.96772 -0.0350233 
-0.0465539 -0.0350233 -9.88993 
-9.96729 -0.00637713 0.0139226 
-0.00637713 -9.96909 0.0530148 
0.0139226 0.0530148 -9.93954 
-9.96981 -0.0016982 0.0213276 
-0.0016982 -9.96858 0.0489721 
0.0213276 0.0489721 -9.93753 
-9.99668 0.0103298 -0.0152399 
0.0103298 -9.95866 0.0377032 
-0.0152399 0.0377032 -9.92057 
-9.96081 0.00123464 0.00975041 
0.00123464 -9.95815 0.0454539 
0.00975041 0.0454539 -9.95696 
-9.95162 0.0125749 0.0718397 
0.0125749 -9.94376 -0.0490414 
0.0718397 -0.0490414 -9.8772 
-9.89847 -0.00674526 0.0533147 
-0.00674526 -9.92692 0.014551 
0.0533147 0.014551 -9.94719 
-9.9692 0.00926542 0.0564961 
0.00926542 -9.93584 -0.0496979 
0.0564961 -0.0496979 -9.86755 
-9.96735 0.00782943 0.0542545 
0.00782943 -9.96356 -0.0280921 
0.0542545 -0.0280921 -9.84168 
-9.85213 -0.0339896 0.013631 
-0.0339896 -9.8624 -0.0716923 
0.013631 -0.0716923 -9.95201 
-9.83946 0.041043 -0.0141799 
0.041043 -9.80535 -0.140634 
-0.0141799 -0.140634 -10.0217 
-9.99823 -0.0153357 -0.0440674 
-0.0153357 -9.79371 -0.0541371 
-0.0440674 -0.0541371 -9.87459 
-9.96084 0.0493901 -0.027126 
0.0493901 -9.88994 -0.18253 
-0.027126 -0.18253 -9.81575 
-9.97152 -0.0739361 0.140011 
-0.0739361 -9.91061 -0.139121 
0.140011 -0.139121 -9.98227 
-10.0124 -0.0813653 0.0621892 
-0.0813653 -9.92386 -0.0672976 
0.0621892 -0.0672976 -9.92815 
-10.0343 -0.133726 0.0772042 
-0.133726 -9.91585 -0.0270605 
0.0772042 -0.0270605 -9.91427 
-10.0047 -0.0999303 0.0995919 
-0.0999303 -10.0763 -0.0839267 
0.0995919 -0.0839267 -9.78339 
-9.95394 0.00284379 -0.0806098 
0.00284379 -9.87855 0.00938968 
-0.0806098 0.00938968 -9.8856 
-9.88822 0.11287 0.0435382 
0.11287 -9.89364 0.0648865 
0.0435382 0.0648865 -9.93623 
-9.85262 0.0518504 0.0928393 
0.0518504 -9.91855 0.0136037 
0.0928393 0.0136037 -9.94693 
-9.88555 0.0902863 0.0246174 
0.0902863 -9.93021 -0.0595482 
0.0246174 -0.0595482 -9.90233 
-10.7447 0.323057 -1.2418 
0.323057 -9.40647 -0.0624928 
-1.2418 -0.0624928 -8.96004 
-9.9642 0.230593 -1.21815 
0.230593 -11.1945 -0.279887 
-1.21815 -0.279887 -7.95247 
-8.81339 0.36702 -3.1756 
0.36702 -10.6931 0.570694 
-3.1756 0.570694 -9.60468 
-9.62877 1.16872 0.556214 
1.16872 -8.26291 -0.691957 
0.556214 -0.691957 -11.2195 
-9.99371 -0.00254062 0.033079 
-0.00254062 -9.98942 0.0368457 
0.033079 0.0368457 -9.99019 
-9.98658 0.00276795 0.0321399 
0.00276795 -9.98381 0.0402675 
0.0321399 0.0402675 -10.0029 
-9.99039 -0.000270231 0.0358826 
-0.000270231 -9.98504 0.0368282 
0.0358826 0.0368282 -9.9979 
-9.99242 -0.00250622 0.0350393 
-0.00250622 -9.99346 0.0372179 
0.0350393 0.0372179 -9.98744 
-9.95856 -0.00112323 -0.0411594 
-0.00112323 -9.95086 0.0139869 
-0.0411594 0.0139869 -9.92462 
-9.95524 -0.00556479 -0.0526307 
-0.00556479 -9.9533 0.0133465 
-0.0526307 0.0133465 -9.92549 
-9.95095 0.00362352 -0.0303824 
0.00362352 -9.95118 -0.00309125 
-0.0303824 -0.00309125 -9.93191 
-9.96964 0.00279009 -0.0324299 
0.00279009 -9.95728 0.0102965 
-0.0324299 0.0102965 -9.90712 
-9.8643 -0.0982154 -0.0480704 
-0.0982154 -9.87971 -0.0775313 
-0.0480704 -0.0775313 -9.87976 
-9.8675 -0.106027 -0.0261102 
-0.106027 -9.86362 -0.0129813 
-0.0261102 -0.0129813 -9.89265 
-9.8636 -0.0475168 -0.00495558 
-0.0475168 -9.87009 -0.0244419 
-0.00495558 -0.0244419 -9.89008 
-9.91987 -0.141019 -0.0134116 
-0.141019 -9.86317 -0.035794 
-0.0134116 -0.035794 -9.84072 
-9.93065 -0.000472753 -0.05768 
-0.000472753 -9.92385 0.047686 
-0.05768 0.047686 -9.94453 
-9.93194 1.51683e-05 -0.0608346 
1.51683e-05 -9.92282 0.0481585 
-0.0608346 0.0481585 -9.94427 
-9.93569 0.00360522 -0.0576599 
0.00360522 -9.92504 0.0481613 
-0.0576599 0.0481613 -9.93831 
-9.93263 -0.00293477 -0.0544135 
-0.00293477 -9.92048 0.0512516 
-0.0544135 0.0512516 -9.94593 
-9.88664 -0.0747585 0.0407161 
-0.0747585 -9.79075 -0.0702552 
0.0407161 -0.0702552 -9.94759 
-9.82555 -0.0655586 0.0849349 
-0.0655586 -9.83497 -0.106326 
0.0849349 -0.106326 -9.96446 
-9.81157 -0.0115029 0.0847894 
-0.0115029 -9.9281 -0.108881 
0.0847894 -0.108881 -9.88532 
-9.84449 -0.133422 0.10203 
-0.133422 -9.80885 -0.136182 
0.10203 -0.136182 -9.97164 
-9.89431 -0.00760557 0.00855093 
-0.00760557 -9.88049 -0.161602 
0.00855093 -0.161602 -9.76469 
-9.90271 0.0267716 -0.015235 
0.0267716 -9.8637 -0.124863 
-0.015235 -0.124863 -9.77308 
-9.88151 0.0156559 -0.0124226 
0.0156559 -9.87283 -0.125296 
-0.0124226 -0.125296 -9.78514 
-9.86506 0.0106932 -0.0350789 
0.0106932 -9.80592 -0.13808 
-0.0350789 -0.13808 -9.86851 
-9.94695 0.0144129 0.0711144 
0.0144129 -9.91244 0.0100122 
0.0711144 0.0100122 -9.97858 
-9.92569 0.00527456 0.0640568 
0.00527456 -9.92822 -0.0014452 
0.0640568 -0.0014452 -9.98407 
-9.94213 0.0172825 0.065412 
0.0172825 -9.93294 0.00932525 
0.065412 0.00932525 -9.96292 
-9.94975 0.00881305 0.0681476 
0.00881305 -9.95322 0.0248065 
0.0681476 0.0248065 -9.93501 
-9.89852 -0.0030132 -0.0288505 
-0.0030132 -9.90219 -0.0332708 
-0.0288505 -0.0332708 -10.0127 
-9.91639 0.001192 -0.061027 
0.001192 -9.92229 -0.0443192 
-0.061027 -0.0443192 -9.97469 
-9.9486 -0.00175625 -0.0413725 
-0.00175625 -9.94188 -0.0304133 
-0.0413725 -0.0304133 -9.92289 
-9.92685 0.00706398 -0.050756 
0.00706398 -9.9186 -0.0519054 
-0.050756 -0.0519054 -9.96793 
-9.87813 -0.0447969 0.175417 
-0.0447969 -9.9228 0.00166541 
0.175417 0.00166541 -9.85187 
-9.89992 -0.00255188 0.133654 
-0.00255188 -9.85471 0.00809341 
0.133654 0.00809341 -9.89817 
-10.0073 0.0235972 0.0634227 
0.0235972 -9.83586 0.022802 
0.0634227 0.022802 -9.80962 
-9.85071 -0.0152733 0.129468 
-0.0152733 -9.92456 0.0037726 
0.129468 0.0037726 -9.87753 
-9.97227 0.00258998 0.00913191 
0.00258998 -9.97614 0.00515938 
0.00913191 0.00515938 -9.97869 
-9.96799 -0.00165926 0.00120391 
-0.00165926 -9.97674 0.00648268 
0.00120391 0.00648268 -9.98236 
-9.96879 -0.00560935 0.00997707 
-0.00560935 -9.97145 0.00272347 
0.00997707 0.00272347 -9.98685 
-9.97305 -0.00196336 -0.00833992 
-0.00196336 -9.96926 0.0141699 
-0.00833992 0.0141699 -9.98477 
-10.0434 0.0278366 0.0135722 
0.0278366 -10.1146 0.0145317 
0.0135722 0.0145317 -10.0499 
-10.1192 0.0327552 -0.00423415 
0.0327552 -10.0278 -0.00165058 
-0.00423415 -0.00165058 -10.0609 
-10.0448 -0.0347828 0.0161612 
-0.0347828 -10.0162 -0.030856 
0.0161612 -0.030856 -10.1469 
-10.0777 0.0108213 0.0277322 
0.0108213 -10.0549 0.0083552 
0.0277322 0.0083552 -10.0753 
-9.87543 -0.00779449 -0.0128697 
-0.00779449 -9.80957 0.0871827 
-0.0128697 0.0871827 -10.0736 
-9.87412 -0.0178096 0.00297472 
-0.0178096 -9.80044 0.103063 
0.00297472 0.103063 -10.0841 
-9.877 0.0147427 -0.0141573 
0.0147427 -9.80374 0.0844219 
-0.0141573 0.0844219 -10.0779 
-9.87523 -0.0120804 -0.0161878 
-0.0120804 -9.8358 0.0710767 
-0.0161878 0.0710767 -10.0476 
-9.96378 -0.00873731 0.0189035 
-0.00873731 -9.95657 0.0202181 
0.0189035 0.0202181 -9.92669 
-9.95396 -0.0118814 0.0180106 
-0.0118814 -9.9523 0.0286447 
0.0180106 0.0286447 -9.94078 
-9.95849 -0.0121019 0.00741865 
-0.0121019 -9.93861 0.027529 
0.00741865 0.027529 -9.94994 
-9.93404 -0.0173442 0.0257396 
-0.0173442 -9.95914 0.0361442 
0.0257396 0.0361442 -9.95386 
-9.9751 -0.00254693 -0.059366 
-0.00254693 -9.96896 -0.0371198 
-0.059366 -0.0371198 -9.98275 
-9.97519 0.00475894 -0.0647368 
0.00475894 -9.97389 -0.0467488 
-0.0647368 -0.0467488 -9.97772 
-9.97776 -0.00304462 -0.0604782 
-0.00304462 -9.97097 -0.0394117 
-0.0604782 -0.0394117 -9.97807 
-9.9852 -0.00067484 -0.0600031 
-0.00067484 -9.96712 -0.043785 
-0.0600031 -0.043785 -9.97448 
-9.97926 0.00312386 -0.0366102 
0.00312386 -9.98304 0.0543601 
-0.0366102 0.0543601 -9.99489 
-9.98452 0.00140893 -0.0410342 
0.00140893 -9.98306 0.0597369 
-0.0410342 0.0597369 -9.98962 
-9.98457 -0.00259358 -0.0364177 
-0.00259358 -9.98392 0.0579597 
-0.0364177 0.0579597 -9.9887 
-9.98525 -5.83459e-05 -0.0433489 
-5.83459e-05 -9.9881 0.0629226 
-0.0433489 0.0629226 -9.98384 
-9.9422 -0.0707984 -0.045631 
-0.0707984 -9.83302 -0.11638 
-0.045631 -0.11638 -9.68146 
-9.8473 0.0326575 -0.24569 
0.0326575 -9.88536 -0.238297 
-0.24569 -0.238297 -9.72402 
-10.2206 -0.0742871 -0.0872086 
-0.0742871 -9.64054 -0.256271 
-0.0872086 -0.256271 -9.59551 
-9.92274 0.0379 -0.0112431 
0.0379 -9.91947 -0.150347 
-0.0112431 -0.150347 -9.61446 
-9.96824 -0.00376997 0.00649155 
-0.00376997 -9.95454 0.00676517 
0.00649155 0.00676517 -9.97971 
-9.96148 -0.00642028 0.000797385 
-0.00642028 -9.96181 0.00146121 
0.000797385 0.00146121 -9.97919 
-9.96416 -0.00216273 0.00588269 
-0.00216273 -9.9595 0.00312739 
0.00588269 0.00312739 -9.97882 
-9.96293 -0.000626732 0.000624162 
-0.000626732 -9.95671 0.00088534 
0.000624162 0.00088534 -9.98284 
-9.90293 -0.0183453 -0.0413741 
-0.0183453 -9.8949 -0.0140297 
-0.0413741 -0.0140297 -10.0612 
-9.89945 -0.00288164 -0.0383328 
-0.00288164 -9.93983 -0.00321136 
-0.0383328 -0.00321136 -10.0197 
-9.91905 0.00144062 -0.0396538 
0.00144062 -9.90114 -0.00836931 
-0.0396538 -0.00836931 -10.0388 
-9.89788 -0.00884754 0.00533041 
-0.00884754 -9.91744 0.00612192 
0.00533041 0.00612192 -10.0437 
-9.89942 0.00584189 0.0568341 
0.00584189 -9.94015 -0.005673 
0.0568341 -0.005673 -10.1649 
-9.95697 5.51131e-06 -0.0263392 
5.51131e-06 -9.88689 -0.00234083 
-0.0263392 -0.00234083 -10.1606 
-9.83562 -0.0386285 0.0343598 
-0.0386285 -9.96563 -0.0269005 
0.0343598 -0.0269005 -10.2032 
-9.90939 -0.0150471 0.0555824 
-0.0150471 -9.92428 -0.0147816 
0.0555824 -0.0147816 -10.1708 
-9.96105 -0.00132578 0.0748725 
-0.00132578 -9.96118 0.010375 
0.0748725 0.010375 -9.95985 
-9.9581 -0.00236212 0.0775757 
-0.00236212 -9.96389 0.0100593 
0.0775757 0.0100593 -9.96008 
-9.95849 0.000346453 0.0705507 
0.000346453 -9.95976 0.00708322 
0.0705507 0.00708322 -9.96382 
-9.95712 0.000190263 0.073074 
0.000190263 -9.96185 0.0069892 
0.073074 0.0069892 -9.9631 
-9.95189 0.00838335 -0.0620505 
0.00838335 -9.94631 -0.0496499 
-0.0620505 -0.0496499 -9.98762 
-9.96201 0.00125867 -0.0623846 
0.00125867 -9.96001 -0.0433085 
-0.0623846 -0.0433085 -9.96381 
-9.96854 -0.00984259 -0.0614448 
-0.00984259 -9.97446 -0.0472739 
-0.0614448 -0.0472739 -9.94283 
-9.95882 0.00456283 -0.0592936 
0.00456283 -9.96214 -0.0237203 
-0.0592936 -0.0237203 -9.96486 
-10.0237 -0.0251077 -0.00401767 
-0.0251077 -10.0663 0.0308042 
-0.00401767 0.0308042 -9.9979 
-10.0461 0.0651526 -0.00572112 
0.0651526 -9.96482 -0.00649732 
-0.00572112 -0.00649732 -10.0769 
-9.98023 -0.0295928 0.0335559 
-0.0295928 -10.0175 0.0461864 
0.0335559 0.0461864 -10.0901 
-10.0221 0.0381905 0.0430947 
0.0381905 -10.028 0.0246425 
0.0430947 0.0246425 -10.0378 
-9.86879 0.0312517 -0.0620781 
0.0312517 -9.9096 -0.0645586 
-0.0620781 -0.0645586 -9.91934 
-9.89075 0.0156004 -0.0972482 
0.0156004 -9.8983 -0.0499877 
-0.0972482 -0.0499877 -9.90867 
-9.90738 -0.00251535 -0.0756738 
-0.00251535 -9.90199 0.0188965 
-0.0756738 0.0188965 -9.88836 
-9.87637 0.0273712 -0.113326 
0.0273712 -9.91798 -0.0353411 
-0.113326 -0.0353411 -9.90338 
-10.3135 -0.00099017 -0.0816131 
-0.00099017 -10.4003 -0.0496932 
-0.0816131 -0.0496932 -10.0121 
-10.1021 0.0700233 0.119651 
0.0700233 -9.98473 0.101894 
0.119651 0.101894 -10.6392 
-10.3676 -0.0747073 -0.0381031 
-0.0747073 -10.197 -0.0640382 
-0.0381031 -0.0640382 -10.1613 
-10.4171 0.00059583 0.0874346 
0.00059583 -10.2699 -0.0443099 
0.0874346 -0.0443099 -10.0389 
-9.82409 -0.0393084 -0.115517 
-0.0393084 -9.91797 0.107731 
-0.115517 0.107731 -9.99878 
-9.85116 0.0102144 -0.0989272 
0.0102144 -9.89036 -0.022455 
-0.0989272 -0.022455 -9.99933 
-9.86991 0.0634844 -0.0174894 
0.0634844 -9.94414 -0.0437349 
-0.0174894 -0.0437349 -9.92679 
-9.76546 -0.0243331 -0.0887717 
-0.0243331 -9.88327 0.0313166 
-0.0887717 0.0313166 -10.0921 
-9.96896 -0.0030061 0.00904862 
-0.0030061 -9.96759 0.0114153 
0.00904862 0.0114153 -9.98315 
-9.9665 -0.00436425 0.0059027 
-0.00436425 -9.97704 -0.00148512 
0.0059027 -0.00148512 -9.97616 
-9.96942 -0.00425639 0.00827183 
-0.00425639 -9.96467 0.00797668 
0.00827183 0.00797668 -9.98561 
-9.96824 -0.00309382 0.00109744 
-0.00309382 -9.97159 0.00450151 
0.00109744 0.00450151 -9.97987 
-10.3377 -0.076236 0.0152315 
-0.076236 -10.1272 0.0373764 
0.0152315 0.0373764 -9.94206 
-9.89834 -0.0606521 -0.0200416 
-0.0606521 -10.1028 -0.0520744 
-0.0200416 -0.0520744 -10.4058 
-10.1619 -0.0273457 0.0368864 
-0.0273457 -10.1335 0.00160571 
0.0368864 0.00160571 -10.1115 
-10.1472 0.110578 0.301694 
0.110578 -10.106 -0.0229067 
0.301694 -0.0229067 -10.1538 
-9.91376 0.000895268 -0.0304318 
0.000895268 -9.85949 0.026005 
-0.0304318 0.026005 -10.0789 
-9.95087 0.0211145 -0.0258249 
0.0211145 -9.91224 0.00737626 
-0.0258249 0.00737626 -9.989 
-9.8986 0.00393492 -0.00585561 
0.00393492 -9.92941 0.0501609 
-0.00585561 0.0501609 -10.0241 
-9.91478 0.0165529 -0.00579941 
0.0165529 -9.91676 0.0331324 
-0.00579941 0.0331324 -10.0206 
-10.4273 0.646465 0.0594408 
0.646465 -9.98938 -0.217778 
0.0594408 -0.217778 -10.598 
-10.0663 -0.841628 -0.607853 
-0.841628 -10.0438 0.93913 
-0.607853 0.93913 -10.9047 
-8.28515 -1.46462 -0.0547491 
-1.46462 -11.1238 -1.90022 
-0.0547491 -1.90022 -11.6058 
-9.68169 0.0358475 -0.0143546 
0.0358475 -10.0418 0.0292911 
-0.0143546 0.0292911 -11.2913 
-10.0621 -0.00338276 4.81624e-05 
-0.00338276 -10.0808 -0.00714171 
4.81624e-05 -0.00714171 -10.1775 
-10.1394 -3.03158e-05 -0.0199506 
-3.03158e-05 -10.1412 -0.00292561 
-0.0199506 -0.00292561 -10.0399 
-10.078 -0.0115937 0.0187423 
-0.0115937 -10.0856 0.00561415 
0.0187423 0.00561415 -10.1569 
-10.0774 -0.00812358 -0.0194842 
-0.00812358 -10.1167 0.0565225 
-0.0194842 0.0565225 -10.1264 
-9.34301 0.149754 0.160788 
0.149754 -10.0106 -0.669488 
0.160788 -0.669488 -9.6599 
-10.2875 0.00497652 -0.13666 
0.00497652 -9.89865 -0.520603 
-0.13666 -0.520603 -8.82732 
-9.71044 -0.216954 0.0983182 
-0.216954 -10.0311 -0.588004 
0.0983182 -0.588004 -9.272 
-9.82433 0.227312 -0.12674 
0.227312 -9.39056 0.50427 
-0.12674 0.50427 -9.7986 
-9.85822 -0.0396383 0.0399647 
-0.0396383 -9.89004 -0.0119336 
0.0399647 -0.0119336 -9.95855 
-9.77864 -0.0499179 0.105243 
-0.0499179 -9.9293 -0.0411526 
0.105243 -0.0411526 -9.99887 
-9.91144 -0.00524835 0.136695 
-0.00524835 -9.88182 -0.0400691 
0.136695 -0.0400691 -9.91355 
-9.8589 -0.0413359 0.0945529 
-0.0413359 -9.90144 -0.0353939 
0.0945529 -0.0353939 -9.94648 
-10.0978 0.013734 -0.00351829 
0.013734 -10.0444 0.00132837 
-0.00351829 0.00132837 -10.2291 
-10.0093 -0.0200344 0.0121088 
-0.0200344 -9.93739 -0.0211222 
0.0121088 -0.0211222 -10.4246 
-10.0686 -0.0286749 0.0879495 
-0.0286749 -10.0228 -0.0605587 
0.0879495 -0.0605587 -10.2798 
-10.0928 0.0012735 -0.0275989 
0.0012735 -10.037 -0.0718783 
-0.0275989 -0.0718783 -10.2414 
-10.2901 -0.0186579 0.0465724 
-0.0186579 -10.2863 0.0569309 
0.0465724 0.0569309 -10.4176 
-10.3199 -0.00396786 0.0356725 
-0.00396786 -10.2419 0.0867916 
0.0356725 0.0867916 -10.4322 
-10.2089 -0.0473687 -0.0113737 
-0.0473687 -10.3283 0.0808623 
-0.0113737 0.0808623 -10.4568 
-10.4294 0.0582931 -0.0508169 
0.0582931 -10.2127 0.088926 
-0.0508169 0.088926 -10.3519 
-9.88212 -0.00330058 -0.0863087 
-0.00330058 -9.90382 0.00985337 
-0.0863087 0.00985337 -9.90759 
-9.89105 0.000666719 -0.0877539 
0.000666719 -9.90311 0.000940259 
-0.0877539 0.000940259 -9.89937 
-9.88799 0.00205878 -0.0898015 
0.00205878 -9.89275 0.000584539 
-0.0898015 0.000584539 -9.91278 
-9.88481 0.00100744 -0.0845089 
0.00100744 -9.90275 0.00278897 
-0.0845089 0.00278897 -9.90597 
-9.96111 -0.000140432 0.059724 
-0.000140432 -9.9649 0.0477785 
0.059724 0.0477785 -9.96948 
-9.95932 -0.00436161 0.0439262 
-0.00436161 -9.96799 0.0578593 
0.0439262 0.0578593 -9.96818 
-9.95886 -0.00163435 0.0512362 
-0.00163435 -9.96402 0.0430458 
0.0512362 0.0430458 -9.97262 
-9.95887 0.00294536 0.0395483 
0.00294536 -9.9631 0.0510945 
0.0395483 0.0510945 -9.97352 
-9.98496 0.00376758 -0.0237115 
0.00376758 -9.9928 -0.0224762 
-0.0237115 -0.0224762 -9.99904 
-9.99182 -0.0039845 -0.0201458 
-0.0039845 -9.99479 -0.0222463 
-0.0201458 -0.0222463 -9.99019 
-9.98731 -0.00187303 -0.0228655 
-0.00187303 -9.98702 -0.0247573 
-0.0228655 -0.0247573 -10.0025 
-9.99559 -0.00224641 -0.0214185 
-0.00224641 -9.99257 -0.0225852 
-0.0214185 -0.0225852 -9.98864 
-9.98026 0.000599112 0.0229868 
0.000599112 -9.9658 0.0524029 
0.0229868 0.0524029 -9.91552 
-9.95449 -0.0247583 0.028397 
-0.0247583 -9.96466 0.0307041 
0.028397 0.0307041 -9.94243 
-9.95601 -0.0268342 0.0355692 
-0.0268342 -9.93469 0.00176963 
0.0355692 0.00176963 -9.97088 
-9.99718 -0.0282563 -0.023699 
-0.0282563 -9.96009 0.00648928 
-0.023699 0.00648928 -9.90432 
-9.91065 0.0569342 -0.0812745 
0.0569342 -9.85688 -0.00569449 
-0.0812745 -0.00569449 -10.0633 
-9.91003 0.0295545 0.0108413 
0.0295545 -9.93279 -0.0628879 
0.0108413 -0.0628879 -9.98806 
-9.93303 0.00734753 -0.0339138 
0.00734753 -9.89312 -0.079293 
-0.0339138 -0.079293 -10.0047 
-9.91505 0.0461977 -0.00810867 
0.0461977 -9.90803 -0.0741873 
-0.00810867 -0.0741873 -10.0078 
-9.39276 0.0206771 1.97589 
0.0206771 -10.1503 -0.450394 
1.97589 -0.450394 -9.31661 
-10.4128 -0.244632 0.917258 
-0.244632 -9.64129 -0.40046 
0.917258 -0.40046 -8.80558 
-10.9247 -0.036868 0.725074 
-0.036868 -9.751 -0.0437711 
0.725074 -0.0437711 -8.18401 
-9.50735 -0.244713 0.380902 
-0.244713 -9.2236 -0.20042 
0.380902 -0.20042 -10.1287 
-9.98947 0.000229182 -0.00845768 
0.000229182 -9.98839 0.00670263 
-0.00845768 0.00670263 -9.99861 
-9.98859 0.00179882 -0.00840001 
0.00179882 -9.99241 0.00456599 
-0.00840001 0.00456599 -9.99547 
-9.99042 0.00253608 -0.00695407 
0.00253608 -9.98976 0.00563451 
-0.00695407 0.00563451 -9.99629 
-9.99099 0.000438992 -0.00965277 
0.000438992 -9.99296 0.00345443 
-0.00965277 0.00345443 -9.99252 
-10.1354 -0.0265936 0.00777342 
-0.0265936 -10.0882 -0.016854 
0.00777342 -0.016854 -10.0726 
-10.0913 -0.00328154 0.00605031 
-0.00328154 -10.0963 -0.00848236 
0.00605031 -0.00848236 -10.1087 
-10.0453 0.0352174 -0.0131513 
0.0352174 -10.0703 0.0117729 
-0.0131513 0.0117729 -10.1806 
-10.0412 -0.035257 0.0631722 
-0.035257 -10.1457 0.0198485 
0.0631722 0.0198485 -10.1093 
-9.96704 -0.00194232 -0.0215465 
-0.00194232 -9.96848 -0.0304383 
-0.0215465 -0.0304383 -9.97381 
-9.96791 -0.00566035 -0.0210179 
-0.00566035 -9.96722 -0.0214916 
-0.0210179 -0.0214916 -9.9742 
-9.97832 -0.012869 -0.0220058 
-0.012869 -9.97145 -0.0257659 
-0.0220058 -0.0257659 -9.95957 
-9.97617 -0.0120972 -0.0290552 
-0.0120972 -9.98454 -0.0199282 
-0.0290552 -0.0199282 -9.94862 
-9.95246 -0.0134185 -0.0500314 
-0.0134185 -9.94308 -0.0286973 
-0.0500314 -0.0286973 -9.95149 
-9.95421 -0.00188943 -0.0431719 
-0.00188943 -9.94091 -0.0397368 
-0.0431719 -0.0397368 -9.95192 
-9.96085 -0.0138594 -0.0298068 
-0.0138594 -9.93935 -0.0407233 
-0.0298068 -0.0407233 -9.94683 
-9.94023 -0.00705597 -0.0427247 
-0.00705597 -9.95259 -0.0160555 
-0.0427247 -0.0160555 -9.95421 
-9.97697 -0.00290139 0.0642084 
-0.00290139 -9.97879 -0.0292243 
0.0642084 -0.0292243 -9.96725 
-9.97654 -0.00144959 0.0687545 
-0.00144959 -9.96985 -0.0299344 
0.0687545 -0.0299344 -9.97662 
-9.97154 0.00345076 0.0645828 
0.00345076 -9.97121 -0.0311979 
0.0645828 -0.0311979 -9.98026 
-9.97635 -0.00456658 0.0694417 
-0.00456658 -9.97241 -0.0325591 
0.0694417 -0.0325591 -9.97425 
-9.949 0.00125685 -0.043566 
0.00125685 -9.94936 0.0561012 
-0.043566 0.0561012 -9.95651 
-9.94638 0.00657116 -0.0450107 
0.00657116 -9.97161 0.0519636 
-0.0450107 0.0519636 -9.93688 
-9.94822 -0.00423209 -0.0387033 
-0.00423209 -9.9485 0.0670326 
-0.0387033 0.0670326 -9.95815 
-9.94342 -9.22608e-05 -0.042427 
-9.22608e-05 -9.93748 0.0513162 
-0.042427 0.0513162 -9.97398 
-9.80267 -0.0651951 -0.0409485 
-0.0651951 -9.88919 -0.00374652 
-0.0409485 -0.00374652 -10.2208 
-9.90668 -0.0313726 -0.0094948 
-0.0313726 -9.86571 -0.0572983 
-0.0094948 -0.0572983 -10.1402 
-9.94254 -0.163278 -0.0580053 
-0.163278 -9.84589 0.0975005 
-0.0580053 0.0975005 -10.1242 
-9.83617 -0.0600773 -0.0406903 
-0.0600773 -9.84879 -0.0512246 
-0.0406903 -0.0512246 -10.2277 
-9.98972 -0.0019538 0.034077 
-0.0019538 -9.98649 0.00472539 
0.034077 0.00472539 -10.0062 
-9.99062 -0.00435586 0.0378338 
-0.00435586 -9.99363 0.00701391 
0.0378338 0.00701391 -9.99819 
-9.99797 -0.000107872 0.0389992 
-0.000107872 -9.99629 0.00303469 
0.0389992 0.00303469 -9.98818 
-9.99822 0.00243745 0.0377626 
0.00243745 -9.99744 0.00617672 
0.0377626 0.00617672 -9.98678 
-9.91647 0.0129438 0.0512248 
0.0129438 -9.92108 -0.0520513 
0.0512248 -0.0520513 -9.94923 
-9.90496 -0.0111384 0.0692643 
-0.0111384 -9.92522 -0.059489 
0.0692643 -0.059489 -9.95661 
-9.9186 0.0141442 0.0569521 
0.0141442 -9.91948 -0.0568964 
0.0569521 -0.0568964 -9.9487 
-9.9123 0.0197291 0.0602865 
0.0197291 -9.93669 -0.0506933 
0.0602865 -0.0506933 -9.93779 
-9.94417 -0.00956809 0.0761791 
-0.00956809 -9.9518 -0.0226335 
0.0761791 -0.0226335 -9.96394 
-9.95927 0.00516241 0.0795612 
0.00516241 -9.95547 -0.0189497 
0.0795612 -0.0189497 -9.94517 
-9.95515 -0.000437967 0.0760676 
-0.000437967 -9.95182 -0.0217823 
0.0760676 -0.0217823 -9.95295 
-9.95512 0.00193158 0.070709 
0.00193158 -9.94806 -0.0113693 
0.070709 -0.0113693 -9.95673 
-9.84461 0.0857137 0.0486083 
0.0857137 -9.92794 0.0865835 
0.0486083 0.0865835 -10.1029 
-9.94447 0.0894735 0.15162 
0.0894735 -9.94731 0.00413686 
0.15162 0.00413686 -9.98369 
-9.62832 0.118817 0.279954 
0.118817 -10.1943 0.197364 
0.279954 0.197364 -10.0529 
-10.023 0.111091 0.162635 
0.111091 -9.84509 0.0766228 
0.162635 0.0766228 -10.0074 
-9.94545 -0.0235652 -0.00352023 
-0.0235652 -9.98733 -0.0143227 
-0.00352023 -0.0143227 -10.0237 
-9.96887 -0.0363865 -0.0132918 
-0.0363865 -9.98182 -0.00327001 
-0.0132918 -0.00327001 -10.0058 
-10.0042 -0.0285007 -0.0141747 
-0.0285007 -9.97142 0.0493038 
-0.0141747 0.0493038 -9.98086 
-9.96922 -0.000192651 -0.0282783 
-0.000192651 -10.0006 0.0112533 
-0.0282783 0.0112533 -9.98664 
-9.99274 0.000110147 -0.0557905 
0.000110147 -9.98795 -0.0342916 
-0.0557905 -0.0342916 -9.99959 
-9.99389 -0.000481143 -0.0535336 
-0.000481143 -9.99113 -0.0354053 
-0.0535336 -0.0354053 -9.99525 
-9.99345 -0.0013969 -0.0546737 
-0.0013969 -9.99154 -0.0338822 
-0.0546737 -0.0338822 -9.99528 
-9.99544 -0.000517214 -0.0529948 
-0.000517214 -9.99272 -0.0362228 
-0.0529948 -0.0362228 -9.99211 
-9.90363 -0.005301 0.0713428 
-0.005301 -9.87296 -0.00259678 
0.0713428 -0.00259678 -10.1242 
-9.89607 -0.0166628 0.0821912 
-0.0166628 -9.97127 0.00622641 
0.0821912 0.00622641 -10.0335 
-9.83565 -0.00864685 0.0430945 
-0.00864685 -9.90885 0.0433093 
0.0430945 0.0433093 -10.1563 
-9.81217 0.0140878 0.0845535 
0.0140878 -9.90023 -0.020411 
0.0845535 -0.020411 -10.1884 
-10.6664 -0.100152 -0.00036445 
-0.100152 -10.2855 -0.15283 
-0.00036445 -0.15283 -11.066 
-11.3562 -0.0426963 0.0998061 
-0.0426963 -10.4407 -0.0989076 
0.0998061 -0.0989076 -10.221 
-10.646 -0.194615 0.128636 
-0.194615 -10.2951 -0.297127 
0.128636 -0.297127 -11.0768 
-10.7599 -0.102479 0.423944 
-0.102479 -10.3352 0.00530995 
0.423944 0.00530995 -10.9228 
-9.95726 -0.0182478 -0.0566879 
-0.0182478 -9.93452 -0.000678476 
-0.0566879 -0.000678476 -9.94436 
-9.96476 0.00256628 -0.0531436 
0.00256628 -9.92155 0.0172664 
-0.0531436 0.0172664 -9.94983 
-9.95899 -0.0230264 -0.0608706 
-0.0230264 -9.93794 0.0139607 
-0.0608706 0.0139607 -9.93921 
-9.95271 -0.0286518 -0.0490955 
-0.0286518 -9.95523 0.0231562 
-0.0490955 0.0231562 -9.9282 
-9.88292 -0.125164 0.135653 
-0.125164 -10.0273 0.0657518 
0.135653 0.0657518 -10.3518 
-10.0144 0.0137845 -0.0933997 
0.0137845 -10.1509 -0.153728 
-0.0933997 -0.153728 -10.0968 
-9.86336 -0.0937227 0.0397374 
-0.0937227 -10.0566 0.0906516 
0.0397374 0.0906516 -10.3421 
-9.61641 -0.126922 -0.0349365 
-0.126922 -10.2071 0.106253 
-0.0349365 0.106253 -10.4386 
-9.59518 -0.104503 0.175766 
-0.104503 -9.98634 0.243804 
0.175766 0.243804 -8.78062 
-9.62682 -0.01558 0.0819852 
-0.01558 -9.99228 0.22765 
0.0819852 0.22765 -8.74304 
-9.56221 -0.0903168 0.162669 
-0.0903168 -9.97896 0.260938 
0.162669 0.260938 -8.82098 
-9.57772 0.0102406 0.15583 
0.0102406 -10.0519 0.259584 
0.15583 0.259584 -8.7325 
-10.039 -0.0796231 -0.181477 
-0.0796231 -9.80295 0.128012 
-0.181477 0.128012 -9.81355 
-9.91259 0.0356312 -0.0835744 
0.0356312 -9.92331 0.125646 
-0.0835744 0.125646 -9.81956 
-9.90824 -0.0210067 -0.111851 
-0.0210067 -9.88587 0.109123 
-0.111851 0.109123 -9.86135 
-9.8485 -0.0218404 -0.102961 
-0.0218404 -9.93736 0.0754774 
-0.102961 0.0754774 -9.86959 
-9.87276 0.0255504 0.0979549 
0.0255504 -9.90663 -0.0240552 
0.0979549 -0.0240552 -9.87278 
-9.9508 0.0417186 0.0592643 
0.0417186 -9.84919 -0.0116382 
0.0592643 -0.0116382 -9.85218 
-9.93686 0.0235461 0.131358 
0.0235461 -9.95166 0.0684427 
0.131358 0.0684427 -9.76365 
-9.99484 0.00631538 0.101616 
0.00631538 -9.81206 0.0248329 
0.101616 0.0248329 -9.84527 
-9.98101 0.000825351 -0.0545645 
0.000825351 -9.97808 0.0312233 
-0.0545645 0.0312233 -9.98115 
-9.98144 0.000519805 -0.0552742 
0.000519805 -9.98014 0.0314634 
-0.0552742 0.0314634 -9.97866 
-9.97828 -0.00115073 -0.0529325 
-0.00115073 -9.97923 0.0295609 
-0.0529325 0.0295609 -9.98274 
-9.98221 -0.00156001 -0.0543045 
-0.00156001 -9.97998 0.0347036 
-0.0543045 0.0347036 -9.97805 
-9.85669 -0.0365093 -0.0314637 
-0.0365093 -9.89844 0.0206841 
-0.0314637 0.0206841 -9.93947 
-9.89732 -0.028614 0.00126171 
-0.028614 -9.84254 0.0559399 
0.00126171 0.0559399 -9.95474 
-9.83408 -0.0556676 -0.0453542 
-0.0556676 -9.88773 0.055618 
-0.0453542 0.055618 -9.97278 
-9.87315 -0.0197594 -0.0816284 
-0.0197594 -9.90847 -0.00274679 
-0.0816284 -0.00274679 -9.91298 
-9.85905 0.0190692 -0.134374 
0.0190692 -9.98591 -0.0932392 
-0.134374 -0.0932392 -9.97468 
-9.85489 -0.0271434 -0.111604 
-0.0271434 -9.95049 -0.0668549 
-0.111604 -0.0668549 -10.0143 
-9.91985 0.0113618 -0.0560276 
0.0113618 -9.89161 -0.0735313 
-0.0560276 -0.0735313 -10.0082 
-9.86472 0.00438167 -0.0776597 
0.00438167 -9.92585 -0.0316942 
-0.0776597 -0.0316942 -10.0291 
-10.146 -0.194316 -0.437383 
-0.194316 -10.9042 0.0216248 
-0.437383 0.0216248 -12.3966 
-10.6975 -0.155063 -0.1843 
-0.155063 -11.424 0.12887 
-0.1843 0.12887 -11.3253 
-10.1249 -0.213339 -0.121703 
-0.213339 -11.0167 -0.26684 
-0.121703 -0.26684 -12.3052 
-10.6249 -0.21429 -0.114239 
-0.21429 -11.3293 0.327795 
-0.114239 0.327795 -11.4926 
-9.84706 0.0666005 0.0679476 
0.0666005 -9.89496 -0.0237581 
0.0679476 -0.0237581 -10.093 
-9.86677 0.0942618 0.0725621 
0.0942618 -9.88761 -0.00635201 
0.0725621 -0.00635201 -10.0807 
-9.88418 0.0147012 0.0686795 
0.0147012 -9.84627 0.00635379 
0.0686795 0.00635379 -10.1046 
-9.8094 0.0467802 0.0832694 
0.0467802 -9.92648 -0.016791 
0.0832694 -0.016791 -10.0992 
-9.97917 0.000687217 0.011574 
0.000687217 -9.98468 -0.00130407 
0.011574 -0.00130407 -9.99584 
-9.98464 0.00420397 0.0100673 
0.00420397 -9.98341 -0.00322372 
0.0100673 -0.00322372 -9.99164 
-9.98553 0.00295617 0.00776867 
0.00295617 -9.98165 -0.0062698 
0.00776867 -0.0062698 -9.9925 
-9.98054 0.00494753 0.00233406 
0.00494753 -9.98824 -0.00654288 
0.00233406 -0.00654288 -9.9909 
-9.98354 -0.00761095 -0.00739971 
-0.00761095 -9.97717 0.0211584 
-0.00739971 0.0211584 -10.0042 
-9.98758 0.00701169 -0.0129391 
0.00701169 -9.98454 0.0133647 
-0.0129391 0.0133647 -9.99276 
-9.9879 0.00362195 -0.0117134 
0.00362195 -9.98399 0.0138397 
-0.0117134 0.0138397 -9.993 
-9.9918 -0.00185269 -0.0108692 
-0.00185269 -9.98976 0.00521599 
-0.0108692 0.00521599 -9.98332 
-9.80668 0.170919 0.0378185 
0.170919 -9.7514 0.0975065 
0.0378185 0.0975065 -10.2902 
-9.89953 0.0840307 0.0222671 
0.0840307 -9.82496 0.0911829 
0.0222671 0.0911829 -10.1237 
-9.9253 0.054028 0.0517762 
0.054028 -9.86921 0.118127 
0.0517762 0.118127 -10.0537 
-9.93123 0.0650271 -0.0446008 
0.0650271 -9.88099 0.0712484 
-0.0446008 0.0712484 -10.036 
-9.88173 -0.0202012 -0.0430102 
-0.0202012 -9.89668 0.0680589 
-0.0430102 0.0680589 -9.92463 
-9.88639 -0.0162078 -0.0445061 
-0.0162078 -9.90296 0.0753135 
-0.0445061 0.0753135 -9.91369 
-9.90974 -0.0104026 -0.0301065 
-0.0104026 -9.89592 0.0739681 
-0.0301065 0.0739681 -9.89737 
-9.89783 -0.0242204 -0.0507479 
-0.0242204 -9.8995 0.0851898 
-0.0507479 0.0851898 -9.90571 
-9.86903 0.0339115 -0.0141475 
0.0339115 -9.86369 0.11338 
-0.0141475 0.11338 -9.9005 
-9.90704 0.012833 -0.00367476 
0.012833 -9.82609 0.0964652 
-0.00367476 0.0964652 -9.90009 
-9.85468 -0.0335349 0.0129816 
-0.0335349 -9.83609 0.0988492 
0.0129816 0.0988492 -9.94246 
-9.85697 0.0243471 0.0116963 
0.0243471 -9.83658 0.104761 
0.0116963 0.104761 -9.93967 
-9.83006 0.139622 -0.00969611 
0.139622 -9.93555 0.0412253 
-0.00969611 0.0412253 -10.0887 
-9.922 0.137148 0.0692847 
0.137148 -9.99231 0.0794225 
0.0692847 0.0794225 -9.94003 
-9.84094 0.167856 0.0489985 
0.167856 -9.88693 0.017407 
0.0489985 0.017407 -10.1265 
-10.0167 0.0174693 0.113068 
0.0174693 -9.88985 0.12203 
0.113068 0.12203 -9.94783 
-9.9229 -0.00849179 -0.0422938 
-0.00849179 -9.92455 -0.0206445 
-0.0422938 -0.0206445 -9.92526 
-9.90424 -0.013869 -0.0466948 
-0.013869 -9.91318 -0.0685009 
-0.0466948 -0.0685009 -9.95529 
-9.93078 -0.0213371 -0.067694 
-0.0213371 -9.90538 -0.037463 
-0.067694 -0.037463 -9.93655 
-9.90795 -0.0458875 -0.027624 
-0.0458875 -9.92068 -0.0537866 
-0.027624 -0.0537866 -9.94408 
-9.86139 -0.170001 0.0151347 
-0.170001 -9.83374 -0.0605274 
0.0151347 -0.0605274 -10.2801 
-9.92909 -0.180901 0.0270373 
-0.180901 -9.91935 -0.114108 
0.0270373 -0.114108 -10.1268 
-9.88695 -0.266061 0.085945 
-0.266061 -9.95768 0.0490512 
0.085945 0.0490512 -10.1306 
-10.0248 -0.140918 -0.149653 
-0.140918 -10.0692 -0.429714 
-0.149653 -0.429714 -9.88129 
-9.8052 -0.0281988 -0.218181 
-0.0281988 -9.91741 0.0524157 
-0.218181 0.0524157 -9.82277 
-9.54118 -0.0143181 -0.387197 
-0.0143181 -9.8217 -0.0477502 
-0.387197 -0.0477502 -10.1825 
-9.80792 0.0848107 -0.548274 
0.0848107 -10.1955 0.0466063 
-0.548274 0.0466063 -9.54191 
-9.51585 -0.0654647 -0.367303 
-0.0654647 -10.0633 0.052431 
-0.367303 0.052431 -9.96621 
-9.68277 -0.0491077 0.0445486 
-0.0491077 -9.98048 0.13514 
0.0445486 0.13514 -10.1415 
-9.95062 -0.0515717 -0.0309214 
-0.0515717 -9.8177 0.11866 
-0.0309214 0.11866 -10.0364 
-9.81544 -0.0442086 0.135005 
-0.0442086 -10.0713 0.00513297 
0.135005 0.00513297 -9.91801 
-9.90853 0.0443479 0.104941 
0.0443479 -9.87167 -0.0105638 
0.104941 -0.0105638 -10.0246 
-10.0885 0.0826937 -0.0220065 
0.0826937 -10.1429 -0.00676171 
-0.0220065 -0.00676171 -9.93036 
-10.0226 -0.047558 0.0918189 
-0.047558 -9.95477 -0.0538449 
0.0918189 -0.0538449 -10.1844 
-10.037 -0.0028827 0.00923847 
-0.0028827 -10.0865 0.0191822 
0.00923847 0.0191822 -10.0383 
-9.97692 -0.0103265 -0.00162352 
-0.0103265 -10.2269 0.109018 
-0.00162352 0.109018 -9.95796 
-9.97937 0.00202409 -0.0244504 
0.00202409 -9.9692 -0.079684 
-0.0244504 -0.079684 -9.96366 
-9.96726 0.000119034 -0.0236743 
0.000119034 -9.97481 -0.0797278 
-0.0236743 -0.0797278 -9.97016 
-9.95479 -0.00872427 -0.0279625 
-0.00872427 -9.96708 -0.0620143 
-0.0279625 -0.0620143 -9.99036 
-9.98261 -0.00170706 -0.0218506 
-0.00170706 -9.98787 -0.0728528 
-0.0218506 -0.0728528 -9.94174 
-9.93226 0.0304733 0.0401957 
0.0304733 -9.88172 -0.022176 
0.0401957 -0.022176 -10.1062 
-9.91149 0.0652778 0.0588279 
0.0652778 -9.90046 -0.060572 
0.0588279 -0.060572 -10.1083 
-9.88182 0.0656372 0.0532922 
0.0656372 -9.87016 -0.0486398 
0.0532922 -0.0486398 -10.1682 
-9.94147 0.065909 0.0413105 
0.065909 -9.83578 -0.0497668 
0.0413105 -0.0497668 -10.143 
-9.81886 -0.140717 -0.341585 
-0.140717 -10.3073 0.173207 
-0.341585 0.173207 -11.6952 
-9.76061 0.895443 -0.372009 
0.895443 -10.1627 -0.125152 
-0.372009 -0.125152 -11.8982 
-11.5711 0.742924 0.433943 
0.742924 -9.90933 -0.351336 
0.433943 -0.351336 -10.341 
-10.7514 1.15812 -0.402487 
1.15812 -10.7744 -0.0908593 
-0.402487 -0.0908593 -10.2956 
-9.84791 0.00282629 -0.0833527 
0.00282629 -9.93262 -0.0218384 
-0.0833527 -0.0218384 -9.52986 
-9.8194 0.0716945 -0.115758 
0.0716945 -9.87522 0.00266058 
-0.115758 0.00266058 -9.61576 
-9.84481 -0.0170589 -0.0654387 
-0.0170589 -9.89832 0.0351091 
-0.0654387 0.0351091 -9.56725 
-9.79625 -0.0168433 -0.105486 
-0.0168433 -9.9917 -0.0384117 
-0.105486 -0.0384117 -9.52243 
-9.9419 -0.00622364 0.0671377 
-0.00622364 -9.94448 -0.0364002 
0.0671377 -0.0364002 -9.95721 
-9.94839 -0.00310794 0.0675099 
-0.00310794 -9.94824 -0.0343119 
0.0675099 -0.0343119 -9.94695 
-9.95348 0.00232093 0.0690388 
0.00232093 -9.94361 -0.0354442 
0.0690388 -0.0354442 -9.9465 
-9.94535 0.00306206 0.0646395 
0.00306206 -9.94827 -0.0319395 
0.0646395 -0.0319395 -9.94997 
-9.86663 0.135368 -0.0204014 
0.135368 -9.90685 0.0354229 
-0.0204014 0.0354229 -9.9518 
-9.78767 0.128933 0.0101229 
0.128933 -9.83833 0.0730212 
0.0101229 0.0730212 -10.0993 
-9.91833 0.113564 -0.0119226 
0.113564 -9.83548 0.0676095 
-0.0119226 0.0676095 -9.97148 
-9.96399 0.207277 -0.0180851 
0.207277 -9.93046 0.123136 
-0.0180851 0.123136 -9.83084 
-9.97751 0.0230008 -0.000883392 
0.0230008 -9.9575 -0.0350182 
-0.000883392 -0.0350182 -9.90197 
-9.96779 0.0168119 -0.0209889 
0.0168119 -9.9577 -0.0349499 
-0.0209889 -0.0349499 -9.91149 
-9.94996 0.027513 0.0122958 
0.027513 -9.94658 -0.0324549 
0.0122958 -0.0324549 -9.94044 
-9.96204 0.0327775 7.98306e-05 
0.0327775 -9.94832 -0.0192752 
7.98306e-05 -0.0192752 -9.92662 
-9.9085 -0.00213463 -0.0119064 
-0.00213463 -9.87926 -0.0221113 
-0.0119064 -0.0221113 -9.9884 
-9.92331 0.0287142 -0.0163965 
0.0287142 -9.89039 -0.013694 
-0.0163965 -0.013694 -9.96247 
-9.87024 0.0221471 -0.0144528 
0.0221471 -9.846 -0.0584014 
-0.0144528 -0.0584014 -10.0599 
-9.93537 0.0204878 -0.0777826 
0.0204878 -9.92357 -0.038102 
-0.0777826 -0.038102 -9.91722 
-7.05385 -3.05607 -0.267631 
-3.05607 -5.29052 -2.23205 
-0.267631 -2.23205 -16.2742 
-7.7315 -2.15586 0.66069 
-2.15586 -3.27594 -1.97573 
0.66069 -1.97573 -17.6112 
-14.3663 -0.819622 -0.560029 
-0.819622 -10.757 3.50902 
-0.560029 3.50902 -3.49532 
-8.28387 1.49065 3.0771 
1.49065 -13.5182 -4.81398 
3.0771 -4.81398 -6.81657 
-9.55438 -0.326281 -0.269296 
-0.326281 -10.2314 0.0119798 
-0.269296 0.0119798 -10.3471 
-10.1687 0.343545 -0.437549 
0.343545 -10.0563 0.011434 
-0.437549 0.011434 -9.90783 
-9.57672 -0.260863 -0.302532 
-0.260863 -10.163 -0.0301992 
-0.302532 -0.0301992 -10.3932 
-9.57563 -0.214987 -0.256837 
-0.214987 -10.149 -0.0126775 
-0.256837 -0.0126775 -10.4083 
-9.91976 0.0155864 -0.0203403 
0.0155864 -9.91949 0.0197625 
-0.0203403 0.0197625 -10.0226 
-9.91342 0.0499368 -0.0129008 
0.0499368 -9.91153 0.0288891 
-0.0129008 0.0288891 -10.0369 
-9.9242 0.00933529 -0.00976716 
0.00933529 -9.92582 0.0366122 
-0.00976716 0.0366122 -10.0118 
-9.93553 0.0329921 -0.0184646 
0.0329921 -9.91774 0.0060182 
-0.0184646 0.0060182 -10.0086 
-9.98469 -0.00625679 -0.013865 
-0.00625679 -9.97895 0.0151557 
-0.013865 0.0151557 -10.0007 
-9.99081 -0.00463725 0.0020701 
-0.00463725 -9.99491 -0.0060958 
0.0020701 -0.0060958 -9.97859 
-9.96829 -0.00706444 -0.00246279 
-0.00706444 -9.98425 0.00282021 
-0.00246279 0.00282021 -10.0118 
-9.97193 -0.0045629 -0.00335165 
-0.0045629 -9.97741 0.000493943 
-0.00335165 0.000493943 -10.015 
-9.96776 0.00482891 0.0282499 
0.00482891 -9.96591 -0.0174622 
0.0282499 -0.0174622 -9.97277 
-9.96556 0.0107753 0.0277442 
0.0107753 -9.96961 -0.0206702 
0.0277442 -0.0206702 -9.97128 
-9.97061 0.00757473 0.0259988 
0.00757473 -9.96821 -0.0171559 
0.0259988 -0.0171559 -9.96763 
-9.97657 0.00677608 0.0227811 
0.00677608 -9.96439 -0.0220611 
0.0227811 -0.0220611 -9.96549 
-9.9724 -0.133073 0.0368463 
-0.133073 -9.78915 -0.248963 
0.0368463 -0.248963 -10.1602 
-10.0156 -0.140167 -0.0046417 
-0.140167 -9.59484 -0.26898 
-0.0046417 -0.26898 -10.3114 
-9.99846 -0.122142 -0.0577402 
-0.122142 -9.8989 -0.385185 
-0.0577402 -0.385185 -10.0244 
-9.87887 -0.0597105 -0.00125762 
-0.0597105 -10.0879 -0.0228247 
-0.00125762 -0.0228247 -9.95498 
-9.79665 0.172704 0.213093 
0.172704 -9.92664 0.049942 
0.213093 0.049942 -9.89535 
-9.75509 0.130911 0.25728 
0.130911 -9.84284 0.0442225 
0.25728 0.0442225 -10.0207 
-9.91776 0.163493 0.347225 
0.163493 -9.75059 0.171927 
0.347225 0.171927 -9.95029 
-9.74004 0.143885 0.245272 
0.143885 -9.93234 0.0442267 
0.245272 0.0442267 -9.94625 
-9.96142 -0.00949849 0.0568082 
-0.00949849 -9.94924 0.0440643 
0.0568082 0.0440643 -9.94486 
-9.94444 -0.00851954 0.0345591 
-0.00851954 -9.96179 0.0489959 
0.0345591 0.0489959 -9.94929 
-9.9482 -0.00284833 0.0403469 
-0.00284833 -9.94892 0.0398141 
0.0403469 0.0398141 -9.95841 
-9.94707 -0.00613461 0.0436406 
-0.00613461 -9.94308 0.0328693 
0.0436406 0.0328693 -9.96537 
-9.92722 -0.15115 -0.0166971 
-0.15115 -9.90953 -0.0225302 
-0.0166971 -0.0225302 -10.0398 
-9.94994 -0.1041 -0.114841 
-0.1041 -9.87593 -0.00216636 
-0.114841 -0.00216636 -10.0507 
-9.9337 0.0349754 -0.104555 
0.0349754 -9.94114 -0.0414303 
-0.104555 -0.0414303 -10.0017 
-9.97742 -0.14825 -0.128838 
-0.14825 -10.0583 -0.0983336 
-0.128838 -0.0983336 -9.84081 
-9.90093 0.0557365 0.0149886 
0.0557365 -9.93429 -0.0377243 
0.0149886 -0.0377243 -9.81666 
-9.89003 0.0145552 0.0566281 
0.0145552 -9.92627 -0.0939083 
0.0566281 -0.0939083 -9.83558 
-9.97389 -0.0226472 0.0666082 
-0.0226472 -9.81989 -0.000972583 
0.0666082 -0.000972583 -9.85811 
-9.97776 0.00769558 0.0116528 
0.00769558 -9.91059 -0.0292514 
0.0116528 -0.0292514 -9.76354 
-10.3573 -0.034514 0.085427 
-0.034514 -10.1126 0.0786453 
0.085427 0.0786453 -10.7454 
-10.4942 0.0704565 0.00995407 
0.0704565 -10.4637 -0.0309246 
0.00995407 -0.0309246 -10.2575 
-10.4584 0.18407 -0.0174876 
0.18407 -10.5835 -0.10144 
-0.0174876 -0.10144 -10.1735 
-10.2591 -0.0334564 -0.0946828 
-0.0334564 -10.7037 0.152343 
-0.0946828 0.152343 -10.2525 
-10.1887 0.0244875 -0.0537094 
0.0244875 -9.47815 0.0701116 
-0.0537094 0.0701116 -10.4382 
-10.2709 -0.0667356 -0.0094892 
-0.0667356 -9.41499 0.0409856 
-0.0094892 0.0409856 -10.4192 
-9.96963 -0.0559129 -0.0126893 
-0.0559129 -10.0409 0.407671 
-0.0126893 0.407671 -10.0946 
-10.3084 0.210731 0.180848 
0.210731 -9.60659 0.0760357 
0.180848 0.0760357 -10.1901 
-9.86642 0.0220672 0.0307079 
0.0220672 -9.8874 -0.0268769 
0.0307079 -0.0268769 -10.1165 
-9.91819 -0.00949084 0.00118239 
-0.00949084 -9.86315 -0.0379392 
0.00118239 -0.0379392 -10.089 
-9.92861 0.026079 0.0271227 
0.026079 -9.88829 -0.0716193 
0.0271227 -0.0716193 -10.0535 
-9.87544 0.0501361 0.0373996 
0.0501361 -9.81023 -0.133746 
0.0373996 -0.133746 -10.1847 
-9.9035 0.0473938 0.0231633 
0.0473938 -9.88336 0.00211496 
0.0231633 0.00211496 -9.94355 
-9.89652 0.0224915 0.017401 
0.0224915 -9.89881 -0.0178218 
0.017401 -0.0178218 -9.93507 
-9.89779 0.0443307 0.000130832 
0.0443307 -9.88723 -0.00174378 
0.000130832 -0.00174378 -9.94539 
-9.89867 0.0840527 -0.00372445 
0.0840527 -9.89043 -0.0216729 
-0.00372445 -0.0216729 -9.9413 
-9.87822 0.00659138 -0.0718309 
0.00659138 -9.88303 -0.0342816 
-0.0718309 -0.0342816 -9.9321 
-9.89854 0.00663619 -0.0643899 
0.00663619 -9.87328 -0.0352196 
-0.0643899 -0.0352196 -9.92153 
-9.90294 0.0228411 -0.0617853 
0.0228411 -9.89057 -0.0587539 
-0.0617853 -0.0587539 -9.89983 
-9.88678 0.00669848 -0.0482444 
0.00669848 -9.888 -0.0553095 
-0.0482444 -0.0553095 -9.91857 
-10.405 -0.459321 1.72827 
-0.459321 -9.24601 0.138172 
1.72827 0.138172 -8.9567 
-10.5241 -0.0669365 0.601221 
-0.0669365 -9.86792 -0.512595 
0.601221 -0.512595 -8.21571 
-8.81791 0.432012 0.435155 
0.432012 -9.59027 -0.0325089 
0.435155 -0.0325089 -10.1996 
-9.28925 -0.0213308 0.396815 
-0.0213308 -9.78207 0.443633 
0.396815 0.443633 -9.53642 
-10.1884 -0.00879745 0.0447144 
-0.00879745 -10.2455 0.0112376 
0.0447144 0.0112376 -10.2311 
-10.1773 0.0437033 0.0348696 
0.0437033 -10.1785 -0.00662188 
0.0348696 -0.00662188 -10.3092 
-10.2457 0.0115776 0.00408921 
0.0115776 -10.2815 -0.00390437 
0.00408921 -0.00390437 -10.1378 
-10.2224 0.00644447 0.092301 
0.00644447 -10.2379 0.0294228 
0.092301 0.0294228 -10.2046 
-9.91898 0.0125047 -0.0331948 
0.0125047 -9.86984 -0.101841 
-0.0331948 -0.101841 -9.92424 
-9.89648 0.00227808 -0.0233362 
0.00227808 -9.91934 -0.0799141 
-0.0233362 -0.0799141 -9.89724 
-9.90168 0.00871129 -0.0222678 
0.00871129 -9.92705 -0.0821138 
-0.0222678 -0.0821138 -9.88433 
-9.90014 0.0178232 -0.0393041 
0.0178232 -9.89088 -0.0649247 
-0.0393041 -0.0649247 -9.92205 
-9.99192 0.00214888 -0.00372295 
0.00214888 -9.99222 0.0548959 
-0.00372295 0.0548959 -9.99802 
-9.99254 0.000876228 -0.0017427 
0.000876228 -9.99549 0.0548186 
-0.0017427 0.0548186 -9.99413 
-9.99205 -0.000262539 -0.00177401 
-0.000262539 -9.99066 0.0573927 
-0.00177401 0.0573927 -9.99944 
-9.99457 0.00196626 -0.000669143 
0.00196626 -9.99594 0.0541213 
-0.000669143 0.0541213 -9.99165 
-9.99848 0.235835 0.0644762 
0.235835 -9.97594 0.0648153 
0.0644762 0.0648153 -10.1646 
-9.96038 0.199257 0.0811833 
0.199257 -9.96148 0.0767991 
0.0811833 0.0767991 -10.2171 
-9.97296 0.135577 0.0296485 
0.135577 -9.96239 -0.0228893 
0.0296485 -0.0228893 -10.2037 
-10.0075 -0.161401 0.287536 
-0.161401 -10.0359 0.320432 
0.287536 0.320432 -10.0956 
-5.78974 1.17218 1.57963 
1.17218 -7.00806 0.518533 
1.57963 0.518533 -0.128729 
-4.8658 -2.24039 1.93603 
-2.24039 -9.50826 1.21596 
1.93603 1.21596 1.44753 
-1.92319 -0.0767322 0.469302 
-0.0767322 -8.09492 0.149873 
0.469302 0.149873 -2.90842 
-3.59586 -1.12494 0.102382 
-1.12494 -7.46677 1.06835 
0.102382 1.06835 -1.8639 
-9.91522 0.00170724 -0.0486903 
0.00170724 -9.92104 -0.0489821 
-0.0486903 -0.0489821 -9.95049 
-9.91994 -0.00220678 -0.0579528 
-0.00220678 -9.92214 -0.0454369 
-0.0579528 -0.0454369 -9.94467 
-9.91867 0.00364538 -0.0442907 
0.00364538 -9.91921 -0.0463522 
-0.0442907 -0.0463522 -9.94887 
-9.90762 0.00233185 -0.0466398 
0.00233185 -9.92371 -0.0561267 
-0.0466398 -0.0561267 -9.95542 
-9.89236 -0.00342837 0.10333 
-0.00342837 -9.93529 -0.0349517 
0.10333 -0.0349517 -9.86003 
-9.86713 -0.0161933 0.123062 
-0.0161933 -9.94612 -0.0288489 
0.123062 -0.0288489 -9.87444 
-9.9076 -0.0283002 0.0844156 
-0.0283002 -9.91896 -0.0471858 
0.0844156 -0.0471858 -9.86112 
-9.91126 -0.00922918 0.13056 
-0.00922918 -9.92354 -0.0521663 
0.13056 -0.0521663 -9.85288 
-9.87748 -0.0469065 0.028227 
-0.0469065 -9.88487 -0.0022964 
0.028227 -0.0022964 -9.97113 
-9.85571 -0.0318458 0.0502323 
-0.0318458 -9.88523 0.0140882 
0.0502323 0.0140882 -9.99254 
-9.86668 -0.0305572 0.0581112 
-0.0305572 -9.89222 -0.0152863 
0.0581112 -0.0152863 -9.97458 
-9.8649 -0.0197686 0.0381784 
-0.0197686 -9.88301 0.0156673 
0.0381784 0.0156673 -9.98558 
-9.94127 -0.0225857 0.0620187 
-0.0225857 -9.79789 -0.148424 
0.0620187 -0.148424 -9.8939 
-9.88693 -0.0281167 0.0629934 
-0.0281167 -9.89212 -0.0900147 
0.0629934 -0.0900147 -9.85401 
-9.88772 2.63958e-05 0.0461579 
2.63958e-05 -9.80928 -0.117817 
0.0461579 -0.117817 -9.93606 
-9.89788 0.048125 0.0425312 
0.048125 -9.7937 -0.121908 
0.0425312 -0.121908 -9.94149 
-7.32651 0.716594 -0.37986 
0.716594 -8.67071 0.60907 
-0.37986 0.60907 -0.0459898 
-1.9869 -1.26734 -0.292241 
-1.26734 -4.57369 -0.39471 
-0.292241 -0.39471 -9.48262 
-7.62357 2.56269 2.03324 
2.56269 -12.283 0.885761 
2.03324 0.885761 3.86339 
-8.34971 1.2743 -3.86108 
1.2743 -4.97088 7.39881 
-3.86108 7.39881 -2.72262 
-9.93267 -0.0166947 0.0267888 
-0.0166947 -9.84837 -0.0503677 
0.0267888 -0.0503677 -10.1973 
-9.92951 -0.0137953 0.0350088 
-0.0137953 -9.82231 -0.0325661 
0.0350088 -0.0325661 -10.2265 
-9.9059 -0.0267197 0.0388191 
-0.0267197 -9.81321 -0.0921561 
0.0388191 -0.0921561 -10.2592 
-9.92122 -0.0333447 0.0288429 
-0.0333447 -9.83474 -0.058188 
0.0288429 -0.058188 -10.2223 
-9.95564 0.00465973 -0.0202253 
0.00465973 -9.94626 -0.0832956 
-0.0202253 -0.0832956 -9.95333 
-9.93994 0.00875944 -0.0112141 
0.00875944 -9.99953 -0.0795611 
-0.0112141 -0.0795611 -9.91577 
-9.95103 -0.00235262 -0.0242441 
-0.00235262 -9.92539 -0.0917369 
-0.0242441 -0.0917369 -9.97881 
-9.9634 0.00378422 -0.0403985 
0.00378422 -9.93828 -0.0560091 
-0.0403985 -0.0560091 -9.95355 
-9.92129 -0.0722249 0.0261099 
-0.0722249 -9.84489 -0.0399681 
0.0261099 -0.0399681 -9.93556 
-9.82766 0.0165428 0.0217909 
0.0165428 -9.86461 -0.0400915 
0.0217909 -0.0400915 -10.0095 
-9.89489 -0.0424861 0.0328898 
-0.0424861 -9.95376 -0.0912769 
0.0328898 -0.0912769 -9.85309 
-9.80098 -0.041466 0.0955091 
-0.041466 -9.86739 -0.104088 
0.0955091 -0.104088 -10.0334 
-9.94506 0.00175501 0.00625089 
0.00175501 -9.82284 0.0496543 
0.00625089 0.0496543 -9.97375 
-9.8647 -0.00217881 -0.0206087 
-0.00217881 -9.96706 0.0400439 
-0.0206087 0.0400439 -9.90989 
-9.91947 -0.0100371 0.000713005 
-0.0100371 -9.85119 0.0748225 
0.000713005 0.0748225 -9.97101 
-9.90943 -0.054155 -0.00243999 
-0.054155 -9.86832 0.0699095 
-0.00243999 0.0699095 -9.96391 
-9.9764 0.00177961 -0.00821316 
0.00177961 -9.97185 0.0118894 
-0.00821316 0.0118894 -9.99346 
-9.97686 0.0030756 -0.00505372 
0.0030756 -9.97775 0.00598853 
-0.00505372 0.00598853 -9.9871 
-9.97896 0.00455568 -0.00143245 
0.00455568 -9.98122 0.00572694 
-0.00143245 0.00572694 -9.98153 
-9.97393 0.00260169 -0.00155983 
0.00260169 -9.9759 0.00548964 
-0.00155983 0.00548964 -9.99189 
-10.0147 -0.00967668 -0.00363363 
-0.00967668 -10.0035 0.0244692 
-0.00363363 0.0244692 -9.99008 
-9.96549 0.00625583 8.91769e-05 
0.00625583 -9.93426 -0.0249366 
8.91769e-05 -0.0249366 -10.1085 
-10.0458 -0.00389965 0.00569149 
-0.00389965 -10.0188 0.0309346 
0.00569149 0.0309346 -9.94355 
-10.0324 -0.017984 -0.0527376 
-0.017984 -9.92342 0.0819217 
-0.0527376 0.0819217 -10.0525 
-9.98042 0.0148844 -0.022743 
0.0148844 -9.99789 -0.0589799 
-0.022743 -0.0589799 -9.77467 
-9.94987 0.0181232 -0.0146197 
0.0181232 -9.97091 -0.0981657 
-0.0146197 -0.0981657 -9.83219 
-9.94392 0.0177207 -0.0273726 
0.0177207 -9.9737 -0.101508 
-0.0273726 -0.101508 -9.83536 
-9.93163 0.0122045 0.00155386 
0.0122045 -9.9454 -0.0860886 
0.00155386 -0.0860886 -9.87595 
-9.95287 0.00753352 0.00231654 
0.00753352 -9.95973 -0.0125819 
0.00231654 -0.0125819 -9.92192 
-9.94872 0.000269606 0.0130153 
0.000269606 -9.95555 -0.00613279 
0.0130153 -0.00613279 -9.93025 
-9.94933 -0.00296809 0.011607 
-0.00296809 -9.95374 0.00205867 
0.011607 0.00205867 -9.93144 
-9.95465 0.00666622 0.0184391 
0.00666622 -9.93842 0.000521233 
0.0184391 0.000521233 -9.94145 
-9.92795 0.0103475 -0.0109935 
0.0103475 -9.93571 -0.00437063 
-0.0109935 -0.00437063 -9.97421 
-9.9362 0.0213614 0.0247584 
0.0213614 -9.93878 -0.007846 
0.0247584 -0.007846 -9.9629 
-9.93703 0.0177349 0.0214505 
0.0177349 -9.92528 0.000770082 
0.0214505 0.000770082 -9.97557 
-9.91846 0.0133152 0.00088077 
0.0133152 -9.9306 -0.0191438 
0.00088077 -0.0191438 -9.98882 
-9.06321 0.0947221 0.0632887 
0.0947221 -8.44517 -0.531035 
0.0632887 -0.531035 -10.1142 
-10.4332 0.100726 0.251681 
0.100726 -9.41719 0.0212252 
0.251681 0.0212252 -7.77218 
-10.2627 0.18443 1.08106 
0.18443 -9.84353 -0.15841 
1.08106 -0.15841 -7.51627 
-10.7269 0.508188 -0.00970705 
0.508188 -9.22811 0.245505 
-0.00970705 0.245505 -7.66755 
-9.94532 -0.00483419 0.00215783 
-0.00483419 -9.94245 -0.0105718 
0.00215783 -0.0105718 -9.95076 
-9.94655 -0.00819743 0.00171931 
-0.00819743 -9.93497 -0.00945611 
0.00171931 -0.00945611 -9.957 
-9.93829 -0.0101839 0.000354692 
-0.0101839 -9.94759 -0.00286994 
0.000354692 -0.00286994 -9.95265 
-9.94114 -0.0140368 -0.00899554 
-0.0140368 -9.94428 0.00116513 
-0.00899554 0.00116513 -9.9531 
-9.93723 0.00752542 0.000896454 
0.00752542 -9.92935 0.076404 
0.000896454 0.076404 -9.92616 
-9.93569 0.000507004 0.00909666 
0.000507004 -9.93408 0.0838731 
0.00909666 0.0838731 -9.92298 
-9.94027 -0.00336701 0.0116197 
-0.00336701 -9.9262 0.0798638 
0.0116197 0.0798638 -9.92628 
-9.93821 0.00422795 0.0086263 
0.00422795 -9.93406 0.0858793 
0.0086263 0.0858793 -9.92048 
-9.82737 -0.0938114 0.0183766 
-0.0938114 -9.87034 -0.0157195 
0.0183766 -0.0157195 -9.88385 
-9.88221 -0.0432334 -0.0161654 
-0.0432334 -9.84522 -0.0863597 
-0.0161654 -0.0863597 -9.85412 
-9.8866 -0.0851486 0.00876687 
-0.0851486 -9.86889 -0.0519997 
0.00876687 -0.0519997 -9.82606 
-9.89554 -0.0726625 0.0189277 
-0.0726625 -9.85767 -0.0680238 
0.0189277 -0.0680238 -9.82834 
-9.93329 -0.00989416 0.00133129 
-0.00989416 -9.91169 0.00696901 
0.00133129 0.00696901 -9.9204 
-9.90769 -0.0119757 -0.0202163 
-0.0119757 -9.91227 -0.0040949 
-0.0202163 -0.0040949 -9.94542 
-9.91337 0.000950649 -0.0347431 
0.000950649 -9.91133 0.00790215 
-0.0347431 0.00790215 -9.94069 
-9.92314 -0.0251572 -0.0556913 
-0.0251572 -9.91884 0.0212719 
-0.0556913 0.0212719 -9.9234 
-9.98007 -0.00154224 -0.0723715 
-0.00154224 -9.98381 0.030378 
-0.0723715 0.030378 -9.98249 
-9.98093 0.00218999 -0.0610813 
0.00218999 -9.97141 0.0251386 
-0.0610813 0.0251386 -9.99403 
-9.97877 -0.00116463 -0.0671731 
-0.00116463 -9.9857 0.0287782 
-0.0671731 0.0287782 -9.9819 
-9.99098 0.0022782 -0.0691894 
0.0022782 -9.9807 0.0276632 
-0.0691894 0.0276632 -9.97469 
-9.95013 0.00827957 0.0157453 
0.00827957 -9.96111 -0.0488468 
0.0157453 -0.0488468 -9.91727 
-9.94959 0.00613646 0.013413 
0.00613646 -9.95752 -0.0566942 
0.013413 -0.0566942 -9.9214 
-9.95143 0.00849038 0.00796305 
0.00849038 -9.96069 -0.0513139 
0.00796305 -0.0513139 -9.91638 
-9.94836 0.00597507 0.0122114 
0.00597507 -9.9575 -0.0407835 
0.0122114 -0.0407835 -9.92266 
-9.96475 -0.0176581 0.0189596 
-0.0176581 -9.95752 0.0268965 
0.0189596 0.0268965 -9.92971 
-9.95134 -0.0130001 0.011641 
-0.0130001 -9.9469 0.0191651 
0.011641 0.0191651 -9.95375 
-9.95134 -0.0138347 0.0200359 
-0.0138347 -9.95217 0.0253287 
0.0200359 0.0253287 -9.94848 
-9.94983 0.00680909 0.0460107 
0.00680909 -9.92885 0.0266743 
0.0460107 0.0266743 -9.97331 
-10.4611 0.186219 -0.376348 
0.186219 -9.09037 0.511996 
-0.376348 0.511996 -10.5611 
-10.9356 0.788536 -0.347707 
0.788536 -9.42935 0.381367 
-0.347707 0.381367 -9.74765 
-10.1163 -0.235594 0.129896 
-0.235594 -9.34112 0.475986 
0.129896 0.475986 -10.6551 
-9.94863 0.05334 0.0428184 
0.05334 -9.49058 0.829047 
0.0428184 0.829047 -10.6734 
-10.0758 0.000957845 -0.00278425 
0.000957845 -10.1507 0.0164074 
-0.00278425 0.0164074 -10.1579 
-10.1153 0.00451507 0.00600953 
0.00451507 -10.1366 -0.000552659 
0.00600953 -0.000552659 -10.1325 
-10.1654 -0.0487724 -0.000195942 
-0.0487724 -9.99075 0.0203412 
-0.000195942 0.0203412 -10.2282 
-10.0475 0.0223886 -0.0199243 
0.0223886 -10.2042 0.114496 
-0.0199243 0.114496 -10.1326 
-9.9076 -0.0093674 -0.0302092 
-0.0093674 -9.91064 0.0694208 
-0.0302092 0.0694208 -9.9241 
-9.89911 -0.00246119 -0.0360945 
-0.00246119 -9.92579 0.0639236 
-0.0360945 0.0639236 -9.91744 
-9.90769 -0.00943974 -0.0389343 
-0.00943974 -9.91091 0.063314 
-0.0389343 0.063314 -9.92374 
-9.9111 -0.00593689 -0.0385017 
-0.00593689 -9.91019 0.0691659 
-0.0385017 0.0691659 -9.92104 
-9.79876 0.172387 -0.163819 
0.172387 -10.0133 -0.0851258 
-0.163819 -0.0851258 -10.0094 
-9.86066 0.0414826 -0.253118 
0.0414826 -10.0472 0.025954 
-0.253118 0.025954 -9.91357 
-9.78032 0.255645 -0.0904715 
0.255645 -9.92189 -0.0831211 
-0.0904715 -0.0831211 -10.1192 
-9.61108 0.0878622 -0.222911 
0.0878622 -10.038 -0.233468 
-0.222911 -0.233468 -10.1724 
-9.92491 -0.00650569 -0.0556589 
-0.00650569 -9.94801 -0.0264827 
-0.0556589 -0.0264827 -9.9348 
-9.92781 -0.0225255 -0.0829158 
-0.0225255 -9.95428 -0.0496787 
-0.0829158 -0.0496787 -9.92562 
-9.96355 -0.097145 -0.0479763 
-0.097145 -9.9626 -0.0243281 
-0.0479763 -0.0243281 -9.88156 
-9.93968 -0.0203735 -0.0497043 
-0.0203735 -9.93012 -0.0385466 
-0.0497043 -0.0385466 -9.93791 
-9.88705 -0.22193 0.0669132 
-0.22193 -10.064 -0.01111 
0.0669132 -0.01111 -9.76955 
-9.93432 -0.157754 -0.128366 
-0.157754 -9.61508 0.265878 
-0.128366 0.265878 -10.1712 
-10.1307 -0.218555 -0.269629 
-0.218555 -9.90463 0.0955747 
-0.269629 0.0955747 -9.68533 
-9.7747 0.0906699 0.167376 
0.0906699 -9.90857 -0.0636054 
0.167376 -0.0636054 -10.0374 
-9.95009 -0.0167682 0.000303441 
-0.0167682 -9.9559 -0.00990833 
0.000303441 -0.00990833 -9.97092 
-9.94046 0.00919178 -0.00749236 
0.00919178 -9.95668 -0.0150477 
-0.00749236 -0.0150477 -9.97977 
-9.93695 0.0300847 -0.025739 
0.0300847 -9.94501 -0.0261288 
-0.025739 -0.0261288 -9.99495 
-9.91205 0.00357626 -0.01516 
0.00357626 -9.96665 0.00198537 
-0.01516 0.00198537 -9.99822 
-10.2444 -0.00248759 0.0250502 
-0.00248759 -10.2449 -0.0118409 
0.0250502 -0.0118409 -10.2071 
-10.2312 0.00669985 0.0246169 
0.00669985 -10.2156 -0.0125916 
0.0246169 -0.0125916 -10.2496 
-10.1891 -0.0129484 -0.0108391 
-0.0129484 -10.1911 -0.00699425 
-0.0108391 -0.00699425 -10.3162 
-10.2018 -0.0116986 0.0653988 
-0.0116986 -10.2479 0.00841735 
0.0653988 0.00841735 -10.2466 
-9.9335 -0.00403285 0.00679151 
-0.00403285 -9.94024 0.0751825 
0.00679151 0.0751825 -9.95302 
-9.95682 0.0184228 0.00983268 
0.0184228 -9.95707 0.0874478 
0.00983268 0.0874478 -9.91288 
-9.95665 0.00219142 0.0124333 
0.00219142 -9.92578 0.0828644 
0.0124333 0.0828644 -9.94433 
-9.92442 0.000778169 -0.00692356 
0.000778169 -9.9546 0.0597444 
-0.00692356 0.0597444 -9.94775 
-9.86585 0.122311 -0.0514012 
0.122311 -9.8505 -0.0897566 
-0.0514012 -0.0897566 -9.97985 
-9.86303 0.0255697 -0.0138241 
0.0255697 -9.81631 -0.184569 
-0.0138241 -0.184569 -10.0169 
-9.90982 0.0186723 0.0455253 
0.0186723 -9.83652 -0.266879 
0.0455253 -0.266879 -9.94986 
-9.83861 0.0664967 -0.0172527 
0.0664967 -9.79866 -0.183099 
-0.0172527 -0.183099 -10.0589 
-9.94955 0.0199029 -0.00813338 
0.0199029 -9.94644 -0.00511776 
-0.00813338 -0.00511776 -9.98788 
-9.94236 0.0239075 -0.0112933 
0.0239075 -9.94188 -0.0167738 
-0.0112933 -0.0167738 -9.99964 
-9.93123 -0.0325543 -0.00556676 
-0.0325543 -9.99926 -0.00629946 
-0.00556676 -0.00629946 -9.95338 
-9.92037 0.0243385 -0.00509698 
0.0243385 -9.96938 -0.000189886 
-0.00509698 -0.000189886 -9.99413 
-10.2841 4.98471 -1.28328 
4.98471 -15.0753 -3.3697 
-1.28328 -3.3697 -5.35287 
-11.7844 1.92157 3.14749 
1.92157 0.208273 3.50393 
3.14749 3.50393 -19.1361 
-7.76721 1.74037 1.48921 
1.74037 -4.54274 3.05242 
1.48921 3.05242 -18.4023 
-10.635 -3.22901 0.790612 
-3.22901 -11.9904 4.1103 
0.790612 4.1103 -8.08691 
-9.80385 0.114478 0.0718091 
0.114478 -9.99057 -0.0290459 
0.0718091 -0.0290459 -10.3539 
-9.78726 0.107393 0.0189868 
0.107393 -9.91298 -0.0808676 
0.0189868 -0.0808676 -10.4481 
-9.74849 -0.0159328 0.0168865 
-0.0159328 -10.1204 -0.0732262 
0.0168865 -0.0732262 -10.2795 
-9.84303 0.0700371 -0.252913 
0.0700371 -10.2125 0.046224 
-0.252913 0.046224 -10.0929 
-9.94319 -0.00594062 -0.00967243 
-0.00594062 -9.94355 0.0820596 
-0.00967243 0.0820596 -9.9542 
-9.9514 0.00119452 -0.00533578 
0.00119452 -9.94074 0.0707989 
-0.00533578 0.0707989 -9.9488 
-9.95933 -0.000243061 -0.0114884 
-0.000243061 -9.95572 0.0773954 
-0.0114884 0.0773954 -9.92588 
-9.95714 0.00335764 -0.00980119 
0.00335764 -9.94305 0.078333 
-0.00980119 0.078333 -9.94075 
-10.0673 0.0360428 0.0150844 
0.0360428 -10.0893 -0.00666594 
0.0150844 -0.00666594 -9.9892 
-10.1289 -0.0270745 0.0135078 
-0.0270745 -10.0244 -0.000569809 
0.0135078 -0.000569809 -9.99248 
-10.1113 -0.0327929 0.0255086 
-0.0327929 -9.97036 -0.0284947 
0.0255086 -0.0284947 -10.0641 
-10.0177 -0.0253486 0.00123607 
-0.0253486 -10.0719 0.0167367 
0.00123607 0.0167367 -10.0562 
-9.96538 -0.00749228 0.0167982 
-0.00749228 -9.96579 0.0153249 
0.0167982 0.0153249 -9.95074 
-9.96481 -0.00478455 0.0141329 
-0.00478455 -9.96464 0.0185883 
0.0141329 0.0185883 -9.95246 
-9.96939 -0.00544471 0.0157836 
-0.00544471 -9.96096 0.0164498 
0.0157836 0.0164498 -9.95156 
-9.96794 -0.00774629 0.0152091 
-0.00774629 -9.96346 0.0154663 
0.0152091 0.0154663 -9.95051 
-9.95912 -0.0571302 0.0400839 
-0.0571302 -9.93011 0.0815732 
0.0400839 0.0815732 -9.91395 
-9.97612 0.08286 0.000444202 
0.08286 -9.73437 -0.0247081 
0.000444202 -0.0247081 -10.0927 
-9.96687 0.0882451 0.0634429 
0.0882451 -10.0572 0.115705 
0.0634429 0.115705 -9.7791 
-9.8862 0.237881 0.257057 
0.237881 -9.90429 0.00305026 
0.257057 0.00305026 -10.0127 
-10.2392 0.0147352 -0.0232261 
0.0147352 -10.0637 -0.00502471 
-0.0232261 -0.00502471 -10.2787 
-10.1164 -0.0169888 0.00835558 
-0.0169888 -10.3061 0.0452757 
0.00835558 0.0452757 -10.1591 
-10.1553 0.0184497 0.00635452 
0.0184497 -10.178 0.0967024 
0.00635452 0.0967024 -10.2482 
-10.1438 -0.0123773 0.0307527 
-0.0123773 -10.1981 0.0680723 
0.0307527 0.0680723 -10.2396 
-10.1662 -0.151963 -0.175141 
-0.151963 -9.92583 0.469798 
-0.175141 0.469798 -9.39501 
-9.91737 -0.131834 0.0586217 
-0.131834 -9.74049 0.0642545 
0.0586217 0.0642545 -9.82915 
-9.70372 0.129112 -0.0306026 
0.129112 -10.4106 0.078696 
-0.0306026 0.078696 -9.37269 
-9.96285 0.0525861 -0.287186 
0.0525861 -10.0414 0.163588 
-0.287186 0.163588 -9.48276 
-9.90535 -0.0282684 -0.0728179 
-0.0282684 -9.90723 0.053911 
-0.0728179 0.053911 -9.99569 
-9.92198 -0.0493025 -0.0763591 
-0.0493025 -9.8899 0.0487694 
-0.0763591 0.0487694 -9.99639 
-9.8674 -0.0557957 -0.0509339 
-0.0557957 -9.93133 0.0626254 
-0.0509339 0.0626254 -10.0095 
-9.90145 -0.0368449 -0.0719792 
-0.0368449 -9.91096 0.0463177 
-0.0719792 0.0463177 -9.99585 
-9.92189 -0.00812033 0.0294245 
-0.00812033 -9.94069 0.0472364 
0.0294245 0.0472364 -9.90556 
-9.92094 -0.00305903 0.0339641 
-0.00305903 -9.94373 0.0589295 
0.0339641 0.0589295 -9.90347 
-9.93701 0.001131 0.0351864 
0.001131 -9.9396 0.0631347 
0.0351864 0.0631347 -9.89153 
-9.93296 0.0152264 0.0366583 
0.0152264 -9.91104 0.0633773 
0.0366583 0.0633773 -9.92415 
-9.87677 -0.0965291 0.0303363 
-0.0965291 -9.78001 -0.176845 
0.0303363 -0.176845 -9.85614 
-9.87187 -0.0260379 0.0513783 
-0.0260379 -9.86029 -0.166516 
0.0513783 -0.166516 -9.78077 
-9.83741 0.0261482 -0.0323532 
0.0261482 -9.88816 -0.110482 
-0.0323532 -0.110482 -9.78735 
-9.84764 0.0351824 0.0434482 
0.0351824 -10.0391 -0.339618 
0.0434482 -0.339618 -9.62615 
-9.94072 0.00446135 -0.031802 
0.00446135 -9.93541 0.0137435 
-0.031802 0.0137435 -9.94797 
-9.93914 0.037563 -0.0165886 
0.037563 -9.94824 -0.00280832 
-0.0165886 -0.00280832 -9.93672 
-9.92571 0.0634991 -0.0447046 
0.0634991 -9.94648 0.0240741 
-0.0447046 0.0240741 -9.95191 
-9.94486 0.0394835 0.00940124 
0.0394835 -9.91048 0.0751666 
0.00940124 0.0751666 -9.96875 
-10.4428 0.0434918 0.0197352 
0.0434918 -10.0134 0.225402 
0.0197352 0.225402 -10.2979 
-10.0474 0.178952 -0.231112 
0.178952 -10.2791 -0.116091 
-0.231112 -0.116091 -10.4276 
-9.4479 0.281602 0.0391365 
0.281602 -10.6729 0.19739 
0.0391365 0.19739 -10.6333 
-9.9911 0.260011 -0.198059 
0.260011 -10.2555 -0.333423 
-0.198059 -0.333423 -10.5075 
-10.1848 -0.305995 -0.0614126 
-0.305995 -10.4463 0.0214071 
-0.0614126 0.0214071 -10.2342 
-10.3716 0.00820112 0.0126342 
0.00820112 -10.2888 0.0324749 
0.0126342 0.0324749 -10.2048 
-10.3741 -0.090409 -0.0648783 
-0.090409 -10.0656 0.118718 
-0.0648783 0.118718 -10.4256 
-10.2035 -0.173876 0.0986505 
-0.173876 -10.229 0.119698 
0.0986505 0.119698 -10.4327 
-9.9175 -0.0216756 -0.0415618 
-0.0216756 -9.90199 0.0370993 
-0.0415618 0.0370993 -9.93009 
-9.91464 -0.00522608 -0.039639 
-0.00522608 -9.91561 0.0546526 
-0.039639 0.0546526 -9.91933 
-9.89644 0.0146597 -0.0388725 
0.0146597 -9.93854 0.0642368 
-0.0388725 0.0642368 -9.9146 
-9.90881 0.0124097 -0.0534384 
0.0124097 -9.9018 0.0532715 
-0.0534384 0.0532715 -9.93896 
-9.92863 0.00940775 -0.0633456 
0.00940775 -9.92224 -0.0428799 
-0.0633456 -0.0428799 -9.92976 
-9.91793 0.0142744 -0.0707616 
0.0142744 -9.92529 -0.0421926 
-0.0707616 -0.0421926 -9.9374 
-9.94684 -0.00273793 -0.0680806 
-0.00273793 -9.92405 -0.0327607 
-0.0680806 -0.0327607 -9.90973 
-9.91943 0.0105342 -0.0460429 
0.0105342 -9.92578 -0.032081 
-0.0460429 -0.032081 -9.93542 
-9.925 0.0411042 -0.00725281 
0.0411042 -9.91659 -0.048633 
-0.00725281 -0.048633 -10.0042 
-9.89815 -0.0319789 -0.0307705 
-0.0319789 -9.87433 -0.0658238 
-0.0307705 -0.0658238 -10.0733 
-9.89943 -0.0547948 -0.0352145 
-0.0547948 -9.88418 -0.0230334 
-0.0352145 -0.0230334 -10.0621 
-9.92297 -0.0775281 -0.0137574 
-0.0775281 -9.85599 -0.0707037 
-0.0137574 -0.0707037 -10.0668 
-9.8653 -0.160425 0.107894 
-0.160425 -10.2181 0.0360613 
0.107894 0.0360613 -10.2572 
-9.93669 0.0213123 -0.157532 
0.0213123 -10.2647 -0.0686569 
-0.157532 -0.0686569 -10.1392 
-10.1948 0.0916145 -0.00892367 
0.0916145 -10.0892 0.025125 
-0.00892367 0.025125 -10.0565 
-10.1426 0.120719 -0.107915 
0.120719 -9.87957 -0.0723523 
-0.107915 -0.0723523 -10.3184 
-9.96034 -0.000645693 -0.00846178 
-0.000645693 -9.95318 0.0796005 
-0.00846178 0.0796005 -9.95599 
-9.95364 0.00734317 -0.00794349 
0.00734317 -9.97787 0.0802951 
-0.00794349 0.0802951 -9.93799 
-9.95576 -0.00205787 -0.0105161 
-0.00205787 -9.94625 0.0828815 
-0.0105161 0.0828815 -9.96749 
-9.96053 -0.00404541 0.00213219 
-0.00404541 -9.95057 0.0668302 
0.00213219 0.0668302 -9.95841 
-10.0073 -0.078766 -0.0185674 
-0.078766 -10.0348 -0.0236211 
-0.0185674 -0.0236211 -10.1125 
-10.0303 0.000794758 -0.0319805 
0.000794758 -10.0431 0.0218639 
-0.0319805 0.0218639 -10.0812 
-10.0381 0.00346326 -0.0257131 
0.00346326 -10.0449 0.0144395 
-0.0257131 0.0144395 -10.0717 
-10.0403 -0.0139298 -0.0268478 
-0.0139298 -10.0433 0.0140971 
-0.0268478 0.0140971 -10.0711 
-9.9057 -0.0357591 -0.0292268 
-0.0357591 -9.91427 -0.0465728 
-0.0292268 -0.0465728 -9.96327 
-9.875 -0.0197565 -0.0207949 
-0.0197565 -9.89122 -0.0143248 
-0.0207949 -0.0143248 -10.017 
-9.87794 -0.046623 -0.0168287 
-0.046623 -9.9198 -0.0416816 
-0.0168287 -0.0416816 -9.98551 
-9.9013 -0.0488358 -0.0267434 
-0.0488358 -9.86576 -0.0471268 
-0.0267434 -0.0471268 -10.0162 
-9.97584 -0.000931628 -0.0350804 
-0.000931628 -9.97292 0.0564104 
-0.0350804 0.0564104 -9.98119 
-9.98019 -0.000720438 -0.0415502 
-0.000720438 -9.98021 0.0608438 
-0.0415502 0.0608438 -9.96955 
-9.97514 -0.00260196 -0.0411129 
-0.00260196 -9.97851 0.0584194 
-0.0411129 0.0584194 -9.9763 
-9.97468 -0.000461322 -0.042428 
-0.000461322 -9.97634 0.0593216 
-0.042428 0.0593216 -9.97892 
-9.94683 -0.000929798 0.035804 
-0.000929798 -9.94722 0.0467452 
0.035804 0.0467452 -9.93712 
-9.94722 -0.00824299 0.0410585 
-0.00824299 -9.9497 0.0526924 
0.0410585 0.0526924 -9.93425 
-9.94121 0.000799452 0.0366647 
0.000799452 -9.94691 0.0509082 
0.0366647 0.0509082 -9.94305 
-9.94039 -0.000951597 0.0408384 
-0.000951597 -9.93903 0.0504409 
0.0408384 0.0504409 -9.95175 
-9.91649 -0.0515023 -0.0281509 
-0.0515023 -9.94877 0.00253624 
-0.0281509 0.00253624 -10.1988 
-9.92163 -0.0327539 -0.0501833 
-0.0327539 -9.92795 0.0286886 
-0.0501833 0.0286886 -10.2145 
-9.85691 0.0181278 0.00119879 
0.0181278 -10.0274 -0.00315883 
0.00119879 -0.00315883 -10.1797 
-9.86169 -0.0522587 -0.0389176 
-0.0522587 -9.94936 -0.0197924 
-0.0389176 -0.0197924 -10.253 
-9.98102 -0.0044051 -0.0358876 
-0.0044051 -9.97752 -0.055653 
-0.0358876 -0.055653 -9.99341 
-9.98369 0.00329465 -0.0378363 
0.00329465 -9.98351 -0.058387 
-0.0378363 -0.058387 -9.98476 
-9.98283 -0.00298987 -0.0444847 
-0.00298987 -9.98141 -0.0605568 
-0.0444847 -0.0605568 -9.98771 
-9.98222 -0.00270043 -0.0505746 
-0.00270043 -9.98949 -0.0630568 
-0.0505746 -0.0630568 -9.98023 
-9.95044 -0.00722011 -0.0277092 
-0.00722011 -9.94064 -0.0456372 
-0.0277092 -0.0456372 -9.88998 
-9.93943 0.00158373 -0.0543284 
0.00158373 -9.95773 -0.0608947 
-0.0543284 -0.0608947 -9.8839 
-9.94007 -0.00819546 -0.034591 
-0.00819546 -9.94504 -0.0414129 
-0.034591 -0.0414129 -9.89595 
-9.92778 0.00097717 -0.0314883 
0.00097717 -9.91895 -0.0576748 
-0.0314883 -0.0576748 -9.93433 
-9.86044 0.0151327 0.0675931 
0.0151327 -9.91291 -0.0131541 
0.0675931 -0.0131541 -9.96181 
-9.58626 -0.0300116 -0.0551419 
-0.0300116 -10.0645 0.0029131 
-0.0551419 0.0029131 -10.0844 
-10.3298 0.096721 0.033482 
0.096721 -9.65493 0.0179839 
0.033482 0.0179839 -9.75048 
-9.84093 -0.00708787 0.237126 
-0.00708787 -9.86254 0.00728532 
0.237126 0.00728532 -10.0317 
-10.0806 -0.0522036 0.0245093 
-0.0522036 -9.99128 -0.0416613 
0.0245093 -0.0416613 -9.98403 
-9.91862 0.0193025 0.0535668 
0.0193025 -10.046 -0.109015 
0.0535668 -0.109015 -10.0914 
-10.0513 -0.0285641 -0.0132945 
-0.0285641 -9.96983 0.0378235 
-0.0132945 0.0378235 -10.0348 
-9.97244 -0.0199694 -0.0494268 
-0.0199694 -10.1162 0.0073426 
-0.0494268 0.0073426 -9.96736 
-10.1672 -0.121044 -0.118352 
-0.121044 -10.2211 -0.0396009 
-0.118352 -0.0396009 -10.3581 
-10.3388 -0.0242908 -0.0820907 
-0.0242908 -10.1983 -0.114404 
-0.0820907 -0.114404 -10.2093 
-10.2291 -0.00969394 -0.0202591 
-0.00969394 -10.0829 -0.043194 
-0.0202591 -0.043194 -10.4344 
-10.1033 -0.0599846 -0.00820292 
-0.0599846 -10.2966 0.0649623 
-0.00820292 0.0649623 -10.3465 
-9.87534 0.0156492 0.0114595 
0.0156492 -9.94205 0.0491967 
0.0114595 0.0491967 -9.96183 
-9.82319 -0.0465874 -0.0223825 
-0.0465874 -9.93799 -0.128518 
-0.0223825 -0.128518 -10.018 
-9.98608 -0.0632327 -0.0746389 
-0.0632327 -9.88167 -0.149376 
-0.0746389 -0.149376 -9.91148 
-10.0146 0.0338417 -0.103107 
0.0338417 -9.95747 -0.0923994 
-0.103107 -0.0923994 -9.80711 
-9.97187 0.000107664 -0.0461644 
0.000107664 -9.97032 -0.00495922 
-0.0461644 -0.00495922 -9.96108 
-9.97374 -0.000822136 -0.0404226 
-0.000822136 -9.97193 -0.00545896 
-0.0404226 -0.00545896 -9.9576 
-9.97869 -0.00120672 -0.0466004 
-0.00120672 -9.97615 -0.00543723 
-0.0466004 -0.00543723 -9.94843 
-9.97377 -0.000813688 -0.0409548 
-0.000813688 -9.97201 -0.00603931 
-0.0409548 -0.00603931 -9.9575 
-9.95548 -0.00116322 0.0390183 
-0.00116322 -9.9627 0.0654068 
0.0390183 0.0654068 -9.94566 
-9.94889 0.00910472 0.0362452 
0.00910472 -9.95094 0.0685004 
0.0362452 0.0685004 -9.96402 
-9.95151 -0.00194023 0.0373222 
-0.00194023 -9.9551 0.063525 
0.0373222 0.063525 -9.95723 
-9.95033 0.000293221 0.0297768 
0.000293221 -9.95244 0.0563904 
0.0297768 0.0563904 -9.96107 
-10.0741 0.0101003 -0.124705 
0.0101003 -9.89026 -0.0984469 
-0.124705 -0.0984469 -9.6223 
-9.96 -0.0174974 -0.15303 
-0.0174974 -9.89328 -0.0167858 
-0.15303 -0.0167858 -9.73342 
-10.03 0.0250638 -0.149844 
0.0250638 -9.88191 -0.135899 
-0.149844 -0.135899 -9.67476 
-9.9311 0.0366805 -0.224505 
0.0366805 -10.0358 -0.0840016 
-0.224505 -0.0840016 -9.61979 
-9.88564 -0.0230106 0.0307063 
-0.0230106 -9.91109 -0.0733576 
0.0307063 -0.0733576 -9.90887 
-9.92465 -0.0212995 0.0310075 
-0.0212995 -9.87439 -0.0749389 
0.0310075 -0.0749389 -9.90655 
-9.89188 -0.0178359 0.0521236 
-0.0178359 -9.90171 -0.0747907 
0.0521236 -0.0747907 -9.91201 
-9.90452 -0.0265085 0.029555 
-0.0265085 -9.88481 -0.0891211 
0.029555 -0.0891211 -9.91627 
-9.90454 0.0140352 0.0901796 
0.0140352 -9.93586 -0.0614531 
0.0901796 -0.0614531 -9.91951 
-9.92263 -0.00295076 0.0520801 
-0.00295076 -9.92948 -0.069316 
0.0520801 -0.069316 -9.90781 
-9.92125 0.0166653 0.0812659 
0.0166653 -9.9253 -0.0617342 
0.0812659 -0.0617342 -9.91336 
-9.92584 0.0264371 0.0721272 
0.0264371 -9.92846 -0.0575356 
0.0721272 -0.0575356 -9.90561 
-9.94087 0.0069068 0.0661501 
0.0069068 -9.95592 0.0348204 
0.0661501 0.0348204 -9.96401 
-9.96341 -0.000708113 0.0679061 
-0.000708113 -9.94255 0.0376117 
0.0679061 0.0376117 -9.95484 
-9.95288 0.00362644 0.0677539 
0.00362644 -9.95775 0.0329335 
0.0677539 0.0329335 -9.95017 
-9.95739 -0.00164206 0.060887 
-0.00164206 -9.94704 0.037742 
0.060887 0.037742 -9.95637 
-9.97385 0.00810948 0.00299571 
0.00810948 -9.97904 0.0145399 
0.00299571 0.0145399 -9.99049 
-9.97906 0.0070341 -0.0129292 
0.0070341 -9.99093 0.0220767 
-0.0129292 0.0220767 -9.97338 
-9.98225 0.00276133 -0.00393341 
0.00276133 -9.97891 0.0187758 
-0.00393341 0.0187758 -9.98221 
-9.98042 0.00127779 0.000303908 
0.00127779 -9.98186 0.0170506 
0.000303908 0.0170506 -9.9811 
-9.63488 -0.375472 -0.0590268 
-0.375472 -9.97638 0.343926 
-0.0590268 0.343926 -9.86951 
-9.873 0.154427 0.518081 
0.154427 -9.74767 0.0741479 
0.518081 0.0741479 -9.86011 
-9.52049 0.173896 0.406869 
0.173896 -9.86711 -0.0427275 
0.406869 -0.0427275 -10.0932 
-9.65686 -0.042717 0.411998 
-0.042717 -9.97343 0.102745 
0.411998 0.102745 -9.85048 
-9.9186 -0.0164457 -0.0413186 
-0.0164457 -9.92124 -0.0387042 
-0.0413186 -0.0387042 -9.93094 
-9.94349 -0.0166726 -0.0319315 
-0.0166726 -9.92047 -0.0443453 
-0.0319315 -0.0443453 -9.90682 
-9.87517 0.0258083 -0.0186539 
0.0258083 -9.9135 -0.0276692 
-0.0186539 -0.0276692 -9.98211 
-9.90989 0.015629 -0.0696556 
0.015629 -9.90479 -0.0316473 
-0.0696556 -0.0316473 -9.9561 
-9.98867 0.00410894 0.00529503 
0.00410894 -9.99056 -0.00593845 
0.00529503 -0.00593845 -9.99552 
-9.99335 0.00216721 0.00541008 
0.00216721 -9.99105 -0.00903778 
0.00541008 -0.00903778 -9.99036 
-9.98643 0.00132337 0.0068645 
0.00132337 -9.98315 -0.00684079 
0.0068645 -0.00684079 -10.0052 
-9.99419 0.00164357 0.0023522 
0.00164357 -9.99109 -0.00863241 
0.0023522 -0.00863241 -9.98948 
-9.94711 0.00907911 -0.0363886 
0.00907911 -9.95354 0.0320919 
-0.0363886 0.0320919 -9.95877 
-9.97004 0.0117608 -0.0350956 
0.0117608 -9.94716 0.0326569 
-0.0350956 0.0326569 -9.94221 
-9.96085 0.0107478 -0.0308047 
0.0107478 -9.9492 0.0327382 
-0.0308047 0.0327382 -9.94936 
-9.95707 0.0175626 -0.0192171 
0.0175626 -9.95848 0.0412495 
-0.0192171 0.0412495 -9.94386 
-9.94977 -0.0274033 0.0284515 
-0.0274033 -9.90303 0.0272184 
0.0284515 0.0272184 -9.91816 
-9.95048 -0.0344619 0.0141346 
-0.0344619 -9.91776 0.0426294 
0.0141346 0.0426294 -9.90272 
-9.91862 -0.030541 0.0089405 
-0.030541 -9.9165 0.0299094 
0.0089405 0.0299094 -9.93583 
-9.94099 -0.0282802 0.0166443 
-0.0282802 -9.90853 0.0372585 
0.0166443 0.0372585 -9.92143 
-10.06 0.0159722 -0.0182353 
0.0159722 -10.0893 -0.0132585 
-0.0182353 -0.0132585 -10.1436 
-10.0817 -0.00798191 0.0108591 
-0.00798191 -10.0588 0.0053851 
0.0108591 0.0053851 -10.1524 
-10.1255 -0.0353646 -0.00822196 
-0.0353646 -10.0707 0.013629 
-0.00822196 0.013629 -10.0966 
-10.0669 0.0100068 0.00792745 
0.0100068 -10.1015 -0.00908747 
0.00792745 -0.00908747 -10.1245 
-9.94999 -0.0117724 0.0072532 
-0.0117724 -9.92395 0.0237178 
0.0072532 0.0237178 -9.94786 
-9.94623 -0.0259241 0.014276 
-0.0259241 -9.95054 0.0263792 
0.014276 0.0263792 -9.92502 
-9.92061 -0.0543273 -0.00610853 
-0.0543273 -9.94837 -0.00653691 
-0.00610853 -0.00653691 -9.95281 
-9.94213 -0.015245 -0.0185076 
-0.015245 -9.93555 0.0327714 
-0.0185076 0.0327714 -9.94411 
-9.95961 0.0081761 -0.0386028 
0.0081761 -9.95746 0.0150872 
-0.0386028 0.0150872 -9.93141 
-9.96145 0.0110254 -0.0495035 
0.0110254 -9.95137 0.0169734 
-0.0495035 0.0169734 -9.93567 
-9.96303 0.00687925 -0.0458798 
0.00687925 -9.95404 0.00788598 
-0.0458798 0.00788598 -9.93141 
-9.95169 -0.00560975 -0.0523908 
-0.00560975 -9.94912 0.0151373 
-0.0523908 0.0151373 -9.94768 
-9.94488 0.105943 0.100345 
0.105943 -10.1586 0.0124404 
0.100345 0.0124404 -10.2702 
-10.2492 0.0352573 0.0167262 
0.0352573 -10.1864 -0.0233566 
0.0167262 -0.0233566 -9.93809 
-10.0716 -0.0751324 -0.000148938 
-0.0751324 -10.1287 -0.0230228 
-0.000148938 -0.0230228 -10.1734 
-10.0296 0.00940503 -0.072628 
0.00940503 -10.1637 0.0088736 
-0.072628 0.0088736 -10.1803 
-9.96804 -0.003248 -0.0524325 
-0.003248 -9.96788 -0.0264942 
-0.0524325 -0.0264942 -9.94598 
-9.97009 -0.000343834 -0.055547 
-0.000343834 -9.95488 -0.0140597 
-0.055547 -0.0140597 -9.95692 
-9.97024 -0.00460784 -0.0532247 
-0.00460784 -9.96087 -0.023203 
-0.0532247 -0.023203 -9.95077 
-9.96674 -0.00497835 -0.0511334 
-0.00497835 -9.95589 -0.0125204 
-0.0511334 -0.0125204 -9.95926 
-9.98036 -0.000584074 0.0722558 
-0.000584074 -9.98816 -0.014141 
0.0722558 -0.014141 -9.98371 
-9.98234 -0.000711635 0.0740338 
-0.000711635 -9.98634 -0.0146427 
0.0740338 -0.0146427 -9.98355 
-9.98394 0.0024517 0.067689 
0.0024517 -9.97589 -0.0128694 
0.067689 -0.0128694 -9.9924 
-9.9883 0.00125166 0.0742136 
0.00125166 -9.98501 -0.0138931 
0.0742136 -0.0138931 -9.97891 
-9.90513 -0.0116395 0.0573607 
-0.0116395 -9.925 -0.0549465 
0.0573607 -0.0549465 -9.95104 
-9.9296 0.0133756 0.0496352 
0.0133756 -9.92627 -0.0408021 
0.0496352 -0.0408021 -9.92531 
-9.92999 0.00317446 0.0483316 
0.00317446 -9.92644 -0.0455122 
0.0483316 -0.0455122 -9.92475 
-9.91966 -0.00438051 0.0361709 
-0.00438051 -9.91988 -0.0510727 
0.0361709 -0.0510727 -9.94164 
-9.99244 -0.00159331 0.0487345 
-0.00159331 -9.99209 0.0412097 
0.0487345 0.0412097 -9.99561 
-9.99334 -0.00262992 0.0491627 
-0.00262992 -9.98898 0.0426243 
0.0491627 0.0426243 -9.99782 
-9.99186 -0.000483872 0.0465146 
-0.000483872 -9.99143 0.041943 
0.0465146 0.041943 -9.99686 
-9.99426 -0.00200529 0.0467088 
-0.00200529 -9.99333 0.043858 
0.0467088 0.043858 -9.99256 
-9.92089 0.032556 -0.0830472 
0.032556 -10.0095 0.029644 
-0.0830472 0.029644 -10.0865 
-9.91375 0.0453465 -0.0863052 
0.0453465 -9.95978 0.0299209 
-0.0863052 0.0299209 -10.1434 
-9.95545 0.0755781 0.0254623 
0.0755781 -9.9625 0.112046 
0.0254623 0.112046 -10.0989 
-9.92277 0.0883491 -0.085361 
0.0883491 -9.94946 -0.01117 
-0.085361 -0.01117 -10.1447 
-9.96974 -0.00533004 0.0549938 
-0.00533004 -9.96364 0.0289735 
0.0549938 0.0289735 -9.95003 
-9.9711 0.00633304 0.036712 
0.00633304 -9.96555 0.0376672 
0.036712 0.0376672 -9.94675 
-9.96734 -0.00744107 0.0491873 
-0.00744107 -9.96092 0.032048 
0.0491873 0.032048 -9.95515 
-9.95834 -0.00816138 0.051192 
-0.00816138 -9.958 0.0322194 
0.051192 0.0322194 -9.96706 
-9.95334 -0.00622453 -0.0552715 
-0.00622453 -9.95352 -0.0529382 
-0.0552715 -0.0529382 -9.95459 
-9.95157 0.00625294 -0.0491272 
0.00625294 -9.9562 -0.0559401 
-0.0491272 -0.0559401 -9.95367 
-9.94521 0.00519019 -0.0503742 
0.00519019 -9.94991 -0.055991 
-0.0503742 -0.055991 -9.96633 
-9.94517 -0.00357977 -0.0503524 
-0.00357977 -9.95761 -0.0544672 
-0.0503524 -0.0544672 -9.95868 
-9.88918 -0.0213013 0.0468631 
-0.0213013 -9.90411 -0.151152 
0.0468631 -0.151152 -9.79996 
-9.88978 -0.0120154 0.0259135 
-0.0120154 -9.86927 -0.134905 
0.0259135 -0.134905 -9.8342 
-9.90708 -0.034209 0.0190719 
-0.034209 -9.81852 -0.146591 
0.0190719 -0.146591 -9.86765 
-9.88343 0.0330523 0.0350413 
0.0330523 -9.89587 -0.0979202 
0.0350413 -0.0979202 -9.81396 
-9.96988 0.00975708 0.0388148 
0.00975708 -9.9826 0.0121076 
0.0388148 0.0121076 -10.0029 
-9.99074 0.00541775 0.0368838 
0.00541775 -9.99349 0.0139374 
0.0368838 0.0139374 -9.97114 
-9.98696 -0.0096172 0.0417111 
-0.0096172 -9.98653 0.023258 
0.0417111 0.023258 -9.98188 
-9.98824 -0.00256413 0.0375732 
-0.00256413 -9.98528 0.0202729 
0.0375732 0.0202729 -9.98185 
-9.76039 -0.0669471 0.160819 
-0.0669471 -10.0456 0.0254996 
0.160819 0.0254996 -10.0763 
-9.935 -0.0217717 0.0513373 
-0.0217717 -9.9228 0.00876677 
0.0513373 0.00876677 -10.0245 
-9.95655 -0.0472007 0.109335 
-0.0472007 -9.92659 -0.00644508 
0.109335 -0.00644508 -9.9992 
-9.94643 -0.0223073 0.114374 
-0.0223073 -9.93345 0.000421353 
0.114374 0.000421353 -10.0025 
-9.98102 0.0842745 0.0298715 
0.0842745 -10.2564 -0.0320685 
0.0298715 -0.0320685 -10.2289 
-10.1415 -0.0312919 -0.075282 
-0.0312919 -10.1202 -0.0202716 
-0.075282 -0.0202716 -10.2047 
-10.2394 -0.0568604 -0.0350776 
-0.0568604 -10.1232 -0.0252082 
-0.0350776 -0.0252082 -10.1038 
-10.1034 -0.0416699 -0.0927396 
-0.0416699 -10.1821 -0.0165215 
-0.0927396 -0.0165215 -10.1808 
-9.87447 -0.259411 0.0705138 
-0.259411 -10.0463 -0.488694 
0.0705138 -0.488694 -9.43461 
-10.0042 0.122159 0.051945 
0.122159 -9.83562 -0.239656 
0.051945 -0.239656 -9.51558 
-9.67458 -0.0107327 0.239219 
-0.0107327 -10.6351 -0.527258 
0.239219 -0.527258 -9.04574 
-9.91125 -0.00416381 0.0577939 
-0.00416381 -10.1822 -0.501883 
0.0577939 -0.501883 -9.26198 
-9.95233 0.0555573 0.0194737 
0.0555573 -9.87137 -0.110317 
0.0194737 -0.110317 -10.0938 
-9.92748 -0.0293586 -0.00973935 
-0.0293586 -9.88389 -0.0364009 
-0.00973935 -0.0364009 -10.1061 
-9.97771 -0.0116779 0.0337921 
-0.0116779 -9.79792 -0.141766 
0.0337921 -0.141766 -10.1418 
-9.91927 0.0492264 0.0211316 
0.0492264 -9.83408 -0.120427 
0.0211316 -0.120427 -10.1641 
-9.92806 -0.0339221 -0.0161518 
-0.0339221 -9.90561 -0.0370169 
-0.0161518 -0.0370169 -9.88865 
-9.92687 -0.0305263 -0.00513134 
-0.0305263 -9.90804 -0.0374888 
-0.00513134 -0.0374888 -9.88742 
-9.88073 -0.0390339 0.0162402 
-0.0390339 -9.94043 -0.032824 
0.0162402 -0.032824 -9.90116 
-9.94791 -0.0374326 0.00346521 
-0.0374326 -9.90433 -0.0335951 
0.00346521 -0.0335951 -9.87008 
-9.96946 -0.00199265 -0.000159888 
-0.00199265 -9.96978 0.00303852 
-0.000159888 0.00303852 -10.0009 
-9.97761 0.0012216 -0.00584676 
0.0012216 -9.96882 0.00574246 
-0.00584676 0.00574246 -9.99373 
-9.96929 5.88615e-05 0.00290871 
5.88615e-05 -9.97157 0.00272164 
0.00290871 0.00272164 -9.9993 
-9.97108 -0.000261391 -0.00211377 
-0.000261391 -9.97192 0.00159727 
-0.00211377 0.00159727 -9.99716 
-9.97154 0.00255699 0.0854589 
0.00255699 -9.87264 -0.0239635 
0.0854589 -0.0239635 -10.0912 
-9.821 -0.0138547 0.0208027 
-0.0138547 -9.9484 -0.012827 
0.0208027 -0.012827 -10.166 
-9.86655 0.00952778 0.0149826 
0.00952778 -9.85082 -0.0116616 
0.0149826 -0.0116616 -10.218 
-9.72846 0.0292913 0.101612 
0.0292913 -10.0089 -0.04314 
0.101612 -0.04314 -10.198 
-9.92087 0.0676494 -0.00608091 
0.0676494 -9.85971 0.0512477 
-0.00608091 0.0512477 -9.90672 
-9.91655 0.0153098 0.00534724 
0.0153098 -9.93242 0.0515771 
0.00534724 0.0515771 -9.83834 
-9.89656 -0.00741994 0.0350981 
-0.00741994 -9.96731 0.0883643 
0.0350981 0.0883643 -9.82344 
-9.91407 -0.0200832 0.015163 
-0.0200832 -9.95454 0.0114594 
0.015163 0.0114594 -9.8187 
-9.9855 0.000261606 0.00938579 
0.000261606 -9.98723 -0.00659899 
0.00938579 -0.00659899 -10.0005 
-9.98901 0.00193875 0.0113884 
0.00193875 -9.98971 -0.00547816 
0.0113884 -0.00547816 -9.99446 
-9.98808 -0.000323797 0.01183 
-0.000323797 -9.98529 -0.00416145 
0.01183 -0.00416145 -9.99982 
-9.99034 0.00296488 0.0120939 
0.00296488 -9.99061 -0.00555731 
0.0120939 -0.00555731 -9.99224 
-9.98691 0.0167818 -0.036355 
0.0167818 -10.0544 -0.0364798 
-0.036355 -0.0364798 -9.98317 
-9.99267 0.088972 -0.00970932 
0.088972 -9.98888 0.00214251 
-0.00970932 0.00214251 -10.043 
-9.9702 -0.0288615 0.0656164 
-0.0288615 -9.99639 0.0306275 
0.0656164 0.0306275 -10.0579 
-9.97433 -0.0102906 -0.0186849 
-0.0102906 -9.95634 0.0183657 
-0.0186849 0.0183657 -10.0939 
-9.98922 0.000671995 -0.0241795 
0.000671995 -9.98925 0.0332542 
-0.0241795 0.0332542 -9.99842 
-9.99041 0.00150723 -0.0259111 
0.00150723 -9.99053 0.030598 
-0.0259111 0.030598 -9.99595 
-9.98895 0.00127942 -0.0228949 
0.00127942 -9.99162 0.0299167 
-0.0228949 0.0299167 -9.99632 
-9.9928 0.00131739 -0.0230155 
0.00131739 -9.99347 0.0310152 
-0.0230155 0.0310152 -9.99061 
-9.97134 -0.00229085 -0.0404457 
-0.00229085 -9.97378 -0.0622619 
-0.0404457 -0.0622619 -9.97734 
-9.9733 0.000822076 -0.0369374 
0.000822076 -9.97607 -0.0566569 
-0.0369374 -0.0566569 -9.97309 
-9.97248 0.00177299 -0.0414747 
0.00177299 -9.97522 -0.0608446 
-0.0414747 -0.0608446 -9.97477 
-9.97188 0.000352999 -0.0411513 
0.000352999 -9.97387 -0.0607726 
-0.0411513 -0.0607726 -9.97671 
-9.73199 0.182204 0.0332531 
0.182204 -10.1172 -0.0356761 
0.0332531 -0.0356761 -10.8483 
-10.5819 0.083308 -0.121246 
0.083308 -10.2573 -0.0112988 
-0.121246 -0.0112988 -9.85838 
-10.1082 -0.146552 0.00747375 
-0.146552 -10.2168 0.0174753 
0.00747375 0.0174753 -10.3725 
-10.1893 0.0334256 -0.128388 
0.0334256 -10.2582 0.433549 
-0.128388 0.433549 -10.2501 
-9.95393 0.000215502 0.0623095 
0.000215502 -9.9429 0.00522031 
0.0623095 0.00522031 -9.87766 
-9.95811 -0.0117496 0.0637484 
-0.0117496 -9.96146 0.0118879 
0.0637484 0.0118879 -9.85492 
-9.97883 -0.00857538 0.0579238 
-0.00857538 -9.95513 0.0210008 
0.0579238 0.0210008 -9.84053 
-9.98377 0.00465474 0.0664853 
0.00465474 -9.96412 -0.0202256 
0.0664853 -0.0202256 -9.8266 
-10.0574 0.845492 0.33503 
0.845492 -9.85606 -0.565731 
0.33503 -0.565731 -10.3515 
-9.95905 0.848697 -1.01001 
0.848697 -9.70435 -0.483929 
-1.01001 -0.483929 -10.6016 
-9.98666 0.361614 -0.187273 
0.361614 -9.91447 -1.18941 
-0.187273 -1.18941 -10.3639 
-10.0653 0.425766 -0.445184 
0.425766 -9.80409 -0.187499 
-0.445184 -0.187499 -10.3956 
-8.27162 2.17523 2.8409 
2.17523 -2.31543 1.97398 
2.8409 1.97398 -17.066 
-6.49846 3.38646 1.96066 
3.38646 -3.6555 2.70742 
1.96066 2.70742 -17.4991 
-11.9598 2.70342 -2.64936 
2.70342 -12.6204 -3.40844 
-2.64936 -3.40844 -3.07273 
-11.0361 -3.83823 1.97979 
-3.83823 -11.9055 4.37901 
1.97979 4.37901 -4.71146 
-10.2351 0.0186538 -0.020841 
0.0186538 -10.2844 0.00746663 
-0.020841 0.00746663 -10.2016 
-10.2238 0.00822696 -0.00302499 
0.00822696 -10.3032 0.0201674 
-0.00302499 0.0201674 -10.1941 
-10.1538 0.0266507 -0.0252002 
0.0266507 -10.1271 0.00330728 
-0.0252002 0.00330728 -10.4403 
-10.2364 -0.0140641 0.0308865 
-0.0140641 -10.3003 -0.0794252 
0.0308865 -0.0794252 -10.1844 
-9.9283 -0.00797055 -0.0433276 
-0.00797055 -9.94477 0.0221781 
-0.0433276 0.0221781 -10.1788 
-9.84368 -0.0356252 -0.072084 
-0.0356252 -9.99736 0.0718258 
-0.072084 0.0718258 -10.2108 
-9.86751 0.00736318 -0.0608535 
0.00736318 -10.0023 -0.0150808 
-0.0608535 -0.0150808 -10.182 
-9.86859 0.0428971 -0.135237 
0.0428971 -9.97133 -0.0200194 
-0.135237 -0.0200194 -10.2119 
-9.9631 0.00404664 -0.0249104 
0.00404664 -9.98831 -0.0159035 
-0.0249104 -0.0159035 -9.99287 
-9.98256 -0.00354793 -0.0103912 
-0.00354793 -9.98858 -0.0263258 
-0.0103912 -0.0263258 -9.97313 
-9.98261 -0.00198254 -0.0158052 
-0.00198254 -9.98103 -0.0274 
-0.0158052 -0.0274 -9.98064 
-9.97474 -0.00198272 -0.0219312 
-0.00198272 -9.98813 -0.0202701 
-0.0219312 -0.0202701 -9.98141 
-10.0012 0.243914 0.0142017 
0.243914 -9.63537 -0.0730482 
0.0142017 -0.0730482 -10.5166 
-9.68966 -0.159725 -0.24086 
-0.159725 -10.0935 -0.230298 
-0.24086 -0.230298 -10.37 
-9.69486 -0.0833325 0.122571 
-0.0833325 -10.2666 -0.0403133 
0.122571 -0.0403133 -10.1917 
-10.2067 0.32547 -0.476126 
0.32547 -9.85613 -0.0707213 
-0.476126 -0.0707213 -10.0903 
-9.85367 -0.0469869 0.027275 
-0.0469869 -9.88653 0.0261247 
0.027275 0.0261247 -9.93276 
-9.8568 -0.0251863 0.114812 
-0.0251863 -9.84955 -0.0252242 
0.114812 -0.0252242 -9.96661 
-9.88577 -0.0242007 0.0430075 
-0.0242007 -9.88493 -0.0841137 
0.0430075 -0.0841137 -9.90226 
-9.84695 -0.0328395 0.0684154 
-0.0328395 -9.893 -0.0459528 
0.0684154 -0.0459528 -9.93301 
-9.96453 0.00907928 -0.0717856 
0.00907928 -10.1817 -0.058378 
-0.0717856 -0.058378 -11.9206 
-10.8387 -0.0582035 0.0362241 
-0.0582035 -11.039 -0.0295141 
0.0362241 -0.0295141 -10.1891 
-10.706 0.104831 0.130749 
0.104831 -10.7004 0.0424173 
0.130749 0.0424173 -10.6604 
-10.4782 -0.135967 1.15597 
-0.135967 -10.9145 -0.0398695 
1.15597 -0.0398695 -10.6741 
-9.91546 -0.0566567 0.0117096 
-0.0566567 -9.88823 0.0461185 
0.0117096 0.0461185 -10.081 
-9.92389 -0.0614137 0.0433635 
-0.0614137 -9.83047 0.034085 
0.0433635 0.034085 -10.1304 
-9.88753 -0.0142518 0.0477219 
-0.0142518 -9.9016 0.0374082 
0.0477219 0.0374082 -10.0956 
-9.89647 -0.0570125 0.0462612 
-0.0570125 -9.91587 0.0414477 
0.0462612 0.0414477 -10.0724 
-9.85151 0.0114469 -0.034285 
0.0114469 -9.96384 -0.0846499 
-0.034285 -0.0846499 -9.86818 
-9.91409 0.0504087 -0.048159 
0.0504087 -9.8437 -0.0648457 
-0.048159 -0.0648457 -9.92574 
-9.91504 0.0214343 -0.0404467 
0.0214343 -9.87779 -0.0872843 
-0.0404467 -0.0872843 -9.89069 
-9.91939 0.0046879 -0.0464421 
0.0046879 -9.86439 -0.104337 
-0.0464421 -0.104337 -9.89974 
-9.95515 0.0196272 0.0184532 
0.0196272 -9.95525 0.012634 
0.0184532 0.012634 -9.97872 
-9.96758 0.013329 0.018758 
0.013329 -9.92782 0.0117368 
0.018758 0.0117368 -9.99372 
-9.96467 0.0152806 0.0228773 
0.0152806 -9.92116 0.0185756 
0.0228773 0.0185756 -10.0033 
-9.97089 0.024064 0.0168869 
0.024064 -9.92487 0.00507256 
0.0168869 0.00507256 -9.99337 
-9.92163 0.0222162 -0.0592857 
0.0222162 -9.8992 -0.0685203 
-0.0592857 -0.0685203 -9.94297 
-9.90179 -0.0122373 -0.0271697 
-0.0122373 -9.94125 -0.0505794 
-0.0271697 -0.0505794 -9.92075 
-9.90321 -0.00461905 -0.0385847 
-0.00461905 -9.94599 -0.0490821 
-0.0385847 -0.0490821 -9.9146 
-9.89683 0.014886 -0.0535164 
0.014886 -9.91854 -0.0385138 
-0.0535164 -0.0385138 -9.94843 
-9.82482 -0.175612 -0.0196791 
-0.175612 -9.93073 -0.2522 
-0.0196791 -0.2522 -9.34566 
-9.79257 0.192906 -0.128542 
0.192906 -9.50049 -0.193819 
-0.128542 -0.193819 -9.80816 
-9.7972 0.236222 -0.374611 
0.236222 -9.5293 -0.385154 
-0.374611 -0.385154 -9.77472 
-9.83842 0.148982 -0.146392 
0.148982 -9.55729 -0.241897 
-0.146392 -0.241897 -9.7055 
-9.94204 -0.0212602 0.0434298 
-0.0212602 -9.96757 0.00214132 
0.0434298 0.00214132 -9.99507 
-9.92967 -0.0405073 0.00402734 
-0.0405073 -9.96067 -0.000776043 
0.00402734 -0.000776043 -10.0144 
-9.93788 -0.0285626 -0.0348572 
-0.0285626 -9.98704 0.00919101 
-0.0348572 0.00919101 -9.97977 
-9.89077 -0.042005 0.0235576 
-0.042005 -9.94158 0.0189603 
0.0235576 0.0189603 -10.0723 
-9.86789 -0.0461803 -0.0680912 
-0.0461803 -9.93673 -0.0886919 
-0.0680912 -0.0886919 -9.93599 
-9.92534 0.0105181 -0.0595654 
0.0105181 -9.8842 -0.0573385 
-0.0595654 -0.0573385 -9.93108 
-9.92545 -0.00726319 -0.0381452 
-0.00726319 -9.89331 -0.0841363 
-0.0381452 -0.0841363 -9.92185 
-9.89995 -0.0287696 -0.0719845 
-0.0287696 -9.94192 -0.0240257 
-0.0719845 -0.0240257 -9.89874 
-9.9825 -0.00967313 -0.013439 
-0.00967313 -9.97074 -0.0138348 
-0.013439 -0.0138348 -9.97952 
-9.9821 -0.00842518 -0.0104659 
-0.00842518 -9.97693 -0.0132478 
-0.0104659 -0.0132478 -9.97373 
-9.98378 -0.00973151 -0.0245447 
-0.00973151 -9.97059 -0.0150053 
-0.0245447 -0.0150053 -9.97839 
-9.98347 -0.00767531 -0.026622 
-0.00767531 -9.97657 -0.0150336 
-0.026622 -0.0150336 -9.97272 
-9.91401 -0.0401 0.0603016 
-0.0401 -9.94338 -0.013999 
0.0603016 -0.013999 -9.91211 
-9.8701 -0.0548953 0.0664628 
-0.0548953 -9.87222 0.0407429 
0.0664628 0.0407429 -10.0272 
-9.88636 -0.0224334 -0.0224378 
-0.0224334 -9.93245 -0.00751723 
-0.0224378 -0.00751723 -9.95069 
-9.92022 -0.0194026 0.05375 
-0.0194026 -9.89205 0.00584599 
0.05375 0.00584599 -9.95723 
-9.9539 0.000472766 0.0356458 
0.000472766 -9.93789 0.0281646 
0.0356458 0.0281646 -9.92653 
-9.95393 0.00330658 0.0391554 
0.00330658 -9.94273 0.0242281 
0.0391554 0.0242281 -9.92166 
-9.96339 -0.0137207 0.0290542 
-0.0137207 -9.9363 0.0314987 
0.0290542 0.0314987 -9.91862 
-9.95603 -0.0119352 0.0255004 
-0.0119352 -9.93153 0.024189 
0.0255004 0.024189 -9.93076 
-9.99188 -0.00113414 -0.0469809 
-0.00113414 -9.9899 -0.0436403 
-0.0469809 -0.0436403 -10.0022 
-9.99623 0.000451236 -0.045924 
0.000451236 -9.9909 -0.0427865 
-0.045924 -0.0427865 -9.99685 
-9.99785 -0.00146828 -0.0473309 
-0.00146828 -9.99289 -0.0404361 
-0.0473309 -0.0404361 -9.99323 
-9.99791 -0.00322327 -0.0452463 
-0.00322327 -9.99258 -0.0382968 
-0.0452463 -0.0382968 -9.99349 
-9.98233 -0.00172413 0.0132218 
-0.00172413 -9.98493 0.0108917 
0.0132218 0.0108917 -9.99227 
-9.98518 0.000924122 0.0139607 
0.000924122 -9.98404 0.0111614 
0.0139607 0.0111614 -9.99031 
-9.98229 -0.00375378 0.0144542 
-0.00375378 -9.98653 0.00832732 
0.0144542 0.00832732 -9.9907 
-9.98747 0.000444766 0.0123517 
0.000444766 -9.98144 0.00920031 
0.0123517 0.00920031 -9.99062 
-9.96734 0.00768641 -0.00839746 
0.00768641 -9.95601 0.000997521 
-0.00839746 0.000997521 -9.9355 
-9.96444 0.000256435 -0.0129555 
0.000256435 -9.95032 0.00891136 
-0.0129555 0.00891136 -9.94408 
-9.96588 -0.00287644 -0.002016 
-0.00287644 -9.94617 0.0125336 
-0.002016 0.0125336 -9.94679 
-9.95742 0.000869017 -0.014026 
0.000869017 -9.95536 0.0200598 
-0.014026 0.0200598 -9.94607 
-9.94576 0.0379322 -0.0921972 
0.0379322 -9.92697 0.429962 
-0.0921972 0.429962 -9.88931 
-10.2098 -0.145808 0.0320682 
-0.145808 -10.1554 0.424057 
0.0320682 0.424057 -9.39685 
-9.93813 -0.0401391 -0.00467471 
-0.0401391 -9.8633 0.202234 
-0.00467471 0.202234 -9.9606 
-10.1012 -0.0248926 0.00544148 
-0.0248926 -9.82166 0.472569 
0.00544148 0.472569 -9.8392 
-9.95088 -0.0109728 0.0468738 
-0.0109728 -9.9232 0.0484512 
0.0468738 0.0484512 -9.95011 
-9.94515 -0.0136586 0.0492871 
-0.0136586 -9.93056 0.0582742 
0.0492871 0.0582742 -9.94848 
-9.93466 -0.0174652 0.0460249 
-0.0174652 -9.9315 0.0482581 
0.0460249 0.0482581 -9.95803 
-9.93423 -0.026174 0.0355167 
-0.026174 -9.94749 0.0465573 
0.0355167 0.0465573 -9.94247 
-10.111 0.76392 -0.613186 
0.76392 -9.22859 -0.00287843 
-0.613186 -0.00287843 -10.8023 
-9.58779 -1.07827 0.598672 
-1.07827 -9.80848 0.29819 
0.598672 0.29819 -10.7457 
-9.75429 -0.765831 -0.71473 
-0.765831 -10.2565 0.00540009 
-0.71473 0.00540009 -10.1312 
-10.1023 0.926769 1.38974 
0.926769 -9.99093 -0.0757907 
1.38974 -0.0757907 -10.0487 
-9.89596 -0.082074 0.112391 
-0.082074 -9.99518 -0.169007 
0.112391 -0.169007 -9.85859 
-9.97905 -0.482857 -0.0743616 
-0.482857 -9.66818 -0.256126 
-0.0743616 -0.256126 -10.1025 
-9.77013 -0.145263 0.0542474 
-0.145263 -9.86038 -0.24731 
0.0542474 -0.24731 -10.1192 
-9.57423 -0.165733 0.0455536 
-0.165733 -10.2582 -0.116372 
0.0455536 -0.116372 -9.91728 
-10.246 0.0354335 0.0911951 
0.0354335 -10.3192 0.053787 
0.0911951 0.053787 -10.7801 
-10.0086 0.0859615 0.147869 
0.0859615 -11.2016 -0.146644 
0.147869 -0.146644 -10.1352 
-9.7324 0.359805 0.273837 
0.359805 -10.0801 0.203187 
0.273837 0.203187 -11.5329 
-10.0958 0.384006 -0.249998 
0.384006 -10.7327 0.350481 
-0.249998 0.350481 -10.5169 
-9.88508 0.0610337 0.0363384 
0.0610337 -9.9406 -0.0343758 
0.0363384 -0.0343758 -9.8947 
-9.9144 0.0521035 0.0311107 
0.0521035 -9.91172 -0.0383684 
0.0311107 -0.0383684 -9.89426 
-9.9146 0.06711 0.0110552 
0.06711 -9.86656 -0.0577356 
0.0110552 -0.0577356 -9.93922 
-9.90898 0.035839 0.0413311 
0.035839 -9.8821 -0.0223549 
0.0413311 -0.0223549 -9.92929 
-9.83217 0.0133751 0.0298383 
0.0133751 -9.9206 0.0504465 
0.0298383 0.0504465 -9.98192 
-9.95022 0.0110025 -0.0473119 
0.0110025 -9.84341 0.0718907 
-0.0473119 0.0718907 -9.94105 
-9.88545 -0.0525325 0.0121949 
-0.0525325 -9.81203 0.104507 
0.0121949 0.104507 -10.0372 
-9.97918 -0.0635239 -0.0412564 
-0.0635239 -9.89811 0.138892 
-0.0412564 0.138892 -9.85739 
-9.95376 -0.0020002 -0.037569 
-0.0020002 -9.93161 -0.0300043 
-0.037569 -0.0300043 -9.90898 
-9.95514 -0.0144795 -0.0483925 
-0.0144795 -9.95145 -0.0388895 
-0.0483925 -0.0388895 -9.88777 
-9.95164 -0.00421996 -0.0260245 
-0.00421996 -9.9305 -0.0348007 
-0.0260245 -0.0348007 -9.91222 
-9.94065 -0.0121854 -0.040903 
-0.0121854 -9.942 -0.0200273 
-0.040903 -0.0200273 -9.9117 
-9.96666 -0.000868786 -0.0441194 
-0.000868786 -9.97407 0.0558982 
-0.0441194 0.0558982 -9.973 
-9.967 -0.000256013 -0.0450174 
-0.000256013 -9.9744 0.0560053 
-0.0450174 0.0560053 -9.97234 
-9.96592 0.000843652 -0.0374788 
0.000843652 -9.97649 0.0624167 
-0.0374788 0.0624167 -9.97132 
-9.96638 -0.0030346 -0.0341166 
-0.0030346 -9.97309 0.0598143 
-0.0341166 0.0598143 -9.97426 
-10.0931 -0.0109751 0.0345428 
-0.0109751 -10.1012 -0.0152062 
0.0345428 -0.0152062 -10.197 
-10.0744 -0.0055024 0.0162657 
-0.0055024 -10.1167 0.00118232 
0.0162657 0.00118232 -10.2002 
-10.0693 -0.013251 0.0174261 
-0.013251 -10.0999 -0.000469836 
0.0174261 -0.000469836 -10.222 
-10.0864 -0.00060187 0.00263794 
-0.00060187 -10.1162 0.0029355 
0.00263794 0.0029355 -10.1887 
-9.99528 0.0184492 -0.0306804 
0.0184492 -9.95003 0.0627485 
-0.0306804 0.0627485 -10.2327 
-9.96275 0.0521448 -0.0414573 
0.0521448 -9.99219 -0.0195436 
-0.0414573 -0.0195436 -10.223 
-10.0005 -0.0360164 -0.0227057 
-0.0360164 -9.96378 0.0433975 
-0.0227057 0.0433975 -10.2137 
-10.0369 0.0867467 -0.0420393 
0.0867467 -9.85704 -0.0119444 
-0.0420393 -0.0119444 -10.284 
-9.93325 -0.00282544 -0.0618277 
-0.00282544 -9.93837 0.0402415 
-0.0618277 0.0402415 -9.95399 
-9.94302 0.00240771 -0.0498224 
0.00240771 -9.93235 0.0516468 
-0.0498224 0.0516468 -9.95024 
-9.93666 0.00200031 -0.0547905 
0.00200031 -9.93676 0.0453257 
-0.0547905 0.0453257 -9.95218 
-9.93958 0.00573436 -0.0525909 
0.00573436 -9.93521 0.0392677 
-0.0525909 0.0392677 -9.95082 
-9.94279 -0.00715233 0.0366931 
-0.00715233 -9.95001 -0.0699028 
0.0366931 -0.0699028 -9.94798 
-9.93798 -0.00944873 0.0315275 
-0.00944873 -9.93789 -0.0785716 
0.0315275 -0.0785716 -9.96491 
-9.94969 -0.00201333 0.0322963 
-0.00201333 -9.95513 -0.0837391 
0.0322963 -0.0837391 -9.93596 
-9.94903 -0.00469855 0.032265 
-0.00469855 -9.94893 -0.0679842 
0.032265 -0.0679842 -9.94282 
-9.94968 -0.0117109 -0.0381443 
-0.0117109 -9.95127 -0.0300933 
-0.0381443 -0.0300933 -9.93974 
-9.94409 -0.000281823 -0.0555249 
-0.000281823 -9.93021 -0.0167762 
-0.0555249 -0.0167762 -9.96639 
-9.96862 -0.00402409 -0.0436986 
-0.00402409 -9.94116 -0.04939 
-0.0436986 -0.04939 -9.9309 
-9.95121 -0.00680965 -0.0394869 
-0.00680965 -9.95285 -0.0335735 
-0.0394869 -0.0335735 -9.93663 
-9.98982 -0.179442 -0.273569 
-0.179442 -9.75063 0.106215 
-0.273569 0.106215 -9.69787 
-9.80308 -0.075788 0.0602472 
-0.075788 -9.9283 0.172777 
0.0602472 0.172777 -9.70695 
-9.94514 -0.236412 0.0883162 
-0.236412 -10.1905 0.489806 
0.0883162 0.489806 -9.30269 
-9.83785 0.027828 -0.19642 
0.027828 -10.146 0.199963 
-0.19642 0.199963 -9.45451 
-9.94844 0.00663798 -0.0555678 
0.00663798 -9.95955 -0.0542367 
-0.0555678 -0.0542367 -9.98643 
-9.9768 -0.00797255 -0.0599804 
-0.00797255 -9.96792 -0.0519884 
-0.0599804 -0.0519884 -9.9497 
-9.96253 0.00233676 -0.0540078 
0.00233676 -9.96496 -0.0532668 
-0.0540078 -0.0532668 -9.96693 
-9.96718 0.00355569 -0.03682 
0.00355569 -9.96513 -0.052253 
-0.03682 -0.052253 -9.9621 
-10.0984 -0.0174276 5.24553e-05 
-0.0174276 -10.0899 0.0114329 
5.24553e-05 0.0114329 -10.1386 
-10.088 -0.0174738 -0.00143437 
-0.0174738 -10.0842 0.00342698 
-0.00143437 0.00342698 -10.1547 
-10.0794 -0.00570624 0.00909858 
-0.00570624 -10.0964 0.00722029 
0.00909858 0.00722029 -10.1511 
-10.0805 0.00424518 0.00561689 
0.00424518 -10.1071 -0.00917056 
0.00561689 -0.00917056 -10.1393 
-9.98779 0.000719177 0.0617803 
0.000719177 -9.98426 -0.04157 
0.0617803 -0.04157 -9.98677 
-9.98923 0.00365867 0.0642531 
0.00365867 -9.99347 -0.0364326 
0.0642531 -0.0364326 -9.97612 
-9.97169 -0.000128045 0.0664759 
-0.000128045 -9.98611 -0.0377446 
0.0664759 -0.0377446 -10.001 
-9.98912 0.000259347 0.0609836 
0.000259347 -9.98295 -0.0432663 
0.0609836 -0.0432663 -9.98675 
-7.87568 0.108507 -4.48801 
0.108507 -7.11052 0.693406 
-4.48801 0.693406 -13.8082 
-12.6044 -0.263825 -1.91369 
-0.263825 -8.53099 -0.733331 
-1.91369 -0.733331 -7.65901 
-7.17919 -1.15269 -3.12431 
-1.15269 -10.9825 0.890077 
-3.12431 0.890077 -10.6326 
-7.07069 1.11986 1.28495 
1.11986 -12.055 0.170869 
1.28495 0.170869 -9.66861 
-9.97658 -0.0140413 -0.0628293 
-0.0140413 -10.0266 0.0904987 
-0.0628293 0.0904987 -9.57655 
-9.87639 -0.0148127 0.0217116 
-0.0148127 -9.91479 0.0805034 
0.0217116 0.0805034 -9.78856 
-9.92376 0.0315283 0.00635487 
0.0315283 -9.92414 0.0691916 
0.00635487 0.0691916 -9.73183 
-9.87879 -0.00215686 0.0225622 
-0.00215686 -9.91735 -0.0495569 
0.0225622 -0.0495569 -9.78359 
-9.93219 -0.00587306 -0.0022337 
-0.00587306 -9.90512 0.0039434 
-0.0022337 0.0039434 -9.92027 
-9.91067 -0.059372 -0.0294453 
-0.059372 -9.91564 -0.0127146 
-0.0294453 -0.0127146 -9.93127 
-9.91077 -0.0188573 -0.0264144 
-0.0188573 -9.89449 -0.00583319 
-0.0264144 -0.00583319 -9.95232 
-9.91005 -0.0317074 -0.0648251 
-0.0317074 -9.93566 0.0168228 
-0.0648251 0.0168228 -9.91187 
-9.98054 2.02894e-05 -0.00579838 
2.02894e-05 -9.98263 0.00488128 
-0.00579838 0.00488128 -9.99826 
-9.98318 0.00246535 -0.00632421 
0.00246535 -9.98287 0.00625884 
-0.00632421 0.00625884 -9.99537 
-9.98539 0.000642265 -0.00387849 
0.000642265 -9.9809 0.00867639 
-0.00387849 0.00867639 -9.99513 
-9.98459 0.00238598 -0.00226401 
0.00238598 -9.98299 0.00709624 
-0.00226401 0.00709624 -9.99383 
-10.2765 -0.0640832 -0.0952912 
-0.0640832 -10.1759 0.00761825 
-0.0952912 0.00761825 -10.4202 
-10.1709 -0.0281272 -0.0690037 
-0.0281272 -10.4242 -0.0421084 
-0.0690037 -0.0421084 -10.2774 
-10.3536 0.063362 -0.020343 
0.063362 -10.2499 -0.021508 
-0.020343 -0.021508 -10.269 
-10.2353 -0.0315437 -0.0458637 
-0.0315437 -10.2673 -0.0390025 
-0.0458637 -0.0390025 -10.3699 
-9.84652 -0.0845857 -0.0746553 
-0.0845857 -9.99288 0.288446 
-0.0746553 0.288446 -9.90254 
-9.98358 -0.0045817 0.0294064 
-0.0045817 -9.87279 0.254073 
0.0294064 0.254073 -9.88556 
-9.94042 -0.0132947 0.0171101 
-0.0132947 -9.84274 0.199304 
0.0171101 0.199304 -9.95877 
-9.87405 0.0562164 -0.027087 
0.0562164 -9.87186 0.300503 
-0.027087 0.300503 -9.99602 
-9.93672 0.011823 -0.0438265 
0.011823 -9.94131 0.0327262 
-0.0438265 0.0327262 -9.93565 
-9.94224 0.0083755 -0.0485464 
0.0083755 -9.93962 0.0405102 
-0.0485464 0.0405102 -9.93182 
-9.94288 0.00245292 -0.053053 
0.00245292 -9.92778 0.0333702 
-0.053053 0.0333702 -9.94301 
-9.94514 0.0177295 -0.0410968 
0.0177295 -9.94193 0.0500058 
-0.0410968 0.0500058 -9.92661 
-9.86168 0.0340734 0.0795623 
0.0340734 -9.89792 0.00436325 
0.0795623 0.00436325 -9.87944 
-9.85959 0.0307508 0.0788969 
0.0307508 -9.89916 0.0024615 
0.0788969 0.0024615 -9.8803 
-9.89526 0.018171 0.0525 
0.018171 -9.90517 0.0138821 
0.0525 0.0138821 -9.83861 
-9.9127 0.0212498 0.0836134 
0.0212498 -9.87548 -0.00308114 
0.0836134 -0.00308114 -9.85087 
-9.98383 0.00466136 0.0423017 
0.00466136 -9.96788 0.0223199 
0.0423017 0.0223199 -9.97711 
-9.98224 0.0013914 0.0465053 
0.0013914 -9.97516 0.0205002 
0.0465053 0.0205002 -9.97143 
-9.97843 0.0021301 0.0501328 
0.0021301 -9.9771 0.0163982 
0.0501328 0.0163982 -9.97329 
-9.98766 0.00178412 0.0530274 
0.00178412 -9.97371 0.0128093 
0.0530274 0.0128093 -9.96745 
-9.89921 0.0259563 0.0289523 
0.0259563 -9.89776 0.0506846 
0.0289523 0.0506846 -9.94084 
-9.91239 0.0238841 0.0268698 
0.0238841 -9.87977 0.0395877 
0.0268698 0.0395877 -9.94564 
-9.87562 -0.0274339 0.0412688 
-0.0274339 -9.97414 0.062211 
0.0412688 0.062211 -9.88804 
-9.9136 0.0155347 0.0443851 
0.0155347 -9.86573 0.0940247 
0.0443851 0.0940247 -9.95847 
-10.2367 -0.127578 -0.131285 
-0.127578 -9.78875 0.0660133 
-0.131285 0.0660133 -10.4292 
-10.0787 -0.113782 -0.018373 
-0.113782 -10.0801 -0.0981979 
-0.018373 -0.0981979 -10.2959 
-10.1315 -0.0494819 0.0481018 
-0.0494819 -10.0075 -0.00142896 
0.0481018 -0.00142896 -10.3156 
-10.0843 -0.057526 -0.0354184 
-0.057526 -10.0404 -0.0253722 
-0.0354184 -0.0253722 -10.33 
-9.9819 0.00365349 -0.0523013 
0.00365349 -9.98043 -0.0504714 
-0.0523013 -0.0504714 -9.98383 
-9.98098 0.00211505 -0.0557173 
0.00211505 -9.97886 -0.0524093 
-0.0557173 -0.0524093 -9.98631 
-9.97572 -0.00309672 -0.047225 
-0.00309672 -9.97865 -0.0461688 
-0.047225 -0.0461688 -9.99178 
-9.98172 -0.00585593 -0.0555212 
-0.00585593 -9.98651 -0.0548987 
-0.0555212 -0.0548987 -9.97792 
-9.91226 -0.0208842 0.0215334 
-0.0208842 -9.99652 0.000167547 
0.0215334 0.000167547 -9.90427 
-9.93238 -0.0114649 0.0317765 
-0.0114649 -9.94355 0.0308598 
0.0317765 0.0308598 -9.93713 
-9.994 -0.0104101 0.0478802 
-0.0104101 -9.9243 -0.0203612 
0.0478802 -0.0203612 -9.89475 
-9.95914 -0.0200075 -0.00106101 
-0.0200075 -9.9796 -0.00325331 
-0.00106101 -0.00325331 -9.87432 
-9.99022 0.0173516 0.0121942 
0.0173516 -9.9391 -0.0109663 
0.0121942 -0.0109663 -9.95572 
-9.89793 -0.0506766 0.00349167 
-0.0506766 -9.96388 -0.00470521 
0.00349167 -0.00470521 -10.0232 
-9.97214 -0.00710361 0.0199579 
-0.00710361 -9.94011 -0.00874507 
0.0199579 -0.00874507 -9.97277 
-9.97347 -0.00985393 0.0621937 
-0.00985393 -9.92021 -0.0207209 
0.0621937 -0.0207209 -9.99135 
-10.3162 0.0878534 0.109015 
0.0878534 -10.2492 0.153003 
0.109015 0.153003 -9.88815 
-10.3227 0.0253219 -0.0374202 
0.0253219 -10.2717 0.172175 
-0.0374202 0.172175 -9.85915 
-9.52917 0.0600876 -0.00577781 
0.0600876 -9.36586 -0.272883 
-0.00577781 -0.272883 -11.5585 
-10.4853 0.178582 0.175626 
0.178582 -9.51638 1.1056 
0.175626 1.1056 -10.4519 
-9.86148 -0.0752681 0.032091 
-0.0752681 -9.82303 -0.0427155 
0.032091 -0.0427155 -9.91522 
-9.89071 -0.0503581 -0.0483656 
-0.0503581 -9.8989 -0.101731 
-0.0483656 -0.101731 -9.81011 
-9.89139 -0.128506 0.0305708 
-0.128506 -9.94279 -0.00677411 
0.0305708 -0.00677411 -9.76554 
-9.89178 -0.0923361 0.0153006 
-0.0923361 -9.85472 -0.0487691 
0.0153006 -0.0487691 -9.85322 
-9.9737 -0.000394529 -0.00386908 
-0.000394529 -9.98223 -0.000612125 
-0.00386908 -0.000612125 -10.0006 
-9.98516 0.00057173 -0.000170104 
0.00057173 -9.97687 0.002132 
-0.000170104 0.002132 -9.99453 
-9.98431 0.000849637 0.00190226 
0.000849637 -9.97563 0.00174244 
0.00190226 0.00174244 -9.99662 
-9.97895 -0.00105408 0.000639771 
-0.00105408 -9.98353 -0.00387872 
0.000639771 -0.00387872 -9.99409 
-9.55829 -0.085125 -0.226843 
-0.085125 -9.64467 -0.234145 
-0.226843 -0.234145 -9.13361 
-9.63541 0.0135067 -0.259719 
0.0135067 -9.66212 -0.378751 
-0.259719 -0.378751 -9.03903 
-9.43293 0.0512156 0.0506978 
0.0512156 -9.85642 -0.38958 
0.0506978 -0.38958 -9.04722 
-9.6302 0.0182986 -0.0951895 
0.0182986 -10.0523 -0.268448 
-0.0951895 -0.268448 -8.65403 
-10.1296 -0.0167867 -0.00163362 
-0.0167867 -10.1482 -0.0187071 
-0.00163362 -0.0187071 -10.2089 
-10.1377 0.000731165 -0.022216 
0.000731165 -10.1907 0.0157285 
-0.022216 0.0157285 -10.1583 
-10.1967 0.0364969 -0.0254043 
0.0364969 -10.1457 0.00167884 
-0.0254043 0.00167884 -10.1443 
-10.1304 -0.0181324 -0.0454483 
-0.0181324 -10.1762 0.00489886 
-0.0454483 0.00489886 -10.1801 
-9.82948 0.297658 -0.202934 
0.297658 -9.62138 -0.391055 
-0.202934 -0.391055 -9.83782 
-9.53694 0.541726 -0.459999 
0.541726 -10.06 -0.299543 
-0.459999 -0.299543 -9.69176 
-10.1762 -0.350483 -0.0660486 
-0.350483 -10.1696 -0.12198 
-0.0660486 -0.12198 -8.94284 
-9.84841 0.126731 0.144385 
0.126731 -9.7177 -0.516838 
0.144385 -0.516838 -9.72257 
-9.94332 0.00313903 -0.0598525 
0.00313903 -9.93865 -0.0189006 
-0.0598525 -0.0189006 -9.91119 
-9.95262 -0.0212379 -0.0569425 
-0.0212379 -9.95545 -0.0483988 
-0.0569425 -0.0483988 -9.88509 
-9.94185 0.00622914 -0.0552522 
0.00622914 -9.93347 -0.0259887 
-0.0552522 -0.0259887 -9.91783 
-9.94443 -0.00616086 -0.0393034 
-0.00616086 -9.93488 -0.0133057 
-0.0393034 -0.0133057 -9.91384 
-9.96202 -0.00240878 -0.00066476 
-0.00240878 -9.96558 0.00449895 
-0.00066476 0.00449895 -9.98613 
-9.97195 -0.000919849 0.000444905 
-0.000919849 -9.97017 -0.00296361 
0.000444905 -0.00296361 -9.97161 
-9.96747 -0.0020455 -0.00128928 
-0.0020455 -9.96649 0.0105259 
-0.00128928 0.0105259 -9.97977 
-9.96949 0.00424334 0.00864823 
0.00424334 -9.97209 -0.000950271 
0.00864823 -0.000950271 -9.97215 
-9.97069 0.000376546 -0.0534129 
0.000376546 -9.97016 -0.00955693 
-0.0534129 -0.00955693 -9.9608 
-9.97497 -0.00274626 -0.0518802 
-0.00274626 -9.97052 -0.0173042 
-0.0518802 -0.0173042 -9.95617 
-9.97851 0.00307299 -0.0542244 
0.00307299 -9.9769 -0.00842073 
-0.0542244 -0.00842073 -9.94625 
-9.97003 -0.00162429 -0.0541095 
-0.00162429 -9.97311 -0.0176227 
-0.0541095 -0.0176227 -9.95851 
-9.95866 0.00391056 0.065967 
0.00391056 -9.97435 0.00656817 
0.065967 0.00656817 -9.97257 
-9.96901 -0.000900481 0.0759978 
-0.000900481 -9.96793 0.00773936 
0.0759978 0.00773936 -9.96865 
-9.9755 0.000996338 0.074176 
0.000996338 -9.97173 0.00562772 
0.074176 0.00562772 -9.95836 
-9.97193 -0.000909163 0.0745123 
-0.000909163 -9.96882 0.00976001 
0.0745123 0.00976001 -9.96483 
-9.8004 -0.0435224 0.133834 
-0.0435224 -10.0806 0.0636458 
0.133834 0.0636458 -10.2052 
-10.0101 -0.0131876 0.0515548 
-0.0131876 -9.83462 0.0352395 
0.0515548 0.0352395 -10.2414 
-9.76023 0.0401472 0.271262 
0.0401472 -10.1362 -0.0489878 
0.271262 -0.0489878 -10.1897 
-9.74306 0.0394505 0.0796208 
0.0394505 -9.96836 0.0357779 
0.0796208 0.0357779 -10.3747 
-9.97914 0.00316944 0.00281867 
0.00316944 -9.98423 0.0627686 
0.00281867 0.0627686 -9.97457 
-9.9808 -0.00380119 0.00339558 
-0.00380119 -9.98484 0.0608318 
0.00339558 0.0608318 -9.97231 
-9.9753 -0.00867619 0.00320677 
-0.00867619 -9.98149 0.0637347 
0.00320677 0.0637347 -9.98115 
-9.98048 -0.000402681 0.00336034 
-0.000402681 -9.98276 0.0595947 
0.00336034 0.0595947 -9.9747 
-9.91852 0.00190895 -0.0741147 
0.00190895 -9.90956 -0.0209436 
-0.0741147 -0.0209436 -9.89412 
-9.91943 0.00225506 -0.0688248 
0.00225506 -9.94566 -0.0306283 
-0.0688248 -0.0306283 -9.8571 
-9.91134 0.00874011 -0.062036 
0.00874011 -9.93774 -0.0415447 
-0.062036 -0.0415447 -9.87311 
-9.91528 0.00323005 -0.0792578 
0.00323005 -9.93684 -0.0313062 
-0.0792578 -0.0313062 -9.87007 
-9.75472 0.347294 -0.184486 
0.347294 -9.87605 -0.0493111 
-0.184486 -0.0493111 -10.0781 
-9.97193 0.151966 -0.0235548 
0.151966 -9.78397 -0.064305 
-0.0235548 -0.064305 -9.95302 
-9.87909 0.195935 -0.0207716 
0.195935 -9.80113 -0.0100097 
-0.0207716 -0.0100097 -10.0287 
-9.7626 0.113998 0.0459567 
0.113998 -9.95078 0.0417472 
0.0459567 0.0417472 -9.99555 
-9.90439 -0.0262185 -0.0662369 
-0.0262185 -9.91656 0.0442287 
-0.0662369 0.0442287 -9.91311 
-9.8989 -0.0127666 -0.0846538 
-0.0127666 -9.91789 0.0282049 
-0.0846538 0.0282049 -9.91728 
-9.92803 -0.00572031 -0.0794062 
-0.00572031 -9.90839 0.00654384 
-0.0794062 0.00654384 -9.89765 
-9.90523 -0.0162078 -0.0859475 
-0.0162078 -9.90642 0.0350964 
-0.0859475 0.0350964 -9.92242 
-9.90556 -0.00392768 -0.00517683 
-0.00392768 -9.90172 -0.0634797 
-0.00517683 -0.0634797 -9.86143 
-9.92132 -0.00165307 -0.00826851 
-0.00165307 -9.90711 -0.0641436 
-0.00826851 -0.0641436 -9.84028 
-9.9181 2.58432e-05 -0.00793929 
2.58432e-05 -9.88799 -0.0731772 
-0.00793929 -0.0731772 -9.86261 
-9.91184 -0.00524127 -0.00503127 
-0.00524127 -9.9003 -0.0692467 
-0.00503127 -0.0692467 -9.85657 
-9.97637 0.00346017 -0.00774693 
0.00346017 -9.9888 -0.0446648 
-0.00774693 -0.0446648 -9.97095 
-9.97722 -0.000529643 -0.00928221 
-0.000529643 -9.98943 -0.0373631 
-0.00928221 -0.0373631 -9.96947 
-9.98754 -0.0101974 -0.00810796 
-0.0101974 -9.96274 -0.0377966 
-0.00810796 -0.0377966 -9.98583 
-9.98695 -0.0025794 -0.00392072 
-0.0025794 -9.98216 -0.0376198 
-0.00392072 -0.0376198 -9.96701 
-9.94155 0.00167665 0.0171385 
0.00167665 -9.94705 -0.0453208 
0.0171385 -0.0453208 -9.90022 
-9.94572 -0.000698932 0.000654774 
-0.000698932 -9.94703 -0.0454566 
0.000654774 -0.0454566 -9.89608 
-9.91787 -0.00908314 0.0249096 
-0.00908314 -9.93929 -0.0624231 
0.0249096 -0.0624231 -9.93167 
-9.96963 0.0046842 0.0289149 
0.0046842 -9.94994 -0.0713584 
0.0289149 -0.0713584 -9.86926 
-9.90787 -0.240904 -0.0602951 
-0.240904 -9.87619 -0.362278 
-0.0602951 -0.362278 -9.82189 
-9.9817 -0.114938 0.0728942 
-0.114938 -10.0541 -0.401774 
0.0728942 -0.401774 -9.57011 
-9.85558 -0.0627681 0.0997758 
-0.0627681 -9.83894 -0.205108 
0.0997758 -0.205108 -9.91143 
-9.79245 -0.0858489 0.0894484 
-0.0858489 -10.1732 -0.434636 
0.0894484 -0.434636 -9.64026 
-9.90185 0.0142678 -0.0233213 
0.0142678 -9.83515 -0.00978333 
-0.0233213 -0.00978333 -9.99811 
-9.88327 -0.0685175 0.0321796 
-0.0685175 -9.79746 -0.0724733 
0.0321796 -0.0724733 -10.0544 
-9.87948 -0.078575 0.0132357 
-0.078575 -9.93512 0.0150774 
0.0132357 0.0150774 -9.9205 
-9.94318 -0.0587424 0.160908 
-0.0587424 -9.91959 -0.0113362 
0.160908 -0.0113362 -9.87235 
-9.89371 -0.0215701 -0.0483441 
-0.0215701 -9.93443 0.110796 
-0.0483441 0.110796 -10.0703 
-9.90712 -0.0655703 -0.0339712 
-0.0655703 -9.88095 0.00458509 
-0.0339712 0.00458509 -10.1104 
-10.0611 -0.0450184 0.067561 
-0.0450184 -9.9509 -0.114207 
0.067561 -0.114207 -9.88642 
-9.93701 -0.119121 -0.00446411 
-0.119121 -9.85935 0.0155147 
-0.00446411 0.0155147 -10.1021 
-9.88502 0.00633888 0.0185552 
0.00633888 -9.84132 0.0782661 
0.0185552 0.0782661 -10.0739 
-9.89316 0.0235472 0.000253012 
0.0235472 -9.87834 0.0872306 
0.000253012 0.0872306 -10.0287 
-9.90912 -0.00612816 -0.00999828 
-0.00612816 -9.8996 0.104701 
-0.00999828 0.104701 -9.99148 
-9.91386 -0.0150294 -0.00514917 
-0.0150294 -9.90581 0.0183541 
-0.00514917 0.0183541 -9.98054 
-9.95373 0.00500832 0.0527937 
0.00500832 -9.95111 -0.0568693 
0.0527937 -0.0568693 -9.95188 
-9.94416 -0.0050772 0.0519303 
-0.0050772 -9.95251 -0.0573674 
0.0519303 -0.0573674 -9.96005 
-9.94655 -0.00788243 0.0480502 
-0.00788243 -9.95619 -0.0562555 
0.0480502 -0.0562555 -9.95397 
-9.94458 0.00441075 0.0514333 
0.00441075 -9.95543 -0.0574502 
0.0514333 -0.0574502 -9.9567 
-10.2874 -0.0525986 0.0267705 
-0.0525986 -10.3074 -0.00779827 
0.0267705 -0.00779827 -10.1044 
-10.214 0.0233126 0.0240535 
0.0233126 -10.1536 -0.0132505 
0.0240535 -0.0132505 -10.3315 
-10.1742 -0.0746021 0.0584412 
-0.0746021 -10.1492 -0.0557361 
0.0584412 -0.0557361 -10.3757 
-10.1897 -0.089035 -0.0955603 
-0.089035 -10.2326 -0.147355 
-0.0955603 -0.147355 -10.2768 
-9.95991 -0.00501019 -0.00796119 
-0.00501019 -9.96055 0.0839608 
-0.00796119 0.0839608 -9.92715 
-9.94572 0.00675819 0.00620097 
0.00675819 -9.95058 0.0741921 
0.00620097 0.0741921 -9.9513 
-9.93582 -0.00413166 0.0143538 
-0.00413166 -9.93566 0.0791117 
0.0143538 0.0791117 -9.97612 
-9.95238 0.00779234 0.00413872 
0.00779234 -9.9473 0.074284 
0.00413872 0.074284 -9.94792 
-9.87864 0.0215286 -0.0468884 
0.0215286 -9.93845 0.00311289 
-0.0468884 0.00311289 -10.1626 
-9.97189 -0.0204177 0.0536905 
-0.0204177 -10.0365 0.00145815 
0.0536905 0.00145815 -9.97127 
-9.84021 -0.00671195 0.0357178 
-0.00671195 -9.95944 0.036728 
0.0357178 0.036728 -10.18 
-9.88688 -0.0185526 -0.000760445 
-0.0185526 -9.98597 0.0332359 
-0.000760445 0.0332359 -10.1068 
-9.96621 -0.012649 0.0380688 
-0.012649 -9.9556 0.0376808 
0.0380688 0.0376808 -9.96093 
-9.95868 -0.0105176 0.0403151 
-0.0105176 -9.95911 0.0363141 
0.0403151 0.0363141 -9.96496 
-9.96998 0.000147346 0.0407621 
0.000147346 -9.95041 0.0460244 
0.0407621 0.0460244 -9.96236 
-9.9648 -0.00355 0.0366668 
-0.00355 -9.95342 0.041791 
0.0366668 0.041791 -9.96453 
-9.92563 0.0137852 -0.0494731 
0.0137852 -9.93286 -0.0416751 
-0.0494731 -0.0416751 -9.95063 
-9.93135 0.00266584 -0.0560886 
0.00266584 -9.93223 -0.0416538 
-0.0560886 -0.0416538 -9.94554 
-9.94792 -0.0112602 -0.0576701 
-0.0112602 -9.92334 -0.0429613 
-0.0576701 -0.0429613 -9.93786 
-9.92009 -0.00999166 -0.0550676 
-0.00999166 -9.93704 -0.0469895 
-0.0550676 -0.0469895 -9.95198 
-9.95366 -0.00199847 -0.0609537 
-0.00199847 -9.94965 -0.044444 
-0.0609537 -0.044444 -9.95168 
-9.94673 0.00671366 -0.0635713 
0.00671366 -9.94522 -0.0428921 
-0.0635713 -0.0428921 -9.96304 
-9.95462 0.00372705 -0.065061 
0.00372705 -9.95145 -0.0407206 
-0.065061 -0.0407206 -9.94893 
-9.95549 -0.000700473 -0.0598804 
-0.000700473 -9.94683 -0.04216 
-0.0598804 -0.04216 -9.95268 
-9.89797 0.00699253 -0.0320343 
0.00699253 -9.96049 -0.0378278 
-0.0320343 -0.0378278 -9.9801 
-9.92505 -0.0419126 -0.041722 
-0.0419126 -10.0029 -0.0137691 
-0.041722 -0.0137691 -9.91065 
-9.9357 0.098933 -0.010778 
0.098933 -9.83585 -0.0202001 
-0.010778 -0.0202001 -10.067 
-9.85404 0.0310138 -0.0821692 
0.0310138 -9.97399 -0.116899 
-0.0821692 -0.116899 -10.0105 
-9.8497 0.036068 0.0521708 
0.036068 -9.77019 0.154447 
0.0521708 0.154447 -10.0006 
-9.87289 0.108008 0.0392303 
0.108008 -9.67833 0.022571 
0.0392303 0.022571 -10.0693 
-9.99002 0.126294 -0.180448 
0.126294 -9.79315 -0.186007 
-0.180448 -0.186007 -9.83735 
-9.9199 0.105426 0.0474583 
0.105426 -9.6715 0.0190489 
0.0474583 0.0190489 -10.0291 
-9.92612 -0.00942782 0.0305563 
-0.00942782 -10.0103 -0.0055629 
0.0305563 -0.0055629 -10.1976 
-9.91594 0.0111718 0.04108 
0.0111718 -9.98078 0.0207906 
0.04108 0.0207906 -10.2374 
-9.97494 0.0103055 -0.0243596 
0.0103055 -10.0064 -0.0159812 
-0.0243596 -0.0159812 -10.1528 
-9.96659 0.00018218 0.027216 
0.00018218 -10.0114 0.0202252 
0.027216 0.0202252 -10.156 
-11.5114 -0.182872 0.191541 
-0.182872 -9.00567 -0.217821 
0.191541 -0.217821 -10.7595 
-8.99478 -0.150655 1.37808 
-0.150655 -11.5667 -0.25055 
1.37808 -0.25055 -10.7151 
-8.88984 -0.0432307 0.16331 
-0.0432307 -10.3155 -0.0212321 
0.16331 -0.0212321 -12.0713 
-10.5341 0.358599 0.926209 
0.358599 -9.60578 -1.90755 
0.926209 -1.90755 -11.1367 
-9.97092 0.000151174 0.0561476 
0.000151174 -9.98364 0.00711449 
0.0561476 0.00711449 -9.98125 
-9.97699 0.000609444 0.0572777 
0.000609444 -9.98848 0.00504795 
0.0572777 0.00504795 -9.97034 
-9.98304 -0.000674217 0.0581633 
-0.000674217 -9.97686 0.00893728 
0.0581633 0.00893728 -9.97592 
-9.98257 0.000797422 0.0589878 
0.000797422 -9.97878 0.00848591 
0.0589878 0.00848591 -9.97446 
-9.9201 -0.0146752 -0.00383462 
-0.0146752 -9.89741 0.0636003 
-0.00383462 0.0636003 -10.036 
-9.92341 -0.0137853 -0.00585996 
-0.0137853 -9.85953 0.0687008 
-0.00585996 0.0687008 -10.0706 
-9.92027 -0.0125575 0.010234 
-0.0125575 -9.91841 0.082232 
0.010234 0.082232 -10.0148 
-9.90898 -0.00763735 8.08749e-05 
-0.00763735 -9.92843 0.0291599 
8.08749e-05 0.0291599 -10.0161 
-9.90506 -0.0212905 0.0653803 
-0.0212905 -9.9028 -0.0375637 
0.0653803 -0.0375637 -9.93158 
-9.92905 0.0211177 0.0382673 
0.0211177 -9.914 -0.0302966 
0.0382673 -0.0302966 -9.89639 
-9.9059 -0.00641229 0.0502804 
-0.00641229 -9.90742 -0.0390171 
0.0502804 -0.0390171 -9.92612 
-9.90371 -0.0167342 0.0539325 
-0.0167342 -9.90167 -0.0253753 
0.0539325 -0.0253753 -9.93406 
-9.94801 0.00475304 0.0530186 
0.00475304 -9.94396 0.0467918 
0.0530186 0.0467918 -9.96589 
-9.95573 0.00722869 0.0535843 
0.00722869 -9.95076 0.0463629 
0.0535843 0.0463629 -9.95136 
-9.94931 -0.0064894 0.0480492 
-0.0064894 -9.95379 0.0524036 
0.0480492 0.0524036 -9.95475 
-9.95339 -0.00453386 0.0509996 
-0.00453386 -9.94661 0.0468876 
0.0509996 0.0468876 -9.95785 
-9.87208 0.227141 -0.306087 
0.227141 -9.85565 0.11329 
-0.306087 0.11329 -9.01753 
-9.74894 0.172065 -0.114783 
0.172065 -9.99598 -0.128888 
-0.114783 -0.128888 -9.00035 
-9.87018 0.494209 0.0906831 
0.494209 -9.9761 -0.21552 
0.0906831 -0.21552 -8.89899 
-9.32885 -0.213914 -0.174286 
-0.213914 -9.98831 -0.160015 
-0.174286 -0.160015 -9.42812 
-9.97785 -0.00432839 -0.00512456 
-0.00432839 -9.97453 -0.00274792 
-0.00512456 -0.00274792 -9.98895 
-9.97826 -0.00283581 -0.00694293 
-0.00283581 -9.9752 -0.000366881 
-0.00694293 -0.000366881 -9.98787 
-9.97126 -0.00211657 -0.00565775 
-0.00211657 -9.98115 -0.000162996 
-0.00565775 -0.000162996 -9.98893 
-9.98565 -0.00476345 0.00276644 
-0.00476345 -9.9725 0.000107045 
0.00276644 0.000107045 -9.98319 
-10.0409 0.00287918 -0.0606558 
0.00287918 -10.1926 -0.0272177 
-0.0606558 -0.0272177 -9.92902 
-9.92075 0.0308376 0.0552016 
0.0308376 -9.82862 0.0432473 
0.0552016 0.0432473 -10.4131 
-10.0827 -0.0837812 -0.0401258 
-0.0837812 -10.0945 0.022506 
-0.0401258 0.022506 -9.98533 
-10.0427 -0.096945 -0.140238 
-0.096945 -10.1325 0.207978 
-0.140238 0.207978 -9.98731 
-9.86493 0.0029853 0.0497222 
0.0029853 -9.95491 0.0335623 
0.0497222 0.0335623 -10.0472 
-9.90216 0.0234178 0.0585257 
0.0234178 -9.92392 0.0259719 
0.0585257 0.0259719 -10.041 
-9.89063 -0.0235703 0.057028 
-0.0235703 -9.93415 0.0272561 
0.057028 0.0272561 -10.0423 
-9.87479 0.00977908 0.0483417 
0.00977908 -9.93563 0.046643 
0.0483417 0.046643 -10.0566 
-10.022 -0.161332 0.0280534 
-0.161332 -9.44297 0.229199 
0.0280534 0.229199 -10.1147 
-9.98535 -0.119595 -0.0969441 
-0.119595 -9.41671 0.346699 
-0.0969441 0.346699 -10.1776 
-10.1073 0.0276273 0.0176714 
0.0276273 -9.82822 0.27255 
0.0176714 0.27255 -9.64417 
-9.94571 -0.14118 0.0849249 
-0.14118 -9.75364 0.326551 
0.0849249 0.326551 -9.88034 
-9.97306 0.013943 -0.0161029 
0.013943 -9.78187 0.0608346 
-0.0161029 0.0608346 -9.91352 
-9.89218 0.0461297 0.0130562 
0.0461297 -9.86339 -0.0886605 
0.0130562 -0.0886605 -9.91289 
-9.92776 0.0309919 -0.0392194 
0.0309919 -9.83074 -0.0936046 
-0.0392194 -0.0936046 -9.90995 
-9.89517 0.0263739 0.0130012 
0.0263739 -9.74909 -0.027365 
0.0130012 -0.027365 -10.0242 
-9.9246 -0.0461918 0.0286091 
-0.0461918 -9.94664 -0.267036 
0.0286091 -0.267036 -9.83009 
-10.0001 -0.149654 0.0776986 
-0.149654 -9.81311 -0.302434 
0.0776986 -0.302434 -9.88813 
-9.9535 0.0347663 -0.0732598 
0.0347663 -9.9121 -0.29953 
-0.0732598 -0.29953 -9.83574 
-9.88103 -0.147578 0.0757319 
-0.147578 -9.89057 -0.118507 
0.0757319 -0.118507 -9.92974 
-10.2253 -0.0240988 -0.014967 
-0.0240988 -10.1722 0.00422938 
-0.014967 0.00422938 -10.1819 
-10.1891 -0.0246908 -0.00854551 
-0.0246908 -10.2722 0.024029 
-0.00854551 0.024029 -10.1181 
-10.1228 0.0325849 -0.0325912 
0.0325849 -10.1806 -0.0320705 
-0.0325912 -0.0320705 -10.2759 
-10.167 -0.0210846 -0.0509594 
-0.0210846 -10.2179 0.00878674 
-0.0509594 0.00878674 -10.1944 
-10.078 -0.0504628 0.189035 
-0.0504628 -9.92042 -0.155032 
0.189035 -0.155032 -9.92881 
-10.0675 0.00999895 0.120729 
0.00999895 -9.85588 -0.150145 
0.120729 -0.150145 -10.0038 
-10.0465 -0.101546 0.0108198 
-0.101546 -9.84863 -0.27287 
0.0108198 -0.27287 -10.0321 
-10.0044 0.0639658 0.121999 
0.0639658 -9.86276 -0.163607 
0.121999 -0.163607 -10.06 
-10.0246 0.109788 0.227881 
0.109788 -9.87882 0.00704382 
0.227881 0.00704382 -9.97367 
-9.9577 0.0711431 0.166891 
0.0711431 -9.93863 0.0766009 
0.166891 0.0766009 -9.98077 
-9.9946 0.0921212 0.0843113 
0.0921212 -9.88242 0.120891 
0.0843113 0.120891 -10.0001 
-9.83554 0.095657 -0.0326119 
0.095657 -10.0513 -0.0654308 
-0.0326119 -0.0654308 -9.9902 
-9.89237 -0.0108828 -0.0223069 
-0.0108828 -9.9325 0.0187502 
-0.0223069 0.0187502 -9.92141 
-9.90934 0.0122968 -0.00826443 
0.0122968 -9.95608 0.00918179 
-0.00826443 0.00918179 -9.88087 
-9.91031 -0.0604223 -0.0293672 
-0.0604223 -9.87838 0.0791928 
-0.0293672 0.0791928 -9.9576 
-9.87788 -0.036142 -0.00919053 
-0.036142 -9.88724 0.0221795 
-0.00919053 0.0221795 -9.98117 
-9.86398 -0.0559958 0.00331556 
-0.0559958 -9.82833 -0.0523971 
0.00331556 -0.0523971 -10.0836 
-9.91061 -0.0612475 0.0330692 
-0.0612475 -9.88238 -0.0763824 
0.0330692 -0.0763824 -9.98294 
-9.92247 -0.0538468 0.0313826 
-0.0538468 -9.8868 -0.0425459 
0.0313826 -0.0425459 -9.96665 
-9.9098 -0.0662821 0.040679 
-0.0662821 -9.87965 -0.0613838 
0.040679 -0.0613838 -9.98648 
-10.0577 0.0184148 0.0577019 
0.0184148 -10.0392 0.0102051 
0.0577019 0.0102051 -10.1928 
-10.1613 -0.0350135 -0.0177646 
-0.0350135 -10.043 -0.0106 
-0.0177646 -0.0106 -10.0854 
-10.1454 -0.00472171 -0.0236254 
-0.00472171 -10.1326 -0.020727 
-0.0236254 -0.020727 -10.0116 
-10.0446 -0.00370593 -0.0457367 
-0.00370593 -10.11 0.049799 
-0.0457367 0.049799 -10.1351 
-9.97475 -0.0027239 -0.0483585 
-0.0027239 -9.98048 -0.0514745 
-0.0483585 -0.0514745 -9.97673 
-9.97282 0.00344752 -0.0570585 
0.00344752 -9.97827 -0.0546361 
-0.0570585 -0.0546361 -9.98088 
-9.97263 -0.00265934 -0.0492217 
-0.00265934 -9.97431 -0.0520372 
-0.0492217 -0.0520372 -9.98503 
-9.96889 -0.00353893 -0.0544289 
-0.00353893 -9.98778 -0.0509391 
-0.0544289 -0.0509391 -9.9753 
-9.87866 0.0178265 0.075106 
0.0178265 -9.91263 0.0381136 
0.075106 0.0381136 -9.92226 
-9.89151 0.0162676 0.0669528 
0.0162676 -9.89419 0.0145082 
0.0669528 0.0145082 -9.92786 
-9.89147 0.0199383 0.0736647 
0.0199383 -9.89718 0.0257892 
0.0736647 0.0257892 -9.92491 
-9.8864 0.0325516 0.0765165 
0.0325516 -9.8929 0.0259735 
0.0765165 0.0259735 -9.93426 
-9.78395 0.0193833 -0.0193363 
0.0193833 -9.88366 0.0298105 
-0.0193363 0.0298105 -10.044 
-9.86636 -0.0927339 -0.0259795 
-0.0927339 -9.90813 -0.0194307 
-0.0259795 -0.0194307 -9.93712 
-9.95535 -0.0147518 -0.0866742 
-0.0147518 -9.87922 0.0435985 
-0.0866742 0.0435985 -9.87704 
-9.84427 0.0121424 -0.0644158 
0.0121424 -9.83718 0.12646 
-0.0644158 0.12646 -10.0302 
-9.1021 0.35833 0.388777 
0.35833 -9.26134 -0.636594 
0.388777 -0.636594 -9.75126 
-10.1307 0.0564239 1.05101 
0.0564239 -9.71576 0.86089 
1.05101 0.86089 -8.26825 
-9.58862 0.33825 1.41016 
0.33825 -10.1587 -0.301365 
1.41016 -0.301365 -8.36736 
-8.93265 -0.226525 0.740701 
-0.226525 -10.0978 0.0471726 
0.740701 0.0471726 -9.08424 
-9.92844 -0.00966588 -0.0503285 
-0.00966588 -9.93781 0.0447752 
-0.0503285 0.0447752 -9.94519 
-9.94844 0.00549137 -0.054142 
0.00549137 -9.92427 0.0439824 
-0.054142 0.0439824 -9.93873 
-9.93284 -0.00224867 -0.0546701 
-0.00224867 -9.93228 0.0452649 
-0.0546701 0.0452649 -9.94632 
-9.93397 0.00863092 -0.0530341 
0.00863092 -9.93132 0.044582 
-0.0530341 0.044582 -9.94616 
-9.98774 0.00051836 0.02051 
0.00051836 -9.97312 -0.013885 
0.02051 -0.013885 -9.99093 
-9.98112 0.00864693 0.0179532 
0.00864693 -9.98495 -0.00948093 
0.0179532 -0.00948093 -9.98571 
-9.98221 0.00494328 0.0231159 
0.00494328 -9.98587 -0.0122414 
0.0231159 -0.0122414 -9.9837 
-9.99346 -0.000852224 0.0111642 
-0.000852224 -9.97777 -0.0155915 
0.0111642 -0.0155915 -9.98055 
-10.8132 0.14099 -0.0540622 
0.14099 -10.7929 0.250651 
-0.0540622 0.250651 -9.34801 
-10.1543 0.19969 0.115697 
0.19969 -9.8997 -0.140137 
0.115697 -0.140137 -10.9002 
-10.2172 0.127509 -0.104955 
0.127509 -10.1055 -0.204336 
-0.104955 -0.204336 -10.6315 
-10.2478 0.0803019 -0.417493 
0.0803019 -10.0353 0.127234 
-0.417493 0.127234 -10.6711 
-10.7179 0.2868 -0.170821 
0.2868 -10.9191 0.205831 
-0.170821 0.205831 -10.4159 
-10.6593 0.349935 -0.255288 
0.349935 -10.4454 -0.306144 
-0.255288 -0.306144 -10.9481 
-10.7296 -0.157883 -0.0853531 
-0.157883 -10.3117 -0.17535 
-0.0853531 -0.17535 -11.0115 
-10.5875 0.475507 0.077775 
0.475507 -10.8417 -0.252361 
0.077775 -0.252361 -10.6236 
-9.79472 0.48548 -0.109866 
0.48548 -9.68131 -0.112254 
-0.109866 -0.112254 -10.3407 
-9.84473 -0.459288 -0.0821029 
-0.459288 -10.1943 -0.0570187 
-0.0821029 -0.0570187 -9.77765 
-9.40107 0.427711 -0.979361 
0.427711 -9.839 -0.53679 
-0.979361 -0.53679 -10.5766 
-9.77009 0.259152 -0.1968 
0.259152 -9.92669 -0.351905 
-0.1968 -0.351905 -10.1199 
-9.89985 -0.0205169 0.164907 
-0.0205169 -9.77273 0.0868352 
0.164907 0.0868352 -9.97512 
-9.94818 -0.0144497 0.0346869 
-0.0144497 -9.8325 0.12806 
0.0346869 0.12806 -9.86702 
-9.81729 0.0697312 0.140018 
0.0697312 -9.91598 0.0471822 
0.140018 0.0471822 -9.91443 
-9.83975 0.0687572 0.0786703 
0.0687572 -9.87336 0.0744298 
0.0786703 0.0744298 -9.93459 
-9.82467 -0.0132025 -0.0632326 
-0.0132025 -9.75859 -0.0769613 
-0.0632326 -0.0769613 -10.0841 
-9.84783 0.0102632 -0.0111455 
0.0102632 -9.90965 -0.0787485 
-0.0111455 -0.0787485 -9.9099 
-9.90313 -0.00511641 -0.135434 
-0.00511641 -9.80119 -0.0732474 
-0.135434 -0.0732474 -9.96306 
-9.81585 -0.0885653 -0.0511082 
-0.0885653 -9.87247 -0.0504293 
-0.0511082 -0.0504293 -9.97906 
-9.8845 0.0221298 -0.175608 
0.0221298 -9.84312 0.0613325 
-0.175608 0.0613325 -9.87271 
-9.86001 -0.00260379 0.0789866 
-0.00260379 -9.75661 0.13185 
0.0789866 0.13185 -9.98371 
-9.90031 0.0680632 0.115245 
0.0680632 -9.64134 -0.0271625 
0.115245 -0.0271625 -10.0587 
-9.93924 0.126344 -0.0412548 
0.126344 -9.72523 0.187171 
-0.0412548 0.187171 -9.93585 
-9.93174 -0.00835779 -0.118368 
-0.00835779 -9.88707 -0.0869957 
-0.118368 -0.0869957 -9.85495 
-9.91283 0.0206813 -0.0799761 
0.0206813 -9.88944 -0.104225 
-0.0799761 -0.104225 -9.87149 
-9.93533 -0.0297079 -0.110852 
-0.0297079 -9.83438 -0.0645458 
-0.110852 -0.0645458 -9.90405 
-9.90433 -0.00576328 -0.0615049 
-0.00576328 -9.92477 -0.0955061 
-0.0615049 -0.0955061 -9.84467 
-12.0275 0.0500876 0.549479 
0.0500876 -8.80459 0.44763 
0.549479 0.44763 -9.98797 
-7.72914 -0.650827 1.08434 
-0.650827 -11.5727 1.51373 
1.08434 1.51373 -11.5182 
-9.573 0.246317 -0.85323 
0.246317 -10.4129 -0.464457 
-0.85323 -0.464457 -10.8341 
-10.191 -0.31272 -0.14097 
-0.31272 -9.41605 -0.806144 
-0.14097 -0.806144 -11.213 
-9.8745 0.0358543 -0.0438789 
0.0358543 -9.85003 0.0148093 
-0.0438789 0.0148093 -10.1235 
-9.8747 0.0257572 0.010833 
0.0257572 -9.93633 0.0723102 
0.010833 0.0723102 -10.037 
-9.95394 0.0245808 0.070069 
0.0245808 -9.96927 -0.00181604 
0.070069 -0.00181604 -9.92477 
-9.95798 0.0300588 0.0314612 
0.0300588 -9.89505 0.0676531 
0.0314612 0.0676531 -9.99495 
-9.95649 0.00922733 0.0744732 
0.00922733 -9.95405 0.0253674 
0.0744732 0.0253674 -9.9641 
-9.95114 0.00690638 0.0737165 
0.00690638 -9.95529 0.0306816 
0.0737165 0.0306816 -9.96821 
-9.97039 -0.00876353 0.0742645 
-0.00876353 -9.95644 0.0326958 
0.0742645 0.0326958 -9.94781 
-9.96082 0.00517109 0.0656802 
0.00517109 -9.96135 0.0237187 
0.0656802 0.0237187 -9.95247 
-9.98513 -0.00123109 -0.00246158 
-0.00123109 -9.98617 0.00165547 
-0.00246158 0.00165547 -9.99208 
-9.98112 -0.000964564 -0.00564932 
-0.000964564 -9.98151 -0.000366209 
-0.00564932 -0.000366209 -10.0007 
-9.98271 -0.00137925 -0.000566582 
-0.00137925 -9.98222 -0.00124616 
-0.000566582 -0.00124616 -9.99843 
-9.98515 -0.00184557 -0.00164341 
-0.00184557 -9.98753 0.00371705 
-0.00164341 0.00371705 -9.99068 
-9.92865 -0.0403119 0.00785148 
-0.0403119 -9.8949 -0.0193788 
0.00785148 -0.0193788 -9.99535 
-9.9278 -0.048522 0.000304318 
-0.048522 -9.92743 -0.0652154 
0.000304318 -0.0652154 -9.96368 
-9.94403 -0.0566897 -0.0141169 
-0.0566897 -9.89106 -0.0217326 
-0.0141169 -0.0217326 -9.98382 
-9.95011 -0.0227667 0.0078063 
-0.0227667 -9.92982 -0.0456506 
0.0078063 -0.0456506 -9.93898 
-9.91885 -0.00546462 -0.0636615 
-0.00546462 -9.89729 0.0460591 
-0.0636615 0.0460591 -9.9423 
-9.91999 -0.0409609 -0.0631677 
-0.0409609 -9.86798 0.0629541 
-0.0631677 0.0629541 -9.97047 
-9.91591 -0.0112069 -0.0582051 
-0.0112069 -9.89871 0.0399458 
-0.0582051 0.0399458 -9.94382 
-9.91257 0.00150322 -0.0659573 
0.00150322 -9.91262 0.0576297 
-0.0659573 0.0576297 -9.93325 
-9.98865 -0.00176761 -0.0278444 
-0.00176761 -9.98736 -0.0197962 
-0.0278444 -0.0197962 -10.0024 
-9.99533 -0.00393261 -0.0247584 
-0.00393261 -9.9917 -0.0182899 
-0.0247584 -0.0182899 -9.99134 
-9.99323 0.00321042 -0.0248243 
0.00321042 -9.98592 -0.0207312 
-0.0248243 -0.0207312 -9.99923 
-9.99353 -0.00225868 -0.0249603 
-0.00225868 -9.99531 -0.0191895 
-0.0249603 -0.0191895 -9.98953 
-9.61845 0.375769 -0.398601 
0.375769 -10.2052 -0.184728 
-0.398601 -0.184728 -9.53934 
-9.77207 0.130557 -0.245995 
0.130557 -9.98148 -0.069799 
-0.245995 -0.069799 -9.60946 
-9.46618 -0.0361976 -0.23504 
-0.0361976 -10.0667 0.0172107 
-0.23504 0.0172107 -9.83008 
-10.2348 0.288661 -0.130093 
0.288661 -9.37693 -0.219613 
-0.130093 -0.219613 -9.75125 
-8.90596 -0.306004 -1.79228 
-0.306004 -10.1503 -0.25899 
-1.79228 -0.25899 -10.1471 
-10.2218 -0.145821 -1.16335 
-0.145821 -10.4565 0.655646 
-1.16335 0.655646 -8.52502 
-11.477 0.83595 -1.39949 
0.83595 -8.70318 0.175285 
-1.39949 0.175285 -9.02314 
-9.45645 -1.03223 -0.0680808 
-1.03223 -9.03608 -0.318317 
-0.0680808 -0.318317 -10.7108 
-9.91878 -0.000113026 -0.0465695 
-0.000113026 -9.92644 0.0429044 
-0.0465695 0.0429044 -9.92444 
-9.92307 0.00433981 -0.0499733 
0.00433981 -9.92862 0.0431095 
-0.0499733 0.0431095 -9.91797 
-9.92315 0.0108665 -0.056298 
0.0108665 -9.92661 0.0560227 
-0.056298 0.0560227 -9.91989 
-9.92722 0.0103366 -0.0466909 
0.0103366 -9.92371 0.0551331 
-0.0466909 0.0551331 -9.91873 
-9.95774 -0.000991378 0.044283 
-0.000991378 -9.95575 0.0527849 
0.044283 0.0527849 -9.96691 
-9.95968 0.000213718 0.0457145 
0.000213718 -9.96021 0.0484162 
0.0457145 0.0484162 -9.96051 
-9.95985 -0.00383944 0.0475574 
-0.00383944 -9.95446 0.0545015 
0.0475574 0.0545015 -9.9661 
-9.96138 0.000804369 0.0483566 
0.000804369 -9.95755 0.0513738 
0.0483566 0.0513738 -9.96148 
-9.99225 0.0030349 0.0415673 
0.0030349 -9.99584 0.0183883 
0.0415673 0.0183883 -9.99062 
-9.99625 0.00292959 0.0444092 
0.00292959 -9.99321 0.0194821 
0.0444092 0.0194821 -9.98926 
-9.98415 -0.000191015 0.0354941 
-0.000191015 -9.98191 0.0213663 
0.0354941 0.0213663 -10.0127 
-9.99715 0.000140358 0.0400789 
0.000140358 -9.9956 0.0221704 
0.0400789 0.0221704 -9.98597 
-9.98035 -0.00160115 0.00629296 
-0.00160115 -9.98029 0.00383409 
0.00629296 0.00383409 -9.98821 
-9.97312 -0.0034853 0.00404824 
-0.0034853 -9.98341 -0.00132238 
0.00404824 -0.00132238 -9.99233 
-9.98527 -0.00477164 0.00379079 
-0.00477164 -9.96797 0.00636422 
0.00379079 0.00636422 -9.99561 
-9.98651 -0.000220738 -0.0115164 
-0.000220738 -9.97086 0.00148045 
-0.0115164 0.00148045 -9.99148 
-9.94248 -0.00987625 0.0153794 
-0.00987625 -9.92664 0.00243357 
0.0153794 0.00243357 -9.9863 
-9.94128 -0.0152606 0.011878 
-0.0152606 -9.93971 0.00734015 
0.011878 0.00734015 -9.97443 
-9.93683 -0.0016544 -0.0134209 
-0.0016544 -9.94797 0.00632363 
-0.0134209 0.00632363 -9.97062 
-9.92947 -0.0114009 -0.000711305 
-0.0114009 -9.9479 0.0233194 
-0.000711305 0.0233194 -9.97806 
-9.95799 0.0196426 0.017336 
0.0196426 -9.98499 0.0199628 
0.017336 0.0199628 -9.93878 
-9.99623 -0.0156899 -0.0170237 
-0.0156899 -9.97324 0.0451979 
-0.0170237 0.0451979 -9.91229 
-9.9579 0.000151924 0.0259545 
0.000151924 -9.99252 0.0353038 
0.0259545 0.0353038 -9.93134 
-9.9641 -0.00832738 0.00296363 
-0.00832738 -9.93818 0.0335515 
0.00296363 0.0335515 -9.97948 
-9.93306 0.110661 -0.0904171 
0.110661 -9.85669 -0.0643623 
-0.0904171 -0.0643623 -9.75835 
-9.8683 0.0858023 -0.0679398 
0.0858023 -9.80792 -0.0406126 
-0.0679398 -0.0406126 -9.87187 
-9.94095 0.0575559 -0.0050395 
0.0575559 -9.83354 -0.0480336 
-0.0050395 -0.0480336 -9.77361 
-9.95629 0.0567166 0.0594942 
0.0567166 -9.83621 -0.098128 
0.0594942 -0.098128 -9.7556 
-12.2986 -0.615629 -0.296563 
-0.615629 -9.07037 1.94133 
-0.296563 1.94133 -4.05856 
-8.23462 -3.28541 0.223383 
-3.28541 -7.77025 -0.949697 
0.223383 -0.949697 -9.42263 
-11.0229 -0.476266 1.28505 
-0.476266 -7.73522 0.141175 
1.28505 0.141175 -6.66938 
-10.0007 -0.178546 1.29691 
-0.178546 -9.40488 1.5627 
1.29691 1.5627 -6.02192 
-9.97637 4.21986e-05 0.0419781 
4.21986e-05 -9.98325 -0.0170006 
0.0419781 -0.0170006 -9.97749 
-9.97614 0.00989976 0.0410289 
0.00989976 -9.97757 -0.014238 
0.0410289 -0.014238 -9.9834 
-9.98058 0.00434617 0.0407678 
0.00434617 -9.98117 -0.0128402 
0.0407678 -0.0128402 -9.97536 
-9.98205 0.00342258 0.0439028 
0.00342258 -9.98265 -0.0204894 
0.0439028 -0.0204894 -9.97241 
-10.2172 0.135697 0.0442049 
0.135697 -9.50274 0.335227 
0.0442049 0.335227 -10.295 
-9.94924 0.0123824 -0.0642663 
0.0123824 -9.55208 0.0629837 
-0.0642663 0.0629837 -10.5136 
-9.9643 -0.130469 0.121123 
-0.130469 -9.57841 0.159806 
0.121123 0.159806 -10.4722 
-9.63063 -0.179343 -0.012997 
-0.179343 -10.5385 0.560495 
-0.012997 0.560495 -9.84577 
-9.96349 -0.00898186 -0.0218643 
-0.00898186 -9.95977 -0.00301222 
-0.0218643 -0.00301222 -9.94444 
-9.97329 -0.0102083 -0.0110426 
-0.0102083 -9.9499 -0.00827643 
-0.0110426 -0.00827643 -9.94451 
-9.948 -0.00487776 -0.0261967 
-0.00487776 -9.96603 0.00401488 
-0.0261967 0.00401488 -9.95367 
-9.97212 -0.00141441 -0.0196714 
-0.00141441 -9.94824 -0.0123514 
-0.0196714 -0.0123514 -9.94734 
-9.87135 -0.0924417 -0.0210217 
-0.0924417 -9.9179 -0.0326747 
-0.0210217 -0.0326747 -9.91542 
-9.90493 -0.0546326 -0.0162251 
-0.0546326 -9.89559 -0.029121 
-0.0162251 -0.029121 -9.90415 
-9.92898 -0.0556983 -0.0417254 
-0.0556983 -9.89013 -0.0253938 
-0.0417254 -0.0253938 -9.88557 
-9.92289 -0.0410942 -0.0258922 
-0.0410942 -9.87398 -0.0565607 
-0.0258922 -0.0565607 -9.9078 
-9.98546 0.00746626 -0.00304044 
0.00746626 -9.93161 0.0147678 
-0.00304044 0.0147678 -10.1825 
-9.97201 -0.00727417 0.0179225 
-0.00727417 -9.91921 0.00424172 
0.0179225 0.00424172 -10.2083 
-9.9333 -0.00248065 0.0285685 
-0.00248065 -9.96542 0.0286575 
0.0285685 0.0286575 -10.2008 
-9.97729 -0.0101423 -0.00758545 
-0.0101423 -9.93608 0.0028387 
-0.00758545 0.0028387 -10.1862 
-9.88896 0.0250049 0.0312207 
0.0250049 -9.86152 -0.0155721 
0.0312207 -0.0155721 -10.0515 
-9.90521 0.0185612 0.0316023 
0.0185612 -9.88313 -0.0231905 
0.0316023 -0.0231905 -10.0136 
-9.87917 0.00936315 0.0402547 
0.00936315 -9.89114 -0.0294331 
0.0402547 -0.0294331 -10.0316 
-9.87037 0.0264335 0.0389632 
0.0264335 -9.87939 -0.0331286 
0.0389632 -0.0331286 -10.0522 
-9.98352 -0.00190431 -0.0129625 
-0.00190431 -9.98313 0.0442879 
-0.0129625 0.0442879 -9.98354 
-9.98438 0.000103771 -0.025142 
0.000103771 -9.97833 0.0401403 
-0.025142 0.0401403 -9.98749 
-9.98383 0.00206274 -0.0144491 
0.00206274 -9.98825 0.0459825 
-0.0144491 0.0459825 -9.97812 
-9.98611 0.00446579 -0.024116 
0.00446579 -9.98337 0.0379198 
-0.024116 0.0379198 -9.98072 
-10.033 0.0981784 0.0402259 
0.0981784 -10.0934 -0.047382 
0.0402259 -0.047382 -10.2915 
-10.0725 -0.0851159 0.0745253 
-0.0851159 -10.1635 -0.0893948 
0.0745253 -0.0893948 -10.182 
-10.063 0.0546313 -0.035503 
0.0546313 -10.1557 -0.0392705 
-0.035503 -0.0392705 -10.1993 
-10.056 -0.0687636 -0.0659397 
-0.0687636 -10.0833 -0.0694096 
-0.0659397 -0.0694096 -10.2787 
-9.89567 -0.0110655 -0.0936335 
-0.0110655 -9.90826 -0.0182289 
-0.0936335 -0.0182289 -9.8792 
-9.91689 0.000605815 -0.0573868 
0.000605815 -9.91717 0.019189 
-0.0573868 0.019189 -9.84908 
-9.92615 -0.00505754 -0.0707606 
-0.00505754 -9.93414 0.00417633 
-0.0707606 0.00417633 -9.82285 
-9.91797 -0.00432807 -0.0647474 
-0.00432807 -9.91856 0.00603008 
-0.0647474 0.00603008 -9.84661 
-9.95161 0.00425396 -0.0118404 
0.00425396 -9.93643 0.0162173 
-0.0118404 0.0162173 -9.97772 
-9.93866 -0.0157465 0.00143298 
-0.0157465 -9.9463 0.0262569 
0.00143298 0.0262569 -9.9808 
-9.94725 -0.0233635 0.0137237 
-0.0233635 -9.95143 0.0104886 
0.0137237 0.0104886 -9.96708 
-9.94398 -0.0323569 -0.000228717 
-0.0323569 -9.9613 0.0169625 
-0.000228717 0.0169625 -9.96048 
-9.66753 -0.154181 0.467943 
-0.154181 -10.1812 -0.221574 
0.467943 -0.221574 -9.74752 
-9.50873 -0.0201026 0.400194 
-0.0201026 -10.0517 -0.012213 
0.400194 -0.012213 -10.0358 
-9.64577 -0.0987687 0.270478 
-0.0987687 -10.2801 0.0191824 
0.270478 0.0191824 -9.67041 
-10.0402 -0.114506 0.338762 
-0.114506 -9.7744 -0.0186571 
0.338762 -0.0186571 -9.78167 
-9.98327 0.00428283 -0.0247199 
0.00428283 -9.98617 0.00859985 
-0.0247199 0.00859985 -9.9823 
-9.98844 -0.00291317 -0.0296646 
-0.00291317 -9.97315 0.0123709 
-0.0296646 0.0123709 -9.99015 
-9.98406 0.00448181 -0.0216276 
0.00448181 -9.98533 0.0102168 
-0.0216276 0.0102168 -9.98235 
-9.98766 -0.00264009 -0.0135006 
-0.00264009 -9.98597 0.00913998 
-0.0135006 0.00913998 -9.97811 
-9.88484 0.0155891 0.073638 
0.0155891 -9.86097 -0.0947199 
0.073638 -0.0947199 -9.95063 
-9.87113 0.0541058 0.167955 
0.0541058 -9.87037 -0.0519659 
0.167955 -0.0519659 -9.95494 
-9.93233 0.129318 -0.0184307 
0.129318 -9.85564 -0.0601915 
-0.0184307 -0.0601915 -9.90848 
-9.88969 0.0298413 0.0611527 
0.0298413 -9.91447 -0.0171356 
0.0611527 -0.0171356 -9.89228 
-9.9784 -0.00902984 0.0147071 
-0.00902984 -9.89744 -0.0133393 
0.0147071 -0.0133393 -9.91433 
-9.92628 -0.0368147 0.0323525 
-0.0368147 -9.94234 -0.0160411 
0.0323525 -0.0160411 -9.92155 
-9.90651 -0.0356305 0.00368083 
-0.0356305 -9.93637 -0.006495 
0.00368083 -0.006495 -9.94729 
-9.93989 -0.0325003 0.0291465 
-0.0325003 -9.91788 -0.00837059 
0.0291465 -0.00837059 -9.9324 
-9.87878 -0.0149632 0.0735793 
-0.0149632 -9.89774 -0.0314288 
0.0735793 -0.0314288 -9.92617 
-9.88236 -0.0176069 0.0767389 
-0.0176069 -9.88927 -0.0349945 
0.0767389 -0.0349945 -9.93106 
-9.89366 -0.012223 0.0777593 
-0.012223 -9.88307 -0.0428007 
0.0777593 -0.0428007 -9.92596 
-9.87786 -0.0197129 0.0779438 
-0.0197129 -9.89853 -0.0321532 
0.0779438 -0.0321532 -9.9263 
-9.96702 -0.00377334 0.0400266 
-0.00377334 -9.97056 0.0365144 
0.0400266 0.0365144 -9.97492 
-9.96841 -0.00297743 0.0408669 
-0.00297743 -9.9672 0.036518 
0.0408669 0.036518 -9.97689 
-9.97148 -2.11212e-05 0.0354835 
-2.11212e-05 -9.97014 0.039284 
0.0354835 0.039284 -9.97088 
-9.97044 -0.00269853 0.0399032 
-0.00269853 -9.96925 0.0409073 
0.0399032 0.0409073 -9.97281 
-9.95791 -0.0424339 -0.0319096 
-0.0424339 -9.87479 0.0178176 
-0.0319096 0.0178176 -9.89366 
-9.91533 -0.0522873 -0.0403926 
-0.0522873 -9.83285 0.0782433 
-0.0403926 0.0782433 -9.97819 
-9.85029 -0.0635116 0.00389321 
-0.0635116 -9.79087 0.034722 
0.00389321 0.034722 -10.0852 
-9.91793 -0.0464668 -0.0197114 
-0.0464668 -9.82899 0.0829085 
-0.0197114 0.0829085 -9.97945 
-9.11653 -0.319654 0.0367198 
-0.319654 -9.49005 0.547709 
0.0367198 0.547709 -12.6331 
-10.3749 -0.230954 0.829283 
-0.230954 -11.7603 -0.607641 
0.829283 -0.607641 -9.10447 
-10.2462 0.839899 0.38772 
0.839899 -9.52304 0.228901 
0.38772 0.228901 -11.4704 
-10.2209 -0.528174 -0.606229 
-0.528174 -9.68613 -0.717536 
-0.606229 -0.717536 -11.3326 
-9.97199 0.00298228 0.00964573 
0.00298228 -9.97009 -0.0851791 
0.00964573 -0.0851791 -9.96902 
-9.9658 -5.53054e-05 0.0165417 
-5.53054e-05 -9.96964 -0.0735353 
0.0165417 -0.0735353 -9.97567 
-9.97031 0.000352731 0.0112973 
0.000352731 -9.97378 -0.0813998 
0.0112973 -0.0813998 -9.96702 
-9.9746 0.00271462 0.000924028 
0.00271462 -9.98167 -0.082642 
0.000924028 -0.082642 -9.95484 
-9.76784 0.204433 -0.213058 
0.204433 -9.85469 -0.174642 
-0.213058 -0.174642 -11.1255 
-10.0564 0.0402428 -0.0202313 
0.0402428 -10.0955 -0.00189976 
-0.0202313 -0.00189976 -10.5961 
-10.5132 0.141893 -0.158665 
0.141893 -10.7457 0.101363 
-0.158665 0.101363 -9.48911 
-10.0829 0.383138 0.642118 
0.383138 -10.4019 -0.447234 
0.642118 -0.447234 -10.2632 
-10.4987 0.322498 0.434548 
0.322498 -10.6361 0.294661 
0.434548 0.294661 -11.2445 
-11.1212 0.328688 -0.174409 
0.328688 -10.9977 0.274465 
-0.174409 0.274465 -10.2604 
-10.7643 -0.751059 0.14199 
-0.751059 -10.4481 -0.022718 
0.14199 -0.022718 -11.1669 
-10.9613 0.529383 0.350805 
0.529383 -10.7926 -0.159094 
0.350805 -0.159094 -10.6254 
-9.91083 0.016874 -0.0230558 
0.016874 -9.89905 0.038252 
-0.0230558 0.038252 -10.0076 
-9.9117 0.00678679 -0.00649627 
0.00678679 -9.9169 0.0319392 
-0.00649627 0.0319392 -9.98892 
-9.90946 0.00475426 -0.00297352 
0.00475426 -9.90208 0.0286086 
-0.00297352 0.0286086 -10.006 
-9.91076 0.0107306 0.00204857 
0.0107306 -9.95272 0.030411 
0.00204857 0.030411 -9.95404 
-9.98607 0.0004136 -0.0616887 
0.0004136 -9.99073 -0.0103583 
-0.0616887 -0.0103583 -10.0035 
-9.9961 -0.00541076 -0.0638418 
-0.00541076 -9.98969 -0.00983915 
-0.0638418 -0.00983915 -9.99453 
-9.99718 -0.000434333 -0.06512 
-0.000434333 -9.99397 -0.00686267 
-0.06512 -0.00686267 -9.98916 
-9.99635 -0.000244585 -0.0656754 
-0.000244585 -9.99644 -0.00820573 
-0.0656754 -0.00820573 -9.98752 
-9.89303 0.0122153 0.0298144 
0.0122153 -9.88234 0.0860586 
0.0298144 0.0860586 -9.91873 
-9.90271 0.0130589 0.0453469 
0.0130589 -9.8815 0.0725559 
0.0453469 0.0725559 -9.9099 
-9.89635 0.0173687 0.0448132 
0.0173687 -9.89294 0.0706292 
0.0448132 0.0706292 -9.90481 
-9.88653 0.00584965 0.0325043 
0.00584965 -9.89206 0.0860658 
0.0325043 0.0860658 -9.91552 
-9.95482 -0.0551604 0.0158191 
-0.0551604 -9.94434 -0.0935754 
0.0158191 -0.0935754 -9.9376 
-9.93205 -0.0288555 -0.0226425 
-0.0288555 -9.9157 -0.0107779 
-0.0226425 -0.0107779 -9.98901 
-9.97494 0.00193413 -0.000838281 
0.00193413 -9.91547 0.0498286 
-0.000838281 0.0498286 -9.94635 
-9.94514 -0.0431569 -0.0422042 
-0.0431569 -9.86933 -0.00645247 
-0.0422042 -0.00645247 -10.0223 
-9.971 0.00186592 -0.0663514 
0.00186592 -9.97394 -0.0251779 
-0.0663514 -0.0251779 -9.9738 
-9.97537 0.00265621 -0.0677255 
0.00265621 -9.97207 -0.0281269 
-0.0677255 -0.0281269 -9.9713 
-9.97479 -0.000569303 -0.0703375 
-0.000569303 -9.96931 -0.0274115 
-0.0703375 -0.0274115 -9.97464 
-9.97662 0.00275456 -0.0697026 
0.00275456 -9.97615 -0.0319977 
-0.0697026 -0.0319977 -9.96597 
-10.1575 -0.00900492 -0.00578487 
-0.00900492 -10.2291 -0.00139972 
-0.00578487 -0.00139972 -10.1907 
-10.2088 0.00787495 -0.00595714 
0.00787495 -10.2184 -0.000784095 
-0.00595714 -0.000784095 -10.1501 
-10.1675 0.00665131 0.013204 
0.00665131 -10.136 0.0184011 
0.013204 0.0184011 -10.2738 
-10.1794 0.0331072 -0.0327102 
0.0331072 -10.185 -0.0263423 
-0.0327102 -0.0263423 -10.213 
-5.24875 1.3114 0.354552 
1.3114 -2.25101 -1.26375 
0.354552 -1.26375 -6.73104 
-10.6519 -1.64202 -1.73386 
-1.64202 -4.6106 1.11324 
-1.73386 1.11324 1.03167 
-11.8042 -0.0298576 -1.87398 
-0.0298576 -8.52644 0.95892 
-1.87398 0.95892 6.09983 
-4.52871 -1.80958 -5.3634 
-1.80958 -6.55957 -0.166418 
-5.3634 -0.166418 -3.14251 
-9.80086 -0.216933 0.00848037 
-0.216933 -10.0285 -0.0131757 
0.00848037 -0.0131757 -11.2622 
-10.1271 -0.625452 -0.538236 
-0.625452 -10.6273 -0.0886556 
-0.538236 -0.0886556 -10.3372 
-9.94665 0.603779 0.0643026 
0.603779 -10.3502 0.0797636 
0.0643026 0.0797636 -10.7947 
-10.0419 0.295981 -0.461844 
0.295981 -10.0908 -0.0590786 
-0.461844 -0.0590786 -10.9588 
-9.93617 -0.00388865 0.00968151 
-0.00388865 -9.95027 -0.00584173 
0.00968151 -0.00584173 -10.0105 
-9.95472 0.00499919 -0.0135059 
0.00499919 -9.92768 -0.0129976 
-0.0135059 -0.0129976 -10.0145 
-9.9397 -0.00547356 0.00606922 
-0.00547356 -9.95115 0.00806921 
0.00606922 0.00806921 -10.0061 
-9.95871 7.97545e-05 -0.0111859 
7.97545e-05 -9.94503 -0.00862318 
-0.0111859 -0.00862318 -9.99321 
-9.90852 0.0054277 0.0221416 
0.0054277 -9.90819 0.0211134 
0.0221416 0.0211134 -9.97399 
-9.84531 -0.0195786 -0.000684537 
-0.0195786 -9.96615 -0.0775665 
-0.000684537 -0.0775665 -9.97923 
-9.80773 -0.0392222 0.108236 
-0.0392222 -9.97195 0.0792843 
0.108236 0.0792843 -10.011 
-9.90729 -0.0403158 0.101466 
-0.0403158 -9.89631 -0.0660455 
0.101466 -0.0660455 -9.9871 
-9.95988 -0.000518505 -0.0600773 
-0.000518505 -9.95633 0.0376834 
-0.0600773 0.0376834 -9.95353 
-9.9628 -0.000243728 -0.0601741 
-0.000243728 -9.95615 0.03801 
-0.0601741 0.03801 -9.95079 
-9.96211 -0.000635007 -0.0612614 
-0.000635007 -9.95517 0.0380393 
-0.0612614 0.0380393 -9.95245 
-9.96022 -0.00334895 -0.0635871 
-0.00334895 -9.95713 0.0435392 
-0.0635871 0.0435392 -9.95238 
-9.97513 -8.59736e-05 -0.0612846 
-8.59736e-05 -9.97395 0.0400967 
-0.0612846 0.0400967 -9.97444 
-9.97752 0.00152487 -0.0578457 
0.00152487 -9.97312 0.0425813 
-0.0578457 0.0425813 -9.97288 
-9.9738 0.000175405 -0.0566709 
0.000175405 -9.97076 0.0435086 
-0.0566709 0.0435086 -9.97896 
-9.97268 0.00109184 -0.0634151 
0.00109184 -9.97949 0.0413663 
-0.0634151 0.0413663 -9.97136 
-9.95592 0.00010932 0.0650311 
0.00010932 -9.95672 0.0368807 
0.0650311 0.0368807 -9.86952 
-9.94971 -0.000830271 0.0614715 
-0.000830271 -9.92799 0.0368197 
0.0614715 0.0368197 -9.90446 
-9.96443 -0.00753997 0.0507972 
-0.00753997 -9.96514 0.02551 
0.0507972 0.02551 -9.85258 
-9.98524 -0.00367921 0.0734997 
-0.00367921 -9.93743 0.0834684 
0.0734997 0.0834684 -9.85948 
-9.89109 0.0219965 0.0276803 
0.0219965 -9.90026 -0.0274557 
0.0276803 -0.0274557 -10.1009 
-9.8844 0.0058466 0.0261688 
0.0058466 -9.90413 -0.00402464 
0.0261688 -0.00402464 -10.1037 
-9.9126 -0.013104 0.0253938 
-0.013104 -9.8982 0.00667209 
0.0253938 0.00667209 -10.0815 
-9.89153 -0.0273671 0.0151301 
-0.0273671 -9.87036 -0.0259634 
0.0151301 -0.0259634 -10.1304 
-9.9867 0.015948 -0.0849373 
0.015948 -9.85879 -0.0585346 
-0.0849373 -0.0585346 -9.70687 
-9.93259 -0.00476335 -0.112452 
-0.00476335 -9.92486 -0.0488054 
-0.112452 -0.0488054 -9.6949 
-9.9197 0.0944996 -0.159649 
0.0944996 -9.90729 -0.0412509 
-0.159649 -0.0412509 -9.72536 
-9.82395 -0.0365492 -0.160189 
-0.0365492 -9.92327 -0.0335462 
-0.160189 -0.0335462 -9.80513 
-9.97899 0.00533818 -0.0352823 
0.00533818 -9.97531 0.0356882 
-0.0352823 0.0356882 -9.98117 
-9.97982 0.0027981 -0.0314947 
0.0027981 -9.97467 0.0363812 
-0.0314947 0.0363812 -9.98098 
-9.98091 0.00473777 -0.0368016 
0.00473777 -9.97864 0.0359737 
-0.0368016 0.0359737 -9.97592 
-9.97742 1.74259e-05 -0.0355034 
1.74259e-05 -9.98039 0.0399595 
-0.0355034 0.0399595 -9.97766 
-6.58399 0.711769 -0.702881 
0.711769 -11.7665 -0.159816 
-0.702881 -0.159816 -14.0208 
-10.5845 0.371964 0.172316 
0.371964 -9.67946 -0.0932601 
0.172316 -0.0932601 -12.1074 
-9.69525 -0.906614 0.0817718 
-0.906614 -11.5439 0.0372575 
0.0817718 0.0372575 -11.1322 
-9.26284 0.255828 -0.23312 
0.255828 -11.6938 0.582403 
-0.23312 0.582403 -11.4146 
-9.8856 -0.00534276 0.00383673 
-0.00534276 -9.86563 -0.0654597 
0.00383673 -0.0654597 -10.0004 
-9.87854 -0.0178046 0.0059234 
-0.0178046 -9.85045 -0.0580839 
0.0059234 -0.0580839 -10.0226 
-9.89109 0.00794209 0.0102268 
0.00794209 -9.85841 -0.110219 
0.0102268 -0.110219 -10.0021 
-9.88324 0.0177623 -0.0233736 
0.0177623 -9.90064 -0.0271525 
-0.0233736 -0.0271525 -9.96773 
-9.99394 0.085932 -0.0506641 
0.085932 -9.88701 -0.181414 
-0.0506641 -0.181414 -9.85394 
-9.89152 0.262581 -0.0130142 
0.262581 -9.8702 -0.341492 
-0.0130142 -0.341492 -9.97317 
-9.94096 0.292887 -0.0305891 
0.292887 -9.84986 -0.316672 
-0.0305891 -0.316672 -9.94406 
-9.92431 0.281869 -0.0162618 
0.281869 -9.928 -0.300382 
-0.0162618 -0.300382 -9.88257 
-9.91478 0.03976 0.0180143 
0.03976 -9.84871 0.137762 
0.0180143 0.137762 -9.8163 
-9.91814 0.0208271 0.0229865 
0.0208271 -9.8048 0.117219 
0.0229865 0.117219 -9.85685 
-9.88256 0.0560667 -0.0456584 
0.0560667 -9.75467 0.0969147 
-0.0456584 0.0969147 -9.94256 
-9.89128 0.0716242 -0.0175478 
0.0716242 -9.79891 0.0847186 
-0.0175478 0.0847186 -9.8896 
-9.89694 -0.0115507 -0.0784316 
-0.0115507 -9.81383 0.0377197 
-0.0784316 0.0377197 -10.0488 
-9.87024 0.0217667 0.019664 
0.0217667 -9.80068 0.0042281 
0.019664 0.0042281 -10.0887 
-9.9276 0.00894026 -0.0708218 
0.00894026 -9.79003 -0.00613069 
-0.0708218 -0.00613069 -10.042 
-9.83806 0.0463889 -0.00474248 
0.0463889 -9.81614 -0.00298312 
-0.00474248 -0.00298312 -10.1054 
-10.0391 -0.0437653 -0.0907274 
-0.0437653 -9.94494 -0.0500896 
-0.0907274 -0.0500896 -9.70656 
-9.91849 0.0227847 -0.124801 
0.0227847 -9.94605 -0.00561233 
-0.124801 -0.00561233 -9.82607 
-9.9463 0.0156786 -0.0924894 
0.0156786 -9.93538 0.0170582 
-0.0924894 0.0170582 -9.80892 
-9.9121 -0.0117829 -0.041583 
-0.0117829 -9.90286 0.0376034 
-0.041583 0.0376034 -9.87565 
-9.92953 -0.00744871 -0.0378855 
-0.00744871 -9.93377 0.0638847 
-0.0378855 0.0638847 -9.93044 
-9.93373 -0.00650567 -0.0429635 
-0.00650567 -9.92573 0.0680583 
-0.0429635 0.0680583 -9.93427 
-9.92902 -0.00510544 -0.0372404 
-0.00510544 -9.93087 0.0671187 
-0.0372404 0.0671187 -9.93385 
-9.93617 8.24918e-06 -0.0352224 
8.24918e-06 -9.92855 0.0806629 
-0.0352224 0.0806629 -9.92902 
-9.97025 0.00405734 0.00550622 
0.00405734 -9.94216 0.0120133 
0.00550622 0.0120133 -9.9427 
-9.96888 -0.0134775 0.0198412 
-0.0134775 -9.94635 0.0279431 
0.0198412 0.0279431 -9.93988 
-9.94762 -0.0145745 0.024981 
-0.0145745 -9.97462 -0.00341287 
0.024981 -0.00341287 -9.93287 
-9.93055 -0.0129015 0.0165366 
-0.0129015 -9.95601 0.00624551 
0.0165366 0.00624551 -9.96855 
-10.0141 0.175341 -0.121753 
0.175341 -9.78863 -0.381736 
-0.121753 -0.381736 -9.64612 
-10.0091 0.0992109 -0.0198686 
0.0992109 -9.90362 -0.23821 
-0.0198686 -0.23821 -9.5361 
-9.93431 0.0391806 0.0333438 
0.0391806 -9.899 0.0390996 
0.0333438 0.0390996 -9.61555 
-10.0542 -0.0750812 -0.127092 
-0.0750812 -10.0674 -0.199567 
-0.127092 -0.199567 -9.32732 
-9.95592 0.0409996 0.0541442 
0.0409996 -9.93964 0.00478017 
0.0541442 0.00478017 -9.87386 
-9.91901 0.0348441 0.0452607 
0.0348441 -9.95123 -0.0258099 
0.0452607 -0.0258099 -9.89917 
-9.92581 0.024706 0.0502678 
0.024706 -9.95773 -0.0160747 
0.0502678 -0.0160747 -9.88588 
-9.93854 0.0252682 0.0120149 
0.0252682 -9.9161 -0.0278848 
0.0120149 -0.0278848 -9.91478 
-9.99264 -0.00294025 0.0500773 
-0.00294025 -9.99036 0.0324194 
0.0500773 0.0324194 -9.99531 
-9.9928 -0.00201884 0.0486246 
-0.00201884 -9.9917 0.0322211 
0.0486246 0.0322211 -9.99381 
-9.99039 -0.00137896 0.047112 
-0.00137896 -9.98818 0.0316797 
0.047112 0.0316797 -9.99974 
-9.99557 -0.00195411 0.0501779 
-0.00195411 -9.99215 0.0300948 
0.0501779 0.0300948 -9.9906 
-10.0355 -0.00494622 -0.00584607 
-0.00494622 -10.0131 -0.00260731 
-0.00584607 -0.00260731 -10.0249 
-10.031 -0.0217567 -0.00157769 
-0.0217567 -9.99524 0.0173357 
-0.00157769 0.0173357 -10.0473 
-10.025 -0.0118555 0.00650112 
-0.0118555 -10.0213 0.0195482 
0.00650112 0.0195482 -10.0272 
-10.023 -0.0166452 -0.00142181 
-0.0166452 -10.0182 0.00982745 
-0.00142181 0.00982745 -10.0324 
-9.9581 0.0131234 0.00345515 
0.0131234 -9.97012 0.0409862 
0.00345515 0.0409862 -9.94921 
-9.96831 0.00226851 -0.000601344 
0.00226851 -9.96721 -0.00421137 
-0.000601344 -0.00421137 -9.94191 
-9.96082 -0.0167794 0.000594206 
-0.0167794 -9.95924 -0.00279214 
0.000594206 -0.00279214 -9.95737 
-9.9412 0.00372941 0.00233578 
0.00372941 -9.9543 -0.00728776 
0.00233578 -0.00728776 -9.98192 
-10.124 -0.0339748 -0.005765 
-0.0339748 -10.0069 0.0224997 
-0.005765 0.0224997 -10.0108 
-10.0135 -0.0382416 -0.0174614 
-0.0382416 -10.0456 0.0295977 
-0.0174614 0.0295977 -10.0826 
-9.99872 -0.0147924 0.009147 
-0.0147924 -10.0175 0.0194341 
0.009147 0.0194341 -10.1255 
-10.0272 -0.0334606 -0.0664222 
-0.0334606 -10.0646 0.0108483 
-0.0664222 0.0108483 -10.0498 
-9.98901 0.00274342 -0.0271309 
0.00274342 -9.98997 0.0309077 
-0.0271309 0.0309077 -9.99685 
-9.98682 0.0011079 -0.0249002 
0.0011079 -9.98987 0.0334322 
-0.0249002 0.0334322 -9.99914 
-9.9924 0.00152875 -0.0281236 
0.00152875 -9.98816 0.033683 
-0.0281236 0.033683 -9.99528 
-9.99079 0.00300173 -0.0303237 
0.00300173 -9.9931 0.0319544 
-0.0303237 0.0319544 -9.99194 
-9.92865 -0.0408158 0.070387 
-0.0408158 -9.87538 -0.0850625 
0.070387 -0.0850625 -9.94578 
-9.90797 -0.0297897 0.0789485 
-0.0297897 -9.89232 -0.0803883 
0.0789485 -0.0803883 -9.94951 
-9.91225 -0.0357473 0.0802308 
-0.0357473 -9.88521 -0.101235 
0.0802308 -0.101235 -9.95235 
-9.92757 -0.0296653 0.110315 
-0.0296653 -9.88835 -0.0621662 
0.110315 -0.0621662 -9.93389 
-10.9281 -0.432153 -0.0588467 
-0.432153 -8.21219 -0.0698068 
-0.0588467 -0.0698068 -12.9954 
-9.98139 -0.341053 -0.0447708 
-0.341053 -10.4974 0.169925 
-0.0447708 0.169925 -11.6569 
-11.3997 0.54382 0.135582 
0.54382 -9.96634 0.102058 
0.135582 0.102058 -10.7697 
-11.5533 -0.2559 -0.621028 
-0.2559 -9.37742 0.242371 
-0.621028 0.242371 -11.205 
-9.97109 0.00180864 0.0671976 
0.00180864 -9.96454 -0.00106307 
0.0671976 -0.00106307 -9.98027 
-9.96881 0.00191714 0.0750649 
0.00191714 -9.97739 0.00771029 
0.0750649 0.00771029 -9.9697 
-9.97046 0.000416044 0.0745417 
0.000416044 -9.97196 0.0055987 
0.0745417 0.0055987 -9.97348 
-9.9803 0.00414912 0.0746205 
0.00414912 -9.97779 0.00997092 
0.0746205 0.00997092 -9.95782 
-9.91958 -0.00287103 -0.0341581 
-0.00287103 -9.93503 0.0673117 
-0.0341581 0.0673117 -9.93292 
-9.92507 -0.0120559 -0.0372078 
-0.0120559 -9.92588 0.0655494 
-0.0372078 0.0655494 -9.93658 
-9.92098 -0.00248157 -0.0368193 
-0.00248157 -9.93086 0.0661854 
-0.0368193 0.0661854 -9.9357 
-9.92414 -0.00218652 -0.0376957 
-0.00218652 -9.92743 0.0691379 
-0.0376957 0.0691379 -9.93596 
-9.87131 -0.00593338 0.00223933 
-0.00593338 -9.92086 0.0926619 
0.00223933 0.0926619 -9.85774 
-9.88422 0.011207 -0.00581776 
0.011207 -9.86022 0.0728416 
-0.00581776 0.0728416 -9.90548 
-9.89601 0.0104844 0.0129763 
0.0104844 -9.85026 0.0751499 
0.0129763 0.0751499 -9.90365 
-9.88665 0.0176801 0.00575877 
0.0176801 -9.86431 0.0898562 
0.00575877 0.0898562 -9.89896 
-9.98412 0.00125017 -0.00670958 
0.00125017 -9.98293 0.0226031 
-0.00670958 0.0226031 -9.98481 
-9.98893 -0.00525897 0.000857135 
-0.00525897 -9.98838 0.020142 
0.000857135 0.020142 -9.97456 
-9.97264 -0.00886958 -0.0178771 
-0.00886958 -9.97962 0.0170554 
-0.0178771 0.0170554 -9.9996 
-9.97739 -0.00046628 -0.0139631 
-0.00046628 -9.98614 0.020668 
-0.0139631 0.020668 -9.98833 
-9.90255 0.0099447 0.0267034 
0.0099447 -9.9115 0.0686729 
0.0267034 0.0686729 -9.90837 
-9.88553 0.0104591 0.0295122 
0.0104591 -9.92834 0.068254 
0.0295122 0.068254 -9.90855 
-9.91205 0.0173821 0.0277196 
0.0173821 -9.88044 0.0751261 
0.0277196 0.0751261 -9.92993 
-9.88842 0.00475126 0.0274654 
0.00475126 -9.90706 0.0433217 
0.0274654 0.0433217 -9.92694 
-2.28739 0.133568 3.17583 
0.133568 -10.0524 -1.06496 
3.17583 -1.06496 -19.3569 
-4.62277 -1.47625 2.78063 
-1.47625 -9.20162 0.584562 
2.78063 0.584562 -17.8723 
-10.5437 -0.558122 -2.9412 
-0.558122 -13.4605 0.503926 
-2.9412 0.503926 -7.69243 
-12.8849 0.551465 3.76166 
0.551465 -9.22545 -0.176647 
3.76166 -0.176647 -9.58632 
-9.98019 0.00270459 0.0291254 
0.00270459 -9.97561 0.0489706 
0.0291254 0.0489706 -9.98574 
-9.97858 -0.00212051 0.0353388 
-0.00212051 -9.98125 0.0498527 
0.0353388 0.0498527 -9.98171 
-9.97896 -0.00142569 0.032602 
-0.00142569 -9.98282 0.0497012 
0.032602 0.0497012 -9.97976 
-9.98178 0.00357204 0.0388355 
0.00357204 -9.98281 0.0507745 
0.0388355 0.0507745 -9.97695 
-10.176 -0.0229445 -0.00463147 
-0.0229445 -10.2131 -0.000340444 
-0.00463147 -0.000340444 -10.2567 
-10.2435 -0.0227359 0.0141295 
-0.0227359 -10.3082 -0.0310381 
0.0141295 -0.0310381 -10.0941 
-10.1721 -0.0116285 0.0168432 
-0.0116285 -10.169 -0.028215 
0.0168432 -0.028215 -10.3047 
-10.1832 -0.0435551 0.0650443 
-0.0435551 -10.2465 0.0868223 
0.0650443 0.0868223 -10.2161 
-9.97722 0.00136216 0.00478809 
0.00136216 -9.98449 0.00182704 
0.00478809 0.00182704 -9.98737 
-9.97619 0.00225052 0.00188101 
0.00225052 -9.98818 0.00312919 
0.00188101 0.00312919 -9.98469 
-9.98112 -0.00337841 0.00199758 
-0.00337841 -9.98355 0.00304433 
0.00199758 0.00304433 -9.9844 
-9.97798 0.00375293 0.00574822 
0.00375293 -9.98897 -3.08218e-05 
0.00574822 -3.08218e-05 -9.98213 
-9.9396 0.0455498 -0.0108186 
0.0455498 -9.89821 -0.0464838 
-0.0108186 -0.0464838 -9.95984 
-9.91271 0.0251925 -0.00104194 
0.0251925 -9.92831 -0.034616 
-0.00104194 -0.034616 -9.95664 
-9.90375 0.021414 -0.0278771 
0.021414 -9.93169 -0.026863 
-0.0278771 -0.026863 -9.96221 
-9.92299 0.027038 0.00304991 
0.027038 -9.90661 -0.0264701 
0.00304991 -0.0264701 -9.96805 
-9.95314 -0.00402908 -0.0394537 
-0.00402908 -9.95131 0.0585166 
-0.0394537 0.0585166 -9.95601 
-9.94368 0.0065396 -0.049774 
0.0065396 -9.95685 0.058569 
-0.049774 0.058569 -9.95992 
-9.95384 -0.00185893 -0.0370926 
-0.00185893 -9.96 0.0557794 
-0.0370926 0.0557794 -9.94661 
-9.94571 0.00151888 -0.0500168 
0.00151888 -9.94617 0.0557113 
-0.0500168 0.0557113 -9.96858 
-9.90728 0.00682348 -0.0120317 
0.00682348 -9.88836 -0.102226 
-0.0120317 -0.102226 -9.90978 
-9.90976 -0.00121455 -0.0119845 
-0.00121455 -9.90748 -0.0910699 
-0.0119845 -0.0910699 -9.88818 
-9.9012 -0.00117253 -0.0157329 
-0.00117253 -9.91033 -0.0891193 
-0.0157329 -0.0891193 -9.89388 
-9.90917 0.000378592 -0.00389524 
0.000378592 -9.89104 -0.0943776 
-0.00389524 -0.0943776 -9.90521 
-9.97323 0.0144877 0.0176468 
0.0144877 -9.95606 -0.00596826 
0.0176468 -0.00596826 -9.96717 
-9.95976 -0.00124171 0.0186705 
-0.00124171 -9.95403 -0.0123163 
0.0186705 -0.0123163 -9.98267 
-9.94806 -0.0445909 0.0123758 
-0.0445909 -9.93666 -0.00185504 
0.0123758 -0.00185504 -10.0117 
-9.93585 0.00175112 0.0335025 
0.00175112 -9.97376 -0.0302311 
0.0335025 -0.0302311 -9.98684 
-6.54052 1.3273 0.20591 
1.3273 -8.85919 -0.385594 
0.20591 -0.385594 -16.4897 
-6.803 0.636674 0.145191 
0.636674 -11.1638 -0.55829 
0.145191 -0.55829 -13.9226 
-9.88412 0.883976 0.633974 
0.883976 -11.3027 0.653853 
0.633974 0.653853 -10.7025 
-9.53506 0.279552 -0.844881 
0.279552 -10.3535 -0.376358 
-0.844881 -0.376358 -12.0008 
-9.98459 -8.936e-05 -0.0573686 
-8.936e-05 -9.98203 0.042458 
-0.0573686 0.042458 -9.98621 
-9.98532 -0.00248243 -0.0570563 
-0.00248243 -9.97996 0.0432397 
-0.0570563 0.0432397 -9.98755 
-9.97873 0.00187434 -0.0559914 
0.00187434 -9.97915 0.0386071 
-0.0559914 0.0386071 -9.99495 
-9.98605 0.00287092 -0.0571302 
0.00287092 -9.9851 0.0449076 
-0.0571302 0.0449076 -9.98169 
-9.91451 0.0325152 -0.0220477 
0.0325152 -9.85639 0.0322539 
-0.0220477 0.0322539 -10.0886 
-9.91116 0.0341302 -0.00070443 
0.0341302 -9.853 0.0876798 
-0.00070443 0.0876798 -10.0953 
-9.93589 0.0123623 -0.017876 
0.0123623 -9.86528 0.059029 
-0.017876 0.059029 -10.0583 
-9.9483 -0.0081055 -0.0222749 
-0.0081055 -9.90617 0.06978 
-0.0222749 0.06978 -10.005 
-9.90017 0.00343026 -0.0684568 
0.00343026 -9.89706 -0.0485416 
-0.0684568 -0.0485416 -9.92464 
-9.90272 0.00893487 -0.0689228 
0.00893487 -9.89014 -0.0489172 
-0.0689228 -0.0489172 -9.92901 
-9.8993 0.0117507 -0.0601203 
0.0117507 -9.89131 -0.0455978 
-0.0601203 -0.0455978 -9.93127 
-9.89937 0.00848004 -0.0631906 
0.00848004 -9.89018 -0.0381328 
-0.0631906 -0.0381328 -9.93232 
-10.6127 -0.176209 0.672406 
-0.176209 -7.12541 0.660334 
0.672406 0.660334 -14.801 
-10.7913 1.38771 0.13395 
1.38771 -1.94208 1.40486 
0.13395 1.40486 -19.8057 
-13.3895 0.726726 -0.478318 
0.726726 -10.3471 -1.82222 
-0.478318 -1.82222 -8.80252 
-10.036 -0.517449 0.602588 
-0.517449 -11.2263 3.00441 
0.602588 3.00441 -11.2768 
-9.90804 -0.433282 0.0928138 
-0.433282 -9.64406 -0.0430361 
0.0928138 -0.0430361 -11.1554 
-9.99715 -0.0617196 -0.0725705 
-0.0617196 -10.4351 0.065536 
-0.0725705 0.065536 -10.2753 
-10.4503 0.102867 -0.0931169 
0.102867 -10.6097 -0.0880974 
-0.0931169 -0.0880974 -9.64756 
-9.75147 -0.159441 -0.85337 
-0.159441 -10.5426 0.631977 
-0.85337 0.631977 -10.4135 
-9.83153 -0.0901798 -0.0339066 
-0.0901798 -10.1695 -0.0567448 
-0.0339066 -0.0567448 -10.3112 
-9.69568 -0.139479 -0.0763458 
-0.139479 -10.1825 -0.0727342 
-0.0763458 -0.0727342 -10.434 
-9.95813 -0.134428 -0.0263924 
-0.134428 -10.1794 0.0338495 
-0.0263924 0.0338495 -10.1747 
-10.0302 -0.170298 -0.00196908 
-0.170298 -10.1265 0.0950217 
-0.00196908 0.0950217 -10.1555 
-9.9802 -0.00132192 0.0414592 
-0.00132192 -9.97687 0.0415953 
0.0414592 0.0415953 -9.9865 
-9.98339 0.00051672 0.0454069 
0.00051672 -9.97894 0.0446454 
0.0454069 0.0446454 -9.98124 
-9.98155 -0.000687869 0.0457233 
-0.000687869 -9.97662 0.043513 
0.0457233 0.043513 -9.9854 
-9.98174 -4.76233e-05 0.0405003 
-4.76233e-05 -9.97981 0.0428317 
0.0405003 0.0428317 -9.98202 
-9.92993 0.00821374 0.0605752 
0.00821374 -9.92138 0.0327456 
0.0605752 0.0327456 -9.93093 
-9.93836 -0.00288896 0.0557232 
-0.00288896 -9.92377 0.03477 
0.0557232 0.03477 -9.92011 
-9.92253 0.0119719 0.0699826 
0.0119719 -9.9162 0.0379723 
0.0699826 0.0379723 -9.94351 
-9.92052 0.0116829 0.0602721 
0.0116829 -9.9225 0.0272677 
0.0602721 0.0272677 -9.93922 
-9.78694 0.0627928 -0.0163236 
0.0627928 -9.72575 -0.218564 
-0.0163236 -0.218564 -9.91216 
-9.83082 0.0423397 -0.0963836 
0.0423397 -9.77672 -0.181797 
-0.0963836 -0.181797 -9.81732 
-9.82139 0.0592979 -0.0155393 
0.0592979 -9.7422 -0.243106 
-0.0155393 -0.243106 -9.86127 
-9.79255 0.0918816 -0.00939868 
0.0918816 -9.76411 -0.277801 
-0.00939868 -0.277801 -9.86819 
-9.96403 0.00103148 0.0110165 
0.00103148 -9.87334 0.0414577 
0.0110165 0.0414577 -10.0979 
-9.84666 0.00745763 0.00678278 
0.00745763 -9.88472 -0.0151703 
0.00678278 -0.0151703 -10.2039 
-9.92165 -0.00161729 0.0108273 
-0.00161729 -9.9288 -0.00406301 
0.0108273 -0.00406301 -10.0848 
-9.90564 -0.0247984 0.0265294 
-0.0247984 -9.89914 0.018859 
0.0265294 0.018859 -10.1305 
-9.95422 -0.0161326 0.0122254 
-0.0161326 -9.95096 0.0207324 
0.0122254 0.0207324 -9.96356 
-9.96213 -0.0216587 0.0112693 
-0.0216587 -9.94393 0.0153498 
0.0112693 0.0153498 -9.96267 
-9.94564 -0.0196447 0.0269911 
-0.0196447 -9.95919 0.0168135 
0.0269911 0.0168135 -9.96391 
-9.94645 -0.0125862 0.0159564 
-0.0125862 -9.9617 0.00831768 
0.0159564 0.00831768 -9.96059 
-9.80356 0.212534 -0.0295187 
0.212534 -9.99003 -0.0834944 
-0.0295187 -0.0834944 -10.0634 
-9.92071 0.125127 0.0357246 
0.125127 -9.86645 0.0248738 
0.0357246 0.0248738 -10.0699 
-9.85299 0.212363 -0.0360668 
0.212363 -9.95183 -0.0206529 
-0.0360668 -0.0206529 -10.0522 
-9.87176 0.390854 -0.025835 
0.390854 -9.97001 0.0716766 
-0.025835 0.0716766 -10.0153 
-9.89912 -0.0109269 0.0426442 
-0.0109269 -9.88168 -0.0879786 
0.0426442 -0.0879786 -9.89908 
-9.89646 -0.0127404 0.0575424 
-0.0127404 -9.87775 -0.0991301 
0.0575424 -0.0991301 -9.90566 
-9.88601 -0.0115221 0.0447688 
-0.0115221 -9.88551 -0.0799155 
0.0447688 -0.0799155 -9.90836 
-9.90525 0.00439408 0.0154322 
0.00439408 -9.90114 -0.112097 
0.0154322 -0.112097 -9.87349 
-9.96859 -0.00142892 -0.00600736 
-0.00142892 -9.98553 -0.0222195 
-0.00600736 -0.0222195 -9.97622 
-9.97631 -0.000431756 -0.0054455 
-0.000431756 -9.98323 -0.0185885 
-0.0054455 -0.0185885 -9.97079 
-9.9739 -0.00196062 -0.00102365 
-0.00196062 -9.98168 -0.0120468 
-0.00102365 -0.0120468 -9.97475 
-9.97272 0.00309852 0.00152757 
0.00309852 -9.98794 -0.00639206 
0.00152757 -0.00639206 -9.96968 
-9.92064 0.000741448 0.0172607 
0.000741448 -9.90187 0.070774 
0.0172607 0.070774 -9.89951 
-9.93001 -0.00365522 0.00513962 
-0.00365522 -9.91197 0.0730156 
0.00513962 0.0730156 -9.88004 
-9.91961 0.00461156 -0.00812551 
0.00461156 -9.91755 0.0669976 
-0.00812551 0.0669976 -9.88486 
-9.93787 -0.00876684 -0.00349848 
-0.00876684 -9.91553 0.0949268 
-0.00349848 0.0949268 -9.86861 
-9.9785 0.019033 0.0829507 
0.019033 -9.92396 -0.0292151 
0.0829507 -0.0292151 -10.08 
-9.99076 0.0674146 0.0889882 
0.0674146 -9.94802 -0.042401 
0.0889882 -0.042401 -10.0437 
-9.95725 0.0249708 0.105738 
0.0249708 -9.95977 -0.0068656 
0.105738 -0.0068656 -10.0655 
-9.88673 0.0127528 0.118647 
0.0127528 -9.95199 -0.0224872 
0.118647 -0.0224872 -10.1438 
-9.9864 0.00038835 0.0139955 
0.00038835 -9.98223 -0.0144828 
0.0139955 -0.0144828 -10.0044 
-9.98438 -0.000663343 0.0184905 
-0.000663343 -9.98709 -0.0099464 
0.0184905 -0.0099464 -10.0016 
-9.9939 0.00279602 0.018241 
0.00279602 -9.9924 -0.012359 
0.018241 -0.012359 -9.98672 
-9.993 0.00588748 0.014087 
0.00588748 -9.99107 -0.0069395 
0.014087 -0.0069395 -9.98895 
-10.0248 -0.0133001 -0.00230872 
-0.0133001 -10.0426 0.00896356 
-0.00230872 0.00896356 -10.0268 
-10.0161 -0.00292074 -0.0242954 
-0.00292074 -10.0465 -0.00355788 
-0.0242954 -0.00355788 -10.0316 
-10.0296 0.0014632 0.0135481 
0.0014632 -10.0312 0.0100903 
0.0135481 0.0100903 -10.0335 
-10.0358 -0.0274253 -0.00644943 
-0.0274253 -10.0437 0.00738176 
-0.00644943 0.00738176 -10.0147 
-9.98228 -0.0124759 -0.00587921 
-0.0124759 -9.93653 -0.0212674 
-0.00587921 -0.0212674 -10.0149 
-9.92397 0.00888874 0.00248925 
0.00888874 -10.01 0.0964762 
0.00248925 0.0964762 -9.99977 
-10.0303 0.00593083 -0.00179096 
0.00593083 -9.92319 -0.068329 
-0.00179096 -0.068329 -9.98018 
-10.0152 -0.0145872 0.0234225 
-0.0145872 -9.85758 -0.0017424 
0.0234225 -0.0017424 -10.0609 
-9.99092 -0.00287687 -0.00483308 
-0.00287687 -9.98875 -0.0106811 
-0.00483308 -0.0106811 -9.99964 
-9.99223 -0.0011657 -0.00169802 
-0.0011657 -9.99194 -0.00825358 
-0.00169802 -0.00825358 -9.99515 
-9.99281 -0.00121058 -0.00397141 
-0.00121058 -9.99091 -0.00750141 
-0.00397141 -0.00750141 -9.9956 
-9.99397 -0.000837486 -0.00115327 
-0.000837486 -9.99339 -0.00791309 
-0.00115327 -0.00791309 -9.99195 
-10.1422 0.0273288 -0.103939 
0.0273288 -10.0403 0.0434007 
-0.103939 0.0434007 -9.70445 
-10.0989 0.0761082 -0.0589351 
0.0761082 -10.0196 -0.0704275 
-0.0589351 -0.0704275 -9.76849 
-10.0799 0.0386862 -0.0411744 
0.0386862 -9.98165 -0.0175449 
-0.0411744 -0.0175449 -9.82537 
-10.1095 -0.0515142 -0.030362 
-0.0515142 -10.0487 -0.000596515 
-0.030362 -0.000596515 -9.72875 
-9.95987 0.00505425 0.109566 
0.00505425 -9.95288 -0.0162875 
0.109566 -0.0162875 -10.1651 
-9.92016 -0.0359912 0.167675 
-0.0359912 -10.0161 -0.0745396 
0.167675 -0.0745396 -10.1416 
-9.87472 -0.0202144 0.209101 
-0.0202144 -10.0285 -0.0455124 
0.209101 -0.0455124 -10.1746 
-9.94105 -0.00291146 0.197668 
-0.00291146 -9.99071 -0.0389378 
0.197668 -0.0389378 -10.1461 
-9.96526 -0.00305732 -0.00919451 
-0.00305732 -9.96538 -0.0168609 
-0.00919451 -0.0168609 -9.96327 
-9.96664 -0.00269118 -0.0111376 
-0.00269118 -9.96799 -0.0175558 
-0.0111376 -0.0175558 -9.95929 
-9.97051 -0.00583585 -0.00888959 
-0.00583585 -9.97389 -0.0200585 
-0.00888959 -0.0200585 -9.94951 
-9.97012 -0.00418025 -0.00898395 
-0.00418025 -9.96455 -0.0185424 
-0.00898395 -0.0185424 -9.95925 
-9.9173 -0.156991 -0.0852935 
-0.156991 -9.82118 0.215001 
-0.0852935 0.215001 -10.1612 
-9.94076 -0.275479 -0.0302566 
-0.275479 -9.86593 0.0924579 
-0.0302566 0.0924579 -10.093 
-9.97175 -0.100416 0.0546093 
-0.100416 -10.2701 -0.211231 
0.0546093 -0.211231 -9.65788 
-9.90824 -0.322711 -0.00538908 
-0.322711 -9.75338 0.118143 
-0.00538908 0.118143 -10.2381 
-9.97142 0.00204008 0.017696 
0.00204008 -9.98636 -0.0234539 
0.017696 -0.0234539 -9.98488 
-9.9789 0.00540922 0.0158089 
0.00540922 -9.98527 -0.0199248 
0.0158089 -0.0199248 -9.9785 
-9.97687 0.00202936 0.0243502 
0.00202936 -9.98047 -0.0112345 
0.0243502 -0.0112345 -9.98532 
-9.97818 0.00752496 0.0273936 
0.00752496 -9.98578 -0.00968698 
0.0273936 -0.00968698 -9.97871 
-9.99372 0.00455114 -0.0256111 
0.00455114 -9.95089 0.0158113 
-0.0256111 0.0158113 -10.0235 
-9.97049 -0.032243 0.000771886 
-0.032243 -9.95743 -0.00887838 
0.000771886 -0.00887838 -10.0402 
-9.97709 -0.0101712 0.0207121 
-0.0101712 -10.0028 -0.0312859 
0.0207121 -0.0312859 -9.98822 
-9.98887 -0.00186245 0.00410352 
-0.00186245 -9.94375 0.00335494 
0.00410352 0.00335494 -10.0355 
-10.1501 -0.116644 0.0234794 
-0.116644 -10.2443 0.0584068 
0.0234794 0.0584068 -10.6206 
-10.0346 -0.164855 -0.148162 
-0.164855 -10.2782 0.0123444 
-0.148162 0.0123444 -10.7021 
-10.2365 0.0773485 -0.0377569 
0.0773485 -10.1403 0.0479647 
-0.0377569 0.0479647 -10.6381 
-10.1634 -0.00177691 -0.161484 
-0.00177691 -10.2937 -0.0218208 
-0.161484 -0.0218208 -10.5578 
-9.73721 -0.511359 -0.0588226 
-0.511359 -10.142 -0.0406275 
-0.0588226 -0.0406275 -10.2846 
-10.1377 0.293269 -0.53998 
0.293269 -10.1326 0.0153033 
-0.53998 0.0153033 -9.89348 
-9.81123 -0.0747638 -0.0350332 
-0.0747638 -9.75734 -0.0483815 
-0.0350332 -0.0483815 -10.5952 
-9.81924 -0.324084 -0.269633 
-0.324084 -9.98431 0.0014821 
-0.269633 0.0014821 -10.3603 
-9.9734 -0.00871556 -0.00904499 
-0.00871556 -9.96553 -0.00847295 
-0.00904499 -0.00847295 -9.93432 
-9.97471 -0.00738927 -0.00124099 
-0.00738927 -9.9589 -0.0163956 
-0.00124099 -0.0163956 -9.93965 
-9.9894 -0.0137073 -0.0362108 
-0.0137073 -9.97984 -0.0204327 
-0.0362108 -0.0204327 -9.90402 
-9.96444 -0.00531821 -0.0211607 
-0.00531821 -9.96066 -0.00278238 
-0.0211607 -0.00278238 -9.94815 
-9.96984 -0.0105247 -0.0311275 
-0.0105247 -9.96564 -0.0269381 
-0.0311275 -0.0269381 -9.95739 
-9.96528 -0.00771696 -0.0328607 
-0.00771696 -9.97323 -0.0340275 
-0.0328607 -0.0340275 -9.95436 
-9.96407 -0.00130324 -0.0261179 
-0.00130324 -9.95962 -0.0355896 
-0.0261179 -0.0355896 -9.96918 
-9.96188 -0.0030147 -0.0313901 
-0.0030147 -9.96656 -0.0308648 
-0.0313901 -0.0308648 -9.96443 
-10.3453 0.118803 0.191144 
0.118803 -10.5581 0.0956203 
0.191144 0.0956203 -11.2532 
-10.2417 0.275848 0.124617 
0.275848 -10.5859 -0.0547263 
0.124617 -0.0547263 -11.3289 
-9.22231 0.340667 -0.295539 
0.340667 -9.64914 -0.162619 
-0.295539 -0.162619 -13.2851 
-10.0067 0.177689 0.0353824 
0.177689 -10.7676 -0.199093 
0.0353824 -0.199093 -11.3823 
-9.93228 0.00126696 -0.000542212 
0.00126696 -9.93831 0.00992754 
-0.000542212 0.00992754 -10.0148 
-9.9286 -0.00172247 0.00544403 
-0.00172247 -9.93898 0.0114429 
0.00544403 0.0114429 -10.0178 
-9.93986 -0.001863 -0.00169892 
-0.001863 -9.93773 0.0143123 
-0.00169892 0.0143123 -10.0078 
-9.9281 0.000687704 0.011905 
0.000687704 -9.93314 0.011619 
0.011905 0.011619 -10.0241 
-9.94524 -0.00860538 0.00564672 
-0.00860538 -9.94033 0.00971486 
0.00564672 0.00971486 -10.0054 
-9.95418 0.00653415 0.00386341 
0.00653415 -9.94561 0.0152924 
0.00386341 0.0152924 -9.99119 
-9.94402 -0.006011 -0.00498724 
-0.006011 -9.94357 0.00612876 
-0.00498724 0.00612876 -10.0034 
-9.94325 0.00791606 -0.00221374 
0.00791606 -9.93589 0.0228254 
-0.00221374 0.0228254 -10.0118 
-9.97782 -0.00430921 0.0764178 
-0.00430921 -9.97715 -0.0180203 
0.0764178 -0.0180203 -9.97505 
-9.97635 -0.0011787 0.071905 
-0.0011787 -9.97458 -0.0130776 
0.071905 -0.0130776 -9.97909 
-9.97982 -0.00296515 0.069579 
-0.00296515 -9.9793 -0.0151948 
0.069579 -0.0151948 -9.9709 
-9.98381 -0.00549549 0.0726743 
-0.00549549 -9.97395 -0.0196781 
0.0726743 -0.0196781 -9.97227 
-9.9871 0.00250817 -0.0349053 
0.00250817 -9.99195 -0.0306494 
-0.0349053 -0.0306494 -9.99873 
-9.99283 -0.00404021 -0.0383216 
-0.00404021 -9.99424 -0.0313127 
-0.0383216 -0.0313127 -9.99071 
-9.9876 -0.00128413 -0.0354135 
-0.00128413 -9.9894 -0.0272722 
-0.0354135 -0.0272722 -10.0008 
-9.99609 -0.00119927 -0.037527 
-0.00119927 -9.99284 -0.0304418 
-0.037527 -0.0304418 -9.98884 
-9.96348 -0.00197153 -0.0367563 
-0.00197153 -9.9705 -0.0434446 
-0.0367563 -0.0434446 -9.96862 
-9.96815 -0.00403058 -0.0316275 
-0.00403058 -9.97498 -0.0473861 
-0.0316275 -0.0473861 -9.95948 
-9.96756 -0.00912177 -0.0360867 
-0.00912177 -9.97459 -0.0433941 
-0.0360867 -0.0433941 -9.96046 
-9.96465 -0.00602579 -0.0351424 
-0.00602579 -9.97185 -0.0428801 
-0.0351424 -0.0428801 -9.9661 
-10.0933 0.014937 0.0546355 
0.014937 -10.1008 0.00866654 
0.0546355 0.00866654 -10.1995 
-10.1438 -0.0206202 -0.00032394 
-0.0206202 -10.1307 -0.0116843 
-0.00032394 -0.0116843 -10.119 
-10.227 0.00133927 -0.020273 
0.00133927 -10.1414 -0.0210344 
-0.020273 -0.0210344 -10.0251 
-10.05 0.055611 -0.0232162 
0.055611 -10.1512 -0.0418141 
-0.0232162 -0.0418141 -10.1924 
-9.92655 0.00683898 -0.0477565 
0.00683898 -9.91386 0.0404256 
-0.0477565 0.0404256 -9.92579 
-9.93194 -0.00347731 -0.0545884 
-0.00347731 -9.91616 0.0359213 
-0.0545884 0.0359213 -9.9181 
-9.9027 -0.0249382 -0.0600265 
-0.0249382 -9.91034 0.0437431 
-0.0600265 0.0437431 -9.95315 
-9.93145 -0.00528517 -0.0338381 
-0.00528517 -9.89668 0.0347743 
-0.0338381 0.0347743 -9.93806 
-9.95404 0.000425815 0.00345398 
0.000425815 -9.95585 -0.00443403 
0.00345398 -0.00443403 -9.99174 
-9.96128 0.00470641 0.00661019 
0.00470641 -9.95169 -0.000342035 
0.00661019 -0.000342035 -9.98866 
-9.95774 -0.00103263 0.00179142 
-0.00103263 -9.9515 0.000852687 
0.00179142 0.000852687 -9.99239 
-9.95379 0.00183899 0.00158422 
0.00183899 -9.95513 -0.000430204 
0.00158422 -0.000430204 -9.99272 
-9.98846 -0.000199265 -0.055109 
-0.000199265 -9.98611 0.0240685 
-0.055109 0.0240685 -10.006 
-9.99617 -0.00168949 -0.0572623 
-0.00168949 -9.99238 0.025853 
-0.0572623 0.025853 -9.99205 
-9.99365 -0.0020175 -0.0570169 
-0.0020175 -9.99394 0.025579 
-0.0570169 0.025579 -9.99301 
-9.99719 -0.000528875 -0.0599087 
-0.000528875 -9.99383 0.0247696 
-0.0599087 0.0247696 -9.98958 
-9.08322 -0.125139 -0.302755 
-0.125139 -10.841 1.28623 
-0.302755 1.28623 -7.43773 
-8.7973 -0.012711 0.840883 
-0.012711 -9.50807 0.785708 
0.840883 0.785708 -9.05656 
-9.39345 0.423985 -0.15795 
0.423985 -9.56613 0.846512 
-0.15795 0.846512 -8.40237 
-10.3565 -0.232761 -0.776316 
-0.232761 -10.3917 -0.655893 
-0.776316 -0.655893 -6.61378 
-9.87418 0.00351466 0.0294451 
0.00351466 -9.90371 0.00141012 
0.0294451 0.00141012 -10.0926 
-9.90831 0.0136497 0.028932 
0.0136497 -9.89728 -0.0154539 
0.028932 -0.0154539 -10.0649 
-9.89191 0.0201449 0.00808905 
0.0201449 -9.86637 0.0176962 
0.00808905 0.0176962 -10.1122 
-9.88038 -0.00299214 0.0268159 
-0.00299214 -9.89745 0.0191104 
0.0268159 0.0191104 -10.0926 
-9.8732 0.0222398 0.0639915 
0.0222398 -9.8827 -0.0723227 
0.0639915 -0.0723227 -9.93817 
-9.86535 -0.0212319 0.0712098 
-0.0212319 -9.90028 -0.0597548 
0.0712098 -0.0597548 -9.92844 
-9.86935 0.0378837 0.0936995 
0.0378837 -9.8929 -0.0625773 
0.0936995 -0.0625773 -9.93182 
-9.87312 0.0269213 0.0604709 
0.0269213 -9.91345 -0.0475438 
0.0604709 -0.0475438 -9.9075 
-9.93115 -0.02319 -0.0167457 
-0.02319 -9.92091 -0.0342044 
-0.0167457 -0.0342044 -10.038 
-9.92806 -0.0215632 -0.0183427 
-0.0215632 -9.91494 -0.0212421 
-0.0183427 -0.0212421 -10.0471 
-9.92475 -0.017693 -0.0257271 
-0.017693 -9.90605 -0.0249135 
-0.0257271 -0.0249135 -10.0593 
-9.90518 0.00456334 -0.0032974 
0.00456334 -9.94988 0.0135525 
-0.0032974 0.0135525 -10.035 
-10.3274 1.76159 -1.82852 
1.76159 -11.2075 -2.43572 
-1.82852 -2.43572 -5.18121 
-9.59915 2.2915 1.0381 
2.2915 -8.9806 0.937847 
1.0381 0.937847 -8.13638 
-6.67924 2.77012 0.515965 
2.77012 -9.66837 2.59003 
0.515965 2.59003 -10.3685 
-10.4848 0.338531 -0.215056 
0.338531 -9.12625 -1.6922 
-0.215056 -1.6922 -7.10504 
-10.1738 0.133153 0.125207 
0.133153 -10.0698 -0.0566079 
0.125207 -0.0566079 -10.6417 
-10.3746 -0.112324 0.086329 
-0.112324 -10.1145 -0.0400128 
0.086329 -0.0400128 -10.3962 
-10.3424 0.0352816 0.104424 
0.0352816 -10.6439 0.181372 
0.104424 0.181372 -9.89895 
-10.2413 0.0170433 -0.042936 
0.0170433 -10.2355 0.0906025 
-0.042936 0.0906025 -10.4084 
-10.0538 -0.0517612 0.00964069 
-0.0517612 -9.93469 0.176632 
0.00964069 0.176632 -9.88291 
-9.90439 0.0324008 0.0452801 
0.0324008 -9.91457 -0.119335 
0.0452801 -0.119335 -10.0524 
-10.0158 -0.002825 0.0117912 
-0.002825 -9.77824 -0.0243275 
0.0117912 -0.0243275 -10.0774 
-9.92156 0.0396628 -0.0397218 
0.0396628 -9.84123 -0.0386024 
-0.0397218 -0.0386024 -10.1086 
-9.86905 0.0759609 0.0138297 
0.0759609 -9.88144 -0.150126 
0.0138297 -0.150126 -9.71418 
-9.93204 0.0473065 0.00458576 
0.0473065 -9.84754 -0.180323 
0.00458576 -0.180323 -9.68508 
-9.83639 0.0611822 -0.0419101 
0.0611822 -9.88635 -0.145348 
-0.0419101 -0.145348 -9.74192 
-9.8904 0.0636494 -0.0830563 
0.0636494 -9.77357 -0.0101704 
-0.0830563 -0.0101704 -9.80069 
-9.95227 0.00431935 0.0449703 
0.00431935 -9.95169 0.0580704 
0.0449703 0.0580704 -9.96527 
-9.95292 0.00470505 0.0430313 
0.00470505 -9.9538 0.0556609 
0.0430313 0.0556609 -9.96251 
-9.95169 -0.00885243 0.0464786 
-0.00885243 -9.96427 0.0553862 
0.0464786 0.0553862 -9.95327 
-9.96057 -0.00528964 0.0411561 
-0.00528964 -9.9438 0.0529169 
0.0411561 0.0529169 -9.96487 
-10.0011 0.0198608 -0.0209629 
0.0198608 -9.95753 -0.0134201 
-0.0209629 -0.0134201 -10.0096 
-10.0088 0.0494255 -0.0167909 
0.0494255 -9.92415 -0.017074 
-0.0167909 -0.017074 -10.0352 
-9.99183 -0.010415 0.0141918 
-0.010415 -9.94564 -0.0171141 
0.0141918 -0.0171141 -10.0308 
-10.0027 0.0105501 -0.00594597 
0.0105501 -9.9422 -0.0217068 
-0.00594597 -0.0217068 -10.0233 
-9.86852 -0.00406082 -0.0569732 
-0.00406082 -9.91399 -0.00710093 
-0.0569732 -0.00710093 -9.90643 
-9.90114 -0.00327784 -0.0552168 
-0.00327784 -9.98807 -0.0143895 
-0.0552168 -0.0143895 -9.79973 
-9.92074 -0.0128237 -0.0336542 
-0.0128237 -9.91564 -0.0577764 
-0.0336542 -0.0577764 -9.85256 
-9.9078 -0.0118542 -0.044395 
-0.0118542 -9.93363 -0.0302782 
-0.044395 -0.0302782 -9.84751 
-9.91347 0.012266 -0.0406047 
0.012266 -9.91848 -0.0673568 
-0.0406047 -0.0673568 -9.93516 
-9.92185 0.0139411 -0.0406435 
0.0139411 -9.92598 -0.0667736 
-0.0406435 -0.0667736 -9.91929 
-9.91221 -0.00582428 -0.0376594 
-0.00582428 -9.94066 -0.081198 
-0.0376594 -0.081198 -9.91424 
-9.9228 -0.000167665 -0.0411161 
-0.000167665 -9.91908 -0.0682638 
-0.0411161 -0.0682638 -9.92524 
-9.93962 -0.059889 -0.0415717 
-0.059889 -9.94476 -0.00444489 
-0.0415717 -0.00444489 -9.91685 
-9.93519 0.000618051 -0.0393452 
0.000618051 -9.93065 -0.012128 
-0.0393452 -0.012128 -9.93539 
-9.92597 -0.0284368 -0.0227641 
-0.0284368 -9.93907 -0.0163161 
-0.0227641 -0.0163161 -9.93619 
-9.94184 -0.029766 -0.0192901 
-0.029766 -9.94133 0.0109615 
-0.0192901 0.0109615 -9.91807 
-10.1702 0.0064518 -0.0862415 
0.0064518 -9.80155 -0.275438 
-0.0862415 -0.275438 -9.26384 
-9.97612 0.113033 -0.17299 
0.113033 -9.90123 -0.150127 
-0.17299 -0.150127 -9.35821 
-10.2379 -0.0126411 -0.0478701 
-0.0126411 -9.7863 -0.346012 
-0.0478701 -0.346012 -9.21138 
-10.1953 0.0402228 -0.106031 
0.0402228 -9.80289 -0.282957 
-0.106031 -0.282957 -9.23736 
-9.84494 0.0856994 0.110296 
0.0856994 -9.82403 0.016093 
0.110296 0.016093 -9.92741 
-9.80522 0.0924041 0.103048 
0.0924041 -9.87044 0.0136859 
0.103048 0.0136859 -9.92072 
-9.88017 0.104348 0.0282103 
0.104348 -9.83877 -0.0542568 
0.0282103 -0.0542568 -9.87745 
-9.84896 0.0346156 0.0930649 
0.0346156 -9.87663 0.00745309 
0.0930649 0.00745309 -9.8708 
-9.88778 -0.0360631 0.0270744 
-0.0360631 -9.94392 0.027251 
0.0270744 0.027251 -9.97727 
-9.9173 -0.0132622 0.00850018 
-0.0132622 -9.9315 0.00446699 
0.00850018 0.00446699 -9.96018 
-9.92137 0.000498027 0.0116347 
0.000498027 -9.91491 0.0195252 
0.0116347 0.0195252 -9.9727 
-9.92027 -0.00830264 -0.0210698 
-0.00830264 -9.90717 0.0482598 
-0.0210698 0.0482598 -9.98154 
-10.0561 0.091205 0.0111765 
0.091205 -9.88238 0.00429256 
0.0111765 0.00429256 -9.39354 
-10.0873 0.118787 0.150539 
0.118787 -9.80511 -0.0109613 
0.150539 -0.0109613 -9.43957 
-10.0918 -0.121038 0.129686 
-0.121038 -9.93219 -0.0515575 
0.129686 -0.0515575 -9.30799 
-9.93965 -0.279896 0.177648 
-0.279896 -9.83251 -0.0142282 
0.177648 -0.0142282 -9.55982 
-9.97455 0.00375665 -0.0369533 
0.00375665 -9.97202 -0.0783548 
-0.0369533 -0.0783548 -9.97301 
-9.96771 -0.000329765 -0.0335716 
-0.000329765 -9.9724 -0.0649825 
-0.0335716 -0.0649825 -9.97947 
-9.97036 0.000957538 -0.0340247 
0.000957538 -9.97752 -0.0686231 
-0.0340247 -0.0686231 -9.9717 
-9.9719 0.0078483 -0.0385891 
0.0078483 -9.98542 -0.068109 
-0.0385891 -0.068109 -9.96226 
-9.98513 -0.032493 0.00186232 
-0.032493 -9.99935 0.0431909 
0.00186232 0.0431909 -10.064 
-10.0272 0.0170156 -0.0130871 
0.0170156 -9.95803 -0.0124906 
-0.0130871 -0.0124906 -10.0633 
-10.0362 0.00675374 -0.00803423 
0.00675374 -9.9767 0.00185484 
-0.00803423 0.00185484 -10.0356 
-10.0295 -0.0223886 0.00657955 
-0.0223886 -9.97954 -0.0200622 
0.00657955 -0.0200622 -10.0394 
-9.97463 0.00335577 -0.0413479 
0.00335577 -9.97275 0.0564115 
-0.0413479 0.0564115 -9.985 
-9.97526 -0.00142552 -0.0405923 
-0.00142552 -9.97477 0.0609624 
-0.0405923 0.0609624 -9.98234 
-9.97819 -0.00138607 -0.039593 
-0.00138607 -9.9764 0.0583293 
-0.039593 0.0583293 -9.9778 
-9.97805 -0.00274462 -0.0425658 
-0.00274462 -9.97928 0.0625983 
-0.0425658 0.0625983 -9.97504 
-9.94982 -0.00604747 -0.00452752 
-0.00604747 -9.92607 0.000455592 
-0.00452752 0.000455592 -10.0043 
-9.95229 0.00686644 -0.00388219 
0.00686644 -9.9494 -0.0115837 
-0.00388219 -0.0115837 -9.97846 
-9.94819 -0.00281288 0.0162474 
-0.00281288 -9.92617 0.00980616 
0.0162474 0.00980616 -10.0058 
-9.94352 0.0166734 -0.00286494 
0.0166734 -9.94508 -0.0241377 
-0.00286494 -0.0241377 -9.99154 
-10.1139 -0.220241 -0.0337862 
-0.220241 -9.74337 0.0511829 
-0.0337862 0.0511829 -10.5216 
-9.97248 -0.223801 0.0242142 
-0.223801 -10.0626 0.068017 
0.0242142 0.068017 -10.3437 
-9.91169 -0.208721 0.0181604 
-0.208721 -10.1174 0.0998547 
0.0181604 0.0998547 -10.3497 
-9.99226 -0.231857 -0.00235166 
-0.231857 -10.0632 0.075916 
-0.00235166 0.075916 -10.3234 
-9.94289 -0.0226878 0.0363409 
-0.0226878 -9.947 0.0283099 
0.0363409 0.0283099 -9.9531 
-9.9391 -0.00781078 0.0245045 
-0.00781078 -9.97859 -0.00437388 
0.0245045 -0.00437388 -9.9253 
-9.9486 -0.0109153 0.031786 
-0.0109153 -9.94804 0.0372427 
0.031786 0.0372427 -9.94635 
-9.93819 -0.0132939 0.0181948 
-0.0132939 -9.9448 0.0143445 
0.0181948 0.0143445 -9.96 
-10.0415 0.0974331 -0.0957756 
0.0974331 -10.043 0.00705615 
-0.0957756 0.00705615 -10.4315 
-10.1765 0.442437 0.132025 
0.442437 -10.044 -0.115087 
0.132025 -0.115087 -10.2955 
-9.97767 0.605533 -0.0793298 
0.605533 -9.85896 -0.144916 
-0.0793298 -0.144916 -10.6793 
-10.2252 0.0965857 0.414497 
0.0965857 -9.87496 -0.368959 
0.414497 -0.368959 -10.4158 
-9.9545 -0.00501269 0.0376898 
-0.00501269 -9.96103 0.0364283 
0.0376898 0.0364283 -9.9658 
-9.95884 -0.00590819 0.0423659 
-0.00590819 -9.95855 0.0402929 
0.0423659 0.0402929 -9.96394 
-9.96538 -0.00197984 0.0436167 
-0.00197984 -9.96285 0.0309551 
0.0436167 0.0309551 -9.9531 
-9.94755 -0.00251257 0.0279827 
-0.00251257 -9.95565 0.0365112 
0.0279827 0.0365112 -9.97813 
-7.43308 0.182286 0.0529256 
0.182286 -9.35299 -1.17351 
0.0529256 -1.17351 -4.17981 
-7.33356 0.481233 -0.0690165 
0.481233 -9.21367 -0.40796 
-0.0690165 -0.40796 -4.41864 
-6.99302 -0.215072 -0.466169 
-0.215072 -9.4738 -1.61392 
-0.466169 -1.61392 -4.49906 
-6.96088 1.79983 1.701 
1.79983 -9.21909 0.301301 
1.701 0.301301 -4.78591 
-7.12324 -1.54012 -0.925382 
-1.54012 -9.26867 -0.652942 
-0.925382 -0.652942 -4.61511 
-7.95318 2.11731 -0.303058 
2.11731 -10.8803 -1.54302 
-0.303058 -1.54302 -2.17352 
-6.59756 1.59681 1.17616 
1.59681 -9.34569 -0.29717 
1.17616 -0.29717 -5.06377 
-6.66031 1.02908 -0.0171864 
1.02908 -9.74021 -1.34419 
-0.0171864 -1.34419 -4.60649 
-9.90257 -0.0190032 0.0539432 
-0.0190032 -9.87992 -0.0132537 
0.0539432 -0.0132537 -9.93171 
-9.9963 -0.00899895 0.0349112 
-0.00899895 -9.85461 -0.00804714 
0.0349112 -0.00804714 -9.86328 
-9.83127 -0.0177986 0.0188298 
-0.0177986 -9.92244 -0.0176641 
0.0188298 -0.0176641 -9.96048 
-9.89052 -0.0136612 0.0688405 
-0.0136612 -9.87475 -0.0236367 
0.0688405 -0.0236367 -9.94893 
-9.94034 0.093139 -0.0499073 
0.093139 -9.9007 -0.00299088 
-0.0499073 -0.00299088 -10.0257 
-9.98681 0.11837 0.015363 
0.11837 -9.85144 -0.0538572 
0.015363 -0.0538572 -10.0285 
-9.95188 0.227045 -0.0379572 
0.227045 -9.88721 0.044056 
-0.0379572 0.044056 -10.0277 
-9.94421 0.0806766 0.00631739 
0.0806766 -9.95834 0.100272 
0.00631739 0.100272 -9.9642 
-9.9672 0.00109262 -0.0222348 
0.00109262 -9.96194 -0.00728542 
-0.0222348 -0.00728542 -9.95348 
-9.9506 0.00625273 -0.0218382 
0.00625273 -9.95754 0.00601391 
-0.0218382 0.00601391 -9.97447 
-9.97079 -0.0102633 -0.00766374 
-0.0102633 -9.96818 -0.02245 
-0.00766374 -0.02245 -9.94364 
-9.97064 0.000332332 -0.0258938 
0.000332332 -9.96073 -0.00917017 
-0.0258938 -0.00917017 -9.95124 
-9.863 0.024837 0.111856 
0.024837 -9.88907 -0.0945308 
0.111856 -0.0945308 -9.88505 
-9.85315 -0.00898794 0.0902752 
-0.00898794 -9.87057 -0.0709385 
0.0902752 -0.0709385 -9.91339 
-9.85571 0.0162856 0.0999122 
0.0162856 -9.89481 -0.0724534 
0.0999122 -0.0724534 -9.8866 
-9.86625 0.0132992 0.063836 
0.0132992 -9.91624 -0.0701132 
0.063836 -0.0701132 -9.85462 
-9.9467 0.00349864 -0.0448947 
0.00349864 -9.95755 0.0521232 
-0.0448947 0.0521232 -9.94106 
-9.94409 0.00225523 -0.0385209 
0.00225523 -9.93481 0.0473173 
-0.0385209 0.0473173 -9.96642 
-9.94535 0.00664358 -0.0470209 
0.00664358 -9.95195 0.0431042 
-0.0470209 0.0431042 -9.94801 
-9.94401 0.00098383 -0.0423654 
0.00098383 -9.94949 0.0443352 
-0.0423654 0.0443352 -9.95181 
-9.97637 -0.0034227 -0.00529469 
-0.0034227 -9.9681 -7.12943e-05 
-0.00529469 -7.12943e-05 -9.99503 
-9.98244 0.00265696 0.00591225 
0.00265696 -9.97467 -0.00101116 
0.00591225 -0.00101116 -9.98239 
-9.97308 -0.00202761 -0.000440604 
-0.00202761 -9.97004 0.000438381 
-0.000440604 0.000438381 -9.99639 
-9.977 0.000393756 -0.000177632 
0.000393756 -9.97389 -0.00342449 
-0.000177632 -0.00342449 -9.98862 
-10.3516 0.0532106 -0.0566868 
0.0532106 -10.3435 -0.00265105 
-0.0566868 -0.00265105 -9.8241 
-10.2356 -0.0193046 -0.133322 
-0.0193046 -10.292 -0.00948811 
-0.133322 -0.00948811 -9.9915 
-9.96961 0.0771438 0.137698 
0.0771438 -9.71422 -0.0157055 
0.137698 -0.0157055 -10.8353 
-10.1818 -0.161305 -0.284541 
-0.161305 -10.1507 0.302851 
-0.284541 0.302851 -10.1866 
-9.89353 0.0624389 -0.0336253 
0.0624389 -9.89589 -0.0333151 
-0.0336253 -0.0333151 -9.9409 
-9.90946 0.031735 -0.0410163 
0.031735 -9.90348 -0.0427233 
-0.0410163 -0.0427233 -9.91738 
-9.88878 0.0443614 -0.0347613 
0.0443614 -9.9329 -0.0443382 
-0.0347613 -0.0443382 -9.90864 
-9.8846 0.0315531 -0.01257 
0.0315531 -9.94453 -0.0329966 
-0.01257 -0.0329966 -9.90119 
-9.9029 0.0526259 0.207956 
0.0526259 -9.98191 0.0837235 
0.207956 0.0837235 -9.83356 
-9.87853 0.0567409 0.168363 
0.0567409 -9.95171 0.132666 
0.168363 0.132666 -9.88812 
-9.84964 0.0167772 0.171183 
0.0167772 -9.95876 0.0488557 
0.171183 0.0488557 -9.90997 
-9.90979 0.0511199 0.154639 
0.0511199 -9.95391 0.134076 
0.154639 0.134076 -9.85465 
-9.91528 0.0232977 -0.004104 
0.0232977 -9.9151 0.0623837 
-0.004104 0.0623837 -9.95425 
-9.91932 -0.000624003 0.0599594 
-0.000624003 -9.90594 0.0730088 
0.0599594 0.0730088 -9.95937 
-9.94032 -0.0102538 0.0601148 
-0.0102538 -9.92366 -0.00736798 
0.0601148 -0.00736798 -9.92065 
-9.92034 0.0247797 0.0694783 
0.0247797 -9.91741 0.0434872 
0.0694783 0.0434872 -9.94687 
-9.88905 0.0277099 -0.0464291 
0.0277099 -9.89549 -0.0680833 
-0.0464291 -0.0680833 -9.92099 
-9.89302 0.0234662 -0.0399695 
0.0234662 -9.89043 -0.0668281 
-0.0399695 -0.0668281 -9.92209 
-9.87927 -0.0101229 -0.0356445 
-0.0101229 -9.92552 -0.0630044 
-0.0356445 -0.0630044 -9.90075 
-9.90365 0.0142905 -0.0445236 
0.0142905 -9.88912 -0.08284 
-0.0445236 -0.08284 -9.91277 
-10.1892 -0.0259892 -0.0159622 
-0.0259892 -10.0995 0.0195701 
-0.0159622 0.0195701 -10.4504 
-10.1949 -0.170068 0.0514697 
-0.170068 -10.141 -0.0406447 
0.0514697 -0.0406447 -10.4032 
-10.2759 -0.0180299 0.0239505 
-0.0180299 -10.3885 0.011602 
0.0239505 0.011602 -10.0747 
-10.244 -0.0956263 -0.0771919 
-0.0956263 -10.2671 -0.166359 
-0.0771919 -0.166359 -10.228 
-9.98852 0.000564474 -0.00535078 
0.000564474 -9.99151 0.0090207 
-0.00535078 0.0090207 -9.99887 
-9.9926 -0.000405327 -0.00529738 
-0.000405327 -9.99161 0.00669348 
-0.00529738 0.00669348 -9.99468 
-9.98949 -0.000591687 -0.00301874 
-0.000591687 -9.99096 0.00817853 
-0.00301874 0.00817853 -9.99846 
-9.99176 0.000721502 -0.00547706 
0.000721502 -9.9922 0.00638167 
-0.00547706 0.00638167 -9.99493 
-9.87379 0.0130099 -0.0184513 
0.0130099 -9.89261 -0.121917 
-0.0184513 -0.121917 -9.50953 
-9.94792 0.170115 -0.0558172 
0.170115 -9.83074 -0.329402 
-0.0558172 -0.329402 -9.49726 
-9.81306 0.0334746 -0.13187 
0.0334746 -9.89175 -0.0912071 
-0.13187 -0.0912071 -9.57111 
-9.82537 0.108478 0.0408732 
0.108478 -9.70719 -0.268926 
0.0408732 -0.268926 -9.74337 
-9.94274 -0.00696831 -0.0464096 
-0.00696831 -9.96006 -0.0646389 
-0.0464096 -0.0646389 -9.95008 
-9.94547 0.00730891 -0.0461438 
0.00730891 -9.94758 -0.0617041 
-0.0461438 -0.0617041 -9.95983 
-9.94907 0.00812619 -0.0468445 
0.00812619 -9.95079 -0.0566424 
-0.0468445 -0.0566424 -9.95303 
-9.94971 -0.00532091 -0.0485379 
-0.00532091 -9.94552 -0.0597647 
-0.0485379 -0.0597647 -9.95765 
-9.95292 -0.00486204 0.0415449 
-0.00486204 -9.94853 -0.0748112 
0.0415449 -0.0748112 -9.97935 
-9.95978 -0.00264493 0.032242 
-0.00264493 -9.96213 -0.0716679 
0.032242 -0.0716679 -9.95888 
-9.95706 0.00280013 0.0383348 
0.00280013 -9.9744 -0.0749339 
0.0383348 -0.0749339 -9.94934 
-9.9588 0.000620277 0.0305968 
0.000620277 -9.96253 -0.0603456 
0.0305968 -0.0603456 -9.95946 
-9.97853 -0.00247432 0.00419301 
-0.00247432 -9.9687 0.00213958 
0.00419301 0.00213958 -10.0016 
-9.9729 -0.00283699 -0.00138787 
-0.00283699 -9.973 0.00380006 
-0.00138787 0.00380006 -10.003 
-9.97333 -0.000419342 -0.00310578 
-0.000419342 -9.9759 0.00626761 
-0.00310578 0.00626761 -9.99964 
-9.97768 0.00091611 -0.0133882 
0.00091611 -9.98087 0.00968984 
-0.0133882 0.00968984 -9.99032 
-10.1968 0.0383298 -0.00992684 
0.0383298 -10.1667 -0.0317674 
-0.00992684 -0.0317674 -10.2131 
-10.0501 -0.0155445 -0.00159731 
-0.0155445 -10.2492 -0.0313483 
-0.00159731 -0.0313483 -10.2773 
-10.1053 -0.00488031 0.045919 
-0.00488031 -10.3042 0.0318103 
0.045919 0.0318103 -10.1671 
-10.2582 0.0137745 0.0762637 
0.0137745 -10.0659 0.0852315 
0.0762637 0.0852315 -10.2525 
-9.9224 -0.369215 0.287592 
-0.369215 -9.68795 -0.0755762 
0.287592 -0.0755762 -10.1825 
-9.93496 -0.184812 0.0893392 
-0.184812 -9.95945 -0.00632235 
0.0893392 -0.00632235 -9.89843 
-9.91589 -0.137611 0.144372 
-0.137611 -9.98886 -0.186178 
0.144372 -0.186178 -9.88809 
-9.96288 -0.14667 0.0935608 
-0.14667 -9.89496 -0.0579656 
0.0935608 -0.0579656 -9.935 
-9.94676 0.00305634 0.00438053 
0.00305634 -9.94517 0.0117869 
0.00438053 0.0117869 -10.0068 
-9.94512 -0.000660678 -0.00256271 
-0.000660678 -9.94105 0.0047418 
-0.00256271 0.0047418 -10.0125 
-9.94914 0.00265994 -0.00208048 
0.00265994 -9.9453 0.00873139 
-0.00208048 0.00873139 -10.0043 
-9.94864 -0.00722537 9.95023e-05 
-0.00722537 -9.94756 0.00231587 
9.95023e-05 0.00231587 -10.0025 
-9.94582 -0.000745516 0.09684 
-0.000745516 -9.91699 -0.0686083 
0.09684 -0.0686083 -9.93688 
-9.92803 0.0009052 0.0624936 
0.0009052 -9.92168 -0.0621577 
0.0624936 -0.0621577 -9.94998 
-9.94078 -0.0131476 0.0617248 
-0.0131476 -9.92256 -0.0607336 
0.0617248 -0.0607336 -9.93635 
-9.96221 0.00380558 0.0652132 
0.00380558 -9.92812 -0.08356 
0.0652132 -0.08356 -9.90936 
-9.99014 -0.00190719 -0.0109212 
-0.00190719 -9.98634 -0.00912481 
-0.0109212 -0.00912481 -10.0002 
-9.98519 0.00238121 -0.00948884 
0.00238121 -9.99068 -0.013106 
-0.00948884 -0.013106 -10.0008 
-9.99139 -0.00402886 -0.0108663 
-0.00402886 -9.99386 -0.0110668 
-0.0108663 -0.0110668 -9.99143 
-9.99445 -0.00232508 -0.00948995 
-0.00232508 -9.99145 -0.00990068 
-0.00948995 -0.00990068 -9.99076 
-10.2045 -0.094046 -0.007709 
-0.094046 -10.1394 -0.00637229 
-0.007709 -0.00637229 -10.3439 
-10.1902 -0.0871669 -0.0538746 
-0.0871669 -10.1672 -0.0722309 
-0.0538746 -0.0722309 -10.3304 
-10.1243 0.0232067 0.0151026 
0.0232067 -10.159 -0.0318209 
0.0151026 -0.0318209 -10.4045 
-10.2011 -0.0737881 -0.00175389 
-0.0737881 -10.1497 -0.0181229 
-0.00175389 -0.0181229 -10.337 
-9.95252 0.0104633 0.0540834 
0.0104633 -9.95171 0.0537984 
0.0540834 0.0537984 -9.97873 
-9.9604 -0.000721622 0.0500054 
-0.000721622 -9.95987 0.0482032 
0.0500054 0.0482032 -9.96268 
-9.96633 -0.0119988 0.049035 
-0.0119988 -9.96633 0.0560188 
0.049035 0.0560188 -9.9503 
-9.95451 0.00232962 0.0410267 
0.00232962 -9.96314 0.0372939 
0.0410267 0.0372939 -9.96531 
-9.96989 -0.00385598 -0.0629669 
-0.00385598 -9.96958 -0.0298473 
-0.0629669 -0.0298473 -9.98229 
-9.97409 0.0017411 -0.0702846 
0.0017411 -9.97219 -0.0324106 
-0.0702846 -0.0324106 -9.97549 
-9.97437 0.00291586 -0.068124 
0.00291586 -9.97624 -0.031595 
-0.068124 -0.031595 -9.97115 
-9.98009 0.0031245 -0.0712829 
0.0031245 -9.97692 -0.0357427 
-0.0712829 -0.0357427 -9.96476 
-9.92801 0.00036477 -0.0377134 
0.00036477 -9.9487 0.0614773 
-0.0377134 0.0614773 -9.9123 
-9.92029 0.0110359 -0.0412662 
0.0110359 -9.94606 0.0579919 
-0.0412662 0.0579919 -9.92267 
-9.92342 -0.010893 -0.0385997 
-0.010893 -9.90075 0.0626191 
-0.0385997 0.0626191 -9.96485 
-9.91983 -0.00485776 -0.0470417 
-0.00485776 -9.93751 0.0410238 
-0.0470417 0.0410238 -9.93168 
-9.88936 -0.00280347 0.0525421 
-0.00280347 -9.91233 0.000884141 
0.0525421 0.000884141 -10.135 
-9.90732 0.0039416 0.0519099 
0.0039416 -9.9067 -0.00180906 
0.0519099 -0.00180906 -10.1227 
-9.91337 0.00502574 0.0420579 
0.00502574 -9.91287 0.00159059 
0.0420579 0.00159059 -10.1105 
-9.89062 0.00688751 0.0507424 
0.00688751 -9.90506 -0.00691505 
0.0507424 -0.00691505 -10.141 
-9.88289 -0.0800303 -0.0207506 
-0.0800303 -9.83614 0.0545708 
-0.0207506 0.0545708 -10.0591 
-9.89805 -0.0186682 -0.0948149 
-0.0186682 -9.91742 0.0491061 
-0.0948149 0.0491061 -9.96262 
-9.95419 -0.0389322 -0.0442405 
-0.0389322 -9.94694 0.0181139 
-0.0442405 0.0181139 -9.87696 
-9.90704 -0.0266432 -0.0674613 
-0.0266432 -9.9037 0.0380496 
-0.0674613 0.0380496 -9.96734 
-9.96011 0.00160472 -0.03508 
0.00160472 -9.95102 0.0731208 
-0.03508 0.0731208 -9.98011 
-9.96314 0.00039768 -0.0409988 
0.00039768 -9.96619 0.058511 
-0.0409988 0.058511 -9.96191 
-9.96917 -0.00159837 -0.0531145 
-0.00159837 -9.96775 0.0595834 
-0.0531145 0.0595834 -9.95433 
-9.9581 0.00431516 -0.0346408 
0.00431516 -9.96792 0.0580758 
-0.0346408 0.0580758 -9.96522 
-9.94337 -0.00750931 -0.0275394 
-0.00750931 -9.94935 -0.0461234 
-0.0275394 -0.0461234 -9.92907 
-9.94557 -0.0113569 -0.0307709 
-0.0113569 -9.94635 -0.05659 
-0.0307709 -0.05659 -9.92987 
-9.94615 -0.0105952 -0.0228436 
-0.0105952 -9.95391 -0.0471722 
-0.0228436 -0.0471722 -9.92173 
-9.93443 0.0100844 -0.0259374 
0.0100844 -9.94098 -0.0366715 
-0.0259374 -0.0366715 -9.94639 
-9.94194 0.0155501 -0.0104356 
0.0155501 -9.9384 0.0200209 
-0.0104356 0.0200209 -9.95803 
-9.93926 0.0241174 -0.021997 
0.0241174 -9.94797 0.00695593 
-0.021997 0.00695593 -9.95114 
-9.93699 0.00728312 -0.0346923 
0.00728312 -9.94458 0.0175433 
-0.0346923 0.0175433 -9.95681 
-9.95212 0.0236525 -0.0133928 
0.0236525 -9.93517 0.0258519 
-0.0133928 0.0258519 -9.95108 
-9.73838 -0.39193 0.241423 
-0.39193 -9.80242 -0.341433 
0.241423 -0.341433 -9.94971 
-9.86219 -0.415023 0.451167 
-0.415023 -9.67141 -0.525495 
0.451167 -0.525495 -9.95691 
-10.1706 0.299172 0.0538677 
0.299172 -9.90675 -0.170624 
0.0538677 -0.170624 -9.41313 
-9.60105 -0.435528 0.333547 
-0.435528 -9.73633 -0.024192 
0.333547 -0.024192 -10.1531 
-9.94566 0.00318098 0.00184258 
0.00318098 -9.94858 -0.00960295 
0.00184258 -0.00960295 -10.0015 
-9.94477 0.00260432 0.0110893 
0.00260432 -9.93993 -0.00277516 
0.0110893 -0.00277516 -10.011 
-9.95178 0.00565668 0.00677862 
0.00565668 -9.94998 -0.0120914 
0.00677862 -0.0120914 -9.99394 
-9.94855 -0.000906691 0.000504492 
-0.000906691 -9.94755 0.00339512 
0.000504492 0.00339512 -9.9996 
-9.63427 -0.199171 0.434902 
-0.199171 -10.0632 0.0485719 
0.434902 0.0485719 -11.3934 
-9.8265 -1.24078 0.403652 
-1.24078 -10.6706 0.0651795 
0.403652 0.0651795 -10.5937 
-9.72592 0.207598 -0.114154 
0.207598 -10.15 -0.410877 
-0.114154 -0.410877 -11.2149 
-9.51701 0.577132 1.37233 
0.577132 -10.0182 0.480832 
1.37233 0.480832 -11.5557 
-9.94963 -0.0418062 -0.0633221 
-0.0418062 -9.85716 -0.00649615 
-0.0633221 -0.00649615 -9.91972 
-9.83673 -0.0581073 -0.0784978 
-0.0581073 -9.94463 0.0326902 
-0.0784978 0.0326902 -9.94515 
-9.88647 -0.0564762 -0.0691688 
-0.0564762 -9.93478 0.00156673 
-0.0691688 0.00156673 -9.90526 
-9.93826 -0.0816114 -0.156496 
-0.0816114 -9.83767 0.0602213 
-0.156496 0.0602213 -9.95058 
-9.99444 0.0110419 0.0166942 
0.0110419 -10.016 0.00176115 
0.0166942 0.00176115 -9.99229 
-9.99233 0.0214752 0.0126059 
0.0214752 -10.0035 0.00770471 
0.0126059 0.00770471 -10.0069 
-9.97513 -0.00350736 0.00416162 
-0.00350736 -10.0207 -0.00231824 
0.00416162 -0.00231824 -10.0069 
-9.9673 -0.00564983 0.0263236 
-0.00564983 -10.0392 0.000705112 
0.0263236 0.000705112 -9.99619 
-9.98197 3.32321e-05 -0.0331475 
3.32321e-05 -9.97991 -0.0530865 
-0.0331475 -0.0530865 -9.98764 
-9.98131 0.00136268 -0.0396468 
0.00136268 -9.98336 -0.0561467 
-0.0396468 -0.0561467 -9.98485 
-9.98144 -4.97947e-05 -0.0409555 
-4.97947e-05 -9.9816 -0.0525973 
-0.0409555 -0.0525973 -9.98647 
-9.9818 0.000351459 -0.0344637 
0.000351459 -9.98377 -0.0531022 
-0.0344637 -0.0531022 -9.98394 
-9.92057 -0.00446102 -0.0361157 
-0.00446102 -9.91631 0.0741645 
-0.0361157 0.0741645 -9.91755 
-9.92337 -0.0187292 -0.0363519 
-0.0187292 -9.92235 0.0755582 
-0.0363519 0.0755582 -9.9087 
-9.91661 -0.00620694 -0.0423472 
-0.00620694 -9.92034 0.0704598 
-0.0423472 0.0704598 -9.91747 
-9.91628 0.00060295 -0.0286982 
0.00060295 -9.915 0.0793401 
-0.0286982 0.0793401 -9.92315 
-9.84477 -0.01247 -0.178107 
-0.01247 -9.92353 -0.0881352 
-0.178107 -0.0881352 -9.90725 
-9.83294 -0.0121255 -0.0795846 
-0.0121255 -9.85084 -0.0895869 
-0.0795846 -0.0895869 -9.99177 
-9.83465 -0.0245545 -0.114857 
-0.0245545 -9.91548 -0.0343058 
-0.114857 -0.0343058 -9.92542 
-9.88034 -0.0349295 -0.0941827 
-0.0349295 -9.90901 -0.00450842 
-0.0941827 -0.00450842 -9.8862 
-9.96962 0.00446347 -0.00298908 
0.00446347 -9.97281 0.0223026 
-0.00298908 0.0223026 -9.97387 
-9.97113 0.000351353 -0.00335443 
0.000351353 -9.97305 0.0177464 
-0.00335443 0.0177464 -9.97212 
-9.9746 -0.00194943 -0.00470018 
-0.00194943 -9.97532 0.018097 
-0.00470018 0.018097 -9.96638 
-9.97363 -0.00114294 -0.00130208 
-0.00114294 -9.97759 0.0139819 
-0.00130208 0.0139819 -9.96508 
-9.99816 0.00639066 0.00776828 
0.00639066 -9.98059 -0.0156861 
0.00776828 -0.0156861 -9.99104 
-9.99607 -0.00305887 -0.000716693 
-0.00305887 -9.9798 -0.00669333 
-0.000716693 -0.00669333 -9.99393 
-9.99121 0.0043814 -0.00375827 
0.0043814 -9.97682 -0.00557956 
-0.00375827 -0.00557956 -10.0018 
-9.99111 -0.00126569 -0.00285762 
-0.00126569 -9.97941 -0.0172012 
-0.00285762 -0.0172012 -9.99927 
-9.94604 0.000388235 -0.00135756 
0.000388235 -9.95026 0.00747556 
-0.00135756 0.00747556 -9.9997 
-9.95621 0.00282669 -0.00559784 
0.00282669 -9.94507 0.00529236 
-0.00559784 0.00529236 -9.99474 
-9.95052 -0.00267376 0.00263152 
-0.00267376 -9.94624 0.00563108 
0.00263152 0.00563108 -9.99926 
-9.95127 0.000266374 -0.00488488 
0.000266374 -9.95224 0.00635677 
-0.00488488 0.00635677 -9.9925 
-9.9523 -0.0205303 -0.0148251 
-0.0205303 -9.93833 0.00528555 
-0.0148251 0.00528555 -9.99031 
-9.96333 0.0118648 -0.0148131 
0.0118648 -9.95074 0.00225191 
-0.0148131 0.00225191 -9.96688 
-9.95082 -0.00717131 -0.02092 
-0.00717131 -9.93899 0.0121042 
-0.02092 0.0121042 -9.99114 
-9.93461 -0.00680774 -0.0267127 
-0.00680774 -9.96458 0.0110369 
-0.0267127 0.0110369 -9.98177 
-10.0796 -0.443578 -0.0442692 
-0.443578 -9.54032 -0.20851 
-0.0442692 -0.20851 -10.6433 
-9.85281 0.479866 -0.0626626 
0.479866 -10.4018 -0.316737 
-0.0626626 -0.316737 -10.0086 
-9.9526 -0.184095 -0.0101469 
-0.184095 -9.48365 -0.147879 
-0.0101469 -0.147879 -10.8269 
-10.2659 -0.58733 0.214848 
-0.58733 -9.19156 -0.762806 
0.214848 -0.762806 -10.8057 
-9.90376 -0.00620049 -0.0548174 
-0.00620049 -9.91652 -0.0623159 
-0.0548174 -0.0623159 -9.97812 
-9.91061 -0.0143957 -0.060961 
-0.0143957 -9.91228 -0.045924 
-0.060961 -0.045924 -9.97552 
-9.92696 -0.013342 -0.0620989 
-0.013342 -9.89536 -0.0528003 
-0.0620989 -0.0528003 -9.97609 
-9.90664 -0.00280763 -0.0656617 
-0.00280763 -9.90963 -0.053931 
-0.0656617 -0.053931 -9.98214 
-9.93206 0.106421 0.0819443 
0.106421 -9.95974 0.05904 
0.0819443 0.05904 -9.78175 
-9.96249 0.154087 0.0982405 
0.154087 -9.91037 0.165316 
0.0982405 0.165316 -9.80069 
-9.84788 0.0345435 0.128808 
0.0345435 -10.0652 0.017669 
0.128808 0.017669 -9.76047 
-9.91688 0.0656256 0.0791683 
0.0656256 -9.93436 0.0119151 
0.0791683 0.0119151 -9.82232 
-10.4579 0.198165 -0.0427449 
0.198165 -10.4847 0.257038 
-0.0427449 0.257038 -9.95287 
-10.4203 0.0526045 -0.0919712 
0.0526045 -10.3422 0.193224 
-0.0919712 0.193224 -10.1329 
-10.1155 0.028657 0.00507658 
0.028657 -9.90501 -0.233691 
0.00507658 -0.233691 -10.875 
-10.5112 -0.0467292 -0.179236 
-0.0467292 -9.79838 0.353823 
-0.179236 0.353823 -10.5859 
-9.99497 0.00338692 0.00111682 
0.00338692 -9.99929 -0.043354 
0.00111682 -0.043354 -9.98457 
-9.99599 0.00342917 0.00096455 
0.00342917 -9.99428 -0.0404525 
0.00096455 -0.0404525 -9.98855 
-9.98857 0.000647761 0.00828585 
0.000647761 -9.98003 -0.0347397 
0.00828585 -0.0347397 -10.0102 
-9.9965 -0.0010709 -0.00322119 
-0.0010709 -10.0008 -0.038605 
-0.00322119 -0.038605 -9.98155 
-10.5896 0.06432 -0.0330214 
0.06432 -10.625 -0.244963 
-0.0330214 -0.244963 -9.55826 
-9.64115 0.113896 0.0577891 
0.113896 -10.1392 0.322143 
0.0577891 0.322143 -10.9926 
-10.356 -0.0133567 0.0452248 
-0.0133567 -10.2276 -0.116889 
0.0452248 -0.116889 -10.1893 
-10.2211 -0.250965 0.244003 
-0.250965 -10.0799 -0.238548 
0.244003 -0.238548 -10.472 
-9.94351 0.000121041 -0.00358013 
0.000121041 -9.96376 0.0877584 
-0.00358013 0.0877584 -9.91947 
-9.94796 -0.00191339 -0.00842203 
-0.00191339 -9.93815 0.0789799 
-0.00842203 0.0789799 -9.94063 
-9.94652 0.000371645 -0.00178282 
0.000371645 -9.9232 0.0843237 
-0.00178282 0.0843237 -9.95702 
-9.94754 0.00410354 -0.011905 
0.00410354 -9.94442 0.0654612 
-0.011905 0.0654612 -9.93478 
-9.89809 -0.0494599 0.024587 
-0.0494599 -9.88815 -0.025742 
0.024587 -0.025742 -9.96071 
-9.93292 0.02029 0.0524656 
0.02029 -9.89926 -0.0350101 
0.0524656 -0.0350101 -9.91477 
-9.92126 0.016894 0.044675 
0.016894 -9.92185 -0.0317385 
0.044675 -0.0317385 -9.90384 
-9.88716 -0.00647235 0.0531175 
-0.00647235 -9.91278 -0.0694622 
0.0531175 -0.0694622 -9.947 
-9.99824 -0.000692222 -0.00379465 
-0.000692222 -10.0137 -0.00934279 
-0.00379465 -0.00934279 -10.0004 
-9.99768 0.0111263 0.0110244 
0.0111263 -10.0023 0.00920605 
0.0110244 0.00920605 -10.0122 
-9.99796 -0.00907753 -0.002617 
-0.00907753 -10.0096 -0.00174093 
-0.002617 -0.00174093 -10.0047 
-9.99679 -0.0230273 0.0135043 
-0.0230273 -10.0269 0.0112631 
0.0135043 0.0112631 -9.9886 
-9.98633 -0.0413493 0.00202063 
-0.0413493 -10.0323 -0.0250024 
0.00202063 -0.0250024 -10.0448 
-10.0452 0.00235498 0.00654301 
0.00235498 -9.94519 0.0116169 
0.00654301 0.0116169 -10.0731 
-10.0203 -0.0825472 -0.00268683 
-0.0825472 -9.98952 -0.0286029 
-0.00268683 -0.0286029 -10.0536 
-10.0075 -0.0351975 -0.0128012 
-0.0351975 -9.99923 -0.0285503 
-0.0128012 -0.0285503 -10.0567 
-10.0168 -0.0113681 -0.00288956 
-0.0113681 -9.99323 -0.00452227 
-0.00288956 -0.00452227 -9.99186 
-9.96841 -0.0234157 0.00677394 
-0.0234157 -10.0115 0.00534475 
0.00677394 0.00534475 -10.022 
-10.0096 -0.0044536 0.000406505 
-0.0044536 -9.99739 -0.0205698 
0.000406505 -0.0205698 -9.99491 
-10.0036 -0.0175378 0.00484862 
-0.0175378 -10.0211 -0.0172408 
0.00484862 -0.0172408 -9.97714 
-9.9407 -0.000923245 -0.0261173 
-0.000923245 -9.94654 -0.0456299 
-0.0261173 -0.0456299 -9.91959 
-9.93477 -0.00262546 -0.0276646 
-0.00262546 -9.95036 -0.0427196 
-0.0276646 -0.0427196 -9.9217 
-9.94507 -0.00811766 -0.0271942 
-0.00811766 -9.96226 -0.039666 
-0.0271942 -0.039666 -9.89951 
-9.94656 -0.0117172 -0.0180597 
-0.0117172 -9.94642 -0.0319053 
-0.0180597 -0.0319053 -9.91386 
-9.94444 0.0551437 0.0803205 
0.0551437 -9.96126 0.031284 
0.0803205 0.031284 -10.0452 
-9.94247 -0.00897042 0.0680189 
-0.00897042 -9.90639 0.00584721 
0.0680189 0.00584721 -10.102 
-9.94328 0.0202595 0.0799902 
0.0202595 -9.92141 -0.0185086 
0.0799902 -0.0185086 -10.0862 
-9.90605 0.0385816 0.0905542 
0.0385816 -9.92939 -0.0535433 
0.0905542 -0.0535433 -10.1155 
-9.99108 -0.00812074 -0.00376444 
-0.00812074 -10.0291 -0.00569971 
-0.00376444 -0.00569971 -10.0382 
-10.0316 0.0131055 -0.00947935 
0.0131055 -10.0022 -0.0141403 
-0.00947935 -0.0141403 -10.0247 
-10.013 -0.00719492 -0.00948436 
-0.00719492 -10.0201 -0.0127469 
-0.00948436 -0.0127469 -10.0253 
-10.0173 -0.0138485 -0.00781422 
-0.0138485 -10.0308 -0.00901432 
-0.00781422 -0.00901432 -10.0104 
-9.95588 0.0129068 -0.00744203 
0.0129068 -9.96665 0.00842849 
-0.00744203 0.00842849 -9.93967 
-9.96333 -0.00512451 -0.00915993 
-0.00512451 -9.97742 0.0238822 
-0.00915993 0.0238822 -9.92145 
-9.96009 0.00351454 -0.00165016 
0.00351454 -9.97037 0.0184711 
-0.00165016 0.0184711 -9.93175 
-9.95584 -0.0102618 0.0106197 
-0.0102618 -9.96167 0.0291259 
0.0106197 0.0291259 -9.9447 
-9.93637 0.00358319 0.00816827 
0.00358319 -9.92647 0.0808464 
0.00816827 0.0808464 -9.94054 
-9.93926 0.00496506 -0.0160899 
0.00496506 -9.93703 0.068081 
-0.0160899 0.068081 -9.92709 
-9.93196 0.00480305 -0.0199673 
0.00480305 -9.94087 0.0870974 
-0.0199673 0.0870974 -9.93055 
-9.92902 -0.00305178 0.0025034 
-0.00305178 -9.9423 0.0700378 
0.0025034 0.0700378 -9.93206 
-9.97856 0.000846213 0.0763645 
0.000846213 -9.9849 0.00093809 
0.0763645 0.00093809 -9.98059 
-9.97795 0.000255959 0.072557 
0.000255959 -9.98604 -0.00059488 
0.072557 -0.00059488 -9.98006 
-9.98164 -0.00157866 0.0675523 
-0.00157866 -9.97499 -0.000739013 
0.0675523 -0.000739013 -9.98742 
-9.99333 -0.00553736 0.0780006 
-0.00553736 -9.97947 -0.000461663 
0.0780006 -0.000461663 -9.97125 
-9.96613 0.0159687 -0.0415638 
0.0159687 -9.98052 0.0691774 
-0.0415638 0.0691774 -9.94529 
-9.96309 -0.00276337 -0.0436013 
-0.00276337 -9.96605 0.0578561 
-0.0436013 0.0578561 -9.96281 
-9.95442 -0.0145696 -0.044616 
-0.0145696 -9.94648 0.0682705 
-0.044616 0.0682705 -9.99105 
-9.95713 -0.00296594 -0.0300718 
-0.00296594 -9.97128 0.0403767 
-0.0300718 0.0403767 -9.96354 
-9.89479 -0.00791806 0.0250776 
-0.00791806 -9.91711 -0.00857561 
0.0250776 -0.00857561 -10.1558 
-9.92065 0.0124642 0.0237033 
0.0124642 -9.92188 0.0154675 
0.0237033 0.0154675 -10.1252 
-9.90188 -0.0129375 0.0330858 
-0.0129375 -9.89988 0.00690619 
0.0330858 0.00690619 -10.1659 
-9.91021 0.000915256 0.0110085 
0.000915256 -9.92998 0.00329148 
0.0110085 0.00329148 -10.1275 
-10.0421 -0.0164487 0.0913715 
-0.0164487 -10.0674 -0.0260866 
0.0913715 -0.0260866 -10.2922 
-10.1589 0.00259295 -0.0067965 
0.00259295 -10.1379 0.0181142 
-0.0067965 0.0181142 -10.1048 
-10.0176 -0.133743 0.0421471 
-0.133743 -10.1923 -0.0340586 
0.0421471 -0.0340586 -10.1917 
-9.91548 -0.145222 -0.0462904 
-0.145222 -10.2532 0.0591273 
-0.0462904 0.0591273 -10.233 
-10.2337 0.0282327 0.118093 
0.0282327 -10.241 0.0542655 
0.118093 0.0542655 -10.919 
-10.6413 0.0305604 -0.0808732 
0.0305604 -10.5175 -0.0965614 
-0.0808732 -0.0965614 -10.235 
-10.344 -0.0635368 -0.0500788 
-0.0635368 -10.5947 -0.0448877 
-0.0500788 -0.0448877 -10.455 
-10.4626 0.0631111 -0.0934463 
0.0631111 -10.5332 0.112857 
-0.0934463 0.112857 -10.3979 
-9.91928 -0.0493781 0.0115776 
-0.0493781 -9.95524 0.0228624 
0.0115776 0.0228624 -9.97628 
-9.95043 -0.0275843 0.0061685 
-0.0275843 -9.94645 0.0113321 
0.0061685 0.0113321 -9.95392 
-9.9433 -0.0182121 0.00705425 
-0.0182121 -9.94977 0.0117112 
0.00705425 0.0117112 -9.95773 
-9.9447 -0.0136908 0.0333773 
-0.0136908 -9.94621 -0.00591047 
0.0333773 -0.00591047 -9.9599 
-9.82924 -0.10294 -0.113897 
-0.10294 -9.82722 -0.00458702 
-0.113897 -0.00458702 -10.0431 
-9.82393 -0.18121 -0.230812 
-0.18121 -9.8526 0.00195404 
-0.230812 0.00195404 -10.023 
-9.78695 -0.0924911 -0.106442 
-0.0924911 -9.885 -0.0252884 
-0.106442 -0.0252884 -10.0276 
-9.85843 -0.0633111 -0.0760161 
-0.0633111 -9.81683 0.0129908 
-0.0760161 0.0129908 -10.0243 
-9.90834 0.0403392 -0.0155446 
0.0403392 -9.92721 -0.0487109 
-0.0155446 -0.0487109 -9.94242 
-9.91198 0.0480653 0.000755669 
0.0480653 -9.94054 -0.0669346 
0.000755669 -0.0669346 -9.92545 
-9.91287 0.0551566 -0.00328289 
0.0551566 -9.91243 -0.0191386 
-0.00328289 -0.0191386 -9.95267 
-9.89816 0.0553094 -0.0059059 
0.0553094 -9.90696 -0.0360773 
-0.0059059 -0.0360773 -9.97284 
-9.99068 -0.00108925 0.0376292 
-0.00108925 -9.99016 0.0461153 
0.0376292 0.0461153 -9.99499 
-9.99312 -0.00146468 0.0379721 
-0.00146468 -9.98816 0.0482929 
0.0379721 0.0482929 -9.99456 
-9.98727 -0.000548895 0.0347184 
-0.000548895 -9.98774 0.046437 
0.0347184 0.046437 -10.0008 
-9.99306 -0.00173027 0.0382677 
-0.00173027 -9.99257 0.049251 
0.0382677 0.049251 -9.9902 
-9.91798 -0.00689097 -0.00170879 
-0.00689097 -9.79697 0.106978 
-0.00170879 0.106978 -10.2198 
-9.95221 -0.00834503 0.0401654 
-0.00834503 -9.78944 0.179913 
0.0401654 0.179913 -10.1931 
-9.93339 -0.0324181 -0.0320996 
-0.0324181 -9.76018 0.108165 
-0.0320996 0.108165 -10.2412 
-9.84847 -0.19026 0.00148185 
-0.19026 -10.0134 0.0383124 
0.00148185 0.0383124 -10.0729 
-10.1354 0.0323935 0.0798592 
0.0323935 -10.2794 0.01751 
0.0798592 0.01751 -10.0557 
-10.0901 -0.00996544 -0.0294784 
-0.00996544 -10.0815 -0.0138872 
-0.0294784 -0.0138872 -10.2991 
-10.1532 0.0357432 0.0493281 
0.0357432 -10.2056 -0.0126595 
0.0493281 -0.0126595 -10.1118 
-10.1346 -0.0966452 0.0629578 
-0.0966452 -10.2292 -0.0741103 
0.0629578 -0.0741103 -10.1067 
-9.99047 -0.014914 -0.0184803 
-0.014914 -9.98103 0.0119736 
-0.0184803 0.0119736 -9.98554 
-9.99109 0.00633836 0.0187876 
0.00633836 -9.97219 -0.0146991 
0.0187876 -0.0146991 -9.99376 
-9.99704 -0.00107541 -0.016652 
-0.00107541 -9.96069 0.0107358 
-0.016652 0.0107358 -9.99931 
-9.98198 -0.031056 0.00220544 
-0.031056 -9.96334 0.000979263 
0.00220544 0.000979263 -10.0117 
-9.92825 0.0107262 -0.0145106 
0.0107262 -9.74901 -0.111477 
-0.0145106 -0.111477 -9.94822 
-9.83054 -0.0109096 0.00185641 
-0.0109096 -9.94171 -0.0548489 
0.00185641 -0.0548489 -9.85322 
-9.93253 0.0110383 -0.00309264 
0.0110383 -9.75631 -0.0601195 
-0.00309264 -0.0601195 -9.93664 
-9.86513 0.0832531 -0.0264437 
0.0832531 -9.82594 -0.0695127 
-0.0264437 -0.0695127 -9.93441 
-9.93788 0.0097753 0.0862879 
0.0097753 -9.94146 0.0495971 
0.0862879 0.0495971 -9.90113 
-9.93142 0.0169022 0.104334 
0.0169022 -9.92882 0.0591962 
0.104334 0.0591962 -9.92022 
-9.92551 0.00203397 0.0634256 
0.00203397 -9.93965 0.0367805 
0.0634256 0.0367805 -9.91531 
-9.96428 -0.00548546 0.0660677 
-0.00548546 -9.95831 0.0847225 
0.0660677 0.0847225 -9.85788 
-9.8888 0.236 -0.285796 
0.236 -9.74658 -0.177125 
-0.285796 -0.177125 -9.80587 
-9.77568 0.147468 -0.183154 
0.147468 -9.76596 -0.0963223 
-0.183154 -0.0963223 -9.89961 
-9.69693 0.27299 -0.18225 
0.27299 -9.81868 -0.0303323 
-0.18225 -0.0303323 -9.92564 
-9.76996 -0.309513 -0.049586 
-0.309513 -10.0679 -0.0872593 
-0.049586 -0.0872593 -9.60339 
-9.8754 -0.00375738 -0.00638191 
-0.00375738 -9.86832 -0.100267 
-0.00638191 -0.100267 -9.88215 
-9.89166 -0.0298797 0.00744152 
-0.0298797 -9.83018 -0.0750186 
0.00744152 -0.0750186 -9.90402 
-9.87253 0.0264515 -0.000673308 
0.0264515 -9.91826 -0.102196 
-0.000673308 -0.102196 -9.83507 
-9.87912 -0.0161961 0.029491 
-0.0161961 -9.84247 -0.108925 
0.029491 -0.108925 -9.90428 
-9.92217 0.0626072 -0.00796304 
0.0626072 -9.83225 0.072568 
-0.00796304 0.072568 -10.021 
-9.91164 0.0628695 -0.0131942 
0.0628695 -9.81937 0.0737501 
-0.0131942 0.0737501 -10.0444 
-9.8276 0.0362143 -0.0586001 
0.0362143 -9.90876 0.127582 
-0.0586001 0.127582 -10.0391 
-9.83868 0.0873211 0.0436338 
0.0873211 -9.91366 0.0261267 
0.0436338 0.0261267 -10.0231 
-9.91255 -0.0088859 -0.0427686 
-0.0088859 -9.91985 -0.0127708 
-0.0427686 -0.0127708 -9.93754 
-9.92491 -0.0272915 -0.0397709 
-0.0272915 -9.96155 0.00064967 
-0.0397709 0.00064967 -9.88347 
-9.91364 -0.0241371 -0.0340815 
-0.0241371 -9.95768 0.00344611 
-0.0340815 0.00344611 -9.89861 
-9.92154 -0.0385071 -0.022563 
-0.0385071 -9.94231 0.0100691 
-0.022563 0.0100691 -9.90609 
-9.94473 -0.0016322 -0.00670412 
-0.0016322 -9.9445 0.00507384 
-0.00670412 0.00507384 -9.97239 
-9.94206 0.00135 -0.00513808 
0.00135 -9.93694 0.00790939 
-0.00513808 0.00790939 -9.98262 
-9.94253 0.000137824 0.00425478 
0.000137824 -9.92885 0.00219681 
0.00425478 0.00219681 -9.99024 
-9.94246 -0.0126454 -0.00760324 
-0.0126454 -9.94676 0.0163152 
-0.00760324 0.0163152 -9.97241 
-9.93116 0.00443243 -0.0771301 
0.00443243 -9.89659 -0.0270467 
-0.0771301 -0.0270467 -9.90956 
-9.89706 0.0201157 -0.0755992 
0.0201157 -9.91938 -0.0261806 
-0.0755992 -0.0261806 -9.92087 
-9.91166 0.00645411 -0.0761032 
0.00645411 -9.90819 -0.0313887 
-0.0761032 -0.0313887 -9.91746 
-9.91225 -0.00151462 -0.0766076 
-0.00151462 -9.90992 -0.0306548 
-0.0766076 -0.0306548 -9.91514 
-9.91773 0.237222 -0.168544 
0.237222 -9.7937 -0.0463961 
-0.168544 -0.0463961 -10.0297 
-10.0547 0.177201 -0.101113 
0.177201 -9.9212 -0.260232 
-0.101113 -0.260232 -9.7653 
-9.86686 0.261289 -0.123779 
0.261289 -9.84746 -0.185841 
-0.123779 -0.185841 -10.0268 
-9.94469 0.115293 0.0232858 
0.115293 -9.81129 -0.161453 
0.0232858 -0.161453 -9.98518 
-9.92159 -0.00726264 -0.0557045 
-0.00726264 -9.91828 0.0455542 
-0.0557045 0.0455542 -9.92864 
-9.92297 -0.00980996 -0.056436 
-0.00980996 -9.91148 0.045442 
-0.056436 0.045442 -9.93405 
-9.92452 -0.00776972 -0.0589268 
-0.00776972 -9.90651 0.0411103 
-0.0589268 0.0411103 -9.93747 
-9.92121 -0.00463163 -0.0622441 
-0.00463163 -9.90715 0.0454123 
-0.0622441 0.0454123 -9.94015 
-9.82334 -0.0210093 -0.135799 
-0.0210093 -9.84392 -0.0140943 
-0.135799 -0.0140943 -9.88981 
-9.81159 -0.0801236 -0.171473 
-0.0801236 -9.89501 -0.0314649 
-0.171473 -0.0314649 -9.85048 
-9.81675 -0.0415574 -0.144692 
-0.0415574 -9.84492 -0.00525417 
-0.144692 -0.00525417 -9.8954 
-9.80917 -0.0234334 -0.117983 
-0.0234334 -9.8672 0.0142792 
-0.117983 0.0142792 -9.88071 
-9.90312 -0.0601557 -0.0283329 
-0.0601557 -9.7834 -0.0956354 
-0.0283329 -0.0956354 -10.1434 
-9.88279 0.0222819 -0.0223841 
0.0222819 -9.8408 -0.0701193 
-0.0223841 -0.0701193 -10.1064 
-9.9543 0.0102575 0.00772929 
0.0102575 -9.72386 -0.174736 
0.00772929 -0.174736 -10.1518 
-9.92813 -0.0675474 -0.00595115 
-0.0675474 -9.81911 -0.0898459 
-0.00595115 -0.0898459 -10.0827 
-10.2855 0.0128808 0.00605492 
0.0128808 -9.69104 -0.0420059 
0.00605492 -0.0420059 -10.0814 
-9.87864 -0.0267728 -0.120251 
-0.0267728 -10.1262 0.16511 
-0.120251 0.16511 -10.0531 
-9.80215 0.104809 0.147815 
0.104809 -10.0137 -0.160563 
0.147815 -0.160563 -10.2421 
-10.1908 0.0185097 -0.0368378 
0.0185097 -9.66423 0.0992554 
-0.0368378 0.0992554 -10.203 
-9.91963 -0.00192576 -0.00379227 
-0.00192576 -9.92014 -0.0216441 
-0.00379227 -0.0216441 -10.1522 
-9.92076 -0.0088534 -0.00473779 
-0.0088534 -9.92416 -0.0339368 
-0.00473779 -0.0339368 -10.1471 
-9.91394 0.000310847 0.00250122 
0.000310847 -9.93396 -0.0103247 
0.00250122 -0.0103247 -10.1441 
-9.90512 -0.000290067 -0.0114875 
-0.000290067 -9.89728 -0.0138671 
-0.0114875 -0.0138671 -10.1896 
-9.94151 0.0330298 0.0888771 
0.0330298 -9.91978 0.0467474 
0.0888771 0.0467474 -9.95796 
-9.89698 0.0575572 0.120309 
0.0575572 -9.88181 0.00406929 
0.120309 0.00406929 -10.0405 
-9.92161 0.0754513 0.0553158 
0.0754513 -9.92344 -0.00264036 
0.0553158 -0.00264036 -9.97419 
-9.90931 0.06452 0.0907008 
0.06452 -9.9254 0.00893528 
0.0907008 0.00893528 -9.98453 
-9.97695 0.00181674 0.000229461 
0.00181674 -9.9754 0.00364965 
0.000229461 0.00364965 -9.99767 
-9.97941 0.00187363 -0.00261206 
0.00187363 -9.97668 0.00131903 
-0.00261206 0.00131903 -9.99392 
-9.9775 0.000317862 0.00365654 
0.000317862 -9.97216 0.00438269 
0.00365654 0.00438269 -10.0004 
-9.97583 0.000927601 0.000795794 
0.000927601 -9.97814 0.000419582 
0.000795794 0.000419582 -9.99605 
-9.91101 0.00925352 -0.0496014 
0.00925352 -9.88478 -0.0303627 
-0.0496014 -0.0303627 -9.91329 
-9.85425 0.0197973 -0.0631835 
0.0197973 -9.908 -0.0209662 
-0.0631835 -0.0209662 -9.94683 
-9.94403 0.00915035 -0.0515534 
0.00915035 -9.88261 -0.0390297 
-0.0515534 -0.0390297 -9.88246 
-9.91162 -0.00237755 -0.011562 
-0.00237755 -9.87303 -0.0427946 
-0.011562 -0.0427946 -9.92444 
-9.96969 -0.000710257 -0.0190006 
-0.000710257 -9.96753 -0.0374019 
-0.0190006 -0.0374019 -9.97735 
-9.96895 -0.0102432 -0.0290678 
-0.0102432 -9.97809 -0.0348637 
-0.0290678 -0.0348637 -9.96753 
-9.97129 -0.00398741 -0.0312633 
-0.00398741 -9.96671 -0.0360113 
-0.0312633 -0.0360113 -9.97656 
-9.97644 -0.00428616 -0.0354449 
-0.00428616 -9.98037 -0.0302118 
-0.0354449 -0.0302118 -9.95775 
-10.2037 0.0178419 0.0160738 
0.0178419 -10.2623 -0.00646808 
0.0160738 -0.00646808 -10.2115 
-10.2769 0.0184502 0.0146873 
0.0184502 -10.2438 -0.0157018 
0.0146873 -0.0157018 -10.1567 
-10.148 -0.0102169 0.0448926 
-0.0102169 -10.2397 0.000634771 
0.0448926 0.000634771 -10.2898 
-10.1697 0.0269514 -0.0374521 
0.0269514 -10.2711 0.0111004 
-0.0374521 0.0111004 -10.2367 
-9.8195 0.0140309 0.0474194 
0.0140309 -9.88984 0.0263456 
0.0474194 0.0263456 -10.1108 
-9.92771 0.0467975 0.0192711 
0.0467975 -9.88308 -0.0765899 
0.0192711 -0.0765899 -10.0093 
-9.86274 0.118812 0.0821284 
0.118812 -9.90659 -0.0415261 
0.0821284 -0.0415261 -10.0508 
-9.91468 0.0238964 0.00504066 
0.0238964 -9.73755 -0.15282 
0.00504066 -0.15282 -10.1679 
-9.97867 0.0102463 0.00560147 
0.0102463 -9.97867 0.0293474 
0.00560147 0.0293474 -9.98903 
-9.9833 -0.00339076 0.00301779 
-0.00339076 -9.98464 0.0280668 
0.00301779 0.0280668 -9.97843 
-9.98407 -0.00510733 0.00495431 
-0.00510733 -9.98371 0.0304024 
0.00495431 0.0304024 -9.97859 
-9.9847 0.00240014 0.00750114 
0.00240014 -9.98491 0.025645 
0.00750114 0.025645 -9.97675 
-9.96171 0.00678349 -0.00598603 
0.00678349 -9.95523 0.00843473 
-0.00598603 0.00843473 -9.97448 
-9.95467 0.00686003 -0.00368042 
0.00686003 -9.95384 0.00158624 
-0.00368042 0.00158624 -9.9829 
-9.96851 0.0118085 0.00674849 
0.0118085 -9.94957 -0.00299874 
0.00674849 -0.00299874 -9.97333 
-9.95383 0.00207949 -0.00238866 
0.00207949 -9.95275 0.00630547 
-0.00238866 0.00630547 -9.98484 
-9.67498 0.0332883 -0.00782149 
0.0332883 -9.70545 0.0712552 
-0.00782149 0.0712552 -11.443 
-10.6387 0.0827265 -0.0972781 
0.0827265 -10.3247 -0.042718 
-0.0972781 -0.042718 -9.85999 
-10.5563 0.00669603 -0.0145485 
0.00669603 -10.472 0.0863386 
-0.0145485 0.0863386 -9.7952 
-10.472 -0.0893402 0.717736 
-0.0893402 -10.4262 -0.496364 
0.717736 -0.496364 -9.92523 
-9.96255 0.00642064 0.0501625 
0.00642064 -9.95756 0.0233533 
0.0501625 0.0233533 -9.94451 
-9.9731 -0.00359846 0.0430826 
-0.00359846 -9.95406 0.0223029 
0.0430826 0.0223029 -9.93745 
-9.97138 -0.00425882 0.0382392 
-0.00425882 -9.96265 0.032887 
0.0382392 0.032887 -9.93059 
-9.9428 -0.00691177 0.0526201 
-0.00691177 -9.95454 0.0261703 
0.0526201 0.0261703 -9.96729 
-9.87526 -0.0123476 -0.0190492 
-0.0123476 -9.88096 0.0403962 
-0.0190492 0.0403962 -9.96062 
-9.87176 -0.00129634 -0.0449309 
-0.00129634 -9.78138 0.0986201 
-0.0449309 0.0986201 -10.0637 
-9.90455 -0.0296122 0.000280651 
-0.0296122 -9.85347 0.0769966 
0.000280651 0.0769966 -9.95882 
-9.96749 -0.00219053 -0.019573 
-0.00219053 -9.88069 0.15039 
-0.019573 0.15039 -9.86867 
-9.91843 0.014532 -0.0387281 
0.014532 -9.90081 0.0658739 
-0.0387281 0.0658739 -9.94387 
-9.91436 0.0102192 -0.0541637 
0.0102192 -9.90416 0.048228 
-0.0541637 0.048228 -9.9446 
-9.90546 0.0264728 -0.0491249 
0.0264728 -9.907 0.0533757 
-0.0491249 0.0533757 -9.95066 
-9.91224 0.0218462 -0.0481573 
0.0218462 -9.90772 0.0488032 
-0.0481573 0.0488032 -9.94316 
-9.95041 0.000562108 0.00278148 
0.000562108 -9.95633 0.0821435 
0.00278148 0.0821435 -9.94915 
-9.95064 0.00507068 0.00452134 
0.00507068 -9.96522 0.0906587 
0.00452134 0.0906587 -9.94003 
-9.95908 -0.00757556 -0.000920415 
-0.00757556 -9.91924 0.0726739 
-0.000920415 0.0726739 -9.97757 
-9.94963 0.00464945 0.0106255 
0.00464945 -9.96166 0.0777138 
0.0106255 0.0777138 -9.9446 
-9.9629 -0.00780423 -0.0970675 
-0.00780423 -9.82083 -0.0726941 
-0.0970675 -0.0726941 -9.80139 
-9.81061 0.044866 0.027622 
0.044866 -9.64808 -0.0869887 
0.027622 -0.0869887 -10.1264 
-9.95712 0.140183 -0.119982 
0.140183 -9.70433 -0.163255 
-0.119982 -0.163255 -9.92367 
-9.83078 0.106565 -0.0178461 
0.106565 -9.78326 -0.130586 
-0.0178461 -0.130586 -9.97108 
-9.9564 0.0121982 0.00236057 
0.0121982 -9.94107 -0.00152673 
0.00236057 -0.00152673 -9.9655 
-9.9403 0.00833951 0.00100803 
0.00833951 -9.94719 0.00366664 
0.00100803 0.00366664 -9.97548 
-9.94706 0.00443532 0.00311269 
0.00443532 -9.94815 0.0197234 
0.00311269 0.0197234 -9.96776 
-9.94817 0.0248167 -0.0037396 
0.0248167 -9.93418 0.0180851 
-0.0037396 0.0180851 -9.98063 
-10.77 -0.0894628 -0.13297 
-0.0894628 -10.6882 -0.124999 
-0.13297 -0.124999 -10.4916 
-10.1102 -0.0533559 0.0131027 
-0.0533559 -10.1019 0.26126 
0.0131027 0.26126 -11.7378 
-10.9264 -0.117612 -0.0503326 
-0.117612 -10.7009 -0.0405141 
-0.0503326 -0.0405141 -10.3224 
-10.6574 0.0583049 -0.905048 
0.0583049 -10.8613 -0.0407166 
-0.905048 -0.0407166 -10.4312 
-9.88689 -0.0180475 -0.114103 
-0.0180475 -9.89875 -0.0701744 
-0.114103 -0.0701744 -9.80455 
-9.80192 -0.00812282 -0.0734272 
-0.00812282 -9.84514 -0.0953203 
-0.0734272 -0.0953203 -9.94313 
-9.81084 -0.0192048 -0.221459 
-0.0192048 -9.9529 -0.0826673 
-0.221459 -0.0826673 -9.82645 
-9.89322 -0.0383561 -0.110507 
-0.0383561 -9.88878 -0.0389577 
-0.110507 -0.0389577 -9.80819 
-9.93041 0.012009 -0.0495163 
0.012009 -9.93235 -0.0436567 
-0.0495163 -0.0436567 -9.94919 
-9.93147 -0.0135424 -0.0507635 
-0.0135424 -9.94337 -0.0510242 
-0.0507635 -0.0510242 -9.93711 
-9.93255 0.00305849 -0.0506871 
0.00305849 -9.9326 -0.0493095 
-0.0506871 -0.0493095 -9.94679 
-9.94074 -0.00291475 -0.0542279 
-0.00291475 -9.92013 -0.0494131 
-0.0542279 -0.0494131 -9.95107 
-9.91201 0.0165965 0.0152006 
0.0165965 -9.90529 -0.0234996 
0.0152006 -0.0234996 -10.1317 
-9.91481 0.00211402 0.00718112 
0.00211402 -9.91494 -0.00365167 
0.00718112 -0.00365167 -10.1193 
-9.92998 0.0054562 0.00532755 
0.0054562 -9.90061 -0.0328802 
0.00532755 -0.0328802 -10.1184 
-9.86793 -0.00508014 0.00497371 
-0.00508014 -9.88487 -0.0107643 
0.00497371 -0.0107643 -10.1962 
-9.45275 0.34513 -0.134352 
0.34513 -10.4064 -0.0888216 
-0.134352 -0.0888216 -11.0138 
-9.41034 0.146881 -0.310526 
0.146881 -10.2753 -0.227531 
-0.310526 -0.227531 -11.1873 
-9.61367 0.126633 0.197969 
0.126633 -10.5196 -0.449858 
0.197969 -0.449858 -10.7396 
-9.67277 0.521349 -0.275543 
0.521349 -10.4655 -0.0609653 
-0.275543 -0.0609653 -10.7346 
-9.9511 0.00346981 -0.00196773 
0.00346981 -9.93975 0.0420302 
-0.00196773 0.0420302 -9.95714 
-9.93047 0.00279853 0.00424196 
0.00279853 -9.94162 0.00745288 
0.00424196 0.00745288 -9.9759 
-9.92285 0.00678474 -0.00677601 
0.00678474 -9.92528 0.0261337 
-0.00677601 0.0261337 -9.99986 
-9.94095 0.0132199 -0.0041753 
0.0132199 -9.92486 0.0256213 
-0.0041753 0.0256213 -9.98218 
-9.9644 -0.00762239 0.00334098 
-0.00762239 -9.96601 0.0425077 
0.00334098 0.0425077 -10.1818 
-9.94709 -0.00399468 0.000253565 
-0.00399468 -10.0197 -0.0178907 
0.000253565 -0.0178907 -10.1454 
-9.92445 0.00042687 0.0254042 
0.00042687 -9.98825 0.035527 
0.0254042 0.035527 -10.1995 
-9.94604 0.0114239 0.027627 
0.0114239 -10.0186 0.0115021 
0.027627 0.0115021 -10.1476 
-9.92274 0.00309351 0.0803386 
0.00309351 -9.91478 0.0147609 
0.0803386 0.0147609 -9.92372 
-9.89961 0.00469312 0.0853584 
0.00469312 -9.93391 0.00613577 
0.0853584 0.00613577 -9.92772 
-9.92963 0.00294265 0.0827538 
0.00294265 -9.92129 0.011273 
0.0827538 0.011273 -9.91033 
-9.91872 0.0161262 0.0791667 
0.0161262 -9.92591 0.0106386 
0.0791667 0.0106386 -9.91661 
-9.97997 0.0063848 -0.00714815 
0.0063848 -9.98083 0.00808596 
-0.00714815 0.00808596 -9.98814 
-9.98384 0.00600746 -0.00546878 
0.00600746 -9.98041 0.00695348 
-0.00546878 0.00695348 -9.98469 
-9.98035 0.00681146 -0.00827145 
0.00681146 -9.9811 0.0118011 
-0.00827145 0.0118011 -9.98749 
-9.98235 0.005448 -0.00959747 
0.005448 -9.98295 0.0128774 
-0.00959747 0.0128774 -9.98364 
-9.9725 -0.00256509 -0.0121864 
-0.00256509 -9.91819 0.00647682 
-0.0121864 0.00647682 -9.97345 
-9.95685 -0.0165306 -0.00801374 
-0.0165306 -9.938 0.0120799 
-0.00801374 0.0120799 -9.96928 
-9.92536 -0.0267248 -0.0175102 
-0.0267248 -9.94961 0.00815227 
-0.0175102 0.00815227 -9.98916 
-9.95376 -0.0202211 -0.00244508 
-0.0202211 -9.93594 0.00130759 
-0.00244508 0.00130759 -9.97442 
-9.97597 -0.00669892 -0.00772597 
-0.00669892 -9.97187 0.0398387 
-0.00772597 0.0398387 -9.97307 
-9.96848 -0.0125025 0.0157636 
-0.0125025 -9.96991 -0.012453 
0.0157636 -0.012453 -9.98252 
-9.96959 -0.0112376 -0.00987503 
-0.0112376 -9.96584 0.0106057 
-0.00987503 0.0106057 -9.98549 
-9.95206 -0.0119938 0.00606292 
-0.0119938 -9.9411 -0.00292802 
0.00606292 -0.00292802 -10.0278 
-9.90052 0.0186751 -0.0214566 
0.0186751 -9.90179 0.0108225 
-0.0214566 0.0108225 -9.98574 
-9.91364 0.0164109 -0.0195881 
0.0164109 -9.91574 0.00896509 
-0.0195881 0.00896509 -9.95868 
-9.91625 0.0103639 -0.0414635 
0.0103639 -9.90696 0.00819797 
-0.0414635 0.00819797 -9.96485 
-9.90749 0.029378 -0.0218189 
0.029378 -9.90662 0.0126868 
-0.0218189 0.0126868 -9.97394 
-9.95211 0.00193702 0.0136702 
0.00193702 -9.94623 0.000593924 
0.0136702 0.000593924 -9.99764 
-9.94752 0.00370452 0.0106338 
0.00370452 -9.94348 0.000459797 
0.0106338 0.000459797 -10.005 
-9.956 -2.0661e-06 0.0156995 
-2.0661e-06 -9.94269 0.0110828 
0.0156995 0.0110828 -9.99729 
-9.94021 -0.00377286 0.00415155 
-0.00377286 -9.95402 -0.00388352 
0.00415155 -0.00388352 -10.0018 
-9.94127 0.0754028 0.0571577 
0.0754028 -10.1086 0.0402109 
0.0571577 0.0402109 -10.2218 
-10.1535 0.0461949 -0.00356708 
0.0461949 -10.0349 0.0121444 
-0.00356708 0.0121444 -10.0833 
-9.89065 -0.0198883 0.0323428 
-0.0198883 -10.1178 -0.02871 
0.0323428 -0.02871 -10.2632 
-10.0303 0.0961181 0.0752599 
0.0961181 -10.1748 0.032937 
0.0752599 0.032937 -10.0665 
-9.91049 -0.0443971 -0.101015 
-0.0443971 -9.88255 -0.0887144 
-0.101015 -0.0887144 -9.997 
-9.95606 -0.0970446 -0.0969507 
-0.0970446 -9.9487 -0.00304523 
-0.0969507 -0.00304523 -9.88528 
-9.89153 -0.0359841 -0.0963345 
-0.0359841 -9.95306 -0.0365559 
-0.0963345 -0.0365559 -9.94545 
-9.94963 -0.0239038 -0.0356878 
-0.0239038 -9.9229 -0.0683218 
-0.0356878 -0.0683218 -9.91751 
-9.91348 -0.0616031 0.0581684 
-0.0616031 -9.91049 0.0822683 
0.0581684 0.0822683 -9.93536 
-9.90093 -0.0348512 0.0232598 
-0.0348512 -9.95922 0.110592 
0.0232598 0.110592 -9.89917 
-9.92916 -0.122364 0.075066 
-0.122364 -9.9072 0.0869582 
0.075066 0.0869582 -9.92296 
-9.89249 -0.0691742 0.0330116 
-0.0691742 -9.92804 0.0656726 
0.0330116 0.0656726 -9.93879 
-10.0536 0.0152857 -0.0234915 
0.0152857 -10.0339 -0.0106857 
-0.0234915 -0.0106857 -10.192 
-10.1177 0.0780385 -0.0052425 
0.0780385 -10.0962 -0.00974428 
-0.0052425 -0.00974428 -10.0655 
-10.1418 0.00792638 0.0177552 
0.00792638 -10.0613 -0.0184003 
0.0177552 -0.0184003 -10.0763 
-10.12 0.0117995 0.0364635 
0.0117995 -10.0826 -0.0489151 
0.0364635 -0.0489151 -10.0768 
-10.0529 0.568769 -0.418333 
0.568769 -8.54041 -0.822495 
-0.418333 -0.822495 -3.95163 
-8.27841 1.52866 -0.650253 
1.52866 -9.36211 -0.415801 
-0.650253 -0.415801 -4.90445 
-9.42502 0.641527 0.195469 
0.641527 -7.69547 -0.899925 
0.195469 -0.899925 -5.42448 
-9.65222 0.074762 -0.191256 
0.074762 -7.44188 0.497354 
-0.191256 0.497354 -5.45087 
-9.96317 -0.000394313 -0.00461441 
-0.000394313 -9.97188 -0.00608919 
-0.00461441 -0.00608919 -9.94199 
-10.0027 -0.00648877 -0.0291369 
-0.00648877 -9.9437 -0.0146302 
-0.0291369 -0.0146302 -9.93068 
-9.96575 -0.00528312 -0.0232107 
-0.00528312 -9.96509 -0.00585509 
-0.0232107 -0.00585509 -9.9462 
-9.96475 -0.00125789 -0.0228893 
-0.00125789 -9.9647 -0.00474191 
-0.0228893 -0.00474191 -9.94759 
-9.90438 0.00431702 0.13139 
0.00431702 -9.90279 0.00456725 
0.13139 0.00456725 -10.0484 
-9.86292 0.0105123 0.0820628 
0.0105123 -9.95639 0.00155901 
0.0820628 0.00155901 -10.0362 
-9.97732 -0.0103086 0.0935903 
-0.0103086 -9.90765 0.0341158 
0.0935903 0.0341158 -9.97056 
-9.89218 0.00143532 0.109811 
0.00143532 -9.94758 0.00196069 
0.109811 0.00196069 -10.0158 
-9.94737 -0.00528971 -0.0709603 
-0.00528971 -9.94642 0.0330473 
-0.0709603 0.0330473 -9.94413 
-9.9472 -0.00473156 -0.0714343 
-0.00473156 -9.94855 0.0343444 
-0.0714343 0.0343444 -9.94218 
-9.94578 -0.00505279 -0.071548 
-0.00505279 -9.94895 0.0355538 
-0.071548 0.0355538 -9.94319 
-9.95043 -0.005104 -0.0723968 
-0.005104 -9.9469 0.0401725 
-0.0723968 0.0401725 -9.94059 
-9.96405 0.0838074 0.016535 
0.0838074 -9.83618 -0.00415625 
0.016535 -0.00415625 -10.1284 
-10.0119 0.0340748 0.0685052 
0.0340748 -9.78425 0.104758 
0.0685052 0.104758 -10.1325 
-10.0634 -0.0269414 0.000108263 
-0.0269414 -9.9622 0.085086 
0.000108263 0.085086 -9.90299 
-9.98556 0.0380642 0.0434292 
0.0380642 -9.83989 0.0646587 
0.0434292 0.0646587 -10.1031 
-10.106 -0.0226666 0.0536681 
-0.0226666 -10.1122 -0.00736493 
0.0536681 -0.00736493 -10.1232 
-10.0092 -0.00223234 0.0547143 
-0.00223234 -10.1526 -0.00892852 
0.0547143 -0.00892852 -10.1797 
-10.0809 0.0620333 0.0189719 
0.0620333 -10.1085 -0.0141856 
0.0189719 -0.0141856 -10.1521 
-10.0647 0.0109257 0.0121492 
0.0109257 -10.1282 -0.0166017 
0.0121492 -0.0166017 -10.1487 
-10.0182 -0.0852223 0.00450723 
-0.0852223 -10.0327 0.0471619 
0.00450723 0.0471619 -10.3623 
-10.1327 0.0610979 0.0355114 
0.0610979 -10.173 -0.128903 
0.0355114 -0.128903 -10.1075 
-10.2515 -0.00217367 0.0584463 
-0.00217367 -10.2063 -0.155259 
0.0584463 -0.155259 -9.95538 
-10.1915 -0.0141721 0.0264495 
-0.0141721 -9.95398 -0.152178 
0.0264495 -0.152178 -10.2678 
-9.92735 -0.0364147 0.0404959 
-0.0364147 -9.93125 0.0154906 
0.0404959 0.0154906 -10.0305 
-9.89962 0.0083783 0.00531903 
0.0083783 -9.87649 0.0112619 
0.00531903 0.0112619 -10.113 
-9.88797 0.000968689 0.00673118 
0.000968689 -9.90727 0.00446897 
0.00673118 0.00446897 -10.0939 
-9.88566 -0.0283141 0.0619589 
-0.0283141 -9.84861 -0.0150865 
0.0619589 -0.0150865 -10.1548 
-9.84301 0.0959849 0.124282 
0.0959849 -9.69243 -0.248832 
0.124282 -0.248832 -10.2748 
-9.97404 0.0877706 0.00323403 
0.0877706 -9.91524 -0.30124 
0.00323403 -0.30124 -9.92092 
-9.90834 -0.00668301 -0.0108797 
-0.00668301 -9.88601 -0.242802 
-0.0108797 -0.242802 -10.0159 
-9.87591 0.081212 0.0107289 
0.081212 -9.86849 -0.161802 
0.0107289 -0.161802 -10.0658 
-9.98281 -0.00220806 -0.000943182 
-0.00220806 -9.97982 0.0132983 
-0.000943182 0.0132983 -9.98946 
-9.98919 -0.00497461 -0.00308136 
-0.00497461 -9.98175 0.0114657 
-0.00308136 0.0114657 -9.98116 
-9.98057 0.00261959 0.00338309 
0.00261959 -9.98372 0.0120676 
0.00338309 0.0120676 -9.98781 
-9.9801 0.00041454 0.000384178 
0.00041454 -9.98532 0.00966226 
0.000384178 0.00966226 -9.98667 
-9.86241 0.016501 0.087628 
0.016501 -9.89455 0.00787537 
0.087628 0.00787537 -9.90591 
-9.86627 0.00791956 0.0879467 
0.00791956 -9.90428 0.00517677 
0.0879467 0.00517677 -9.89233 
-9.87128 0.00386289 0.0859774 
0.00386289 -9.90833 -0.00314672 
0.0859774 -0.00314672 -9.88326 
-9.87102 -0.00861707 0.102633 
-0.00861707 -9.90552 0.0125928 
0.102633 0.0125928 -9.88634 
-10.0778 0.014725 0.00120727 
0.014725 -10.1009 0.00848869 
0.00120727 0.00848869 -10.2144 
-10.1305 -0.00048888 -0.0389928 
-0.00048888 -10.122 0.00812834 
-0.0389928 0.00812834 -10.1405 
-10.1224 0.00469895 -0.0388299 
0.00469895 -10.136 0.00933946 
-0.0388299 0.00933946 -10.1346 
-10.0733 -0.00672438 -0.0711734 
-0.00672438 -10.1468 0.0308727 
-0.0711734 0.0308727 -10.1729 
-9.8245 -0.0577454 -0.0274596 
-0.0577454 -9.83634 -0.105338 
-0.0274596 -0.105338 -9.93357 
-9.89319 -0.0731515 -0.0147507 
-0.0731515 -9.87967 -0.141197 
-0.0147507 -0.141197 -9.82155 
-9.93667 -0.0204812 -0.00305867 
-0.0204812 -9.81346 -0.0697009 
-0.00305867 -0.0697009 -9.84429 
-9.85712 0.00328598 -0.0380826 
0.00328598 -9.84108 -0.077726 
-0.0380826 -0.077726 -9.89621 
-10.4797 -0.16148 0.138797 
-0.16148 -9.90476 -0.0106266 
0.138797 -0.0106266 -9.19624 
-9.84625 0.49126 -0.600616 
0.49126 -9.9456 -0.399136 
-0.600616 -0.399136 -9.78882 
-9.54949 0.39457 -0.506693 
0.39457 -10.1622 -0.112278 
-0.506693 -0.112278 -9.86898 
-9.72593 0.41025 -0.502392 
0.41025 -9.89122 0.0447064 
-0.502392 0.0447064 -9.96352 
-9.81339 -0.0961936 0.0951871 
-0.0961936 -9.84328 0.0069843 
0.0951871 0.0069843 -10.0972 
-9.79745 -0.0118845 0.0616893 
-0.0118845 -9.88585 0.022549 
0.0616893 0.022549 -10.0706 
-9.86153 -0.107485 0.0485071 
-0.107485 -9.75065 0.0666701 
0.0485071 0.0666701 -10.1417 
-9.79313 -0.0869838 0.06497 
-0.0869838 -9.86268 0.0125029 
0.06497 0.0125029 -10.0981 
-9.90077 -0.03231 0.0218774 
-0.03231 -9.91519 0.0503942 
0.0218774 0.0503942 -9.90668 
-9.90544 -0.0251921 0.0275955 
-0.0251921 -9.9145 0.045685 
0.0275955 0.045685 -9.90271 
-9.90205 -0.013688 0.0213388 
-0.013688 -9.91566 0.0305175 
0.0213388 0.0305175 -9.90494 
-9.91158 -0.0492578 0.0297865 
-0.0492578 -9.92486 0.0393483 
0.0297865 0.0393483 -9.88622 
-10.1678 -0.0247124 -0.00887882 
-0.0247124 -10.0199 -0.0171265 
-0.00887882 -0.0171265 -10.3533 
-10.1121 0.010963 -0.0664824 
0.010963 -10.1039 0.00864112 
-0.0664824 0.00864112 -10.325 
-10.2945 -0.0543195 -0.0321528 
-0.0543195 -10.295 -0.0800927 
-0.0321528 -0.0800927 -9.95149 
-10.121 -0.104598 0.0720011 
-0.104598 -10.3076 0.188229 
0.0720011 0.188229 -10.1123 
-9.96679 0.0025913 -0.032992 
0.0025913 -9.96781 0.0441484 
-0.032992 0.0441484 -9.96946 
-9.9693 0.00443435 -0.03389 
0.00443435 -9.96884 0.0432254 
-0.03389 0.0432254 -9.96592 
-9.96711 0.0044672 -0.0342553 
0.0044672 -9.97469 0.0363281 
-0.0342553 0.0363281 -9.96225 
-9.96749 0.0025014 -0.0357472 
0.0025014 -9.96609 0.0443622 
-0.0357472 0.0443622 -9.97047 
-9.9115 0.038464 0.0174754 
0.038464 -9.94979 -0.0580941 
0.0174754 -0.0580941 -9.87672 
-9.88837 -0.0010713 0.0301928 
-0.0010713 -9.92514 -0.0670808 
0.0301928 -0.0670808 -9.92449 
-9.88326 -0.0837368 0.0260059 
-0.0837368 -9.87347 -0.0398726 
0.0260059 -0.0398726 -9.98127 
-9.93143 -0.0211967 0.101875 
-0.0211967 -9.87064 -0.0950434 
0.101875 -0.0950434 -9.93594 
-9.93173 -0.0127021 -0.019748 
-0.0127021 -9.94566 0.0188531 
-0.019748 0.0188531 -9.97149 
-9.91337 -0.00515657 -0.0107222 
-0.00515657 -9.93959 0.0176645 
-0.0107222 0.0176645 -9.99593 
-9.90261 -0.0108411 -0.0245057 
-0.0108411 -9.93708 0.03503 
-0.0245057 0.03503 -10.0092 
-9.91722 -0.0295481 -0.0183695 
-0.0295481 -9.95805 0.0144728 
-0.0183695 0.0144728 -9.97362 
-9.83051 -0.0127196 0.0969464 
-0.0127196 -9.89572 -0.0169639 
0.0969464 -0.0169639 -10.1376 
-9.85729 -0.00962867 0.116428 
-0.00962867 -9.93565 -0.0268715 
0.116428 -0.0268715 -10.0709 
-9.82023 -0.031155 0.155002 
-0.031155 -9.88938 -0.00403846 
0.155002 -0.00403846 -10.1542 
-9.84473 -0.02632 0.103495 
-0.02632 -9.91219 -0.00378606 
0.103495 -0.00378606 -10.1069 
-10.1096 -0.130974 -0.227085 
-0.130974 -9.66727 0.159535 
-0.227085 0.159535 -10.8221 
-9.86701 -0.0648581 0.0408646 
-0.0648581 -10.7035 -0.136249 
0.0408646 -0.136249 -10.0285 
-10.358 0.178397 0.192435 
0.178397 -10.3694 -0.136616 
0.192435 -0.136616 -9.87155 
-10.1604 0.231331 0.173778 
0.231331 -10.3038 0.125684 
0.173778 0.125684 -10.1348 
-10.0988 0.0270089 -0.00268668 
0.0270089 -9.82817 -0.0341064 
-0.00268668 -0.0341064 -10.3534 
-9.78162 0.110409 0.067733 
0.110409 -10.1425 -0.117139 
0.067733 -0.117139 -10.3564 
-10.1297 0.0577441 0.0478189 
0.0577441 -9.80835 -0.101221 
0.0478189 -0.101221 -10.3424 
-10.2613 0.0461133 -0.253177 
0.0461133 -9.8295 -0.148616 
-0.253177 -0.148616 -10.1897 
-9.79039 -0.0111999 0.0641132 
-0.0111999 -9.93605 -0.00877125 
0.0641132 -0.00877125 -9.93459 
-9.84463 0.0265861 0.170229 
0.0265861 -9.94985 0.0362577 
0.170229 0.0362577 -9.86656 
-9.8616 -0.0514023 -0.0149705 
-0.0514023 -9.8351 -0.0387688 
-0.0149705 -0.0387688 -9.96433 
-9.72025 -0.0421509 0.105759 
-0.0421509 -9.88608 -0.101111 
0.105759 -0.101111 -10.0547 
-9.99284 0.00437847 -0.0147384 
0.00437847 -9.9858 -0.00618395 
-0.0147384 -0.00618395 -10.0014 
-9.98902 -0.00112669 -0.0118136 
-0.00112669 -9.99296 -0.00848563 
-0.0118136 -0.00848563 -9.99805 
-9.99578 -0.00336515 -0.0134245 
-0.00336515 -9.99254 -0.0090113 
-0.0134245 -0.0090113 -9.99171 
-9.99289 -0.00155388 -0.0122679 
-0.00155388 -9.99577 -0.00781997 
-0.0122679 -0.00781997 -9.99137 
-9.92256 -0.0150666 0.0422386 
-0.0150666 -9.89587 -0.00133048 
0.0422386 -0.00133048 -9.99085 
-9.91042 -0.0234121 0.0576196 
-0.0234121 -9.89055 0.0256011 
0.0576196 0.0256011 -10.0083 
-9.80193 -0.0107399 0.0391401 
-0.0107399 -9.92498 -0.00354145 
0.0391401 -0.00354145 -10.0824 
-9.89115 -0.0455746 0.0318707 
-0.0455746 -9.90358 0.00624017 
0.0318707 0.00624017 -10.0146 
-9.88446 0.0180856 0.037301 
0.0180856 -9.89705 0.0563827 
0.037301 0.0563827 -9.9663 
-9.89533 0.0328071 0.0711851 
0.0328071 -9.91677 0.0603853 
0.0711851 0.0603853 -9.93571 
-9.92524 0.00395371 0.0435327 
0.00395371 -9.89735 0.0462865 
0.0435327 0.0462865 -9.92521 
-9.88109 0.0119796 0.0391529 
0.0119796 -9.91204 0.0546971 
0.0391529 0.0546971 -9.95467 
-9.90863 -0.0129282 0.0885128 
-0.0129282 -9.96744 0.00783922 
0.0885128 0.00783922 -10.0644 
-9.8728 0.00624741 0.104416 
0.00624741 -9.93282 -0.015673 
0.104416 -0.015673 -10.1349 
-9.9075 -0.0187516 0.0674063 
-0.0187516 -9.96657 0.0153167 
0.0674063 0.0153167 -10.0664 
-9.90558 0.0270963 0.0862632 
0.0270963 -9.9184 0.000733583 
0.0862632 0.000733583 -10.1165 
-9.97228 -0.00278511 -0.000939751 
-0.00278511 -9.95223 0.0333359 
-0.000939751 0.0333359 -9.99376 
-9.99141 -0.0215957 0.0292558 
-0.0215957 -9.93263 -0.0245887 
0.0292558 -0.0245887 -9.99423 
-9.99628 0.00406569 -0.0108435 
0.00406569 -9.95819 0.0541183 
-0.0108435 0.0541183 -9.9638 
-9.96503 -0.0206093 -0.0110553 
-0.0206093 -9.92519 0.0232956 
-0.0110553 0.0232956 -10.0281 
-9.96001 0.00239343 -0.011386 
0.00239343 -9.9435 0.0200007 
-0.011386 0.0200007 -9.92773 
-9.9574 -0.00492388 -0.0267665 
-0.00492388 -9.93584 -0.00941069 
-0.0267665 -0.00941069 -9.93799 
-9.95562 0.00799098 -0.00210302 
0.00799098 -9.94803 0.0163542 
-0.00210302 0.0163542 -9.92759 
-9.97132 -0.00126982 -0.0197741 
-0.00126982 -9.95956 0.0138036 
-0.0197741 0.0138036 -9.90036 
-10.804 0.225397 0.248735 
0.225397 -10.4222 0.19134 
0.248735 0.19134 -9.59753 
-10.1465 -0.0623642 0.0256883 
-0.0623642 -10.2808 0.0995147 
0.0256883 0.0995147 -10.3965 
-9.65595 0.247704 -0.0475205 
0.247704 -10.0494 0.238844 
-0.0475205 0.238844 -11.1184 
-10.1586 0.122852 0.189945 
0.122852 -10.2874 -0.313006 
0.189945 -0.313006 -10.3778 
-9.95395 0.00699415 -0.00134511 
0.00699415 -10.0413 -0.00188673 
-0.00134511 -0.00188673 -10.0544 
-9.99923 0.00166193 -0.0264003 
0.00166193 -10.0214 0.0170494 
-0.0264003 0.0170494 -10.029 
-10.0295 -0.0257459 -0.0129648 
-0.0257459 -10.0117 -0.0107536 
-0.0129648 -0.0107536 -10.0083 
-9.99897 0.00629955 -0.0146673 
0.00629955 -10.0287 0.00103243 
-0.0146673 0.00103243 -10.0219 
-9.93426 0.0116114 -0.00161528 
0.0116114 -9.93025 -0.0237779 
-0.00161528 -0.0237779 -10.1692 
-9.93388 0.0205706 0.0282757 
0.0205706 -9.91701 -0.0286202 
0.0282757 -0.0286202 -10.1828 
-9.9363 0.0107603 0.023149 
0.0107603 -9.91633 -0.0359377 
0.023149 -0.0359377 -10.1811 
-9.94481 0.0165 -0.00684539 
0.0165 -9.90037 -0.0201562 
-0.00684539 -0.0201562 -10.1885 
-9.94377 -0.0434841 -0.072396 
-0.0434841 -9.85958 -0.0659044 
-0.072396 -0.0659044 -9.96252 
-9.90597 -0.0155618 -0.0780547 
-0.0155618 -9.91689 -0.0268295 
-0.0780547 -0.0268295 -9.94302 
-9.89065 0.0113121 -0.045602 
0.0113121 -9.9214 -0.0700774 
-0.045602 -0.0700774 -9.95383 
-9.94373 -0.0343543 -0.0152745 
-0.0343543 -9.90628 -0.0657446 
-0.0152745 -0.0657446 -9.91586 
-9.84901 0.0382905 -0.0791511 
0.0382905 -9.88797 -0.0239441 
-0.0791511 -0.0239441 -9.91115 
-9.92149 -0.0322727 -0.0707019 
-0.0322727 -9.85292 -0.00775996 
-0.0707019 -0.00775996 -9.87373 
-9.84701 0.018963 -0.0712719 
0.018963 -9.88608 -0.0248633 
-0.0712719 -0.0248633 -9.91505 
-9.84536 0.0114559 -0.101456 
0.0114559 -9.91275 -0.033247 
-0.101456 -0.033247 -9.89003 
-9.92319 0.0769272 -0.0197399 
0.0769272 -9.93685 -0.0583715 
-0.0197399 -0.0583715 -9.93128 
-9.92642 0.0726775 -0.0545588 
0.0726775 -9.94033 -0.0512506 
-0.0545588 -0.0512506 -9.92457 
-9.97302 0.0521686 -0.0342183 
0.0521686 -9.97106 -0.0422048 
-0.0342183 -0.0422048 -9.84724 
-9.88073 0.0600334 -0.0824817 
0.0600334 -9.99083 -0.138662 
-0.0824817 -0.138662 -9.91976 
-9.99571 0.000350301 -0.00464429 
0.000350301 -9.98706 0.0280865 
-0.00464429 0.0280865 -10.0026 
-9.996 0.00153879 -0.00730394 
0.00153879 -9.99764 0.0235272 
-0.00730394 0.0235272 -9.99174 
-9.99411 0.00236915 -0.00862055 
0.00236915 -9.99192 0.0274241 
-0.00862055 0.0274241 -9.99935 
-9.9958 -0.00067759 -0.00782829 
-0.00067759 -9.99999 0.024702 
-0.00782829 0.024702 -9.98959 
-4.83719 1.82449 -1.43887 
1.82449 -2.53958 0.621091 
-1.43887 0.621091 -8.06323 
-12.1044 -1.4644 5.82567 
-1.4644 -4.95853 -0.457844 
5.82567 -0.457844 1.62294 
-13.8481 1.92588 7.6081 
1.92588 -7.99598 0.618195 
7.6081 0.618195 6.40407 
-0.827445 -0.602706 4.55201 
-0.602706 -6.53343 -0.387239 
4.55201 -0.387239 -8.07913 
-9.95246 0.00561113 0.00255179 
0.00561113 -9.93976 0.00972264 
0.00255179 0.00972264 -9.98223 
-9.94475 0.00304591 0.00221152 
0.00304591 -9.94451 0.00601649 
0.00221152 0.00601649 -9.98519 
-9.94758 0.00523995 -0.00273076 
0.00523995 -9.94391 -0.00155419 
-0.00273076 -0.00155419 -9.98296 
-9.94565 0.00723744 0.00622158 
0.00723744 -9.9522 -0.00402494 
0.00622158 -0.00402494 -9.97659 
-9.87629 0.0238525 -0.0661064 
0.0238525 -9.90782 -0.022701 
-0.0661064 -0.022701 -9.92585 
-9.92914 -0.00341705 -0.0753381 
-0.00341705 -9.89122 -0.0302269 
-0.0753381 -0.0302269 -9.88961 
-9.90767 0.0122652 -0.0765066 
0.0122652 -9.89738 -0.027439 
-0.0765066 -0.027439 -9.90492 
-9.89673 0.0171552 -0.0955437 
0.0171552 -9.89112 -0.0366937 
-0.0955437 -0.0366937 -9.92212 
-9.95125 0.0516174 0.00656136 
0.0516174 -9.94957 0.0413746 
0.00656136 0.0413746 -9.92054 
-9.95937 0.0742052 0.0143335 
0.0742052 -9.99827 0.0370406 
0.0143335 0.0370406 -9.86373 
-9.94232 0.0429967 -0.00399169 
0.0429967 -9.93237 0.0641396 
-0.00399169 0.0641396 -9.94667 
-9.9308 0.0142978 0.0139146 
0.0142978 -9.93379 0.00994888 
0.0139146 0.00994888 -9.95678 
-9.95964 0.00453083 0.0261531 
0.00453083 -9.95523 -0.0341157 
0.0261531 -0.0341157 -9.94033 
-9.96625 0.00785944 0.0370713 
0.00785944 -9.94782 -0.0231949 
0.0370713 -0.0231949 -9.94112 
-9.96713 0.00813083 0.034989 
0.00813083 -9.94541 -0.0233888 
0.034989 -0.0233888 -9.94265 
-9.96367 0.00421118 0.0375064 
0.00421118 -9.94742 -0.0237058 
0.0375064 -0.0237058 -9.9441 
-9.97145 -0.00554063 -0.0379823 
-0.00554063 -9.96811 -0.0534889 
-0.0379823 -0.0534889 -9.9897 
-9.97654 0.00507149 -0.0457254 
0.00507149 -9.97723 -0.0615748 
-0.0457254 -0.0615748 -9.97548 
-9.9731 0.00238596 -0.0448594 
0.00238596 -9.97625 -0.0652994 
-0.0448594 -0.0652994 -9.9799 
-9.98008 0.00225043 -0.0513292 
0.00225043 -9.98607 -0.0638617 
-0.0513292 -0.0638617 -9.9631 
-9.97169 0.000513268 -0.00971195 
0.000513268 -9.95782 -0.00199787 
-0.00971195 -0.00199787 -9.94245 
-9.97118 -0.00186713 -0.00546101 
-0.00186713 -9.95177 0.0106208 
-0.00546101 0.0106208 -9.94901 
-9.97473 -0.00783394 -0.000128201 
-0.00783394 -9.9467 0.00858611 
-0.000128201 0.00858611 -9.95053 
-9.96453 -0.027007 -0.000143091 
-0.027007 -9.98201 0.0142477 
-0.000143091 0.0142477 -9.92542 
-10.12 -0.00338616 0.00720385 
-0.00338616 -10.1169 -0.00846995 
0.00720385 -0.00846995 -10.1885 
-10.1628 -0.012551 0.0110945 
-0.012551 -10.1715 0.0110819 
0.0110945 0.0110819 -10.0912 
-10.1342 0.000615613 0.0174324 
0.000615613 -10.1372 -0.00784799 
0.0174324 -0.00784799 -10.1541 
-10.1389 0.00136755 0.0508729 
0.00136755 -10.1321 -0.0109288 
0.0508729 -0.0109288 -10.1545 
-9.86818 -0.00508749 -0.00494225 
-0.00508749 -9.79275 0.103989 
-0.00494225 0.103989 -10.0511 
-9.86025 0.007065 -0.00816973 
0.007065 -9.80444 0.080828 
-0.00816973 0.080828 -10.0474 
-9.86613 0.0102387 -0.0023331 
0.0102387 -9.79428 0.0735814 
-0.0023331 0.0735814 -10.0516 
-9.8544 0.0142013 -0.0123353 
0.0142013 -9.80176 0.0837956 
-0.0123353 0.0837956 -10.0559 
-9.96688 -0.00121981 0.0459885 
-0.00121981 -9.88671 -0.0955898 
0.0459885 -0.0955898 -9.88686 
-9.93812 0.0164586 0.0527406 
0.0164586 -9.89755 -0.0790479 
0.0527406 -0.0790479 -9.90478 
-9.91061 0.00948597 0.072329 
0.00948597 -9.92708 -0.0806378 
0.072329 -0.0806378 -9.90277 
-9.93671 0.069961 0.0275739 
0.069961 -9.89998 -0.0862196 
0.0275739 -0.0862196 -9.90376 
-9.97707 -0.000408326 -0.080899 
-0.000408326 -9.97001 -0.0120508 
-0.080899 -0.0120508 -9.97737 
-9.9734 -0.00113919 -0.0771198 
-0.00113919 -9.97858 -0.00694832 
-0.0771198 -0.00694832 -9.97246 
-9.97467 -0.00180627 -0.0724294 
-0.00180627 -9.9695 -0.0176554 
-0.0724294 -0.0176554 -9.98027 
-9.98454 -0.00133411 -0.0795208 
-0.00133411 -9.97926 -0.000331037 
-0.0795208 -0.000331037 -9.96065 
-9.92403 -0.00526695 0.0123038 
-0.00526695 -10.0345 0.0245295 
0.0123038 0.0245295 -9.99562 
-9.93302 -0.00902745 0.0101311 
-0.00902745 -10.0167 0.0020445 
0.0101311 0.0020445 -10.0044 
-9.98146 -0.038259 -0.0263345 
-0.038259 -9.91478 0.0218938 
-0.0263345 0.0218938 -10.0579 
-9.9494 -0.0280011 0.0269041 
-0.0280011 -10.0185 -0.00188288 
0.0269041 -0.00188288 -9.98621 
-10.0202 0.0499114 0.0023024 
0.0499114 -9.90045 0.072914 
0.0023024 0.072914 -10.2232 
-9.94428 0.103613 -0.0134104 
0.103613 -10.0102 0.108325 
-0.0134104 0.108325 -10.1893 
-10.0096 -0.011996 -0.0294389 
-0.011996 -9.90516 0.0307539 
-0.0294389 0.0307539 -10.2291 
-10.0432 0.0480282 -0.0252371 
0.0480282 -9.81327 0.0374486 
-0.0252371 0.0374486 -10.2873 
-10.119 -0.007113 0.0270623 
-0.007113 -10.1111 -0.00137123 
0.0270623 -0.00137123 -10.1554 
-10.1112 -0.00483256 0.00832241 
-0.00483256 -10.1193 -0.00414915 
0.00832241 -0.00414915 -10.1549 
-10.1239 -0.0190392 0.0243403 
-0.0190392 -10.1191 -0.00369414 
0.0243403 -0.00369414 -10.1424 
-10.1002 0.00101743 0.0203193 
0.00101743 -10.1243 0.00549383 
0.0203193 0.00549383 -10.161 
-9.96354 -0.0120793 0.0101031 
-0.0120793 -9.94541 -0.00569119 
0.0101031 -0.00569119 -10.0157 
-9.96916 -0.021344 0.00695267 
-0.021344 -9.96212 -0.0230208 
0.00695267 -0.0230208 -9.99339 
-9.96066 -0.00911973 0.0154523 
-0.00911973 -9.95804 -0.0129334 
0.0154523 -0.0129334 -10.006 
-9.97084 0.000149056 0.00879771 
0.000149056 -9.94333 -0.00597088 
0.00879771 -0.00597088 -10.0105 
-10.063 -0.00309348 -0.000958643 
-0.00309348 -10.0484 -0.0554352 
-0.000958643 -0.0554352 -10.0207 
-9.95162 -0.00509486 0.0177632 
-0.00509486 -9.90717 0.0430855 
0.0177632 0.0430855 -10.2734 
-10.0292 -0.037387 -0.013367 
-0.037387 -10.0528 -0.0439815 
-0.013367 -0.0439815 -10.0502 
-10.0575 0.0547345 -0.0993523 
0.0547345 -9.98043 -0.14467 
-0.0993523 -0.14467 -10.0942 
-10.0046 0.2118 0.210421 
0.2118 -10.0078 0.236246 
0.210421 0.236246 -10.2171 
-9.82276 0.106897 0.132259 
0.106897 -10.1552 0.143672 
0.132259 0.143672 -10.2515 
-9.92751 0.443445 0.152688 
0.443445 -9.87216 0.205171 
0.152688 0.205171 -10.4298 
-9.89472 0.231922 0.142102 
0.231922 -10.0255 0.15167 
0.142102 0.15167 -10.3092 
-9.95239 -0.015559 -0.0408561 
-0.015559 -9.95167 -0.0280466 
-0.0408561 -0.0280466 -9.95615 
-9.95135 -0.0154761 -0.0378224 
-0.0154761 -9.9524 -0.0430907 
-0.0378224 -0.0430907 -9.95646 
-9.95243 -0.00273118 -0.0238066 
-0.00273118 -9.94784 -0.0422719 
-0.0238066 -0.0422719 -9.95994 
-9.94655 -0.0088618 -0.0456599 
-0.0088618 -9.95217 -0.0308492 
-0.0456599 -0.0308492 -9.96148 
-9.91897 0.140526 -0.0786009 
0.140526 -9.80581 0.141611 
-0.0786009 0.141611 -9.63103 
-10.1646 0.147526 0.084012 
0.147526 -10.1166 0.0778833 
0.084012 0.0778833 -9.07457 
-9.93218 -0.030031 0.250141 
-0.030031 -9.9741 0.0456515 
0.250141 0.0456515 -9.44952 
-10.0496 -0.0103169 0.616478 
-0.0103169 -9.56024 0.250269 
0.616478 0.250269 -9.74594 
-9.98234 0.000921046 0.0574352 
0.000921046 -9.97992 -0.0170393 
0.0574352 -0.0170393 -9.97959 
-9.98313 -0.00343341 0.0543353 
-0.00343341 -9.98568 -0.0186488 
0.0543353 -0.0186488 -9.97304 
-9.98006 -0.00358775 0.0630748 
-0.00358775 -9.97827 -0.0156176 
0.0630748 -0.0156176 -9.98353 
-9.98228 0.00141836 0.060376 
0.00141836 -9.98188 -0.01739 
0.060376 -0.01739 -9.9777 
-9.89442 0.0123097 0.0540893 
0.0123097 -9.92983 -0.0522842 
0.0540893 -0.0522842 -9.9117 
-9.88159 0.0157774 0.0453154 
0.0157774 -9.95901 -0.052017 
0.0453154 -0.052017 -9.89534 
-9.90973 -0.0333924 0.0245135 
-0.0333924 -9.88022 -0.0275832 
0.0245135 -0.0275832 -9.946 
-9.88046 -0.0271383 0.0306683 
-0.0271383 -9.89947 -0.0764654 
0.0306683 -0.0764654 -9.95601 
-9.98465 -0.00308862 0.0439291 
-0.00308862 -9.98357 -0.0643536 
0.0439291 -0.0643536 -9.98327 
-9.98305 0.000664169 0.0391695 
0.000664169 -9.97813 -0.0581317 
0.0391695 -0.0581317 -9.99031 
-9.98228 -0.00218178 0.0438202 
-0.00218178 -9.98246 -0.0604439 
0.0438202 -0.0604439 -9.98675 
-9.97925 0.00214182 0.0491152 
0.00214182 -9.99376 -0.0637289 
0.0491152 -0.0637289 -9.97848 
-9.93797 0.00831805 -0.0101873 
0.00831805 -9.9511 0.0252142 
-0.0101873 0.0252142 -9.95918 
-9.93136 0.00579341 -0.00415347 
0.00579341 -9.94383 0.00866475 
-0.00415347 0.00866475 -9.97306 
-9.94539 -0.0032415 -0.00538016 
-0.0032415 -9.93694 0.0114739 
-0.00538016 0.0114739 -9.96592 
-9.94419 -0.0135702 -0.00533084 
-0.0135702 -9.93027 0.0180368 
-0.00533084 0.0180368 -9.97379 
-9.92383 0.0139497 0.0440836 
0.0139497 -9.90996 -0.0392371 
0.0440836 -0.0392371 -9.9152 
-9.91393 -0.0126456 0.0483458 
-0.0126456 -9.91101 -0.0353454 
0.0483458 -0.0353454 -9.92405 
-9.89795 -0.0214195 0.0594335 
-0.0214195 -9.90673 -0.0454332 
0.0594335 -0.0454332 -9.94432 
-9.92745 -0.00782079 0.0389173 
-0.00782079 -9.88744 -0.0398309 
0.0389173 -0.0398309 -9.9341 
-9.98318 0.000759966 0.0818098 
0.000759966 -9.95599 0.0107893 
0.0818098 0.0107893 -9.94394 
-9.94586 0.00105393 0.0825557 
0.00105393 -9.95677 0.0142367 
0.0825557 0.0142367 -9.98048 
-9.95722 0.000373777 0.0760748 
0.000373777 -9.96426 0.00460093 
0.0760748 0.00460093 -9.96163 
-9.95908 0.00013024 0.0604333 
0.00013024 -9.96171 0.00596232 
0.0604333 0.00596232 -9.96232 
-10.0636 -0.045329 -0.000921383 
-0.045329 -10.0369 -0.00981236 
-0.000921383 -0.00981236 -9.96846 
-10.0117 -0.00724068 0.00539356 
-0.00724068 -10.0525 -0.00590775 
0.00539356 -0.00590775 -10.0048 
-10.0419 -6.41413e-05 0.0173059 
-6.41413e-05 -9.95969 0.01266 
0.0173059 0.01266 -10.0674 
-10.0357 -0.0266153 -0.0104404 
-0.0266153 -10.0182 0.0172639 
-0.0104404 0.0172639 -10.015 
-9.96214 -0.00435451 -0.0351364 
-0.00435451 -9.97419 -0.00798223 
-0.0351364 -0.00798223 -9.97572 
-9.9702 0.000890078 -0.0200716 
0.000890078 -9.96813 -0.00638534 
-0.0200716 -0.00638534 -9.97373 
-9.9798 0.0034044 -0.0245113 
0.0034044 -9.96837 -0.00808891 
-0.0245113 -0.00808891 -9.96389 
-9.98811 -0.000672415 -0.0229241 
-0.000672415 -9.97533 -0.00433793 
-0.0229241 -0.00433793 -9.94861 
-9.89832 -0.00124304 0.161532 
-0.00124304 -9.9542 -0.104633 
0.161532 -0.104633 -9.78692 
-9.85893 -0.0428075 0.137684 
-0.0428075 -9.89753 -0.019922 
0.137684 -0.019922 -9.88299 
-9.8708 -0.00054451 0.0722611 
-0.00054451 -9.87828 -0.0969613 
0.0722611 -0.0969613 -9.89035 
-9.92649 -0.0158387 0.132137 
-0.0158387 -9.86427 -0.00462061 
0.132137 -0.00462061 -9.84868 
-9.85537 0.176317 -0.0908517 
0.176317 -9.9045 0.0222137 
-0.0908517 0.0222137 -10.0792 
-9.84427 0.27708 -0.0611087 
0.27708 -9.87196 0.0335384 
-0.0611087 0.0335384 -10.1229 
-9.8157 0.162472 -0.0288249 
0.162472 -9.9511 0.144834 
-0.0288249 0.144834 -10.0723 
-9.84532 0.227921 -0.0699481 
0.227921 -9.91201 0.0235913 
-0.0699481 0.0235913 -10.0818 
-9.98559 0.0033646 -0.0255387 
0.0033646 -9.98005 -0.0487139 
-0.0255387 -0.0487139 -9.98838 
-9.98739 -0.00303129 -0.0279282 
-0.00303129 -9.98382 -0.0480258 
-0.0279282 -0.0480258 -9.98281 
-9.98266 0.00026489 -0.0355847 
0.00026489 -9.98296 -0.0369035 
-0.0355847 -0.0369035 -9.9884 
-9.98619 -0.00540997 -0.0322211 
-0.00540997 -9.98436 -0.0364377 
-0.0322211 -0.0364377 -9.98347 
-9.90187 0.0183208 0.0100915 
0.0183208 -9.924 0.0202818 
0.0100915 0.0202818 -9.97948 
-9.91968 0.0112762 0.0292566 
0.0112762 -9.91224 0.0321419 
0.0292566 0.0321419 -9.97344 
-9.91603 0.0161296 0.0221051 
0.0161296 -9.89929 0.0310711 
0.0221051 0.0310711 -9.99003 
-9.91651 0.000141195 0.0201667 
0.000141195 -9.92482 0.0528298 
0.0201667 0.0528298 -9.96402 
-10.0443 0.00051613 0.00968209 
0.00051613 -10.0534 -0.0119065 
0.00968209 -0.0119065 -10.0473 
-10.0708 -0.00346498 0.00855523 
-0.00346498 -10.0672 -0.0127825 
0.00855523 -0.0127825 -10.007 
-10.0267 0.00549495 -0.0194074 
0.00549495 -10.0156 -0.0120663 
-0.0194074 -0.0120663 -10.1027 
-10.027 0.0217121 0.0252606 
0.0217121 -10.0568 0.00972732 
0.0252606 0.00972732 -10.0612 
-9.95658 -0.017479 -0.0379971 
-0.017479 -9.97417 -0.0154704 
-0.0379971 -0.0154704 -9.95024 
-9.95583 -0.00770056 -0.0193233 
-0.00770056 -9.9644 -0.0253859 
-0.0193233 -0.0253859 -9.96076 
-9.96593 -0.00896497 -0.0202849 
-0.00896497 -9.96846 -0.0163184 
-0.0202849 -0.0163184 -9.9466 
-9.96405 -0.00560969 -0.0247222 
-0.00560969 -9.96262 -0.0210632 
-0.0247222 -0.0210632 -9.95432 
-11.8759 -0.331782 -1.06802 
-0.331782 -4.09454 0.963104 
-1.06802 0.963104 -16.1418 
-11.8658 -1.81067 0.882877 
-1.81067 -10.8632 -1.19844 
0.882877 -1.19844 -9.38323 
-8.16079 -1.30198 -0.402873 
-1.30198 -4.99436 1.19292 
-0.402873 1.19292 -18.9571 
-10.0716 0.584581 -0.579722 
0.584581 -10.4991 2.30491 
-0.579722 2.30491 -11.5415 
-9.84184 -0.0446296 0.124661 
-0.0446296 -9.85395 -0.0622534 
0.124661 -0.0622534 -9.9474 
-9.8709 -0.0345575 0.145519 
-0.0345575 -9.90102 -0.0311228 
0.145519 -0.0311228 -9.87127 
-9.85604 -0.0544484 0.129763 
-0.0544484 -9.87863 -0.0575224 
0.129763 -0.0575224 -9.90851 
-9.85969 -0.0453545 0.121905 
-0.0453545 -9.89098 -0.0670581 
0.121905 -0.0670581 -9.89253 
-9.87045 0.0529513 -0.0873662 
0.0529513 -9.99381 -0.0819999 
-0.0873662 -0.0819999 -9.63402 
-9.84786 0.0409336 -0.0940136 
0.0409336 -9.94916 -0.125335 
-0.0940136 -0.125335 -9.70127 
-9.86889 0.0699323 -0.107986 
0.0699323 -9.94141 -0.0399953 
-0.107986 -0.0399953 -9.68798 
-9.87462 0.0396927 -0.108896 
0.0396927 -9.97276 -0.0797918 
-0.108896 -0.0797918 -9.6509 
-9.84717 0.117138 0.10355 
0.117138 -9.81553 0.00910701 
0.10355 0.00910701 -10.0786 
-9.82758 0.0860857 0.0834504 
0.0860857 -9.99899 -0.0691049 
0.0834504 -0.0691049 -9.9147 
-9.84852 0.102092 0.133363 
0.102092 -9.87887 0.0460021 
0.133363 0.0460021 -10.0139 
-9.85945 0.103278 0.133767 
0.103278 -9.8706 0.0150023 
0.133767 0.0150023 -10.0112 
-9.93561 -0.00596037 -0.0671115 
-0.00596037 -9.91571 -0.0319543 
-0.0671115 -0.0319543 -9.84252 
-9.92283 -0.00970242 -0.071764 
-0.00970242 -9.92417 -0.0516874 
-0.071764 -0.0516874 -9.84684 
-9.91129 -0.0246975 -0.0953239 
-0.0246975 -9.93435 -0.0290739 
-0.0953239 -0.0290739 -9.8482 
-9.95983 0.0323124 -0.100804 
0.0323124 -9.92368 -0.0401737 
-0.100804 -0.0401737 -9.81034 
-10.2417 -0.0225031 -0.0185605 
-0.0225031 -10.2093 0.01041 
-0.0185605 0.01041 -10.2314 
-10.155 -0.00505274 -0.0224301 
-0.00505274 -10.2533 0.00838795 
-0.0224301 0.00838795 -10.2742 
-10.2199 -0.0322241 -0.022994 
-0.0322241 -10.2167 0.0100041 
-0.022994 0.0100041 -10.2458 
-10.2359 -0.0200692 -0.0214732 
-0.0200692 -10.2054 0.00937953 
-0.0214732 0.00937953 -10.2411 
-10.3871 0.374941 -0.511956 
0.374941 -9.85155 -0.448155 
-0.511956 -0.448155 -12.7353 
-10.9357 -0.916968 0.796823 
-0.916968 -12.0878 -0.055676 
0.796823 -0.055676 -9.95045 
-7.55817 0.137299 -0.805476 
0.137299 -10.1506 -0.944813 
-0.805476 -0.944813 -15.2651 
-9.84998 0.0684221 -0.545782 
0.0684221 -11.1029 1.14232 
-0.545782 1.14232 -12.021 
-10.5019 0.10012 0.136184 
0.10012 -10.4506 0.121244 
0.136184 0.121244 -10.2541 
-10.4508 -0.00212518 0.0716968 
-0.00212518 -10.3968 0.0603461 
0.0716968 0.0603461 -10.359 
-10.1127 -0.237412 0.050117 
-0.237412 -10.1231 -0.366652 
0.050117 -0.366652 -10.9709 
-10.6456 0.022056 -0.0965835 
0.022056 -9.80799 0.0894211 
-0.0965835 0.0894211 -10.7531 
-9.9569 -0.00450617 -0.00292034 
-0.00450617 -9.95171 0.000535914 
-0.00292034 0.000535914 -10.0029 
-9.95559 -0.00129101 -0.00235098 
-0.00129101 -9.95691 0.00427043 
-0.00235098 0.00427043 -9.99895 
-9.95118 0.00191703 0.00424268 
0.00191703 -9.96016 -0.004628 
0.00424268 -0.004628 -10.0001 
-9.95897 -1.69711e-05 -0.00272052 
-1.69711e-05 -9.9545 0.00664094 
-0.00272052 0.00664094 -9.99799 
-9.93204 -0.00320425 0.0464696 
-0.00320425 -9.93552 -0.0594208 
0.0464696 -0.0594208 -9.94664 
-9.93212 -0.00285445 0.0465035 
-0.00285445 -9.94177 -0.0599895 
0.0465035 -0.0599895 -9.94031 
-9.93007 0.00287358 0.0408571 
0.00287358 -9.93525 -0.0593781 
0.0408571 -0.0593781 -9.94889 
-9.92863 -0.000182172 0.0451678 
-0.000182172 -9.93141 -0.0598581 
0.0451678 -0.0598581 -9.95416 
-9.94656 0.00539712 -0.0127762 
0.00539712 -9.93524 -0.00165292 
-0.0127762 -0.00165292 -9.98714 
-9.92868 0.00934953 -0.0060538 
0.00934953 -9.93091 0.0250878 
-0.0060538 0.0250878 -10.0094 
-9.93529 0.00398632 0.00655668 
0.00398632 -9.94789 0.0185974 
0.00655668 0.0185974 -9.98576 
-9.93823 0.00600187 -0.00693857 
0.00600187 -9.9379 0.0155692 
-0.00693857 0.0155692 -9.9928 
-9.98152 0.0199269 -0.0146706 
0.0199269 -9.98165 0.0135842 
-0.0146706 0.0135842 -10.0559 
-10.0371 0.0385942 -0.00385946 
0.0385942 -10.0696 -0.0441766 
-0.00385946 -0.0441766 -9.91251 
-10.0002 0.0377594 -0.00916424 
0.0377594 -9.98795 -0.0181463 
-0.00916424 -0.0181463 -10.031 
-10.0172 0.0307773 0.0066871 
0.0307773 -9.96802 -0.0451624 
0.0066871 -0.0451624 -10.0339 
-9.94569 0.0196221 0.00881329 
0.0196221 -9.9402 0.00716207 
0.00881329 0.00716207 -9.97075 
-9.93961 0.0293644 0.0264844 
0.0293644 -9.92738 0.0216771 
0.0264844 0.0216771 -9.98965 
-9.96285 -0.0186717 -0.00675358 
-0.0186717 -9.94358 0.00318849 
-0.00675358 0.00318849 -9.9502 
-9.93372 0.0187898 0.0151695 
0.0187898 -9.9419 -0.00775672 
0.0151695 -0.00775672 -9.98102 
-9.94018 0.0293424 -0.00473551 
0.0293424 -9.97203 0.00201747 
-0.00473551 0.00201747 -10.0175 
-9.97203 -0.0255127 -0.00175484 
-0.0255127 -9.97641 -0.00568401 
-0.00175484 -0.00568401 -9.98123 
-9.96909 0.00564966 -0.0054857 
0.00564966 -9.9696 -0.00711925 
-0.0054857 -0.00711925 -9.99098 
-9.9863 0.00569128 -0.0215356 
0.00569128 -9.95002 -0.0024331 
-0.0215356 -0.0024331 -9.99334 
-9.94636 -0.0102124 -0.0051203 
-0.0102124 -9.92436 -0.0154324 
-0.0051203 -0.0154324 -10.0187 
-9.94199 -0.00126838 -0.00333608 
-0.00126838 -9.92861 -0.0139507 
-0.00333608 -0.0139507 -10.0188 
-9.94123 -0.00708747 -0.0077722 
-0.00708747 -9.92442 -0.0156182 
-0.0077722 -0.0156182 -10.0237 
-9.93388 -0.00832167 -0.00323194 
-0.00832167 -9.933 -0.0115413 
-0.00323194 -0.0115413 -10.0225 
-9.97866 -0.0494161 0.044429 
-0.0494161 -10.0698 0.0543812 
0.044429 0.0543812 -9.98767 
-10.038 0.0200515 0.00833726 
0.0200515 -9.99301 -0.0167481 
0.00833726 -0.0167481 -10.0051 
-10.0269 0.0340183 -0.018531 
0.0340183 -10.0119 -0.0635798 
-0.018531 -0.0635798 -9.99738 
-10.0317 -0.00372343 0.0143713 
-0.00372343 -9.98546 -0.0352635 
0.0143713 -0.0352635 -10.019 
-9.99747 0.00153433 0.00320051 
0.00153433 -9.98338 -0.00146698 
0.00320051 -0.00146698 -10.0197 
-9.98712 0.0117149 -0.0058763 
0.0117149 -9.98794 0.00445319 
-0.0058763 0.00445319 -10.0255 
-9.99826 0.000966989 0.00225993 
0.000966989 -9.99103 -0.0037719 
0.00225993 -0.0037719 -10.0112 
-9.99852 -0.00320407 -0.00189363 
-0.00320407 -9.98816 -0.00322829 
-0.00189363 -0.00322829 -10.0139 
-9.97401 -0.0259925 0.0145264 
-0.0259925 -9.9825 0.000842582 
0.0145264 0.000842582 -9.98212 
-9.97844 0.0052374 0.0204517 
0.0052374 -9.96609 -0.0139775 
0.0204517 -0.0139775 -9.99411 
-9.98467 -0.0193684 -0.0188931 
-0.0193684 -9.97663 0.0148963 
-0.0188931 0.0148963 -9.97734 
-9.97451 -0.0191736 0.0081923 
-0.0191736 -9.94 0.00897611 
0.0081923 0.00897611 -10.0241 
-9.91529 0.0122912 0.0686721 
0.0122912 -9.90268 0.0305395 
0.0686721 0.0305395 -9.92481 
-9.90445 0.0143896 0.0678828 
0.0143896 -9.91186 0.0315198 
0.0678828 0.0315198 -9.92647 
-9.91536 0.011792 0.0671245 
0.011792 -9.90439 0.0277022 
0.0671245 0.0277022 -9.92304 
-9.91561 0.0126964 0.0742679 
0.0126964 -9.90462 0.031345 
0.0742679 0.031345 -9.92256 
-9.89602 -0.00161234 0.00166942 
-0.00161234 -9.8936 -0.0319636 
0.00166942 -0.0319636 -10.021 
-9.88064 -0.00319819 -0.0212975 
-0.00319819 -9.87235 -0.008168 
-0.0212975 -0.008168 -10.0576 
-9.92395 -0.0230083 -0.0153972 
-0.0230083 -9.83994 -0.0687573 
-0.0153972 -0.0687573 -10.0467 
-9.89746 0.00476264 -0.0082133 
0.00476264 -9.8859 -0.0374951 
-0.0082133 -0.0374951 -10.0272 
-10.0191 0.0155315 -0.00478847 
0.0155315 -10.0066 0.00181402 
-0.00478847 0.00181402 -10.0129 
-10.0006 0.00740435 0.0144799 
0.00740435 -10.0079 0.00250104 
0.0144799 0.00250104 -10.0301 
-10.0109 0.0111566 0.00781944 
0.0111566 -10.0101 0.00781879 
0.00781944 0.00781879 -10.0176 
-10.0319 0.00533342 0.00887468 
0.00533342 -10.0274 -0.0160101 
0.00887468 -0.0160101 -9.97932 
-9.99648 0.00300789 0.0102845 
0.00300789 -9.99728 -0.0280662 
0.0102845 -0.0280662 -9.99138 
-9.98366 0.00136427 0.00914109 
0.00136427 -9.98764 -0.0324958 
0.00914109 -0.0324958 -10.0138 
-9.99526 0.00407276 0.0111066 
0.00407276 -10.0011 -0.0292593 
0.0111066 -0.0292593 -9.98882 
-9.99772 0.00088365 0.00812649 
0.00088365 -10.0002 -0.0236807 
0.00812649 -0.0236807 -9.98719 
-11.0741 0.277184 -0.039678 
0.277184 -10.1627 0.0577585 
-0.039678 0.0577585 -10.3386 
-10.4264 -0.422892 0.00902526 
-0.422892 -11.227 0.225316 
0.00902526 0.225316 -9.92205 
-8.83151 0.314009 -0.512963 
0.314009 -10.9011 0.15816 
-0.512963 0.15816 -11.8429 
-9.62327 -0.345566 0.519198 
-0.345566 -10.9123 -0.508824 
0.519198 -0.508824 -11.0399 
-10 -0.00227352 -0.00201449 
-0.00227352 -10.0228 -0.00666447 
-0.00201449 -0.00666447 -10.0052 
-10.0178 -0.00216107 0.00398577 
-0.00216107 -10.0088 -0.00611683 
0.00398577 -0.00611683 -10.0015 
-9.99968 -0.0159546 -0.001229 
-0.0159546 -10.0014 0.00803857 
-0.001229 0.00803857 -10.027 
-10.0077 -0.00192065 -0.00547311 
-0.00192065 -10.0163 -0.00272152 
-0.00547311 -0.00272152 -10.0041 
-11.0267 0.3187 0.129881 
0.3187 -10.3556 0.0211223 
0.129881 0.0211223 -12.5279 
-10.1529 -0.197666 -0.0934976 
-0.197666 -10.5992 0.168132 
-0.0934976 0.168132 -13.1581 
-9.48941 0.205474 -0.0394108 
0.205474 -7.9568 0.59132 
-0.0394108 0.59132 -16.464 
-11.6532 0.461832 -0.543915 
0.461832 -9.96362 0.409171 
-0.543915 0.409171 -12.2935 
-9.95787 -0.0480272 0.0135388 
-0.0480272 -9.88271 0.0515957 
0.0135388 0.0515957 -9.92493 
-9.96552 -0.0126195 0.00644284 
-0.0126195 -9.90474 0.0557368 
0.00644284 0.0557368 -9.89526 
-9.92927 -0.0356654 0.000926806 
-0.0356654 -9.93003 0.0344663 
0.000926806 0.0344663 -9.90622 
-9.95617 -0.0284729 0.00659024 
-0.0284729 -9.91992 0.0514138 
0.00659024 0.0514138 -9.88942 
-10.3111 0.0372227 0.0458068 
0.0372227 -10.1782 -0.0925383 
0.0458068 -0.0925383 -9.85257 
-10.1166 0.00736191 0.0820446 
0.00736191 -10.2834 -0.0920469 
0.0820446 -0.0920469 -9.94184 
-9.92564 0.0776085 -0.196357 
0.0776085 -9.62064 0.103077 
-0.196357 0.103077 -10.7955 
-10.348 -0.16817 0.0336243 
-0.16817 -9.86494 -0.464999 
0.0336243 -0.464999 -10.1289 
-9.91464 -0.00508218 0.000100054 
-0.00508218 -9.91624 0.00114811 
0.000100054 0.00114811 -10.0151 
-9.91641 0.00693567 -0.000870867 
0.00693567 -9.89991 0.00521512 
-0.000870867 0.00521512 -10.0296 
-9.91524 0.0024942 -0.00294591 
0.0024942 -9.91841 0.00341855 
-0.00294591 0.00341855 -10.0123 
-9.90388 0.000997048 0.00649179 
0.000997048 -9.91345 0.0209452 
0.00649179 0.0209452 -10.0286 
-9.93659 -0.0045219 -0.00762253 
-0.0045219 -9.93345 0.0191446 
-0.00762253 0.0191446 -9.9681 
-9.92791 -0.00678451 -0.0120302 
-0.00678451 -9.96605 0.0305378 
-0.0120302 0.0305378 -9.94418 
-9.9322 -0.0103069 -0.000915834 
-0.0103069 -9.94421 0.0329571 
-0.000915834 0.0329571 -9.96172 
-9.94374 -0.0128718 -0.0106166 
-0.0128718 -9.96555 0.0282888 
-0.0106166 0.0282888 -9.92884 
-9.97441 0.0166793 0.0733343 
0.0166793 -10.0164 0.0399155 
0.0733343 0.0399155 -9.6637 
-9.8947 -0.0146521 0.0247514 
-0.0146521 -9.97534 -0.0117167 
0.0247514 -0.0117167 -9.78449 
-9.88816 -0.0342303 0.0079298 
-0.0342303 -9.99693 -0.0505447 
0.0079298 -0.0505447 -9.76946 
-9.90495 0.0406425 -0.0540754 
0.0406425 -9.88061 0.0581288 
-0.0540754 0.0581288 -9.86898 
-9.96593 0.00392487 -0.0111214 
0.00392487 -9.97216 -0.00783074 
-0.0111214 -0.00783074 -10.0038 
-9.99551 -0.0368364 -0.00503955 
-0.0368364 -9.97112 -0.000676697 
-0.00503955 -0.000676697 -9.9753 
-9.94882 0.046003 -0.00159538 
0.046003 -9.95745 0.00409779 
-0.00159538 0.00409779 -10.0357 
-9.92833 -0.00681601 -0.0289777 
-0.00681601 -10.0017 -0.0246252 
-0.0289777 -0.0246252 -10.0119 
-9.84283 -0.131518 -0.119127 
-0.131518 -9.74 -0.0525275 
-0.119127 -0.0525275 -10.8283 
-10.209 0.0850731 0.0827525 
0.0850731 -10.2314 0.0812037 
0.0827525 0.0812037 -9.97079 
-10.3717 -0.025128 0.0220979 
-0.025128 -10.3518 0.0267035 
0.0220979 0.0267035 -9.6876 
-10.3678 0.0646198 0.0390842 
0.0646198 -9.92093 0.541203 
0.0390842 0.541203 -10.1224 
-9.98256 0.00253949 -0.0327 
0.00253949 -9.97705 -0.0740245 
-0.0327 -0.0740245 -9.97574 
-9.976 0.00257026 -0.0347519 
0.00257026 -9.97802 -0.0664125 
-0.0347519 -0.0664125 -9.98133 
-9.97837 -0.00111658 -0.0319479 
-0.00111658 -9.97478 -0.063587 
-0.0319479 -0.063587 -9.9822 
-9.97158 0.00167104 -0.0347871 
0.00167104 -9.99781 -0.0675415 
-0.0347871 -0.0675415 -9.96596 
-9.92662 0.0454149 -0.0130874 
0.0454149 -9.91315 0.000113539 
-0.0130874 0.000113539 -9.93976 
-9.9124 0.019944 0.0245654 
0.019944 -9.92547 0.0216078 
0.0245654 0.0216078 -9.94166 
-9.90826 0.0383641 0.00339317 
0.0383641 -9.92717 0.0415336 
0.00339317 0.0415336 -9.9441 
-9.92803 0.0233364 -0.0261466 
0.0233364 -9.89579 0.00870064 
-0.0261466 0.00870064 -9.95571 
-9.89129 0.0194896 -0.0104581 
0.0194896 -9.84384 -0.0875983 
-0.0104581 -0.0875983 -9.87804 
-9.8721 0.00134957 0.00229347 
0.00134957 -9.87491 -0.105299 
0.00229347 -0.105299 -9.86617 
-9.87176 -0.0127784 -0.00557194 
-0.0127784 -9.88748 -0.100632 
-0.00557194 -0.100632 -9.85394 
-9.8798 0.00721611 -0.019146 
0.00721611 -9.8494 -0.106128 
-0.019146 -0.106128 -9.88398 
-9.98335 0.024291 -0.0355245 
0.024291 -9.87725 0.0188309 
-0.0355245 0.0188309 -9.88313 
-9.75805 -0.0889599 -0.040121 
-0.0889599 -9.94011 0.00954312 
-0.040121 0.00954312 -10.0456 
-9.88847 -0.0279947 -0.0723334 
-0.0279947 -9.90126 0.0253188 
-0.0723334 0.0253188 -9.95401 
-9.89931 -0.0201451 -0.135745 
-0.0201451 -9.89022 0.0776588 
-0.135745 0.0776588 -9.9542 
-9.20478 -0.571966 -1.77354 
-0.571966 -7.66971 -0.278755 
-1.77354 -0.278755 -3.10628 
-8.75736 -0.531927 -2.0048 
-0.531927 -8.02018 -0.645898 
-2.0048 -0.645898 -3.20324 
-9.46546 0.439057 -1.26381 
0.439057 -6.31404 0.646519 
-1.26381 0.646519 -4.20127 
-9.13668 -0.642545 -1.92021 
-0.642545 -7.39021 -0.0465363 
-1.92021 -0.0465363 -3.45388 
-9.85462 0.285435 0.0404235 
0.285435 -10.2748 -0.0378533 
0.0404235 -0.0378533 -10.3617 
-9.9038 0.278422 0.112264 
0.278422 -10.3527 -0.069598 
0.112264 -0.069598 -10.2345 
-9.95991 0.289513 -0.150287 
0.289513 -10.143 0.0325688 
-0.150287 0.0325688 -10.3882 
-9.87024 -0.0392397 0.0470823 
-0.0392397 -10.2753 -0.208066 
0.0470823 -0.208066 -10.3456 
-9.9668 -0.0109063 -0.0571779 
-0.0109063 -9.94673 -0.0425312 
-0.0571779 -0.0425312 -9.89032 
-9.95793 -0.0175152 -0.0461635 
-0.0175152 -9.93289 -0.0411026 
-0.0461635 -0.0411026 -9.91304 
-9.96635 0.00610192 -0.0567807 
0.00610192 -9.94684 -0.0304138 
-0.0567807 -0.0304138 -9.89066 
-9.9714 -0.0268752 -0.0226658 
-0.0268752 -9.9451 -0.047503 
-0.0226658 -0.047503 -9.88734 
-9.96334 -0.00503906 -0.0388785 
-0.00503906 -9.95701 -0.0430134 
-0.0388785 -0.0430134 -9.94888 
-9.96324 -0.00550816 -0.0361224 
-0.00550816 -9.95561 -0.0409087 
-0.0361224 -0.0409087 -9.95039 
-9.96221 -0.00443926 -0.035842 
-0.00443926 -9.96385 -0.0442159 
-0.035842 -0.0442159 -9.94318 
-9.96019 -0.00105606 -0.039967 
-0.00105606 -9.95414 -0.0367643 
-0.039967 -0.0367643 -9.95491 
-9.92962 -0.0286855 -0.0801644 
-0.0286855 -9.9517 -0.000155615 
-0.0801644 -0.000155615 -9.94883 
-9.9772 -0.0119089 -0.0532953 
-0.0119089 -9.90021 -0.00480005 
-0.0532953 -0.00480005 -9.95274 
-9.97621 -0.078509 -0.0510348 
-0.078509 -9.95039 -0.00823792 
-0.0510348 -0.00823792 -9.90354 
-9.93475 -0.0210963 -0.0645922 
-0.0210963 -9.96194 0.0160269 
-0.0645922 0.0160269 -9.93346 
-10.0147 0.00730124 0.0347913 
0.00730124 -10.1837 0.132216 
0.0347913 0.132216 -10.6757 
-10.4371 -0.0583922 -0.0386083 
-0.0583922 -10.4654 -0.113455 
-0.0386083 -0.113455 -9.97163 
-10.2628 0.020449 -0.103373 
0.020449 -10.3394 -0.0861465 
-0.103373 -0.0861465 -10.2719 
-10.1276 0.0858176 -0.28209 
0.0858176 -10.4699 -0.0955571 
-0.28209 -0.0955571 -10.2765 
-9.95136 0.0295305 -0.000424357 
0.0295305 -9.97829 0.00194221 
-0.000424357 0.00194221 -10.0105 
-9.98951 0.0199099 0.00201188 
0.0199099 -9.95864 0.013646 
0.00201188 0.013646 -9.99198 
-9.97915 0.0210582 0.0130337 
0.0210582 -9.9653 3.72443e-05 
0.0130337 3.72443e-05 -9.99569 
-9.98587 0.0298873 0.0140902 
0.0298873 -9.9599 0.00310095 
0.0140902 0.00310095 -9.99436 
-9.9728 0.00297915 0.0334246 
0.00297915 -9.97315 0.0705157 
0.0334246 0.0705157 -9.97334 
-9.96908 -0.000174497 0.0304728 
-0.000174497 -9.9714 0.0636232 
0.0304728 0.0636232 -9.97881 
-9.97274 0.00254508 0.0304281 
0.00254508 -9.97656 0.0652678 
0.0304281 0.0652678 -9.96999 
-9.97384 0.00687367 0.0353364 
0.00687367 -9.98574 0.0650757 
0.0353364 0.0650757 -9.95971 
-9.99165 -0.00154192 -0.0388674 
-0.00154192 -9.98694 -0.0681482 
-0.0388674 -0.0681482 -10.0054 
-9.99576 -0.0020923 -0.0439398 
-0.0020923 -9.99631 -0.0629973 
-0.0439398 -0.0629973 -9.99192 
-9.99609 -0.000251172 -0.0479782 
-0.000251172 -9.99959 -0.0645739 
-0.0479782 -0.0645739 -9.98832 
-9.99601 -0.00326071 -0.0436119 
-0.00326071 -9.99343 -0.0652735 
-0.0436119 -0.0652735 -9.99456 
-9.87427 0.0353482 0.0962211 
0.0353482 -9.91414 0.0528116 
0.0962211 0.0528116 -9.89747 
-9.86649 0.0425997 0.0865112 
0.0425997 -9.90382 0.0577115 
0.0865112 0.0577115 -9.91557 
-9.90485 0.0113271 0.0818618 
0.0113271 -9.89485 0.0533974 
0.0818618 0.0533974 -9.88618 
-9.89098 0.0546047 0.110993 
0.0546047 -9.87343 0.0666332 
0.110993 0.0666332 -9.92147 
-9.944 0.0169079 -0.00320808 
0.0169079 -9.94629 0.00194978 
-0.00320808 0.00194978 -9.98036 
-9.94067 0.00947884 0.000620057 
0.00947884 -9.95259 0.013442 
0.000620057 0.013442 -9.97739 
-9.96107 0.00777852 -0.00253846 
0.00777852 -9.94109 0.0149469 
-0.00253846 0.0149469 -9.96849 
-9.9573 0.0102731 -0.0154602 
0.0102731 -9.92736 0.0189735 
-0.0154602 0.0189735 -9.98599 
-9.87212 0.0299141 -0.000263335 
0.0299141 -9.87126 0.11618 
-0.000263335 0.11618 -10.0372 
-9.89087 0.0375078 0.0212307 
0.0375078 -9.8308 0.0762828 
0.0212307 0.0762828 -10.0589 
-9.86803 -0.0344886 -0.0455664 
-0.0344886 -9.82726 0.130511 
-0.0455664 0.130511 -10.0853 
-9.92658 -0.0206915 -0.0513319 
-0.0206915 -9.88588 0.0981836 
-0.0513319 0.0981836 -9.96809 
-9.96342 0.000821506 -0.0381362 
0.000821506 -9.97507 -0.0683232 
-0.0381362 -0.0683232 -9.94345 
-9.95239 0.000464205 -0.0413911 
0.000464205 -9.9655 -0.0603151 
-0.0413911 -0.0603151 -9.96405 
-9.95018 -0.0031505 -0.0497537 
-0.0031505 -9.94764 -0.0632273 
-0.0497537 -0.0632273 -9.98412 
-9.95685 0.00728729 -0.0384163 
0.00728729 -9.96591 -0.0535698 
-0.0384163 -0.0535698 -9.95919 
-9.98382 -0.00215433 0.00218003 
-0.00215433 -9.98153 0.0731222 
0.00218003 0.0731222 -9.98119 
-9.98563 -0.00333706 0.000829004 
-0.00333706 -9.98055 0.072273 
0.000829004 0.072273 -9.98035 
-9.97035 0.00712092 0.00247899 
0.00712092 -9.98541 0.0695285 
0.00247899 0.0695285 -9.99077 
-9.98302 0.00371708 0.00165547 
0.00371708 -9.98866 0.078609 
0.00165547 0.078609 -9.97486 
-9.97129 -0.00400952 -0.0116605 
-0.00400952 -9.95118 0.00636604 
-0.0116605 0.00636604 -10.0103 
-9.9608 -0.00314755 -0.0198649 
-0.00314755 -9.95747 0.0107633 
-0.0198649 0.0107633 -10.0145 
-9.9677 -0.00333475 -0.00908151 
-0.00333475 -9.96053 0.00912733 
-0.00908151 0.00912733 -10.0046 
-9.97162 -0.00773884 -0.0102178 
-0.00773884 -9.96005 0.00965008 
-0.0102178 0.00965008 -10.0012 
-9.85566 0.0209395 -0.0357139 
0.0209395 -9.87521 0.084588 
-0.0357139 0.084588 -10.0081 
-9.89659 -0.0984994 -0.0894724 
-0.0984994 -9.90902 0.0158019 
-0.0894724 0.0158019 -9.93341 
-10.01 -0.0556618 -0.0556754 
-0.0556618 -9.85803 0.00897935 
-0.0556754 0.00897935 -9.87101 
-9.94962 0.00786975 -0.0783978 
0.00786975 -9.94857 0.0974594 
-0.0783978 0.0974594 -9.84082 
-9.90254 0.00387059 0.00534007 
0.00387059 -9.87212 0.0843811 
0.00534007 0.0843811 -9.927 
-9.92489 0.00842914 -0.00250163 
0.00842914 -9.89569 0.0771687 
-0.00250163 0.0771687 -9.88108 
-9.91026 0.000160335 0.000298803 
0.000160335 -9.8771 0.0947925 
0.000298803 0.0947925 -9.9143 
-9.90479 -0.00218892 0.0075889 
-0.00218892 -9.88145 0.0939342 
0.0075889 0.0939342 -9.91542 
-9.98115 0.118566 -0.0103407 
0.118566 -9.67795 -0.00417058 
-0.0103407 -0.00417058 -10.11 
-9.89394 0.0359799 0.0193278 
0.0359799 -9.91058 0.057898 
0.0193278 0.057898 -9.96458 
-9.85638 -0.0713061 0.0236189 
-0.0713061 -10.0776 0.0188125 
0.0236189 0.0188125 -9.8351 
-9.85049 0.063494 0.0930038 
0.063494 -9.88451 0.197102 
0.0930038 0.197102 -10.0341 
-9.98345 0.00844904 0.0758831 
0.00844904 -9.95592 -0.0293855 
0.0758831 -0.0293855 -9.94629 
-9.94588 -0.00500998 0.0726344 
-0.00500998 -9.96371 -0.0339704 
0.0726344 -0.0339704 -9.97606 
-9.95895 -0.00513583 0.0705271 
-0.00513583 -9.96192 -0.0306633 
0.0705271 -0.0306633 -9.96478 
-9.96275 -0.0042849 0.0507501 
-0.0042849 -9.9651 -0.0298402 
0.0507501 -0.0298402 -9.9578 
-9.92325 -0.0525497 0.0109042 
-0.0525497 -9.92142 -0.0584459 
0.0109042 -0.0584459 -9.94079 
-9.88893 -0.0358076 0.076499 
-0.0358076 -9.96174 -0.0847596 
0.076499 -0.0847596 -9.93479 
-9.92216 -0.0638704 0.0109548 
-0.0638704 -9.90417 -0.0526669 
0.0109548 -0.0526669 -9.95913 
-9.91253 -0.0170378 -0.00675147 
-0.0170378 -9.93293 -0.0310222 
-0.00675147 -0.0310222 -9.94 
-9.90678 0.0243817 -0.0351395 
0.0243817 -9.92039 -0.0339695 
-0.0351395 -0.0339695 -9.901 
-9.91123 0.0418865 -0.0136319 
0.0418865 -9.93263 -0.0370783 
-0.0136319 -0.0370783 -9.88431 
-9.92373 0.0183967 -0.0282044 
0.0183967 -9.9167 -0.0211743 
-0.0282044 -0.0211743 -9.88774 
-9.90549 0.0428978 -0.00525962 
0.0428978 -9.92135 -0.0228934 
-0.00525962 -0.0228934 -9.90133 
-9.95964 -0.011618 0.00588362 
-0.011618 -9.96009 -0.00613138 
0.00588362 -0.00613138 -9.99678 
-9.97625 6.88125e-05 0.00700193 
6.88125e-05 -9.95664 -0.0123852 
0.00700193 -0.0123852 -9.98361 
-9.96983 -0.0193321 0.00636838 
-0.0193321 -9.95279 -0.00626929 
0.00636838 -0.00626929 -9.99388 
-9.97216 -0.00598478 0.0187559 
-0.00598478 -9.95891 -0.0167607 
0.0187559 -0.0167607 -9.98544 
-9.93535 0.043834 0.00123137 
0.043834 -9.92304 -0.00364683 
0.00123137 -0.00364683 -9.94101 
-9.92709 0.00696363 0.00853818 
0.00696363 -9.93542 -0.0114123 
0.00853818 -0.0114123 -9.93688 
-9.94803 0.0238102 0.0375111 
0.0238102 -9.92063 0.0212727 
0.0375111 0.0212727 -9.93074 
-9.91612 0.0172991 -0.0235482 
0.0172991 -9.92413 0.00748147 
-0.0235482 0.00748147 -9.95915 
-9.78123 -0.154801 -0.209314 
-0.154801 -9.81994 0.108286 
-0.209314 0.108286 -9.73606 
-9.87602 -0.171939 -0.24783 
-0.171939 -9.65236 0.18593 
-0.24783 0.18593 -9.80886 
-9.74553 -0.361638 -0.232665 
-0.361638 -9.91166 0.222856 
-0.232665 0.222856 -9.68004 
-9.72331 -0.217972 -0.208591 
-0.217972 -9.7974 0.0729256 
-0.208591 0.0729256 -9.81652 
-9.1772 -0.574121 4.92748 
-0.574121 -11.1045 -1.17396 
4.92748 -1.17396 -6.95077 
-9.63602 1.32004 3.09383 
1.32004 -9.08953 -0.810618 
3.09383 -0.810618 -8.50694 
-12.8001 1.26688 1.14726 
1.26688 -7.87616 0.300409 
1.14726 0.300409 -6.55625 
-4.57284 -0.986825 -1.08047 
-0.986825 -11.8678 1.01038 
-1.08047 1.01038 -10.7918 
-10.1169 0.163906 -0.0198105 
0.163906 -9.81795 0.019868 
-0.0198105 0.019868 -10.5179 
-10.1192 -0.127658 0.173427 
-0.127658 -10.1174 0.235101 
0.173427 0.235101 -10.2161 
-10.1272 0.289716 -0.108186 
0.289716 -9.89047 -0.072465 
-0.108186 -0.072465 -10.4351 
-10.2219 0.399142 0.134351 
0.399142 -9.71201 0.0932579 
0.134351 0.0932579 -10.5189 
-9.98937 -0.0100038 -0.0228695 
-0.0100038 -9.99626 0.024456 
-0.0228695 0.024456 -9.99423 
-9.97612 -0.00610885 -0.00832491 
-0.00610885 -9.96367 -0.00228915 
-0.00832491 -0.00228915 -10.0401 
-9.98707 0.0134335 0.0198796 
0.0134335 -9.96846 -0.0198258 
0.0198796 -0.0198258 -10.0243 
-9.98187 -0.0184749 -0.00314589 
-0.0184749 -9.96344 0.00354863 
-0.00314589 0.00354863 -10.0345 
-9.93827 0.0200844 -0.000242584 
0.0200844 -9.96221 -0.0127635 
-0.000242584 -0.0127635 -9.99108 
-9.93666 -0.00619114 -0.0119671 
-0.00619114 -10.0156 -0.00611172 
-0.0119671 -0.00611172 -9.93933 
-9.94368 0.0426532 -0.0222767 
0.0426532 -9.92425 -0.0356685 
-0.0222767 -0.0356685 -10.0236 
-9.9312 0.0130772 0.00115505 
0.0130772 -9.93401 0.00939672 
0.00115505 0.00939672 -10.0263 
-10.0878 -0.225876 -0.0509481 
-0.225876 -9.3442 -0.0494748 
-0.0509481 -0.0494748 -10.6962 
-9.68243 0.272951 0.0305939 
0.272951 -10.723 -0.24106 
0.0305939 -0.24106 -9.72271 
-10.3732 -0.190062 0.00657144 
-0.190062 -9.23733 -0.153927 
0.00657144 -0.153927 -10.5177 
-10.598 -0.48993 0.144244 
-0.48993 -8.81075 -0.83962 
0.144244 -0.83962 -10.7194 
-9.98018 0.00021149 0.0039362 
0.00021149 -9.98155 0.00239745 
0.0039362 0.00239745 -9.99877 
-9.98251 0.00164965 0.004188 
0.00164965 -9.98287 0.00293244 
0.004188 0.00293244 -9.99511 
-9.98137 -0.000324365 0.000737443 
-0.000324365 -9.9811 -0.00089938 
0.000737443 -0.00089938 -9.99802 
-9.9834 0.00158527 0.00113949 
0.00158527 -9.98114 0.0010905 
0.00113949 0.0010905 -9.99596 
-10.1633 0.0384869 -0.047059 
0.0384869 -10.1463 -0.0831541 
-0.047059 -0.0831541 -10.6003 
-10.2347 -0.0383937 0.123812 
-0.0383937 -10.2249 -0.0824407 
0.123812 -0.0824407 -10.4503 
-10.2283 -0.03626 0.118818 
-0.03626 -10.1792 0.00145506 
0.118818 0.00145506 -10.5023 
-10.2202 -0.054927 0.0486637 
-0.054927 -10.2176 0.0117478 
0.0486637 0.0117478 -10.4721 
-9.89436 -0.0171113 0.0278768 
-0.0171113 -9.89704 -0.0800473 
0.0278768 -0.0800473 -9.91702 
-9.90341 -0.0291482 0.0284302 
-0.0291482 -9.87297 -0.0743491 
0.0284302 -0.0743491 -9.93202 
-9.88196 -0.00899649 0.0314502 
-0.00899649 -9.91446 -0.0721814 
0.0314502 -0.0721814 -9.91199 
-9.893 -0.0172796 0.0353289 
-0.0172796 -9.90313 -0.0872694 
0.0353289 -0.0872694 -9.91228 
-9.95651 0.0204521 -0.0252562 
0.0204521 -9.94571 0.0321134 
-0.0252562 0.0321134 -9.94974 
-9.9455 0.0240185 -0.0235886 
0.0240185 -9.95266 0.0295617 
-0.0235886 0.0295617 -9.9538 
-9.94353 0.00492436 -0.0175642 
0.00492436 -9.93415 0.0268813 
-0.0175642 0.0268813 -9.97427 
-9.96232 0.0101381 -0.0167537 
0.0101381 -9.93872 0.042861 
-0.0167537 0.042861 -9.95092 
-9.92415 -0.00902817 0.0703319 
-0.00902817 -9.92799 -0.0354911 
0.0703319 -0.0354911 -9.93899 
-9.9329 -0.00217174 0.0647163 
-0.00217174 -9.92835 -0.0343306 
0.0647163 -0.0343306 -9.92989 
-9.94226 0.00263169 0.0703474 
0.00263169 -9.93102 -0.0286524 
0.0703474 -0.0286524 -9.91785 
-9.92961 -0.00644831 0.055298 
-0.00644831 -9.92759 -0.0284799 
0.055298 -0.0284799 -9.93394 
-9.96153 0.00370519 -0.0109212 
0.00370519 -9.94657 0.00141129 
-0.0109212 0.00141129 -9.98745 
-9.9585 0.0035689 0.000880773 
0.0035689 -9.95426 0.00090593 
0.000880773 0.00090593 -9.98279 
-9.95244 0.00479519 0.000143962 
0.00479519 -9.95275 0.0051654 
0.000143962 0.0051654 -9.99036 
-9.94912 0.00230363 0.000713563 
0.00230363 -9.95477 0.000689084 
0.000713563 0.000689084 -9.99166 
-9.99202 0.00265336 -0.0200409 
0.00265336 -9.98609 0.0142325 
-0.0200409 0.0142325 -10.0055 
-9.99787 0.00136747 -0.0193224 
0.00136747 -9.99698 0.0101219 
-0.0193224 0.0101219 -9.9888 
-9.99725 -0.00150181 -0.0174697 
-0.00150181 -9.98898 0.0144589 
-0.0174697 0.0144589 -9.99742 
-9.99874 0.00201274 -0.0152802 
0.00201274 -9.9926 0.00947628 
-0.0152802 0.00947628 -9.99231 
-9.95068 0.015964 0.0321063 
0.015964 -9.99341 -0.00996765 
0.0321063 -0.00996765 -10.1775 
-9.91196 0.0103145 0.00300366 
0.0103145 -9.9706 -0.00883015 
0.00300366 -0.00883015 -10.239 
-9.98057 0.0124665 -0.0057339 
0.0124665 -9.94402 -0.0146824 
-0.0057339 -0.0146824 -10.197 
-9.9579 0.0274447 0.0160547 
0.0274447 -9.96518 -0.0202003 
0.0160547 -0.0202003 -10.1985 
-10.0177 0.0192729 0.0248564 
0.0192729 -10.1455 -0.0119839 
0.0248564 -0.0119839 -10.3415 
-10.0188 0.0370324 0.000278486 
0.0370324 -10.161 -0.00929086 
0.000278486 -0.00929086 -10.3249 
-10.0587 0.00965919 -0.00708884 
0.00965919 -10.1569 0.0122244 
-0.00708884 0.0122244 -10.2891 
-10.0232 0.0089766 -0.0132781 
0.0089766 -10.1371 0.0017497 
-0.0132781 0.0017497 -10.3444 
-10.1306 -0.0110287 0.14158 
-0.0110287 -10.1996 -0.00642929 
0.14158 -0.00642929 -10.6146 
-10.3384 0.0248031 0.0439134 
0.0248031 -10.374 -0.00391659 
0.0439134 -0.00391659 -10.2325 
-10.2803 -0.0467337 0.0431865 
-0.0467337 -10.2137 -0.0300406 
0.0431865 -0.0300406 -10.451 
-10.196 0.0321095 0.0478556 
0.0321095 -10.3515 -0.243485 
0.0478556 -0.243485 -10.3974 
-9.97376 -0.000111645 0.0689367 
-0.000111645 -9.97168 0.0154239 
0.0689367 0.0154239 -9.98044 
-9.9766 0.00220435 0.0730323 
0.00220435 -9.97491 0.0190273 
0.0730323 0.0190273 -9.97437 
-9.97644 0.00250048 0.0715957 
0.00250048 -9.97769 0.01756 
0.0715957 0.01756 -9.97174 
-9.98011 0.00422039 0.0748058 
0.00422039 -9.9773 0.0209773 
0.0748058 0.0209773 -9.96846 
-10.0631 0.0865681 -0.134598 
0.0865681 -9.90329 0.0417898 
-0.134598 0.0417898 -10.337 
-10.165 0.0333456 0.226191 
0.0333456 -9.8469 0.0198673 
0.226191 0.0198673 -10.2916 
-10.0324 -0.0158221 0.0504581 
-0.0158221 -10.0264 0.0936983 
0.0504581 0.0936983 -10.2447 
-10.0159 -0.0292729 0.0695656 
-0.0292729 -9.98104 -0.11347 
0.0695656 -0.11347 -10.3065 
-9.95268 -0.0642705 -0.0204129 
-0.0642705 -9.81155 0.0217063 
-0.0204129 0.0217063 -10.0247 
-9.93224 -0.0117757 -0.0260459 
-0.0117757 -9.87806 0.0534585 
-0.0260459 0.0534585 -9.9786 
-9.87485 0.0394417 -0.00810215 
0.0394417 -10.0081 0.0211311 
-0.00810215 0.0211311 -9.90598 
-9.95165 0.0398901 -0.0328458 
0.0398901 -9.8521 0.0798192 
-0.0328458 0.0798192 -9.98516 
-10.1652 -0.0146455 0.158859 
-0.0146455 -9.97552 -0.157218 
0.158859 -0.157218 -9.62366 
-10.0507 -0.0523841 0.0274872 
-0.0523841 -9.9906 -0.0335344 
0.0274872 -0.0335344 -9.7231 
-10.0846 0.105758 0.0199023 
0.105758 -10.0278 0.00861421 
0.0199023 0.00861421 -9.65203 
-10.0664 0.0311479 0.0412743 
0.0311479 -9.96245 -0.0420188 
0.0412743 -0.0420188 -9.7356 
-9.99929 0.0215934 0.00512209 
0.0215934 -9.96969 0.0835377 
0.00512209 0.0835377 -9.87905 
-9.98799 -0.00847421 -0.0133084 
-0.00847421 -9.96306 0.109009 
-0.0133084 0.109009 -9.89698 
-9.99779 0.00289183 -0.00644904 
0.00289183 -9.95901 0.0908525 
-0.00644904 0.0908525 -9.89124 
-9.98202 -0.00803612 -0.00252776 
-0.00803612 -9.96042 0.0928738 
-0.00252776 0.0928738 -9.90559 
-9.98073 0.00167014 0.0350594 
0.00167014 -9.97913 -0.0417268 
0.0350594 -0.0417268 -9.97971 
-9.98054 0.00421974 0.03336 
0.00421974 -9.98308 -0.0406675 
0.03336 -0.0406675 -9.97594 
-9.97477 0.00664346 0.0338269 
0.00664346 -9.98062 -0.0442132 
0.0338269 -0.0442132 -9.98417 
-9.98095 0.00207751 0.0350692 
0.00207751 -9.98108 -0.042868 
0.0350692 -0.042868 -9.97754 
-9.90066 -0.0283178 0.0436875 
-0.0283178 -9.88622 -0.0764808 
0.0436875 -0.0764808 -9.93695 
-9.89966 -0.0167629 0.0314359 
-0.0167629 -9.91269 -0.0657462 
0.0314359 -0.0657462 -9.91148 
-9.89386 -0.00483399 0.0394112 
-0.00483399 -9.91621 -0.0586086 
0.0394112 -0.0586086 -9.91376 
-9.8789 -0.0197691 0.041415 
-0.0197691 -9.91892 -0.0560395 
0.041415 -0.0560395 -9.92601 
-9.92454 -0.0190015 0.0803302 
-0.0190015 -9.93352 -0.0697974 
0.0803302 -0.0697974 -9.95784 
-9.92771 -0.0142771 0.0614294 
-0.0142771 -9.92704 -0.0527172 
0.0614294 -0.0527172 -9.96116 
-9.93666 -0.00414128 0.0939735 
-0.00414128 -9.94334 -0.0653498 
0.0939735 -0.0653498 -9.9359 
-9.91013 -0.0489382 0.0918528 
-0.0489382 -9.92315 -0.0883928 
0.0918528 -0.0883928 -9.98262 
-9.97273 -0.00905734 0.00743431 
-0.00905734 -9.94353 -0.00913875 
0.00743431 -0.00913875 -9.90676 
-9.9505 -0.00517785 0.00428249 
-0.00517785 -9.93362 0.00920212 
0.00428249 0.00920212 -9.93889 
-9.97016 -0.00572185 0.000638844 
-0.00572185 -9.94399 -0.0104903 
0.000638844 -0.0104903 -9.90887 
-9.99309 -0.011686 0.0179984 
-0.011686 -9.96528 0.00940996 
0.0179984 0.00940996 -9.86465 
-9.88107 -0.0835251 0.358651 
-0.0835251 -9.96016 -0.0432395 
0.358651 -0.0432395 -10.0194 
-9.83379 -0.208062 0.318052 
-0.208062 -9.94759 0.0741963 
0.318052 0.0741963 -10.0792 
-9.95585 -0.214473 0.319131 
-0.214473 -9.95062 -0.138083 
0.319131 -0.138083 -9.95414 
-9.97583 -0.00901508 -0.271043 
-0.00901508 -9.92243 -0.0137032 
-0.271043 -0.0137032 -9.96235 
-10.0812 -0.0595965 0.0448428 
-0.0595965 -10.095 -0.0375625 
0.0448428 -0.0375625 -10.1733 
-10.0514 0.00852345 0.0375347 
0.00852345 -10.1252 -0.0166745 
0.0375347 -0.0166745 -10.173 
-10.1585 -0.0156535 0.0102665 
-0.0156535 -10.0822 -0.0229677 
0.0102665 -0.0229677 -10.1089 
-10.1242 -0.0435425 0.0335193 
-0.0435425 -10.1108 -0.00573119 
0.0335193 -0.00573119 -10.1145 
-9.95417 0.0156884 -0.0287129 
0.0156884 -9.99166 -0.0757922 
-0.0287129 -0.0757922 -9.86185 
-9.931 0.0193994 -0.0224942 
0.0193994 -9.9933 -0.0688905 
-0.0224942 -0.0688905 -9.88339 
-9.95905 0.0310143 -0.0548447 
0.0310143 -10.0191 -0.0756858 
-0.0548447 -0.0756858 -9.8295 
-9.9626 0.046465 0.014603 
0.046465 -9.987 -0.0976267 
0.014603 -0.0976267 -9.85809 
-9.99392 -0.00215381 -0.0471267 
-0.00215381 -9.99501 -0.0273264 
-0.0471267 -0.0273264 -9.99012 
-9.98796 -0.000295296 -0.0477427 
-0.000295296 -9.99143 -0.0303088 
-0.0477427 -0.0303088 -9.99966 
-9.98749 0.00239828 -0.0501514 
0.00239828 -9.98921 -0.0260493 
-0.0501514 -0.0260493 -10.0024 
-9.99745 -0.00180919 -0.049484 
-0.00180919 -9.99305 -0.0295483 
-0.049484 -0.0295483 -9.98855 
-9.74054 0.0873803 -0.434066 
0.0873803 -9.81992 -0.112526 
-0.434066 -0.112526 -9.77114 
-9.84547 -0.011894 -0.546177 
-0.011894 -9.92664 -0.114901 
-0.546177 -0.114901 -9.55948 
-9.77895 -0.0285145 -0.203957 
-0.0285145 -9.94746 0.00133811 
-0.203957 0.00133811 -9.60519 
-9.51495 0.137212 -0.463198 
0.137212 -9.75363 -0.155414 
-0.463198 -0.155414 -10.063 
-9.9362 -0.094628 0.468586 
-0.094628 -9.66129 -0.307686 
0.468586 -0.307686 -9.41485 
-9.763 -0.0876973 0.406428 
-0.0876973 -9.78979 -0.277498 
0.406428 -0.277498 -9.45956 
-9.54205 0.171916 -0.0894688 
0.171916 -10.085 -0.295283 
-0.0894688 -0.295283 -9.38527 
-9.75665 -0.132674 0.43284 
-0.132674 -9.71165 -0.262473 
0.43284 -0.262473 -9.54404 
-9.92274 -0.00462924 0.0268706 
-0.00462924 -9.87558 -0.0364817 
0.0268706 -0.0364817 -9.98973 
-9.88044 0.00647473 -0.052494 
0.00647473 -9.90531 -0.0435896 
-0.052494 -0.0435896 -10.0023 
-9.93053 -0.00654369 -0.00992562 
-0.00654369 -9.89933 -0.105505 
-0.00992562 -0.105505 -9.95818 
-9.92079 0.0152249 0.0227284 
0.0152249 -9.89116 -0.0420497 
0.0227284 -0.0420497 -9.97609 
-8.11377 0.767534 -0.998414 
0.767534 -6.12394 0.0846944 
-0.998414 0.0846944 -1.04974 
-11.3904 2.61128 -0.854365 
2.61128 -6.48045 -0.790523 
-0.854365 -0.790523 2.58339 
-6.96374 -0.63664 -0.604033 
-0.63664 -4.17468 -1.47303 
-0.604033 -1.47303 -4.14903 
-7.28282 0.266641 -3.26601 
0.266641 -4.85241 0.717495 
-3.26601 0.717495 -3.15222 
-9.90099 -0.00687714 0.00253791 
-0.00687714 -9.8989 -0.0817344 
0.00253791 -0.0817344 -9.89499 
-9.92433 -0.00756126 0.00897419 
-0.00756126 -9.88628 -0.121392 
0.00897419 -0.121392 -9.88427 
-9.91831 -0.0157695 0.0342522 
-0.0157695 -9.88071 -0.0919529 
0.0342522 -0.0919529 -9.89586 
-9.9122 -0.0109551 0.0194411 
-0.0109551 -9.89224 -0.102001 
0.0194411 -0.102001 -9.89045 
-10.1194 -0.00105884 -0.0120849 
-0.00105884 -10.1201 -0.0117906 
-0.0120849 -0.0117906 -10.1882 
-10.189 -0.00832348 -0.0267542 
-0.00832348 -10.184 0.012602 
-0.0267542 0.012602 -10.0547 
-10.124 -0.00124094 -0.0113536 
-0.00124094 -10.1162 0.00649107 
-0.0113536 0.00649107 -10.1875 
-10.125 -0.00422367 -0.0543047 
-0.00422367 -10.1228 0.00494499 
-0.0543047 0.00494499 -10.1798 
-9.84465 -0.0319708 -0.0881375 
-0.0319708 -9.82702 -0.0949308 
-0.0881375 -0.0949308 -9.95689 
-9.79813 0.00729495 -0.107221 
0.00729495 -9.8845 0.0690028 
-0.107221 0.0690028 -9.94592 
-9.70588 -0.0774625 -0.0222069 
-0.0774625 -9.92232 0.0948591 
-0.0222069 0.0948591 -10.0003 
-9.76958 -0.0737472 -0.162129 
-0.0737472 -9.8893 -0.0343122 
-0.162129 -0.0343122 -9.96967 
-9.98033 -0.000472051 -0.0305793 
-0.000472051 -9.97962 -0.0509422 
-0.0305793 -0.0509422 -9.97802 
-9.97743 -0.00403797 -0.0274111 
-0.00403797 -9.98044 -0.052882 
-0.0274111 -0.052882 -9.9801 
-9.98329 -0.0103143 -0.0311411 
-0.0103143 -9.98708 -0.05041 
-0.0311411 -0.05041 -9.9676 
-9.98115 0.00264282 -0.0257662 
0.00264282 -9.98187 -0.0457104 
-0.0257662 -0.0457104 -9.97496 
-9.98031 -0.00423706 0.0193003 
-0.00423706 -9.98426 0.0523926 
0.0193003 0.0523926 -9.97811 
-9.9807 -0.00102653 0.0189146 
-0.00102653 -9.98368 0.0542464 
0.0189146 0.0542464 -9.9783 
-9.98414 0.00894715 0.0174985 
0.00894715 -9.97077 0.0537484 
0.0174985 0.0537484 -9.98777 
-9.98169 0.0013331 0.0243793 
0.0013331 -9.98526 0.0546512 
0.0243793 0.0546512 -9.97572 
-9.98892 0.000314113 0.000206189 
0.000314113 -9.98889 0.0118218 
0.000206189 0.0118218 -10.0003 
-9.99324 0.000150444 -0.00304818 
0.000150444 -9.98694 0.0127314 
-0.00304818 0.0127314 -9.99793 
-9.99217 0.000336366 -0.0013856 
0.000336366 -9.99258 0.0116388 
-0.0013856 0.0116388 -9.99336 
-9.99278 -0.000573936 -0.00127205 
-0.000573936 -9.99427 0.011533 
-0.00127205 0.011533 -9.99107 
-10.2185 0.203472 0.0851416 
0.203472 -10.0624 -0.00245879 
0.0851416 -0.00245879 -10.5442 
-10.2132 0.0822558 0.0504178 
0.0822558 -10.141 -0.0960865 
0.0504178 -0.0960865 -10.471 
-10.1618 0.00227251 0.0295121 
0.00227251 -10.2015 -0.0742136 
0.0295121 -0.0742136 -10.4618 
-10.2379 0.0624607 0.0666435 
0.0624607 -10.1721 -0.0928648 
0.0666435 -0.0928648 -10.4151 
-9.98981 -0.00116501 -0.0591394 
-0.00116501 -9.99352 -0.0309278 
-0.0591394 -0.0309278 -9.99797 
-9.99541 -0.00116171 -0.0590345 
-0.00116171 -9.99379 -0.0295089 
-0.0590345 -0.0295089 -9.99211 
-9.99006 -0.00219278 -0.0570673 
-0.00219278 -9.98983 -0.0271788 
-0.0570673 -0.0271788 -10.0014 
-9.9969 0.000121327 -0.0585929 
0.000121327 -9.99457 -0.0304216 
-0.0585929 -0.0304216 -9.98984 
-10.0368 -0.00654963 0.00906077 
-0.00654963 -10.0254 -0.015094 
0.00906077 -0.015094 -10.1258 
-10.0793 -0.0113774 0.030141 
-0.0113774 -10.0582 0.00349534 
0.030141 0.00349534 -10.0505 
-10.0549 0.023023 0.0193041 
0.023023 -10.084 -0.0131429 
0.0193041 -0.0131429 -10.049 
-10.0762 -0.00695418 0.00952779 
-0.00695418 -10.0439 0.0199889 
0.00952779 0.0199889 -10.0678 
-9.91485 -0.0104392 0.0790561 
-0.0104392 -9.91629 -0.0537799 
0.0790561 -0.0537799 -9.94046 
-9.89491 -0.020172 0.110018 
-0.020172 -9.93422 -0.048477 
0.110018 -0.048477 -9.94247 
-9.92796 -0.0339429 0.106763 
-0.0339429 -9.93656 -0.0536445 
0.106763 -0.0536445 -9.90707 
-9.89107 -0.0296734 0.112687 
-0.0296734 -9.91648 -0.0604542 
0.112687 -0.0604542 -9.96405 
-9.9159 -0.0112479 -0.0380321 
-0.0112479 -9.915 0.040524 
-0.0380321 0.040524 -9.94015 
-9.92271 0.0114715 -0.0512429 
0.0114715 -9.92144 0.0490933 
-0.0512429 0.0490933 -9.92689 
-9.91884 0.00788114 -0.0494018 
0.00788114 -9.92957 0.046802 
-0.0494018 0.046802 -9.92264 
-9.90664 -0.00018932 -0.0452591 
-0.00018932 -9.92284 0.0529017 
-0.0452591 0.0529017 -9.94157 
-9.98291 8.72247e-05 -0.00616571 
8.72247e-05 -9.97525 -0.000510825 
-0.00616571 -0.000510825 -9.99746 
-9.98635 -0.00247572 -0.0125132 
-0.00247572 -9.98116 0.00481478 
-0.0125132 0.00481478 -9.98811 
-9.98498 -0.00126497 0.00249264 
-0.00126497 -9.97813 -0.0156875 
0.00249264 -0.0156875 -9.99251 
-9.984 -0.00210173 -0.00566557 
-0.00210173 -9.96843 0.0013296 
-0.00566557 0.0013296 -10.0032 
-9.94057 0.0637149 -0.000820803 
0.0637149 -9.93894 -0.041084 
-0.000820803 -0.041084 -9.97929 
-9.91885 0.102837 0.0325802 
0.102837 -9.97246 -0.0786315 
0.0325802 -0.0786315 -9.96749 
-9.93634 0.0426731 -0.0198034 
0.0426731 -9.96851 -0.100085 
-0.0198034 -0.100085 -9.95396 
-9.92595 0.0822691 -0.0408898 
0.0822691 -9.95147 -0.0487707 
-0.0408898 -0.0487707 -9.98138 
-9.38123 -0.0513851 0.350338 
-0.0513851 -10.3288 0.176791 
0.350338 0.176791 -10.4565 
-9.15919 1.04909 0.975627 
1.04909 -10.3661 -1.39966 
0.975627 -1.39966 -10.6412 
-10.1058 0.564493 0.655279 
0.564493 -9.84596 0.768127 
0.655279 0.768127 -10.2148 
-9.9077 0.517047 0.634466 
0.517047 -10.2398 -1.06753 
0.634466 -1.06753 -10.0191 
-10.4577 0.0222262 0.0019783 
0.0222262 -10.2901 -0.0625712 
0.0019783 -0.0625712 -10.688 
-10.4013 -0.0801761 0.023667 
-0.0801761 -10.2545 0.0630203 
0.023667 0.0630203 -10.7799 
-10.744 0.0022993 0.143015 
0.0022993 -10.4801 0.134471 
0.143015 0.134471 -10.2116 
-10.5621 0.076428 0.209634 
0.076428 -10.3608 -0.00956998 
0.209634 -0.00956998 -10.5128 
-9.97343 0.00176478 -0.000363554 
0.00176478 -9.97291 0.0066664 
-0.000363554 0.0066664 -10.0003 
-9.97325 -0.00113753 -0.00131693 
-0.00113753 -9.96993 0.00484194 
-0.00131693 0.00484194 -10.0035 
-9.97359 -0.000851924 -0.00211393 
-0.000851924 -9.97321 0.0016801 
-0.00211393 0.0016801 -9.99986 
-9.97221 -0.00245402 0.00102258 
-0.00245402 -9.97901 -0.00713801 
0.00102258 -0.00713801 -9.99543 
-9.95219 -0.00886939 -0.0420809 
-0.00886939 -9.9382 0.0397329 
-0.0420809 0.0397329 -9.93772 
-9.94978 0.00382108 -0.0468133 
0.00382108 -9.94127 0.0307363 
-0.0468133 0.0307363 -9.93706 
-9.93902 -0.00583221 -0.0544655 
-0.00583221 -9.94421 0.0424622 
-0.0544655 0.0424622 -9.94487 
-9.95761 0.00248033 -0.0461661 
0.00248033 -9.94081 0.0368837 
-0.0461661 0.0368837 -9.92968 
-9.9913 -0.000141766 -0.00601774 
-0.000141766 -9.99319 -0.00605228 
-0.00601774 -0.00605228 -9.99555 
-9.99253 -0.00152476 -0.00702826 
-0.00152476 -9.99261 -0.00702445 
-0.00702826 -0.00702445 -9.9949 
-9.98766 -0.00161555 -0.00439218 
-0.00161555 -9.99041 -0.0103242 
-0.00439218 -0.0103242 -10.002 
-9.99373 -0.002874 -0.00771496 
-0.002874 -9.99286 -0.00496773 
-0.00771496 -0.00496773 -9.99345 
-10.3211 -0.101884 -0.0214598 
-0.101884 -10.4161 -0.128377 
-0.0214598 -0.128377 -10.2306 
-10.2519 -0.0425015 -0.034062 
-0.0425015 -10.5406 -0.0842012 
-0.034062 -0.0842012 -10.1752 
-10.2157 0.102814 -0.00625682 
0.102814 -10.1212 0.0473787 
-0.00625682 0.0473787 -10.6309 
-10.2481 -0.111006 0.241082 
-0.111006 -10.5246 -0.000968445 
0.241082 -0.000968445 -10.195 
-9.98903 -0.00192443 -0.0207583 
-0.00192443 -9.9856 0.0216321 
-0.0207583 0.0216321 -9.9992 
-9.98246 -0.00115332 -0.0234384 
-0.00115332 -9.98811 0.0174964 
-0.0234384 0.0174964 -10.0033 
-9.99346 0.00163326 -0.0261203 
0.00163326 -9.99261 0.023467 
-0.0261203 0.023467 -9.98777 
-9.99337 0.00458307 -0.0229884 
0.00458307 -9.99482 0.022487 
-0.0229884 0.022487 -9.98565 
-9.98294 -0.000153165 -0.0440373 
-0.000153165 -9.98169 -0.0212363 
-0.0440373 -0.0212363 -9.97924 
-9.97707 -0.00484995 -0.0437442 
-0.00484995 -9.98332 -0.0256102 
-0.0437442 -0.0256102 -9.98348 
-9.98486 -0.00115249 -0.0456162 
-0.00115249 -9.98143 -0.0215759 
-0.0456162 -0.0215759 -9.97758 
-9.98177 -0.00518596 -0.0442214 
-0.00518596 -9.98591 -0.0263893 
-0.0442214 -0.0263893 -9.9762 
-9.97016 -0.0159293 -0.00578165 
-0.0159293 -9.9482 -0.0260393 
-0.00578165 -0.0260393 -9.95525 
-9.95309 -0.0247654 -0.0049535 
-0.0247654 -9.96186 0.000752616 
-0.0049535 0.000752616 -9.95866 
-9.95367 -0.0107953 -0.0194713 
-0.0107953 -9.96215 -0.0143341 
-0.0194713 -0.0143341 -9.95779 
-9.95924 -0.0133544 -0.00909916 
-0.0133544 -9.95135 -0.019645 
-0.00909916 -0.019645 -9.96302 
-9.93211 -0.00246518 -0.0194455 
-0.00246518 -9.91003 0.0823746 
-0.0194455 0.0823746 -9.91865 
-9.92677 -0.0109955 -0.0123472 
-0.0109955 -9.91638 0.081592 
-0.0123472 0.081592 -9.91764 
-9.91756 -0.00618366 -0.00420924 
-0.00618366 -9.9228 0.078986 
-0.00420924 0.078986 -9.92043 
-9.92333 -0.00796185 -0.0056494 
-0.00796185 -9.91262 0.0783706 
-0.0056494 0.0783706 -9.92483 
-9.99534 0.00992338 -0.146252 
0.00992338 -9.7687 -0.104737 
-0.146252 -0.104737 -10.016 
-9.85446 0.00874281 -0.14622 
0.00874281 -9.84794 0.177963 
-0.14622 0.177963 -10.0777 
-9.93404 0.0764144 0.24174 
0.0764144 -9.93495 -0.0147968 
0.24174 -0.0147968 -9.91108 
-10.0629 -0.030924 0.194103 
-0.030924 -9.67761 0.210808 
0.194103 0.210808 -10.0396 
-9.99364 -0.0289739 -0.0121373 
-0.0289739 -10.0088 -0.00619546 
-0.0121373 -0.00619546 -10.0107 
-10.0002 0.00979385 -0.0100667 
0.00979385 -10.01 0.00440675 
-0.0100667 0.00440675 -10.0029 
-9.99801 0.0165926 0.0248879 
0.0165926 -10.002 0.0173015 
0.0248879 0.0173015 -10.0131 
-9.99774 0.00338784 -0.00272425 
0.00338784 -9.98987 0.00327541 
-0.00272425 0.00327541 -10.0255 
-10.0548 0.0682549 0.03856 
0.0682549 -9.96221 -0.0228988 
0.03856 -0.0228988 -10.0696 
-9.96342 -0.0431586 -0.0625641 
-0.0431586 -10.0331 -0.00205658 
-0.0625641 -0.00205658 -10.0902 
-10.0148 -0.00552557 -0.00451418 
-0.00552557 -10.0609 -0.0184883 
-0.00451418 -0.0184883 -10.011 
-10.0389 0.0766323 -0.0767764 
0.0766323 -10.0338 -0.0267596 
-0.0767764 -0.0267596 -10.014 
-9.89165 -0.0161883 -0.0650534 
-0.0161883 -9.89962 0.037336 
-0.0650534 0.037336 -9.91443 
-9.89496 -0.0243781 -0.0577314 
-0.0243781 -9.89099 0.0413111 
-0.0577314 0.0413111 -9.91976 
-9.89346 -0.0247845 -0.0708935 
-0.0247845 -9.89924 0.0454393 
-0.0708935 0.0454393 -9.91302 
-9.8929 -0.00854689 -0.0727339 
-0.00854689 -9.90064 0.0326706 
-0.0727339 0.0326706 -9.91217 
-9.8103 -0.0438285 -0.103208 
-0.0438285 -9.9269 0.0706205 
-0.103208 0.0706205 -9.9413 
-9.82079 -0.299405 -0.0604258 
-0.299405 -9.82103 -0.0335906 
-0.0604258 -0.0335906 -10.0367 
-9.61235 -0.210773 -0.0224928 
-0.210773 -9.82102 0.00910715 
-0.0224928 0.00910715 -10.2451 
-9.5319 -0.293187 0.0183319 
-0.293187 -9.89841 0.109843 
0.0183319 0.109843 -10.2482 
-9.9303 0.0399585 0.00140041 
0.0399585 -9.89773 -0.101055 
0.00140041 -0.101055 -9.79309 
-9.88956 0.0492579 -0.0107913 
0.0492579 -9.87892 -0.0725065 
-0.0107913 -0.0725065 -9.85264 
-9.92194 0.0305482 0.0599632 
0.0305482 -9.8615 -0.0732777 
0.0599632 -0.0732777 -9.83768 
-9.87623 0.0550939 -0.0164265 
0.0550939 -9.87467 -0.0951406 
-0.0164265 -0.0951406 -9.87022 
-8.59661 1.82034 -0.27126 
1.82034 -6.6986 -0.211961 
-0.27126 -0.211961 -14.2756 
-10.8297 1.61158 1.28262 
1.61158 -10.8467 0.856404 
1.28262 0.856404 -7.8944 
-10.1394 2.45019 -0.905359 
2.45019 -4.74378 0.0431352 
-0.905359 0.0431352 -14.6877 
-10.146 -0.279596 -0.279829 
-0.279596 -8.5606 -1.84714 
-0.279829 -1.84714 -10.8642 
-9.93558 -0.00318198 0.0288241 
-0.00318198 -9.94408 -0.0890473 
0.0288241 -0.0890473 -9.93325 
-9.9373 -0.00613477 0.0337865 
-0.00613477 -9.94185 -0.0871779 
0.0337865 -0.0871779 -9.93376 
-9.92671 0.00639944 0.0183743 
0.00639944 -9.92462 -0.0685057 
0.0183743 -0.0685057 -9.96159 
-9.95569 0.00260176 0.037533 
0.00260176 -9.95412 -0.0781115 
0.037533 -0.0781115 -9.9031 
-9.9955 -0.000916867 0.0589029 
-0.000916867 -9.98855 -0.0287136 
0.0589029 -0.0287136 -9.99481 
-9.98622 0.000115738 0.0596869 
0.000115738 -9.9858 -0.0268278 
0.0596869 -0.0268278 -10.0068 
-9.99539 0.00068539 0.0605641 
0.00068539 -9.99348 -0.0295965 
0.0605641 -0.0295965 -9.99 
-9.99536 0.00137942 0.057249 
0.00137942 -9.9957 -0.0278595 
0.057249 -0.0278595 -9.9878 
-9.97993 0.000586227 -0.00674918 
0.000586227 -9.98341 -0.0277206 
-0.00674918 -0.0277206 -9.97539 
-9.98218 -0.0025335 -0.0124547 
-0.0025335 -9.97593 -0.0283947 
-0.0124547 -0.0283947 -9.98061 
-9.98009 -0.00189475 -0.00876603 
-0.00189475 -9.98276 -0.0262108 
-0.00876603 -0.0262108 -9.97588 
-9.98703 -0.004024 -0.00355368 
-0.004024 -9.9813 -0.0290441 
-0.00355368 -0.0290441 -9.9704 
-9.95387 0.00136706 -0.100552 
0.00136706 -11.4355 -0.0634315 
-0.100552 -0.0634315 -11.7102 
-10.8121 -0.0193293 -0.186734 
-0.0193293 -10.0546 -0.106357 
-0.186734 -0.106357 -12.2329 
-8.22239 -0.888412 0.336246 
-0.888412 -10.6104 -0.378062 
0.336246 -0.378062 -14.2668 
-9.88776 -0.41811 0.252169 
-0.41811 -11.2702 0.368458 
0.252169 0.368458 -11.9416 
-11.55 0.0288622 0.640968 
0.0288622 -10.9701 0.0919763 
0.640968 0.0919763 -10.6103 
-10.931 -0.0226805 -0.249572 
-0.0226805 -10.4001 0.437694 
-0.249572 0.437694 -11.7992 
-10.6123 0.0554604 -0.212001 
0.0554604 -10.7911 0.13818 
-0.212001 0.13818 -11.7269 
-11.9679 -0.161365 -0.00946098 
-0.161365 -10.5081 -0.0567639 
-0.00946098 -0.0567639 -10.6543 
-10.177 -0.11386 -0.0521947 
-0.11386 -10.0309 -0.00408459 
-0.0521947 -0.00408459 -10.3233 
-10.1575 -0.0956373 -0.0900322 
-0.0956373 -10.1617 0.000368074 
-0.0900322 0.000368074 -10.212 
-10.0108 -0.166744 -0.0329193 
-0.166744 -9.94705 0.0945949 
-0.0329193 0.0945949 -10.5733 
-10.1217 -0.0844939 0.0169439 
-0.0844939 -10.0913 -0.0253148 
0.0169439 -0.0253148 -10.3182 
-9.97954 -0.00262701 -0.0702999 
-0.00262701 -9.98894 0.014786 
-0.0702999 0.014786 -9.98379 
-9.98037 0.000540393 -0.0642491 
0.000540393 -9.97608 0.0115435 
-0.0642491 0.0115435 -9.99582 
-9.98229 -0.00248554 -0.074373 
-0.00248554 -9.98764 0.0137294 
-0.074373 0.0137294 -9.98233 
-9.99435 -0.00205404 -0.0734398 
-0.00205404 -9.98342 0.0194276 
-0.0734398 0.0194276 -9.97449 
-9.89906 0.00348233 -0.0131217 
0.00348233 -9.94608 0.0154333 
-0.0131217 0.0154333 -9.93462 
-9.93733 0.01669 4.78801e-05 
0.01669 -9.90219 0.0276876 
4.78801e-05 0.0276876 -9.94023 
-9.95331 0.00912965 0.0167707 
0.00912965 -9.84336 0.070403 
0.0167707 0.070403 -9.98309 
-9.91323 0.0346071 0.0299368 
0.0346071 -9.87756 0.0198525 
0.0299368 0.0198525 -9.98898 
-9.99077 -0.000189956 -0.0341361 
-0.000189956 -9.99043 -0.0560291 
-0.0341361 -0.0560291 -9.99708 
-9.98973 -0.000926892 -0.0315447 
-0.000926892 -9.99003 -0.0581492 
-0.0315447 -0.0581492 -9.99852 
-9.99041 -0.000546155 -0.0318348 
-0.000546155 -9.99205 -0.0560998 
-0.0318348 -0.0560998 -9.99582 
-9.99368 -0.000530423 -0.0338504 
-0.000530423 -9.99243 -0.0556494 
-0.0338504 -0.0556494 -9.99218 
-9.89185 0.013443 0.0740156 
0.013443 -9.92899 0.00255755 
0.0740156 0.00255755 -10.1218 
-9.93455 0.0192414 0.0475695 
0.0192414 -9.91186 0.0147485 
0.0475695 0.0147485 -10.0962 
-9.88246 0.00121827 0.077852 
0.00121827 -9.91712 -0.02649 
0.077852 -0.02649 -10.1431 
-9.92881 0.0124156 0.083208 
0.0124156 -9.93907 -0.00814259 
0.083208 -0.00814259 -10.0748 
-9.97463 -0.011484 -0.0247358 
-0.011484 -9.9811 0.00011144 
-0.0247358 0.00011144 -9.97917 
-9.98164 -0.0075326 -0.0274608 
-0.0075326 -9.98147 -0.0202232 
-0.0274608 -0.0202232 -9.97179 
-9.97488 -0.00766567 -0.027929 
-0.00766567 -9.98265 -0.016141 
-0.027929 -0.016141 -9.97737 
-9.98122 -0.00796666 -0.0258057 
-0.00796666 -9.98064 0.000806223 
-0.0258057 0.000806223 -9.97304 
-10.3051 0.097306 -0.0127457 
0.097306 -10.2036 -0.042955 
-0.0127457 -0.042955 -11.2285 
-10.3838 -0.142194 0.0722056 
-0.142194 -10.5363 0.0611954 
0.0722056 0.0611954 -10.8171 
-10.6161 0.21371 0.0195283 
0.21371 -10.9734 -0.033696 
0.0195283 -0.033696 -10.1476 
-10.6096 0.129457 0.672888 
0.129457 -10.4826 -0.11011 
0.672888 -0.11011 -10.645 
-9.9511 -0.0015297 0.0578336 
-0.0015297 -9.94597 -0.0243096 
0.0578336 -0.0243096 -9.93375 
-9.94588 -0.00506781 0.0579362 
-0.00506781 -9.95182 -0.0205948 
0.0579362 -0.0205948 -9.93312 
-9.9533 -6.10389e-05 0.0522362 
-6.10389e-05 -9.94957 -0.0277595 
0.0522362 -0.0277595 -9.92795 
-9.94633 0.00850891 0.063192 
0.00850891 -9.93627 -0.0181555 
0.063192 -0.0181555 -9.94823 
-9.91638 -0.0213288 0.0383515 
-0.0213288 -9.89136 0.0208254 
0.0383515 0.0208254 -10.0616 
-9.91164 -0.00678236 0.0124359 
-0.00678236 -9.88334 0.0223474 
0.0124359 0.0223474 -10.0743 
-9.92018 -0.00865126 0.0373893 
-0.00865126 -9.88629 0.0294956 
0.0373893 0.0294956 -10.0629 
-9.83888 -0.0230439 0.0477867 
-0.0230439 -9.9251 0.0213343 
0.0477867 0.0213343 -10.1053 
-9.94615 -0.23329 0.198755 
-0.23329 -10.1717 0.0301752 
0.198755 0.0301752 -10.4875 
-9.85956 -0.186799 0.164237 
-0.186799 -10.2128 0.0383062 
0.164237 0.0383062 -10.533 
-10.1715 -0.189335 0.267107 
-0.189335 -9.89306 -0.0193832 
0.267107 -0.0193832 -10.5408 
-9.94655 -0.213828 0.235399 
-0.213828 -10.2153 -0.175773 
0.235399 -0.175773 -10.4435 
-10.0375 0.0150654 0.0741864 
0.0150654 -9.82726 0.212462 
0.0741864 0.212462 -9.72615 
-10.2463 0.0874392 0.00194017 
0.0874392 -9.7655 0.2429 
0.00194017 0.2429 -9.57914 
-9.99965 0.0479683 -0.0498901 
0.0479683 -9.81089 0.161765 
-0.0498901 0.161765 -9.78038 
-9.99262 0.168423 0.305785 
0.168423 -9.88594 0.308482 
0.305785 0.308482 -9.71235 
-9.87169 0.0715014 -0.0160971 
0.0715014 -9.96376 -0.00595737 
-0.0160971 -0.00595737 -10.0656 
-9.91989 0.11562 -0.00659382 
0.11562 -9.95019 -0.058057 
-0.00659382 -0.058057 -10.031 
-9.88821 0.175865 -0.0167324 
0.175865 -9.96225 -0.0211032 
-0.0167324 -0.0211032 -10.0506 
-9.89417 0.0683952 0.00237027 
0.0683952 -10.0055 0.00395431 
0.00237027 0.00395431 -10.0014 
-9.94428 -0.000305201 -0.0449319 
-0.000305201 -9.94771 0.0581138 
-0.0449319 0.0581138 -9.9411 
-9.94037 -0.00103948 -0.0441632 
-0.00103948 -9.94306 0.0599192 
-0.0441632 0.0599192 -9.94965 
-9.93831 0.00242833 -0.0445872 
0.00242833 -9.95068 0.0564537 
-0.0445872 0.0564537 -9.94409 
-9.94113 0.000219786 -0.0416004 
0.000219786 -9.94321 0.0585762 
-0.0416004 0.0585762 -9.94874 
-9.95156 0.0154548 0.00118268 
0.0154548 -9.9451 0.00181956 
0.00118268 0.00181956 -9.97475 
-9.94527 0.0115429 -0.00451033 
0.0115429 -9.95103 -0.00223545 
-0.00451033 -0.00223545 -9.97512 
-9.94892 0.00864129 -0.00402716 
0.00864129 -9.94498 0.00504507 
-0.00402716 0.00504507 -9.97751 
-9.94835 0.0135463 -0.00968933 
0.0135463 -9.95061 -0.000331675 
-0.00968933 -0.000331675 -9.97245 
-11.7734 -0.0619246 0.0617876 
-0.0619246 -10.8275 -0.538129 
0.0617876 -0.538129 -11.6194 
-10.816 0.0418682 -0.301695 
0.0418682 -9.6185 -0.470068 
-0.301695 -0.470068 -13.7858 
-10.833 0.0817104 -0.375288 
0.0817104 -9.9278 0.119078 
-0.375288 0.119078 -13.4595 
-11.2215 -0.484564 0.918408 
-0.484564 -10.1505 -0.354943 
0.918408 -0.354943 -12.8482 
-9.95435 -0.00195624 -0.0699766 
-0.00195624 -9.94101 -0.0367812 
-0.0699766 -0.0367812 -9.94633 
-9.94839 0.00477093 -0.0670694 
0.00477093 -9.94672 -0.036243 
-0.0670694 -0.036243 -9.94658 
-9.94169 0.00782898 -0.0688218 
0.00782898 -9.94368 -0.0374244 
-0.0688218 -0.0374244 -9.95631 
-9.94679 -0.00327927 -0.0663317 
-0.00327927 -9.9453 -0.0358364 
-0.0663317 -0.0358364 -9.94959 
-9.94338 0.0164125 -0.00593541 
0.0164125 -9.93602 0.0022373 
-0.00593541 0.0022373 -10.0147 
-9.9468 0.0180237 0.0136527 
0.0180237 -9.9508 0.0105506 
0.0136527 0.0105506 -9.99647 
-9.8973 -0.0347397 -0.00499425 
-0.0347397 -10.0502 0.0111633 
-0.00499425 0.0111633 -9.94655 
-9.92129 0.0502931 -0.0103765 
0.0502931 -9.9629 0.00413091 
-0.0103765 0.00413091 -10.0099 
-9.9585 0.00574706 -0.0170838 
0.00574706 -9.94761 0.00457155 
-0.0170838 0.00457155 -9.96475 
-9.95846 0.00615229 0.00639644 
0.00615229 -9.93454 0.00505459 
0.00639644 0.00505459 -9.97786 
-9.94659 0.0167202 0.0101872 
0.0167202 -9.95803 -0.00227416 
0.0101872 -0.00227416 -9.96624 
-9.93709 0.033672 -0.012783 
0.033672 -9.95462 0.0126457 
-0.012783 0.0126457 -9.97916 
-9.91007 -0.0129616 -0.0622332 
-0.0129616 -9.89536 0.0554303 
-0.0622332 0.0554303 -9.916 
-9.90558 -0.00681994 -0.060492 
-0.00681994 -9.90292 0.0559283 
-0.060492 0.0559283 -9.91294 
-9.90884 -0.0106769 -0.0632998 
-0.0106769 -9.89673 0.0528513 
-0.0632998 0.0528513 -9.91587 
-9.89696 -0.00358045 -0.0699406 
-0.00358045 -9.8962 0.0534466 
-0.0699406 0.0534466 -9.92827 
-10.2723 0.011397 0.044207 
0.011397 -9.44934 -0.105955 
0.044207 -0.105955 -10.4861 
-10.0119 0.0161394 -0.0237356 
0.0161394 -9.95516 0.0401073 
-0.0237356 0.0401073 -10.2407 
-9.91418 -0.0306679 0.0485269 
-0.0306679 -10.1264 -0.142214 
0.0485269 -0.142214 -10.1672 
-10.1137 0.0818044 0.0163378 
0.0818044 -9.88183 0.026554 
0.0163378 0.026554 -10.2122 
-9.97034 0.0384263 0.278902 
0.0384263 -9.74392 -0.0632977 
0.278902 -0.0632977 -9.47844 
-10.2082 -0.184422 0.32888 
-0.184422 -9.67566 -0.0531865 
0.32888 -0.0531865 -9.30885 
-9.81582 0.11386 0.450003 
0.11386 -9.74697 -0.0611426 
0.450003 -0.0611426 -9.62991 
-9.90797 0.13109 0.090676 
0.13109 -9.83013 -0.156659 
0.090676 -0.156659 -9.45459 
-10.0196 0.0233981 0.0254824 
0.0233981 -9.99302 0.0266945 
0.0254824 0.0266945 -10.0079 
-9.9761 0.0106177 -0.0117833 
0.0106177 -9.97872 0.00852203 
-0.0117833 0.00852203 -10.0657 
-9.98916 -0.0194919 -0.0344638 
-0.0194919 -9.99512 -0.0392858 
-0.0344638 -0.0392858 -10.0362 
-9.98209 0.0415033 -0.00413239 
0.0415033 -9.99233 0.00203946 
-0.00413239 0.00203946 -10.0461 
-9.88652 0.0533399 0.0205521 
0.0533399 -9.88694 0.0662066 
0.0205521 0.0662066 -9.92876 
-9.93058 0.0687042 0.0128989 
0.0687042 -9.85174 0.0650472 
0.0128989 0.0650472 -9.9199 
-9.9056 0.0819482 0.0145589 
0.0819482 -9.90105 0.0592885 
0.0145589 0.0592885 -9.89557 
-9.89172 0.0446569 0.0246121 
0.0446569 -9.89491 0.095415 
0.0246121 0.095415 -9.91559 
-9.89867 -0.0926666 0.126708 
-0.0926666 -9.8744 0.0453304 
0.126708 0.0453304 -10.1602 
-9.92109 0.0562718 0.0465174 
0.0562718 -9.9571 -0.0618066 
0.0465174 -0.0618066 -10.0551 
-9.9623 0.00984299 0.0429682 
0.00984299 -9.8679 0.0385945 
0.0429682 0.0385945 -10.1031 
-9.96386 -0.084801 0.111404 
-0.084801 -9.9979 -0.056603 
0.111404 -0.056603 -9.97153 
-9.8611 0.0269389 -0.124159 
0.0269389 -9.8799 -0.0859507 
-0.124159 -0.0859507 -9.81551 
-9.90452 -0.00539585 -0.106853 
-0.00539585 -9.88892 -0.0540234 
-0.106853 -0.0540234 -9.76308 
-9.92022 -0.012136 -0.141738 
-0.012136 -9.88153 -0.104023 
-0.141738 -0.104023 -9.75476 
-9.91277 -0.03126 -0.0411727 
-0.03126 -9.90868 -0.00393973 
-0.0411727 -0.00393973 -9.73507 
-10.6502 0.0908682 0.161168 
0.0908682 -10.5726 0.0627022 
0.161168 0.0627022 -10.832 
-10.449 0.0715744 0.41933 
0.0715744 -10.3449 0.251809 
0.41933 0.251809 -11.2609 
-11.0534 -0.20237 -0.0380962 
-0.20237 -10.9417 -0.0436819 
-0.0380962 -0.0436819 -10.0597 
-10.5319 0.257383 0.125647 
0.257383 -10.4097 -0.171144 
0.125647 -0.171144 -11.1133 
-9.93789 -0.00806776 0.00206878 
-0.00806776 -9.90146 -0.0164987 
0.00206878 -0.0164987 -9.88792 
-9.94383 -0.0332133 0.0237451 
-0.0332133 -9.90709 -0.0344097 
0.0237451 -0.0344097 -9.87635 
-9.93946 -0.0325401 0.00667564 
-0.0325401 -9.92187 -0.0251574 
0.00667564 -0.0251574 -9.86595 
-9.94085 -0.0165468 0.0108235 
-0.0165468 -9.9008 -0.00916846 
0.0108235 -0.00916846 -9.88562 
-9.779 -0.0538119 0.0697718 
-0.0538119 -9.81789 -0.0260675 
0.0697718 -0.0260675 -10.0825 
-9.70226 -0.0612521 0.218793 
-0.0612521 -9.94394 0.0414302 
0.218793 0.0414302 -10.0332 
-9.83633 -0.0177605 0.106076 
-0.0177605 -9.83913 0.0459815 
0.106076 0.0459815 -10.0039 
-9.78502 -0.0556387 0.166411 
-0.0556387 -9.82327 0.0296635 
0.166411 0.0296635 -10.0711 
-9.951 0.0131834 -0.000647042 
0.0131834 -9.94969 0.0067586 
-0.000647042 0.0067586 -9.98055 
-9.94865 0.0104968 -0.00562681 
0.0104968 -9.95096 0.0104956 
-0.00562681 0.0104956 -9.98165 
-9.95205 0.0120081 -0.00691319 
0.0120081 -9.94719 0.00678589 
-0.00691319 0.00678589 -9.982 
-9.94652 0.00864457 -0.00572706 
0.00864457 -9.95416 0.0120363 
-0.00572706 0.0120363 -9.98057 
-10.9135 0.2155 0.029809 
0.2155 -10.7949 0.0686738 
0.029809 0.0686738 -10.3826 
-10.4933 0.0261098 -0.128453 
0.0261098 -10.4677 -0.221272 
-0.128453 -0.221272 -11.13 
-10.6534 0.0846925 0.0983144 
0.0846925 -10.7634 0.00770584 
0.0983144 0.00770584 -10.6742 
-10.6557 0.19154 -0.0140183 
0.19154 -10.5127 0.0742083 
-0.0140183 0.0742083 -10.9226 
-9.77488 -0.102813 -0.545353 
-0.102813 -9.67456 0.147756 
-0.545353 0.147756 -9.8277 
-9.65083 -0.151781 -0.435399 
-0.151781 -9.827 0.140642 
-0.435399 0.140642 -9.79932 
-9.64748 0.0197803 -0.0803744 
0.0197803 -10.0335 0.30767 
-0.0803744 0.30767 -9.59613 
-9.69121 -0.147197 -0.407316 
-0.147197 -9.75834 0.125493 
-0.407316 0.125493 -9.82759 
-9.96014 0.0124127 0.00988578 
0.0124127 -9.96774 -0.00229319 
0.00988578 -0.00229319 -9.97504 
-9.95703 0.00652788 0.013567 
0.00652788 -9.95861 -0.00108308 
0.013567 -0.00108308 -9.98727 
-9.9686 0.0141956 -0.00391263 
0.0141956 -9.96204 -0.000625772 
-0.00391263 -0.000625772 -9.97228 
-9.97399 0.00524889 0.00460522 
0.00524889 -9.96631 -0.0127169 
0.00460522 -0.0127169 -9.96262 
-9.86537 -0.321493 0.422222 
-0.321493 -9.84749 -0.000956784 
0.422222 -0.000956784 -11.3577 
-10.3906 0.319788 -0.16279 
0.319788 -10.5619 -0.0548555 
-0.16279 -0.0548555 -10.1181 
-10.6673 0.0684787 -0.110829 
0.0684787 -10.3504 -0.0840814 
-0.110829 -0.0840814 -10.0529 
-10.8261 0.260811 0.0382694 
0.260811 -10.0207 -0.543373 
0.0382694 -0.543373 -10.2238 
-9.94767 -0.0181417 -0.0523597 
-0.0181417 -9.94055 -0.0366043 
-0.0523597 -0.0366043 -9.94737 
-9.93237 -0.00106122 -0.0296659 
-0.00106122 -9.95245 -0.0260224 
-0.0296659 -0.0260224 -9.95077 
-9.95085 -0.0189938 -0.0361525 
-0.0189938 -9.94141 -0.0387978 
-0.0361525 -0.0387978 -9.94333 
-9.97185 -0.0420537 -0.0315359 
-0.0420537 -9.93503 -0.0291838 
-0.0315359 -0.0291838 -9.92871 
-9.98806 0.00121723 0.0567515 
0.00121723 -9.99216 0.0387399 
0.0567515 0.0387399 -9.99896 
-9.98906 0.00196751 0.0556103 
0.00196751 -9.98996 0.0419794 
0.0556103 0.0419794 -10.0002 
-9.99306 0.000548116 0.0564551 
0.000548116 -9.99257 0.0401172 
0.0564551 0.0401172 -9.99356 
-9.995 -0.000463468 0.057013 
-0.000463468 -9.99348 0.0399971 
0.057013 0.0399971 -9.99071 
-9.71618 -0.221625 -0.197894 
-0.221625 -9.79977 0.0378139 
-0.197894 0.0378139 -10.1459 
-10.055 0.226968 0.0774805 
0.226968 -9.25241 0.596925 
0.0774805 0.596925 -10.3544 
-10.1546 0.131339 0.383529 
0.131339 -9.80323 0.0935591 
0.383529 0.0935591 -9.70397 
-9.95335 0.413205 0.0973934 
0.413205 -9.93887 -0.0935412 
0.0973934 -0.0935412 -9.76958 
-9.8444 0.0279211 0.0793492 
0.0279211 -9.9559 -0.0440981 
0.0793492 -0.0440981 -10.0321 
-9.77397 -0.00627879 -0.00439161 
-0.00627879 -9.95613 -0.02798 
-0.00439161 -0.02798 -10.1023 
-9.9101 -0.0308881 -0.0517519 
-0.0308881 -10.0346 0.0694476 
-0.0517519 0.0694476 -9.88766 
-9.80512 0.00682311 0.00872297 
0.00682311 -9.97857 -0.0213604 
0.00872297 -0.0213604 -10.0487 
-10.0158 -0.00742343 0.00888486 
-0.00742343 -10.0152 -0.00787582 
0.00888486 -0.00787582 -10.0022 
-9.99332 0.00937898 -0.0252429 
0.00937898 -10.0235 0.00143244 
-0.0252429 0.00143244 -10.0164 
-10.0284 -0.0063408 0.0142631 
-0.0063408 -9.99017 -0.00611347 
0.0142631 -0.00611347 -10.0146 
-10.0326 -0.00917169 -0.00395221 
-0.00917169 -10.0012 -0.00366698 
-0.00395221 -0.00366698 -9.9994 
-9.98965 -0.0224052 0.0236489 
-0.0224052 -10.2113 -0.0611782 
0.0236489 -0.0611782 -10.3673 
-10.0414 -0.0128366 0.00258573 
-0.0128366 -10.1792 -0.0483636 
0.00258573 -0.0483636 -10.3477 
-10.1422 -0.0259698 0.0149859 
-0.0259698 -10.1538 -0.0122191 
0.0149859 -0.0122191 -10.2723 
-10.0451 0.0340919 -0.041835 
0.0340919 -10.2398 -0.0304478 
-0.041835 -0.0304478 -10.2834 
-9.78975 -0.102966 -0.0458301 
-0.102966 -9.78073 -0.0702409 
-0.0458301 -0.0702409 -10.2345 
-9.87198 -0.0742904 -0.0164621 
-0.0742904 -9.88358 -0.0259926 
-0.0164621 -0.0259926 -10.0495 
-9.88599 -0.13525 -0.114538 
-0.13525 -9.76126 -0.068001 
-0.114538 -0.068001 -10.1578 
-9.83849 -0.131332 -0.104944 
-0.131332 -9.8329 -0.0125014 
-0.104944 -0.0125014 -10.1336 
-10.7729 1.47917 0.737429 
1.47917 -10.5744 0.265123 
0.737429 0.265123 -10.5001 
-10.9672 -0.999406 0.0741529 
-0.999406 -8.49102 -0.0988075 
0.0741529 -0.0988075 -12.3891 
-10.4142 -0.120583 0.553897 
-0.120583 -9.69187 -1.59916 
0.553897 -1.59916 -11.7412 
-11.7413 -0.193549 -0.495208 
-0.193549 -8.83652 -1.41455 
-0.495208 -1.41455 -11.2695 
-9.96082 -0.00867643 -0.0420559 
-0.00867643 -9.98864 -0.0725069 
-0.0420559 -0.0725069 -9.94049 
-9.95666 0.0091955 -0.0459492 
0.0091955 -9.94003 -0.0667914 
-0.0459492 -0.0667914 -9.99327 
-9.96053 0.0033974 -0.0453672 
0.0033974 -9.96464 -0.0625469 
-0.0453672 -0.0625469 -9.96479 
-9.95986 0.00570856 -0.0454894 
0.00570856 -9.97156 -0.0394979 
-0.0454894 -0.0394979 -9.95855 
-10.1029 0.625536 0.0729931 
0.625536 -11.2869 -0.0806464 
0.0729931 -0.0806464 -11.9367 
-10.5448 0.08867 0.289926 
0.08867 -10.7843 -0.0646373 
0.289926 -0.0646373 -11.9974 
-9.69628 0.184279 0.582107 
0.184279 -10.8871 -0.206703 
0.582107 -0.206703 -12.7431 
-10.3559 0.284871 0.00822575 
0.284871 -11.3071 0.146146 
0.00822575 0.146146 -11.6635 
-9.89124 -0.0217642 -0.0480392 
-0.0217642 -9.91369 0.0393347 
-0.0480392 0.0393347 -9.91759 
-9.89567 0.00143652 -0.0609726 
0.00143652 -9.89827 0.0167324 
-0.0609726 0.0167324 -9.92857 
-9.91212 -0.01722 -0.0778567 
-0.01722 -9.86255 0.038461 
-0.0778567 0.038461 -9.94784 
-9.91343 -0.0150428 -0.0676131 
-0.0150428 -9.89455 0.0416821 
-0.0676131 0.0416821 -9.91453 
-9.95499 0.00149239 -0.0523709 
0.00149239 -9.95291 0.0541798 
-0.0523709 0.0541798 -9.9855 
-9.9716 0.00251966 -0.0588709 
0.00251966 -9.97084 0.0455691 
-0.0588709 0.0455691 -9.95096 
-9.96361 0.00603961 -0.0488032 
0.00603961 -9.95879 0.0449884 
-0.0488032 0.0449884 -9.97099 
-9.96427 -0.00331641 -0.0498227 
-0.00331641 -9.96529 0.0435205 
-0.0498227 0.0435205 -9.96383 
-9.9529 -0.0168846 -0.00762417 
-0.0168846 -9.955 0.0365364 
-0.00762417 0.0365364 -10.1977 
-9.99259 -0.0195191 -0.00702543 
-0.0195191 -9.96255 -0.00702576 
-0.00702543 -0.00702576 -10.1504 
-9.93536 0.000287992 -0.0138155 
0.000287992 -9.98894 -0.00888574 
-0.0138155 -0.00888574 -10.1813 
-9.93214 0.0163052 0.00106941 
0.0163052 -10.0035 0.00406917 
0.00106941 0.00406917 -10.1699 
-9.96864 -0.0246987 -0.0013314 
-0.0246987 -9.97873 -0.0174547 
-0.0013314 -0.0174547 -9.98672 
-9.94958 -0.0121545 -0.0143078 
-0.0121545 -9.98633 0.0255559 
-0.0143078 0.0255559 -9.99819 
-9.98006 -0.027241 -0.00282517 
-0.027241 -9.96394 0.00961187 
-0.00282517 0.00961187 -9.9901 
-10.001 -0.0282627 0.00333282 
-0.0282627 -9.92406 0.00795329 
0.00333282 0.00795329 -10.009 
-9.90851 -0.0634386 -0.0793291 
-0.0634386 -9.87669 0.0134243 
-0.0793291 0.0134243 -9.79764 
-9.91398 -0.00781473 -0.0171983 
-0.00781473 -9.85802 0.0307702 
-0.0171983 0.0307702 -9.81084 
-9.87408 -0.0629434 -0.0677501 
-0.0629434 -9.86694 0.058371 
-0.0677501 0.058371 -9.84182 
-9.94909 -0.0776857 -0.205882 
-0.0776857 -9.98695 0.0948211 
-0.205882 0.0948211 -9.6468 
-9.92867 0.0116605 -0.109977 
0.0116605 -9.88516 -0.0489209 
-0.109977 -0.0489209 -9.80742 
-9.90539 -0.0118122 -0.0476243 
-0.0118122 -9.90169 0.00166003 
-0.0476243 0.00166003 -9.81418 
-10.0101 -0.00528969 -0.0797893 
-0.00528969 -9.92578 -0.0599172 
-0.0797893 -0.0599172 -9.68538 
-9.95276 0.0046378 -0.0791354 
0.0046378 -9.88966 -0.0460176 
-0.0791354 -0.0460176 -9.77885 
-9.98397 -0.00111484 0.00716583 
-0.00111484 -9.98436 0.0141612 
0.00716583 0.0141612 -9.99346 
-9.98616 -0.00137723 0.00628997 
-0.00137723 -9.98486 0.00820958 
0.00628997 0.00820958 -9.99076 
-9.98556 -0.000477414 0.00610317 
-0.000477414 -9.98378 0.00891165 
0.00610317 0.00891165 -9.99244 
-9.98386 -0.00316156 0.00395462 
-0.00316156 -9.98454 0.0103069 
0.00395462 0.0103069 -9.99338 
-9.94363 -0.00759869 -0.00984489 
-0.00759869 -9.92202 0.0703421 
-0.00984489 0.0703421 -9.97017 
-9.9227 0.0290284 0.0194556 
0.0290284 -9.93555 0.0634034 
0.0194556 0.0634034 -9.97757 
-9.92876 0.0209388 0.00125545 
0.0209388 -9.9483 0.0593756 
0.00125545 0.0593756 -9.95876 
-9.93127 -0.0127368 -0.00786543 
-0.0127368 -9.9205 0.0398748 
-0.00786543 0.0398748 -9.98404 
-9.90249 -0.0069106 0.0149679 
-0.0069106 -9.91058 -0.0910312 
0.0149679 -0.0910312 -9.90783 
-9.91483 -0.00266462 0.0177454 
-0.00266462 -9.89587 -0.0920716 
0.0177454 -0.0920716 -9.9102 
-9.89946 -0.00617994 0.0103624 
-0.00617994 -9.91909 -0.0937208 
0.0103624 -0.0937208 -9.90236 
-9.91324 -0.0128932 0.0114188 
-0.0128932 -9.90505 -0.0881625 
0.0114188 -0.0881625 -9.90261 
-10.0043 0.013288 0.0200244 
0.013288 -9.98339 -0.0230898 
0.0200244 -0.0230898 -9.95649 
-9.94167 -0.0230731 0.00172737 
-0.0230731 -9.96244 0.0244888 
0.00172737 0.0244888 -10.0401 
-9.97563 0.00508564 0.00639275 
0.00508564 -9.99067 -0.00601301 
0.00639275 -0.00601301 -9.97786 
-9.97479 0.0185103 -0.00971783 
0.0185103 -9.99942 -0.00953635 
-0.00971783 -0.00953635 -9.96995 
-9.89937 0.0364246 0.0332163 
0.0364246 -9.92194 0.0342465 
0.0332163 0.0342465 -9.95721 
-9.93427 -0.00807377 0.0466575 
-0.00807377 -9.9162 0.0360909 
0.0466575 0.0360909 -9.92806 
-9.94929 -0.010548 0.0519746 
-0.010548 -9.90137 0.0381727 
0.0519746 0.0381727 -9.92787 
-9.91336 -0.0102461 0.0594627 
-0.0102461 -9.91748 0.0515117 
0.0594627 0.0515117 -9.94769 
-10.7753 -1.3003 0.0173586 
-1.3003 -10.1479 -0.152485 
0.0173586 -0.152485 -10.3951 
-10.6109 0.0835989 -0.791699 
0.0835989 -10.1443 -1.78757 
-0.791699 -1.78757 -10.563 
-10.4665 0.47941 0.527419 
0.47941 -8.74248 -1.09775 
0.527419 -1.09775 -12.1093 
-11.1685 0.000921946 0.391863 
0.000921946 -9.11326 -1.45067 
0.391863 -1.45067 -11.0365 
-9.98458 0.00815119 -0.0273733 
0.00815119 -9.94389 -0.019319 
-0.0273733 -0.019319 -10.0126 
-9.96617 -0.00130595 0.0160309 
-0.00130595 -9.90989 0.00137001 
0.0160309 0.00137001 -10.065 
-9.97976 0.0328358 0.0352104 
0.0328358 -10.0071 0.0144741 
0.0352104 0.0144741 -9.95425 
-9.98845 0.0475513 0.013517 
0.0475513 -9.93242 -4.3341e-05 
0.013517 -4.3341e-05 -10.0202 
-9.93906 -0.0063123 -0.00784346 
-0.0063123 -9.94582 -0.0124595 
-0.00784346 -0.0124595 -9.97408 
-9.93775 -0.00995609 -0.00511249 
-0.00995609 -9.94388 0.00581099 
-0.00511249 0.00581099 -9.97733 
-9.93395 -0.00784783 0.0016047 
-0.00784783 -9.94739 -0.0160935 
0.0016047 -0.0160935 -9.97761 
-9.93684 -0.00558678 -0.00266867 
-0.00558678 -9.94633 0.000172584 
-0.00266867 0.000172584 -9.97579 
-10.0673 -0.0104847 -0.0211181 
-0.0104847 -10.0822 0.0101133 
-0.0211181 0.0101133 -10.1497 
-10.0864 0.00207341 -0.00889953 
0.00207341 -10.1203 0.00570488 
-0.00889953 0.00570488 -10.0925 
-10.0824 0.0127275 -0.00544512 
0.0127275 -10.0781 -0.00332132 
-0.00544512 -0.00332132 -10.1387 
-10.0863 -0.00730849 0.00705619 
-0.00730849 -10.1114 0.0250018 
0.00705619 0.0250018 -10.1015 
-9.98208 -0.00241292 -0.0257786 
-0.00241292 -9.98515 0.0012726 
-0.0257786 0.0012726 -9.98544 
-9.98516 0.002536 -0.024874 
0.002536 -9.9805 -0.0044673 
-0.024874 -0.0044673 -9.987 
-9.99141 0.00695794 -0.0199759 
0.00695794 -9.98449 -0.00850848 
-0.0199759 -0.00850848 -9.97676 
-9.98626 -0.00563806 -0.0201107 
-0.00563806 -9.98254 -0.00365498 
-0.0201107 -0.00365498 -9.98387 
-9.94419 0.00602298 0.00629803 
0.00602298 -9.96489 0.0172592 
0.00629803 0.0172592 -9.99738 
-9.93218 -0.000136816 0.0189819 
-0.000136816 -9.98654 0.00541639 
0.0189819 0.00541639 -9.98774 
-9.96659 0.0314095 0.0135614 
0.0314095 -9.94511 0.0321485 
0.0135614 0.0321485 -9.99476 
-9.94725 0.00213553 -0.000519722 
0.00213553 -9.95517 0.0113072 
-0.000519722 0.0113072 -10.004 
-9.97706 0.00159225 0.00693785 
0.00159225 -9.97727 0.00241918 
0.00693785 0.00241918 -9.99919 
-9.97655 0.00166919 0.00193214 
0.00166919 -9.97351 0.000193819 
0.00193214 0.000193819 -10.0035 
-9.97845 0.000287533 0.00174955 
0.000287533 -9.97631 0.00159652 
0.00174955 0.00159652 -9.99876 
-9.98143 -0.00137352 -0.000177367 
-0.00137352 -9.97628 -0.0013991 
-0.000177367 -0.0013991 -9.9958 
-9.98713 -0.0017374 -0.00210007 
-0.0017374 -9.98888 -0.0279647 
-0.00210007 -0.0279647 -10.0068 
-9.99726 -0.000872607 -0.00174555 
-0.000872607 -9.99568 -0.024524 
-0.00174555 -0.024524 -9.9899 
-9.99444 -0.00308937 0.000487783 
-0.00308937 -9.99255 -0.0240415 
0.000487783 -0.0240415 -9.99585 
-9.99716 0.000760589 0.00150636 
0.000760589 -9.99764 -0.0245143 
0.00150636 -0.0245143 -9.98804 
-9.95948 -0.0104286 0.00188937 
-0.0104286 -9.96496 0.00215053 
0.00188937 0.00215053 -9.98013 
-9.95619 -0.0067766 0.00539793 
-0.0067766 -9.96804 0.00861083 
0.00539793 0.00861083 -9.98033 
-9.9631 -0.0065068 0.000711466 
-0.0065068 -9.96216 0.00406918 
0.000711466 0.00406918 -9.97931 
-9.96761 -0.00276112 0.000838166 
-0.00276112 -9.94884 0.00950247 
0.000838166 0.00950247 -9.98812 
-9.85928 -0.0318339 -0.138662 
-0.0318339 -9.98537 -0.0619307 
-0.138662 -0.0619307 -9.70755 
-9.90501 0.00110237 -0.0924756 
0.00110237 -9.95992 -0.0963619 
-0.0924756 -0.0963619 -9.68727 
-9.75726 0.029627 -0.183726 
0.029627 -10.0629 -0.0887324 
-0.183726 -0.0887324 -9.73204 
-9.91224 -0.0579374 -0.205508 
-0.0579374 -9.997 -0.081446 
-0.205508 -0.081446 -9.64297 
-9.99771 0.00206097 0.0368176 
0.00206097 -9.99744 -0.0115885 
0.0368176 -0.0115885 -9.98882 
-9.98564 -0.000255428 0.0322361 
-0.000255428 -9.99864 -0.0138561 
0.0322361 -0.0138561 -9.99969 
-9.98905 0.00184397 0.0309803 
0.00184397 -9.99218 -0.00893982 
0.0309803 -0.00893982 -10.0027 
-10.0012 -0.00101976 0.0344089 
-0.00101976 -9.99605 -0.0115447 
0.0344089 -0.0115447 -9.9867 
-9.94608 -0.000352615 -0.0507461 
-0.000352615 -9.93308 0.0451105 
-0.0507461 0.0451105 -9.91599 
-9.9234 4.45954e-05 -0.0606032 
4.45954e-05 -9.93891 0.0307177 
-0.0606032 0.0307177 -9.93284 
-9.95985 -0.00966696 -0.0707544 
-0.00966696 -9.93298 0.0350929 
-0.0707544 0.0350929 -9.90232 
-9.93788 -0.00567029 -0.0540538 
-0.00567029 -9.93556 0.0442683 
-0.0540538 0.0442683 -9.92172 
-9.91055 0.0335504 -0.0190026 
0.0335504 -9.89337 0.0397253 
-0.0190026 0.0397253 -9.97858 
-9.89921 0.0250599 -0.00523706 
0.0250599 -9.9058 0.0424601 
-0.00523706 0.0424601 -9.97749 
-9.89379 0.0507292 -0.00950187 
0.0507292 -9.88286 0.0394346 
-0.00950187 0.0394346 -10.0058 
-9.92463 0.05646 -0.00311686 
0.05646 -9.88634 -0.00469463 
-0.00311686 -0.00469463 -9.97153 
-9.94314 0.0189843 0.00876085 
0.0189843 -9.93745 -0.015778 
0.00876085 -0.015778 -9.94099 
-9.93085 0.00734454 0.0102735 
0.00734454 -9.93566 0.014821 
0.0102735 0.014821 -9.95507 
-9.95535 0.0195511 0.00994653 
0.0195511 -9.92962 0.0218462 
0.00994653 0.0218462 -9.9366 
-9.91729 0.0232219 9.92318e-05 
0.0232219 -9.92428 0.0105766 
9.92318e-05 0.0105766 -9.98002 
-9.93351 -0.000155099 0.00506459 
-0.000155099 -9.9363 -0.0176142 
0.00506459 -0.0176142 -9.99699 
-9.93158 -0.000845749 -0.00784927 
-0.000845749 -9.91188 -0.0193892 
-0.00784927 -0.0193892 -10.0233 
-9.92736 0.00582245 0.00473007 
0.00582245 -9.93115 -0.0120342 
0.00473007 -0.0120342 -10.0083 
-9.92613 0.00695286 0.00840778 
0.00695286 -9.92931 0.00173582 
0.00840778 0.00173582 -10.0114 
-9.94771 -0.0425282 0.0106024 
-0.0425282 -9.91425 -0.0325304 
0.0106024 -0.0325304 -10.0223 
-9.95223 -0.0318469 0.00647727 
-0.0318469 -9.94968 -0.00625768 
0.00647727 -0.00625768 -9.98231 
-9.89116 0.0426687 0.0113817 
0.0426687 -10.0487 -0.0141793 
0.0113817 -0.0141793 -9.94437 
-9.9011 -0.0542846 -0.00179648 
-0.0542846 -9.96416 0.0159082 
-0.00179648 0.0159082 -10.019 
-9.80226 0.0259953 0.137607 
0.0259953 -9.74829 0.25798 
0.137607 0.25798 -9.56634 
-9.68203 0.306737 0.204795 
0.306737 -9.74761 0.305894 
0.204795 0.305894 -9.68725 
-9.95832 0.29595 0.402397 
0.29595 -9.41129 0.332461 
0.402397 0.332461 -9.74727 
-9.8899 0.188457 0.0614855 
0.188457 -9.73574 0.316634 
0.0614855 0.316634 -9.49125 
-5.01516 0.0966942 -2.1453 
0.0966942 -11.9808 2.96146 
-2.1453 2.96146 -8.86873 
-15.3528 -2.80834 -4.03738 
-2.80834 -6.02793 5.46388 
-4.03738 5.46388 -4.48395 
-8.93556 -0.639423 -1.13368 
-0.639423 -11.0095 1.44605 
-1.13368 1.44605 -5.91961 
-12.8792 -0.175181 1.67839 
-0.175181 -4.82047 -0.868458 
1.67839 -0.868458 -8.165 
-9.99076 0.000762671 0.00957897 
0.000762671 -10.0002 -0.062913 
0.00957897 -0.062913 -9.99271 
-9.99507 0.000289794 0.00860652 
0.000289794 -9.99951 -0.0622243 
0.00860652 -0.0622243 -9.98912 
-9.98552 -0.00166381 0.0137468 
-0.00166381 -9.99186 -0.0590443 
0.0137468 -0.0590443 -10.0063 
-9.99801 0.000646182 0.0091619 
0.000646182 -9.99932 -0.0650734 
0.0091619 -0.0650734 -9.98638 
-9.97646 0.0292304 0.0879029 
0.0292304 -9.83355 -0.125202 
0.0879029 -0.125202 -10.2651 
-9.98153 -0.0340378 0.0980995 
-0.0340378 -9.75357 -0.114424 
0.0980995 -0.114424 -10.34 
-9.97838 0.0936479 0.100132 
0.0936479 -9.82854 -0.179854 
0.100132 -0.179854 -10.2682 
-9.97297 0.0632897 -0.0477885 
0.0632897 -9.97877 -0.0587988 
-0.0477885 -0.0587988 -10.1234 
-9.93416 0.00800691 0.0178442 
0.00800691 -9.92826 0.00133323 
0.0178442 0.00133323 -10.0133 
-9.9252 0.000251608 0.00999938 
0.000251608 -9.92802 -0.0132605 
0.00999938 -0.0132605 -10.0225 
-9.92169 0.00890698 0.0189194 
0.00890698 -9.92545 -0.0155046 
0.0189194 -0.0155046 -10.0286 
-9.92053 -0.00513624 0.00293464 
-0.00513624 -9.92447 -0.00911715 
0.00293464 -0.00911715 -10.0308 
-9.90158 0.0225763 0.0575258 
0.0225763 -9.96135 0.0262748 
0.0575258 0.0262748 -9.61097 
-9.86021 -0.0141476 -0.0301756 
-0.0141476 -9.90726 -0.0966726 
-0.0301756 -0.0966726 -9.70643 
-9.88273 -0.0355372 0.0370213 
-0.0355372 -9.95661 -0.0619204 
0.0370213 -0.0619204 -9.63456 
-9.83348 -0.0228306 0.0152846 
-0.0228306 -10.1341 -0.214546 
0.0152846 -0.214546 -9.50628 
-9.98948 -0.00383683 0.0564439 
-0.00383683 -9.99549 -0.00420229 
0.0564439 -0.00420229 -9.99834 
-9.99811 -0.00169388 0.0560491 
-0.00169388 -9.99759 0.000210706 
0.0560491 0.000210706 -9.9876 
-9.99032 -0.00422183 0.061101 
-0.00422183 -9.98923 0.00120011 
0.061101 0.00120011 -10.0038 
-9.99952 0.00094936 0.0570402 
0.00094936 -9.99871 -0.00217663 
0.0570402 -0.00217663 -9.98508 
-7.12515 0.589428 -0.276108 
0.589428 -9.72006 -0.282027 
-0.276108 -0.282027 -2.8857 
-7.2577 0.627064 -0.255061 
0.627064 -9.54289 -0.288015 
-0.255061 -0.288015 -2.93031 
-6.13049 -0.762594 -0.822858 
-0.762594 -9.84824 0.482736 
-0.822858 0.482736 -3.75217 
-6.56738 -0.733962 0.275525 
-0.733962 -9.5157 -0.147078 
0.275525 -0.147078 -3.64782 
-9.93463 0.0440986 -0.025027 
0.0440986 -9.83419 -0.0402927 
-0.025027 -0.0402927 -9.98545 
-9.80809 -0.0304593 0.00560902 
-0.0304593 -10.1154 -0.00991456 
0.00560902 -0.00991456 -9.83078 
-9.96606 0.037674 -0.0104202 
0.037674 -9.80617 -0.00680894 
-0.0104202 -0.00680894 -9.98205 
-9.88503 0.118957 -0.0102919 
0.118957 -9.8867 -0.0114988 
-0.0102919 -0.0114988 -9.98255 
-10.1093 -0.0366006 0.017389 
-0.0366006 -10.3442 0.00526615 
0.017389 0.00526615 -10.125 
-10.2063 -0.0687452 -0.000190145 
-0.0687452 -10.2864 0.0259958 
-0.000190145 0.0259958 -10.0857 
-10.0514 0.0116713 -0.066691 
0.0116713 -10.1002 -0.115827 
-0.066691 -0.115827 -10.4269 
-10.1108 0.0896512 0.0451124 
0.0896512 -10.1852 0.0517169 
0.0451124 0.0517169 -10.2824 
-9.92961 -0.23314 0.26797 
-0.23314 -9.84764 -0.328497 
0.26797 -0.328497 -11.3122 
-9.5295 0.0358665 -0.200322 
0.0358665 -10.6137 -0.0197904 
-0.200322 -0.0197904 -10.9462 
-10.6986 0.480801 -0.616485 
0.480801 -10.9629 0.127389 
-0.616485 0.127389 -9.42795 
-9.64352 -0.178257 -0.463182 
-0.178257 -10.575 0.392093 
-0.463182 0.392093 -10.8709 
-9.89079 0.0126045 -0.0154457 
0.0126045 -9.91291 -0.052721 
-0.0154457 -0.052721 -9.88929 
-9.89093 0.0302132 -0.0335341 
0.0302132 -9.92044 -0.00378774 
-0.0335341 -0.00378774 -9.88162 
-9.91102 0.01163 -0.0185064 
0.01163 -9.96715 -0.0626867 
-0.0185064 -0.0626867 -9.81483 
-9.89771 0.00273785 -0.0277081 
0.00273785 -9.94019 -0.0480388 
-0.0277081 -0.0480388 -9.85509 
-9.27813 -1.05965 -1.13968 
-1.05965 -9.90372 1.27707 
-1.13968 1.27707 -10.5244 
-10.7554 -0.104848 -0.69574 
-0.104848 -9.24635 0.496169 
-0.69574 0.496169 -9.70454 
-10.2605 -0.317079 -0.745374 
-0.317079 -10.1899 0.455714 
-0.745374 0.455714 -9.25582 
-8.81306 0.207577 0.410034 
0.207577 -9.81915 -0.149754 
0.410034 -0.149754 -11.074 
-9.96124 -0.00730765 -0.0720869 
-0.00730765 -9.9602 0.0327951 
-0.0720869 0.0327951 -9.95843 
-9.97166 0.00550368 -0.078114 
0.00550368 -9.95989 0.0292939 
-0.078114 0.0292939 -9.94833 
-9.9566 -0.00166525 -0.0748335 
-0.00166525 -9.95402 0.0333905 
-0.0748335 0.0333905 -9.96926 
-9.96176 -0.00534246 -0.0646333 
-0.00534246 -9.9615 0.0265595 
-0.0646333 0.0265595 -9.95661 
-9.97338 0.00075326 0.079018 
0.00075326 -9.9728 -0.00733856 
0.079018 -0.00733856 -9.9726 
-9.97186 0.000171886 0.0791146 
0.000171886 -9.97607 -0.0063303 
0.0791146 -0.0063303 -9.97084 
-9.97145 -0.00154956 0.0684209 
-0.00154956 -9.96831 -0.00722231 
0.0684209 -0.00722231 -9.97901 
-9.97935 -0.00288714 0.0801812 
-0.00288714 -9.98128 -0.00373501 
0.0801812 -0.00373501 -9.95814 
-9.90712 -0.00210457 0.0744223 
-0.00210457 -9.89245 0.00134039 
0.0744223 0.00134039 -9.91349 
-9.89812 -0.00656612 0.0847086 
-0.00656612 -9.89704 -0.0376173 
0.0847086 -0.0376173 -9.9179 
-9.88602 -0.0202748 0.0584777 
-0.0202748 -9.90872 -0.036379 
0.0584777 -0.036379 -9.91832 
-9.89065 -0.0184124 0.0942264 
-0.0184124 -9.9053 -0.02028 
0.0942264 -0.02028 -9.91712 
-9.92988 0.0646483 -0.0549533 
0.0646483 -9.94043 -0.0492356 
-0.0549533 -0.0492356 -9.70154 
-9.87174 -0.00327003 -0.0532514 
-0.00327003 -9.92875 -0.0612488 
-0.0532514 -0.0612488 -9.77136 
-9.96537 0.0207805 -0.0250045 
0.0207805 -9.94235 0.0319203 
-0.0250045 0.0319203 -9.66414 
-9.88093 -0.0626185 -0.0077278 
-0.0626185 -10.0924 -0.158365 
-0.0077278 -0.158365 -9.59857 
-9.89976 -0.0101384 0.0216903 
-0.0101384 -9.91168 0.0553989 
0.0216903 0.0553989 -9.95266 
-9.91732 -0.00355142 0.071889 
-0.00355142 -9.89864 0.0325694 
0.071889 0.0325694 -9.94814 
-9.90636 0.0163262 0.0344303 
0.0163262 -9.90635 0.0244297 
0.0344303 0.0244297 -9.9514 
-9.89403 0.00835525 0.0356428 
0.00835525 -9.90898 0.0532227 
0.0356428 0.0532227 -9.96109 
-11.1038 -0.0305072 -0.0563745 
-0.0305072 -11.3678 0.14278 
-0.0563745 0.14278 -11.1269 
-10.4684 -0.609467 -0.439267 
-0.609467 -11.0881 0.134961 
-0.439267 0.134961 -12.0419 
-10.5104 0.484899 -0.284037 
0.484899 -11.8767 -0.0419962 
-0.284037 -0.0419962 -11.2114 
-11.1848 0.102584 -0.179142 
0.102584 -11.2773 0.503625 
-0.179142 0.503625 -11.1364 
-9.90746 -0.0192104 0.016347 
-0.0192104 -9.93375 0.032663 
0.016347 0.032663 -9.91699 
-9.91369 0.00856932 0.0209995 
0.00856932 -9.93479 0.0386702 
0.0209995 0.0386702 -9.90972 
-9.90926 0.0247254 0.0455571 
0.0247254 -9.89641 0.0575832 
0.0455571 0.0575832 -9.95253 
-9.88886 0.0169352 0.0399812 
0.0169352 -9.91972 0.0298396 
0.0399812 0.0298396 -9.94963 
-9.92974 -0.0200817 -0.00567421 
-0.0200817 -9.93027 0.0635394 
-0.00567421 0.0635394 -9.98561 
-9.92115 0.00199844 0.00926042 
0.00199844 -9.92357 0.0392033 
0.00926042 0.0392033 -10.0009 
-9.9343 -0.00773368 0.0196936 
-0.00773368 -9.9212 0.0679928 
0.0196936 0.0679928 -9.99012 
-9.93739 -0.0336089 -0.0250431 
-0.0336089 -9.94865 0.0538764 
-0.0250431 0.0538764 -9.95957 
-10.0049 -0.00873147 0.000292155 
-0.00873147 -10.031 0.0505493 
0.000292155 0.0505493 -9.68164 
-9.91786 -0.00703985 -0.0238028 
-0.00703985 -10.0087 -0.0413038 
-0.0238028 -0.0413038 -9.79101 
-9.94378 -0.000500097 -0.0415663 
-0.000500097 -9.98807 0.00412362 
-0.0415663 0.00412362 -9.78575 
-9.91406 -0.0315835 -0.0133827 
-0.0315835 -9.88912 0.0919049 
-0.0133827 0.0919049 -9.91442 
-9.95607 0.00856281 -0.0187025 
0.00856281 -9.93823 0.00602477 
-0.0187025 0.00602477 -9.9996 
-9.95163 0.00159523 0.00414228 
0.00159523 -9.94521 0.00791774 
0.00414228 0.00791774 -9.99706 
-9.96211 0.0077676 -0.0176956 
0.0077676 -9.96369 -0.00597171 
-0.0176956 -0.00597171 -9.9681 
-9.95561 0.0210998 -0.0144041 
0.0210998 -9.94551 -0.000210337 
-0.0144041 -0.000210337 -9.99277 
-9.95067 -0.00999032 -0.0227277 
-0.00999032 -9.95083 -0.00571628 
-0.0227277 -0.00571628 -9.95537 
-9.95223 -0.0079199 -0.0146578 
-0.0079199 -9.94905 -0.0229929 
-0.0146578 -0.0229929 -9.95559 
-9.95079 -0.0185901 -0.0313556 
-0.0185901 -9.95762 -0.00819944 
-0.0313556 -0.00819944 -9.94846 
-9.95296 -0.0203291 -0.00509447 
-0.0203291 -9.95061 -0.0110919 
-0.00509447 -0.0110919 -9.9533 
-9.89056 0.00538879 0.0833275 
0.00538879 -9.90907 0.0104631 
0.0833275 0.0104631 -9.89614 
-9.86862 0.00349792 0.0868806 
0.00349792 -9.90374 0.00361445 
0.0868806 0.00361445 -9.92342 
-9.90943 0.00672458 0.0900613 
0.00672458 -9.91 0.00701281 
0.0900613 0.00701281 -9.87634 
-9.89474 0.00497898 0.0684881 
0.00497898 -9.90882 0.0194089 
0.0684881 0.0194089 -9.89222 
-9.93258 0.000639544 0.0411105 
0.000639544 -9.935 0.0467173 
0.0411105 0.0467173 -9.93478 
-9.92732 0.0129568 0.0494877 
0.0129568 -9.91969 0.052918 
0.0494877 0.052918 -9.95535 
-9.93536 -0.0114176 0.0398607 
-0.0114176 -9.93252 0.0439585 
0.0398607 0.0439585 -9.93449 
-9.91785 0.00475251 0.0446246 
0.00475251 -9.93501 0.035126 
0.0446246 0.035126 -9.9495 
-10.0291 0.130678 -0.0155407 
0.130678 -9.71689 -0.211302 
-0.0155407 -0.211302 -9.9101 
-9.95357 0.0757506 0.0269558 
0.0757506 -9.8165 -0.29381 
0.0269558 -0.29381 -9.88599 
-9.94181 -0.0634557 0.0396107 
-0.0634557 -9.7484 -0.392087 
0.0396107 -0.392087 -9.96586 
-9.88513 0.287093 0.0621574 
0.287093 -10.0407 -0.38407 
0.0621574 -0.38407 -9.73026 
-9.98465 0.0118095 0.0228021 
0.0118095 -9.98939 0.0100754 
0.0228021 0.0100754 -10.0794 
-10.0113 -0.00260084 -0.0010875 
-0.00260084 -10.0409 0.000734316 
-0.0010875 0.000734316 -10.0013 
-10.0011 0.0285214 0.0077673 
0.0285214 -10.0252 0.00231834 
0.0077673 0.00231834 -10.0272 
-10.0368 -0.000482359 -0.0151812 
-0.000482359 -10.0279 -0.0212842 
-0.0151812 -0.0212842 -9.98878 
-9.96949 0.0236166 0.027487 
0.0236166 -9.98437 0.011536 
0.027487 0.011536 -10.0016 
-9.96719 0.00497121 0.00144581 
0.00497121 -9.98349 -0.00903085 
0.00144581 -0.00903085 -10.0048 
-9.99198 -0.0170988 -0.0349029 
-0.0170988 -9.98107 0.000489772 
-0.0349029 0.000489772 -9.98242 
-9.96463 0.00415886 0.00322527 
0.00415886 -9.98388 -0.00991681 
0.00322527 -0.00991681 -10.007 
-9.95865 9.71647e-06 0.0796374 
9.71647e-06 -9.95679 -0.0170095 
0.0796374 -0.0170095 -9.97147 
-9.95867 -0.00506471 0.0779129 
-0.00506471 -9.96549 -0.0171369 
0.0779129 -0.0171369 -9.96275 
-9.97264 0.00364054 0.0809624 
0.00364054 -9.96005 -0.0151199 
0.0809624 -0.0151199 -9.95422 
-9.96035 -0.00335697 0.0711185 
-0.00335697 -9.96508 -0.0141149 
0.0711185 -0.0141149 -9.96147 
-9.43707 1.45306 0.370934 
1.45306 -9.80812 -0.968835 
0.370934 -0.968835 -11.1526 
-10.5979 0.421617 -0.313581 
0.421617 -9.38819 -0.250266 
-0.313581 -0.250266 -10.4117 
-9.20605 0.703318 -1.21428 
0.703318 -10.4886 -0.298514 
-1.21428 -0.298514 -10.7032 
-9.97072 0.70279 -0.203001 
0.70279 -9.71123 -0.435937 
-0.203001 -0.435937 -10.7159 
-9.94881 -0.056829 -0.0542932 
-0.056829 -9.87931 0.0382667 
-0.0542932 0.0382667 -9.78129 
-9.9339 -0.0922425 -0.00660476 
-0.0922425 -9.83984 0.00866032 
-0.00660476 0.00866032 -9.83567 
-9.88478 -0.00734987 -0.0656168 
-0.00734987 -9.91124 0.0441763 
-0.0656168 0.0441763 -9.81339 
-9.93047 0.0210564 -0.0455051 
0.0210564 -9.89067 0.0377251 
-0.0455051 0.0377251 -9.78827 
-9.93485 -0.00562972 -0.00146382 
-0.00562972 -9.92981 0.0074923 
-0.00146382 0.0074923 -10.1725 
-9.93403 8.74887e-05 -0.00799111 
8.74887e-05 -9.91469 -0.00545784 
-0.00799111 -0.00545784 -10.1885 
-9.93716 -0.00637175 -0.00162958 
-0.00637175 -9.92967 -0.00429839 
-0.00162958 -0.00429839 -10.1704 
-9.92982 -0.0116642 -0.00201541 
-0.0116642 -9.97277 -0.0444198 
-0.00201541 -0.0444198 -10.1346 
-9.99606 0.0127135 0.00529167 
0.0127135 -10.001 -0.0189527 
0.00529167 -0.0189527 -10.0122 
-9.96588 0.00821543 -0.00326375 
0.00821543 -10.0172 -0.0241449 
-0.00326375 -0.0241449 -10.0262 
-10.0019 0.00173957 0.000348112 
0.00173957 -9.97948 -0.0212346 
0.000348112 -0.0212346 -10.0278 
-9.99706 0.00679251 0.010221 
0.00679251 -9.9836 -0.000889394 
0.010221 -0.000889394 -10.0286 
-9.94861 0.00174383 0.0707572 
0.00174383 -9.95502 0.0161172 
0.0707572 0.0161172 -9.52758 
-9.86247 -0.00975077 0.150445 
-0.00975077 -9.86792 0.0754807 
0.150445 0.0754807 -9.70082 
-9.89934 -0.0118197 0.0742817 
-0.0118197 -9.96829 0.0154907 
0.0742817 0.0154907 -9.56358 
-9.83528 0.0386633 0.142781 
0.0386633 -9.95586 0.0109643 
0.142781 0.0109643 -9.64007 
-9.86064 0.1762 0.0113744 
0.1762 -9.88095 -0.0683941 
0.0113744 -0.0683941 -10.0047 
-9.88677 0.176303 -0.0204945 
0.176303 -9.82853 -0.000100115 
-0.0204945 -0.000100115 -10.031 
-9.91293 0.143115 -0.00207881 
0.143115 -9.80765 -0.0444811 
-0.00207881 -0.0444811 -10.0257 
-9.87386 0.125279 0.0685786 
0.125279 -9.90019 -0.0690234 
0.0685786 -0.0690234 -9.97228 
-9.99767 6.11475e-05 -0.0731611 
6.11475e-05 -9.99569 -0.0320258 
-0.0731611 -0.0320258 -9.99027 
-9.99618 -0.00123931 -0.072375 
-0.00123931 -9.99457 -0.0298752 
-0.072375 -0.0298752 -9.99288 
-9.989 -0.00201925 -0.0744595 
-0.00201925 -9.99133 -0.0257987 
-0.0744595 -0.0257987 -10.0033 
-9.99429 -0.00273807 -0.0738437 
-0.00273807 -9.99369 -0.0298042 
-0.0738437 -0.0298042 -9.99565 
-9.97988 -0.0011725 0.0667607 
-0.0011725 -9.98356 0.0149388 
0.0667607 0.0149388 -9.98777 
-9.98198 0.00197965 0.0688313 
0.00197965 -9.98114 0.0177884 
0.0688313 0.0177884 -9.98809 
-9.98182 0.00131488 0.0733468 
0.00131488 -9.9867 0.0148139 
0.0733468 0.0148139 -9.98269 
-9.99289 0.002316 0.0720478 
0.002316 -9.98172 0.0159353 
0.0720478 0.0159353 -9.9766 
-9.91182 0.00275277 0.0275977 
0.00275277 -9.96767 -0.0205953 
0.0275977 -0.0205953 -10.0005 
-9.94156 -0.0462751 -0.00226694 
-0.0462751 -9.91745 -0.0365771 
-0.00226694 -0.0365771 -10.021 
-9.95691 -0.0195432 0.0295385 
-0.0195432 -9.96212 -0.0112146 
0.0295385 -0.0112146 -9.96098 
-9.92737 -0.013856 0.0293487 
-0.013856 -9.96817 -0.034879 
0.0293487 -0.034879 -9.98447 
-9.94299 0.0228905 -0.0550506 
0.0228905 -9.90896 -0.235987 
-0.0550506 -0.235987 -9.96862 
-10.0365 0.155419 -0.0329767 
0.155419 -9.8995 -0.274112 
-0.0329767 -0.274112 -9.88457 
-9.94245 0.098606 0.0258378 
0.098606 -9.86519 -0.143288 
0.0258378 -0.143288 -10.0129 
-9.91654 0.176756 -0.07914 
0.176756 -10.035 -0.307076 
-0.07914 -0.307076 -9.86903 
-10.0055 0.0174468 -0.00461047 
0.0174468 -10.0095 -0.00373317 
-0.00461047 -0.00373317 -10.0095 
-9.99396 0.0195645 0.0386269 
0.0195645 -10.0081 0.0354125 
0.0386269 0.0354125 -10.0224 
-9.97885 -0.0119968 -0.019779 
-0.0119968 -10.0242 -0.00321255 
-0.019779 -0.00321255 -10.0214 
-9.99122 0.00441064 -0.009737 
0.00441064 -10.0065 0.00483678 
-0.009737 0.00483678 -10.0267 
-9.97685 0.0034068 0.016415 
0.0034068 -9.96835 -0.00727771 
0.016415 -0.00727771 -9.98298 
-9.97422 0.00503173 0.0102419 
0.00503173 -9.97161 -0.00589512 
0.0102419 -0.00589512 -9.98235 
-9.9724 0.0064555 0.0106483 
0.0064555 -9.97545 -0.00645475 
0.0106483 -0.00645475 -9.98033 
-9.97977 0.00539697 0.00285387 
0.00539697 -9.97888 -0.00997783 
0.00285387 -0.00997783 -9.96954 
-9.87567 0.0216008 -0.000911048 
0.0216008 -9.88332 0.091807 
-0.000911048 0.091807 -10.0204 
-9.87779 -0.0503561 0.00180993 
-0.0503561 -9.8639 0.10231 
0.00180993 0.10231 -10.0377 
-9.88766 -0.0384116 -0.00304429 
-0.0384116 -9.84445 0.0844322 
-0.00304429 0.0844322 -10.0473 
-9.87918 -0.0210595 0.0245893 
-0.0210595 -9.84254 0.0921995 
0.0245893 0.0921995 -10.0577 
-9.99493 0.000302189 0.0471554 
0.000302189 -9.99077 -0.025814 
0.0471554 -0.025814 -9.99557 
-9.98871 0.000581772 0.0458493 
0.000581772 -9.98794 -0.0253301 
0.0458493 -0.0253301 -10.0046 
-9.99604 0.00240006 0.0461492 
0.00240006 -9.99221 -0.026859 
0.0461492 -0.026859 -9.99302 
-9.99565 0.00197604 0.0482451 
0.00197604 -9.99477 -0.0283635 
0.0482451 -0.0283635 -9.99085 
-10.0147 -0.00713887 -0.0278328 
-0.00713887 -9.96639 0.0160455 
-0.0278328 0.0160455 -9.98523 
-9.93018 0.0254011 -0.0201176 
0.0254011 -10.0551 0.0605306 
-0.0201176 0.0605306 -9.98105 
-10.0468 -0.0073079 0.0389656 
-0.0073079 -9.92193 -0.0899042 
0.0389656 -0.0899042 -9.99755 
-9.96224 0.0252802 -0.00608118 
0.0252802 -9.96237 0.0116285 
-0.00608118 0.0116285 -10.0417 
-9.98253 0.00774135 0.019028 
0.00774135 -9.97847 -0.00223646 
0.019028 -0.00223646 -9.98898 
-9.98146 -8.19684e-05 0.0181489 
-8.19684e-05 -9.98412 -0.00507632 
0.0181489 -0.00507632 -9.98442 
-9.98249 -0.00226291 0.015313 
-0.00226291 -9.98279 -0.00345405 
0.015313 -0.00345405 -9.98471 
-9.98857 0.00926935 0.0150701 
0.00926935 -9.98306 -0.000310244 
0.0150701 -0.000310244 -9.97836 
-9.94797 -0.000817226 -0.0041221 
-0.000817226 -9.94801 -0.00663055 
-0.0041221 -0.00663055 -9.99692 
-9.94512 -0.00130442 -0.00061526 
-0.00130442 -9.95275 0.00355411 
-0.00061526 0.00355411 -9.99503 
-9.95418 0.00858243 0.00437312 
0.00858243 -9.93919 0.00327117 
0.00437312 0.00327117 -9.99953 
-9.95197 0.000326285 0.000532175 
0.000326285 -9.94822 0.0026661 
0.000532175 0.0026661 -9.99272 
-9.97704 -0.0422728 0.01577 
-0.0422728 -9.91172 0.0794433 
0.01577 0.0794433 -9.87698 
-9.90092 -0.000283381 0.0597306 
-0.000283381 -9.9834 0.0408655 
0.0597306 0.0408655 -9.88142 
-9.99814 -0.0865955 0.0116116 
-0.0865955 -9.95906 0.0473093 
0.0116116 0.0473093 -9.80855 
-9.99223 -0.0464691 0.00566876 
-0.0464691 -9.89292 0.106544 
0.00566876 0.106544 -9.8806 
-9.98333 -0.000502511 0.00149419 
-0.000502511 -9.97931 -3.81494e-05 
0.00149419 -3.81494e-05 -9.99775 
-9.98257 -0.000793686 0.00581761 
-0.000793686 -9.98149 0.00361691 
0.00581761 0.00361691 -9.99632 
-9.98499 0.00150334 0.00042991 
0.00150334 -9.98249 0.000418205 
0.00042991 0.000418205 -9.99291 
-9.98248 0.00146513 0.00401308 
0.00146513 -9.98346 0.00490229 
0.00401308 0.00490229 -9.99445 
-10.0018 0.00485232 0.000856827 
0.00485232 -9.98633 -0.00291872 
0.000856827 -0.00291872 -10.0115 
-9.9896 0.00898619 0.00786944 
0.00898619 -10.0076 0.0109704 
0.00786944 0.0109704 -10.0024 
-9.98623 0.0134327 0.00822096 
0.0134327 -10.0244 0.00863488 
0.00822096 0.00863488 -9.98901 
-9.9981 0.00824401 0.000772904 
0.00824401 -9.99667 0.0174385 
0.000772904 0.0174385 -10.0049 
-9.95208 -0.0311882 0.0378229 
-0.0311882 -9.96393 -0.0246615 
0.0378229 -0.0246615 -9.81086 
-9.97833 -0.0333575 0.0845565 
-0.0333575 -9.86835 -0.0509856 
0.0845565 -0.0509856 -9.88019 
-9.93306 0.0134158 -0.0160682 
0.0134158 -9.89917 -0.0853174 
-0.0160682 -0.0853174 -9.89464 
-9.98557 -0.0139517 0.0345638 
-0.0139517 -9.95169 -0.0220766 
0.0345638 -0.0220766 -9.78961 
-9.93652 0.00476754 0.0427478 
0.00476754 -9.91145 0.050345 
0.0427478 0.050345 -9.87734 
-9.9498 -0.0329908 0.00979759 
-0.0329908 -9.90067 0.0729482 
0.00979759 0.0729482 -9.87484 
-9.95417 -0.0352655 0.00410661 
-0.0352655 -9.91339 0.0550314 
0.00410661 0.0550314 -9.85775 
-9.96397 -0.00365791 0.0317838 
-0.00365791 -9.92279 0.0835864 
0.0317838 0.0835864 -9.83855 
-9.90171 -0.0190712 -0.0668077 
-0.0190712 -9.91342 0.036457 
-0.0668077 0.036457 -9.91096 
-9.90027 -0.00481893 -0.078502 
-0.00481893 -9.92081 0.0191282 
-0.078502 0.0191282 -9.905 
-9.92862 0.0081543 -0.0814589 
0.0081543 -9.88284 0.0241177 
-0.0814589 0.0241177 -9.91462 
-9.90736 -0.0126984 -0.079365 
-0.0126984 -9.90225 0.029477 
-0.079365 0.029477 -9.91648 
-10.1133 -0.0497592 0.00780674 
-0.0497592 -10.12 0.0166898 
0.00780674 0.0166898 -10.0848 
-10.0876 -0.0138594 -0.00317346 
-0.0138594 -10.0846 -0.00980594 
-0.00317346 -0.00980594 -10.1458 
-10.0657 -0.0326415 -0.00566267 
-0.0326415 -10.1218 0.0167678 
-0.00566267 0.0167678 -10.1305 
-10.1229 -0.0266836 0.0504403 
-0.0266836 -10.0866 0.00434357 
0.0504403 0.00434357 -10.1085 
-9.96513 -0.00186236 0.0896846 
-0.00186236 -9.95002 -0.00593766 
0.0896846 -0.00593766 -9.93553 
-9.93418 0.00151117 0.0813094 
0.00151117 -9.94941 -0.00231331 
0.0813094 -0.00231331 -9.96709 
-9.94121 -0.00357116 0.0791425 
-0.00357116 -9.95644 -0.00564977 
0.0791425 -0.00564977 -9.95303 
-9.95589 0.00204012 0.0754612 
0.00204012 -9.95248 -0.0128842 
0.0754612 -0.0128842 -9.94232 
-9.9103 -0.00387131 0.0342595 
-0.00387131 -9.93321 0.0576472 
0.0342595 0.0576472 -9.91098 
-9.91376 0.0122925 0.0298509 
0.0122925 -9.92232 0.0649199 
0.0298509 0.0649199 -9.91841 
-9.92118 0.0196868 0.0409813 
0.0196868 -9.89742 0.0714101 
0.0409813 0.0714101 -9.93589 
-9.90179 0.0203689 0.0404311 
0.0203689 -9.92836 0.0487194 
0.0404311 0.0487194 -9.92434 
-9.97631 -0.00212145 0.0441857 
-0.00212145 -9.97839 -0.0621154 
0.0441857 -0.0621154 -9.97321 
-9.9737 0.00053517 0.0431824 
0.00053517 -9.97258 -0.0617027 
0.0431824 -0.0617027 -9.98162 
-9.97355 -0.00157174 0.0464289 
-0.00157174 -9.97834 -0.0621886 
0.0464289 -0.0621886 -9.97601 
-9.97444 -0.00313674 0.0491934 
-0.00313674 -9.98257 -0.0634498 
0.0491934 -0.0634498 -9.9709 
-9.90913 -0.0337344 0.0268887 
-0.0337344 -9.91386 -0.0121281 
0.0268887 -0.0121281 -9.8557 
-9.93658 -0.0370797 0.0127187 
-0.0370797 -9.90644 -0.0396706 
0.0127187 -0.0396706 -9.83567 
-9.9182 -0.0292829 -0.0204341 
-0.0292829 -9.93477 -0.0387571 
-0.0204341 -0.0387571 -9.82572 
-9.95652 -0.0387023 0.0155697 
-0.0387023 -9.90144 -0.03342 
0.0155697 -0.03342 -9.82074 
-9.98645 -0.00193783 -0.000826283 
-0.00193783 -9.98712 4.20261e-05 
-0.000826283 4.20261e-05 -10.0013 
-9.98902 -0.000221148 0.00308175 
-0.000221148 -9.9874 -0.000287141 
0.00308175 -0.000287141 -9.99846 
-9.99142 0.000620409 0.00137444 
0.000620409 -9.99109 0.00237961 
0.00137444 0.00237961 -9.99237 
-9.99075 -0.000234637 0.00233389 
-0.000234637 -9.98999 0.00378643 
0.00233389 0.00378643 -9.99414 
-10.9534 0.646331 -0.0558556 
0.646331 -10.7119 -0.0748641 
-0.0558556 -0.0748641 -11.814 
-9.66473 -0.344076 -0.427726 
-0.344076 -10.6861 -0.312543 
-0.427726 -0.312543 -13.1284 
-9.20344 1.18205 -0.526547 
1.18205 -10.0086 -0.396977 
-0.526547 -0.396977 -14.2672 
-10.075 1.1181 0.475897 
1.1181 -11.1769 -0.604434 
0.475897 -0.604434 -12.2273 
-10.0446 0.00942564 0.113738 
0.00942564 -10.1862 0.305552 
0.113738 0.305552 -9.1489 
-10.004 -0.175025 -0.463701 
-0.175025 -9.80755 0.403706 
-0.463701 0.403706 -9.56825 
-9.87149 -0.0743966 -0.128902 
-0.0743966 -10.2827 0.233335 
-0.128902 0.233335 -9.22556 
-9.89791 -0.220337 -0.0182364 
-0.220337 -10.3666 -0.0616662 
-0.0182364 -0.0616662 -9.11525 
-9.98942 0.0033563 -0.0336311 
0.0033563 -9.99266 -0.012895 
-0.0336311 -0.012895 -9.99901 
-9.99609 -0.0019591 -0.029958 
-0.0019591 -9.99537 -0.01405 
-0.029958 -0.01405 -9.98964 
-9.98593 -0.00132019 -0.0334781 
-0.00132019 -9.98901 -0.0164013 
-0.0334781 -0.0164013 -10.0062 
-9.99936 -0.00203685 -0.0336385 
-0.00203685 -9.99315 -0.013704 
-0.0336385 -0.013704 -9.98859 
-9.92628 -0.0159584 0.0198134 
-0.0159584 -9.92193 -0.00701112 
0.0198134 -0.00701112 -9.94632 
-9.92816 -0.0350398 -0.0131774 
-0.0350398 -9.927 -0.0175139 
-0.0131774 -0.0175139 -9.93937 
-9.9296 -0.00945277 -0.0515739 
-0.00945277 -9.93148 -0.00821944 
-0.0515739 -0.00821944 -9.93345 
-9.92327 -0.0387148 -0.0236125 
-0.0387148 -9.94103 0.0292127 
-0.0236125 0.0292127 -9.93023 
-9.98976 0.00222746 0.027589 
0.00222746 -9.98155 0.069938 
0.027589 0.069938 -9.98489 
-9.98086 -0.000192364 0.0332632 
-0.000192364 -9.99059 0.072702 
0.0332632 0.072702 -9.98474 
-9.99049 0.00271779 0.0283357 
0.00271779 -9.97217 0.0698934 
0.0283357 0.0698934 -9.99353 
-9.98281 -0.00100902 0.0331253 
-0.00100902 -9.98776 0.0698814 
0.0331253 0.0698814 -9.98563 
-9.94743 -0.0177101 -0.0416929 
-0.0177101 -9.94497 -0.0266491 
-0.0416929 -0.0266491 -9.94329 
-9.94413 -0.00314099 -0.0279532 
-0.00314099 -9.94037 -0.0280853 
-0.0279532 -0.0280853 -9.95119 
-9.9478 -0.0180541 -0.0442379 
-0.0180541 -9.93692 -0.0410413 
-0.0442379 -0.0410413 -9.95097 
-9.95366 -0.0438074 -0.0331603 
-0.0438074 -9.9482 -0.0270564 
-0.0331603 -0.0270564 -9.93383 
-10.7598 0.0386982 0.282115 
0.0386982 -9.38467 0.397308 
0.282115 0.397308 -11.7893 
-10.7455 -0.532017 -0.531487 
-0.532017 -9.94281 0.6411 
-0.531487 0.6411 -11.2455 
-10.8224 0.309867 -0.132708 
0.309867 -9.75643 0.172749 
-0.132708 0.172749 -11.355 
-10.715 -0.128693 0.253765 
-0.128693 -9.80922 0.443805 
0.253765 0.443805 -11.4095 
-9.90822 -0.0198513 0.0541179 
-0.0198513 -9.9093 0.0377384 
0.0541179 0.0377384 -9.9866 
-9.92812 -0.0142092 0.0114129 
-0.0142092 -9.92716 0.0114346 
0.0114129 0.0114346 -9.94883 
-9.91575 -0.0221828 -0.0107441 
-0.0221828 -9.90786 0.0318584 
-0.0107441 0.0318584 -9.98051 
-9.90879 -0.042825 -0.0164795 
-0.042825 -9.92945 0.0425512 
-0.0164795 0.0425512 -9.96588 
-9.94424 0.0365397 -0.0595811 
0.0365397 -9.78516 0.0218198 
-0.0595811 0.0218198 -10.0048 
-9.87792 0.12647 0.015561 
0.12647 -9.91386 -0.111681 
0.015561 -0.111681 -9.9424 
-9.88482 0.0797767 -0.0742321 
0.0797767 -9.96433 -0.0407775 
-0.0742321 -0.0407775 -9.88504 
-9.87328 0.115689 -0.0297743 
0.115689 -9.98094 -0.0294408 
-0.0297743 -0.0294408 -9.87996 
-9.97786 -0.00144153 -0.0540166 
-0.00144153 -9.97515 0.0532612 
-0.0540166 0.0532612 -9.98138 
-9.97088 0.00281207 -0.048536 
0.00281207 -9.97725 0.0491605 
-0.048536 0.0491605 -9.98626 
-9.98005 -0.00345134 -0.0501856 
-0.00345134 -9.97835 0.0527384 
-0.0501856 0.0527384 -9.97599 
-9.98404 -0.00137916 -0.052344 
-0.00137916 -9.97848 0.0578792 
-0.052344 0.0578792 -9.97187 
-9.55818 -0.372852 -0.537322 
-0.372852 -10.4581 0.362513 
-0.537322 0.362513 -10.8008 
-10.5497 -0.335656 -0.677848 
-0.335656 -11.2094 -0.262427 
-0.677848 -0.262427 -9.05802 
-8.71183 -0.693545 -1.25146 
-0.693545 -10.6322 0.582029 
-1.25146 0.582029 -11.4731 
-9.34165 -0.426607 -0.169466 
-0.426607 -10.3009 0.41037 
-0.169466 0.41037 -11.1746 
-9.91781 0.0123197 -0.337086 
0.0123197 -9.937 0.0686665 
-0.337086 0.0686665 -9.91606 
-9.82991 0.0105185 -0.330584 
0.0105185 -9.92183 0.010978 
-0.330584 0.010978 -10.0191 
-9.71774 -0.0854117 -0.384522 
-0.0854117 -10.0284 0.083429 
-0.384522 0.083429 -10.0248 
-9.91184 -0.182468 -0.0146497 
-0.182468 -9.94051 0.038611 
-0.0146497 0.038611 -9.91851 
-9.95417 -0.138674 0.421507 
-0.138674 -9.97373 -0.0172003 
0.421507 -0.0172003 -9.6989 
-10.151 -0.158735 0.55448 
-0.158735 -10.117 -0.421878 
0.55448 -0.421878 -9.35879 
-9.96037 0.0438437 -0.128397 
0.0438437 -9.96853 0.0703679 
-0.128397 0.0703679 -9.6979 
-9.82534 -0.140258 0.665658 
-0.140258 -9.85897 0.0749662 
0.665658 0.0749662 -9.94249 
-9.9902 -0.00107819 -0.00246413 
-0.00107819 -9.98467 0.00249113 
-0.00246413 0.00249113 -9.98638 
-9.98733 -0.00145848 -0.00407991 
-0.00145848 -9.99047 -0.00253223 
-0.00407991 -0.00253223 -9.98346 
-9.99121 0.00028071 -0.0028496 
0.00028071 -9.98678 -0.00163567 
-0.0028496 -0.00163567 -9.98327 
-9.98417 0.00492121 0.00307085 
0.00492121 -9.98171 -0.000929431 
0.00307085 -0.000929431 -9.99538 
-9.89227 0.127549 0.263021 
0.127549 -9.80241 0.152671 
0.263021 0.152671 -9.69448 
-10.1227 0.011974 0.189831 
0.011974 -9.83156 0.0510815 
0.189831 0.0510815 -9.43494 
-9.82107 -0.118127 0.156453 
-0.118127 -10.0455 -0.0233989 
0.156453 -0.0233989 -9.52258 
-9.80815 0.11334 0.102599 
0.11334 -9.86741 0.235693 
0.102599 0.235693 -9.7136 
-9.9249 0.00281555 0.0130498 
0.00281555 -9.90892 -0.00863165 
0.0130498 -0.00863165 -10.0544 
-9.92705 0.00107696 0.0123781 
0.00107696 -9.91019 -0.0240977 
0.0123781 -0.0240977 -10.051 
-9.90848 -0.00010336 0.014438 
-0.00010336 -9.90814 -0.00278289 
0.014438 -0.00278289 -10.0716 
-9.91173 0.00275724 0.00228137 
0.00275724 -9.93362 -0.00154026 
0.00228137 -0.00154026 -10.0429 
-9.9948 -0.0125068 1.65991e-05 
-0.0125068 -9.9949 -0.00510807 
1.65991e-05 -0.00510807 -10.0023 
-10.0116 0.00714347 0.00360274 
0.00714347 -9.98826 1.6748e-05 
0.00360274 1.6748e-05 -9.99211 
-10.0049 -0.0104256 -0.00418767 
-0.0104256 -9.99171 0.00372175 
-0.00418767 0.00372175 -9.99531 
-10.0047 -0.00195871 -0.00643175 
-0.00195871 -9.9903 -0.000844922 
-0.00643175 -0.000844922 -9.99702 
-10.079 -0.140688 0.10137 
-0.140688 -10.9716 -0.0404663 
0.10137 -0.0404663 -12.1974 
-10.5598 0.119413 0.270263 
0.119413 -10.6519 -0.0728638 
0.270263 -0.0728638 -12.0364 
-8.48434 -0.249219 0.266378 
-0.249219 -9.91837 -0.208887 
0.266378 -0.208887 -14.8453 
-10.0225 -0.141001 -0.18288 
-0.141001 -11.3857 -0.147019 
-0.18288 -0.147019 -11.8398 
-4.69319 3.72329 0.581149 
3.72329 -8.26956 -1.59399 
0.581149 -1.59399 -0.0950947 
-7.06473 -0.108205 -0.0539004 
-0.108205 -1.98675 0.0355217 
-0.0539004 0.0355217 -4.00637 
-10.0761 -2.81301 -1.6973 
-2.81301 -7.18147 -2.71299 
-1.6973 -2.71299 4.19968 
-6.33305 -1.00983 -1.93659 
-1.00983 -4.444 0.575404 
-1.93659 0.575404 -2.28079 
-9.92338 0.0306181 -0.039129 
0.0306181 -9.96587 -0.084683 
-0.039129 -0.084683 -9.84801 
-9.91907 0.0657569 -0.049432 
0.0657569 -9.98329 -0.0903577 
-0.049432 -0.0903577 -9.83489 
-9.88493 0.0798607 -0.0730298 
0.0798607 -9.98437 -0.102454 
-0.0730298 -0.102454 -9.86796 
-9.95211 0.0424377 -0.0639512 
0.0424377 -9.95094 -0.121335 
-0.0639512 -0.121335 -9.83421 
-9.89928 0.0419127 -0.0330228 
0.0419127 -9.92345 0.0850731 
-0.0330228 0.0850731 -10.1712 
-9.83419 0.053332 -0.0975614 
0.053332 -9.97676 -0.00474706 
-0.0975614 -0.00474706 -10.183 
-9.82092 0.0316488 -0.142168 
0.0316488 -9.9943 -0.0226097 
-0.142168 -0.0226097 -10.1787 
-9.84944 0.109762 -0.12527 
0.109762 -9.9241 -0.018173 
-0.12527 -0.018173 -10.2204 
-9.98082 -0.0327486 0.0126653 
-0.0327486 -9.78133 0.0483112 
0.0126653 0.0483112 -10.2353 
-9.92199 -0.0751503 -0.0162506 
-0.0751503 -9.87498 0.0312339 
-0.0162506 0.0312339 -10.2005 
-9.91538 0.0183702 0.0326525 
0.0183702 -9.89415 -0.0144961 
0.0326525 -0.0144961 -10.1879 
-9.94187 -0.0397057 0.00359174 
-0.0397057 -9.8652 0.0347144 
0.00359174 0.0347144 -10.1904 
-9.94394 -0.00105565 -0.0837582 
-0.00105565 -9.93538 0.0263324 
-0.0837582 0.0263324 -9.9373 
-9.93296 0.00747754 -0.0684616 
0.00747754 -9.92948 0.0365322 
-0.0684616 0.0365322 -9.95418 
-9.94066 -0.00295885 -0.0731569 
-0.00295885 -9.94116 0.0229851 
-0.0731569 0.0229851 -9.9348 
-9.95068 -0.00467996 -0.0721622 
-0.00467996 -9.94599 0.0175118 
-0.0721622 0.0175118 -9.91995 
-9.32113 0.124626 -0.220411 
0.124626 -10.1918 0.182049 
-0.220411 0.182049 -10.4428 
-9.14321 0.253411 -0.468376 
0.253411 -10.2864 0.145961 
-0.468376 0.145961 -10.5261 
-9.36146 0.17926 -0.212228 
0.17926 -10.1084 0.153258 
-0.212228 0.153258 -10.4859 
-10.6263 -0.43479 -0.807452 
-0.43479 -9.58762 0.209992 
-0.807452 0.209992 -9.74181 
-9.98564 0.000413928 0.0145761 
0.000413928 -9.99301 -0.00379198 
0.0145761 -0.00379198 -10.0002 
-9.98915 0.00181667 0.0141537 
0.00181667 -9.99185 0.000734146 
0.0141537 0.000734146 -9.99789 
-9.99338 0.00224551 0.0151467 
0.00224551 -9.99263 -0.00232705 
0.0151467 -0.00232705 -9.99287 
-9.99561 -2.6313e-05 0.0155544 
-2.6313e-05 -9.9939 -0.00139694 
0.0155544 -0.00139694 -9.98937 
-9.90163 -0.0183756 0.233684 
-0.0183756 -9.90626 -0.10733 
0.233684 -0.10733 -9.78064 
-9.83253 -0.0810207 0.371203 
-0.0810207 -9.95808 -0.118799 
0.371203 -0.118799 -9.79792 
-9.7496 0.0290935 0.160766 
0.0290935 -9.89034 0.0905706 
0.160766 0.0905706 -9.94858 
-10.0335 0.0268796 0.180444 
0.0268796 -9.90299 -0.126196 
0.180444 -0.126196 -9.65209 
-9.99436 -0.00172346 -0.0221473 
-0.00172346 -9.99519 -0.00367186 
-0.0221473 -0.00367186 -9.98968 
-9.98678 -0.00119783 -0.0189062 
-0.00119783 -9.98647 -0.00151427 
-0.0189062 -0.00151427 -10.006 
-9.98775 0.00423349 -0.0191159 
0.00423349 -9.99407 -0.00417065 
-0.0191159 -0.00417065 -9.99741 
-9.99748 -0.0014787 -0.019379 
-0.0014787 -9.99385 -0.00457111 
-0.019379 -0.00457111 -9.98791 
-9.94314 -0.0213004 0.0190869 
-0.0213004 -9.94307 0.0165927 
0.0190869 0.0165927 -9.78748 
-9.97367 -0.0111816 0.0732809 
-0.0111816 -9.91489 0.03184 
0.0732809 0.03184 -9.78514 
-9.98075 -0.00543964 0.0762111 
-0.00543964 -9.90918 0.023571 
0.0762111 0.023571 -9.78377 
-9.96509 -0.0147655 0.0861111 
-0.0147655 -9.93394 0.0176624 
0.0861111 0.0176624 -9.77468 
-10.0922 -0.0579629 0.0769729 
-0.0579629 -9.93318 0.0250867 
0.0769729 0.0250867 -9.99104 
-9.9814 0.0140296 -0.0681693 
0.0140296 -10.0335 0.000110119 
-0.0681693 0.000110119 -10.0015 
-9.96187 -0.0191878 -0.0257982 
-0.0191878 -10.0067 0.0180176 
-0.0257982 0.0180176 -10.0479 
-9.95424 -0.0690273 -0.0375466 
-0.0690273 -10.022 0.0279759 
-0.0375466 0.0279759 -10.0402 
-9.97322 -0.00230291 -0.0494491 
-0.00230291 -9.97298 0.04485 
-0.0494491 0.04485 -9.98122 
-9.97484 0.00112251 -0.0512883 
0.00112251 -9.97362 0.0465784 
-0.0512883 0.0465784 -9.97895 
-9.97522 0.00354668 -0.0517017 
0.00354668 -9.97516 0.0474247 
-0.0517017 0.0474247 -9.97704 
-9.97548 0.000195283 -0.0544941 
0.000195283 -9.97602 0.0441901 
-0.0544941 0.0441901 -9.97593 
-9.8148 -0.00256887 0.216222 
-0.00256887 -9.84557 0.0254981 
0.216222 0.0254981 -9.8531 
-9.98106 -0.0282702 0.00489563 
-0.0282702 -9.93757 -0.0175384 
0.00489563 -0.0175384 -9.59485 
-9.93245 0.0029671 0.242301 
0.0029671 -9.96282 0.0525446 
0.242301 0.0525446 -9.61821 
-9.96132 0.00440533 0.0588991 
0.00440533 -9.92324 0.059646 
0.0588991 0.059646 -9.62891 
-10.5496 -0.0133792 1.01415 
-0.0133792 -12.2251 -0.141714 
1.01415 -0.141714 -10.7805 
-8.74527 -0.0903244 0.223332 
-0.0903244 -10.9732 0.328198 
0.223332 0.328198 -13.8368 
-5.30281 -1.07294 0.404164 
-1.07294 -11.6627 -0.238134 
0.404164 -0.238134 -16.5898 
-10.3502 -0.0228457 -1.49202 
-0.0228457 -10.6092 0.15088 
-1.49202 0.15088 -12.5959 
-9.98998 -0.000403884 0.031981 
-0.000403884 -9.98318 0.014399 
0.031981 0.014399 -9.98212 
-9.98252 -0.00219509 0.0363324 
-0.00219509 -9.99874 0.0153603 
0.0363324 0.0153603 -9.97403 
-9.98196 -0.00257172 0.0291011 
-0.00257172 -9.98611 0.013801 
0.0291011 0.013801 -9.98722 
-9.99099 -0.00150974 0.0326263 
-0.00150974 -9.98268 0.0184977 
0.0326263 0.0184977 -9.98161 
-9.95421 0.00454398 -0.0498832 
0.00454398 -9.94894 0.0563253 
-0.0498832 0.0563253 -9.96285 
-9.95363 -0.0011036 -0.0531046 
-0.0011036 -9.95416 0.0530461 
-0.0531046 0.0530461 -9.9582 
-9.96386 -0.00174261 -0.0491699 
-0.00174261 -9.95597 0.0447483 
-0.0491699 0.0447483 -9.94616 
-9.9493 -0.000831962 -0.0468598 
-0.000831962 -9.94021 0.0574905 
-0.0468598 0.0574905 -9.97648 
-9.99351 -0.000686127 -0.0247606 
-0.000686127 -9.99881 0.0431442 
-0.0247606 0.0431442 -9.98909 
-9.99236 -0.0035749 -0.0281201 
-0.0035749 -9.98757 0.0453637 
-0.0281201 0.0453637 -10.0015 
-9.98902 -0.00320919 -0.0232046 
-0.00320919 -9.99189 0.0481993 
-0.0232046 0.0481993 -10.0005 
-9.99545 0.00180633 -0.0265487 
0.00180633 -9.99809 0.0452011 
-0.0265487 0.0452011 -9.98787 
-9.83561 0.139137 0.0419761 
0.139137 -9.74542 -0.0904442 
0.0419761 -0.0904442 -9.94318 
-9.86233 0.148449 0.00182028 
0.148449 -9.70225 -0.155439 
0.00182028 -0.155439 -9.95961 
-9.84225 0.0633255 0.0291342 
0.0633255 -9.79316 -0.0845786 
0.0291342 -0.0845786 -9.88879 
-9.78949 0.107469 0.0158987 
0.107469 -9.77223 -0.0394299 
0.0158987 -0.0394299 -9.96249 
-9.98261 -0.000850259 -0.0601395 
-0.000850259 -9.98354 -0.0209152 
-0.0601395 -0.0209152 -9.9821 
-9.9862 -0.000270655 -0.0586772 
-0.000270655 -9.98222 -0.0227413 
-0.0586772 -0.0227413 -9.97984 
-9.98113 0.00137908 -0.0606554 
0.00137908 -9.98376 -0.026914 
-0.0606554 -0.026914 -9.98337 
-9.98282 0.00477509 -0.0608077 
0.00477509 -9.98756 -0.0297096 
-0.0608077 -0.0297096 -9.97788 
-9.98771 -0.000610759 0.00302304 
-0.000610759 -9.98477 -0.00537173 
0.00302304 -0.00537173 -10.0019 
-9.9887 -0.00163601 0.00658708 
-0.00163601 -9.99032 -0.00172842 
0.00658708 -0.00172842 -9.99537 
-9.99145 0.000854568 0.00508105 
0.000854568 -9.98889 -0.00119485 
0.00508105 -0.00119485 -9.99406 
-9.99271 0.00208389 0.00651841 
0.00208389 -9.99023 7.29922e-06 
0.00651841 7.29922e-06 -9.99145 
-9.93618 0.0281994 0.016021 
0.0281994 -9.94048 0.0461412 
0.016021 0.0461412 -9.92715 
-9.94423 0.0293184 0.00981078 
0.0293184 -9.91608 0.0646418 
0.00981078 0.0646418 -9.94351 
-9.89625 0.0378903 0.0554191 
0.0378903 -10.0121 0.0671019 
0.0554191 0.0671019 -9.89549 
-9.91448 0.0143267 0.00839178 
0.0143267 -9.93603 0.011038 
0.00839178 0.011038 -9.95332 
-9.95282 0.00128573 -0.0583179 
0.00128573 -9.94919 0.0470923 
-0.0583179 0.0470923 -9.95944 
-9.96015 0.00829737 -0.0501739 
0.00829737 -9.94977 0.046227 
-0.0501739 0.046227 -9.95154 
-9.95208 0.00140136 -0.0524115 
0.00140136 -9.94884 0.0483465 
-0.0524115 0.0483465 -9.96054 
-9.94657 -0.000424279 -0.0519193 
-0.000424279 -9.94849 0.0459811 
-0.0519193 0.0459811 -9.96639 
-9.93029 0.0487641 0.00553157 
0.0487641 -9.9625 0.0163964 
0.00553157 0.0163964 -9.91984 
-9.88906 -0.0515131 -0.00572043 
-0.0515131 -9.92505 0.025773 
-0.00572043 0.025773 -9.99852 
-9.91458 -0.0189619 -0.0230164 
-0.0189619 -9.927 0.0365234 
-0.0230164 0.0365234 -9.97106 
-9.94099 -0.00744969 -0.015938 
-0.00744969 -9.90556 0.0347545 
-0.015938 0.0347545 -9.96609 
-9.98216 -0.138638 -0.360208 
-0.138638 -10.2459 -0.013543 
-0.360208 -0.013543 -9.98137 
-10.0394 -0.0184122 -0.255903 
-0.0184122 -10.1167 0.04074 
-0.255903 0.04074 -10.0534 
-9.97389 -0.0411179 -0.102413 
-0.0411179 -10.1906 0.0172149 
-0.102413 0.0172149 -10.0449 
-10.0012 0.0398938 -0.169202 
0.0398938 -10.2786 -0.129544 
-0.169202 -0.129544 -9.92964 
-9.9103 0.0109305 0.0110628 
0.0109305 -9.9086 -0.00684389 
0.0110628 -0.00684389 -10.1757 
-9.94038 0.00211315 0.00618772 
0.00211315 -9.89696 -0.00689063 
0.00618772 -0.00689063 -10.1572 
-9.9069 0.00533656 0.000661587 
0.00533656 -9.91413 -0.00492704 
0.000661587 -0.00492704 -10.1736 
-9.92333 -0.00694005 0.000980436 
-0.00694005 -9.93961 -0.0410108 
0.000980436 -0.0410108 -10.1316 
-9.88554 0.0169176 -0.0199995 
0.0169176 -9.88212 -0.0891001 
-0.0199995 -0.0891001 -9.89531 
-9.86917 -0.00422417 -0.0285636 
-0.00422417 -9.9145 -0.0769787 
-0.0285636 -0.0769787 -9.87929 
-9.89462 0.0360263 -0.0272523 
0.0360263 -9.85832 -0.0756855 
-0.0272523 -0.0756855 -9.91003 
-9.88205 0.0185179 -0.0430402 
0.0185179 -9.88531 -0.103565 
-0.0430402 -0.103565 -9.89561 
-9.94528 -0.0456943 -0.107329 
-0.0456943 -9.76845 -0.0888684 
-0.107329 -0.0888684 -10.8099 
-10.358 0.0389505 -0.0158286 
0.0389505 -10.2203 0.00264753 
-0.0158286 0.00264753 -9.94541 
-10.3367 0.0836962 0.0103687 
0.0836962 -10.2703 0.0997582 
0.0103687 0.0997582 -9.91667 
-10.1477 0.0233743 0.286047 
0.0233743 -10.338 -0.105524 
0.286047 -0.105524 -10.0379 
-9.98707 0.000722355 0.0231801 
0.000722355 -9.99358 0.0519377 
0.0231801 0.0519377 -9.99548 
-9.98442 0.00100852 0.0268287 
0.00100852 -9.9851 0.0470998 
0.0268287 0.0470998 -10.0066 
-9.99277 -0.000939103 0.0233496 
-0.000939103 -9.99496 0.049036 
0.0233496 0.049036 -9.9884 
-9.99561 -0.00198315 0.0246914 
-0.00198315 -9.99431 0.052124 
0.0246914 0.052124 -9.98621 
-11.187 -0.447565 -0.196954 
-0.447565 -10.6191 0.271867 
-0.196954 0.271867 -10.5316 
-10.0224 -0.0275733 -0.0559881 
-0.0275733 -10.305 -0.130055 
-0.0559881 -0.130055 -12.0102 
-10.3852 -0.163161 -0.0597559 
-0.163161 -9.47464 0.0395381 
-0.0597559 0.0395381 -12.4778 
-11.1294 -0.00079603 0.48519 
-0.00079603 -9.8136 0.481481 
0.48519 0.481481 -11.3947 
-9.99682 -0.000178134 0.0636146 
-0.000178134 -9.99532 -0.0108703 
0.0636146 -0.0108703 -9.99194 
-9.99136 5.44281e-05 0.0605265 
5.44281e-05 -9.98949 -0.0104713 
0.0605265 -0.0104713 -10.0032 
-9.99581 -0.00182812 0.0649779 
-0.00182812 -9.99089 -0.0103498 
0.0649779 -0.0103498 -9.99737 
-9.99657 0.000607751 0.0649367 
0.000607751 -9.99743 -0.00924253 
0.0649367 -0.00924253 -9.99008 
-10.9919 -0.244099 -0.304133 
-0.244099 -10.5634 -0.419602 
-0.304133 -0.419602 -9.53112 
-9.87821 0.0968176 0.484801 
0.0968176 -9.64507 0.407893 
0.484801 0.407893 -11.5631 
-10.441 0.137614 -0.0333265 
0.137614 -9.91864 -0.0891812 
-0.0333265 -0.0891812 -10.7267 
-10.0305 0.61802 -0.439567 
0.61802 -9.69354 -0.305256 
-0.439567 -0.305256 -11.3624 
-9.92644 0.0401382 0.02617 
0.0401382 -9.92171 0.0464702 
0.02617 0.0464702 -9.93214 
-9.92238 0.0220253 0.0186705 
0.0220253 -9.92333 0.0161567 
0.0186705 0.0161567 -9.93457 
-9.90534 0.00621784 0.00796779 
0.00621784 -9.9224 0.0212008 
0.00796779 0.0212008 -9.95255 
-9.90514 0.00496326 -0.00593002 
0.00496326 -9.88801 0.0108199 
-0.00593002 0.0108199 -9.98713 
-9.9561 0.00409964 -0.0125892 
0.00409964 -9.95693 0.00863509 
-0.0125892 0.00863509 -9.98388 
-9.95504 0.00153236 0.00103215 
0.00153236 -9.96218 0.00587243 
0.00103215 0.00587243 -9.97968 
-9.94942 0.0060187 0.00349791 
0.0060187 -9.94161 0.00409853 
0.00349791 0.00409853 -10.0059 
-9.95899 -0.00459987 7.58325e-05 
-0.00459987 -9.94715 0.00438785 
7.58325e-05 0.00438785 -9.99076 
-9.98295 -0.00355393 -0.0533706 
-0.00355393 -9.98725 0.0495592 
-0.0533706 0.0495592 -9.98819 
-9.98295 -0.000577808 -0.0489417 
-0.000577808 -9.98415 0.0512334 
-0.0489417 0.0512334 -9.99129 
-9.9797 -0.000470603 -0.0487687 
-0.000470603 -9.98652 0.04741 
-0.0487687 0.04741 -9.99217 
-9.9924 0.00346106 -0.0536324 
0.00346106 -9.98433 0.0538971 
-0.0536324 0.0538971 -9.98166 
-9.98131 -0.0018631 0.0601231 
-0.0018631 -9.98504 0.0419357 
0.0601231 0.0419357 -9.98272 
-9.97657 -0.000700125 0.0591279 
-0.000700125 -9.98456 0.0407873 
0.0591279 0.0407873 -9.98794 
-9.98149 0.00187061 0.0572217 
0.00187061 -9.98135 0.048039 
0.0572217 0.048039 -9.98623 
-9.98389 -0.000584909 0.0565596 
-0.000584909 -9.98299 0.048472 
0.0565596 0.048472 -9.98219 
-9.92015 0.0232365 0.0310595 
0.0232365 -9.89961 0.078781 
0.0310595 0.078781 -9.91774 
-9.91287 -0.00109235 0.0210854 
-0.00109235 -9.92889 0.0820008 
0.0210854 0.0820008 -9.89574 
-9.90573 0.00221081 0.0211322 
0.00221081 -9.91422 0.0796288 
0.0211322 0.0796288 -9.91755 
-9.92908 0.00478735 0.0200433 
0.00478735 -9.90127 0.0756776 
0.0200433 0.0756776 -9.90714 
-9.92775 0.00542131 -0.046051 
0.00542131 -9.92669 0.0509333 
-0.046051 0.0509333 -9.94412 
-9.93007 0.0100163 -0.0532038 
0.0100163 -9.9244 0.0418821 
-0.0532038 0.0418821 -9.94409 
-9.93503 0.0136963 -0.0494665 
0.0136963 -9.91915 0.0510341 
-0.0494665 0.0510341 -9.94438 
-9.92867 0.00831587 -0.0478106 
0.00831587 -9.92465 0.048272 
-0.0478106 0.048272 -9.94524 
-9.92714 -0.0325357 0.00572694 
-0.0325357 -10.0091 0.0118397 
0.00572694 0.0118397 -9.9652 
-9.96927 0.0204951 -0.00667332 
0.0204951 -9.90609 0.0143427 
-0.00667332 0.0143427 -10.0261 
-9.97342 0.0259179 -0.00329932 
0.0259179 -9.9215 -0.00426731 
-0.00329932 -0.00426731 -10.0065 
-9.98282 0.000900371 -0.00260484 
0.000900371 -9.91237 -0.0279465 
-0.00260484 -0.0279465 -10.0063 
-10.0874 0.0103735 -0.0540955 
0.0103735 -10.1218 0.0136439 
-0.0540955 0.0136439 -10.2164 
-10.139 0.00402195 -0.0324684 
0.00402195 -10.0915 0.0183157 
-0.0324684 0.0183157 -10.195 
-10.1233 -0.00853288 -0.0376761 
-0.00853288 -10.1514 0.0058764 
-0.0376761 0.0058764 -10.1508 
-10.1192 0.00351003 -0.0311192 
0.00351003 -10.1509 -0.0122328 
-0.0311192 -0.0122328 -10.1555 
-9.95694 -0.00908861 -0.00844305 
-0.00908861 -9.93877 -0.0091722 
-0.00844305 -0.0091722 -9.90907 
-9.94502 -0.0233065 0.0128714 
-0.0233065 -9.92905 0.00320604 
0.0128714 0.00320604 -9.93071 
-9.94158 0.0100358 -0.00142104 
0.0100358 -9.92551 0.00208492 
-0.00142104 0.00208492 -9.93769 
-9.92086 -0.00542306 -0.0106831 
-0.00542306 -9.91855 0.0168827 
-0.0106831 0.0168827 -9.96537 
-9.98886 -0.00115868 0.0367537 
-0.00115868 -9.99092 0.0422007 
0.0367537 0.0422007 -9.99672 
-9.99118 -0.00152179 0.0393106 
-0.00152179 -9.99075 0.0433889 
0.0393106 0.0433889 -9.99457 
-9.98786 -0.00181494 0.0362553 
-0.00181494 -9.98806 0.0463251 
0.0362553 0.0463251 -10.0006 
-9.99359 -0.00223795 0.0390544 
-0.00223795 -9.99182 0.0416814 
0.0390544 0.0416814 -9.99109 
-10.0977 0.198465 0.0086637 
0.198465 -9.89688 -0.14307 
0.0086637 -0.14307 -9.99836 
-10.0214 0.104058 -0.0516391 
0.104058 -9.96279 -0.280453 
-0.0516391 -0.280453 -10.0087 
-9.95237 0.0543844 0.0931416 
0.0543844 -9.81344 -0.235971 
0.0931416 -0.235971 -10.2271 
-9.90277 0.0868635 0.0575984 
0.0868635 -9.9801 -0.157432 
0.0575984 -0.157432 -10.11 
-9.83223 0.0034726 0.0293356 
0.0034726 -9.86377 -0.0589162 
0.0293356 -0.0589162 -10.6046 
-10.1118 0.0251854 -0.0494396 
0.0251854 -10.1372 0.01608 
-0.0494396 0.01608 -10.0516 
-10.2211 0.0414753 -0.0251025 
0.0414753 -10.2215 -0.0383436 
-0.0251025 -0.0383436 -9.85807 
-9.99276 -0.0143097 -0.508418 
-0.0143097 -10.2094 0.0753602 
-0.508418 0.0753602 -10.0984 
-9.99029 0.000951699 -0.00183406 
0.000951699 -9.99051 0.00916463 
-0.00183406 0.00916463 -9.99913 
-9.99103 0.00216611 -0.00410562 
0.00216611 -9.98947 0.0065664 
-0.00410562 0.0065664 -9.99943 
-9.99287 0.000780226 -0.00159784 
0.000780226 -9.99346 0.00622026 
-0.00159784 0.00622026 -9.9936 
-9.99254 0.000960421 -0.000728817 
0.000960421 -9.99263 0.00548814 
-0.000728817 0.00548814 -9.99476 
-9.9783 -0.000682347 0.00364815 
-0.000682347 -9.9905 0.00377135 
0.00364815 0.00377135 -9.99172 
-9.98403 0.000678041 0.00234453 
0.000678041 -9.99109 0.00275825 
0.00234453 0.00275825 -9.98541 
-9.98401 0.00151177 0.00135557 
0.00151177 -9.99133 0.00265282 
0.00135557 0.00265282 -9.98519 
-9.9852 0.00162593 0.00131568 
0.00162593 -9.99179 0.00286053 
0.00131568 0.00286053 -9.98354 
-10.9965 0.482594 -0.0378649 
0.482594 -11.1526 0.478829 
-0.0378649 0.478829 -12.08 
-10.7292 0.490387 -0.555839 
0.490387 -8.96266 0.197855 
-0.555839 0.197855 -14.5372 
-11.7034 0.349705 -0.0604009 
0.349705 -10.3895 0.260719 
-0.0604009 0.260719 -12.1361 
-11.6629 0.192662 0.366824 
0.192662 -10.1149 -0.472603 
0.366824 -0.472603 -12.4513 
-9.94973 -0.00257556 -0.0360965 
-0.00257556 -9.96448 0.0690436 
-0.0360965 0.0690436 -9.95363 
-9.95213 -0.00474708 -0.0292204 
-0.00474708 -9.96014 0.0715258 
-0.0292204 0.0715258 -9.95557 
-9.95225 -0.00132332 -0.0321512 
-0.00132332 -9.95984 0.0654703 
-0.0321512 0.0654703 -9.95575 
-9.96095 0.00103432 -0.0395375 
0.00103432 -9.9592 0.0686079 
-0.0395375 0.0686079 -9.94768 
-10.3718 0.106965 0.193282 
0.106965 -10.4202 -0.0917999 
0.193282 -0.0917999 -10.1136 
-10.1111 -0.079058 -0.229565 
-0.079058 -9.98825 0.00672832 
-0.229565 0.00672832 -10.8063 
-10.5751 0.033812 0.210619 
0.033812 -10.3529 -0.147366 
0.210619 -0.147366 -9.9776 
-9.87077 -0.21436 0.245094 
-0.21436 -10.3945 -0.246931 
0.245094 -0.246931 -10.6404 
-8.30375 -0.115914 1.27866 
-0.115914 -5.51485 -0.414537 
1.27866 -0.414537 -3.26554 
-11.9287 0.0045779 1.49539 
0.0045779 -10.6378 -0.563287 
1.49539 -0.563287 5.48227 
-6.86991 -0.744109 0.105352 
-0.744109 -5.63327 -0.546873 
0.105352 -0.546873 -4.58097 
-6.38415 -0.231844 3.02878 
-0.231844 -6.0385 -3.82234 
3.02878 -3.82234 -4.6615 
-9.90181 -0.0493596 0.211321 
-0.0493596 -9.92341 0.0178188 
0.211321 0.0178188 -9.79995 
-9.85895 -0.0062249 0.161093 
-0.0062249 -9.90229 0.00868068 
0.161093 0.00868068 -9.86392 
-9.83405 -0.00363699 0.151163 
-0.00363699 -9.96984 -0.0296154 
0.151163 -0.0296154 -9.82127 
-9.95007 0.0241601 0.107226 
0.0241601 -9.959 -0.106021 
0.107226 -0.106021 -9.71609 
-9.93549 -0.00288024 -0.00534957 
-0.00288024 -9.92983 0.00337761 
-0.00534957 0.00337761 -10.0144 
-9.93733 -0.00102086 -0.010361 
-0.00102086 -9.93931 -0.00445821 
-0.010361 -0.00445821 -10.0031 
-9.93376 -0.00459579 -0.00206468 
-0.00459579 -9.93035 -0.00486917 
-0.00206468 -0.00486917 -10.0156 
-9.92554 -0.00278325 0.00080992 
-0.00278325 -9.92172 -0.0209475 
0.00080992 -0.0209475 -10.0324 
-9.93973 -0.00583485 -0.00142106 
-0.00583485 -9.91 0.0595217 
-0.00142106 0.0595217 -9.97183 
-9.91666 0.000872027 -0.0025876 
0.000872027 -9.93097 0.0295695 
-0.0025876 0.0295695 -9.97394 
-9.93524 -0.00661863 -0.003011 
-0.00661863 -9.95246 0.0425476 
-0.003011 0.0425476 -9.93387 
-9.91571 -0.0269623 -0.0128122 
-0.0269623 -9.97848 0.0387154 
-0.0128122 0.0387154 -9.92738 
-9.92083 -0.00266008 -0.0149775 
-0.00266008 -9.91607 0.0836469 
-0.0149775 0.0836469 -9.93428 
-9.92651 -0.0004901 -0.0112318 
-0.0004901 -9.91981 0.0807284 
-0.0112318 0.0807284 -9.92487 
-9.92351 -0.003261 -0.0114026 
-0.003261 -9.92876 0.085613 
-0.0114026 0.085613 -9.91892 
-9.92533 -0.00373598 -0.00972407 
-0.00373598 -9.9242 0.0801907 
-0.00972407 0.0801907 -9.92166 
-9.87119 0.0342417 -0.0713507 
0.0342417 -9.98547 -0.0575724 
-0.0713507 -0.0575724 -10.0408 
-9.7385 -0.043985 -0.00842082 
-0.043985 -9.88932 0.0789996 
-0.00842082 0.0789996 -10.2696 
-9.73272 0.00589078 -0.127785 
0.00589078 -9.97789 0.0140279 
-0.127785 0.0140279 -10.1868 
-9.75865 0.0109867 -0.142546 
0.0109867 -9.89257 0.0151924 
-0.142546 0.0151924 -10.2462 
-9.94439 -0.000538318 -0.0618259 
-0.000538318 -9.94484 0.0460566 
-0.0618259 0.0460566 -9.96117 
-9.95292 -0.00438484 -0.064425 
-0.00438484 -9.94511 0.0377125 
-0.064425 0.0377125 -9.95236 
-9.95532 -0.000272113 -0.0657688 
-0.000272113 -9.9473 0.0385578 
-0.0657688 0.0385578 -9.94778 
-9.95185 0.000824401 -0.0621718 
0.000824401 -9.94595 0.0434731 
-0.0621718 0.0434731 -9.9526 
-9.92577 -0.0312494 -0.036983 
-0.0312494 -9.91446 -0.0551157 
-0.036983 -0.0551157 -9.90871 
-9.94798 -0.0163537 -0.0412824 
-0.0163537 -9.90202 -0.0308889 
-0.0412824 -0.0308889 -9.89894 
-9.8751 0.0614487 -0.00871519 
0.0614487 -9.90889 0.00448217 
-0.00871519 0.00448217 -9.96495 
-9.90105 0.0285284 -0.0761824 
0.0285284 -9.85181 -0.0287056 
-0.0761824 -0.0287056 -9.99608 
-9.98484 0.0142174 -0.00280192 
0.0142174 -9.99874 -0.0156053 
-0.00280192 -0.0156053 -10.0098 
-9.97853 0.00723322 0.0136015 
0.00723322 -10.0109 -0.00301364 
0.0136015 -0.00301364 -10.004 
-9.98581 0.0212303 -0.00338904 
0.0212303 -10.0043 -0.0203043 
-0.00338904 -0.0203043 -10.0033 
-9.98425 0.0252961 0.00143811 
0.0252961 -10.0015 -0.0138735 
0.00143811 -0.0138735 -10.0076 
-9.94009 -0.0104154 0.00618693 
-0.0104154 -9.93892 -0.0133097 
0.00618693 -0.0133097 -9.96427 
-9.94352 0.0116728 -0.000824002 
0.0116728 -9.94346 -0.00646166 
-0.000824002 -0.00646166 -9.9563 
-9.93845 -0.0103771 0.0156825 
-0.0103771 -9.9374 -0.017396 
0.0156825 -0.017396 -9.96743 
-9.92786 -0.00452094 0.0134377 
-0.00452094 -9.94413 -0.00656888 
0.0134377 -0.00656888 -9.97129 
-10.1833 -0.171824 0.0840816 
-0.171824 -9.89138 -0.213274 
0.0840816 -0.213274 -9.76993 
-9.96491 0.366683 -0.185253 
0.366683 -9.74476 -0.170655 
-0.185253 -0.170655 -10.1349 
-9.84088 0.214455 -0.185461 
0.214455 -9.95095 -0.0934866 
-0.185461 -0.0934866 -10.0527 
-9.78604 0.307152 -0.215444 
0.307152 -10.1274 0.136688 
-0.215444 0.136688 -9.93111 
-9.87502 -0.100674 -0.215314 
-0.100674 -9.90954 0.0163436 
-0.215314 0.0163436 -9.6513 
-9.96089 -0.0817784 0.0133706 
-0.0817784 -9.9664 0.0482504 
0.0133706 0.0482504 -9.50859 
-9.9682 -0.107816 0.181648 
-0.107816 -9.8897 0.247273 
0.181648 0.247273 -9.57797 
-10.0089 -0.101289 -0.208272 
-0.101289 -10.0404 0.0353202 
-0.208272 0.0353202 -9.38657 
-9.99044 -0.00229286 0.0316439 
-0.00229286 -9.98717 0.0191059 
0.0316439 0.0191059 -10.0083 
-9.99706 -0.00347283 0.0350657 
-0.00347283 -9.99688 0.0177437 
0.0350657 0.0177437 -9.99198 
-9.99469 -0.00158557 0.034912 
-0.00158557 -9.9968 0.0193507 
0.034912 0.0193507 -9.99443 
-9.99895 -0.00126807 0.0381346 
-0.00126807 -9.99701 0.0209148 
0.0381346 0.0209148 -9.98996 
-9.95702 -0.00350116 0.0142937 
-0.00350116 -9.86652 0.0521675 
0.0142937 0.0521675 -9.99032 
-10.0143 -0.0271148 0.00997561 
-0.0271148 -9.72837 0.000825389 
0.00997561 0.000825389 -10.0712 
-9.81505 0.0222527 -0.00333358 
0.0222527 -10.1325 0.00870753 
-0.00333358 0.00870753 -9.86627 
-9.93974 -0.00971 -0.0323369 
-0.00971 -9.87866 0.172984 
-0.0323369 0.172984 -9.99546 
-10.1567 0.0364948 0.0183204 
0.0364948 -10.2116 -0.0186659 
0.0183204 -0.0186659 -10.0607 
-10.3259 0.0809467 -0.0749176 
0.0809467 -10.2207 0.0402572 
-0.0749176 0.0402572 -9.88245 
-9.88679 -0.0153884 0.0297865 
-0.0153884 -9.91145 0.0209895 
0.0297865 0.0209895 -10.6308 
-10.1815 0.0830304 0.217398 
0.0830304 -10.2448 -0.126857 
0.217398 -0.126857 -10.0028 
-10.1384 0.073082 0.0665871 
0.073082 -10.089 -0.0143983 
0.0665871 -0.0143983 -10.3083 
-10.0901 0.0554926 0.0597167 
0.0554926 -10.1577 -0.0539773 
0.0597167 -0.0539773 -10.2878 
-9.9949 0.0346809 0.0305669 
0.0346809 -10.1592 -0.000646014 
0.0305669 -0.000646014 -10.3816 
-10.1233 0.082191 0.0650297 
0.082191 -10.1031 -0.0785782 
0.0650297 -0.0785782 -10.3093 
-10.0858 0.00161015 0.0747716 
0.00161015 -9.92409 -0.0381721 
0.0747716 -0.0381721 -10.329 
-10.0833 -0.0416728 0.0213939 
-0.0416728 -10.099 -0.0391729 
0.0213939 -0.0391729 -10.1566 
-10.2112 0.00997948 -0.000565094 
0.00997948 -10.1498 0.0109868 
-0.000565094 0.0109868 -9.97785 
-10.1246 0.0167241 -0.104385 
0.0167241 -10.0681 -0.0602711 
-0.104385 -0.0602711 -10.1461 
-9.84594 -0.141547 -0.164304 
-0.141547 -10.2924 0.0161263 
-0.164304 0.0161263 -10.3965 
-9.9049 0.0420715 -0.2173 
0.0420715 -10.091 0.089912 
-0.2173 0.089912 -10.539 
-10.2619 0.00221078 0.112336 
0.00221078 -10.0312 -0.149116 
0.112336 -0.149116 -10.2418 
-9.57096 -0.151359 0.032843 
-0.151359 -10.3787 -0.114676 
0.032843 -0.114676 -10.5852 
-9.9009 0.0361547 0.0338791 
0.0361547 -9.89481 0.0258771 
0.0338791 0.0258771 -9.94802 
-9.91494 0.0113667 0.0448166 
0.0113667 -9.89664 0.0369335 
0.0448166 0.0369335 -9.93215 
-9.93673 -0.025363 0.0385072 
-0.025363 -9.90273 0.0310984 
0.0385072 0.0310984 -9.90427 
-9.9116 0.0157389 0.0624632 
0.0157389 -9.89352 0.0436998 
0.0624632 0.0436998 -9.93862 
-9.94475 -0.00406328 -0.000790709 
-0.00406328 -9.9591 -0.00395157 
-0.000790709 -0.00395157 -9.93195 
-9.95591 0.00500743 -0.00840172 
0.00500743 -9.95084 -0.00761525 
-0.00840172 -0.00761525 -9.92905 
-9.94783 0.00841956 0.00161812 
0.00841956 -9.95415 0.0112269 
0.00161812 0.0112269 -9.93382 
-9.95365 -0.0231976 0.00290242 
-0.0231976 -9.97026 0.00907818 
0.00290242 0.00907818 -9.91189 
-9.87751 0.0429635 -0.0826907 
0.0429635 -9.99071 0.0546034 
-0.0826907 0.0546034 -10.1957 
-9.90279 0.0508392 -0.107174 
0.0508392 -10.0216 0.00334809 
-0.107174 0.00334809 -10.1395 
-9.86792 0.0162502 -0.13416 
0.0162502 -9.98307 0.0435258 
-0.13416 0.0435258 -10.2129 
-9.89893 0.0718694 -0.0902488 
0.0718694 -9.96867 -0.00533074 
-0.0902488 -0.00533074 -10.1963 
-9.90341 -0.0015624 -0.0854523 
-0.0015624 -9.92338 0.0311431 
-0.0854523 0.0311431 -9.94321 
-9.93022 -0.0068409 -0.079849 
-0.0068409 -9.91216 0.018467 
-0.079849 0.018467 -9.92761 
-9.95018 -0.00968039 -0.0798793 
-0.00968039 -9.91528 0.0199615 
-0.0798793 0.0199615 -9.90453 
-9.91834 -0.0141714 -0.0723794 
-0.0141714 -9.92886 0.0357021 
-0.0723794 0.0357021 -9.92279 
-9.93467 -0.00320512 0.074176 
-0.00320512 -9.92627 -0.0190275 
0.074176 -0.0190275 -9.93059 
-9.94765 -0.00392916 0.0760338 
-0.00392916 -9.92462 -0.0161897 
0.0760338 -0.0161897 -9.91925 
-9.91529 -0.00382352 0.0826585 
-0.00382352 -9.93216 -0.023837 
0.0826585 -0.023837 -9.94407 
-9.927 -0.0111293 0.068114 
-0.0111293 -9.93062 -0.0270291 
0.068114 -0.0270291 -9.9339 
-9.93353 0.0168789 0.074913 
0.0168789 -9.99724 0.0484882 
0.074913 0.0484882 -10.0153 
-9.94664 0.0136117 0.0131193 
0.0136117 -9.95801 -0.00156181 
0.0131193 -0.00156181 -10.0414 
-9.91551 0.0345679 0.009077 
0.0345679 -9.97825 -0.0261708 
0.009077 -0.0261708 -10.0523 
-9.95873 0.0302713 0.00594737 
0.0302713 -9.96169 0.0195013 
0.00594737 0.0195013 -10.0257 
-9.97673 -0.00172718 -0.0752748 
-0.00172718 -9.97668 0.0193049 
-0.0752748 0.0193049 -9.97366 
-9.97598 -0.00215439 -0.0752935 
-0.00215439 -9.97799 0.0201661 
-0.0752935 0.0201661 -9.97311 
-9.97091 0.000623768 -0.0649605 
0.000623768 -9.96943 0.0151012 
-0.0649605 0.0151012 -9.98672 
-9.9847 -0.00394426 -0.0739012 
-0.00394426 -9.98358 0.0226302 
-0.0739012 0.0226302 -9.9588 
-10.0431 0.0114134 -0.0283846 
0.0114134 -9.92794 -0.0456941 
-0.0283846 -0.0456941 -9.67265 
-9.79648 -0.0149427 -0.04392 
-0.0149427 -9.98873 -0.0197311 
-0.04392 -0.0197311 -9.85846 
-9.99371 -0.011227 0.0935881 
-0.011227 -9.86619 -0.0430351 
0.0935881 -0.0430351 -9.78377 
-10.0016 -0.0173062 0.00833128 
-0.0173062 -9.88281 -0.0394518 
0.00833128 -0.0394518 -9.75926 
-10.906 -0.112811 -0.215529 
-0.112811 -11.2433 -0.502866 
-0.215529 -0.502866 -10.1517 
-10.4273 -0.143708 0.261342 
-0.143708 -10.9226 -0.00189188 
0.261342 -0.00189188 -10.9511 
-10.3241 0.00620377 0.303002 
0.00620377 -10.0968 0.28157 
0.303002 0.28157 -11.8801 
-10.5106 -0.402722 0.0907744 
-0.402722 -11.401 0.175569 
0.0907744 0.175569 -10.3894 
-9.91678 0.0115728 -0.035045 
0.0115728 -9.93372 -0.0441118 
-0.035045 -0.0441118 -9.94425 
-9.91235 0.0176227 -0.0462179 
0.0176227 -9.92961 -0.0479416 
-0.0462179 -0.0479416 -9.9528 
-9.92966 -0.0116438 -0.0379625 
-0.0116438 -9.92821 -0.0400532 
-0.0379625 -0.0400532 -9.93689 
-9.90679 -0.0067101 -0.0384865 
-0.0067101 -9.93892 -0.0392914 
-0.0384865 -0.0392914 -9.94905 
-9.95319 0.000862537 -0.00547103 
0.000862537 -9.9456 0.00169599 
-0.00547103 0.00169599 -10.0077 
-9.94516 0.0017621 -0.00407977 
0.0017621 -9.94219 0.00461924 
-0.00407977 0.00461924 -10.0191 
-9.95508 6.51541e-05 -0.00722517 
6.51541e-05 -9.94418 -0.00826153 
-0.00722517 -0.00826153 -10.0072 
-9.94393 -0.00609426 0.00122394 
-0.00609426 -9.95851 0.00700637 
0.00122394 0.00700637 -10.0041 
-9.96819 -0.00711924 -0.0042896 
-0.00711924 -9.97559 0.0154511 
-0.0042896 0.0154511 -9.9569 
-9.9585 0.000622403 -0.00520762 
0.000622403 -9.97305 0.0206883 
-0.00520762 0.0206883 -9.96913 
-9.9667 0.00409413 -0.00800531 
0.00409413 -9.9749 0.00245079 
-0.00800531 0.00245079 -9.95909 
-9.96892 0.00310406 -0.00478708 
0.00310406 -9.9756 0.0124247 
-0.00478708 0.0124247 -9.95617 
-9.91756 -0.013626 0.0980534 
-0.013626 -9.83477 0.0913874 
0.0980534 0.0913874 -9.92903 
-9.85601 0.0621127 0.114746 
0.0621127 -9.83076 0.0283927 
0.114746 0.0283927 -9.99459 
-9.86698 0.0728695 -0.00474373 
0.0728695 -9.86808 0.0343376 
-0.00474373 0.0343376 -9.94631 
-9.79981 0.127034 0.116939 
0.127034 -9.88173 0.0829062 
0.116939 0.0829062 -9.99984 
-9.97824 0.00957362 -0.0813333 
0.00957362 -9.9675 -0.0280167 
-0.0813333 -0.0280167 -9.93582 
-9.9673 -0.000232622 -0.0591966 
-0.000232622 -9.95562 -0.0278433 
-0.0591966 -0.0278433 -9.95864 
-9.94738 -0.000150892 -0.0725568 
-0.000150892 -9.94311 -0.0316941 
-0.0725568 -0.0316941 -9.99107 
-9.96451 0.00293455 -0.0700564 
0.00293455 -9.95835 -0.0276589 
-0.0700564 -0.0276589 -9.9587 
-9.9132 0.0271588 0.00310324 
0.0271588 -9.91707 0.0772656 
0.00310324 0.0772656 -9.94164 
-9.91931 0.0139032 -0.0199544 
0.0139032 -9.94676 0.0834786 
-0.0199544 0.0834786 -9.90585 
-9.91748 0.0342118 0.0210781 
0.0342118 -9.92322 0.055471 
0.0210781 0.055471 -9.93122 
-9.90557 -0.00027835 0.0117326 
-0.00027835 -9.9042 0.0927603 
0.0117326 0.0927603 -9.96215 
-9.86376 0.0740023 -0.0197436 
0.0740023 -9.8923 -0.00867358 
-0.0197436 -0.00867358 -9.96459 
-9.92894 0.116902 0.0365482 
0.116902 -9.85031 -0.0355521 
0.0365482 -0.0355521 -9.9414 
-9.88129 0.102277 0.0472271 
0.102277 -9.93779 0.0482808 
0.0472271 0.0482808 -9.90157 
-9.91588 0.0289168 0.114321 
0.0289168 -9.91666 -0.0156514 
0.114321 -0.0156514 -9.88811 
-9.91077 0.0518097 -0.00759552 
0.0518097 -9.8376 -0.0886822 
-0.00759552 -0.0886822 -9.95485 
-9.89467 0.0912365 0.0360408 
0.0912365 -9.82246 -0.142857 
0.0360408 -0.142857 -9.98609 
-9.86305 0.0632309 0.0191534 
0.0632309 -9.87552 -0.0864726 
0.0191534 -0.0864726 -9.96466 
-9.89342 0.038817 0.0014984 
0.038817 -9.80253 -0.106718 
0.0014984 -0.106718 -10.0073 
-9.92568 8.30082e-05 -0.0696843 
8.30082e-05 -9.90627 0.0365242 
-0.0696843 0.0365242 -9.91644 
-9.92398 0.00264858 -0.0691252 
0.00264858 -9.91381 0.0345916 
-0.0691252 0.0345916 -9.91061 
-9.91469 -0.0139845 -0.0603106 
-0.0139845 -9.90536 0.0312555 
-0.0603106 0.0312555 -9.92835 
-9.9142 -0.00773042 -0.066901 
-0.00773042 -9.90721 0.0413052 
-0.066901 0.0413052 -9.92699 
-9.88691 -0.0019821 -0.00332734 
-0.0019821 -9.84671 0.00700546 
-0.00332734 0.00700546 -9.98272 
-9.87541 -0.0490961 -0.0398802 
-0.0490961 -9.81367 0.0579363 
-0.0398802 0.0579363 -10.0273 
-9.87602 -0.064774 -0.0137739 
-0.064774 -9.90746 0.00394464 
-0.0137739 0.00394464 -9.93286 
-9.93031 -0.0421643 -0.0935156 
-0.0421643 -9.89392 0.0223064 
-0.0935156 0.0223064 -9.89211 
-9.97351 0.0012378 0.0312132 
0.0012378 -9.9816 0.0638477 
0.0312132 0.0638477 -9.98509 
-9.98235 0.000165383 0.0288783 
0.000165383 -9.97568 0.0625003 
0.0288783 0.0625003 -9.98218 
-9.98194 0.00307798 0.0288531 
0.00307798 -9.97852 0.0685337 
0.0288531 0.0685337 -9.97974 
-9.97257 -0.000963245 0.0303617 
-0.000963245 -9.99725 0.0663292 
0.0303617 0.0663292 -9.97038 
-9.98844 0.0218594 -0.0104398 
0.0218594 -10.0093 0.0150071 
-0.0104398 0.0150071 -9.99057 
-10.0168 -0.0140049 -0.000609301 
-0.0140049 -9.96572 0.00410582 
-0.000609301 0.00410582 -10.0058 
-9.99909 0.00770616 0.00328719 
0.00770616 -10.0054 0.000625041 
0.00328719 0.000625041 -9.98375 
-10.0141 -0.00455066 -0.0121058 
-0.00455066 -9.99702 0.00469479 
-0.0121058 0.00469479 -9.9772 
-10.0134 0.0215454 -0.00431385 
0.0215454 -9.96693 0.00156122 
-0.00431385 0.00156122 -10.0096 
-9.99291 -0.00228222 0.00118663 
-0.00228222 -10.0101 -0.00274017 
0.00118663 -0.00274017 -9.98689 
-9.99527 0.00226524 0.010683 
0.00226524 -10.01 0.00473272 
0.010683 0.00473272 -9.98457 
-9.99511 -0.00387831 0.00717422 
-0.00387831 -10.0062 0.00588475 
0.00717422 0.00588475 -9.9886 
-7.14447 0.0425435 1.20043 
0.0425435 -3.84141 0.146232 
1.20043 0.146232 -0.667849 
-7.27123 0.395434 0.838737 
0.395434 -4.51767 -0.200319 
0.838737 -0.200319 0.135174 
-8.30205 -0.0764788 0.454773 
-0.0764788 -5.586 1.06152 
0.454773 1.06152 2.23433 
-7.03741 0.697823 2.57717 
0.697823 -4.14682 -0.705232 
2.57717 -0.705232 -0.469499 
-9.99015 0.00115489 -0.0121499 
0.00115489 -9.98971 0.016818 
-0.0121499 0.016818 -10.0016 
-9.9916 0.00263075 -0.0135201 
0.00263075 -9.99216 0.0133213 
-0.0135201 0.0133213 -9.99769 
-9.99119 0.00230291 -0.0110165 
0.00230291 -9.99602 0.0147241 
-0.0110165 0.0147241 -9.99424 
-9.99336 0.00263282 -0.0100977 
0.00263282 -9.99455 0.0125711 
-0.0100977 0.0125711 -9.99354 
-9.82682 0.0536394 -0.242105 
0.0536394 -10.0151 -0.0185515 
-0.242105 -0.0185515 -9.31212 
-9.83834 0.384179 -0.106172 
0.384179 -10.1356 -0.327344 
-0.106172 -0.327344 -9.18008 
-9.82695 -0.0748617 -0.0173268 
-0.0748617 -9.55507 -0.302733 
-0.0173268 -0.302733 -9.77198 
-9.77118 -0.0404561 -0.143692 
-0.0404561 -9.92224 -0.219827 
-0.143692 -0.219827 -9.46059 
-9.98313 -0.00306612 0.0205106 
-0.00306612 -9.98655 0.0194089 
0.0205106 0.0194089 -9.98506 
-9.98739 -0.00452131 0.0197282 
-0.00452131 -9.98529 0.0204716 
0.0197282 0.0204716 -9.98207 
-9.98566 -0.00355166 0.0281869 
-0.00355166 -9.97987 0.0192788 
0.0281869 0.0192788 -9.98922 
-9.98504 -0.00439602 0.0227841 
-0.00439602 -9.98538 0.0184992 
0.0227841 0.0184992 -9.98432 
-9.99181 -0.000925564 -1.31333e-05 
-0.000925564 -9.99625 -0.0826363 
-1.31333e-05 -0.0826363 -9.99081 
-9.98183 0.000603057 -0.000117282 
0.000603057 -9.98149 -0.0828662 
-0.000117282 -0.0828662 -10.0155 
-9.99681 0.000274899 0.000843588 
0.000274899 -9.99653 -0.0869642 
0.000843588 -0.0869642 -9.98553 
-9.99202 0.00192893 -0.000946148 
0.00192893 -9.99751 -0.0814306 
-0.000946148 -0.0814306 -9.98934 
-9.80149 -0.0789314 0.20062 
-0.0789314 -9.87606 -0.096427 
0.20062 -0.096427 -9.90521 
-9.73477 0.0757471 0.161264 
0.0757471 -9.95427 3.80352e-05 
0.161264 3.80352e-05 -9.89372 
-9.77067 -0.0745952 0.274134 
-0.0745952 -9.93987 -0.109684 
0.274134 -0.109684 -9.87222 
-9.7931 -0.137121 0.179886 
-0.137121 -9.79931 -0.0887905 
0.179886 -0.0887905 -9.99035 
-6.78495 0.933487 1.34323 
0.933487 -9.58582 -3.03404 
1.34323 -3.03404 0.0845012 
-2.34478 -0.674814 -1.19046 
-0.674814 -4.66735 1.49306 
-1.19046 1.49306 -9.27413 
-7.91411 4.49344 -0.33595 
4.49344 -14.2327 -5.52137 
-0.33595 -5.52137 5.8606 
-6.81361 -0.903688 2.5902 
-0.903688 -1.82571 -5.85582 
2.5902 -5.85582 -7.64694 
-9.90553 0.0404462 0.0291211 
0.0404462 -9.89314 0.0468415 
0.0291211 0.0468415 -9.94885 
-9.89249 -0.0144102 0.0283928 
-0.0144102 -9.94266 0.064765 
0.0283928 0.064765 -9.91238 
-9.9077 0.00469532 0.0318704 
0.00469532 -9.91542 0.0590046 
0.0318704 0.0590046 -9.9244 
-9.92572 -0.00444562 0.051047 
-0.00444562 -9.88436 0.0658058 
0.051047 0.0658058 -9.93744 
-9.98904 0.000299494 0.0658986 
0.000299494 -9.98626 0.0355336 
0.0658986 0.0355336 -10.0063 
-9.99725 9.72187e-05 0.0702529 
9.72187e-05 -9.99407 0.0308801 
0.0702529 0.0308801 -9.99026 
-9.99752 -0.00142138 0.0669665 
-0.00142138 -9.99124 0.031759 
0.0669665 0.031759 -9.99282 
-9.99472 -0.00296332 0.0672256 
-0.00296332 -9.99252 0.0324396 
0.0672256 0.0324396 -9.99433 
-4.67119 -0.22799 -0.342793 
-0.22799 -7.14719 -0.107809 
-0.342793 -0.107809 -1.76265 
-4.6917 0.272847 0.342143 
0.272847 -7.36582 -0.0129292 
0.342143 -0.0129292 -1.5235 
-5.4328 0.185765 -0.0477399 
0.185765 -8.62852 -0.668073 
-0.0477399 -0.668073 0.480298 
-3.59212 0.016326 -0.0959138 
0.016326 -6.93033 0.230328 
-0.0959138 0.230328 -3.05857 
-10.0935 -0.457772 1.01309 
-0.457772 -10.2845 0.152897 
1.01309 0.152897 -10.4343 
-9.52266 -0.280841 -0.174126 
-0.280841 -9.72336 0.643606 
-0.174126 0.643606 -11.5663 
-9.90993 -0.559256 -0.218953 
-0.559256 -9.8742 0.0708716 
-0.218953 0.0708716 -11.0282 
-10.5539 -0.432408 -0.702474 
-0.432408 -9.60773 0.0724306 
-0.702474 0.0724306 -10.6506 
-10.0426 -0.0444676 0.0136426 
-0.0444676 -10.1535 0.000205956 
0.0136426 0.000205956 -9.99511 
-10.0814 0.0124286 -0.00107034 
0.0124286 -10.0939 0.010988 
-0.00107034 0.010988 -10.0159 
-9.99722 0.0100688 -0.00778284 
0.0100688 -10.0174 -0.0411649 
-0.00778284 -0.0411649 -10.1766 
-10.0696 0.0329999 0.0350797 
0.0329999 -10.0482 0.0581428 
0.0350797 0.0581428 -10.0735 
-9.95142 0.0319792 0.0637637 
0.0319792 -9.93757 0.0217307 
0.0637637 0.0217307 -9.91278 
-9.92041 0.0246465 0.0722055 
0.0246465 -9.91294 -0.00590137 
0.0722055 -0.00590137 -9.9684 
-9.9027 0.00884143 0.0551936 
0.00884143 -9.8885 0.00850034 
0.0551936 0.00850034 -10.0106 
-9.87532 0.0167032 0.114503 
0.0167032 -9.9286 -0.0284032 
0.114503 -0.0284032 -9.99784 
-10.0945 -0.00332998 0.0287011 
-0.00332998 -10.0911 -0.0129066 
0.0287011 -0.0129066 -10.15 
-10.0665 -0.0322375 0.0183847 
-0.0322375 -10.1096 -0.0109985 
0.0183847 -0.0109985 -10.1595 
-10.0855 -0.0117703 0.019073 
-0.0117703 -10.1046 -0.014272 
0.019073 -0.014272 -10.1455 
-10.1008 0.0115841 -0.0125033 
0.0115841 -10.1037 -0.00471271 
-0.0125033 -0.00471271 -10.1311 
-9.92847 -0.0127675 -0.000741067 
-0.0127675 -9.93973 -0.0172904 
-0.000741067 -0.0172904 -9.90116 
-9.92704 -0.00633439 0.0122292 
-0.00633439 -9.91405 -0.023559 
0.0122292 -0.023559 -9.92827 
-9.93415 -0.0118264 0.0104298 
-0.0118264 -9.9272 -0.0147239 
0.0104298 -0.0147239 -9.908 
-9.94102 -0.0103993 0.00393935 
-0.0103993 -9.9368 0.000663582 
0.00393935 0.000663582 -9.89154 
-9.98775 -0.0031891 0.0160869 
-0.0031891 -9.98056 -0.0799172 
0.0160869 -0.0799172 -9.98066 
-9.98104 0.00107936 0.0133635 
0.00107936 -9.97784 -0.0705157 
0.0133635 -0.0705157 -9.99008 
-9.98562 -0.00232149 0.0176897 
-0.00232149 -9.98086 -0.0755665 
0.0176897 -0.0755665 -9.98249 
-9.97847 -0.000506328 0.0227427 
-0.000506328 -9.9995 -0.0766118 
0.0227427 -0.0766118 -9.971 
-9.98839 0.00427489 -0.0446366 
0.00427489 -9.97946 -0.0648784 
-0.0446366 -0.0648784 -9.99337 
-9.98519 -0.00378742 -0.0478729 
-0.00378742 -9.98722 -0.0635055 
-0.0478729 -0.0635055 -9.98882 
-9.98875 0.00436639 -0.0431927 
0.00436639 -9.98428 -0.0629158 
-0.0431927 -0.0629158 -9.98819 
-9.98354 -0.00127935 -0.0483511 
-0.00127935 -9.99153 -0.0662713 
-0.0483511 -0.0662713 -9.98615 
-10.0317 0.00679892 0.00464672 
0.00679892 -10.1029 -0.010092 
0.00464672 -0.010092 -10.005 
-9.98982 -0.00726125 -0.00175909 
-0.00726125 -10.0194 0.0236895 
-0.00175909 0.0236895 -10.1302 
-10.0139 0.0323441 -0.0105406 
0.0323441 -10.1324 -0.00701068 
-0.0105406 -0.00701068 -9.99323 
-10.0506 0.0252896 0.0171096 
0.0252896 -10.04 -0.0603063 
0.0171096 -0.0603063 -10.0489 
-9.91287 -0.016838 -0.0275508 
-0.016838 -9.96964 -0.0124668 
-0.0275508 -0.0124668 -10.1488 
-9.89609 -0.0116255 0.0173115 
-0.0116255 -9.9168 -0.0321371 
0.0173115 -0.0321371 -10.2184 
-9.8586 -0.0175488 0.0194883 
-0.0175488 -9.94923 -0.0131685 
0.0194883 -0.0131685 -10.2235 
-9.92256 -0.00492823 0.0401989 
-0.00492823 -9.91335 -0.00472986 
0.0401989 -0.00472986 -10.1954 
-9.94427 0.00259256 -0.0447796 
0.00259256 -9.94005 0.0295204 
-0.0447796 0.0295204 -9.95561 
-9.95413 0.0155193 -0.0511393 
0.0155193 -9.93788 0.0397454 
-0.0511393 0.0397454 -9.94791 
-9.94919 0.00615082 -0.0410399 
0.00615082 -9.94359 0.0478739 
-0.0410399 0.0478739 -9.94714 
-9.9503 0.013526 -0.0287603 
0.013526 -9.94523 0.0474411 
-0.0287603 0.0474411 -9.9444 
-9.94767 0.00698866 -0.0374633 
0.00698866 -9.94857 0.0465743 
-0.0374633 0.0465743 -9.95848 
-9.94905 0.0015252 -0.0371523 
0.0015252 -9.95212 0.0429584 
-0.0371523 0.0429584 -9.95356 
-9.9459 0.00418907 -0.0364527 
0.00418907 -9.95276 0.0435614 
-0.0364527 0.0435614 -9.95606 
-9.94386 0.00714706 -0.0373027 
0.00714706 -9.9499 0.0443259 
-0.0373027 0.0443259 -9.96097 
-9.53061 0.846498 0.785398 
0.846498 -10.1806 0.699543 
0.785398 0.699543 -11.1655 
-8.8754 0.914754 1.24793 
0.914754 -10.3426 0.672931 
1.24793 0.672931 -11.6588 
-10.4798 0.538973 0.923307 
0.538973 -11.4247 -0.123029 
0.923307 -0.123029 -8.97225 
-9.62748 0.665483 0.369879 
0.665483 -9.84113 0.343262 
0.369879 0.343262 -11.4081 
-9.93576 0.0205574 -0.0463358 
0.0205574 -9.8315 0.0195124 
-0.0463358 0.0195124 -10.1091 
-9.92449 0.101706 -0.0355424 
0.101706 -9.80125 0.0522036 
-0.0355424 0.0522036 -10.1506 
-9.94701 0.104863 -0.0420609 
0.104863 -9.8084 0.0317121 
-0.0420609 0.0317121 -10.1209 
-9.85885 0.130781 -0.0464785 
0.130781 -9.86006 0.053262 
-0.0464785 0.053262 -10.1574 
-10.8415 -0.219264 -0.849379 
-0.219264 -12.6054 0.0883627 
-0.849379 0.0883627 -13.4698 
-12.5916 0.723212 -0.663439 
0.723212 -13.3095 -0.611767 
-0.663439 -0.611767 -11.0157 
-10.4313 0.197905 -1.39396 
0.197905 -11.4323 -0.371014 
-1.39396 -0.371014 -15.0531 
-11.2321 0.417371 0.202692 
0.417371 -12.2392 0.640584 
0.202692 0.640584 -13.4454 
-9.99249 0.00202046 0.0124831 
0.00202046 -9.99488 0.00739758 
0.0124831 0.00739758 -9.99461 
-9.99348 0.00130781 0.0123645 
0.00130781 -9.99459 0.00708067 
0.0123645 0.00708067 -9.99392 
-9.98554 0.00107999 0.0100748 
0.00107999 -9.99252 0.00330769 
0.0100748 0.00330769 -10.0039 
-9.99671 0.000326885 0.0123791 
0.000326885 -9.99448 0.00883168 
0.0123791 0.00883168 -9.9908 
-9.90823 -0.013025 -0.051594 
-0.013025 -9.88827 0.0226971 
-0.051594 0.0226971 -9.91985 
-9.88708 -0.020002 -0.033674 
-0.020002 -9.89161 0.0273144 
-0.033674 0.0273144 -9.93766 
-9.94006 -0.013315 -0.0416062 
-0.013315 -9.87805 0.0428045 
-0.0416062 0.0428045 -9.89824 
-9.89488 -0.0191522 -0.0543421 
-0.0191522 -9.89039 0.0242434 
-0.0543421 0.0242434 -9.93109 
-12.04 -1.30886 -0.385094 
-1.30886 -11.2948 1.07456 
-0.385094 1.07456 -9.27521 
-9.24499 -0.595007 -0.865967 
-0.595007 -11.0304 -0.131063 
-0.865967 -0.131063 -12.3345 
-8.87596 -0.724909 -1.37273 
-0.724909 -9.46073 0.447338 
-1.37273 0.447338 -14.2732 
-9.92324 -0.240114 0.871203 
-0.240114 -10.6152 -1.39275 
0.871203 -1.39275 -12.0715 
-9.88986 -0.0129468 0.0651764 
-0.0129468 -9.89738 -0.0386457 
0.0651764 -0.0386457 -9.91086 
-9.88757 -0.00818647 0.0661123 
-0.00818647 -9.90021 -0.033723 
0.0661123 -0.033723 -9.91032 
-9.88912 -0.0220322 0.0640386 
-0.0220322 -9.89105 -0.03076 
0.0640386 -0.03076 -9.91793 
-9.88804 -0.0137565 0.0681558 
-0.0137565 -9.89915 -0.0400528 
0.0681558 -0.0400528 -9.91091 
-10.2197 -0.866842 0.199436 
-0.866842 -11.5987 -0.337047 
0.199436 -0.337047 -10.585 
-10.3546 0.566653 0.0753568 
0.566653 -9.12263 0.84209 
0.0753568 0.84209 -12.9261 
-9.946 -1.44667 -0.0454182 
-1.44667 -9.15889 0.556147 
-0.0454182 0.556147 -13.2985 
-10.7024 -1.13979 -0.479828 
-1.13979 -9.5061 -0.593437 
-0.479828 -0.593437 -12.1949 
-9.98209 -0.0265265 0.0184803 
-0.0265265 -9.94951 -0.00708295 
0.0184803 -0.00708295 -9.99419 
-9.93471 -0.0165612 0.02393 
-0.0165612 -9.97127 0.00545998 
0.02393 0.00545998 -10.0198 
-9.90536 -0.015037 0.00854606 
-0.015037 -9.9711 0.015783 
0.00854606 0.015783 -10.0493 
-9.96727 0.0175472 0.0411656 
0.0175472 -9.93789 0.0059021 
0.0411656 0.0059021 -10.0206 
-9.99591 0.00173341 0.0218094 
0.00173341 -9.99979 -0.0584131 
0.0218094 -0.0584131 -9.98834 
-9.99349 0.00430843 0.0210035 
0.00430843 -10 -0.0589511 
0.0210035 -0.0589511 -9.99054 
-9.98557 0.00244331 0.0157591 
0.00244331 -9.98663 -0.0570735 
0.0157591 -0.0570735 -10.0118 
-9.99881 0.000232312 0.0223634 
0.000232312 -9.99927 -0.0638434 
0.0223634 -0.0638434 -9.98595 
-9.98243 -0.00154435 0.00734649 
-0.00154435 -9.98666 0.00400468 
0.00734649 0.00400468 -9.99866 
-9.98813 -0.000483908 0.00432839 
-0.000483908 -9.9844 0.00394501 
0.00432839 0.00394501 -9.99522 
-9.98934 -0.000842003 0.00425926 
-0.000842003 -9.9831 0.0033155 
0.00425926 0.0033155 -9.99532 
-9.98447 0.000388879 0.00247496 
0.000388879 -9.98938 0.000648563 
0.00247496 0.000648563 -9.9939 
-9.26438 0.0860713 -0.179394 
0.0860713 -10.0135 -0.0288842 
-0.179394 -0.0288842 -10.1489 
-9.68021 -0.128951 -0.26828 
-0.128951 -9.99908 -0.0704123 
-0.26828 -0.0704123 -9.74746 
-9.31876 0.00530233 -0.139293 
0.00530233 -10.0714 -0.0151235 
-0.139293 -0.0151235 -10.0366 
-9.49287 0.00310668 -0.253808 
0.00310668 -10.1048 0.102939 
-0.253808 0.102939 -9.82905 
-9.93698 0.0124712 -0.0274339 
0.0124712 -9.98574 -0.0140902 
-0.0274339 -0.0140902 -10.0251 
-10.014 -0.000920654 -0.00045322 
-0.000920654 -9.98068 0.0252163 
-0.00045322 0.0252163 -9.95314 
-10.016 -0.00556439 0.00720213 
-0.00556439 -9.9502 -0.0130055 
0.00720213 -0.0130055 -9.98161 
-9.97451 0.00734195 0.0149628 
0.00734195 -9.95955 -0.0175136 
0.0149628 -0.0175136 -10.0138 
-9.99701 0.00249372 -0.077576 
0.00249372 -9.99073 -0.00103694 
-0.077576 -0.00103694 -9.99156 
-9.98127 -0.00132966 -0.0783188 
-0.00132966 -9.98177 -0.00060432 
-0.0783188 -0.00060432 -10.0163 
-9.9967 -0.000388111 -0.0826325 
-0.000388111 -9.99753 -0.000719617 
-0.0826325 -0.000719617 -9.98507 
-9.9959 -0.00036853 -0.077184 
-0.00036853 -9.99408 -0.000191295 
-0.077184 -0.000191295 -9.98932 
-9.99523 0.00138993 -0.0291189 
0.00138993 -9.98989 0.0572595 
-0.0291189 0.0572595 -9.99777 
-9.99493 0.00133472 -0.0279428 
0.00133472 -9.99556 0.0572968 
-0.0279428 0.0572968 -9.9924 
-9.99088 0.00184624 -0.0254696 
0.00184624 -9.98987 0.0550171 
-0.0254696 0.0550171 -10.0021 
-9.99579 -0.000137629 -0.0290218 
-0.000137629 -9.99678 0.0569554 
-0.0290218 0.0569554 -9.99032 
-9.90998 -0.0170978 -0.00848176 
-0.0170978 -9.90246 -0.0338752 
-0.00848176 -0.0338752 -10.0254 
-9.90814 -0.0117987 -0.0208287 
-0.0117987 -9.89059 -0.0269641 
-0.0208287 -0.0269641 -10.0391 
-9.90451 -0.0132998 -0.00741552 
-0.0132998 -9.90229 -0.0280174 
-0.00741552 -0.0280174 -10.031 
-9.91177 -0.00609824 0.00876058 
-0.00609824 -9.9106 0.0128517 
0.00876058 0.0128517 -10.0154 
-9.99254 -0.000856214 -0.0257623 
-0.000856214 -10.0025 -0.0469636 
-0.0257623 -0.0469636 -9.9895 
-9.98466 0.00148708 -0.0184834 
0.00148708 -9.99096 -0.0475277 
-0.0184834 -0.0475277 -10.0089 
-9.99305 -0.00569333 -0.024723 
-0.00569333 -9.99841 -0.0471228 
-0.024723 -0.0471228 -9.99307 
-9.99472 0.000659125 -0.0268681 
0.000659125 -10.0006 -0.0423651 
-0.0268681 -0.0423651 -9.98918 
-9.93574 -0.0109978 -0.018375 
-0.0109978 -9.97605 0.0660958 
-0.018375 0.0660958 -9.90044 
-9.94362 -0.00368163 -0.0182453 
-0.00368163 -9.93569 0.037115 
-0.0182453 0.037115 -9.93293 
-9.95861 0.0122569 -0.0217592 
0.0122569 -9.96073 0.0286158 
-0.0217592 0.0286158 -9.89289 
-9.96973 -0.0158475 0.00387206 
-0.0158475 -9.8756 0.0246778 
0.00387206 0.0246778 -9.96691 
-10.1158 0.043043 -0.0586605 
0.043043 -10.1633 0.019737 
-0.0586605 0.019737 -10.3042 
-10.2141 -0.0489872 -0.0376201 
-0.0489872 -10.2427 0.00935338 
-0.0376201 0.00935338 -10.1266 
-10.1155 -0.0245101 -0.048557 
-0.0245101 -10.2563 0.000216556 
-0.048557 0.000216556 -10.2116 
-10.1405 -0.0195352 -0.0147375 
-0.0195352 -10.2085 -0.011108 
-0.0147375 -0.011108 -10.2344 
-9.93367 0.00707061 -0.0154701 
0.00707061 -9.95182 -0.00620643 
-0.0154701 -0.00620643 -9.83179 
-9.90532 -0.00863536 -0.00700194 
-0.00863536 -9.96046 -0.00640528 
-0.00700194 -0.00640528 -9.85151 
-9.91957 0.0320323 -0.0333812 
0.0320323 -9.91702 0.00527311 
-0.0333812 0.00527311 -9.8807 
-9.9231 -0.0071206 -0.0122042 
-0.0071206 -9.94132 0.0151997 
-0.0122042 0.0151997 -9.85287 
-9.92372 -0.0205452 -0.0265856 
-0.0205452 -9.93069 0.0261463 
-0.0265856 0.0261463 -9.97239 
-9.92278 -0.0125725 -0.0111733 
-0.0125725 -9.93555 0.0185824 
-0.0111733 0.0185824 -9.96848 
-9.93343 0.0223882 -0.00118182 
0.0223882 -9.94076 0.00946898 
-0.00118182 0.00946898 -9.95262 
-9.89942 -0.00302363 -0.0217334 
-0.00302363 -9.94923 0.00757085 
-0.0217334 0.00757085 -9.97815 
-9.97321 0.00370592 0.00400162 
0.00370592 -9.97023 0.0184404 
0.00400162 0.0184404 -10.0233 
-9.97544 0.00176577 0.00299286 
0.00176577 -9.98059 0.0152946 
0.00299286 0.0152946 -10.0107 
-9.97169 0.00288124 -0.00111371 
0.00288124 -9.96101 0.00971517 
-0.00111371 0.00971517 -10.034 
-9.97736 0.016081 0.00168712 
0.016081 -9.98678 0.0111047 
0.00168712 0.0111047 -10.0026 
-11.1917 -0.112537 0.154831 
-0.112537 -10.8342 0.0347475 
0.154831 0.0347475 -12.4638 
-11.8664 -0.145125 -0.21627 
-0.145125 -11.4143 0.333597 
-0.21627 0.333597 -11.2092 
-10.4277 -0.319459 0.180645 
-0.319459 -10.1779 0.696015 
0.180645 0.696015 -13.8843 
-11.4279 -0.256972 -0.518387 
-0.256972 -11.1075 -0.47498 
-0.518387 -0.47498 -11.9544 
-9.69016 -1.24222 -0.114842 
-1.24222 -9.88133 0.0531467 
-0.114842 0.0531467 -13.7764 
-10.7906 -0.455127 -0.303991 
-0.455127 -11.6638 0.0249618 
-0.303991 0.0249618 -10.8936 
-11.1067 -0.0645538 0.0793674 
-0.0645538 -9.47602 -0.0393204 
0.0793674 -0.0393204 -12.7653 
-10.7466 -1.3841 0.150049 
-1.3841 -10.8236 1.31506 
0.150049 1.31506 -11.7778 
-9.90819 0.0112066 -0.00354468 
0.0112066 -9.88997 0.0396317 
-0.00354468 0.0396317 -9.97914 
-9.87658 0.028076 0.0238677 
0.028076 -9.91206 0.0412413 
0.0238677 0.0412413 -9.98865 
-9.90153 0.0252203 0.0287597 
0.0252203 -9.9046 0.0360692 
0.0287597 0.0360692 -9.97117 
-9.9137 0.014468 0.0610379 
0.014468 -9.92951 0.0259371 
0.0610379 0.0259371 -9.93409 
-9.83622 0.0285248 0.285161 
0.0285248 -9.79553 0.00608701 
0.285161 0.00608701 -9.97714 
-9.87893 0.0327362 0.257917 
0.0327362 -9.77652 0.033871 
0.257917 0.033871 -9.95344 
-9.86575 0.101295 0.293989 
0.101295 -9.76042 -0.058589 
0.293989 -0.058589 -9.98272 
-9.78381 0.050457 0.291749 
0.050457 -9.79543 0.01847 
0.291749 0.01847 -10.0296 
-10.1173 -0.00182401 0.0119186 
-0.00182401 -10.1261 0.00358455 
0.0119186 0.00358455 -10.1022 
-10.0987 -0.00117829 0.0137241 
-0.00117829 -10.1062 -0.00778709 
0.0137241 -0.00778709 -10.1407 
-10.0988 0.00191006 0.0102387 
0.00191006 -10.1042 -0.019169 
0.0102387 -0.019169 -10.1426 
-10.106 -0.00693893 0.00316931 
-0.00693893 -10.1026 -0.00307016 
0.00316931 -0.00307016 -10.137 
-11.0415 1.46048 -2.72649 
1.46048 -6.2708 -2.09719 
-2.72649 -2.09719 1.48911 
-5.26981 -0.49324 -0.148261 
-0.49324 -2.37748 0.60158 
-0.148261 0.60158 -8.1759 
-9.8651 0.136682 -2.35323 
0.136682 -5.71336 -0.247912 
-2.35323 -0.247912 -0.244721 
-4.00661 1.73903 -6.53845 
1.73903 -7.1885 1.23165 
-6.53845 1.23165 -4.62808 
-9.99427 0.00106637 -0.00062841 
0.00106637 -9.9984 -0.00377765 
-0.00062841 -0.00377765 -9.99919 
-9.9954 -0.00297324 0.000415448 
-0.00297324 -10.003 0.0043921 
0.000415448 0.0043921 -9.99349 
-9.99265 -0.00462809 -0.00824213 
-0.00462809 -10.002 -0.00101137 
-0.00824213 -0.00101137 -9.99717 
-9.99438 -0.00533185 -3.01433e-05 
-0.00533185 -10.001 -0.00300367 
-3.01433e-05 -0.00300367 -9.99644 
-9.90454 0.0292478 0.00159353 
0.0292478 -9.92249 0.0149669 
0.00159353 0.0149669 -9.99515 
-9.90696 0.0347873 0.0272145 
0.0347873 -9.90214 0.0382012 
0.0272145 0.0382012 -10.0131 
-9.88179 0.0212235 0.0204861 
0.0212235 -9.90812 0.0467539 
0.0204861 0.0467539 -10.0323 
-9.92379 -0.0453475 0.0513585 
-0.0453475 -9.93987 0.0481031 
0.0513585 0.0481031 -9.95852 
-9.99635 -7.69536e-05 0.00976535 
-7.69536e-05 -9.99569 0.0255727 
0.00976535 0.0255727 -9.98751 
-9.98983 0.00231174 0.012541 
0.00231174 -9.98695 0.0216584 
0.012541 0.0216584 -10.0028 
-9.99318 0.000257116 0.00564969 
0.000257116 -9.98544 0.023696 
0.00564969 0.023696 -10.0009 
-9.99425 -0.00104964 0.0084997 
-0.00104964 -9.99873 0.0223484 
0.0084997 0.0223484 -9.98657 
-9.99072 0.00226685 -0.000744095 
0.00226685 -9.9948 0.077492 
-0.000744095 0.077492 -9.99324 
-9.99531 -0.00108837 -0.000881667 
-0.00108837 -9.99561 0.0804861 
-0.000881667 0.0804861 -9.98784 
-9.98383 0.000617967 -0.000687282 
0.000617967 -9.98354 0.0774079 
-0.000687282 0.0774079 -10.0114 
-9.99166 -0.000594338 -0.00116088 
-0.000594338 -9.99651 0.0763626 
-0.00116088 0.0763626 -9.99059 
-9.99302 0.00413253 0.0328445 
0.00413253 -9.99594 -0.036091 
0.0328445 -0.036091 -9.99333 
-9.99194 0.00374528 0.0286739 
0.00374528 -9.98943 -0.0337172 
0.0286739 -0.0337172 -10.0009 
-9.9958 0.00196802 0.0330401 
0.00196802 -9.98896 -0.0357374 
0.0330401 -0.0357374 -9.99754 
-9.99617 0.00151384 0.0322026 
0.00151384 -9.99587 -0.0375146 
0.0322026 -0.0375146 -9.99025 
-9.98026 -0.000997256 -0.0333854 
-0.000997256 -9.98163 -0.0320797 
-0.0333854 -0.0320797 -9.98067 
-9.98085 -0.00453009 -0.0304287 
-0.00453009 -9.98301 -0.036777 
-0.0304287 -0.036777 -9.9787 
-9.97531 -0.00416242 -0.0324474 
-0.00416242 -9.98364 -0.0386261 
-0.0324474 -0.0386261 -9.98361 
-9.98366 -0.00334478 -0.0349057 
-0.00334478 -9.98209 -0.0321287 
-0.0349057 -0.0321287 -9.97681 
-9.95184 0.00325858 0.0756123 
0.00325858 -9.9488 0.0257452 
0.0756123 0.0257452 -9.94677 
-9.95329 0.000891968 0.0773895 
0.000891968 -9.94829 0.0218232 
0.0773895 0.0218232 -9.94584 
-9.94103 0.00801086 0.0769439 
0.00801086 -9.94913 0.0254011 
0.0769439 0.0254011 -9.95725 
-9.95134 0.000866942 0.0730719 
0.000866942 -9.94674 0.019291 
0.0730719 0.019291 -9.94933 
-10.4238 0.11009 0.150219 
0.11009 -10.3855 0.0467557 
0.150219 0.0467557 -10.4302 
-10.6024 -0.0154257 0.00792439 
-0.0154257 -10.4916 0.0793083 
0.00792439 0.0793083 -10.1455 
-10.0263 -0.0567568 0.0814729 
-0.0567568 -10.1009 -0.135185 
0.0814729 -0.135185 -11.1124 
-10.5365 0.109188 0.324258 
0.109188 -10.4147 0.148673 
0.324258 0.148673 -10.2884 
-9.99584 0.000687943 0.0757427 
0.000687943 -9.99148 0.00117255 
0.0757427 0.00117255 -9.99039 
-9.98315 -8.05543e-05 0.0769753 
-8.05543e-05 -9.98362 0.000642485 
0.0769753 0.000642485 -10.0109 
-9.99512 0.00147301 0.0799526 
0.00147301 -9.99517 0.000475906 
0.0799526 0.000475906 -9.98743 
-9.99392 -0.00181969 0.0774508 
-0.00181969 -9.99015 0.000927847 
0.0774508 0.000927847 -9.99365 
-9.65221 -0.0626127 -0.279968 
-0.0626127 -10.0855 -0.563365 
-0.279968 -0.563365 -9.7048 
-9.90504 -0.181523 -0.285872 
-0.181523 -10.0116 -0.0753695 
-0.285872 -0.0753695 -9.52579 
-9.91742 0.0465929 -0.196612 
0.0465929 -9.82069 0.112617 
-0.196612 0.112617 -9.70437 
-9.94307 -0.154994 -0.331464 
-0.154994 -10.15 0.13628 
-0.331464 0.13628 -9.34944 
-9.94099 -0.00481897 -0.0015986 
-0.00481897 -9.91907 0.0232451 
-0.0015986 0.0232451 -9.93579 
-9.92514 -0.00638908 -0.0102155 
-0.00638908 -9.95054 0.00998191 
-0.0102155 0.00998191 -9.92017 
-9.94175 -0.0183297 -0.0121517 
-0.0183297 -9.93879 0.0279547 
-0.0121517 0.0279547 -9.91531 
-9.93122 -0.0105848 -0.0061614 
-0.0105848 -9.93436 0.0224157 
-0.0061614 0.0224157 -9.93027 
-9.97974 -0.00603038 -0.0413586 
-0.00603038 -9.98038 0.037708 
-0.0413586 0.037708 -9.9926 
-9.98496 0.00240084 -0.0447937 
0.00240084 -9.98446 0.0411778 
-0.0447937 0.0411778 -9.9833 
-9.98495 0.00610447 -0.0425651 
0.00610447 -9.98345 0.0392903 
-0.0425651 0.0392903 -9.98433 
-9.98347 0.00133085 -0.0462875 
0.00133085 -9.98519 0.0378709 
-0.0462875 0.0378709 -9.98406 
-9.98524 0.000240538 0.0739234 
0.000240538 -9.98464 0.0285285 
0.0739234 0.0285285 -9.98222 
-9.98002 0.00780547 0.0701236 
0.00780547 -9.98228 0.0305534 
0.0701236 0.0305534 -9.98981 
-9.98464 0.00165518 0.071545 
0.00165518 -9.98386 0.0297301 
0.071545 0.0297301 -9.98361 
-9.9853 -0.000603855 0.0727569 
-0.000603855 -9.98223 0.0284233 
0.0727569 0.0284233 -9.98457 
-9.97698 -0.000242744 -0.0856747 
-0.000242744 -9.95937 -0.00930388 
-0.0856747 -0.00930388 -9.95265 
-9.94342 -0.000885185 -0.0838862 
-0.000885185 -9.96702 -0.0135955 
-0.0838862 -0.0135955 -9.97856 
-9.96362 -9.90374e-05 -0.0795178 
-9.90374e-05 -9.96446 -0.00751431 
-0.0795178 -0.00751431 -9.96092 
-9.96843 -0.00178657 -0.0695113 
-0.00178657 -9.96167 -0.00767763 
-0.0695113 -0.00767763 -9.9589 
-9.8953 0.091543 0.0243242 
0.091543 -9.80412 -0.111916 
0.0243242 -0.111916 -10.0094 
-9.8176 0.052822 -0.0189604 
0.052822 -9.91265 -0.110821 
-0.0189604 -0.110821 -9.97857 
-9.90226 0.116738 0.0242699 
0.116738 -9.79176 -0.147166 
0.0242699 -0.147166 -10.0148 
-9.88645 0.0716687 0.0449049 
0.0716687 -9.79034 -0.0949263 
0.0449049 -0.0949263 -10.032 
-9.9797 0.00585645 0.00360254 
0.00585645 -9.98895 -0.00436219 
0.00360254 -0.00436219 -9.98816 
-9.98167 0.0065934 -0.00471447 
0.0065934 -9.98579 -0.00107277 
-0.00471447 -0.00107277 -9.98935 
-9.98128 0.00715877 -0.00118036 
0.00715877 -9.98297 -0.000550542 
-0.00118036 -0.000550542 -9.99256 
-9.97776 0.00122923 -0.00371246 
0.00122923 -9.98706 -0.00493066 
-0.00371246 -0.00493066 -9.99199 
-5.66754 2.06749 -0.328555 
2.06749 -8.32657 0.108361 
-0.328555 0.108361 0.499247 
-6.15136 -0.327789 -0.531516 
-0.327789 -4.45008 -0.555647 
-0.531516 -0.555647 -2.89341 
-9.02604 -1.14909 -0.405829 
-1.14909 -7.84789 0.148397 
-0.405829 0.148397 3.37907 
-6.3069 -1.03008 0.596623 
-1.03008 -5.38403 -1.61663 
0.596623 -1.61663 -1.80393 
-9.93904 0.000913414 0.00713041 
0.000913414 -10.0021 -0.0510864 
0.00713041 -0.0510864 -10.0047 
-9.9888 -0.0311122 -0.0285283 
-0.0311122 -9.97013 0.0526879 
-0.0285283 0.0526879 -9.98689 
-10.0069 -0.02085 0.00942031 
-0.02085 -9.96279 -0.0330257 
0.00942031 -0.0330257 -9.97617 
-9.96214 -0.00933873 0.0243164 
-0.00933873 -9.92912 0.0132796 
0.0243164 0.0132796 -10.0546 
-9.9301 0.00135737 0.0540439 
0.00135737 -9.90652 0.0697078 
0.0540439 0.0697078 -9.94004 
-9.91626 0.00701157 0.0495679 
0.00701157 -9.92204 0.066608 
0.0495679 0.066608 -9.93835 
-9.92357 -0.00909373 0.0381268 
-0.00909373 -9.91372 0.0617862 
0.0381268 0.0617862 -9.93936 
-9.95178 0.0105953 0.052605 
0.0105953 -9.89021 0.0787143 
0.052605 0.0787143 -9.93467 
-9.96523 0.00533953 -0.03651 
0.00533953 -9.97502 0.0716927 
-0.03651 0.0716927 -9.94832 
-9.95239 -0.00459388 -0.0386085 
-0.00459388 -9.95008 0.0719472 
-0.0386085 0.0719472 -9.98609 
-9.96239 -0.00197808 -0.0284586 
-0.00197808 -9.9635 0.0705012 
-0.0284586 0.0705012 -9.96268 
-9.96376 0.000928327 -0.0222794 
0.000928327 -9.96082 0.0595479 
-0.0222794 0.0595479 -9.96399 
-9.93529 0.010102 -0.00700082 
0.010102 -9.92982 0.0334833 
-0.00700082 0.0334833 -9.95517 
-9.91962 0.0157313 0.00587225 
0.0157313 -9.91904 0.0357687 
0.00587225 0.0357687 -9.98162 
-9.911 0.00284383 0.000986246 
0.00284383 -9.93288 0.0688336 
0.000986246 0.0688336 -9.9764 
-9.92672 0.0196302 -0.00754605 
0.0196302 -9.91322 0.0353321 
-0.00754605 0.0353321 -9.98034 
-9.94952 -0.0847243 -0.000885287 
-0.0847243 -9.82184 -0.0366907 
-0.000885287 -0.0366907 -10.0411 
-9.94217 -0.0295872 0.0195129 
-0.0295872 -9.90171 -0.0562123 
0.0195129 -0.0562123 -9.96858 
-9.86647 0.0305807 0.0314157 
0.0305807 -10.0185 -0.00842277 
0.0314157 -0.00842277 -9.92747 
-9.95028 0.0203677 0.0151343 
0.0203677 -9.88171 -0.0742422 
0.0151343 -0.0742422 -9.98046 
-9.96197 -0.015955 6.74667e-06 
-0.015955 -10.0075 0.00639478 
6.74667e-06 0.00639478 -9.99775 
-9.96494 -0.0266465 0.0411762 
-0.0266465 -9.99547 -0.0222961 
0.0411762 -0.0222961 -10.0068 
-10.0089 0.0216863 -0.0265234 
0.0216863 -9.97459 0.0158915 
-0.0265234 0.0158915 -9.98364 
-9.95058 -0.00106511 0.0123417 
-0.00106511 -9.99939 0.0153433 
0.0123417 0.0153433 -10.0172 
-7.34455 -0.951765 -1.69337 
-0.951765 -8.61565 0.110039 
-1.69337 0.110039 2.81134 
-3.70926 -0.0626991 -0.0381588 
-0.0626991 -5.71559 0.285424 
-0.0381588 0.285424 -3.72402 
-8.73717 3.12133 -1.85397 
3.12133 -4.92536 0.452627 
-1.85397 0.452627 0.513664 
-5.577 -0.859698 0.964275 
-0.859698 -5.99464 -0.794362 
0.964275 -0.794362 -1.57722 
-9.99598 0.000703354 -0.030971 
0.000703354 -9.99799 0.0698726 
-0.030971 0.0698726 -9.99095 
-9.99192 0.00132246 -0.0327811 
0.00132246 -9.99836 0.0679337 
-0.0327811 0.0679337 -9.99464 
-9.99029 0.000518656 -0.0357974 
0.000518656 -9.99246 0.0656986 
-0.0357974 0.0656986 -10.0022 
-9.994 0.00243651 -0.0321623 
0.00243651 -9.99711 0.0672736 
-0.0321623 0.0672736 -9.9938 
-9.98245 -0.00451399 0.00734444 
-0.00451399 -9.9886 -0.0033548 
0.00734444 -0.0033548 -9.97966 
-9.98276 -0.00547612 0.00458587 
-0.00547612 -9.98795 -0.00261804 
0.00458587 -0.00261804 -9.98 
-9.98504 -0.00616497 0.00808119 
-0.00616497 -9.99067 -0.000102276 
0.00808119 -0.000102276 -9.97499 
-9.98117 0.00368487 0.00660961 
0.00368487 -9.9871 5.15886e-06 
0.00660961 5.15886e-06 -9.98244 
-9.89083 0.001666 -0.0876209 
0.001666 -9.90625 -0.00166528 
-0.0876209 -0.00166528 -9.89466 
-9.88162 0.00511918 -0.0900529 
0.00511918 -9.90297 -0.0121132 
-0.0900529 -0.0121132 -9.90715 
-9.88325 0.00155512 -0.0926684 
0.00155512 -9.89998 -0.00641748 
-0.0926684 -0.00641748 -9.90851 
-9.88968 0.00310455 -0.0881936 
0.00310455 -9.89788 -0.0072734 
-0.0881936 -0.0072734 -9.90418 
-10.079 0.0171929 0.00991258 
0.0171929 -10.1104 0.0126328 
0.00991258 0.0126328 -10.2295 
-10.225 -0.0122836 -0.0387209 
-0.0122836 -10.1704 0.00909707 
-0.0387209 0.00909707 -10.0235 
-10.1106 -0.0178486 -0.0350972 
-0.0178486 -10.1348 0.00552481 
-0.0350972 0.00552481 -10.1735 
-10.0865 -0.0117613 -0.0825688 
-0.0117613 -10.1482 -0.0121066 
-0.0825688 -0.0121066 -10.1842 
-9.9386 0.0370594 0.0111141 
0.0370594 -9.9216 -0.0349094 
0.0111141 -0.0349094 -9.87982 
-9.90693 0.0526577 0.00907012 
0.0526577 -9.91695 -0.0559956 
0.00907012 -0.0559956 -9.91612 
-9.94296 0.0548734 0.00125719 
0.0548734 -9.90814 -0.046561 
0.00125719 -0.046561 -9.88891 
-9.96173 0.0496798 0.0222919 
0.0496798 -9.90045 -0.0440019 
0.0222919 -0.0440019 -9.87783 
-9.91994 -0.0172571 0.0511819 
-0.0172571 -9.90519 -0.0691947 
0.0511819 -0.0691947 -9.94941 
-9.91301 0.00124877 0.0384732 
0.00124877 -9.9452 -0.0573257 
0.0384732 -0.0573257 -9.91632 
-9.91207 0.0158024 0.0319407 
0.0158024 -9.94326 -0.0556653 
0.0319407 -0.0556653 -9.9192 
-9.90357 -0.0107602 0.0474398 
-0.0107602 -9.9297 -0.043613 
0.0474398 -0.043613 -9.94127 
-9.98883 -0.00341918 -0.0641908 
-0.00341918 -9.98546 0.0446186 
-0.0641908 0.0446186 -9.98319 
-9.98713 0.00213287 -0.0654047 
0.00213287 -9.98321 0.0431212 
-0.0654047 0.0431212 -9.98714 
-9.98497 -0.0075803 -0.0658943 
-0.0075803 -9.98011 0.0422005 
-0.0658943 0.0422005 -9.9924 
-9.98607 0.00131315 -0.0656232 
0.00131315 -9.9861 0.0434385 
-0.0656232 0.0434385 -9.9853 
-9.9794 -0.00527833 0.000602068 
-0.00527833 -9.99006 0.00503692 
0.000602068 0.00503692 -9.9921 
-9.99184 0.00146907 -0.00238375 
0.00146907 -9.98415 -0.00115926 
-0.00238375 -0.00115926 -9.98556 
-9.99335 0.000233644 0.00136517 
0.000233644 -9.98453 -0.00482396 
0.00136517 -0.00482396 -9.98367 
-9.9886 -0.00081327 -0.00178284 
-0.00081327 -9.9854 -0.00103135 
-0.00178284 -0.00103135 -9.98755 
-9.99026 -0.000566354 0.00647482 
-0.000566354 -9.98821 0.00332186 
0.00647482 0.00332186 -9.99969 
-9.99169 -0.000995711 0.00428281 
-0.000995711 -9.9903 0.0017587 
0.00428281 0.0017587 -9.99617 
-9.9916 -0.000493875 0.00590306 
-0.000493875 -9.98943 0.000822338 
0.00590306 0.000822338 -9.99712 
-9.99293 -0.000172354 0.00380654 
-0.000172354 -9.99075 0.00136603 
0.00380654 0.00136603 -9.99448 
-9.94099 -0.00331872 0.0255966 
-0.00331872 -9.9467 -0.0837846 
0.0255966 -0.0837846 -9.93936 
-9.94053 -0.0103055 0.0265553 
-0.0103055 -9.93619 -0.0828074 
0.0265553 -0.0828074 -9.95033 
-9.93934 -0.00380735 0.0256724 
-0.00380735 -9.94532 -0.0824743 
0.0256724 -0.0824743 -9.94238 
-9.93968 -0.00190496 0.0234197 
-0.00190496 -9.94517 -0.0812339 
0.0234197 -0.0812339 -9.94221 
-10.1637 -0.211111 0.265009 
-0.211111 -10.4212 0.105302 
0.265009 0.105302 -9.90771 
-10.0479 0.0551917 0.145871 
0.0551917 -10.2514 0.0466015 
0.145871 0.0466015 -10.1934 
-10.0888 0.0570184 -0.000838731 
0.0570184 -9.98774 -0.100352 
-0.000838731 -0.100352 -10.4162 
-10.0221 0.113853 0.150315 
0.113853 -10.2011 0.137599 
0.150315 0.137599 -10.2694 
-9.98459 -0.00247291 0.0454099 
-0.00247291 -9.97649 0.0315288 
0.0454099 0.0315288 -9.98236 
-9.98372 -0.000783492 0.0368717 
-0.000783492 -9.97626 0.0321882 
0.0368717 0.0321882 -9.98345 
-9.98098 -0.000588289 0.0403339 
-0.000588289 -9.98173 0.0356255 
0.0403339 0.0356255 -9.98072 
-9.9892 -0.00717936 0.0494181 
-0.00717936 -9.97961 0.032116 
0.0494181 0.032116 -9.97463 
-9.96113 -0.00117514 -0.000605641 
-0.00117514 -9.95824 0.00138845 
-0.000605641 0.00138845 -9.9822 
-9.97145 0.0130037 0.00450304 
0.0130037 -9.96935 -0.00863566 
0.00450304 -0.00863566 -9.96077 
-9.96007 0.00389844 0.00896139 
0.00389844 -9.95761 0.00762785 
0.00896139 0.00762785 -9.9839 
-9.97983 0.00425009 -0.00993044 
0.00425009 -9.97622 0.00784464 
-0.00993044 0.00784464 -9.94552 
-9.9891 0.00100971 -0.0520447 
0.00100971 -9.98835 0.0189916 
-0.0520447 0.0189916 -10.0065 
-9.99682 0.00175714 -0.0553696 
0.00175714 -9.99273 0.0218901 
-0.0553696 0.0218901 -9.9944 
-9.99866 -0.000504299 -0.054463 
-0.000504299 -9.99299 0.0205353 
-0.054463 0.0205353 -9.99231 
-9.99725 -0.000369645 -0.0577527 
-0.000369645 -9.99734 0.0210245 
-0.0577527 0.0210245 -9.98937 
-9.94072 -0.0403854 0.0591801 
-0.0403854 -9.95853 -0.0543501 
0.0591801 -0.0543501 -9.8885 
-9.92133 -0.00862208 0.0278695 
-0.00862208 -9.89071 0.00815169 
0.0278695 0.00815169 -9.97571 
-9.92917 -0.0727323 -0.0121204 
-0.0727323 -9.94272 -0.0719748 
-0.0121204 -0.0719748 -9.91586 
-9.91537 -0.0215674 0.00138466 
-0.0215674 -9.99079 -0.0704062 
0.00138466 -0.0704062 -9.88159 
-10.0258 -0.0103596 -0.000999565 
-0.0103596 -10.015 -0.0121836 
-0.000999565 -0.0121836 -10.0114 
-10.0155 -0.00817827 -0.00743518 
-0.00817827 -10.024 -0.00172786 
-0.00743518 -0.00172786 -10.0126 
-10.0115 -0.00813342 -0.00468514 
-0.00813342 -10.0239 -0.000344292 
-0.00468514 -0.000344292 -10.0167 
-10.0151 -0.00638739 -0.00871122 
-0.00638739 -10.0237 -0.00420662 
-0.00871122 -0.00420662 -10.0133 
-10.0518 0.0786724 -0.00815708 
0.0786724 -9.9986 -0.0197792 
-0.00815708 -0.0197792 -10.1485 
-10.0278 -0.0756724 0.0309963 
-0.0756724 -10.0484 0.0342255 
0.0309963 0.0342255 -10.1227 
-10.0639 -0.055499 0.00176178 
-0.055499 -10.0822 0.000796714 
0.00176178 0.000796714 -10.0529 
-10.0503 0.0233207 0.0721909 
0.0233207 -10.0797 -0.0103324 
0.0721909 -0.0103324 -10.0689 
-9.93831 0.0621964 -0.0370158 
0.0621964 -9.91789 0.0321024 
-0.0370158 0.0321024 -10.2069 
-9.94091 0.0681344 -0.0177533 
0.0681344 -9.92123 0.0401825 
-0.0177533 0.0401825 -10.201 
-9.95964 0.0214829 -0.0625297 
0.0214829 -9.92313 0.0349813 
-0.0625297 0.0349813 -10.1804 
-9.93054 0.0572909 -0.00849239 
0.0572909 -9.93848 0.0111094 
-0.00849239 0.0111094 -10.1941 
-9.93745 -0.00230561 0.0547946 
-0.00230561 -9.93033 -0.0391508 
0.0547946 -0.0391508 -9.91161 
-9.93415 0.00520938 0.0533054 
0.00520938 -9.93279 -0.0320493 
0.0533054 -0.0320493 -9.91245 
-9.94204 0.00150978 0.0555746 
0.00150978 -9.92416 -0.027629 
0.0555746 -0.027629 -9.91319 
-9.93649 7.0272e-05 0.0514251 
7.0272e-05 -9.92627 -0.0321599 
0.0514251 -0.0321599 -9.91662 
-9.84832 0.0195456 0.0885083 
0.0195456 -9.91371 0.029934 
0.0885083 0.029934 -9.93812 
-9.93279 0.0179487 0.0419764 
0.0179487 -9.89525 0.00835758 
0.0419764 0.00835758 -9.87211 
-9.90106 0.0148565 0.0486666 
0.0148565 -9.88922 0.0190566 
0.0486666 0.0190566 -9.90988 
-9.87978 0.0258386 0.0423109 
0.0258386 -9.8869 0.0337387 
0.0423109 0.0337387 -9.93348 
-10.9203 0.3441 0.103114 
0.3441 -10.3715 -0.442756 
0.103114 -0.442756 -9.42042 
-10.4833 -0.0824184 0.156805 
-0.0824184 -9.96566 -0.187393 
0.156805 -0.187393 -10.2632 
-9.30351 -0.200484 -0.397451 
-0.200484 -9.62764 0.428922 
-0.397451 0.428922 -11.781 
-10.264 -0.693989 0.753343 
-0.693989 -9.35694 -0.713941 
0.753343 -0.713941 -11.0913 
-10.0313 -0.002163 0.00763757 
-0.002163 -10.0309 -0.0126471 
0.00763757 -0.0126471 -10.0355 
-10.024 -0.00474861 -0.00206204 
-0.00474861 -10.0249 -0.0113038 
-0.00206204 -0.0113038 -10.0488 
-10.0499 -0.00342431 0.00920928 
-0.00342431 -10.0458 -0.0120016 
0.00920928 -0.0120016 -10.002 
-10.0262 -0.00441521 0.01699 
-0.00441521 -10.0302 0.00119724 
0.01699 0.00119724 -10.0413 
-9.90533 -0.0917019 0.0345285 
-0.0917019 -9.9605 0.0443404 
0.0345285 0.0443404 -9.94755 
-9.9375 -0.0700617 0.025337 
-0.0700617 -9.90305 0.00522929 
0.025337 0.00522929 -9.97284 
-9.96146 0.0165182 -0.0127504 
0.0165182 -9.96789 0.114829 
-0.0127504 0.114829 -9.88404 
-9.9557 -0.0883217 -0.0322823 
-0.0883217 -9.93442 0.0307844 
-0.0322823 0.0307844 -9.92327 
-9.88108 -0.0202759 0.0299318 
-0.0202759 -9.91106 -0.0234907 
0.0299318 -0.0234907 -9.94002 
-9.94417 -0.0110072 0.0390524 
-0.0110072 -9.88811 -0.0399884 
0.0390524 -0.0399884 -9.89989 
-9.92588 -0.00133863 0.053064 
-0.00133863 -9.89246 -0.0323213 
0.053064 -0.0323213 -9.91382 
-9.89693 -0.0218717 0.0527667 
-0.0218717 -9.90094 -0.0215051 
0.0527667 -0.0215051 -9.93428 
-9.98109 0.053779 -0.00300023 
0.053779 -9.6832 -0.0156429 
-0.00300023 -0.0156429 -9.99123 
-9.86331 0.0138366 0.0252135 
0.0138366 -9.89192 -0.0697791 
0.0252135 -0.0697791 -9.90029 
-9.88925 -0.00309256 0.00294996 
-0.00309256 -9.8706 -0.0560599 
0.00294996 -0.0560599 -9.89567 
-9.89676 -0.0470585 -0.0468941 
-0.0470585 -9.80015 -0.139985 
-0.0468941 -0.139985 -9.95861 
-6.88613 -3.12552 0.379446 
-3.12552 -9.53322 1.49411 
0.379446 1.49411 -16.3257 
-10.5439 2.28934 -1.64218 
2.28934 -15.6581 -0.559413 
-1.64218 -0.559413 -6.54296 
-8.62054 -0.65632 -0.111761 
-0.65632 -9.56149 0.043562 
-0.111761 0.043562 -14.563 
-12.1206 -0.815261 3.73146 
-0.815261 -8.60852 -1.72908 
3.73146 -1.72908 -12.0159 
-9.94173 0.00420246 0.0247413 
0.00420246 -9.95243 0.0751866 
0.0247413 0.0751866 -9.94464 
-9.94828 0.00669231 0.0269339 
0.00669231 -9.93147 0.0768492 
0.0269339 0.0768492 -9.95905 
-9.94517 0.00245791 0.0238818 
0.00245791 -9.95181 0.0771896 
0.0238818 0.0771896 -9.94182 
-9.94189 0.00047489 0.0215496 
0.00047489 -9.95061 0.0706295 
0.0215496 0.0706295 -9.9463 
-9.99523 -0.00239277 0.0499462 
-0.00239277 -9.99376 0.0530229 
0.0499462 0.0530229 -9.99439 
-9.99223 -0.00122107 0.0466648 
-0.00122107 -9.98762 0.0561722 
0.0466648 0.0561722 -10.0035 
-9.99634 -0.00125275 0.0519783 
-0.00125275 -9.99593 0.0523122 
0.0519783 0.0523122 -9.99112 
-9.9929 -0.00330245 0.0485712 
-0.00330245 -9.9959 0.0530654 
0.0485712 0.0530654 -9.99458 
-10.0237 0.0131205 -0.00552108 
0.0131205 -9.99379 -0.0026765 
-0.00552108 -0.0026765 -9.9802 
-9.97671 -0.00811586 0.00771927 
-0.00811586 -10.0354 -0.0158654 
0.00771927 -0.0158654 -9.98554 
-10.0274 0.0203753 -0.0104298 
0.0203753 -9.94084 -0.00275922 
-0.0104298 -0.00275922 -10.0295 
-9.96171 -0.000526981 0.00493381 
-0.000526981 -10.0452 0.0141815 
0.00493381 0.0141815 -9.99071 
-5.21045 1.04674 2.04485 
1.04674 -9.3345 1.37945 
2.04485 1.37945 1.40563 
-5.24848 0.279483 0.277762 
0.279483 -9.20085 1.17373 
0.277762 1.17373 1.31001 
-2.59268 0.142196 -0.572845 
0.142196 -5.70297 0.676341 
-0.572845 0.676341 -4.84366 
-5.72486 1.81354 -0.314807 
1.81354 -5.69853 4.58878 
-0.314807 4.58878 -1.71593 
-9.95397 -0.0410653 0.0834938 
-0.0410653 -9.83468 -0.0354827 
0.0834938 -0.0354827 -9.82025 
-9.82931 -0.00538221 0.0673618 
-0.00538221 -9.87519 0.0105061 
0.0673618 0.0105061 -9.9044 
-9.82864 -0.010999 0.0487547 
-0.010999 -9.86053 -0.0321142 
0.0487547 -0.0321142 -9.91974 
-9.83202 -0.00567988 0.0820805 
-0.00567988 -9.86837 -0.0124809 
0.0820805 -0.0124809 -9.90852 
-10.0075 0.020907 -0.0873265 
0.020907 -10.1586 0.0082751 
-0.0873265 0.0082751 -10.1857 
-10.068 0.0240523 -0.0397191 
0.0240523 -10.1306 0.000583242 
-0.0397191 0.000583242 -10.1533 
-10.1542 0.014842 -0.0684902 
0.014842 -10.0832 0.00309982 
-0.0684902 0.00309982 -10.1145 
-10.0777 0.00197867 -0.0339167 
0.00197867 -10.1128 0.00304589 
-0.0339167 0.00304589 -10.1614 
-9.94518 -0.00280042 0.014163 
-0.00280042 -9.96414 -0.0863074 
0.014163 -0.0863074 -9.96076 
-9.96121 0.000368322 0.00911395 
0.000368322 -9.94908 -0.0869653 
0.00911395 -0.0869653 -9.95979 
-9.9548 -0.00244944 0.0108582 
-0.00244944 -9.96452 -0.0897575 
0.0108582 -0.0897575 -9.95076 
-9.96087 -0.00637013 0.00954491 
-0.00637013 -9.95428 -0.0859085 
0.00954491 -0.0859085 -9.95494 
-9.94276 0.00387783 -0.074183 
0.00387783 -9.96168 -0.0361678 
-0.074183 -0.0361678 -9.9808 
-9.98727 -0.00599562 -0.0786005 
-0.00599562 -9.95625 -0.0268065 
-0.0786005 -0.0268065 -9.94172 
-9.96114 0.0044698 -0.0710384 
0.0044698 -9.96158 -0.0319878 
-0.0710384 -0.0319878 -9.96252 
-9.96436 0.00461641 -0.0526908 
0.00461641 -9.96488 -0.0340562 
-0.0526908 -0.0340562 -9.956 
-9.96898 -0.00154203 -0.00820004 
-0.00154203 -9.97707 -0.0207441 
-0.00820004 -0.0207441 -9.94841 
-9.9689 -0.000797873 -0.0123401 
-0.000797873 -9.97602 -0.0228142 
-0.0123401 -0.0228142 -9.94953 
-9.96735 -0.00573279 -0.00793038 
-0.00573279 -9.97931 -0.0188114 
-0.00793038 -0.0188114 -9.9478 
-9.9704 -0.00254891 -0.00754495 
-0.00254891 -9.96863 -0.0205502 
-0.00754495 -0.0205502 -9.95542 
-9.98959 0.00152116 0.0391202 
0.00152116 -9.98702 -0.0685712 
0.0391202 -0.0685712 -10.0047 
-9.99374 0.00372649 0.0432825 
0.00372649 -9.99364 -0.0656296 
0.0432825 -0.0656296 -9.99394 
-9.99536 0.00072209 0.046932 
0.00072209 -9.99631 -0.0654727 
0.046932 -0.0654727 -9.98965 
-9.99245 0.00199659 0.0434105 
0.00199659 -9.99544 -0.0653476 
0.0434105 -0.0653476 -9.99343 
-9.98617 0.000677159 0.0596448 
0.000677159 -9.97959 0.0447891 
0.0596448 0.0447891 -9.98232 
-9.98114 0.00372369 0.0645252 
0.00372369 -9.98124 0.0359955 
0.0645252 0.0359955 -9.98569 
-9.98145 0.00403189 0.0587697 
0.00403189 -9.97887 0.0433063 
0.0587697 0.0433063 -9.98776 
-9.98556 0.000728083 0.0644851 
0.000728083 -9.9827 0.0345006 
0.0644851 0.0345006 -9.97981 
-9.95129 -0.00870905 -0.0550841 
-0.00870905 -9.96115 0.0544463 
-0.0550841 0.0544463 -9.98748 
-9.96634 0.00137561 -0.0529444 
0.00137561 -9.96525 0.0528829 
-0.0529444 0.0528829 -9.96833 
-9.97673 0.00738388 -0.0591362 
0.00738388 -9.9682 0.0525932 
-0.0591362 0.0525932 -9.95498 
-9.97195 -0.0013691 -0.0396677 
-0.0013691 -9.96209 0.0513474 
-0.0396677 0.0513474 -9.96587 
-9.86022 0.218305 -0.112433 
0.218305 -10.2202 -0.281278 
-0.112433 -0.281278 -9.44162 
-9.89489 -0.0774739 -0.324787 
-0.0774739 -10.1163 -0.0264024 
-0.324787 -0.0264024 -9.51082 
-9.61543 0.156589 0.213793 
0.156589 -9.78995 -0.151933 
0.213793 -0.151933 -10.1166 
-10.0558 0.220198 -0.217621 
0.220198 -9.66363 -0.111657 
-0.217621 -0.111657 -9.80259 
-10.0351 -0.000244275 -0.0229391 
-0.000244275 -10.0579 0.0162799 
-0.0229391 0.0162799 -10.037 
-10.068 -0.0353032 -0.0242599 
-0.0353032 -10.0375 0.0117332 
-0.0242599 0.0117332 -10.0246 
-10.0442 0.00876114 -0.0297205 
0.00876114 -10.0183 0.00335986 
-0.0297205 0.00335986 -10.0675 
-10.0298 0.01369 -0.0161617 
0.01369 -10.0576 0.0551237 
-0.0161617 0.0551237 -10.0425 
-9.91596 0.00788936 0.0492403 
0.00788936 -9.91662 -0.0422392 
0.0492403 -0.0422392 -9.91726 
-9.90194 -0.00434941 0.0456077 
-0.00434941 -9.91581 -0.0499356 
0.0456077 -0.0499356 -9.93209 
-9.90286 -0.0221923 0.0371072 
-0.0221923 -9.917 -0.0440031 
0.0371072 -0.0440031 -9.92997 
-9.89684 0.0035643 0.0482941 
0.0035643 -9.92409 -0.0514255 
0.0482941 -0.0514255 -9.92891 
-9.97148 0.00605843 0.00258241 
0.00605843 -9.97497 -0.00506212 
0.00258241 -0.00506212 -10.0072 
-10.0117 -0.00866573 -0.00185193 
-0.00866573 -10.0052 0.00173715 
-0.00185193 0.00173715 -9.93672 
-9.9777 0.00297706 -0.00136438 
0.00297706 -9.97184 0.0168979 
-0.00136438 0.0168979 -10.0041 
-9.98588 0.00846171 -0.00641926 
0.00846171 -9.96731 -0.00485953 
-0.00641926 -0.00485953 -10.0005 
-9.98477 0.000531342 0.045118 
0.000531342 -9.98868 0.0618855 
0.045118 0.0618855 -9.9846 
-9.98037 0.00872106 0.0418885 
0.00872106 -9.9839 0.0625021 
0.0418885 0.0625021 -9.99379 
-9.98512 -0.0014508 0.0425724 
-0.0014508 -9.98659 0.0627488 
0.0425724 0.0627488 -9.98634 
-9.98474 -0.0032427 0.0414631 
-0.0032427 -9.98667 0.0612562 
0.0414631 0.0612562 -9.98664 
-9.92876 0.0028816 0.0389399 
0.0028816 -9.91995 0.0448324 
0.0389399 0.0448324 -9.93352 
-9.91519 0.0147811 0.0364686 
0.0147811 -9.91275 0.0355395 
0.0364686 0.0355395 -9.95429 
-9.92283 -0.0173622 0.0466581 
-0.0173622 -9.92799 0.0410789 
0.0466581 0.0410789 -9.93141 
-9.93274 -0.00190021 0.0495934 
-0.00190021 -9.90131 0.0422412 
0.0495934 0.0422412 -9.94818 
-10.4565 -0.16554 -0.453956 
-0.16554 -10.8302 -0.0528643 
-0.453956 -0.0528643 -10.2143 
-10.4964 -0.0527633 -0.406973 
-0.0527633 -10.8306 -0.210633 
-0.406973 -0.210633 -10.174 
-9.91998 0.0043204 0.260182 
0.0043204 -9.98507 0.341471 
0.260182 0.341471 -11.596 
-10.0221 0.112542 -0.826935 
0.112542 -10.6406 0.209978 
-0.826935 0.209978 -10.8383 
-9.91834 0.00969775 -0.0568639 
0.00969775 -9.90692 -0.033208 
-0.0568639 -0.033208 -9.92779 
-9.9242 0.00531033 -0.0522273 
0.00531033 -9.90415 -0.0370926 
-0.0522273 -0.0370926 -9.9247 
-9.92382 0.00719703 -0.0538884 
0.00719703 -9.90754 -0.0329732 
-0.0538884 -0.0329732 -9.92168 
-9.92026 0.00491812 -0.052383 
0.00491812 -9.90628 -0.028921 
-0.052383 -0.028921 -9.92651 
-9.94867 -0.00894834 -0.0215785 
-0.00894834 -9.9713 -0.0181983 
-0.0215785 -0.0181983 -9.94174 
-9.95307 -0.00570996 -0.0161268 
-0.00570996 -9.96967 -0.0168085 
-0.0161268 -0.0168085 -9.93898 
-9.96676 -0.00402102 -0.0202401 
-0.00402102 -9.9624 -0.0173043 
-0.0202401 -0.0173043 -9.93256 
-9.95718 -0.00532304 -0.0142177 
-0.00532304 -9.96119 -0.0174681 
-0.0142177 -0.0174681 -9.94335 
-9.89027 0.00127608 -0.0178744 
0.00127608 -9.91854 0.0763909 
-0.0178744 0.0763909 -9.88936 
-9.90885 -0.011634 -0.0268671 
-0.011634 -9.89653 0.0749344 
-0.0268671 0.0749344 -9.89278 
-9.89677 -0.0147347 -0.0294803 
-0.0147347 -9.88086 0.0846593 
-0.0294803 0.0846593 -9.92054 
-9.90845 -0.0012184 -0.0228945 
-0.0012184 -9.88251 0.0817834 
-0.0228945 0.0817834 -9.90721 
-9.99098 -0.00978969 -0.00748801 
-0.00978969 -9.9832 0.00714157 
-0.00748801 0.00714157 -9.98548 
-9.96977 -0.0119474 0.00709501 
-0.0119474 -9.99558 -0.0048038 
0.00709501 -0.0048038 -9.99431 
-9.99222 0.00251896 0.0401047 
0.00251896 -9.96815 -0.0101324 
0.0401047 -0.0101324 -9.9993 
-9.95187 -0.0168796 0.00170916 
-0.0168796 -9.9992 -0.000540819 
0.00170916 -0.000540819 -10.0086 
-9.98951 -0.000382051 -0.0826829 
-0.000382051 -9.98628 -0.00860161 
-0.0826829 -0.00860161 -9.9832 
-9.99017 -0.00026593 -0.0865716 
-0.00026593 -9.99105 -0.00499954 
-0.0865716 -0.00499954 -9.97777 
-9.97497 -0.00331918 -0.0795838 
-0.00331918 -9.98822 -0.00181755 
-0.0795838 -0.00181755 -9.9958 
-9.98716 0.00103758 -0.0818393 
0.00103758 -9.98665 -0.0081138 
-0.0818393 -0.0081138 -9.98519 
-8.38093 -0.499262 0.312187 
-0.499262 -11.0949 0.743675 
0.312187 0.743675 -11.9167 
-10.8581 0.562486 0.1724 
0.562486 -9.96335 0.414983 
0.1724 0.414983 -10.5711 
-9.55888 -0.311834 1.02845 
-0.311834 -10.9366 0.0206874 
1.02845 0.0206874 -10.8971 
-9.69276 0.248866 0.702048 
0.248866 -10.3292 0.101961 
0.702048 0.101961 -11.3707 
-9.95455 0.020015 0.0179467 
0.020015 -9.94288 0.0205811 
0.0179467 0.0205811 -9.98435 
-9.96396 0.00531215 0.0120999 
0.00531215 -9.94167 0.00554801 
0.0120999 0.00554801 -9.97616 
-9.96313 -0.0120778 0.0107544 
-0.0120778 -9.94641 0.000660397 
0.0107544 0.000660397 -9.97224 
-9.96323 0.00432387 1.13415e-05 
0.00432387 -9.92912 0.00948524 
1.13415e-05 0.00948524 -9.98944 
-9.9944 0.000412364 0.0310493 
0.000412364 -9.99441 0.0708942 
0.0310493 0.0708942 -9.98652 
-9.98947 -0.00288189 0.0283468 
-0.00288189 -9.99288 0.0698255 
0.0283468 0.0698255 -9.99298 
-9.98506 -0.00132194 0.0240076 
-0.00132194 -9.98234 0.0711507 
0.0240076 0.0711507 -10.0079 
-9.98866 -9.9078e-05 0.0281858 
-9.9078e-05 -9.9954 0.0682158 
0.0281858 0.0682158 -9.99127 
-9.89691 -0.0983782 0.0490811 
-0.0983782 -11.0197 0.069127 
0.0490811 0.069127 -9.97593 
-9.9866 0.371443 -0.379608 
0.371443 -9.73663 0.00236248 
-0.379608 0.00236248 -11.1693 
-10.5761 -0.0117199 0.141953 
-0.0117199 -10.6598 0.0613937 
0.141953 0.0613937 -9.65664 
-10.4596 -0.20802 0.0777404 
-0.20802 -10.3417 -0.337701 
0.0777404 -0.337701 -10.0912 
-9.95882 -0.00830831 0.0616636 
-0.00830831 -9.94598 0.046829 
0.0616636 0.046829 -9.94922 
-9.95091 0.00540555 0.0545156 
0.00540555 -9.94819 0.0427647 
0.0545156 0.0427647 -9.95492 
-9.94844 0.00693129 0.0582941 
0.00693129 -9.94567 0.0435681 
0.0582941 0.0435681 -9.95991 
-9.9434 -0.00269437 0.0553019 
-0.00269437 -9.95288 0.0458354 
0.0553019 0.0458354 -9.95774 
-9.94294 0.0044279 0.0484523 
0.0044279 -9.95595 -0.064072 
0.0484523 -0.064072 -9.95015 
-9.9456 -0.00424797 0.0467884 
-0.00424797 -9.95225 -0.0606314 
0.0467884 -0.0606314 -9.95119 
-9.94195 -0.00423827 0.0471824 
-0.00423827 -9.94859 -0.0632439 
0.0471824 -0.0632439 -9.9585 
-9.94625 0.00164241 0.0469498 
0.00164241 -9.94824 -0.0627794 
0.0469498 -0.0627794 -9.95455 
-9.99083 -0.00102939 -0.0439774 
-0.00102939 -9.99297 -0.0413964 
-0.0439774 -0.0413964 -9.99977 
-9.98891 -0.00112882 -0.0454296 
-0.00112882 -9.99616 -0.0450792 
-0.0454296 -0.0450792 -9.99851 
-9.994 -0.000336498 -0.04492 
-0.000336498 -9.99637 -0.0431862 
-0.04492 -0.0431862 -9.99321 
-9.99648 -0.000240362 -0.0453373 
-0.000240362 -9.9965 -0.0427551 
-0.0453373 -0.0427551 -9.9906 
-9.99698 0.00169571 -0.01319 
0.00169571 -10.0482 0.0171844 
-0.01319 0.0171844 -9.99146 
-10.0467 -0.0149856 0.00947089 
-0.0149856 -9.94914 0.00187195 
0.00947089 0.00187195 -10.0408 
-10.028 -0.00328448 0.00318425 
-0.00328448 -10.0118 0.000534652 
0.00318425 0.000534652 -9.99688 
-9.99433 0.0136948 -0.00542115 
0.0136948 -10.0479 -0.0121925 
-0.00542115 -0.0121925 -9.99444 
-2.6425 -0.263218 0.479916 
-0.263218 -5.83837 0.790839 
0.479916 0.790839 -4.75518 
-5.1395 -0.412334 -0.332472 
-0.412334 -9.14768 1.20579 
-0.332472 1.20579 1.05113 
-5.17628 -1.08505 -2.09537 
-1.08505 -9.21896 1.41525 
-2.09537 1.41525 1.1592 
-5.6062 -1.92285 0.281096 
-1.92285 -5.76866 4.46194 
0.281096 4.46194 -1.86119 
-11.1966 -0.114255 0.30396 
-0.114255 -10.6457 -0.433128 
0.30396 -0.433128 -12.2478 
-11.4802 -0.215701 0.153402 
-0.215701 -11.1866 -0.24828 
0.153402 -0.24828 -11.4232 
-11.559 -0.266345 0.131372 
-0.266345 -10.9513 -0.307774 
0.131372 -0.307774 -11.5798 
-11.5852 -0.154632 -0.00772014 
-0.154632 -11.1194 -0.224041 
-0.00772014 -0.224041 -11.3854 
-9.98938 -0.00063205 -0.0520272 
-0.00063205 -9.99235 0.0382256 
-0.0520272 0.0382256 -9.99513 
-9.98582 0.000377673 -0.0519344 
0.000377673 -9.98776 0.0333965 
-0.0519344 0.0333965 -10.0033 
-9.99148 0.000623086 -0.0510802 
0.000623086 -9.99231 0.0372778 
-0.0510802 0.0372778 -9.99307 
-9.99353 0.00028644 -0.050879 
0.00028644 -9.99318 0.0386808 
-0.050879 0.0386808 -9.99015 
-10.0214 -0.00716926 -0.0061133 
-0.00716926 -10.0348 -0.00420014 
-0.0061133 -0.00420014 -10.0068 
-10.0327 -0.00565602 -0.00482514 
-0.00565602 -10.0281 0.00962692 
-0.00482514 0.00962692 -10.0022 
-9.99568 -0.0142608 0.0289741 
-0.0142608 -9.98923 -0.0131283 
0.0289741 -0.0131283 -10.0781 
-10.028 -0.0176919 0.00929938 
-0.0176919 -10.0368 0.010473 
0.00929938 0.010473 -9.99823 
-9.98427 -0.0022599 0.0554507 
-0.0022599 -9.98337 0.0527845 
0.0554507 0.0527845 -9.98625 
-9.98583 0.00604413 0.0519141 
0.00604413 -9.9776 0.0536415 
0.0519141 0.0536415 -9.99047 
-9.98436 -0.000232001 0.0569192 
-0.000232001 -9.98585 0.0529958 
0.0569192 0.0529958 -9.98368 
-9.98607 0.00222168 0.0526483 
0.00222168 -9.98367 0.0528637 
0.0526483 0.0528637 -9.98416 
-9.99345 -0.00469122 0.0254371 
-0.00469122 -9.98775 -0.0223033 
0.0254371 -0.0223033 -9.99956 
-9.98565 -0.00128761 0.021686 
-0.00128761 -9.98869 -0.0269094 
0.021686 -0.0269094 -10.0064 
-9.99512 0.000594517 0.0219864 
0.000594517 -9.99708 -0.0206658 
0.0219864 -0.0206658 -9.98857 
-9.99593 0.00365887 0.0261159 
0.00365887 -9.99717 -0.0222505 
0.0261159 -0.0222505 -9.98767 
-9.99888 0.000628933 -0.0638926 
0.000628933 -9.99575 0.0435272 
-0.0638926 0.0435272 -9.98991 
-9.99546 0.00305771 -0.0588357 
0.00305771 -9.99473 0.0445278 
-0.0588357 0.0445278 -9.99435 
-9.99072 0.000429968 -0.0559921 
0.000429968 -9.98997 0.0481959 
-0.0559921 0.0481959 -10.0039 
-9.99892 0.00278746 -0.0578835 
0.00278746 -9.99245 0.0441888 
-0.0578835 0.0441888 -9.99317 
-9.99882 0.0101899 0.000327671 
0.0101899 -10.0368 0.0190307 
0.000327671 0.0190307 -9.99218 
-10.0131 0.0153431 0.00040062 
0.0153431 -10.0027 0.0124199 
0.00040062 0.0124199 -10.0119 
-9.99635 0.00640472 0.0089776 
0.00640472 -10.0165 0.00576074 
0.0089776 0.00576074 -10.0149 
-9.98742 0.00240596 -0.00423281 
0.00240596 -10.0282 0.00229218 
-0.00423281 0.00229218 -10.0121 
-10.7545 -0.244155 0.117503 
-0.244155 -10.9988 0.145944 
0.117503 0.145944 -10.444 
-10.8341 -0.38859 0.0389456 
-0.38859 -10.7084 -0.0509578 
0.0389456 -0.0509578 -10.6547 
-10.3888 -0.298231 0.407865 
-0.298231 -10.7114 -0.229212 
0.407865 -0.229212 -11.0971 
-10.6158 -0.46479 0.213947 
-0.46479 -10.6935 0.165141 
0.213947 0.165141 -10.888 
-9.99547 -0.00122188 0.0564737 
-0.00122188 -9.99677 0.0152058 
0.0564737 0.0152058 -9.9898 
-9.98932 0.000751729 0.0551662 
0.000751729 -9.99151 0.0181547 
0.0551662 0.0181547 -10.0012 
-9.99111 0.00168831 0.0584833 
0.00168831 -9.98984 0.0141289 
0.0584833 0.0141289 -10.0011 
-9.99786 -0.00231094 0.0592318 
-0.00231094 -9.99498 0.0180197 
0.0592318 0.0180197 -9.98919 
-9.95154 0.0108773 0.022367 
0.0108773 -9.97903 -0.00633426 
0.022367 -0.00633426 -9.99942 
-9.9342 0.00510619 0.0167043 
0.00510619 -9.978 0.00267061 
0.0167043 0.00267061 -10.0178 
-9.97784 0.0301284 0.0164474 
0.0301284 -9.96617 0.0356689 
0.0164474 0.0356689 -9.98599 
-9.95948 0.0175326 0.0199893 
0.0175326 -9.97782 0.00695992 
0.0199893 0.00695992 -9.99269 
-10.0128 0.0301504 0.0127833 
0.0301504 -10.0155 0.0102911 
0.0127833 0.0102911 -10.2295 
-9.65942 0.252312 0.177551 
0.252312 -10.2554 -0.101456 
0.177551 -0.101456 -10.343 
-9.90097 0.0695819 0.00275359 
0.0695819 -10.1353 -0.0660898 
0.00275359 -0.0660898 -10.2215 
-9.92968 -0.0729555 -0.149999 
-0.0729555 -10.1077 -0.0660756 
-0.149999 -0.0660756 -10.2204 
-9.96034 -0.0221361 -0.0249933 
-0.0221361 -9.88215 0.0303945 
-0.0249933 0.0303945 -9.98932 
-9.94055 -0.0142983 -0.00917101 
-0.0142983 -9.88819 0.0126413 
-0.00917101 0.0126413 -10.0031 
-9.93027 0.00205073 -0.0109289 
0.00205073 -9.93579 0.0310145 
-0.0109289 0.0310145 -9.96575 
-9.91769 -0.0258574 -0.00389013 
-0.0258574 -9.93112 0.0289708 
-0.00389013 0.0289708 -9.983 
-9.93478 -0.0518631 -0.039738 
-0.0518631 -9.99226 -0.0580155 
-0.039738 -0.0580155 -10.0368 
-9.96284 0.103657 -0.0161476 
0.103657 -10.0225 -0.0299604 
-0.0161476 -0.0299604 -9.97848 
-9.99668 -0.0377774 0.107927 
-0.0377774 -9.93319 0.131034 
0.107927 0.131034 -10.034 
-9.90172 0.137694 -0.0434111 
0.137694 -9.97802 -0.00708802 
-0.0434111 -0.00708802 -10.0841 
-9.99919 0.000787373 0.0134343 
0.000787373 -9.99803 0.0546417 
0.0134343 0.0546417 -9.9908 
-9.99752 0.00130114 0.00974011 
0.00130114 -9.98853 0.0577324 
0.00974011 0.0577324 -10.002 
-9.99812 -0.00231385 0.0138591 
-0.00231385 -9.98964 0.0583036 
0.0138591 0.0583036 -10.0003 
-9.9969 0.000676152 0.0148613 
0.000676152 -10.0014 0.0571507 
0.0148613 0.0571507 -9.98969 
-9.82134 -0.00567021 -0.090509 
-0.00567021 -9.85228 0.0280521 
-0.090509 0.0280521 -9.94877 
-9.8724 0.0571726 -0.125669 
0.0571726 -9.93241 -0.0378335 
-0.125669 -0.0378335 -9.81758 
-9.77583 0.00120844 -0.0827268 
0.00120844 -9.91399 -0.0253157 
-0.0827268 -0.0253157 -9.93258 
-9.78993 0.0490846 -0.173793 
0.0490846 -9.83932 0.00239988 
-0.173793 0.00239988 -9.99314 
-9.99647 0.00111345 0.0291915 
0.00111345 -9.99287 0.00830663 
0.0291915 0.00830663 -9.99824 
-9.99474 -0.000407308 0.0322199 
-0.000407308 -9.99334 0.00744855 
0.0322199 0.00744855 -9.9995 
-9.99684 -0.00125294 0.0305952 
-0.00125294 -9.99423 0.00979693 
0.0305952 0.00979693 -9.99651 
-9.99778 -0.00072522 0.0298451 
-0.00072522 -9.99646 0.00901352 
0.0298451 0.00901352 -9.99334 
-9.91901 -0.0605118 0.00394197 
-0.0605118 -9.90089 0.0220604 
0.00394197 0.0220604 -10.1779 
-9.89628 -0.0399283 0.0243464 
-0.0399283 -9.91229 0.0352678 
0.0243464 0.0352678 -10.1892 
-9.86809 -0.0129126 0.0187988 
-0.0129126 -9.91441 0.0206169 
0.0187988 0.0206169 -10.2153 
-9.89563 -0.0268665 0.0309692 
-0.0268665 -9.92492 0.0417347 
0.0309692 0.0417347 -10.1773 
-9.94512 0.00665678 -0.0460692 
0.00665678 -9.94431 0.0533115 
-0.0460692 0.0533115 -9.94217 
-9.93989 -0.00489685 -0.0540406 
-0.00489685 -9.94058 0.0553404 
-0.0540406 0.0553404 -9.95113 
-9.9436 0.00377273 -0.0489185 
0.00377273 -9.94946 0.0533169 
-0.0489185 0.0533169 -9.93854 
-9.93777 -4.5431e-06 -0.0512044 
-4.5431e-06 -9.94505 0.0502979 
-0.0512044 0.0502979 -9.94879 
-9.92435 -0.00521704 -0.014264 
-0.00521704 -9.93928 0.00278156 
-0.014264 0.00278156 -9.921 
-9.92696 -0.0162375 -0.0298634 
-0.0162375 -9.93153 -0.00556934 
-0.0298634 -0.00556934 -9.92614 
-9.92803 -0.01259 -0.0243435 
-0.01259 -9.94309 0.0149379 
-0.0243435 0.0149379 -9.91351 
-9.93678 -0.0265036 -0.0179141 
-0.0265036 -9.93488 0.00547087 
-0.0179141 0.00547087 -9.91298 
-9.96794 -0.0145638 0.0130334 
-0.0145638 -9.95084 0.0210572 
0.0130334 0.0210572 -9.96143 
-9.95776 -0.0148325 0.0279448 
-0.0148325 -9.96181 0.0151542 
0.0279448 0.0151542 -9.96063 
-9.9613 -0.00491216 0.0198327 
-0.00491216 -9.95246 0.0253423 
0.0198327 0.0253423 -9.96644 
-9.95306 -0.00974752 0.0225258 
-0.00974752 -9.96204 0.0118745 
0.0225258 0.0118745 -9.96511 
-9.98674 -6.92848e-05 -0.0560603 
-6.92848e-05 -9.98591 0.0143423 
-0.0560603 0.0143423 -10.0097 
-9.99494 0.000533747 -0.0591265 
0.000533747 -9.99741 0.0166362 
-0.0591265 0.0166362 -9.99001 
-9.99458 0.00237069 -0.0597867 
0.00237069 -9.99499 0.0175974 
-0.0597867 0.0175974 -9.99278 
-9.99843 -0.000799666 -0.0598362 
-0.000799666 -9.99583 0.0215946 
-0.0598362 0.0215946 -9.9881 
-9.95486 0.00160589 0.0357667 
0.00160589 -9.96461 0.0733797 
0.0357667 0.0733797 -9.94875 
-9.95548 0.00128809 0.00969092 
0.00128809 -9.94744 0.0768014 
0.00969092 0.0768014 -9.9653 
-9.95392 -0.00440043 0.0192282 
-0.00440043 -9.95921 0.0696076 
0.0192282 0.0696076 -9.95509 
-9.95914 -0.00200057 0.0234985 
-0.00200057 -9.95527 0.0696235 
0.0234985 0.0696235 -9.95381 
-9.99276 0.00117208 0.0607282 
0.00117208 -9.99277 0.0192664 
0.0607282 0.0192664 -9.99828 
-9.99482 0.000851596 0.060993 
0.000851596 -9.9926 0.0167689 
0.060993 0.0167689 -9.99639 
-9.99264 0.000874058 0.0627181 
0.000874058 -9.99283 0.0168392 
0.0627181 0.0168392 -9.99834 
-9.99537 0.000920269 0.0616595 
0.000920269 -9.99568 0.0178041 
0.0616595 0.0178041 -9.99276 
-9.98101 0.0331358 0.0139604 
0.0331358 -10.0602 0.0122868 
0.0139604 0.0122868 -10.0572 
-9.99058 0.0653707 -0.0101318 
0.0653707 -10.0473 0.0432809 
-0.0101318 0.0432809 -10.0605 
-9.99645 -0.000741111 -0.027753 
-0.000741111 -10.0401 0.0306833 
-0.027753 0.0306833 -10.0618 
-10.0155 0.0774676 -0.00368164 
0.0774676 -10.057 0.0459361 
-0.00368164 0.0459361 -10.0258 
-9.99939 -0.000980376 0.00524448 
-0.000980376 -9.98303 0.00678268 
0.00524448 0.00678268 -9.99066 
-9.99467 -0.00591611 0.00447706 
-0.00591611 -9.97316 -0.00855631 
0.00447706 -0.00855631 -10.0053 
-9.99495 0.00807705 -0.00279017 
0.00807705 -9.98897 -0.0131522 
-0.00279017 -0.0131522 -9.98917 
-9.99497 0.00337122 0.00629924 
0.00337122 -9.97485 -0.00639828 
0.00629924 -0.00639828 -10.0033 
-9.52007 -0.696532 0.738939 
-0.696532 -8.48699 0.471315 
0.738939 0.471315 -14.8561 
-10.6383 -0.08285 0.317254 
-0.08285 -9.62193 0.0581436 
0.317254 0.0581436 -12.6029 
-11.4977 -0.634411 -0.460166 
-0.634411 -10.6605 0.652441 
-0.460166 0.652441 -10.705 
-10.6926 -0.682885 -0.364273 
-0.682885 -10.3031 -0.801078 
-0.364273 -0.801078 -11.8675 
-9.99526 0.0765908 -0.00663425 
0.0765908 -10.0576 -0.00256909 
-0.00663425 -0.00256909 -10.213 
-9.94718 0.0756584 -0.0290782 
0.0756584 -10.0101 -0.0183923 
-0.0290782 -0.0183923 -10.3086 
-9.97459 0.0476466 -0.0328618 
0.0476466 -10.02 -0.0261263 
-0.0328618 -0.0261263 -10.2712 
-9.99793 0.0908014 -0.0780406 
0.0908014 -10.0252 0.014577 
-0.0780406 0.014577 -10.2427 
-10.0123 -0.0138999 0.013268 
-0.0138999 -10.0198 -0.0202214 
0.013268 -0.0202214 -10.115 
-10.0194 -0.0489189 0.062488 
-0.0489189 -10.194 0.0515173 
0.062488 0.0515173 -9.93374 
-10.0205 -0.0661383 0.0561443 
-0.0661383 -10.0693 0.0270145 
0.0561443 0.0270145 -10.0573 
-10.0422 0.0166867 0.00189238 
0.0166867 -10.0116 0.0703353 
0.00189238 0.0703353 -10.0933 
-9.99083 -0.00088901 -0.0539329 
-0.00088901 -9.99066 -0.0330596 
-0.0539329 -0.0330596 -10.0002 
-9.99478 2.49683e-05 -0.0533296 
2.49683e-05 -9.99208 -0.0295508 
-0.0533296 -0.0295508 -9.99479 
-9.99106 -8.75754e-05 -0.0553983 
-8.75754e-05 -9.99284 -0.0292265 
-0.0553983 -0.0292265 -9.99775 
-9.99532 -0.000989993 -0.0528396 
-0.000989993 -9.99442 -0.0294111 
-0.0528396 -0.0294111 -9.99191 
-9.92281 0.187005 -0.0617599 
0.187005 -9.8726 -0.0229299 
-0.0617599 -0.0229299 -10.0902 
-9.94463 0.103059 -0.0432383 
0.103059 -9.8611 0.0187058 
-0.0432383 0.0187058 -10.0799 
-9.87821 0.119325 -0.0681081 
0.119325 -9.84087 0.0951596 
-0.0681081 0.0951596 -10.1665 
-9.88921 0.110458 -0.0789892 
0.110458 -9.8728 0.0221047 
-0.0789892 0.0221047 -10.1236 
-9.90145 -0.00255 -0.00259671 
-0.00255 -9.90808 -0.00446393 
-0.00259671 -0.00446393 -10.0202 
-9.91323 0.000146263 -0.00289852 
0.000146263 -9.91229 -0.00283356 
-0.00289852 -0.00283356 -10.0042 
-9.90669 0.009734 0.00879378 
0.009734 -9.90096 0.00235307 
0.00879378 0.00235307 -10.022 
-9.89891 -0.00492543 -0.0124475 
-0.00492543 -9.89946 -0.0181691 
-0.0124475 -0.0181691 -10.0313 
-9.9229 -0.0246812 -0.0111005 
-0.0246812 -9.87552 0.0589519 
-0.0111005 0.0589519 -9.90674 
-9.94222 -0.078488 0.0115108 
-0.078488 -9.91944 0.0658618 
0.0115108 0.0658618 -9.84349 
-9.95663 -0.0990301 0.0110687 
-0.0990301 -9.88861 0.0805044 
0.0110687 0.0805044 -9.85992 
-9.96496 -0.0347315 -0.0765103 
-0.0347315 -9.93538 0.0919984 
-0.0765103 0.0919984 -9.80482 
-9.87155 0.0240501 0.041491 
0.0240501 -9.79455 0.0559068 
0.041491 0.0559068 -9.95977 
-9.91547 0.106712 0.0849419 
0.106712 -9.91656 0.109043 
0.0849419 0.109043 -9.79385 
-9.87957 0.0697011 0.0587754 
0.0697011 -9.90168 0.036587 
0.0587754 0.036587 -9.84462 
-9.84461 0.0741046 0.0710277 
0.0741046 -9.95805 -0.0117035 
0.0710277 -0.0117035 -9.82321 
-5.29421 -0.909579 -0.501251 
-0.909579 -6.90634 -0.195243 
-0.501251 -0.195243 1.69092 
-5.38434 -0.360787 -2.32563 
-0.360787 -6.15617 0.852628 
-2.32563 0.852628 1.03088 
-4.41468 -1.7909 -0.725034 
-1.7909 -5.72803 0.744316 
-0.725034 0.744316 -0.36692 
-4.61109 -1.34983 -0.563322 
-1.34983 -4.82121 2.54911 
-0.563322 2.54911 -1.07733 
-9.99336 -0.0011684 -0.00982273 
-0.0011684 -9.99402 -0.00482907 
-0.00982273 -0.00482907 -9.99654 
-9.99428 -0.000825184 -0.00850836 
-0.000825184 -9.99359 -0.00351145 
-0.00850836 -0.00351145 -9.99605 
-9.99374 -0.00157622 -0.0113602 
-0.00157622 -9.99083 -0.00207387 
-0.0113602 -0.00207387 -9.99935 
-9.99438 -0.0021892 -0.00839929 
-0.0021892 -9.9949 -0.00436882 
-0.00839929 -0.00436882 -9.99464 
-9.93918 -0.00434774 0.0407993 
-0.00434774 -9.9482 0.0218926 
0.0407993 0.0218926 -9.99837 
-9.90728 0.0136482 0.0776959 
0.0136482 -10.0274 -0.0066915 
0.0776959 -0.0066915 -9.95102 
-9.93111 0.0437242 -0.0202906 
0.0437242 -9.98523 0.021137 
-0.0202906 0.021137 -9.96941 
-9.90777 0.0183191 0.0107488 
0.0183191 -9.97127 0.0110858 
0.0107488 0.0110858 -10.0067 
-10.3263 0.0758314 -0.0185868 
0.0758314 -10.1602 0.0928647 
-0.0185868 0.0928647 -9.92969 
-10.0971 0.00837676 0.0548682 
0.00837676 -10.0825 0.0366127 
0.0548682 0.0366127 -10.2365 
-10.1028 -0.0212409 0.0676106 
-0.0212409 -10.0906 -0.023404 
0.0676106 -0.023404 -10.2228 
-10.1217 -0.0793567 -0.043547 
-0.0793567 -10.0941 -0.00304421 
-0.043547 -0.00304421 -10.2003 
-9.99567 -0.00194977 0.0560451 
-0.00194977 -9.9941 -0.0220344 
0.0560451 -0.0220344 -9.99115 
-9.99244 -0.00149848 0.0556059 
-0.00149848 -9.99614 -0.0226321 
0.0556059 -0.0226321 -9.99234 
-9.98556 0.00044254 0.0554104 
0.00044254 -9.9852 -0.0197298 
0.0554104 -0.0197298 -10.0102 
-9.99678 0.0010167 0.053052 
0.0010167 -9.99601 -0.0252727 
0.053052 -0.0252727 -9.98813 
-9.99332 0.00299112 0.0315221 
0.00299112 -9.99543 -0.0317348 
0.0315221 -0.0317348 -9.99548 
-9.99006 0.00173129 0.0328836 
0.00173129 -9.99199 -0.0344864 
0.0328836 -0.0344864 -10.0022 
-9.99273 0.00291113 0.033221 
0.00291113 -9.99766 -0.0302614 
0.033221 -0.0302614 -9.99385 
-9.99346 0.00204359 0.0339817 
0.00204359 -9.99886 -0.0292976 
0.0339817 -0.0292976 -9.99192 
-9.99305 0.00027766 -0.0464971 
0.00027766 -9.99073 0.037249 
-0.0464971 0.037249 -9.99214 
-9.98602 0.00061177 -0.0456513 
0.00061177 -9.98572 0.0329871 
-0.0456513 0.0329871 -10.0042 
-9.98955 0.00228231 -0.0457493 
0.00228231 -9.99129 0.0380218 
-0.0457493 0.0380218 -9.99508 
-9.99513 0.00106526 -0.0475001 
0.00106526 -9.99118 0.0387215 
-0.0475001 0.0387215 -9.98961 
-9.98504 0.00298528 -0.0531909 
0.00298528 -9.9862 0.0567328 
-0.0531909 0.0567328 -9.98913 
-9.97934 -0.00559023 -0.0536529 
-0.00559023 -9.98768 0.0546454 
-0.0536529 0.0546454 -9.99335 
-9.98884 0.00150142 -0.0543536 
0.00150142 -9.98497 0.0576021 
-0.0543536 0.0576021 -9.98656 
-9.98477 -0.00382629 -0.0535812 
-0.00382629 -9.98867 0.0528669 
-0.0535812 0.0528669 -9.98692 
-9.98353 -0.00528313 -0.0101548 
-0.00528313 -9.97699 -0.0794824 
-0.0101548 -0.0794824 -10.0192 
-9.99754 0.00442911 -0.0243926 
0.00442911 -10.0038 -0.0822867 
-0.0243926 -0.0822867 -9.97838 
-9.99354 -0.00488194 -0.0158485 
-0.00488194 -9.99537 -0.0754868 
-0.0158485 -0.0754868 -9.99084 
-9.99315 -0.00234205 -0.0192397 
-0.00234205 -10.0002 -0.0698498 
-0.0192397 -0.0698498 -9.98636 
-9.98822 -0.000134659 0.00162332 
-0.000134659 -9.98944 -0.0343898 
0.00162332 -0.0343898 -10.0074 
-9.99402 -0.00215181 0.00392581 
-0.00215181 -9.99683 -0.0304638 
0.00392581 -0.0304638 -9.99426 
-9.99503 -0.00033626 0.00253661 
-0.00033626 -9.99871 -0.0308442 
0.00253661 -0.0308442 -9.99136 
-9.99783 0.000618854 0.00335854 
0.000618854 -9.99792 -0.0275082 
0.00335854 -0.0275082 -9.98935 
-10.0746 -0.00830132 -0.128724 
-0.00830132 -9.87243 -0.494972 
-0.128724 -0.494972 -9.62541 
-9.93479 0.373672 -0.632754 
0.373672 -10.0007 -0.567188 
-0.632754 -0.567188 -9.63695 
-9.90088 -0.203152 -0.48229 
-0.203152 -9.89841 0.384629 
-0.48229 0.384629 -9.77318 
-9.99939 0.142184 -0.210793 
0.142184 -9.74857 -0.419961 
-0.210793 -0.419961 -9.8245 
-10.0665 0.0243774 0.04307 
0.0243774 -10.1898 -0.0201126 
0.04307 -0.0201126 -10.3166 
-10.2147 -0.0166688 0.00233715 
-0.0166688 -10.1993 -0.0143172 
0.00233715 -0.0143172 -10.1589 
-10.25 -0.0509613 -0.0352606 
-0.0509613 -10.2004 -0.0132135 
-0.0352606 -0.0132135 -10.1226 
-10.2725 -0.00684054 0.0243178 
-0.00684054 -10.1606 -0.00328668 
0.0243178 -0.00328668 -10.1398 
-9.96358 -0.00820407 -0.0257084 
-0.00820407 -9.9982 -0.0129373 
-0.0257084 -0.0129373 -10.1717 
-9.96832 0.018316 0.0113947 
0.018316 -10.0011 0.006458 
0.0113947 0.006458 -10.1641 
-9.96613 -0.0080064 -0.0131966 
-0.0080064 -9.99647 0.00543795 
-0.0131966 0.00543795 -10.1709 
-9.98156 -0.00899639 0.00131308 
-0.00899639 -9.99655 -0.000933768 
0.00131308 -0.000933768 -10.1554 
-10.0358 0.0513571 -0.0193282 
0.0513571 -10.0128 0.0326505 
-0.0193282 0.0326505 -10.0804 
-10.072 0.0117236 -0.00177988 
0.0117236 -10.0296 -0.0315616 
-0.00177988 -0.0315616 -10.0274 
-10.0538 0.00826921 -0.00462427 
0.00826921 -10.0309 -0.0328933 
-0.00462427 -0.0328933 -10.0442 
-10.0674 -0.00646563 0.00111696 
-0.00646563 -10.0209 -0.00222779 
0.00111696 -0.00222779 -10.0406 
-9.99479 0.00604364 0.0226254 
0.00604364 -9.98454 0.021882 
0.0226254 0.021882 -10.0057 
-9.9952 -0.00075932 0.0191039 
-0.00075932 -9.9912 0.0259257 
0.0191039 0.0259257 -9.99862 
-9.99982 -0.00342987 0.0236101 
-0.00342987 -9.99509 0.0293867 
0.0236101 0.0293867 -9.99011 
-9.99561 -0.00357506 0.0201386 
-0.00357506 -10.0016 0.0261239 
0.0201386 0.0261239 -9.98778 
-9.95243 -0.0182623 -0.0303622 
-0.0182623 -9.99363 0.0116519 
-0.0303622 0.0116519 -9.96954 
-9.93207 0.00901686 0.0751259 
0.00901686 -10.0189 -0.0034012 
0.0751259 -0.0034012 -9.96462 
-9.96203 -0.0188927 -0.0142059 
-0.0188927 -9.9518 -0.0190861 
-0.0142059 -0.0190861 -10.0018 
-9.90919 -0.0103493 -0.0280513 
-0.0103493 -9.94206 -0.0322199 
-0.0280513 -0.0322199 -10.0644 
-9.92581 -0.00199171 0.00580872 
-0.00199171 -9.9026 0.0789111 
0.00580872 0.0789111 -9.88568 
-9.90079 0.00145037 -0.0162549 
0.00145037 -9.91923 0.0772753 
-0.0162549 0.0772753 -9.89408 
-9.90461 -0.00197181 0.00467165 
-0.00197181 -9.88132 0.089417 
0.00467165 0.089417 -9.92817 
-9.91201 -0.00931123 -0.00688029 
-0.00931123 -9.89408 0.079857 
-0.00688029 0.079857 -9.90801 
-10.0078 0.0112313 -0.0183642 
0.0112313 -9.99424 -0.0025005 
-0.0183642 -0.0025005 -10.0134 
-10.0031 -0.00760944 -0.00232908 
-0.00760944 -10.0055 0.00163787 
-0.00232908 0.00163787 -10.0068 
-10.011 -0.00982795 0.0044024 
-0.00982795 -10.0103 -0.000945083 
0.0044024 -0.000945083 -9.99418 
-9.99435 -0.00410649 -0.00101147 
-0.00410649 -10.0098 0.00492051 
-0.00101147 0.00492051 -10.0113 
-9.97666 0.00171969 -0.0727191 
0.00171969 -9.98955 -0.0296899 
-0.0727191 -0.0296899 -9.99239 
-9.98631 -0.00213476 -0.0731057 
-0.00213476 -9.98412 -0.0344923 
-0.0731057 -0.0344923 -9.98817 
-9.98884 0.000599493 -0.0746811 
0.000599493 -9.98479 -0.0352837 
-0.0746811 -0.0352837 -9.98497 
-9.98245 0.00249915 -0.0707139 
0.00249915 -9.98927 -0.0300186 
-0.0707139 -0.0300186 -9.98688 
-9.94027 0.00627799 -0.0250743 
0.00627799 -9.92804 -0.0849651 
-0.0250743 -0.0849651 -9.94054 
-9.93859 0.00500201 -0.0256103 
0.00500201 -9.93687 -0.0805802 
-0.0256103 -0.0805802 -9.93338 
-9.93216 0.00418663 -0.029445 
0.00418663 -9.9448 -0.0821611 
-0.029445 -0.0821611 -9.93189 
-9.9317 -0.000545445 -0.0252452 
-0.000545445 -9.94139 -0.0805036 
-0.0252452 -0.0805036 -9.93575 
-9.9167 0.033132 0.05003 
0.033132 -9.93673 0.0234115 
0.05003 0.0234115 -9.90041 
-9.89544 0.0283953 0.0583298 
0.0283953 -9.95617 0.00703211 
0.0583298 0.00703211 -9.90222 
-9.96313 0.054333 0.045529 
0.054333 -9.9526 0.0128277 
0.045529 0.0128277 -9.83811 
-9.93373 0.0437458 0.00499677 
0.0437458 -9.91532 -0.01203 
0.00499677 -0.01203 -9.90479 
-9.99118 0.000372892 0.0267796 
0.000372892 -9.99196 0.0533284 
0.0267796 0.0533284 -9.99658 
-9.9903 -0.000402654 0.0304748 
-0.000402654 -9.98766 0.0520479 
0.0304748 0.0520479 -10.0017 
-9.9921 0.00163959 0.0282887 
0.00163959 -9.99298 0.0551132 
0.0282887 0.0551132 -9.99463 
-9.9931 0.000115536 0.0278755 
0.000115536 -9.99561 0.0548505 
0.0278755 0.0548505 -9.991 
-13.4435 0.937646 -0.0898579 
0.937646 -11.8416 -1.23928 
-0.0898579 -1.23928 -10.6247 
-11.5824 -0.503241 0.706016 
-0.503241 -8.26351 -0.557696 
0.706016 -0.557696 -16.064 
-11.4726 0.322043 -0.446835 
0.322043 -9.03132 -0.447622 
-0.446835 -0.447622 -15.406 
-11.2894 -0.124771 -0.00334233 
-0.124771 -10.8627 1.46798 
-0.00334233 1.46798 -13.7578 
-9.97551 -0.00378809 0.0224282 
-0.00378809 -9.97422 -0.0812523 
0.0224282 -0.0812523 -9.97005 
-9.97538 -0.00427643 0.0220102 
-0.00427643 -9.97502 -0.080245 
0.0220102 -0.080245 -9.96939 
-9.96996 -0.000141492 0.0156561 
-0.000141492 -9.97007 -0.0723915 
0.0156561 -0.0723915 -9.97975 
-9.98159 -0.00338131 0.0294428 
-0.00338131 -9.98651 -0.0778127 
0.0294428 -0.0778127 -9.95169 
-10.1086 0.00116477 0.0234534 
0.00116477 -10.1054 -0.014786 
0.0234534 -0.014786 -10.1447 
-10.1096 -0.0185345 0.0247766 
-0.0185345 -10.1437 -0.0234308 
0.0247766 -0.0234308 -10.1055 
-10.0688 -0.000541774 0.0444304 
-0.000541774 -10.0887 -0.0213029 
0.0444304 -0.0213029 -10.2013 
-10.0899 -0.00197066 0.0090434 
-0.00197066 -10.1302 0.00741035 
0.0090434 0.00741035 -10.1387 
-6.29601 0.843511 0.0772926 
0.843511 -10.5981 1.21246 
0.0772926 1.21246 -15.9988 
-12.0896 1.40016 -1.59051 
1.40016 -12.6451 -0.950393 
-1.59051 -0.950393 -8.15825 
-7.47235 1.48366 0.555059 
1.48366 -9.46602 -0.124469 
0.555059 -0.124469 -15.9546 
-10.626 -0.711495 2.82986 
-0.711495 -10.3375 1.07128 
2.82986 1.07128 -11.9295 
-9.99661 -0.0204675 0.00672604 
-0.0204675 -9.99456 0.00587863 
0.00672604 0.00587863 -10.018 
-9.98947 0.00514194 -0.00487299 
0.00514194 -10.0222 -0.020197 
-0.00487299 -0.020197 -9.99759 
-9.99503 0.0130716 0.00188345 
0.0130716 -10.0092 -0.00721612 
0.00188345 -0.00721612 -10.005 
-9.97211 0.00487926 -0.00296765 
0.00487926 -10.0248 -0.00558442 
-0.00296765 -0.00558442 -10.0123 
-9.94379 -0.00812063 -0.0630435 
-0.00812063 -9.94687 0.0455676 
-0.0630435 0.0455676 -9.96494 
-9.95572 -0.00014628 -0.0612786 
-0.00014628 -9.94859 0.0448098 
-0.0612786 0.0448098 -9.95129 
-9.96116 0.000615268 -0.0660454 
0.000615268 -9.95178 0.0444038 
-0.0660454 0.0444038 -9.94266 
-9.95687 -0.00095496 -0.054666 
-0.00095496 -9.94864 0.0452211 
-0.054666 0.0452211 -9.95008 
-9.9928 -0.000961857 0.0438547 
-0.000961857 -9.99636 0.0585282 
0.0438547 0.0585282 -9.99326 
-9.9943 -0.000569744 0.043467 
-0.000569744 -9.99714 0.0612581 
0.043467 0.0612581 -9.99098 
-9.98798 -0.000291621 0.0474409 
-0.000291621 -9.99047 0.0556881 
0.0474409 0.0556881 -10.004 
-9.99336 -0.00359948 0.0447221 
-0.00359948 -9.99443 0.0574588 
0.0447221 0.0574588 -9.99463 
-10.0505 0.0191166 0.0349593 
0.0191166 -9.97374 0.0223583 
0.0349593 0.0223583 -9.97232 
-10.0301 -0.0233704 -0.00996074 
-0.0233704 -9.98282 -0.0680561 
-0.00996074 -0.0680561 -9.98368 
-9.93435 0.0109067 -0.0143123 
0.0109067 -10.0343 0.0226172 
-0.0143123 0.0226172 -10.0279 
-9.95759 -0.0322126 -0.0144822 
-0.0322126 -9.95252 0.0147504 
-0.0144822 0.0147504 -10.0865 
-9.75547 -0.00173826 0.144758 
-0.00173826 -9.96041 0.00589155 
0.144758 0.00589155 -10.2054 
-9.787 -0.000977075 0.0695815 
-0.000977075 -9.9874 -0.00788688 
0.0695815 -0.00788688 -10.1469 
-9.82363 -0.0284823 0.0278007 
-0.0284823 -9.87368 -0.0402616 
0.0278007 -0.0402616 -10.2239 
-9.94934 0.00106507 0.0627229 
0.00106507 -9.84648 0.0225746 
0.0627229 0.0225746 -10.1254 
-9.97329 -0.00393737 -0.0143161 
-0.00393737 -9.92855 0.00373023 
-0.0143161 0.00373023 -9.97435 
-9.96997 -0.00132846 -0.0117185 
-0.00132846 -9.93777 0.00663724 
-0.0117185 0.00663724 -9.96846 
-9.91942 -0.0398181 -0.00814331 
-0.0398181 -9.94948 0.000559188 
-0.00814331 0.000559188 -10.0073 
-9.96775 -0.00422427 -0.0393351 
-0.00422427 -9.92763 0.0103973 
-0.0393351 0.0103973 -9.98082 
-9.95254 0.00724085 -0.00219192 
0.00724085 -9.96877 0.0130671 
-0.00219192 0.0130671 -9.98212 
-9.95256 0.0208083 0.00907243 
0.0208083 -9.95507 0.0211042 
0.00907243 0.0211042 -9.99579 
-9.95312 -0.00345747 -0.00613968 
-0.00345747 -9.96772 0.0118793 
-0.00613968 0.0118793 -9.98258 
-9.94451 0.0111785 -0.00177291 
0.0111785 -9.95751 0.000101454 
-0.00177291 0.000101454 -10.0014 
-9.99649 -0.00100389 0.0625517 
-0.00100389 -9.99582 -0.00560834 
0.0625517 -0.00560834 -9.99392 
-9.99616 0.000101934 0.0645708 
0.000101934 -9.99177 -0.0036788 
0.0645708 -0.0036788 -9.99831 
-9.99217 -0.000593812 0.0601048 
-0.000593812 -9.99281 -0.00408488 
0.0601048 -0.00408488 -10.0013 
-9.99668 -0.00120752 0.0638964 
-0.00120752 -9.99806 -0.0062614 
0.0638964 -0.0062614 -9.9915 
-9.9882 0.00134751 0.0593259 
0.00134751 -9.99124 -0.0467735 
0.0593259 -0.0467735 -10.0069 
-9.99707 0.00165509 0.0547504 
0.00165509 -9.99892 -0.0556641 
0.0547504 -0.0556641 -9.99031 
-9.99534 0.00360714 0.0533947 
0.00360714 -9.99865 -0.0497606 
0.0533947 -0.0497606 -9.99231 
-9.99721 0.00389117 0.0544776 
0.00389117 -9.99442 -0.050434 
0.0544776 -0.050434 -9.99467 
-9.97683 -0.00167054 0.0638207 
-0.00167054 -9.97499 0.0402704 
0.0638207 0.0402704 -9.96706 
-9.97017 0.00330283 0.0653269 
0.00330283 -9.97128 0.0438743 
0.0653269 0.0438743 -9.97743 
-9.98047 -0.00248397 0.0607171 
-0.00248397 -9.97184 0.0442259 
0.0607171 0.0442259 -9.96657 
-9.97113 0.00010145 0.0624971 
0.00010145 -9.97138 0.0414506 
0.0624971 0.0414506 -9.97637 
-10.0006 -0.00286809 0.0183187 
-0.00286809 -9.97735 0.00472676 
0.0183187 0.00472676 -10.0756 
-10.0387 0.00267617 0.0110496 
0.00267617 -10.0297 -0.00516791 
0.0110496 -0.00516791 -9.98519 
-10.0272 0.0100868 0.00365033 
0.0100868 -10.0059 0.000135929 
0.00365033 0.000135929 -10.0204 
-10.0267 -0.000264492 -0.0202904 
-0.000264492 -10.0101 -0.0113674 
-0.0202904 -0.0113674 -10.0167 
-9.89263 -0.0171487 0.0723238 
-0.0171487 -9.89455 0.139769 
0.0723238 0.139769 -9.84623 
-9.86149 0.0286126 0.157049 
0.0286126 -9.90593 0.0612845 
0.157049 0.0612845 -9.86598 
-9.92227 0.0647629 0.157805 
0.0647629 -9.88132 0.0520482 
0.157805 0.0520482 -9.82982 
-9.87368 0.0372214 0.138424 
0.0372214 -9.9048 0.0788552 
0.138424 0.0788552 -9.85493 
-11.0669 -2.99548 2.05031 
-2.99548 -6.26066 -1.31751 
2.05031 -1.31751 2.88683 
-8.78603 -0.806278 1.26729 
-0.806278 -7.25258 1.04066 
1.26729 1.04066 1.5979 
-5.30137 1.17952 0.235051 
1.17952 -2.92678 0.6598 
0.235051 0.6598 -6.21256 
-3.84055 -0.916983 5.30633 
-0.916983 -7.20069 2.04361 
5.30633 2.04361 -3.39947 
-9.98952 0.000601382 0.00712652 
0.000601382 -9.9928 0.0635125 
0.00712652 0.0635125 -10.0038 
-9.99718 0.0012206 0.00435032 
0.0012206 -9.99892 0.0673324 
0.00435032 0.0673324 -9.99002 
-9.99036 -0.0014529 0.00720767 
-0.0014529 -9.9969 0.0681803 
0.00720767 0.0681803 -9.99885 
-9.9995 0.000842185 0.00705915 
0.000842185 -9.997 0.0685171 
0.00705915 0.0685171 -9.98961 
-11.3741 -1.04162 -0.808734 
-1.04162 -8.93486 0.829533 
-0.808734 0.829533 -14.8287 
-10.8818 0.197969 0.257674 
0.197969 -9.6191 0.983479 
0.257674 0.983479 -14.6367 
-13.3938 1.53107 0.617915 
1.53107 -11.8629 0.873942 
0.617915 0.873942 -9.88091 
-11.0318 0.128162 -0.160535 
0.128162 -10.7815 -1.83574 
-0.160535 -1.83574 -13.3243 
-9.8928 -0.00471986 0.0769166 
-0.00471986 -9.90026 -0.0128297 
0.0769166 -0.0128297 -9.90355 
-9.91955 -0.0112858 0.0749845 
-0.0112858 -9.90283 0.00205875 
0.0749845 0.00205875 -9.87423 
-9.87579 -0.00411748 0.0942766 
-0.00411748 -9.89673 -0.00547787 
0.0942766 -0.00547787 -9.92409 
-9.8887 -0.0074776 0.075311 
-0.0074776 -9.89964 -0.0120651 
0.075311 -0.0120651 -9.90827 
-9.88025 0.0550693 0.0382033 
0.0550693 -9.91742 0.0495078 
0.0382033 0.0495078 -9.93796 
-9.89964 0.0119358 0.074141 
0.0119358 -9.91468 0.0864871 
0.074141 0.0864871 -9.92132 
-9.90524 -0.00766738 0.0677338 
-0.00766738 -9.87867 -0.0314263 
0.0677338 -0.0314263 -9.95172 
-9.86948 0.0409286 0.108486 
0.0409286 -9.90964 0.0193162 
0.108486 0.0193162 -9.95652 
-10.0222 0.0242752 -0.00025551 
0.0242752 -10.0186 0.000106498 
-0.00025551 0.000106498 -10.0422 
-10.0381 0.00985299 -0.00679156 
0.00985299 -10.0334 0.0121587 
-0.00679156 0.0121587 -10.0115 
-10.0332 -0.0141657 -0.00513439 
-0.0141657 -10.0309 -0.00386639 
-0.00513439 -0.00386639 -10.019 
-10.027 -0.0201645 -0.00080556 
-0.0201645 -10.0303 0.00845535 
-0.00080556 0.00845535 -10.0257 
-9.862 0.0764602 0.258535 
0.0764602 -9.90066 0.235451 
0.258535 0.235451 -9.88043 
-9.82252 0.0757368 0.161655 
0.0757368 -9.86005 0.160122 
0.161655 0.160122 -9.96051 
-9.89466 0.0485286 0.100402 
0.0485286 -9.8344 0.0579912 
0.100402 0.0579912 -9.91403 
-9.78965 0.0776061 0.156179 
0.0776061 -9.79667 0.117261 
0.156179 0.117261 -10.0568 
-9.98269 0.000104137 -0.0528387 
0.000104137 -9.98589 -0.0149423 
-0.0528387 -0.0149423 -9.97685 
-9.98942 -0.00186484 -0.0509713 
-0.00186484 -9.97198 -0.0114985 
-0.0509713 -0.0114985 -9.98403 
-9.98739 7.17928e-05 -0.0539417 
7.17928e-05 -9.98344 -0.0169444 
-0.0539417 -0.0169444 -9.9746 
-9.98658 -0.000964904 -0.0508317 
-0.000964904 -9.98346 -0.0161798 
-0.0508317 -0.0161798 -9.97539 
-9.98685 0.000189043 0.0550421 
0.000189043 -9.9862 -0.0585681 
0.0550421 -0.0585681 -9.98627 
-9.97973 -0.00465554 0.0551412 
-0.00465554 -9.98744 -0.0556498 
0.0551412 -0.0556498 -9.99215 
-9.98458 -0.00236375 0.0551921 
-0.00236375 -9.98791 -0.0543861 
0.0551921 -0.0543861 -9.98683 
-9.984 0.00212029 0.0551995 
0.00212029 -9.98636 -0.0578083 
0.0551995 -0.0578083 -9.98896 
-9.95683 -0.00445985 -0.0787098 
-0.00445985 -9.9656 0.0195853 
-0.0787098 0.0195853 -9.96171 
-9.99306 0.000254881 -0.0821935 
0.000254881 -9.95145 0.0117453 
-0.0821935 0.0117453 -9.93963 
-9.9441 -0.000782326 -0.0851823 
-0.000782326 -9.9577 0.0208769 
-0.0851823 0.0208769 -9.98235 
-9.95706 -0.00760881 -0.0613997 
-0.00760881 -9.96614 0.023313 
-0.0613997 0.023313 -9.96094 
-9.98876 -0.000303363 0.0105022 
-0.000303363 -9.98614 0.0124562 
0.0105022 0.0124562 -9.99416 
-9.99072 -0.00219869 0.00913906 
-0.00219869 -9.98707 0.0125126 
0.00913906 0.0125126 -9.99126 
-9.98706 -0.00234829 0.00875144 
-0.00234829 -9.98775 0.0175864 
0.00875144 0.0175864 -9.99425 
-9.99094 -0.00333886 0.00870374 
-0.00333886 -9.98751 0.016789 
0.00870374 0.016789 -9.99061 
-10.0586 -0.00440284 -0.0102504 
-0.00440284 -10.0255 0.00142728 
-0.0102504 0.00142728 -10.0591 
-10.049 -0.00658961 -0.0092726 
-0.00658961 -10.0341 0.0151848 
-0.0092726 0.0151848 -10.0601 
-10.0614 -0.00934601 -0.00738933 
-0.00934601 -10.0555 -0.00887787 
-0.00738933 -0.00887787 -10.0263 
-10.0548 -0.00323905 -0.0123962 
-0.00323905 -10.049 -0.00207087 
-0.0123962 -0.00207087 -10.0393 
-9.99197 0.00201285 0.0493578 
0.00201285 -9.99685 -0.0219143 
0.0493578 -0.0219143 -9.99323 
-9.99565 0.00295457 0.0491325 
0.00295457 -9.99576 -0.0206329 
0.0491325 -0.0206329 -9.99064 
-9.98657 0.000891341 0.0492615 
0.000891341 -9.98621 -0.0184286 
0.0492615 -0.0184286 -10.0093 
-9.9975 0.000307713 0.0522809 
0.000307713 -9.99627 -0.024187 
0.0522809 -0.024187 -9.98828 
-9.99213 -0.0047365 0.0171716 
-0.0047365 -9.99431 0.0189772 
0.0171716 0.0189772 -10.0025 
-9.99956 -0.00232291 0.0165765 
-0.00232291 -9.99242 0.01811 
0.0165765 0.01811 -9.99696 
-9.99669 0.00110583 0.0180726 
0.00110583 -10.0003 0.0141163 
0.0180726 0.0141163 -9.99194 
-9.99766 -0.00231407 0.0163151 
-0.00231407 -9.99706 0.0142988 
0.0163151 0.0142988 -9.99422 
-9.99039 -0.0042132 0.0434863 
-0.0042132 -9.98326 -0.0650908 
0.0434863 -0.0650908 -9.98645 
-9.98969 -0.0045981 0.0447048 
-0.0045981 -9.97686 -0.0662996 
0.0447048 -0.0662996 -9.99355 
-9.9837 0.00053349 0.048955 
0.00053349 -9.99036 -0.0678314 
0.048955 -0.0678314 -9.98603 
-9.98474 0.00265845 0.048167 
0.00265845 -9.9866 -0.06589 
0.048167 -0.06589 -9.98875 
-9.98315 -0.00798459 -0.0288308 
-0.00798459 -9.98199 0.0730475 
-0.0288308 0.0730475 -9.992 
-9.98659 -0.00327526 -0.0323204 
-0.00327526 -9.98829 0.0720498 
-0.0323204 0.0720498 -9.98226 
-9.9856 2.86778e-05 -0.02981 
2.86778e-05 -9.98699 0.0728084 
-0.02981 0.0728084 -9.98455 
-9.98294 0.00137594 -0.030244 
0.00137594 -9.98803 0.0718243 
-0.030244 0.0718243 -9.98617 
-9.98583 0.00104045 -0.0368248 
0.00104045 -9.98343 0.0515797 
-0.0368248 0.0515797 -9.98544 
-9.98972 -0.00138234 -0.0376754 
-0.00138234 -9.98525 0.0531678 
-0.0376754 0.0531678 -9.97973 
-9.98476 0.00198442 -0.0309198 
0.00198442 -9.98284 0.047898 
-0.0309198 0.047898 -9.98711 
-9.98344 0.00069697 -0.0334644 
0.00069697 -9.98871 0.0485285 
-0.0334644 0.0485285 -9.98256 
-9.99689 0.00253794 0.0300435 
0.00253794 -9.98712 -0.0135027 
0.0300435 -0.0135027 -10.0048 
-9.99707 0.00437464 0.0272582 
0.00437464 -9.99743 -0.0133833 
0.0272582 -0.0133833 -9.99432 
-9.99835 -0.000516906 0.0254082 
-0.000516906 -9.99824 -0.014417 
0.0254082 -0.014417 -9.99223 
-9.99927 0.00169399 0.0245815 
0.00169399 -9.99751 -0.0132681 
0.0245815 -0.0132681 -9.99205 
-10.0061 0.00143759 -0.0010705 
0.00143759 -10.0093 -0.000288185 
-0.0010705 -0.000288185 -9.99777 
-10.0045 0.00544192 0.00579732 
0.00544192 -10.0067 1.80426e-05 
0.00579732 1.80426e-05 -10.002 
-9.99619 -0.00875137 -0.00154364 
-0.00875137 -10.0182 -0.00461005 
-0.00154364 -0.00461005 -9.99882 
-10.022 -0.00619679 0.00395367 
-0.00619679 -9.97525 0.012461 
0.00395367 0.012461 -10.0159 
-9.80723 0.152564 -0.00979602 
0.152564 -9.89931 -0.111508 
-0.00979602 -0.111508 -10.4049 
-9.83053 0.203635 -0.0607854 
0.203635 -9.8118 -0.0216905 
-0.0607854 -0.0216905 -10.4691 
-9.92873 0.0925673 -0.0533663 
0.0925673 -10.0273 -0.0834809 
-0.0533663 -0.0834809 -10.1554 
-9.87551 0.212905 0.00609815 
0.212905 -9.96093 -0.00107213 
0.00609815 -0.00107213 -10.275 
-9.91142 0.000522645 0.0733729 
0.000522645 -9.89735 -0.0249328 
0.0733729 -0.0249328 -9.91292 
-9.89798 -0.0164236 0.0649843 
-0.0164236 -9.91079 -0.0320422 
0.0649843 -0.0320422 -9.91291 
-9.9084 -0.00706698 0.0742417 
-0.00706698 -9.90785 -0.0230068 
0.0742417 -0.0230068 -9.90543 
-9.90396 -0.00821224 0.0772345 
-0.00821224 -9.90242 -0.029894 
0.0772345 -0.029894 -9.91531 
-9.99598 -0.000455087 0.0163385 
-0.000455087 -9.99563 -0.0650771 
0.0163385 -0.0650771 -9.993 
-9.99617 -0.000301539 0.0174802 
-0.000301539 -9.99119 -0.0629165 
0.0174802 -0.0629165 -9.99724 
-9.99052 0.000999649 0.0130697 
0.000999649 -9.99168 -0.063505 
0.0130697 -0.063505 -10.0024 
-9.99642 -0.000233064 0.0175621 
-0.000233064 -9.99722 -0.0653629 
0.0175621 -0.0653629 -9.99096 
-9.95429 -0.00176064 -0.0634518 
-0.00176064 -9.95109 0.0499444 
-0.0634518 0.0499444 -9.97899 
-9.96845 0.00496138 -0.0617766 
0.00496138 -9.96543 0.047561 
-0.0617766 0.047561 -9.9505 
-9.9638 -0.000119511 -0.062943 
-0.000119511 -9.95761 0.0430258 
-0.062943 0.0430258 -9.96296 
-9.95886 -0.00215693 -0.0593 
-0.00215693 -9.95898 0.0363006 
-0.0593 0.0363006 -9.96653 
-9.9913 0.00306857 -0.0301567 
0.00306857 -9.97187 -0.0737289 
-0.0301567 -0.0737289 -9.99489 
-9.9893 0.00191293 -0.030705 
0.00191293 -9.98298 -0.0741077 
-0.030705 -0.0741077 -9.98579 
-9.98151 3.65329e-05 -0.0358746 
3.65329e-05 -9.99097 -0.0763937 
-0.0358746 -0.0763937 -9.98558 
-9.98296 -0.000208594 -0.0351133 
-0.000208594 -9.98894 -0.0731821 
-0.0351133 -0.0731821 -9.98616 
-9.93713 -0.0141974 -0.0141476 
-0.0141974 -9.93878 0.00283686 
-0.0141476 0.00283686 -9.94857 
-9.94344 -0.0158916 -0.00891092 
-0.0158916 -9.937 -0.00349929 
-0.00891092 -0.00349929 -9.94404 
-9.93456 -0.0127441 -0.0222919 
-0.0127441 -9.94761 -0.00389583 
-0.0222919 -0.00389583 -9.94231 
-9.9395 -0.0354072 -0.0151058 
-0.0354072 -9.95267 0.00457852 
-0.0151058 0.00457852 -9.93232 
-9.94526 0.00770849 -0.0416493 
0.00770849 -9.95108 0.0377373 
-0.0416493 0.0377373 -9.95873 
-9.95047 0.00789155 -0.0387685 
0.00789155 -9.94724 0.0427368 
-0.0387685 0.0427368 -9.95736 
-9.94907 0.00888657 -0.042934 
0.00888657 -9.94953 0.0382054 
-0.042934 0.0382054 -9.95647 
-9.94539 -0.0035194 -0.0451938 
-0.0035194 -9.95007 0.0406028 
-0.0451938 0.0406028 -9.95961 
-10.1068 0.0116711 0.0181634 
0.0116711 -10.0737 -0.00393274 
0.0181634 -0.00393274 -10.0602 
-10.1881 -0.0303932 0.0335395 
-0.0303932 -10.0697 0.00983965 
0.0335395 0.00983965 -9.98287 
-10.0346 -0.0197777 0.01214 
-0.0197777 -10.0085 0.0280798 
0.01214 0.0280798 -10.1976 
-10.1057 -0.0337149 0.0176088 
-0.0337149 -10.0604 -0.0777331 
0.0176088 -0.0777331 -10.0746 
-9.90806 -0.0176841 0.00963869 
-0.0176841 -9.90387 0.00728991 
0.00963869 0.00728991 -10.1564 
-9.9137 -0.00830877 0.0147781 
-0.00830877 -9.91003 0.0310597 
0.0147781 0.0310597 -10.1446 
-9.92203 -0.0135479 0.0147253 
-0.0135479 -9.89166 0.00542634 
0.0147253 0.00542634 -10.1546 
-9.91227 -0.0135427 0.0139702 
-0.0135427 -9.89863 0.00715936 
0.0139702 0.00715936 -10.1574 
-9.93238 -0.000746628 0.0565245 
-0.000746628 -9.90427 0.026653 
0.0565245 0.026653 -9.9171 
-9.90507 0.0170261 0.0687383 
0.0170261 -9.91237 0.0347356 
0.0687383 0.0347356 -9.93631 
-9.92838 0.0104724 0.0587415 
0.0104724 -9.91092 0.0266482 
0.0587415 0.0266482 -9.91444 
-9.92673 0.015499 0.0566975 
0.015499 -9.89781 0.0320938 
0.0566975 0.0320938 -9.9292 
-9.99394 0.00363342 -0.0523777 
0.00363342 -9.99713 0.0491119 
-0.0523777 0.0491119 -9.99251 
-9.98745 0.000758045 -0.0577347 
0.000758045 -9.99001 0.0463297 
-0.0577347 0.0463297 -10.0061 
-9.99653 0.00108191 -0.0533577 
0.00108191 -9.99806 0.0557168 
-0.0533577 0.0557168 -9.989 
-9.99636 0.00338312 -0.0528465 
0.00338312 -9.9931 0.0498876 
-0.0528465 0.0498876 -9.99412 
-10.0207 -0.0067065 -0.00400152 
-0.0067065 -10.0222 -0.0130645 
-0.00400152 -0.0130645 -9.99396 
-10.0038 -0.00748162 0.00333516 
-0.00748162 -10.042 0.00646195 
0.00333516 0.00646195 -9.99112 
-10.0479 0.0125435 0.0103207 
0.0125435 -9.95661 -0.00575124 
0.0103207 -0.00575124 -10.0323 
-10.0161 0.000859634 -0.0181756 
0.000859634 -10.0334 -0.0150065 
-0.0181756 -0.0150065 -9.98735 
-9.97736 0.000603693 0.019179 
0.000603693 -9.97321 0.00696117 
0.019179 0.00696117 -10.1057 
-9.99676 -0.0247067 1.21503e-05 
-0.0247067 -10.0316 -0.00767849 
1.21503e-05 -0.00767849 -10.0279 
-10.0465 -0.000497209 0.0146463 
-0.000497209 -10.0582 -0.00869251 
0.0146463 -0.00869251 -9.95155 
-10.0152 0.0152123 -0.0447576 
0.0152123 -10.0229 -0.0249895 
-0.0447576 -0.0249895 -10.0182 
-11.5688 -0.262436 -0.667512 
-0.262436 -10.5504 0.0806598 
-0.667512 0.0806598 -10.3752 
-10.8004 0.0428495 -0.0266114 
0.0428495 -10.7514 0.272345 
-0.0266114 0.272345 -10.9425 
-10.5994 0.0916979 0.409285 
0.0916979 -9.76911 0.652986 
0.409285 0.652986 -12.1258 
-11.9828 0.285065 0.131929 
0.285065 -9.98075 -0.418935 
0.131929 -0.418935 -10.5308 
-10.0586 0.00635269 -0.00150191 
0.00635269 -10.1097 0.0841675 
-0.00150191 0.0841675 -10.4681 
-10.1101 -0.0735657 0.009347 
-0.0735657 -10.2126 0.00685687 
0.009347 0.00685687 -10.3137 
-10.3553 -0.0672837 0.13803 
-0.0672837 -10.3043 0.0420863 
0.13803 0.0420863 -9.97673 
-10.4205 -0.0555614 -0.113701 
-0.0555614 -10.1265 0.00781175 
-0.113701 0.00781175 -10.0893 
-10.0891 -0.0104737 0.0167046 
-0.0104737 -10.0699 -0.010629 
0.0167046 -0.010629 -9.96404 
-10.0296 0.0129777 0.00755306 
0.0129777 -10.0222 0.0191561 
0.00755306 0.0191561 -10.0713 
-10.0197 -0.00297931 0.0207328 
-0.00297931 -9.99743 0.0109946 
0.0207328 0.0109946 -10.1058 
-10.0545 -0.0030119 -0.0290129 
-0.0030119 -10.0148 0.0046835 
-0.0290129 0.0046835 -10.0537 
-9.99315 0.000827994 0.0502883 
0.000827994 -9.9879 0.0342156 
0.0502883 0.0342156 -9.99909 
-9.99482 0.000344137 0.0476342 
0.000344137 -9.99276 0.0355207 
0.0476342 0.0355207 -9.99255 
-9.99111 0.00178656 0.045202 
0.00178656 -9.98888 0.0362374 
0.045202 0.0362374 -10.0001 
-9.99536 -0.000281494 0.0478733 
-0.000281494 -9.99512 0.0354715 
0.0478733 0.0354715 -9.98965 
-9.99733 0.000844786 -0.0421193 
0.000844786 -9.99772 0.0631864 
-0.0421193 0.0631864 -9.99101 
-9.99242 0.00150165 -0.0351291 
0.00150165 -9.98932 0.06592 
-0.0351291 0.06592 -10.0043 
-9.99609 0.0030731 -0.0389149 
0.0030731 -9.99534 0.0631173 
-0.0389149 0.0631173 -9.99463 
-9.99406 0.00250101 -0.0384914 
0.00250101 -9.99762 0.0625223 
-0.0384914 0.0625223 -9.99437 
-10.0248 -0.0114721 -0.00614161 
-0.0114721 -10.0296 -0.0178357 
-0.00614161 -0.0178357 -10.0039 
-10.0122 -0.00888118 0.00568123 
-0.00888118 -10.0132 0.000202813 
0.00568123 0.000202813 -10.033 
-10.0199 0.00504597 -0.00198008 
0.00504597 -9.99515 0.00807636 
-0.00198008 0.00807636 -10.0433 
-10.017 -0.00956966 0.000109128 
-0.00956966 -10.0295 -0.00310059 
0.000109128 -0.00310059 -10.0119 
-9.91498 -0.016442 -0.0468779 
-0.016442 -9.94848 -0.0477922 
-0.0468779 -0.0477922 -9.92193 
-9.91801 0.0297749 -0.0339287 
0.0297749 -9.90712 -0.0292807 
-0.0339287 -0.0292807 -9.96025 
-9.90743 0.0026544 -0.0419721 
0.0026544 -9.95112 -0.0408029 
-0.0419721 -0.0408029 -9.92683 
-9.89591 0.0214564 -0.0386912 
0.0214564 -9.93655 -0.0639428 
-0.0386912 -0.0639428 -9.95293 
-9.78881 -0.0493532 -0.336012 
-0.0493532 -10.0458 0.599369 
-0.336012 0.599369 -9.76254 
-10.051 -0.257613 -0.211556 
-0.257613 -9.8728 0.376152 
-0.211556 0.376152 -9.6733 
-9.9383 -0.302051 0.0941148 
-0.302051 -9.85142 0.308665 
0.0941148 0.308665 -9.80738 
-9.68812 -0.140788 -0.055868 
-0.140788 -9.99045 -0.145809 
-0.055868 -0.145809 -9.91854 
-9.99449 -0.00198744 -0.0322575 
-0.00198744 -9.99193 -0.0267739 
-0.0322575 -0.0267739 -9.99793 
-9.9947 -0.00259683 -0.0279301 
-0.00259683 -9.98991 -0.0285299 
-0.0279301 -0.0285299 -9.99975 
-9.9953 -0.00183978 -0.0299602 
-0.00183978 -9.9949 -0.0247979 
-0.0299602 -0.0247979 -9.99415 
-9.99661 -0.00384552 -0.031322 
-0.00384552 -9.99533 -0.0241447 
-0.031322 -0.0241447 -9.9924 
-9.99509 -0.00227255 -0.027695 
-0.00227255 -9.99546 -0.0277292 
-0.027695 -0.0277292 -9.99407 
-9.99109 -0.00288049 -0.0311998 
-0.00288049 -9.99556 -0.0259554 
-0.0311998 -0.0259554 -9.99797 
-9.99202 -0.00258767 -0.0302199 
-0.00258767 -9.99363 -0.0298578 
-0.0302199 -0.0298578 -9.99897 
-9.99581 -0.00369626 -0.0274476 
-0.00369626 -9.99657 -0.0286487 
-0.0274476 -0.0286487 -9.99224 
-9.90517 -0.0272176 0.00213816 
-0.0272176 -9.90877 -0.0397284 
0.00213816 -0.0397284 -9.95078 
-9.86538 -0.0508879 -0.00996063 
-0.0508879 -9.96683 -0.0415631 
-0.00996063 -0.0415631 -9.93251 
-9.98623 -0.0315512 0.0109493 
-0.0315512 -9.76019 -0.00179059 
0.0109493 -0.00179059 -10.0183 
-9.85985 0.0181503 0.014502 
0.0181503 -9.92781 -0.0982338 
0.014502 -0.0982338 -9.97705 
-9.94045 0.000368353 -0.00666173 
0.000368353 -9.92626 -0.0161897 
-0.00666173 -0.0161897 -10.028 
-9.93777 0.00369712 -0.00288171 
0.00369712 -9.93365 0.000564154 
-0.00288171 0.000564154 -10.0232 
-9.93601 -0.0103912 -0.00370047 
-0.0103912 -9.94118 -0.0167266 
-0.00370047 -0.0167266 -10.0175 
-9.93545 -0.000451668 -0.00508683 
-0.000451668 -9.93127 -0.0143933 
-0.00508683 -0.0143933 -10.0279 
-9.98878 -0.00125081 -0.0809798 
-0.00125081 -9.98662 0.00741898 
-0.0809798 0.00741898 -9.98526 
-9.99178 -0.000708998 -0.0854131 
-0.000708998 -9.99005 0.00534176 
-0.0854131 0.00534176 -9.97883 
-9.97121 0.00238224 -0.0796686 
0.00238224 -9.991 0.00226802 
-0.0796686 0.00226802 -9.99845 
-9.99168 -0.000817341 -0.0801123 
-0.000817341 -9.986 0.00873866 
-0.0801123 0.00873866 -9.98298 
-9.98803 -0.00325468 -0.0294599 
-0.00325468 -9.99624 -0.0709758 
-0.0294599 -0.0709758 -9.99001 
-9.98168 -0.00177946 -0.0245597 
-0.00177946 -9.98069 -0.0749425 
-0.0245597 -0.0749425 -10.0119 
-9.99465 -0.000249173 -0.0340409 
-0.000249173 -9.9958 -0.0748824 
-0.0340409 -0.0748824 -9.98384 
-9.98851 0.000266119 -0.0307763 
0.000266119 -9.99623 -0.0706051 
-0.0307763 -0.0706051 -9.98954 
-9.95191 0.0077683 0.0323354 
0.0077683 -9.94062 0.0714355 
0.0323354 0.0714355 -9.96083 
-9.94772 0.000844865 0.0279394 
0.000844865 -9.95491 0.072064 
0.0279394 0.072064 -9.95072 
-9.9468 0.000787767 0.032981 
0.000787767 -9.96055 0.0732965 
0.032981 0.0732965 -9.94601 
-9.94884 0.00361746 0.0335044 
0.00361746 -9.95583 0.0648896 
0.0335044 0.0648896 -9.94868 
-9.99295 -0.000353825 -0.0142813 
-0.000353825 -10.0005 -0.0492419 
-0.0142813 -0.0492419 -9.98873 
-9.98293 -0.000769911 -0.0219328 
-0.000769911 -9.98452 -0.0473263 
-0.0219328 -0.0473263 -10.0148 
-9.99255 -0.00533841 -0.0166892 
-0.00533841 -10.0025 -0.0505143 
-0.0166892 -0.0505143 -9.98721 
-9.99855 -0.00137261 -0.0124482 
-0.00137261 -9.9991 -0.0446145 
-0.0124482 -0.0446145 -9.98456 
-9.90953 -0.000564156 -0.0255693 
-0.000564156 -9.91889 0.0796256 
-0.0255693 0.0796256 -9.92774 
-9.92287 -0.00343923 -0.0232284 
-0.00343923 -9.91876 0.0814043 
-0.0232284 0.0814043 -9.91452 
-9.92829 -0.0166089 -0.0144109 
-0.0166089 -9.91516 0.0800228 
-0.0144109 0.0800228 -9.91271 
-9.91999 -0.00168763 -0.0245382 
-0.00168763 -9.91281 0.0820608 
-0.0245382 0.0820608 -9.92336 
-9.94463 -0.0240998 -0.0304194 
-0.0240998 -9.94961 -0.0101413 
-0.0304194 -0.0101413 -9.93744 
-9.93956 -0.022327 -0.01077 
-0.022327 -9.94282 -0.00697945 
-0.01077 -0.00697945 -9.94931 
-9.9421 -0.00685999 -0.0249094 
-0.00685999 -9.93796 -0.0236051 
-0.0249094 -0.0236051 -9.95163 
-9.95082 -0.0364196 -0.0271334 
-0.0364196 -9.95012 -0.0190919 
-0.0271334 -0.0190919 -9.93075 
-9.98764 0.00215235 -0.0420293 
0.00215235 -9.98005 -0.0064846 
-0.0420293 -0.0064846 -9.97812 
-9.97586 -0.00497161 -0.0427022 
-0.00497161 -9.98356 -0.00909794 
-0.0427022 -0.00909794 -9.9864 
-9.98642 0.000359523 -0.0400149 
0.000359523 -9.98016 -0.00543666 
-0.0400149 -0.00543666 -9.97923 
-9.9822 -0.00485779 -0.0384064 
-0.00485779 -9.99191 -0.00417336 
-0.0384064 -0.00417336 -9.97171 
-10.012 0.0299605 0.0200196 
0.0299605 -9.91906 0.0605004 
0.0200196 0.0605004 -9.53791 
-9.87776 -0.020782 0.0793601 
-0.020782 -9.88446 0.0186306 
0.0793601 0.0186306 -9.70678 
-9.88477 0.00230909 -0.0378273 
0.00230909 -9.79864 -0.02009 
-0.0378273 -0.02009 -9.78559 
-9.916 -0.0285676 0.112977 
-0.0285676 -9.7687 0.0426989 
0.112977 0.0426989 -9.78429 
-9.92935 2.34316 0.987883 
2.34316 -5.25643 -0.568773 
0.987883 -0.568773 -17.697 
-14.93 -1.39402 -0.265661 
-1.39402 -12.2781 2.52737 
-0.265661 2.52737 -5.67464 
-9.87249 -0.0264742 -0.745891 
-0.0264742 -7.23756 0.0790944 
-0.745891 0.0790944 -15.7727 
-8.93399 -0.375067 -2.03699 
-0.375067 -12.509 -5.63095 
-2.03699 -5.63095 -11.4397 
-9.84496 0.0353291 -0.0542818 
0.0353291 -10.0188 0.0328863 
-0.0542818 0.0328863 -9.92383 
-9.93981 -0.0399108 -0.00889192 
-0.0399108 -9.88187 0.0283131 
-0.00889192 0.0283131 -9.96588 
-9.96348 -0.0358192 -0.0132469 
-0.0358192 -9.87523 0.00569009 
-0.0132469 0.00569009 -9.94886 
-9.91007 -0.0711075 0.00233094 
-0.0711075 -9.91922 -0.00410179 
0.00233094 -0.00410179 -9.95829 
-9.79177 0.059837 0.0364166 
0.059837 -9.97561 -0.0809661 
0.0364166 -0.0809661 -10.1865 
-9.72495 0.256701 0.34048 
0.256701 -9.92916 0.00290212 
0.34048 0.00290212 -10.2998 
-9.92114 0.292729 0.0555119 
0.292729 -9.88944 0.130919 
0.0555119 0.130919 -10.1433 
-9.95158 0.189639 0.146962 
0.189639 -9.94355 0.153555 
0.146962 0.153555 -10.0587 
-10.2303 -0.486571 -0.347662 
-0.486571 -9.27187 0.533959 
-0.347662 0.533959 -12.8189 
-9.54479 -0.0204556 0.211923 
-0.0204556 -10.8628 0.0767111 
0.211923 0.0767111 -11.9134 
-10.5604 0.468649 0.632051 
0.468649 -11.6172 0.0336697 
0.632051 0.0336697 -10.1434 
-9.12513 -0.598605 0.73276 
-0.598605 -11.1406 -1.10658 
0.73276 -1.10658 -12.0553 
-9.99822 0.00115583 0.063901 
0.00115583 -9.99609 -0.0418906 
0.063901 -0.0418906 -9.99173 
-9.9943 0.00418378 0.0596043 
0.00418378 -9.99632 -0.0426864 
0.0596043 -0.0426864 -9.99541 
-9.99246 0.000562154 0.0579101 
0.000562154 -9.98758 -0.0480713 
0.0579101 -0.0480713 -10.006 
-9.99853 0.00256132 0.0593994 
0.00256132 -9.99462 -0.0416289 
0.0593994 -0.0416289 -9.99289 
-9.92058 0.0040125 0.000264943 
0.0040125 -9.89228 0.0835246 
0.000264943 0.0835246 -9.89239 
-9.90289 0.00581448 0.00322675 
0.00581448 -9.8858 0.0850748 
0.00322675 0.0850748 -9.91656 
-9.89714 0.00399868 0.0149957 
0.00399868 -9.90657 0.0834786 
0.0149957 0.0834786 -9.90154 
-9.90354 0.00780141 0.00535601 
0.00780141 -9.89518 0.0851127 
0.00535601 0.0851127 -9.90654 
-9.97278 -0.00663891 -0.00255602 
-0.00663891 -9.97939 0.00509991 
-0.00255602 0.00509991 -9.98288 
-9.97269 -0.00552974 0.00517064 
-0.00552974 -9.97999 -0.00470141 
0.00517064 -0.00470141 -9.98237 
-9.97343 0.00528986 -0.00279145 
0.00528986 -9.97399 0.00824707 
-0.00279145 0.00824707 -9.98763 
-9.96122 -0.000474461 -0.000661804 
-0.000474461 -9.9836 0.00539204 
-0.000661804 0.00539204 -9.99023 
-9.9874 0.00127138 0.0371706 
0.00127138 -9.99335 -0.0531565 
0.0371706 -0.0531565 -10.0016 
-9.99406 -0.000912654 0.0378434 
-0.000912654 -9.99623 -0.0501117 
0.0378434 -0.0501117 -9.99207 
-9.9909 0.000201811 0.0377363 
0.000201811 -9.99356 -0.047493 
0.0377363 -0.047493 -9.9979 
-9.99629 0.000767626 0.0388759 
0.000767626 -9.99627 -0.0488601 
0.0388759 -0.0488601 -9.9898 
-9.93436 0.00374594 0.0805554 
0.00374594 -9.8873 0.0956476 
0.0805554 0.0956476 -9.91807 
-9.95321 -0.00590461 0.0622813 
-0.00590461 -9.88856 0.0920518 
0.0622813 0.0920518 -9.89796 
-9.91361 0.0072586 0.0476009 
0.0072586 -9.93368 0.0464137 
0.0476009 0.0464137 -9.89243 
-9.96258 -0.00476419 0.0622084 
-0.00476419 -9.92904 0.103276 
0.0622084 0.103276 -9.84811 
-9.96352 -0.00603055 -0.0571435 
-0.00603055 -9.97453 -0.00489012 
-0.0571435 -0.00489012 -9.93907 
-9.96341 -0.000565103 -0.034943 
-0.000565103 -9.96523 -0.00851014 
-0.034943 -0.00851014 -9.94849 
-9.98753 0.0030226 -0.0322392 
0.0030226 -9.95732 -0.00376007 
-0.0322392 -0.00376007 -9.93228 
-9.9672 -0.00554303 -0.0378694 
-0.00554303 -9.96608 -0.007246 
-0.0378694 -0.007246 -9.94383 
-9.83989 0.0151766 -0.0833767 
0.0151766 -9.8859 0.00623808 
-0.0833767 0.00623808 -9.91609 
-9.89616 -0.00486532 -0.0833424 
-0.00486532 -9.8794 0.00367782 
-0.0833424 0.00367782 -9.86633 
-9.8615 0.00808601 -0.0922592 
0.00808601 -9.88614 -0.0156416 
-0.0922592 -0.0156416 -9.89425 
-9.86386 0.00630524 -0.1045 
0.00630524 -9.88312 -0.0104276 
-0.1045 -0.0104276 -9.8949 
-9.94182 -0.00353564 -0.071607 
-0.00353564 -9.93371 0.0400539 
-0.071607 0.0400539 -9.94601 
-9.94771 -0.00273542 -0.0695694 
-0.00273542 -9.93842 0.0367477 
-0.0695694 0.0367477 -9.93541 
-9.94694 -0.00170046 -0.069321 
-0.00170046 -9.93488 0.0378243 
-0.069321 0.0378243 -9.93972 
-9.94471 -0.00329591 -0.0711418 
-0.00329591 -9.93518 0.0367606 
-0.0711418 0.0367606 -9.94166 
-9.91234 0.036595 0.0163064 
0.036595 -9.92879 0.0332611 
0.0163064 0.0332611 -9.97287 
-9.93057 -0.00119816 0.025432 
-0.00119816 -9.93527 0.0293756 
0.025432 0.0293756 -9.94816 
-9.9407 -0.010922 0.0273805 
-0.010922 -9.92078 0.0348379 
0.0273805 0.0348379 -9.95252 
-9.91833 -0.00466927 0.0323562 
-0.00466927 -9.93317 0.0449014 
0.0323562 0.0449014 -9.96249 
-9.98454 -0.000322133 -0.00515983 
-0.000322133 -9.98718 0.0792895 
-0.00515983 0.0792895 -9.98475 
-9.98824 0.00304696 -0.00215725 
0.00304696 -9.97254 0.0776181 
-0.00215725 0.0776181 -9.99568 
-9.98777 2.33569e-05 -0.00442625 
2.33569e-05 -9.98839 0.0816455 
-0.00442625 0.0816455 -9.98031 
-9.98394 -0.000123918 -0.00643444 
-0.000123918 -9.9881 0.0793148 
-0.00643444 0.0793148 -9.98443 
-9.99263 -0.00342047 -0.0131731 
-0.00342047 -9.99335 -0.00382175 
-0.0131731 -0.00382175 -9.998 
-9.99384 -0.00140601 -0.0107178 
-0.00140601 -9.99229 -0.00506967 
-0.0107178 -0.00506967 -9.99785 
-9.99313 0.00112229 -0.011476 
0.00112229 -9.99448 -0.00207973 
-0.011476 -0.00207973 -9.99636 
-9.99596 -0.00161783 -0.01242 
-0.00161783 -9.99417 -0.00275254 
-0.01242 -0.00275254 -9.99385 
-9.97153 -0.00116732 -0.0202996 
-0.00116732 -9.93945 -0.00217213 
-0.0202996 -0.00217213 -9.95479 
-9.9077 -0.0216049 -0.0326629 
-0.0216049 -9.9506 -0.00475632 
-0.0326629 -0.00475632 -10.0075 
-9.9171 -0.0286319 -0.0170787 
-0.0286319 -9.94936 0.000941617 
-0.0170787 0.000941617 -9.99931 
-9.9159 -0.00781837 -0.00195344 
-0.00781837 -9.95574 -0.00356748 
-0.00195344 -0.00356748 -9.99412 
-10.0121 0.00579492 0.0051081 
0.00579492 -10.0093 -0.0144211 
0.0051081 -0.0144211 -9.97654 
-9.99116 -0.00842799 0.00504549 
-0.00842799 -9.98711 0.00723203 
0.00504549 0.00723203 -10.0197 
-9.99081 5.3589e-05 -0.0027909 
5.3589e-05 -9.99296 0.00246165 
-0.0027909 0.00246165 -10.0142 
-9.99366 0.00487995 -0.00267525 
0.00487995 -10.0265 0.00818186 
-0.00267525 0.00818186 -9.97781 
-9.89043 -0.130157 -0.0166442 
-0.130157 -9.85789 0.102292 
-0.0166442 0.102292 -10.1904 
-9.94679 -0.0959101 0.0577109 
-0.0959101 -9.80442 0.0796687 
0.0577109 0.0796687 -10.1875 
-9.94869 -0.105785 0.0479874 
-0.105785 -9.88633 0.0409241 
0.0479874 0.0409241 -10.1037 
-9.92307 -0.066508 0.0111554 
-0.066508 -9.8706 0.0565776 
0.0111554 0.0565776 -10.1451 
-9.95283 -0.00406363 0.0593178 
-0.00406363 -10.0025 0.0285602 
0.0593178 0.0285602 -9.98668 
-10.0048 0.0414878 -0.0852177 
0.0414878 -9.99773 -0.0390643 
-0.0852177 -0.0390643 -9.93943 
-9.96638 0.0227031 -0.000900151 
0.0227031 -9.95396 0.0204557 
-0.000900151 0.0204557 -10.0217 
-9.92162 0.0480951 -0.000514247 
0.0480951 -9.95205 0.0340719 
-0.000514247 0.0340719 -10.0683 
-9.98129 0.0054981 0.00683137 
0.0054981 -9.98611 0.079432 
0.00683137 0.079432 -9.98684 
-9.98259 0.00191897 0.0178318 
0.00191897 -9.98972 0.0758333 
0.0178318 0.0758333 -9.98192 
-9.98498 0.002794 0.0142982 
0.002794 -9.98522 0.0750517 
0.0142982 0.0750517 -9.98404 
-9.98514 0.00138698 0.00878612 
0.00138698 -9.98837 0.0797783 
0.00878612 0.0797783 -9.98073 
-9.99241 -0.00133002 -0.0387219 
-0.00133002 -9.99132 -0.0515131 
-0.0387219 -0.0515131 -9.99829 
-9.99298 -0.002968 -0.0409451 
-0.002968 -9.99561 -0.0521246 
-0.0409451 -0.0521246 -9.99342 
-9.99439 -0.000343026 -0.0420411 
-0.000343026 -9.98597 -0.0507098 
-0.0420411 -0.0507098 -10.0017 
-9.99452 -0.000409843 -0.0396127 
-0.000409843 -9.99666 -0.0516202 
-0.0396127 -0.0516202 -9.99082 
-9.90448 -0.00784718 0.0230395 
-0.00784718 -9.90374 -0.090762 
0.0230395 -0.090762 -9.92622 
-9.90765 -0.00283923 0.0256163 
-0.00283923 -9.94138 -0.0939746 
0.0256163 -0.0939746 -9.8854 
-9.91651 -0.0167957 0.0277498 
-0.0167957 -9.90432 -0.0854799 
0.0277498 -0.0854799 -9.9136 
-9.9191 -0.00401597 0.0295488 
-0.00401597 -9.91009 -0.0729209 
0.0295488 -0.0729209 -9.90524 
-10.1539 0.0348487 0.0315605 
0.0348487 -10.1572 0.0133085 
0.0315605 0.0133085 -10.1822 
-10.1403 -0.00998074 -0.00373483 
-0.00998074 -10.0856 0.0032773 
-0.00373483 0.0032773 -10.2673 
-10.1638 -0.011289 0.0270076 
-0.011289 -10.2049 -0.0183367 
0.0270076 -0.0183367 -10.1246 
-10.1593 0.0203555 0.0184931 
0.0203555 -10.1817 0.0305153 
0.0184931 0.0305153 -10.1522 
-10.1714 -0.0127259 0.0415795 
-0.0127259 -10.2501 0.0247155 
0.0415795 0.0247155 -9.84206 
-10.0179 -0.0132476 -0.0440158 
-0.0132476 -10.099 0.00670122 
-0.0440158 0.00670122 -10.1466 
-10.1332 0.0473996 0.0446359 
0.0473996 -9.96525 0.0308008 
0.0446359 0.0308008 -10.1651 
-10.0486 -0.0146397 -0.0114939 
-0.0146397 -10.1692 -0.123728 
-0.0114939 -0.123728 -10.0457 
-9.95512 -0.0164001 -0.0171846 
-0.0164001 -9.92758 -0.00677858 
-0.0171846 -0.00677858 -9.95282 
-9.89708 -0.020317 -0.0374819 
-0.020317 -9.95606 -0.0145305 
-0.0374819 -0.0145305 -9.98238 
-9.8803 -0.022629 -0.0167812 
-0.022629 -9.97634 -0.00761486 
-0.0167812 -0.00761486 -9.97887 
-9.9295 0.0151313 -0.0287506 
0.0151313 -9.93082 -0.0191594 
-0.0287506 -0.0191594 -9.97519 
-9.99219 -0.00220219 -0.0359467 
-0.00220219 -9.99803 -0.0409097 
-0.0359467 -0.0409097 -9.99266 
-9.9899 0.000190273 -0.0351579 
0.000190273 -9.99465 -0.0437478 
-0.0351579 -0.0437478 -9.99832 
-9.98731 0.00470541 -0.0380545 
0.00470541 -9.99398 -0.0409227 
-0.0380545 -0.0409227 -10.0016 
-9.99571 -0.00121778 -0.0364207 
-0.00121778 -9.99691 -0.0411658 
-0.0364207 -0.0411658 -9.99025 
-9.96902 0.00438256 0.0216111 
0.00438256 -9.96625 0.0641743 
0.0216111 0.0641743 -9.97085 
-9.96847 -0.00152192 0.0214129 
-0.00152192 -9.98218 0.0702483 
0.0214129 0.0702483 -9.95546 
-9.96759 0.000391504 0.0217019 
0.000391504 -9.97113 0.0712782 
0.0217019 0.0712782 -9.9674 
-9.96914 0.000799626 0.0245828 
0.000799626 -9.97302 0.0696029 
0.0245828 0.0696029 -9.96396 
-9.91259 0.00174722 -0.0355231 
0.00174722 -9.92874 -0.0519195 
-0.0355231 -0.0519195 -9.93581 
-9.90736 0.0324451 -0.0315279 
0.0324451 -9.91537 -0.0440441 
-0.0315279 -0.0440441 -9.9544 
-9.90476 -0.00919426 -0.034239 
-0.00919426 -9.94574 -0.0501648 
-0.034239 -0.0501648 -9.92664 
-9.91798 -0.00416443 -0.041653 
-0.00416443 -9.92152 -0.0565024 
-0.041653 -0.0565024 -9.93764 
-9.98946 0.000847099 0.0777054 
0.000847099 -9.9832 0.00776434 
0.0777054 0.00776434 -9.98411 
-9.98964 0.000694693 0.0824386 
0.000694693 -9.98788 0.00467045 
0.0824386 0.00467045 -9.97925 
-9.9715 -0.00258476 0.0773251 
-0.00258476 -9.9887 0.00290253 
0.0773251 0.00290253 -9.99658 
-9.98693 0.000549325 0.0789567 
0.000549325 -9.98464 0.00493178 
0.0789567 0.00493178 -9.98521 
-9.99276 0.00381657 -0.00140476 
0.00381657 -9.99736 0.037235 
-0.00140476 0.037235 -9.9994 
-9.99893 0.00124471 0.00163111 
0.00124471 -9.9991 0.0356954 
0.00163111 0.0356954 -9.99149 
-9.99067 0.000659472 -0.000891115 
0.000659472 -9.99547 0.0329319 
-0.000891115 0.0329319 -10.0034 
-10.0008 -0.000275405 -0.000783552 
-0.000275405 -9.99838 0.0359254 
-0.000783552 0.0359254 -9.99031 
-9.95219 0.00621807 0.000940732 
0.00621807 -9.94124 0.000537451 
0.000940732 0.000537451 -9.99723 
-9.95007 -2.4066e-05 0.000852951 
-2.4066e-05 -9.94723 0.00310384 
0.000852951 0.00310384 -9.99336 
-9.94854 -0.00351067 0.00394462 
-0.00351067 -9.94389 0.0147134 
0.00394462 0.0147134 -9.99823 
-9.94463 0.000208074 0.00186452 
0.000208074 -9.9531 0.00119652 
0.00186452 0.00119652 -9.99293 
-9.94343 -0.0114118 0.0304868 
-0.0114118 -9.88512 0.0229043 
0.0304868 0.0229043 -10.1192 
-9.90667 -0.0504204 0.0109122 
-0.0504204 -9.87983 0.0254845 
0.0109122 0.0254845 -10.1613 
-9.89789 -0.0310121 0.00718823 
-0.0310121 -9.88124 0.0312718 
0.00718823 0.0312718 -10.1686 
-9.87564 -0.0303392 0.031205 
-0.0303392 -9.92372 0.0192256 
0.031205 0.0192256 -10.1484 
-9.99882 0.00101981 0.0708946 
0.00101981 -9.99195 -0.0285654 
0.0708946 -0.0285654 -9.99263 
-9.98902 0.00123957 0.0736486 
0.00123957 -9.9886 -0.0232803 
0.0736486 -0.0232803 -10.0058 
-9.99697 0.00360801 0.071583 
0.00360801 -9.99337 -0.0281612 
0.071583 -0.0281612 -9.99306 
-9.99759 0.00059997 0.0724495 
0.00059997 -9.9961 -0.0311124 
0.0724495 -0.0311124 -9.98971 
-9.98612 -1.14267e-05 -0.0461466 
-1.14267e-05 -9.98871 0.064358 
-0.0461466 0.064358 -9.98629 
-9.98911 -0.00381177 -0.0421309 
-0.00381177 -9.97911 0.0639791 
-0.0421309 0.0639791 -9.9929 
-9.98535 0.00245999 -0.0444096 
0.00245999 -9.98729 0.0632907 
-0.0444096 0.0632907 -9.98848 
-9.98879 -0.00231034 -0.0415631 
-0.00231034 -9.98512 0.0632272 
-0.0415631 0.0632272 -9.98721 
-9.95413 -0.000350663 -0.0192883 
-0.000350663 -9.95223 0.0840116 
-0.0192883 0.0840116 -9.95923 
-9.95023 -0.00106506 -0.014171 
-0.00106506 -9.9748 0.0769317 
-0.014171 0.0769317 -9.94056 
-9.95641 -0.00146349 -0.0182269 
-0.00146349 -9.95552 0.0803144 
-0.0182269 0.0803144 -9.95366 
-9.95746 -0.00165234 -0.0206875 
-0.00165234 -9.95244 0.0776999 
-0.0206875 0.0776999 -9.95569 
-9.90252 0.00339485 0.0201656 
0.00339485 -9.90432 0.0889117 
0.0201656 0.0889117 -9.93016 
-9.91316 0.000780227 0.0115774 
0.000780227 -9.92847 0.0856853 
0.0115774 0.0856853 -9.89537 
-9.92282 0.00405478 0.00260187 
0.00405478 -9.89525 0.0865416 
0.00260187 0.0865416 -9.91893 
-9.9156 0.00929085 0.00751834 
0.00929085 -9.9094 0.0813639 
0.00751834 0.0813639 -9.912 
-9.93516 -0.0253816 -0.00478065 
-0.0253816 -9.93642 -0.0248003 
-0.00478065 -0.0248003 -9.92071 
-9.91991 -0.0234038 -0.0118441 
-0.0234038 -9.92261 -0.00804058 
-0.0118441 -0.00804058 -9.94977 
-9.92696 -0.0260681 0.0168669 
-0.0260681 -9.93013 -0.0243365 
0.0168669 -0.0243365 -9.9352 
-9.9406 -0.0391669 -0.0110973 
-0.0391669 -9.92253 -0.013373 
-0.0110973 -0.013373 -9.92916 
-9.98389 0.001593 -0.0728676 
0.001593 -9.98668 -0.0177529 
-0.0728676 -0.0177529 -9.98879 
-9.98308 0.00104329 -0.0773622 
0.00104329 -9.99043 -0.0159281 
-0.0773622 -0.0159281 -9.98584 
-9.98192 -0.00171649 -0.070758 
-0.00171649 -9.98756 -0.0151971 
-0.070758 -0.0151971 -9.98987 
-9.99929 0.00282387 -0.0767263 
0.00282387 -9.98197 -0.0192074 
-0.0767263 -0.0192074 -9.97809 
-9.99577 -0.0353655 -0.227241 
-0.0353655 -10.0262 0.0297357 
-0.227241 0.0297357 -9.91251 
-9.9715 -0.0663364 -0.185453 
-0.0663364 -10.0098 0.0220737 
-0.185453 0.0220737 -9.95315 
-9.91148 -0.0297842 -0.234446 
-0.0297842 -10.0388 0.084946 
-0.234446 0.084946 -9.98415 
-10.0125 -0.0855998 -0.197187 
-0.0855998 -9.95375 -0.000953954 
-0.197187 -0.000953954 -9.96822 
-10.1968 -0.0131345 -0.0220718 
-0.0131345 -10.1922 -0.00261009 
-0.0220718 -0.00261009 -10.1146 
-10.1401 0.0270868 -0.0420298 
0.0270868 -10.1496 0.00102829 
-0.0420298 0.00102829 -10.2139 
-10.132 0.0127456 -0.0723675 
0.0127456 -10.0951 -0.0268988 
-0.0723675 -0.0268988 -10.2764 
-10.1462 0.0377964 -0.0296703 
0.0377964 -10.1397 0.0454717 
-0.0296703 0.0454717 -10.2177 
-9.97192 0.0372337 0.00200917 
0.0372337 -10.0098 -0.0329265 
0.00200917 -0.0329265 -9.97823 
-9.99173 0.0105606 -0.000591339 
0.0105606 -10.0021 0.00250045 
-0.000591339 0.00250045 -9.96613 
-9.97499 -0.0673084 0.0163438 
-0.0673084 -9.97759 0.0165723 
0.0163438 0.0165723 -10.0074 
-10.0011 -0.00709951 0.00566095 
-0.00709951 -10.0017 -0.0181008 
0.00566095 -0.0181008 -9.95719 
-9.93833 -0.0131791 -0.0230999 
-0.0131791 -9.94321 -0.0199258 
-0.0230999 -0.0199258 -9.95167 
-9.9423 -0.0233916 -0.010277 
-0.0233916 -9.9399 -0.0108582 
-0.010277 -0.0108582 -9.95101 
-9.95176 -0.0239084 -0.0137303 
-0.0239084 -9.93756 -0.0264319 
-0.0137303 -0.0264319 -9.94388 
-9.95566 -0.0291973 -0.0184371 
-0.0291973 -9.94203 -0.0229444 
-0.0184371 -0.0229444 -9.93553 
-9.90565 -0.0152516 -0.0122953 
-0.0152516 -9.85967 0.0701219 
-0.0122953 0.0701219 -9.90977 
-9.88622 -0.00473878 -0.0210784 
-0.00473878 -9.885 0.0797208 
-0.0210784 0.0797208 -9.90387 
-9.88184 0.00170321 -0.0211884 
0.00170321 -9.91155 0.0751658 
-0.0211884 0.0751658 -9.8817 
-9.88809 -0.00909513 -0.0165069 
-0.00909513 -9.87794 0.0936439 
-0.0165069 0.0936439 -9.90905 
-9.95686 0.190278 -0.112062 
0.190278 -9.94867 -0.119574 
-0.112062 -0.119574 -10.1668 
-9.96651 0.027455 -0.0840134 
0.027455 -10.0296 0.0770781 
-0.0840134 0.0770781 -10.0763 
-9.93529 0.133402 -0.0342379 
0.133402 -9.99135 0.0362435 
-0.0342379 0.0362435 -10.1457 
-9.89994 0.0375047 -0.0326576 
0.0375047 -9.9553 0.0462024 
-0.0326576 0.0462024 -10.2171 
-9.98881 -0.000267937 -0.0747732 
-0.000267937 -9.98319 0.0333579 
-0.0747732 0.0333579 -9.98519 
-9.98743 0.00192369 -0.0724579 
0.00192369 -9.98261 0.0322735 
-0.0724579 0.0322735 -9.98716 
-9.97132 -0.00316685 -0.0726437 
-0.00316685 -9.9911 0.0317523 
-0.0726437 0.0317523 -9.99477 
-9.98324 -0.00115036 -0.0739464 
-0.00115036 -9.99001 0.0291703 
-0.0739464 0.0291703 -9.98395 
-9.86602 -0.0233353 0.065134 
-0.0233353 -9.91268 -0.0135062 
0.065134 -0.0135062 -9.92071 
-9.9199 0.0185826 0.0642157 
0.0185826 -9.87615 -0.00425209 
0.0642157 -0.00425209 -9.90335 
-9.88131 -0.0183861 0.0651719 
-0.0183861 -9.89573 -0.0285327 
0.0651719 -0.0285327 -9.92236 
-9.88143 -0.0103569 0.0898088 
-0.0103569 -9.90729 -0.0221052 
0.0898088 -0.0221052 -9.91069 
-9.96234 0.00248259 0.0758965 
0.00248259 -9.96381 0.0175417 
0.0758965 0.0175417 -9.96403 
-9.94918 0.00246456 0.0804769 
0.00246456 -9.96393 0.0191394 
0.0804769 0.0191394 -9.97707 
-9.98207 -0.000768084 0.0795061 
-0.000768084 -9.95739 0.0155498 
0.0795061 0.0155498 -9.95072 
-9.96193 0.00693497 0.0638768 
0.00693497 -9.96463 0.0208764 
0.0638768 0.0208764 -9.96362 
-9.87687 0.0328961 0.00338528 
0.0328961 -9.89968 0.0309855 
0.00338528 0.0309855 -9.97935 
-9.89738 0.0283418 0.0798406 
0.0283418 -9.86651 -0.00711092 
0.0798406 -0.00711092 -9.99201 
-9.85007 0.0802127 0.000381033 
0.0802127 -9.90598 -0.0693429 
0.000381033 -0.0693429 -9.99985 
-9.84819 0.0599823 0.0279097 
0.0599823 -9.9156 0.0553187 
0.0279097 0.0553187 -9.9921 
-10.1057 0.0681718 0.0306251 
0.0681718 -10.248 -0.0366168 
0.0306251 -0.0366168 -10.0835 
-10.1694 0.0533649 0.0197048 
0.0533649 -10.0509 0.0103504 
0.0197048 0.0103504 -10.2169 
-10.1369 -0.097004 -0.0153056 
-0.097004 -10.1515 0.00459768 
-0.0153056 0.00459768 -10.1487 
-10.1345 0.00756036 0.021252 
0.00756036 -10.1333 -0.0210864 
0.021252 -0.0210864 -10.1694 
-10.1785 -0.0205774 0.00229205 
-0.0205774 -10.22 -0.0294682 
0.00229205 -0.0294682 -10.255 
-10.1722 -0.0100025 -0.0180926 
-0.0100025 -10.2203 -0.0181594 
-0.0180926 -0.0181594 -10.261 
-10.2007 -0.0152892 -0.0227412 
-0.0152892 -10.2948 -0.0162316 
-0.0227412 -0.0162316 -10.158 
-10.1942 -0.0285808 0.010807 
-0.0285808 -10.2258 0.00363347 
0.010807 0.00363347 -10.2335 
-10.205 0.11082 0.0996916 
0.11082 -10.1189 0.0743584 
0.0996916 0.0743584 -10.6538 
-10.4229 0.0735315 0.163769 
0.0735315 -10.4428 0.0343991 
0.163769 0.0343991 -10.1121 
-10.302 0.0575616 0.0871807 
0.0575616 -10.2125 -0.0422994 
0.0871807 -0.0422994 -10.4633 
-10.3024 0.0964829 0.220111 
0.0964829 -10.2353 -0.117779 
0.220111 -0.117779 -10.44 
-9.97932 0.000906936 0.00483033 
0.000906936 -9.97195 0.0782097 
0.00483033 0.0782097 -9.97135 
-9.97226 0.000952008 0.00904818 
0.000952008 -9.97595 0.0785716 
0.00904818 0.0785716 -9.97441 
-9.97074 -0.000346141 0.0108677 
-0.000346141 -9.97409 0.0735414 
0.0108677 0.0735414 -9.97779 
-9.97836 -0.000571808 0.00414051 
-0.000571808 -9.97872 0.0815391 
0.00414051 0.0815391 -9.96554 
-10.0872 -0.0166786 -0.0169354 
-0.0166786 -10.0892 0.00102347 
-0.0169354 0.00102347 -10.1341 
-10.097 -0.00614557 0.00112289 
-0.00614557 -10.1067 -0.00551984 
0.00112289 -0.00551984 -10.1068 
-10.1177 0.000291005 0.00668008 
0.000291005 -10.1075 0.00282322 
0.00668008 0.00282322 -10.0852 
-10.0824 -0.00766687 0.00651674 
-0.00766687 -10.1078 -0.00667219 
0.00651674 -0.00667219 -10.1202 
-9.95952 0.0063553 -0.0156038 
0.0063553 -9.88974 0.0101899 
-0.0156038 0.0101899 -9.91988 
-9.83058 0.0164904 -0.0784013 
0.0164904 -9.95877 -0.0123474 
-0.0784013 -0.0123474 -9.97979 
-9.86838 0.0235908 -0.0350178 
0.0235908 -9.95002 0.00247001 
-0.0350178 0.00247001 -9.95074 
-9.87123 0.0619015 -0.0328937 
0.0619015 -9.91597 -0.0306076 
-0.0328937 -0.0306076 -9.98194 
-7.56947 0.612261 0.653349 
0.612261 -5.04256 0.890021 
0.653349 0.890021 -0.58583 
-7.07483 0.915564 -0.0763442 
0.915564 -6.06065 0.643806 
-0.0763442 0.643806 -0.0623706 
-8.05841 0.228902 0.0172116 
0.228902 -6.1979 2.25607 
0.0172116 2.25607 1.05845 
-7.04111 1.49044 1.41516 
1.49044 -5.70809 0.0521767 
1.41516 0.0521767 -0.448655 
-9.99273 0.000829183 -0.0364804 
0.000829183 -9.99266 0.0491262 
-0.0364804 0.0491262 -9.99928 
-9.99526 0.0047693 -0.0401413 
0.0047693 -9.99059 0.0517933 
-0.0401413 0.0517933 -9.99881 
-9.99425 0.0024955 -0.0389926 
0.0024955 -9.99702 0.0513567 
-0.0389926 0.0513567 -9.9934 
-9.99642 0.000862455 -0.0378781 
0.000862455 -9.99761 0.0513771 
-0.0378781 0.0513771 -9.99064 
-9.90958 -0.0130618 -0.000391836 
-0.0130618 -9.89229 -0.00153831 
-0.000391836 -0.00153831 -10.0409 
-9.90899 0.00041351 -0.00866457 
0.00041351 -9.91956 -0.00452203 
-0.00866457 -0.00452203 -10.0142 
-9.90939 0.00272203 -0.00295303 
0.00272203 -9.90612 -0.0299833 
-0.00295303 -0.0299833 -10.0273 
-9.91147 0.00131274 -0.00525127 
0.00131274 -9.90765 -0.0107145 
-0.00525127 -0.0107145 -10.0237 
-9.98963 -0.00261691 0.0647952 
-0.00261691 -9.9864 -0.0448379 
0.0647952 -0.0448379 -9.98234 
-9.98787 0.00248375 0.0663966 
0.00248375 -9.98431 -0.0430636 
0.0663966 -0.0430636 -9.98618 
-9.98649 -0.00862008 0.0651344 
-0.00862008 -9.98058 -0.0429868 
0.0651344 -0.0429868 -9.9913 
-9.98697 0.000372999 0.0681241 
0.000372999 -9.9883 -0.0427894 
0.0681241 -0.0427894 -9.98311 
-9.97559 -0.00195204 -0.00781731 
-0.00195204 -9.95537 0.00217856 
-0.00781731 0.00217856 -9.9809 
-9.95951 -0.0134771 -0.0025135 
-0.0134771 -9.9586 0.00063326 
-0.0025135 0.00063326 -9.99373 
-9.96724 -0.0126709 -0.00403554 
-0.0126709 -9.95404 0.0116637 
-0.00403554 0.0116637 -9.99056 
-9.97945 -0.00233349 -0.00814418 
-0.00233349 -9.94878 0.00142093 
-0.00814418 0.00142093 -9.98362 
-6.47377 0.74164 0.614354 
0.74164 -11.1443 -0.927379 
0.614354 -0.927379 -5.24559 
-7.11051 -1.0342 1.38882 
-1.0342 -9.61611 0.157188 
1.38882 0.157188 -6.13709 
-7.07241 -0.35922 -0.56544 
-0.35922 -11.1938 0.0410107 
-0.56544 0.0410107 -4.59751 
-7.09527 -1.36212 -1.57012 
-1.36212 -9.79581 0.133253 
-1.57012 0.133253 -5.97263 
-9.98507 -5.12039e-05 0.00739163 
-5.12039e-05 -9.98758 -0.0875841 
0.00739163 -0.0875841 -9.98186 
-9.99274 0.000939838 0.00408817 
0.000939838 -9.98685 -0.0906943 
0.00408817 -0.0906943 -9.97492 
-9.98638 0.00206698 0.00130705 
0.00206698 -9.97441 -0.0850144 
0.00130705 -0.0850144 -9.99371 
-9.98425 -0.00193104 0.00883887 
-0.00193104 -9.98667 -0.0862528 
0.00883887 -0.0862528 -9.98358 
-10.8407 -0.209595 0.0427101 
-0.209595 -10.588 -0.0383987 
0.0427101 -0.0383987 -10.3904 
-9.86797 -0.188896 0.487253 
-0.188896 -10.9383 0.00555266 
0.487253 0.00555266 -11.0129 
-10.37 0.177478 0.0981617 
0.177478 -10.9406 0.127748 
0.0981617 0.127748 -10.5085 
-10.1229 0.0702777 0.126905 
0.0702777 -10.8808 -0.152604 
0.126905 -0.152604 -10.8154 
-9.81314 0.0135255 -0.134211 
0.0135255 -9.81529 -0.0211347 
-0.134211 -0.0211347 -11.0829 
-10.3151 0.00277681 0.0602305 
0.00277681 -10.3046 -0.0465174 
0.0602305 -0.0465174 -10.0917 
-10.6656 0.043765 -0.0644681 
0.043765 -10.3308 0.0589276 
-0.0644681 0.0589276 -9.71492 
-10.2184 0.106974 0.476455 
0.106974 -10.3205 -0.200896 
0.476455 -0.200896 -10.1724 
-9.99728 -0.00364227 -0.00818373 
-0.00364227 -9.9918 0.0404235 
-0.00818373 0.0404235 -10.0005 
-9.99104 -0.00255574 -0.0114258 
-0.00255574 -9.99376 0.0366128 
-0.0114258 0.0366128 -10.0048 
-9.99941 6.30991e-05 -0.01206 
6.30991e-05 -10.0001 0.0410196 
-0.01206 0.0410196 -9.99009 
-10.0003 0.00277634 -0.00850671 
0.00277634 -9.99938 0.0387525 
-0.00850671 0.0387525 -9.98986 
-9.93055 -0.00878077 -0.0425754 
-0.00878077 -9.91006 -0.031041 
-0.0425754 -0.031041 -9.92188 
-9.90401 0.0234465 -0.0584848 
0.0234465 -9.90952 -0.0485718 
-0.0584848 -0.0485718 -9.94897 
-9.94174 -0.00319872 -0.0450613 
-0.00319872 -9.90972 -0.034245 
-0.0450613 -0.034245 -9.91104 
-9.92769 0.00673945 -0.0300668 
0.00673945 -9.89705 -0.0382114 
-0.0300668 -0.0382114 -9.93775 
-9.99798 -0.00117524 0.0780516 
-0.00117524 -9.99624 -0.016989 
0.0780516 -0.016989 -9.98672 
-9.99609 0.00382925 0.0756792 
0.00382925 -9.991 -0.0137554 
0.0756792 -0.0137554 -9.99386 
-9.98671 0.000792107 0.0762251 
0.000792107 -9.98631 -0.0100559 
0.0762251 -0.0100559 -10.0079 
-9.99766 0.000452515 0.0735143 
0.000452515 -9.99259 -0.0155993 
0.0735143 -0.0155993 -9.99068 
-9.9911 -0.000395738 0.0428283 
-0.000395738 -9.99362 -0.0496021 
0.0428283 -0.0496021 -9.99895 
-9.99253 0.00029268 0.0403951 
0.00029268 -9.99468 -0.0516152 
0.0403951 -0.0516152 -9.99646 
-9.99193 -0.00100085 0.0422564 
-0.00100085 -9.9941 -0.0536611 
0.0422564 -0.0536611 -9.99765 
-9.99519 -0.000571776 0.0421215 
-0.000571776 -9.9965 -0.0516629 
0.0421215 -0.0516629 -9.99198 
-9.98333 -0.00045644 0.00167335 
-0.00045644 -9.98189 0.00458272 
0.00167335 0.00458272 -9.99891 
-9.9837 0.00113042 -0.00114307 
0.00113042 -9.98394 0.0012019 
-0.00114307 0.0012019 -9.9965 
-9.98316 -0.000649537 -0.00177666 
-0.000649537 -9.98196 0.00167325 
-0.00177666 0.00167325 -9.99901 
-9.98616 0.00123256 0.00223139 
0.00123256 -9.98242 0.00513942 
0.00223139 0.00513942 -9.99556 
-9.91026 0.0298647 -0.0252621 
0.0298647 -9.89289 -0.0280638 
-0.0252621 -0.0280638 -9.94053 
-9.91178 0.00853113 -0.0399003 
0.00853113 -9.90483 -0.034405 
-0.0399003 -0.034405 -9.92707 
-9.93361 -0.0230256 -0.0450763 
-0.0230256 -9.89936 -0.0292181 
-0.0450763 -0.0292181 -9.91071 
-9.90025 0.00136463 -0.0386226 
0.00136463 -9.91096 -0.0458403 
-0.0386226 -0.0458403 -9.93247 
-1.69805 -0.632044 0.220395 
-0.632044 -5.41348 -0.356483 
0.220395 -0.356483 -7.79191 
-5.68626 1.02446 1.005 
1.02446 -12.2022 3.33554 
1.005 3.33554 2.98502 
-5.69687 -0.886297 -1.42028 
-0.886297 -11.3476 3.2044 
-1.42028 3.2044 2.14099 
-5.97341 -0.293707 -0.147095 
-0.293707 -3.88619 6.23364 
-0.147095 6.23364 -5.04384 
-9.98531 0.00269398 -0.0288005 
0.00269398 -9.99718 -0.0872883 
-0.0288005 -0.0872883 -9.97124 
-9.99423 0.00145396 -0.0132817 
0.00145396 -9.96229 -0.078969 
-0.0132817 -0.078969 -9.99721 
-9.98409 0.00155521 -0.0206585 
0.00155521 -9.98417 -0.0778057 
-0.0206585 -0.0778057 -9.98547 
-9.97883 -0.00725687 -0.0271343 
-0.00725687 -9.9943 -0.0740773 
-0.0271343 -0.0740773 -9.98061 
-8.7702 3.58636 0.819526 
3.58636 -6.01776 -2.0376 
0.819526 -2.0376 -17.6214 
-15.357 -0.655458 0.552664 
-0.655458 -9.89654 2.38207 
0.552664 2.38207 -7.15585 
-9.61708 1.31784 -0.689685 
1.31784 -5.48862 -1.28002 
-0.689685 -1.28002 -17.3037 
-9.00952 -0.125415 -1.66032 
-0.125415 -12.2453 -3.42686 
-1.66032 -3.42686 -11.1545 
-9.6535 0.398385 0.788736 
0.398385 -9.90141 0.357526 
0.788736 0.357526 -9.41091 
-9.49429 0.290291 0.541346 
0.290291 -9.7619 0.0854613 
0.541346 0.0854613 -9.70963 
-9.48174 0.151926 0.615056 
0.151926 -9.87347 0.193021 
0.615056 0.193021 -9.61062 
-10.3541 0.285172 -0.148203 
0.285172 -9.43261 0.31277 
-0.148203 0.31277 -9.17908 
-9.81518 0.178989 0.000518772 
0.178989 -9.79688 0.00713061 
0.000518772 0.00713061 -10.0976 
-9.92125 0.121263 -0.0730545 
0.121263 -10.0504 0.105359 
-0.0730545 0.105359 -9.73798 
-9.77805 0.157248 -0.0851506 
0.157248 -9.78214 -0.0503045 
-0.0851506 -0.0503045 -10.1494 
-9.81858 0.220368 -0.0041739 
0.220368 -9.76369 0.0559001 
-0.0041739 0.0559001 -10.1274 
-9.89917 0.0051709 0.0392236 
0.0051709 -9.92652 -0.0559649 
0.0392236 -0.0559649 -9.92104 
-9.90131 -0.020569 0.0354597 
-0.020569 -9.90889 -0.0454098 
0.0354597 -0.0454098 -9.93654 
-9.90429 -0.000304457 0.0392323 
-0.000304457 -9.91845 -0.0546653 
0.0392323 -0.0546653 -9.924 
-9.90562 0.00200078 0.0474046 
0.00200078 -9.91097 -0.0585711 
0.0474046 -0.0585711 -9.93014 
-9.91212 -0.008229 0.0765565 
-0.008229 -9.91837 -0.0267584 
0.0765565 -0.0267584 -9.928 
-9.91676 -0.00822208 0.0728001 
-0.00822208 -9.91958 -0.0247199 
0.0728001 -0.0247199 -9.92215 
-9.92874 -0.00190553 0.0737442 
-0.00190553 -9.91079 -0.0269166 
0.0737442 -0.0269166 -9.91896 
-9.9209 -0.00330009 0.0710432 
-0.00330009 -9.91385 -0.0253757 
0.0710432 -0.0253757 -9.92374 
-9.95723 -0.000591434 0.0810957 
-0.000591434 -9.95666 -0.0108038 
0.0810957 -0.0108038 -9.96816 
-9.97197 0.00260311 0.083241 
0.00260311 -9.95862 -0.00849599 
0.083241 -0.00849599 -9.95147 
-9.95548 -0.000720583 0.0806194 
-0.000720583 -9.96332 -0.00767702 
0.0806194 -0.00767702 -9.96325 
-9.95924 -0.00320339 0.0759436 
-0.00320339 -9.96176 -0.00466807 
0.0759436 -0.00466807 -9.96106 
-9.97385 -0.00220423 -0.0518549 
-0.00220423 -9.97062 -0.0192594 
-0.0518549 -0.0192594 -9.96181 
-9.9741 -0.000840893 -0.0534017 
-0.000840893 -9.96889 -0.0222412 
-0.0534017 -0.0222412 -9.9633 
-9.97077 -0.000724622 -0.05271 
-0.000724622 -9.96759 -0.0220398 
-0.05271 -0.0220398 -9.96792 
-9.9735 -0.00146165 -0.0498469 
-0.00146165 -9.96941 -0.0222903 
-0.0498469 -0.0222903 -9.96337 
-6.35414 -0.715495 -0.727456 
-0.715495 -7.03962 -1.46158 
-0.727456 -1.46158 0.22071 
-6.07924 -3.58732 1.55227 
-3.58732 -11.8939 -2.25671 
1.55227 -2.25671 4.80005 
-2.26094 2.02126 0.45744 
2.02126 -4.79069 -0.146008 
0.45744 -0.146008 -6.12142 
-6.21323 -0.24486 -2.29778 
-0.24486 -3.52598 -5.3839 
-2.29778 -5.3839 -3.43383 
-9.98043 0.0113957 -0.00239532 
0.0113957 -10.0265 0.0139662 
-0.00239532 0.0139662 -10.0609 
-10.051 0.038566 -0.000302832 
0.038566 -10.015 0.00755942 
-0.000302832 0.00755942 -10.0019 
-10.0091 -0.00324794 0.00500459 
-0.00324794 -9.98883 -0.0119932 
0.00500459 -0.0119932 -10.0699 
-10.0372 0.00921381 0.0305015 
0.00921381 -10.0144 0.0136374 
0.0305015 0.0136374 -10.0162 
-9.95135 -0.00203423 -0.0775294 
-0.00203423 -9.94776 0.0241895 
-0.0775294 0.0241895 -9.94771 
-9.95871 -0.00153134 -0.078139 
-0.00153134 -9.9448 0.0287265 
-0.078139 0.0287265 -9.9433 
-9.94007 -0.00839049 -0.081695 
-0.00839049 -9.95192 0.0213908 
-0.081695 0.0213908 -9.95482 
-9.95038 0.00153174 -0.0720254 
0.00153174 -9.94491 0.0228236 
-0.0720254 0.0228236 -9.95153 
-9.90475 -0.00978467 -0.0146887 
-0.00978467 -9.86388 0.0735348 
-0.0146887 0.0735348 -9.90924 
-9.88144 3.30579e-05 -0.00816724 
3.30579e-05 -9.91911 0.0778845 
-0.00816724 0.0778845 -9.87733 
-9.89229 -0.00434346 -0.0101759 
-0.00434346 -9.88116 0.0825555 
-0.0101759 0.0825555 -9.90443 
-9.89127 -0.00722307 -0.0164335 
-0.00722307 -9.87899 0.0926883 
-0.0164335 0.0926883 -9.90761 
-9.97477 -0.000771826 0.0720001 
-0.000771826 -9.99148 -0.029476 
0.0720001 -0.029476 -9.99381 
-9.98663 0.00185441 0.0729009 
0.00185441 -9.98436 -0.0334382 
0.0729009 -0.0334382 -9.98907 
-9.98311 -0.000835247 0.0718183 
-0.000835247 -9.99034 -0.0297519 
0.0718183 -0.0297519 -9.98661 
-9.98816 -0.000534015 0.0742749 
-0.000534015 -9.98584 -0.0348491 
0.0742749 -0.0348491 -9.98605 
-9.95967 0.00447885 0.0321554 
0.00447885 -9.95885 0.0706279 
0.0321554 0.0706279 -9.9627 
-9.95516 0.00370609 0.0323706 
0.00370609 -9.95944 0.0714201 
0.0323706 0.0714201 -9.96662 
-9.9578 -0.00589289 0.0350088 
-0.00589289 -9.97127 0.0707966 
0.0350088 0.0707966 -9.95214 
-9.95811 0.00592356 0.0265631 
0.00592356 -9.96196 0.0638881 
0.0265631 0.0638881 -9.96115 
-10.0418 0.00510685 0.0078582 
0.00510685 -10.0079 0.0113426 
0.0078582 0.0113426 -9.98092 
-9.97444 -0.0070265 -0.024518 
-0.0070265 -9.98236 -0.00244644 
-0.024518 -0.00244644 -10.0738 
-10.0129 0.00355429 0.00596594 
0.00355429 -10.0074 0.002475 
0.00596594 0.002475 -10.0103 
-9.97831 0.0168495 0.0397519 
0.0168495 -10.0144 0.00185353 
0.0397519 0.00185353 -10.0379 
-10.0091 -0.00794897 -0.0982831 
-0.00794897 -10.0554 0.0144854 
-0.0982831 0.0144854 -10.04 
-10.0652 0.00190423 0.0665035 
0.00190423 -9.98287 0.00503552 
0.0665035 0.00503552 -10.0565 
-10.0968 -0.00947048 -0.00313663 
-0.00947048 -9.98027 0.0215721 
-0.00313663 0.0215721 -10.0275 
-10.161 -0.00920495 -0.0213475 
-0.00920495 -9.97114 0.0216612 
-0.0213475 0.0216612 -9.97243 
-9.98712 -0.00175302 -0.0774576 
-0.00175302 -9.98676 -0.0118744 
-0.0774576 -0.0118744 -10.0073 
-9.99676 0.000448511 -0.075267 
0.000448511 -9.99167 -0.0164946 
-0.075267 -0.0164946 -9.99278 
-9.99708 -0.00251677 -0.0758095 
-0.00251677 -9.99008 -0.0150133 
-0.0758095 -0.0150133 -9.99405 
-9.9972 0.000559916 -0.078832 
0.000559916 -9.99599 -0.0180882 
-0.078832 -0.0180882 -9.98802 
-10.9621 -0.0852921 -0.0327128 
-0.0852921 -10.3591 0.250586 
-0.0327128 0.250586 -9.7982 
-9.60479 0.1658 -0.0839984 
0.1658 -10.2962 0.0426624 
-0.0839984 0.0426624 -11.2184 
-10.5347 0.247146 0.0996465 
0.247146 -9.86137 0.283949 
0.0996465 0.283949 -10.7233 
-10.6748 0.264844 0.661513 
0.264844 -10.0186 0.354436 
0.661513 0.354436 -10.426 
-10.1658 -1.02887 -2.36983 
-1.02887 -7.51153 -1.78893 
-2.36983 -1.78893 1.12144 
-5.10522 1.63214 1.49133 
1.63214 -2.0518 0.293466 
1.49133 0.293466 -9.39883 
-14.2572 -4.85881 -4.23941 
-4.85881 -6.95305 0.707406 
-4.23941 0.707406 4.65435 
-2.28559 0.0936553 -5.99292 
0.0936553 -7.50579 -2.72412 
-5.99292 -2.72412 -6.76446 
-10.7948 -0.0409178 0.145731 
-0.0409178 -10.3003 0.793952 
0.145731 0.793952 -13.6409 
-11.606 -0.069862 -0.121607 
-0.069862 -10.4342 0.1357 
-0.121607 0.1357 -12.6957 
-11.7327 -0.508104 -0.00980226 
-0.508104 -11.2391 0.471981 
-0.00980226 0.471981 -11.7641 
-12.1963 -0.216501 -1.21006 
-0.216501 -10.4696 0.109806 
-1.21006 0.109806 -12.07 
-10.0946 -0.0484427 0.00733299 
-0.0484427 -10.096 0.00582868 
0.00733299 0.00582868 -10.1129 
-10.1131 0.0065004 0.0290448 
0.0065004 -10.0946 -0.00455137 
0.0290448 -0.00455137 -10.0959 
-10.0937 -0.010854 0.0173442 
-0.010854 -10.1414 -0.0155018 
0.0173442 -0.0155018 -10.0685 
-10.1325 -0.048197 0.0289068 
-0.048197 -10.0493 -0.0337724 
0.0289068 -0.0337724 -10.1218 
-9.99307 -0.00174184 0.00582507 
-0.00174184 -9.9935 0.00564381 
0.00582507 0.00564381 -9.99734 
-9.99219 -0.000670303 0.00614841 
-0.000670303 -9.99286 0.00815552 
0.00614841 0.00815552 -9.99886 
-9.99569 -0.000505634 0.00389612 
-0.000505634 -9.9937 0.00707661 
0.00389612 0.00707661 -9.99452 
-9.99475 -0.00169776 0.00334903 
-0.00169776 -9.99397 0.0060862 
0.00334903 0.0060862 -9.99519 
-10.0077 0.0110043 0.00561671 
0.0110043 -9.9921 -0.00223615 
0.00561671 -0.00223615 -9.98871 
-9.99371 0.000489354 0.0165348 
0.000489354 -9.96838 -0.00347874 
0.0165348 -0.00347874 -10.0264 
-10.006 0.0117594 -0.00257458 
0.0117594 -10.0048 0.0048279 
-0.00257458 0.0048279 -9.9777 
-10.0096 0.019225 0.00293419 
0.019225 -9.99393 -0.0150594 
0.00293419 -0.0150594 -9.98491 
-9.94554 0.00131412 -0.0309852 
0.00131412 -9.95232 0.0766399 
-0.0309852 0.0766399 -9.92984 
-9.94152 -0.00554319 -0.0327811 
-0.00554319 -9.94536 0.0712618 
-0.0327811 0.0712618 -9.94082 
-9.93827 -7.59021e-05 -0.0317596 
-7.59021e-05 -9.94428 0.073892 
-0.0317596 0.073892 -9.94515 
-9.94444 -0.00381064 -0.0325195 
-0.00381064 -9.94408 0.0703503 
-0.0325195 0.0703503 -9.93918 
-9.96638 0.00142541 -0.00227419 
0.00142541 -9.95893 -0.0481886 
-0.00227419 -0.0481886 -9.93096 
-9.9493 0.00591442 -0.00974275 
0.00591442 -9.98813 -0.032338 
-0.00974275 -0.032338 -9.91884 
-9.96293 0.000176433 -0.00785143 
0.000176433 -9.95859 -0.0374397 
-0.00785143 -0.0374397 -9.93475 
-9.96276 -0.00790812 -0.00950985 
-0.00790812 -9.9556 -0.0326592 
-0.00950985 -0.0326592 -9.93792 
-9.99107 0.00116653 -0.0187701 
0.00116653 -9.99358 0.017166 
-0.0187701 0.017166 -9.9977 
-9.99105 0.00250063 -0.0177489 
0.00250063 -9.99118 0.012282 
-0.0177489 0.012282 -10.0001 
-9.99484 0.00143865 -0.0162108 
0.00143865 -9.9932 0.0159818 
-0.0162108 0.0159818 -9.9943 
-9.99724 0.00104619 -0.0163248 
0.00104619 -9.99389 0.0166598 
-0.0163248 0.0166598 -9.99121 
-9.97803 -0.000554095 -0.071407 
-0.000554095 -9.97734 -0.0156048 
-0.071407 -0.0156048 -9.98282 
-9.97962 0.00320503 -0.0771379 
0.00320503 -9.9813 -0.0195539 
-0.0771379 -0.0195539 -9.97727 
-9.98133 0.00308197 -0.0746484 
0.00308197 -9.98235 -0.0186886 
-0.0746484 -0.0186886 -9.9745 
-9.98761 0.00591601 -0.0763523 
0.00591601 -9.98367 -0.0240606 
-0.0763523 -0.0240606 -9.96691 
-9.97204 0.133428 0.0579362 
0.133428 -9.77558 -0.0925569 
0.0579362 -0.0925569 -9.87468 
-9.86557 0.302005 -0.124577 
0.302005 -9.76923 -0.117391 
-0.124577 -0.117391 -9.9875 
-9.93275 0.0694475 0.0013033 
0.0694475 -9.89659 -0.0422533 
0.0013033 -0.0422533 -9.79297 
-9.75935 0.221087 -0.040218 
0.221087 -9.77838 0.0125891 
-0.040218 0.0125891 -10.0846 
-9.68401 0.207837 0.352693 
0.207837 -10.8178 0.00665679 
0.352693 0.00665679 -10.9869 
-9.96641 0.294112 -0.149024 
0.294112 -10.6604 -0.034029 
-0.149024 -0.034029 -10.8619 
-11.0391 0.064521 0.121356 
0.064521 -10.1447 0.264746 
0.121356 0.264746 -10.3049 
-10.0531 0.0771228 -0.0914357 
0.0771228 -10.4783 -0.111891 
-0.0914357 -0.111891 -10.9573 
-9.9936 0.000941781 -0.0279029 
0.000941781 -9.99361 0.049733 
-0.0279029 0.049733 -9.99764 
-9.99363 0.000490561 -0.0276643 
0.000490561 -9.9935 0.0530125 
-0.0276643 0.0530125 -9.99772 
-9.99329 0.00143618 -0.0305511 
0.00143618 -9.99379 0.0509092 
-0.0305511 0.0509092 -9.99777 
-9.99555 0.000768017 -0.0286271 
0.000768017 -9.99648 0.0508956 
-0.0286271 0.0508956 -9.99282 
-9.98669 -0.00014239 0.081022 
-0.00014239 -9.98492 -0.00595151 
0.081022 -0.00595151 -9.98423 
-9.9761 0.00284475 0.0785009 
0.00284475 -9.98647 -0.00172454 
0.0785009 -0.00172454 -9.99327 
-9.98637 0.00128557 0.0833076 
0.00128557 -9.99062 -0.0035874 
0.0833076 -0.0035874 -9.97885 
-9.98667 -0.000822472 0.0806154 
-0.000822472 -9.98448 -0.00680277 
0.0806154 -0.00680277 -9.98469 
-9.95715 0.000366768 -0.0782401 
0.000366768 -9.9549 -0.0228506 
-0.0782401 -0.0228506 -9.95354 
-9.94251 0.0118786 -0.0799902 
0.0118786 -9.95909 -0.0201305 
-0.0799902 -0.0201305 -9.964 
-9.96167 0.000901694 -0.0791009 
0.000901694 -9.95193 -0.0263716 
-0.0791009 -0.0263716 -9.95199 
-9.95727 -0.00256659 -0.0732938 
-0.00256659 -9.95275 -0.0212414 
-0.0732938 -0.0212414 -9.95558 
-9.99189 -0.000998186 0.00513874 
-0.000998186 -9.99266 0.0168712 
0.00513874 0.0168712 -9.99781 
-9.99361 -0.000106344 0.00783293 
-0.000106344 -9.99236 0.0162026 
0.00783293 0.0162026 -9.99638 
-9.9912 0.000833913 0.00776989 
0.000833913 -9.99207 0.0195076 
0.00776989 0.0195076 -9.99908 
-9.99484 0.000136865 0.00712692 
0.000136865 -9.99405 0.0161672 
0.00712692 0.0161672 -9.99346 
-9.88069 -0.00168659 0.00745148 
-0.00168659 -9.88586 -0.101583 
0.00745148 -0.101583 -9.86759 
-9.89111 -0.013771 0.0155669 
-0.013771 -9.85532 -0.0944417 
0.0155669 -0.0944417 -9.88771 
-9.8713 -0.00196435 0.00149855 
-0.00196435 -9.87066 -0.099161 
0.00149855 -0.099161 -9.89218 
-9.89237 0.00368861 0.00823537 
0.00368861 -9.86659 -0.0986679 
0.00823537 -0.0986679 -9.87518 
-9.99198 0.000803012 0.0502706 
0.000803012 -9.99293 0.0378053 
0.0502706 0.0378053 -9.99626 
-9.99302 0.000553559 0.0522375 
0.000553559 -9.99284 0.0392215 
0.0522375 0.0392215 -9.99531 
-9.99021 0.000225085 0.0484525 
0.000225085 -9.98994 0.0412293 
0.0484525 0.0412293 -10.001 
-9.99519 -0.000170278 0.0515634 
-0.000170278 -9.99467 0.0386606 
0.0515634 0.0386606 -9.99131 
-9.98404 0.000827081 -0.00595522 
0.000827081 -9.98714 -0.0863103 
-0.00595522 -0.0863103 -9.98308 
-9.98767 4.46334e-05 -0.00491612 
4.46334e-05 -9.98803 -0.0890799 
-0.00491612 -0.0890799 -9.97856 
-9.98802 -0.00431616 -0.00154953 
-0.00431616 -9.97046 -0.0836856 
-0.00154953 -0.0836856 -9.99577 
-9.98356 0.000734604 -0.00680015 
0.000734604 -9.98798 -0.0865182 
-0.00680015 -0.0865182 -9.98271 
-10.0963 -0.00473584 0.00413569 
-0.00473584 -10.1054 -0.0084693 
0.00413569 -0.0084693 -10.1128 
-10.0847 -0.000827166 0.00442328 
-0.000827166 -10.0984 -0.0039116 
0.00442328 -0.0039116 -10.1314 
-10.0957 -0.00696152 0.00516671 
-0.00696152 -10.103 -0.00834438 
0.00516671 -0.00834438 -10.1158 
-10.0937 -0.00569606 0.00526607 
-0.00569606 -10.106 -0.008785 
0.00526607 -0.008785 -10.1149 
-9.99746 0.00128542 -0.0707338 
0.00128542 -9.99041 0.0282447 
-0.0707338 0.0282447 -9.99135 
-9.98648 0.00148547 -0.0742114 
0.00148547 -9.98673 0.0225689 
-0.0742114 0.0225689 -10.006 
-9.99522 0.00311422 -0.0721466 
0.00311422 -9.99163 0.0283242 
-0.0721466 0.0283242 -9.99237 
-9.99686 0.000460307 -0.0731858 
0.000460307 -9.99504 0.0321154 
-0.0731858 0.0321154 -9.98732 
-9.99222 -0.0139054 -0.0208086 
-0.0139054 -9.98954 -0.00344244 
-0.0208086 -0.00344244 -9.93564 
-9.99288 -0.00771298 -0.0134734 
-0.00771298 -9.95464 -0.00122584 
-0.0134734 -0.00122584 -9.96989 
-9.96928 -0.0136828 0.00190784 
-0.0136828 -9.96217 -0.00866063 
0.00190784 -0.00866063 -9.98595 
-9.94136 0.00594797 -0.00891403 
0.00594797 -9.95781 0.0207372 
-0.00891403 0.0207372 -10.0182 
-10.2179 0.0983446 -0.00810604 
0.0983446 -10.4048 -0.00949299 
-0.00810604 -0.00949299 -10.2301 
-10.0542 0.0495338 0.0701003 
0.0495338 -10.0039 -0.121568 
0.0701003 -0.121568 -10.7947 
-10.4137 0.0203088 0.0319406 
0.0203088 -10.3336 0.000142363 
0.0319406 0.000142363 -10.1056 
-10.3878 0.0188259 -0.15143 
0.0188259 -10.2019 0.156984 
-0.15143 0.156984 -10.2631 
-9.80001 -0.152636 -0.14857 
-0.152636 -10.0582 -0.271278 
-0.14857 -0.271278 -11.3613 
-10.509 -0.0131678 -0.000939916 
-0.0131678 -10.4396 0.173659 
-0.000939916 0.173659 -10.271 
-10.4741 0.00288367 0.00614714 
0.00288367 -10.694 0.0925843 
0.00614714 0.0925843 -10.0515 
-10.634 -0.382522 -0.44019 
-0.382522 -10.3688 0.423122 
-0.44019 0.423122 -10.2167 
-10.034 0.0141017 0.025839 
0.0141017 -10.0318 -0.00977274 
0.025839 -0.00977274 -9.99759 
-10.0188 0.0642958 -0.0200622 
0.0642958 -10.0074 0.0154604 
-0.0200622 0.0154604 -10.0372 
-10.0373 -0.00826015 -0.00521752 
-0.00826015 -10.0211 -0.00105096 
-0.00521752 -0.00105096 -10.005 
-10.0384 -0.0404877 0.0229843 
-0.0404877 -10.0005 0.00648554 
0.0229843 0.00648554 -10.0245 
-9.86949 -0.00222822 -0.00388594 
-0.00222822 -9.87719 -0.0977571 
-0.00388594 -0.0977571 -9.88477 
-9.88656 0.00754367 -0.0138358 
0.00754367 -9.85943 -0.0967106 
-0.0138358 -0.0967106 -9.88546 
-9.88779 -0.00135861 -0.00542753 
-0.00135861 -9.87274 -0.0992908 
-0.00542753 -0.0992908 -9.87092 
-9.88497 -0.00481775 -0.00810359 
-0.00481775 -9.87041 -0.102232 
-0.00810359 -0.102232 -9.87607 
-9.97944 0.0117368 0.00241467 
0.0117368 -9.99162 0.00764322 
0.00241467 0.00764322 -9.97639 
-9.997 -0.00131283 0.00958206 
-0.00131283 -9.98451 -0.00546299 
0.00958206 -0.00546299 -9.96593 
-9.98585 -0.00223694 0.00806123 
-0.00223694 -9.97005 0.00392651 
0.00806123 0.00392651 -9.99154 
-9.9726 0.00262505 -0.00373435 
0.00262505 -9.99935 -0.0077944 
-0.00373435 -0.0077944 -9.97549 
-9.97933 0.00296262 0.0372764 
0.00296262 -9.91951 -0.0190584 
0.0372764 -0.0190584 -9.9579 
-9.91017 -0.0203675 -0.0114303 
-0.0203675 -9.97602 0.00267537 
-0.0114303 0.00267537 -9.97055 
-9.95586 -0.000128053 -0.00328459 
-0.000128053 -9.94553 -0.000398873 
-0.00328459 -0.000398873 -9.95535 
-9.94388 -0.00479547 -0.00752794 
-0.00479547 -9.96749 -0.00333632 
-0.00752794 -0.00333632 -9.94537 
-9.99026 -0.000881671 0.0103062 
-0.000881671 -9.99423 0.0164429 
0.0103062 0.0164429 -9.9993 
-9.98973 0.000805918 0.0114037 
0.000805918 -9.99437 0.0132317 
0.0114037 0.0132317 -9.99969 
-9.99295 -0.00117884 0.0101674 
-0.00117884 -9.99597 0.01433 
0.0101674 0.01433 -9.99486 
-9.99512 -0.00155642 0.0104425 
-0.00155642 -9.99549 0.0143844 
0.0104425 0.0143844 -9.99317 
-9.98159 -0.00125389 -0.00870018 
-0.00125389 -9.98842 0.00373388 
-0.00870018 0.00373388 -9.98344 
-9.98372 0.00190743 -0.00701428 
0.00190743 -9.98823 -0.00197893 
-0.00701428 -0.00197893 -9.9815 
-9.98933 -0.00256278 -0.00540114 
-0.00256278 -9.98259 0.00574906 
-0.00540114 0.00574906 -9.98153 
-9.9823 0.000743313 -0.00607395 
0.000743313 -9.99531 0.0109304 
-0.00607395 0.0109304 -9.97584 
-9.99324 0.00342499 0.00259427 
0.00342499 -10.0284 -0.000535142 
0.00259427 -0.000535142 -10.0221 
-9.99535 -0.0198186 -0.0128443 
-0.0198186 -10.0299 0.00927969 
-0.0128443 0.00927969 -10.0185 
-10.0066 0.0021807 -0.00263411 
0.0021807 -10.0041 -0.00802302 
-0.00263411 -0.00802302 -10.033 
-9.99746 0.0189921 -0.00189908 
0.0189921 -10.0329 -0.00830172 
-0.00189908 -0.00830172 -10.0134 
-9.99046 -0.000543223 -0.00140513 
-0.000543223 -9.98043 -0.0048859 
-0.00140513 -0.0048859 -9.99767 
-9.99092 0.000682146 0.00482405 
0.000682146 -9.99346 -0.00215011 
0.00482405 -0.00215011 -9.98418 
-9.99328 0.00270061 0.00172528 
0.00270061 -9.98874 -0.00135437 
0.00172528 -0.00135437 -9.98655 
-9.9917 0.00684564 0.000546467 
0.00684564 -9.99249 9.04884e-05 
0.000546467 9.04884e-05 -9.98438 
-9.99739 0.00137612 -0.0338632 
0.00137612 -9.99211 0.00759047 
-0.0338632 0.00759047 -9.99992 
-10.001 0.000901014 -0.0299277 
0.000901014 -9.99753 0.00772624 
-0.0299277 0.00772624 -9.99094 
-9.9969 0.00320687 -0.0277037 
0.00320687 -9.99282 0.00546794 
-0.0277037 0.00546794 -9.99971 
-9.99993 9.9606e-05 -0.0307395 
9.9606e-05 -9.99998 0.00632462 
-0.0307395 0.00632462 -9.98951 
-9.98905 0.000696733 -0.000246307 
0.000696733 -9.9879 0.00542244 
-0.000246307 0.00542244 -9.99564 
-9.988 -0.000165697 -0.00141411 
-0.000165697 -9.98674 0.00418638 
-0.00141411 0.00418638 -9.99785 
-9.98782 0.000229638 0.00149516 
0.000229638 -9.98597 0.00290086 
0.00149516 0.00290086 -9.9988 
-9.98969 0.000255013 -0.000370637 
0.000255013 -9.98812 0.00528096 
-0.000370637 0.00528096 -9.99478 
-9.95813 -0.00496638 -0.0390725 
-0.00496638 -9.96939 -0.0740538 
-0.0390725 -0.0740538 -9.94407 
-9.95446 0.00496582 -0.0350555 
0.00496582 -9.95912 -0.0753641 
-0.0350555 -0.0753641 -9.95801 
-9.94689 0.000660247 -0.0411223 
0.000660247 -9.95423 -0.0762075 
-0.0411223 -0.0762075 -9.97047 
-9.95449 0.00479973 -0.0318922 
0.00479973 -9.95711 -0.0724191 
-0.0318922 -0.0724191 -9.95999 
-9.96186 0.00628623 0.00610223 
0.00628623 -9.96614 -0.000747298 
0.00610223 -0.000747298 -9.95068 
-9.96221 0.0057261 0.0111749 
0.0057261 -9.96708 0.00180441 
0.0111749 0.00180441 -9.94938 
-9.95851 0.00549851 0.00354303 
0.00549851 -9.96256 0.00621926 
0.00354303 0.00621926 -9.9576 
-9.94858 0.00355816 -0.00188656 
0.00355816 -9.97242 0.00311288 
-0.00188656 0.00311288 -9.95768 
-9.99787 0.00037606 0.015037 
0.00037606 -9.99741 0.0701786 
0.015037 0.0701786 -9.99237 
-9.99216 -0.00024097 0.0162794 
-0.00024097 -9.99277 0.0668272 
0.0162794 0.0668272 -10.0027 
-9.99857 0.00294934 0.0130619 
0.00294934 -9.99037 0.0693366 
0.0130619 0.0693366 -9.9987 
-9.99731 -0.000717068 0.0141137 
-0.000717068 -9.99941 0.0690071 
0.0141137 0.0690071 -9.99093 
-9.9959 0.0133398 -0.00249408 
0.0133398 -9.98809 -0.00266036 
-0.00249408 -0.00266036 -10.0342 
-9.99448 0.000843496 -0.0565704 
0.000843496 -10.0107 0.0249645 
-0.0565704 0.0249645 -10.013 
-10.0121 0.0202408 0.0158142 
0.0202408 -9.97455 0.00304469 
0.0158142 0.00304469 -10.0315 
-9.97572 0.0213414 -0.00729925 
0.0213414 -9.98152 -0.00437539 
-0.00729925 -0.00437539 -10.061 
-9.98246 -0.00860558 0.00196846 
-0.00860558 -9.97911 -0.000188921 
0.00196846 -0.000188921 -9.98062 
-9.9875 0.00963868 -0.00375414 
0.00963868 -9.9831 -0.000981196 
-0.00375414 -0.000981196 -9.97158 
-9.98075 0.00271231 -0.00216646 
0.00271231 -9.97769 -0.000640909 
-0.00216646 -0.000640909 -9.98375 
-9.98012 -0.00763174 -0.00273623 
-0.00763174 -9.97924 0.00522067 
-0.00273623 0.00522067 -9.98282 
-9.97725 -0.0179314 -0.00546117 
-0.0179314 -9.98894 0.00447994 
-0.00546117 0.00447994 -9.98003 
-9.97571 0.00788643 0.00208683 
0.00788643 -9.9705 0.00494123 
0.00208683 0.00494123 -10 
-9.97918 0.0191211 -0.000381676 
0.0191211 -9.97705 -0.00457011 
-0.000381676 -0.00457011 -9.98999 
-9.9955 -0.00302712 -0.00177942 
-0.00302712 -9.95108 0.00239025 
-0.00177942 0.00239025 -9.99965 
-9.99367 -0.00117052 -0.040587 
-0.00117052 -9.99765 -0.0160304 
-0.040587 -0.0160304 -9.99591 
-9.99146 -0.00133245 -0.0408805 
-0.00133245 -9.99199 -0.0189386 
-0.0408805 -0.0189386 -10.0038 
-9.99608 -0.0012807 -0.0393818 
-0.0012807 -9.99699 -0.0168268 
-0.0393818 -0.0168268 -9.99417 
-9.99743 -0.00106501 -0.0384535 
-0.00106501 -9.99729 -0.0152469 
-0.0384535 -0.0152469 -9.99252 
-9.98855 0.000639387 0.012523 
0.000639387 -9.99006 0.000180267 
0.012523 0.000180267 -10.0015 
-9.99209 0.00124775 0.00820811 
0.00124775 -9.99324 -0.000797788 
0.00820811 -0.000797788 -9.99474 
-9.99352 -0.00160515 0.00891202 
-0.00160515 -9.99094 -0.00258154 
0.00891202 -0.00258154 -9.9956 
-9.99259 0.00236745 0.006748 
0.00236745 -9.99491 -0.00158274 
0.006748 -0.00158274 -9.99256 
-4.29642 -0.0579641 -0.429565 
-0.0579641 -7.17789 -0.160398 
-0.429565 -0.160398 -2.41375 
-9.40644 -0.0793996 0.62149 
-0.0793996 -10.8902 0.463918 
0.62149 0.463918 6.40862 
-4.99758 0.596219 -0.683008 
0.596219 -6.54745 0.289673 
-0.683008 0.289673 -2.34302 
-5.71337 -0.367811 -3.31909 
-0.367811 -5.81422 -2.29515 
-3.31909 -2.29515 -2.36046 
-9.93846 0.0244003 -0.0195826 
0.0244003 -9.96291 0.0171964 
-0.0195826 0.0171964 -9.98778 
-9.9106 0.0335226 -0.0195983 
0.0335226 -9.97528 -0.0104757 
-0.0195983 -0.0104757 -10.0033 
-9.96256 -0.00104306 -0.0147758 
-0.00104306 -9.92872 -0.00350497 
-0.0147758 -0.00350497 -9.99788 
-9.9357 0.0113052 0.00475057 
0.0113052 -9.95975 0.00214124 
0.00475057 0.00214124 -9.9937 
-9.95993 0.00573795 0.0426069 
0.00573795 -9.97927 -0.0725719 
0.0426069 -0.0725719 -9.94612 
-9.95885 -0.00106113 0.0468033 
-0.00106113 -9.96496 -0.063547 
0.0468033 -0.063547 -9.9615 
-9.9525 -0.0075665 0.048028 
-0.0075665 -9.94635 -0.0709151 
0.048028 -0.0709151 -9.98647 
-9.95451 -0.00508656 0.0444965 
-0.00508656 -9.96802 -0.0519047 
0.0444965 -0.0519047 -9.96279 
-10.156 -0.320952 0.122369 
-0.320952 -9.81194 0.0816953 
0.122369 0.0816953 -10.7931 
-10.1709 -0.199883 0.166117 
-0.199883 -10.6612 -0.204114 
0.166117 -0.204114 -9.92896 
-10.2736 0.122461 0.149853 
0.122461 -10.035 0.022146 
0.149853 0.022146 -10.4524 
-10.3108 -0.178046 -0.147367 
-0.178046 -10.081 -0.159507 
-0.147367 -0.159507 -10.3693 
-11.2169 0.360682 0.614643 
0.360682 -11.864 0.221277 
0.614643 0.221277 -11.5494 
-9.81828 0.703986 0.218429 
0.703986 -10.7037 0.396117 
0.218429 0.396117 -14.1084 
-8.2307 0.773298 0.716378 
0.773298 -11.7142 -0.444812 
0.716378 -0.444812 -14.6854 
-11.4879 -0.445635 -1.41777 
-0.445635 -10.7517 -1.17253 
-1.41777 -1.17253 -12.3907 
-9.97473 -0.00139262 0.00140959 
-0.00139262 -9.97356 0.00382859 
0.00140959 0.00382859 -9.97373 
-9.97838 -0.0144309 0.00288957 
-0.0144309 -9.96683 0.00585426 
0.00288957 0.00585426 -9.97681 
-9.97255 0.0260026 -0.00715977 
0.0260026 -9.93898 0.00197601 
-0.00715977 0.00197601 -10.0105 
-9.95518 0.00393863 -0.000567973 
0.00393863 -9.98043 0.0226946 
-0.000567973 0.0226946 -9.98641 
-10.1421 -0.0258483 0.044926 
-0.0258483 -10.2108 -0.0174453 
0.044926 -0.0174453 -10.1382 
-10.2455 0.0939462 0.0540118 
0.0939462 -10.2055 -0.00476438 
0.0540118 -0.00476438 -10.0401 
-10.0822 -0.047868 -0.0488048 
-0.047868 -10.1046 0.0101916 
-0.0488048 0.0101916 -10.3043 
-10.12 -0.0265859 0.0437903 
-0.0265859 -10.2076 -0.0905593 
0.0437903 -0.0905593 -10.1635 
-12.0555 -0.582166 0.100849 
-0.582166 -10.1129 0.837064 
0.100849 0.837064 -10.25 
-8.55664 0.23124 -0.916715 
0.23124 -10.5914 -0.173524 
-0.916715 -0.173524 -13.2704 
-10.4692 0.477675 -0.533537 
0.477675 -8.22643 0.231109 
-0.533537 0.231109 -13.7228 
-11.1163 0.57729 1.2742 
0.57729 -9.32576 -0.0944222 
1.2742 -0.0944222 -11.9764 
-12.5734 -1.79204 1.91192 
-1.79204 -10.6444 -1.87707 
1.91192 -1.87707 -5.28761 
-1.99371 -4.1641 -0.736671 
-4.1641 -9.20998 1.66844 
-0.736671 1.66844 -17.3017 
-5.91834 -1.45887 -0.893347 
-1.45887 -7.70803 0.179459 
-0.893347 0.179459 -14.879 
-9.43499 1.4628 -4.476 
1.4628 -10.1133 0.902897 
-4.476 0.902897 -8.95706 
-9.99663 -0.00907814 0.00539501 
-0.00907814 -10.0157 0.00568799 
0.00539501 0.00568799 -10.0023 
-10.0035 0.0167741 0.00318424 
0.0167741 -10.0001 0.00138601 
0.00318424 0.00138601 -10.011 
-9.99957 -0.00834943 -0.00198817 
-0.00834943 -10.0218 -0.00237396 
-0.00198817 -0.00237396 -9.9933 
-10.0133 0.0132624 -0.00638999 
0.0132624 -10.0103 0.0118517 
-0.00638999 0.0118517 -9.99097 
-9.99239 0.000986008 0.0174058 
0.000986008 -9.99713 -0.0772541 
0.0174058 -0.0772541 -9.98908 
-9.99071 0.00482224 0.0149048 
0.00482224 -9.99667 -0.0784114 
0.0149048 -0.0784114 -9.99123 
-9.9832 0.0024865 0.0104943 
0.0024865 -9.98185 -0.0810141 
0.0104943 -0.0810141 -10.0136 
-9.99729 -0.000769198 0.0203807 
-0.000769198 -9.99894 -0.0839086 
0.0203807 -0.0839086 -9.98237 
-9.9399 0.010133 0.0795032 
0.010133 -9.91279 0.16111 
0.0795032 0.16111 -9.8817 
-9.95387 0.00378368 0.0765497 
0.00378368 -9.8714 0.10373 
0.0765497 0.10373 -9.90912 
-9.97529 0.0114361 0.0584333 
0.0114361 -9.86532 0.106336 
0.0584333 0.106336 -9.89377 
-10.0063 -0.0185393 0.065503 
-0.0185393 -9.9008 0.0871851 
0.065503 0.0871851 -9.82732 
-9.99778 0.000895682 -0.0727438 
0.000895682 -9.99349 0.0150182 
-0.0727438 0.0150182 -9.99135 
-9.99957 -0.000115762 -0.0789082 
-0.000115762 -9.99865 0.0183116 
-0.0789082 0.0183116 -9.98441 
-9.98557 0.00142376 -0.0758712 
0.00142376 -9.98602 0.00892041 
-0.0758712 0.00892041 -10.011 
-9.99814 0.00439683 -0.0728748 
0.00439683 -9.99218 0.012246 
-0.0728748 0.012246 -9.9923 
-9.95385 0.014892 -0.00245565 
0.014892 -9.95717 0.0088256 
-0.00245565 0.0088256 -9.96611 
-9.94199 -0.0153288 -0.00474605 
-0.0153288 -9.95451 0.0035127 
-0.00474605 0.0035127 -9.98064 
-9.9514 -0.0059861 -0.0097171 
-0.0059861 -9.94903 0.0084127 
-0.0097171 0.0084127 -9.9767 
-9.96134 -0.00122266 -0.00676382 
-0.00122266 -9.93975 0.00450596 
-0.00676382 0.00450596 -9.97605 
-10.3111 0.0163244 0.114343 
0.0163244 -10.3053 0.0944817 
0.114343 0.0944817 -10.5597 
-10.4966 0.238234 0.122717 
0.238234 -10.4034 0.0483691 
0.122717 0.0483691 -10.2762 
-10.3036 0.0456697 0.1235 
0.0456697 -10.2641 -0.0147036 
0.1235 -0.0147036 -10.6084 
-10.4676 -0.0115531 0.350379 
-0.0115531 -10.2955 0.0375139 
0.350379 0.0375139 -10.413 
-11.0644 0.264169 0.0865785 
0.264169 -10.7569 0.35124 
0.0865785 0.35124 -11.1958 
-10.922 0.297466 0.270519 
0.297466 -10.4482 0.250737 
0.270519 0.250737 -11.6469 
-11.3624 0.331497 0.0923286 
0.331497 -11.04 0.0397029 
0.0923286 0.0397029 -10.6147 
-11.1696 0.341228 -0.173024 
0.341228 -10.7675 0.224129 
-0.173024 0.224129 -11.08 
-10.2693 -0.0268928 -0.00626399 
-0.0268928 -10.3367 -0.00960411 
-0.00626399 -0.00960411 -10.1129 
-10.2446 0.00238782 -0.0411774 
0.00238782 -10.2042 -0.0167958 
-0.0411774 -0.0167958 -10.2702 
-10.1542 -0.028928 0.00610344 
-0.028928 -10.1634 -0.0148099 
0.00610344 -0.0148099 -10.4013 
-10.2267 -0.0458461 -0.075571 
-0.0458461 -10.2384 -0.0669879 
-0.075571 -0.0669879 -10.2539 
-9.99031 -0.0021128 -0.0464479 
-0.0021128 -9.99068 -0.0164227 
-0.0464479 -0.0164227 -10.0056 
-9.99949 3.27904e-05 -0.0453836 
3.27904e-05 -9.99492 -0.0142784 
-0.0453836 -0.0142784 -9.99215 
-9.99675 -0.00183361 -0.0439606 
-0.00183361 -9.99373 -0.0133059 
-0.0439606 -0.0133059 -9.99608 
-9.99831 0.000752066 -0.0423005 
0.000752066 -9.99788 -0.0144372 
-0.0423005 -0.0144372 -9.99036 
-9.93342 -0.00423942 -0.0501723 
-0.00423942 -9.93333 0.0472094 
-0.0501723 0.0472094 -9.93328 
-9.92391 -0.00728449 -0.0524251 
-0.00728449 -9.92729 0.0513785 
-0.0524251 0.0513785 -9.94884 
-9.93401 0.0124887 -0.0487582 
0.0124887 -9.936 0.051286 
-0.0487582 0.051286 -9.93003 
-9.93662 0.000186597 -0.0468717 
0.000186597 -9.9239 0.0499317 
-0.0468717 0.0499317 -9.93952 
-9.98811 -4.54671e-06 0.00234124 
-4.54671e-06 -9.98678 -0.000204815 
0.00234124 -0.000204815 -9.99726 
-9.98712 2.8579e-05 0.00457286 
2.8579e-05 -9.98732 0.00200629 
0.00457286 0.00200629 -9.9977 
-9.98832 0.000672612 0.00181713 
0.000672612 -9.9874 0.00247993 
0.00181713 0.00247993 -9.99643 
-9.98983 0.00130517 0.002751 
0.00130517 -9.98937 0.00128019 
0.002751 0.00128019 -9.99296 
-9.89585 -0.0375087 0.0219925 
-0.0375087 -9.87721 -0.0194989 
0.0219925 -0.0194989 -9.97881 
-9.90179 -0.0240625 0.036509 
-0.0240625 -9.90835 -0.0266544 
0.036509 -0.0266544 -9.94172 
-9.94623 0.0529719 0.0527635 
0.0529719 -9.92185 0.00611538 
0.0527635 0.00611538 -9.88379 
-9.89897 -0.0248354 0.0544171 
-0.0248354 -9.91469 -0.0555717 
0.0544171 -0.0555717 -9.9382 
-9.99205 0.00782448 0.0106178 
0.00782448 -9.98684 0.0126326 
0.0106178 0.0126326 -9.98046 
-10.0053 -0.00511082 0.00520294 
-0.00511082 -9.95788 0.0100876 
0.00520294 0.0100876 -9.99613 
-9.97898 -0.00187063 -0.011746 
-0.00187063 -9.9905 -0.00356245 
-0.011746 -0.00356245 -9.98986 
-10.0058 -0.00110796 -0.00724223 
-0.00110796 -9.97447 0.00327911 
-0.00724223 0.00327911 -9.97911 
-9.99458 -0.00323016 -0.000603791 
-0.00323016 -9.97623 -0.000515965 
-0.000603791 -0.000515965 -9.99469 
-9.9908 0.00249549 0.0016877 
0.00249549 -9.99088 -0.000723305 
0.0016877 -0.000723305 -9.98382 
-9.98717 -0.00113751 -0.00159033 
-0.00113751 -9.97961 0.0109243 
-0.00159033 0.0109243 -9.99872 
-9.99518 -0.00287299 0.00617707 
-0.00287299 -9.99445 -0.00263966 
0.00617707 -0.00263966 -9.97587 
-9.98615 -0.00273317 -0.00778773 
-0.00273317 -9.98702 0.00240791 
-0.00778773 0.00240791 -10.0033 
-9.99419 -0.000211552 -0.00486397 
-0.000211552 -9.98952 0.0047759 
-0.00486397 0.0047759 -9.99275 
-9.99247 -0.000754605 -0.00444772 
-0.000754605 -9.98983 0.00610378 
-0.00444772 0.00610378 -9.99416 
-9.99357 0.00155352 -0.00244483 
0.00155352 -9.99244 0.00584146 
-0.00244483 0.00584146 -9.99045 
-10.0002 0.00246237 -0.00170703 
0.00246237 -9.99834 -0.00609978 
-0.00170703 -0.00609978 -9.98833 
-9.99363 0.00843726 0.00243886 
0.00843726 -9.99474 -0.00724964 
0.00243886 -0.00724964 -9.99846 
-9.998 -0.00309408 -0.0047884 
-0.00309408 -9.99863 -0.003267 
-0.0047884 -0.003267 -9.99019 
-9.99793 -0.003711 -0.000475217 
-0.003711 -9.99937 -0.000936476 
-0.000475217 -0.000936476 -9.98952 
-9.88292 0.0450089 0.0300761 
0.0450089 -9.93269 0.00550214 
0.0300761 0.00550214 -9.99776 
-9.91847 0.0166309 0.0431043 
0.0166309 -9.92151 0.0177364 
0.0431043 0.0177364 -9.9734 
-9.947 -0.0143354 0.0305071 
-0.0143354 -9.91315 0.00338435 
0.0305071 0.00338435 -9.95323 
-9.9151 0.0170796 0.0635311 
0.0170796 -9.9308 0.0177188 
0.0635311 0.0177188 -9.96748 
-10.1481 0.0369472 0.0091678 
0.0369472 -10.1052 -0.0267546 
0.0091678 -0.0267546 -10.1198 
-10.0807 0.0356049 -0.0107105 
0.0356049 -10.1478 -0.0419414 
-0.0107105 -0.0419414 -10.1448 
-10.171 0.0138821 -0.00259713 
0.0138821 -10.0085 -0.00469776 
-0.00259713 -0.00469776 -10.1937 
-10.1144 -0.0223698 0.00698771 
-0.0223698 -10.1174 -0.0603414 
0.00698771 -0.0603414 -10.1414 
-9.99028 -0.00157065 -0.0786019 
-0.00157065 -9.98346 -0.0207704 
-0.0786019 -0.0207704 -9.98726 
-9.97673 -0.00201276 -0.0774045 
-0.00201276 -9.99124 -0.0158458 
-0.0774045 -0.0158458 -9.99302 
-9.98311 -7.82889e-05 -0.076588 
-7.82889e-05 -9.99128 -0.0164614 
-0.076588 -0.0164614 -9.9866 
-9.99097 0.00121759 -0.0815162 
0.00121759 -9.98593 -0.020635 
-0.0815162 -0.020635 -9.98409 
-9.95712 -0.0269541 0.00152685 
-0.0269541 -9.88309 0.0286482 
0.00152685 0.0286482 -9.93027 
-9.94314 -0.00258803 0.00695294 
-0.00258803 -9.90598 0.0054816 
0.00695294 0.0054816 -9.92136 
-9.92111 0.0146714 0.00413575 
0.0146714 -9.94928 0.00741159 
0.00413575 0.00741159 -9.90009 
-9.94549 0.00626881 0.012716 
0.00626881 -9.89889 -0.00293513 
0.012716 -0.00293513 -9.92611 
-9.90898 -0.0156638 -0.0745591 
-0.0156638 -9.92534 0.0220982 
-0.0745591 0.0220982 -9.92203 
-9.92765 -0.00490567 -0.0785999 
-0.00490567 -9.90497 0.0242116 
-0.0785999 0.0242116 -9.92373 
-9.92101 -0.00556393 -0.0777284 
-0.00556393 -9.91108 0.0288192 
-0.0777284 0.0288192 -9.92425 
-9.92272 -0.00557826 -0.0809398 
-0.00557826 -9.91243 0.0271106 
-0.0809398 0.0271106 -9.92118 
-9.78129 0.208423 -0.0425196 
0.208423 -9.92251 0.0162577 
-0.0425196 0.0162577 -10.0807 
-9.81165 0.128596 -0.0966323 
0.128596 -9.90181 0.0634362 
-0.0966323 0.0634362 -10.071 
-9.79555 0.173991 -0.0948982 
0.173991 -9.93934 0.0422058 
-0.0948982 0.0422058 -10.0496 
-9.91656 0.0798786 -0.0953336 
0.0798786 -9.87534 0.0262568 
-0.0953336 0.0262568 -9.99257 
-9.90373 -0.0344275 -0.0255698 
-0.0344275 -9.88263 0.0201351 
-0.0255698 0.0201351 -9.97013 
-9.90873 -0.0194927 -0.0390476 
-0.0194927 -9.90587 0.0259536 
-0.0390476 0.0259536 -9.9419 
-9.94214 0.0372653 -0.0514487 
0.0372653 -9.9165 0.00348839 
-0.0514487 0.00348839 -9.89785 
-9.90424 -0.0229907 -0.051917 
-0.0229907 -9.91177 0.0499122 
-0.051917 0.0499122 -9.94049 
-10.2635 0.283952 -0.311171 
0.283952 -10.1062 0.0211358 
-0.311171 0.0211358 -11.7493 
-10.288 0.123611 -0.0734511 
0.123611 -10.1367 0.29656 
-0.0734511 0.29656 -11.6942 
-10.8533 0.443051 -0.256693 
0.443051 -11.3728 -0.285111 
-0.256693 -0.285111 -9.89292 
-10.7619 0.325184 0.305565 
0.325184 -9.98617 -0.556444 
0.305565 -0.556444 -11.3709 
-9.92933 -0.0249231 0.0250386 
-0.0249231 -9.90097 0.0607032 
0.0250386 0.0607032 -10.1057 
-9.91654 -0.0349848 0.0289495 
-0.0349848 -9.87773 0.0448859 
0.0289495 0.0448859 -10.1417 
-9.92475 -0.00178782 0.0141888 
-0.00178782 -9.89982 0.0556201 
0.0141888 0.0556201 -10.1114 
-9.90391 -0.0111879 0.0272209 
-0.0111879 -9.93013 0.0232716 
0.0272209 0.0232716 -10.1019 
-9.89484 -0.095178 0.0855395 
-0.095178 -9.85903 0.125096 
0.0855395 0.125096 -10.8361 
-10.2051 -0.0108276 -0.0211794 
-0.0108276 -10.3414 -0.0252657 
-0.0211794 -0.0252657 -10.0435 
-10.3897 -0.0648755 0.0372972 
-0.0648755 -10.3558 0.0150425 
0.0372972 0.0150425 -9.84442 
-10.327 -0.0688312 -0.0652634 
-0.0688312 -10.1612 -0.304192 
-0.0652634 -0.304192 -10.1018 
-10.0081 0.032336 -0.000943336 
0.032336 -9.86797 -0.00133324 
-0.000943336 -0.00133324 -10.0158 
-9.92051 0.00663441 -0.00593989 
0.00663441 -10.0116 0.0135135 
-0.00593989 0.0135135 -9.95976 
-9.97297 0.0152124 -0.0125754 
0.0152124 -9.9159 0.0316269 
-0.0125754 0.0316269 -10.003 
-9.94827 -0.046688 -0.00997013 
-0.046688 -9.93774 0.0328483 
-0.00997013 0.0328483 -10.0059 
-9.91767 -0.0238319 0.0265674 
-0.0238319 -9.98089 -0.0109521 
0.0265674 -0.0109521 -10.0123 
-9.986 0.00788048 0.0193444 
0.00788048 -9.94328 0.012193 
0.0193444 0.012193 -9.98161 
-9.89306 -0.0231037 0.00387667 
-0.0231037 -9.98566 0.00755351 
0.00387667 0.00755351 -10.0322 
-9.97167 -0.0367129 0.0189151 
-0.0367129 -9.92693 0.00864558 
0.0189151 0.00864558 -10.0123 
-9.94066 0.00686921 -0.0339236 
0.00686921 -9.94564 -0.0750835 
-0.0339236 -0.0750835 -9.94305 
-9.94241 -0.000230903 -0.0329671 
-0.000230903 -9.95901 -0.0829155 
-0.0329671 -0.0829155 -9.92792 
-9.94 0.00709588 -0.0339408 
0.00709588 -9.93336 -0.0799208 
-0.0339408 -0.0799208 -9.95599 
-9.9442 0.00204856 -0.0357006 
0.00204856 -9.94647 -0.0697706 
-0.0357006 -0.0697706 -9.93868 
-10.0774 0.0147991 -0.00934564 
0.0147991 -10.017 0.0131752 
-0.00934564 0.0131752 -9.99946 
-9.96451 -0.0675987 -0.0200683 
-0.0675987 -10.0486 0.00727749 
-0.0200683 0.00727749 -10.0808 
-10.0378 0.00577758 0.00181079 
0.00577758 -9.99165 0.0127997 
0.00181079 0.0127997 -10.0645 
-10.0542 0.0741552 0.0316531 
0.0741552 -10.0681 -0.0229638 
0.0316531 -0.0229638 -9.97169 
-9.97122 0.00179583 0.076117 
0.00179583 -9.9933 -0.0154179 
0.076117 -0.0154179 -9.9947 
-9.99232 -0.00128137 0.080204 
-0.00128137 -9.98441 -0.0195004 
0.080204 -0.0195004 -9.98248 
-9.99176 0.0018295 0.075496 
0.0018295 -9.98192 -0.0198889 
0.075496 -0.0198889 -9.98554 
-9.98465 0.000300327 0.0765409 
0.000300327 -9.98979 -0.0153949 
0.0765409 -0.0153949 -9.98478 
-9.98947 -7.18217e-05 -0.00237549 
-7.18217e-05 -9.9878 0.002826 
-0.00237549 0.002826 -9.99903 
-9.98997 0.00105298 -0.00109821 
0.00105298 -9.98921 -0.000235962 
-0.00109821 -0.000235962 -9.99712 
-9.99081 -0.000881558 -9.62042e-05 
-0.000881558 -9.98967 0.000762688 
-9.62042e-05 0.000762688 -9.99582 
-9.99199 -0.000156 0.000431982 
-0.000156 -9.98941 0.00123873 
0.000431982 0.00123873 -9.99491 
-9.99111 0.000181515 0.0166065 
0.000181515 -9.9681 -0.0817424 
0.0166065 -0.0817424 -9.99327 
-9.98017 0.00353824 0.0238468 
0.00353824 -9.98916 -0.0812045 
0.0238468 -0.0812045 -9.98314 
-9.98319 -0.00184668 0.0239272 
-0.00184668 -9.99125 -0.0875825 
0.0239272 -0.0875825 -9.97803 
-9.98737 -0.00114153 0.018313 
-0.00114153 -9.98174 -0.0809121 
0.018313 -0.0809121 -9.98337 
-10.1131 -0.00860041 -0.0375396 
-0.00860041 -10.1523 -0.00275943 
-0.0375396 -0.00275943 -10.1777 
-10.0885 0.000749149 -0.0543215 
0.000749149 -10.1412 0.0195575 
-0.0543215 0.0195575 -10.2133 
-10.1772 -0.000393016 -0.0415272 
-0.000393016 -10.1476 -0.00908779 
-0.0415272 -0.00908779 -10.1182 
-10.1156 -0.0286905 -0.00384351 
-0.0286905 -10.1683 0.00265124 
-0.00384351 0.00265124 -10.1591 
-9.96475 -0.0317241 0.00698644 
-0.0317241 -9.9003 -0.0108845 
0.00698644 -0.0108845 -9.99484 
-9.91172 -0.00683225 0.0223396 
-0.00683225 -9.96374 -0.021759 
0.0223396 -0.021759 -9.98443 
-9.94009 -0.0323842 0.00450968 
-0.0323842 -9.90638 -0.0370217 
0.00450968 -0.0370217 -10.0134 
-9.90987 -0.0380049 0.00308415 
-0.0380049 -9.9567 -0.0216663 
0.00308415 -0.0216663 -9.99332 
-9.97265 0.000148637 -0.0771312 
0.000148637 -9.99256 0.015688 
-0.0771312 0.015688 -9.99402 
-9.99179 -0.00143791 -0.0810226 
-0.00143791 -9.98609 0.0210316 
-0.0810226 0.0210316 -9.98135 
-9.99122 0.00201681 -0.0757017 
0.00201681 -9.98285 0.0208722 
-0.0757017 0.0208722 -9.98516 
-9.98504 -0.000653711 -0.0769375 
-0.000653711 -9.98819 0.0172131 
-0.0769375 0.0172131 -9.986 
-10.2668 -0.0370088 0.0449292 
-0.0370088 -10.1412 -0.0750829 
0.0449292 -0.0750829 -10.3212 
-10.1957 -0.0360103 0.0539494 
-0.0360103 -10.081 -0.152905 
0.0539494 -0.152905 -10.4524 
-10.3989 -0.0834338 0.0211893 
-0.0834338 -10.2204 -0.131383 
0.0211893 -0.131383 -10.1099 
-10.3022 -0.0141404 -0.0611054 
-0.0141404 -10.174 -0.0709014 
-0.0611054 -0.0709014 -10.253 
-9.48378 -0.372132 0.0333095 
-0.372132 -9.94012 0.199758 
0.0333095 0.199758 -11.1111 
-10.1224 0.238008 -0.0447738 
0.238008 -10.2361 0.038817 
-0.0447738 0.038817 -10.1765 
-10.6546 -0.321868 -0.0853249 
-0.321868 -10.243 0.0686423 
-0.0853249 0.0686423 -9.63744 
-10.2152 -0.258554 -0.0207316 
-0.258554 -10.1523 -0.39836 
-0.0207316 -0.39836 -10.1675 
-9.95322 0.005797 0.0634224 
0.005797 -9.95967 0.0440529 
0.0634224 0.0440529 -9.97525 
-9.968 5.41952e-05 0.0671816 
5.41952e-05 -9.96253 0.0375785 
0.0671816 0.0375785 -9.95763 
-9.96707 -0.00291479 0.0623323 
-0.00291479 -9.9619 0.0418966 
0.0623323 0.0418966 -9.95918 
-9.9686 0.00319442 0.0584011 
0.00319442 -9.95869 0.0413132 
0.0584011 0.0413132 -9.96085 
-9.96169 0.011546 0.00616894 
0.011546 -9.96866 -0.00400472 
0.00616894 -0.00400472 -9.96304 
-9.99172 0.00364806 0.0155407 
0.00364806 -9.95484 -0.00979059 
0.0155407 -0.00979059 -9.94684 
-9.92109 -0.0214406 0.00434157 
-0.0214406 -9.96204 0.0157855 
0.00434157 0.0157855 -10.0103 
-9.96295 0.0131984 2.85281e-05 
0.0131984 -9.96725 -0.00440003 
2.85281e-05 -0.00440003 -9.9632 
-9.99468 0.0011709 0.0296044 
0.0011709 -9.99823 -0.029939 
0.0296044 -0.029939 -9.99191 
-9.99317 -0.00185061 0.0289719 
-0.00185061 -9.9899 -0.033011 
0.0289719 -0.033011 -10.0018 
-9.99304 0.00116919 0.0324058 
0.00116919 -9.99305 -0.028591 
0.0324058 -0.028591 -9.99873 
-9.99672 0.00243329 0.0285562 
0.00243329 -9.99653 -0.0277694 
0.0285562 -0.0277694 -9.99157 
-9.9251 0.0409629 0.0178933 
0.0409629 -9.96452 0.0087506 
0.0178933 0.0087506 -9.99144 
-9.97034 0.00756497 -0.00499646 
0.00756497 -9.94519 0.0130571 
-0.00499646 0.0130571 -9.96553 
-9.96762 0.000598817 -0.00021447 
0.000598817 -9.94489 0.00393709 
-0.00021447 0.00393709 -9.96855 
-9.95686 0.00870909 -0.0176708 
0.00870909 -9.94593 -0.00742102 
-0.0176708 -0.00742102 -9.97827 
-9.98549 -0.00174724 0.00239171 
-0.00174724 -9.97871 0.0793004 
0.00239171 0.0793004 -9.99222 
-9.99248 -0.00186026 0.00411689 
-0.00186026 -9.9853 0.0848582 
0.00411689 0.0848582 -9.97864 
-9.98531 0.000406957 0.00650884 
0.000406957 -9.98628 0.0821614 
0.00650884 0.0821614 -9.98483 
-9.98502 0.00169577 0.00753447 
0.00169577 -9.98566 0.0807818 
0.00753447 0.0807818 -9.98574 
-9.92763 -0.119261 -0.241891 
-0.119261 -10.0852 0.0129508 
-0.241891 0.0129508 -10.0433 
-9.89906 -0.0521751 -0.278162 
-0.0521751 -10.0274 -0.0724599 
-0.278162 -0.0724599 -10.1296 
-10.0309 -0.0799662 -0.0832009 
-0.0799662 -9.92393 -0.019715 
-0.0832009 -0.019715 -10.1013 
-10.0034 -0.0890593 -0.307947 
-0.0890593 -10.076 0.0433527 
-0.307947 0.0433527 -9.97678 
-9.93401 -0.00959287 0.0551919 
-0.00959287 -9.90038 0.0229473 
0.0551919 0.0229473 -9.89383 
-9.92508 0.00588854 0.0592906 
0.00588854 -9.88585 0.032783 
0.0592906 0.032783 -9.91729 
-9.88664 0.0379725 0.0393385 
0.0379725 -9.89348 0.0202903 
0.0393385 0.0202903 -9.9481 
-9.89978 0.00886442 0.0678297 
0.00886442 -9.89374 0.0468495 
0.0678297 0.0468495 -9.9347 
-9.88179 0.133014 -0.194828 
0.133014 -9.98888 -0.00913939 
-0.194828 -0.00913939 -10.1797 
-9.98101 0.182938 -0.0899377 
0.182938 -9.95351 -0.0128316 
-0.0899377 -0.0128316 -10.1158 
-9.86076 0.182558 -0.143675 
0.182558 -9.99511 -0.0318413 
-0.143675 -0.0318413 -10.1945 
-9.89333 0.181235 -0.148258 
0.181235 -9.99785 -0.036177 
-0.148258 -0.036177 -10.1591 
-9.98515 0.00161719 -0.00914646 
0.00161719 -9.98575 0.0762464 
-0.00914646 0.0762464 -10.0109 
-9.99723 0.000553672 -0.0167144 
0.000553672 -9.99856 0.0785023 
-0.0167144 0.0785023 -9.98603 
-9.99214 -0.000123152 -0.0145759 
-0.000123152 -9.99814 0.0739277 
-0.0145759 0.0739277 -9.99154 
-9.99141 0.00318039 -0.0126058 
0.00318039 -9.9993 0.073076 
-0.0126058 0.073076 -9.99111 
-10.0007 0.0024119 -0.0436132 
0.0024119 -9.99799 -0.00049395 
-0.0436132 -0.00049395 -9.9849 
-9.98708 0.000643785 -0.0388915 
0.000643785 -9.99607 0.00461962 
-0.0388915 0.00461962 -10.0004 
-9.99043 0.0034847 -0.036107 
0.0034847 -9.99098 -0.00242651 
-0.036107 -0.00242651 -10.0022 
-10.0027 -0.00226654 -0.0380203 
-0.00226654 -9.99699 0.00140079 
-0.0380203 0.00140079 -9.9839 
-5.94989 -0.28284 0.549714 
-0.28284 -3.74701 0.424571 
0.549714 0.424571 -4.33166 
-9.86755 0.36313 -0.478477 
0.36313 -5.13319 1.0779 
-0.478477 1.0779 0.972165 
-11.1513 1.31373 -1.49056 
1.31373 -7.74563 -1.36308 
-1.49056 -1.36308 4.8684 
-4.89778 0.313504 -3.36841 
0.313504 -6.44998 2.25619 
-3.36841 2.25619 -2.6808 
-9.98653 -1.01889 0.267921 
-1.01889 -9.32713 -0.629352 
0.267921 -0.629352 -11.4382 
-10.524 -0.837392 0.679065 
-0.837392 -10.2857 -0.375034 
0.679065 -0.375034 -9.94214 
-9.45802 -1.27127 0.562118 
-1.27127 -9.31375 -0.672658 
0.562118 -0.672658 -11.98 
-9.92604 -0.811562 0.148299 
-0.811562 -9.70262 -0.209385 
0.148299 -0.209385 -11.1232 
-9.96347 0.00190043 0.00915462 
0.00190043 -9.97018 0.0829545 
0.00915462 0.0829545 -9.96085 
-9.96665 0.00070878 0.00838558 
0.00070878 -9.96018 0.0796998 
0.00838558 0.0796998 -9.96768 
-9.95626 0.00205557 0.0129826 
0.00205557 -9.96446 0.0804868 
0.0129826 0.0804868 -9.97378 
-9.96412 0.00360796 0.00731349 
0.00360796 -9.96671 0.0790202 
0.00731349 0.0790202 -9.96369 
-9.93013 -0.000905428 -0.00741482 
-0.000905428 -9.95927 0.0150125 
-0.00741482 0.0150125 -9.97279 
-9.94495 -0.0384824 -0.00282284 
-0.0384824 -9.92533 0.00113069 
-0.00282284 0.00113069 -9.99192 
-9.9288 -0.0038795 -0.0119823 
-0.0038795 -9.95641 0.0121229 
-0.0119823 0.0121229 -9.97698 
-9.92102 -0.00554255 -0.0110755 
-0.00554255 -9.96613 0.0268957 
-0.0110755 0.0268957 -9.97506 
-9.99374 0.00159189 -0.0225722 
0.00159189 -9.98921 -0.0409166 
-0.0225722 -0.0409166 -10.0035 
-9.99719 -0.000449506 -0.0165859 
-0.000449506 -9.98958 -0.0424764 
-0.0165859 -0.0424764 -9.99972 
-9.99953 -0.000932447 -0.0199254 
-0.000932447 -9.9978 -0.0426711 
-0.0199254 -0.0426711 -9.98915 
-9.99707 -0.00220737 -0.0180247 
-0.00220737 -9.99956 -0.0386528 
-0.0180247 -0.0386528 -9.98985 
-9.9969 -0.000383302 0.034401 
-0.000383302 -9.9947 0.0282784 
0.034401 0.0282784 -9.99474 
-9.99624 0.00228279 0.0357378 
0.00228279 -9.99218 0.0284778 
0.0357378 0.0284778 -9.99792 
-9.99477 -9.83332e-05 0.0324651 
-9.83332e-05 -9.98972 0.0292293 
0.0324651 0.0292293 -10.0018 
-9.99692 -0.000827462 0.0345985 
-0.000827462 -9.99694 0.0278313 
0.0345985 0.0278313 -9.99249 
-9.97086 0.00856687 0.00618708 
0.00856687 -9.95796 0.00397149 
0.00618708 0.00397149 -9.99009 
-9.94825 0.0364234 -0.00230985 
0.0364234 -9.96862 -0.00519682 
-0.00230985 -0.00519682 -10.002 
-9.97383 -0.0060168 0.00531294 
-0.0060168 -9.96108 0.00149553 
0.00531294 0.00149553 -9.98398 
-9.98188 0.000576379 0.0056695 
0.000576379 -9.94403 -8.98574e-05 
0.0056695 -8.98574e-05 -9.993 
-9.99809 -0.00160177 0.0299894 
-0.00160177 -9.99532 0.0222657 
0.0299894 0.0222657 -9.99315 
-9.9956 0.000636685 0.0279473 
0.000636685 -9.9905 0.0220188 
0.0279473 0.0220188 -10.0005 
-9.99706 -0.0015046 0.0323763 
-0.0015046 -9.99036 0.0208409 
0.0323763 0.0208409 -9.99913 
-9.99761 -0.00248087 0.0303993 
-0.00248087 -9.9971 0.0237452 
0.0303993 0.0237452 -9.99185 
-9.96764 -0.0126562 -0.0134149 
-0.0126562 -10.0185 -0.0156225 
-0.0134149 -0.0156225 -9.97867 
-9.998 -0.0155497 -0.00410532 
-0.0155497 -9.98043 -0.010708 
-0.00410532 -0.010708 -9.98642 
-9.99842 -0.00816164 0.0140048 
-0.00816164 -9.95875 -0.00845591 
0.0140048 -0.00845591 -10.0077 
-9.97488 -0.0207559 -0.0185073 
-0.0207559 -10.0184 0.0161282 
-0.0185073 0.0161282 -9.9716 
-9.97896 0.00691289 0.00443134 
0.00691289 -9.9809 -0.00418476 
0.00443134 -0.00418476 -9.97851 
-9.97973 0.00137017 0.000921956 
0.00137017 -9.9819 -0.000239543 
0.000921956 -0.000239543 -9.97674 
-9.97477 -0.00585369 0.000325597 
-0.00585369 -9.9818 -0.00216863 
0.000325597 -0.00216863 -9.9818 
-9.98001 -0.00456529 -0.000750898 
-0.00456529 -9.98434 -0.00517958 
-0.000750898 -0.00517958 -9.97402 
-9.99271 0.000912886 -0.043622 
0.000912886 -9.98898 0.0421447 
-0.043622 0.0421447 -10.0008 
-9.99497 -0.00179386 -0.0373347 
-0.00179386 -9.98903 0.0428585 
-0.0373347 0.0428585 -9.99846 
-9.99652 0.0002376 -0.0400258 
0.0002376 -9.99437 0.0412591 
-0.0400258 0.0412591 -9.99156 
-9.99614 0.00119442 -0.0389704 
0.00119442 -9.99684 0.0424785 
-0.0389704 0.0424785 -9.98948 
-9.99944 0.00583439 -0.00509619 
0.00583439 -9.99001 0.00176384 
-0.00509619 0.00176384 -9.98549 
-9.99331 -0.0113438 -0.00574164 
-0.0113438 -9.99051 -0.00470151 
-0.00574164 -0.00470151 -9.99113 
-9.99626 0.00633345 -2.46107e-05 
0.00633345 -9.98559 -0.00151426 
-2.46107e-05 -0.00151426 -9.99309 
-9.99564 -0.0014948 0.0008125 
-0.0014948 -9.99155 -0.000859485 
0.0008125 -0.000859485 -9.98776 
-9.99734 0.000945348 0.0722638 
0.000945348 -9.99076 0.0148306 
0.0722638 0.0148306 -9.99217 
-9.99824 -0.00226673 0.0712374 
-0.00226673 -9.99104 0.0131051 
0.0712374 0.0131051 -9.99099 
-9.98401 -0.00114561 0.0747454 
-0.00114561 -9.98418 0.0098891 
0.0747454 0.0098891 -10.0121 
-9.99779 -0.000953555 0.0779568 
-0.000953555 -9.9975 0.0175128 
0.0779568 0.0175128 -9.98498 
-10.1415 0.00834423 0.0154071 
0.00834423 -10.1301 -0.009494 
0.0154071 -0.009494 -10.1825 
-10.1624 0.0110368 0.0187664 
0.0110368 -10.1678 0.00181586 
0.0187664 0.00181586 -10.1237 
-10.1583 -0.000813534 0.00878875 
-0.000813534 -10.149 -0.00121101 
0.00878875 -0.00121101 -10.1467 
-10.1489 -0.00440868 -0.000257938 
-0.00440868 -10.1518 0.0193353 
-0.000257938 0.0193353 -10.1533 
-9.97695 0.00496383 -0.00148576 
0.00496383 -9.97808 -0.00373811 
-0.00148576 -0.00373811 -9.97468 
-9.97287 -0.00935408 -0.0091469 
-0.00935408 -9.97097 -0.000987893 
-0.0091469 -0.000987893 -9.98587 
-9.9855 0.00641886 0.00265285 
0.00641886 -9.97472 -0.000780115 
0.00265285 -0.000780115 -9.9695 
-9.9718 0.00197097 -0.00118133 
0.00197097 -9.98033 -0.00094456 
-0.00118133 -0.00094456 -9.97758 
-10.0127 0.00474847 0.0059636 
0.00474847 -10.0129 0.00989145 
0.0059636 0.00989145 -9.98218 
-10.0099 -0.00432477 -0.00176841 
-0.00432477 -9.99234 -0.00127702 
-0.00176841 -0.00127702 -10.0055 
-10.0018 -0.00274427 0.00571114 
-0.00274427 -10 -0.00210477 
0.00571114 -0.00210477 -10.0059 
-9.99916 -0.0092318 0.00667388 
-0.0092318 -9.9987 -0.00949797 
0.00667388 -0.00949797 -10.0099 
-9.91643 0.0157526 0.0459195 
0.0157526 -9.90442 0.0184534 
0.0459195 0.0184534 -9.93701 
-9.90025 0.0291492 0.0341246 
0.0291492 -9.91882 0.0563241 
0.0341246 0.0563241 -9.93879 
-9.88735 0.0275765 0.0126339 
0.0275765 -9.86197 0.0363172 
0.0126339 0.0363172 -10.0085 
-9.90045 0.0430907 0.0310407 
0.0430907 -9.89466 0.0271099 
0.0310407 0.0271099 -9.96276 
-9.95935 -0.00562915 0.0241973 
-0.00562915 -10.041 -0.0252402 
0.0241973 -0.0252402 -9.96491 
-10.0154 0.00160086 -0.0128329 
0.00160086 -10.0037 -0.0203461 
-0.0128329 -0.0203461 -9.94614 
-10.0155 0.0320535 -0.0293402 
0.0320535 -9.9013 0.0204419 
-0.0293402 0.0204419 -10.0484 
-9.97635 -0.0456218 -7.8301e-05 
-0.0456218 -10.0268 0.031442 
-7.8301e-05 0.031442 -9.96204 
-9.97022 0.0046295 0.0112555 
0.0046295 -9.95802 -0.00217833 
0.0112555 -0.00217833 -10.0069 
-9.97819 -0.0030876 0.00024113 
-0.0030876 -9.98847 -0.00676144 
0.00024113 -0.00676144 -9.9685 
-9.96715 -0.00590978 -0.0032858 
-0.00590978 -9.99537 -0.00786436 
-0.0032858 -0.00786436 -9.97264 
-9.97364 -0.00878006 -0.00115295 
-0.00878006 -9.98015 -0.00182304 
-0.00115295 -0.00182304 -9.98137 
-10.1464 -0.0406515 0.0542087 
-0.0406515 -10.1803 -0.0161229 
0.0542087 -0.0161229 -10.1073 
-10.3075 0.0325364 0.0734851 
0.0325364 -10.157 0.0142213 
0.0734851 0.0142213 -9.96938 
-10.0407 0.0333272 -0.0630528 
0.0333272 -10.1062 -0.0419906 
-0.0630528 -0.0419906 -10.287 
-10.0292 0.00624617 0.103366 
0.00624617 -10.2204 -0.0774196 
0.103366 -0.0774196 -10.1843 
-9.88988 -0.0073158 -0.0246765 
-0.0073158 -9.94096 0.0248576 
-0.0246765 0.0248576 -9.96049 
-9.9226 -0.054805 0.00799063 
-0.054805 -9.87238 0.0144977 
0.00799063 0.0144977 -9.99635 
-9.92644 -0.013308 -0.0300611 
-0.013308 -9.94691 0.0103949 
-0.0300611 0.0103949 -9.91798 
-9.88993 -0.0271266 -0.0352987 
-0.0271266 -9.94853 0.0357531 
-0.0352987 0.0357531 -9.95287 
-9.98106 0.0163504 0.00716378 
0.0163504 -9.99172 0.00400676 
0.00716378 0.00400676 -10.0165 
-10.0199 -0.00540135 -0.00764321 
-0.00540135 -9.98656 0.000551409 
-0.00764321 0.000551409 -9.98279 
-9.98312 -0.0208113 0.00722769 
-0.0208113 -10.006 0.0006108 
0.00722769 0.0006108 -10.0001 
-10.0025 -0.000348691 -0.00269249 
-0.000348691 -9.99928 -0.00300432 
-0.00269249 -0.00300432 -9.98754 
-9.91421 -0.0797823 0.079049 
-0.0797823 -9.76165 0.136092 
0.079049 0.136092 -9.89403 
-9.89954 -0.00728066 -0.0141952 
-0.00728066 -9.99875 0.0651872 
-0.0141952 0.0651872 -9.67159 
-9.94879 -0.0726579 -0.047869 
-0.0726579 -9.89851 0.315691 
-0.047869 0.315691 -9.72259 
-9.91138 -0.0532716 -0.0173269 
-0.0532716 -9.89105 0.16193 
-0.0173269 0.16193 -9.76746 
-9.99576 -0.000273876 -0.0186424 
-0.000273876 -9.98897 -0.0310409 
-0.0186424 -0.0310409 -10.0008 
-9.99698 -0.000816407 -0.0165418 
-0.000816407 -9.99828 -0.0298096 
-0.0165418 -0.0298096 -9.99023 
-9.99174 0.00337023 -0.013198 
0.00337023 -9.98983 -0.0327853 
-0.013198 -0.0327853 -10.0039 
-9.99411 -0.00143322 -0.0184621 
-0.00143322 -10.0012 -0.03355 
-0.0184621 -0.03355 -9.99019 
-9.92648 -0.0139422 -0.00398889 
-0.0139422 -9.98221 -0.00471231 
-0.00398889 -0.00471231 -9.98974 
-9.98809 0.0162435 0.0101279 
0.0162435 -9.94208 0.00788212 
0.0101279 0.00788212 -9.96827 
-9.99443 0.0294028 -0.0174344 
0.0294028 -9.95357 0.00572735 
-0.0174344 0.00572735 -9.95043 
-9.96233 -0.00889217 0.00362829 
-0.00889217 -9.98084 -0.0216689 
0.00362829 -0.0216689 -9.95526 
-9.96057 0.0149881 0.000720974 
0.0149881 -9.96003 -0.00155243 
0.000720974 -0.00155243 -9.9562 
-9.95392 -0.0105458 0.000638266 
-0.0105458 -9.9522 -0.00360261 
0.000638266 -0.00360261 -9.97068 
-9.95459 -0.0109814 0.00557557 
-0.0109814 -9.94925 -0.0109027 
0.00557557 -0.0109027 -9.97297 
-9.96552 -0.00335137 -0.00272252 
-0.00335137 -9.93508 -0.00328902 
-0.00272252 -0.00328902 -9.97621 
-9.9853 0.00432384 0.00437621 
0.00432384 -9.99011 0.00229696 
0.00437621 0.00229696 -9.99306 
-9.99148 0.00207722 -0.00329381 
0.00207722 -9.99607 0.0038598 
-0.00329381 0.0038598 -9.98092 
-9.98871 0.00413492 0.000906278 
0.00413492 -9.98709 0.00433691 
0.000906278 0.00433691 -9.99268 
-9.98228 0.00446537 0.000207115 
0.00446537 -9.99373 0.000363627 
0.000207115 0.000363627 -9.99246 
-9.99483 -0.000227681 -0.0500245 
-0.000227681 -9.99549 -0.0623739 
-0.0500245 -0.0623739 -9.99517 
-9.99273 0.00336251 -0.0532359 
0.00336251 -9.99044 -0.0599886 
-0.0532359 -0.0599886 -10.0023 
-9.99356 0.00134066 -0.0517195 
0.00134066 -9.99706 -0.0623544 
-0.0517195 -0.0623544 -9.99487 
-9.99558 0.000281039 -0.0507199 
0.000281039 -9.99713 -0.0628873 
-0.0507199 -0.0628873 -9.99278 
-10.0489 0.00223763 0.0226487 
0.00223763 -10.0346 -0.00361726 
0.0226487 -0.00361726 -10.0021 
-10.0367 -0.0028888 0.00918894 
-0.0028888 -10.0329 2.19857e-05 
0.00918894 2.19857e-05 -10.0161 
-10.01 -0.000438606 0.0106442 
-0.000438606 -9.99589 -0.0137389 
0.0106442 -0.0137389 -10.0798 
-10.0417 0.00808294 0.0169012 
0.00808294 -10.0122 0.0288847 
0.0169012 0.0288847 -10.0318 
-10.004 -0.000837951 -0.0588002 
-0.000837951 -9.99425 -0.0140242 
-0.0588002 -0.0140242 -9.99049 
-9.99218 0.00354043 -0.0582769 
0.00354043 -9.99131 -0.0177016 
-0.0582769 -0.0177016 -10.0053 
-9.99876 0.00164888 -0.0620991 
0.00164888 -9.99375 -0.0132251 
-0.0620991 -0.0132251 -9.99627 
-10.0003 -0.000929016 -0.062728 
-0.000929016 -9.99883 -0.0150896 
-0.062728 -0.0150896 -9.9897 
-10.8038 -0.3834 0.103716 
-0.3834 -10.6409 0.229136 
0.103716 0.229136 -11.3447 
-11.2915 0.52724 0.173877 
0.52724 -11.067 0.117774 
0.173877 0.117774 -10.4309 
-11.6155 0.272302 0.149105 
0.272302 -9.37523 0.740222 
0.149105 0.740222 -11.7987 
-11.1326 0.311016 -0.353557 
0.311016 -10.3587 0.492937 
-0.353557 0.492937 -11.2981 
-9.89378 -0.00330937 0.0749644 
-0.00330937 -9.89433 -0.00794698 
0.0749644 -0.00794698 -9.89428 
-9.86591 -0.0148999 0.0689198 
-0.0148999 -9.90538 -0.0116122 
0.0689198 -0.0116122 -9.9111 
-9.88421 -0.00473404 0.0777831 
-0.00473404 -9.89403 -0.00481645 
0.0777831 -0.00481645 -9.90415 
-9.88672 -0.00732715 0.0893283 
-0.00732715 -9.89317 -0.0186275 
0.0893283 -0.0186275 -9.9025 
-9.99605 0.00234055 0.0232927 
0.00234055 -9.9965 -0.0107787 
0.0232927 -0.0107787 -9.99721 
-9.9933 -0.00145206 0.0272556 
-0.00145206 -9.99591 -0.00904803 
0.0272556 -0.00904803 -10.0005 
-10.0012 0.0018923 0.0242844 
0.0018923 -9.99399 -0.00842469 
0.0242844 -0.00842469 -9.99456 
-9.99802 0.00228607 0.0221106 
0.00228607 -9.99836 -0.00824742 
0.0221106 -0.00824742 -9.99338 
-9.97238 -0.00124601 0.0754167 
-0.00124601 -9.99177 0.0153376 
0.0754167 0.0153376 -9.99395 
-9.98372 0.000224295 0.0755448 
0.000224295 -9.98911 0.0165659 
0.0755448 0.0165659 -9.98527 
-9.98978 -0.00155789 0.0757044 
-0.00155789 -9.9825 0.0205153 
0.0757044 0.0205153 -9.98582 
-9.99047 0.00135366 0.0803248 
0.00135366 -9.98568 0.0208116 
0.0803248 0.0208116 -9.98195 
-9.95221 -0.000547267 0.0161787 
-0.000547267 -9.97614 -0.0899966 
0.0161787 -0.0899966 -9.94096 
-9.95674 -0.00246085 0.0201173 
-0.00246085 -9.95833 -0.0826126 
0.0201173 -0.0826126 -9.95425 
-9.95694 -0.00436765 0.0199407 
-0.00436765 -9.93938 -0.088745 
0.0199407 -0.088745 -9.973 
-9.95614 -0.00763964 0.0219813 
-0.00763964 -9.95816 -0.072684 
0.0219813 -0.072684 -9.95502 
-10.4306 0.0250208 0.0499869 
0.0250208 -10.2728 -0.0423288 
0.0499869 -0.0423288 -9.96444 
-10.2607 0.0184455 0.0544286 
0.0184455 -10.0646 0.0769748 
0.0544286 0.0769748 -10.3426 
-10.1451 -0.0528647 0.0570582 
-0.0528647 -10.245 -0.03426 
0.0570582 -0.03426 -10.2778 
-10.3217 0.0449667 -0.108116 
0.0449667 -10.1196 0.0219582 
-0.108116 0.0219582 -10.2267 
-10.2532 -0.289632 0.31142 
-0.289632 -11.2099 -0.115578 
0.31142 -0.115578 -10.1822 
-9.42406 0.343932 0.797777 
0.343932 -11.1909 0.118678 
0.797777 0.118678 -11.0303 
-10.9108 0.392572 0.271755 
0.392572 -9.95399 -0.148126 
0.271755 -0.148126 -10.7805 
-9.92813 -0.0708907 0.353712 
-0.0708907 -10.9269 0.163595 
0.353712 0.163595 -10.7902 
-10.1768 -0.0222277 0.0965525 
-0.0222277 -10.2942 0.0672429 
0.0965525 0.0672429 -10.2291 
-10.058 0.0442036 0.0339655 
0.0442036 -10.0513 -0.0319655 
0.0339655 -0.0319655 -10.5907 
-10.1926 0.00124441 0.0916938 
0.00124441 -10.3359 0.0545286 
0.0916938 0.0545286 -10.1716 
-10.1573 0.0112734 0.205643 
0.0112734 -10.3232 0.146557 
0.205643 0.146557 -10.2195 
-10.4518 -0.0762408 -0.0415039 
-0.0762408 -9.77383 0.296382 
-0.0415039 0.296382 -10.4368 
-9.70304 -0.241501 0.027594 
-0.241501 -9.80691 -0.105121 
0.027594 -0.105121 -11.1525 
-10.7756 0.133541 0.168383 
0.133541 -10.242 0.180687 
0.168383 0.180687 -9.64485 
-10.7723 -0.0126258 -0.535102 
-0.0126258 -9.77934 0.179107 
-0.535102 0.179107 -10.1107 
-9.99792 -0.000599103 0.0694414 
-0.000599103 -9.99592 0.0377713 
0.0694414 0.0377713 -9.99114 
-9.99251 0.00343376 0.068953 
0.00343376 -9.99327 0.0353918 
0.068953 0.0353918 -9.9992 
-9.99108 0.001438 0.0667344 
0.001438 -9.99361 0.0395554 
0.0667344 0.0395554 -10.0003 
-9.99612 0.000819226 0.0677885 
0.000819226 -9.99628 0.0374238 
0.0677885 0.0374238 -9.99259 
-9.99381 -0.000913701 -0.0242837 
-0.000913701 -9.99873 -0.0816381 
-0.0242837 -0.0816381 -9.9902 
-9.99426 0.00146936 -0.0274124 
0.00146936 -9.98598 -0.078675 
-0.0274124 -0.078675 -10.0025 
-9.99207 0.00103101 -0.0220849 
0.00103101 -9.9925 -0.0801546 
-0.0220849 -0.0801546 -9.99817 
-9.99573 0.000846359 -0.0234444 
0.000846359 -9.99658 -0.078164 
-0.0234444 -0.078164 -9.99042 
-9.9904 0.00232314 0.0211368 
0.00232314 -9.98838 0.0766408 
0.0211368 0.0766408 -10.0026 
-9.99536 0.00112318 0.0263641 
0.00112318 -9.98749 0.0750006 
0.0263641 0.0750006 -9.99851 
-9.99545 0.000385191 0.0241241 
0.000385191 -9.99489 0.0754566 
0.0241241 0.0754566 -9.99102 
-9.99431 -0.000626722 0.0260972 
-0.000626722 -9.99779 0.0772374 
0.0260972 0.0772374 -9.98926 
-9.99626 -0.00105112 -0.00459625 
-0.00105112 -9.9987 0.0338023 
-0.00459625 0.0338023 -9.99703 
-9.99786 7.13613e-06 -0.00579894 
7.13613e-06 -9.99928 0.0335346 
-0.00579894 0.0335346 -9.99485 
-9.99446 -0.000570303 -0.00652296 
-0.000570303 -9.99495 0.0309629 
-0.00652296 0.0309629 -10.0026 
-9.99872 0.000730996 -0.00585095 
0.000730996 -9.99938 0.0351283 
-0.00585095 0.0351283 -9.99388 
-10.4645 -0.127729 0.0929398 
-0.127729 -10.4181 -0.205627 
0.0929398 -0.205627 -10.4119 
-10.4277 -0.122123 0.213291 
-0.122123 -10.8278 -0.0614382 
0.213291 -0.0614382 -10.0391 
-9.96286 0.297302 -0.0928912 
0.297302 -9.83201 0.0454517 
-0.0928912 0.0454517 -11.4997 
-10.567 -0.190383 0.0954704 
-0.190383 -10.4442 -0.533073 
0.0954704 -0.533073 -10.2834 
-10.1071 -0.00600168 0.00298632 
-0.00600168 -10.0975 -0.00596285 
0.00298632 -0.00596285 -10.1019 
-10.0881 -0.00691567 -0.00183927 
-0.00691567 -10.0965 -0.00224473 
-0.00183927 -0.00224473 -10.122 
-10.0916 0.00289475 0.00832229 
0.00289475 -10.0945 -0.00741808 
0.00832229 -0.00741808 -10.1204 
-10.0958 -0.00575249 -0.004781 
-0.00575249 -10.1033 -0.00863738 
-0.004781 -0.00863738 -10.1075 
-9.98647 -0.000799963 -0.0216388 
-0.000799963 -9.98768 0.0819345 
-0.0216388 0.0819345 -9.98046 
-9.98847 0.000115992 -0.0169784 
0.000115992 -9.98251 0.0771183 
-0.0169784 0.0771183 -9.98362 
-9.99103 0.00185594 -0.0150126 
0.00185594 -9.97213 0.0770827 
-0.0150126 0.0770827 -9.99144 
-9.98327 0.0021475 -0.020684 
0.0021475 -9.98665 0.0786848 
-0.020684 0.0786848 -9.98469 
-9.96605 0.000921401 0.0148704 
0.000921401 -9.97358 0.0839906 
0.0148704 0.0839906 -9.9538 
-9.96117 0.00504736 0.0168127 
0.00504736 -9.9514 0.0811152 
0.0168127 0.0811152 -9.98085 
-9.96608 0.00426452 0.0198436 
0.00426452 -9.96698 0.0771251 
0.0198436 0.0771251 -9.96037 
-9.96448 0.00394262 0.0173396 
0.00394262 -9.97021 0.073217 
0.0173396 0.073217 -9.95874 
-9.99589 0.000523762 -0.063263 
0.000523762 -9.99839 -0.0168156 
-0.063263 -0.0168156 -9.99515 
-9.99644 0.000712017 -0.0650323 
0.000712017 -9.99663 -0.0165221 
-0.0650323 -0.0165221 -9.99636 
-9.99341 -8.49491e-05 -0.0619927 
-8.49491e-05 -9.99379 -0.0197619 
-0.0619927 -0.0197619 -10.0022 
-9.9991 -0.000402636 -0.0643928 
-0.000402636 -9.99752 -0.0150406 
-0.0643928 -0.0150406 -9.99281 
-10.4492 0.289671 0.0591714 
0.289671 -10.5198 -0.223148 
0.0591714 -0.223148 -11.2414 
-10.8291 0.198244 0.142348 
0.198244 -8.81622 -0.686649 
0.142348 -0.686649 -12.565 
-11.2961 -0.594675 0.187576 
-0.594675 -10.4295 -0.148767 
0.187576 -0.148767 -10.4848 
-11.2424 -0.249235 -0.544071 
-0.249235 -9.89007 0.108064 
-0.544071 0.108064 -11.0779 
-9.99827 0.00102166 -0.0306546 
0.00102166 -9.99544 0.00115082 
-0.0306546 0.00115082 -9.99815 
-9.999 0.00143789 -0.0322122 
0.00143789 -9.99714 0.00393418 
-0.0322122 0.00393418 -9.9957 
-9.99803 0.000280773 -0.0345609 
0.000280773 -9.99656 0.00269005 
-0.0345609 0.00269005 -9.99726 
-10.0005 0.000646551 -0.033047 
0.000646551 -9.99844 0.00306173 
-0.033047 0.00306173 -9.99292 
-11.1517 -0.600707 -0.169667 
-0.600707 -10.9498 0.166871 
-0.169667 0.166871 -10.8115 
-10.9693 0.504384 0.014124 
0.504384 -10.9937 0.136186 
0.014124 0.136186 -10.9499 
-11.8965 -0.338438 -0.133039 
-0.338438 -9.23886 0.867536 
-0.133039 0.867536 -11.7776 
-11.1487 -0.343332 0.270612 
-0.343332 -10.414 0.468678 
0.270612 0.468678 -11.3502 
-9.92342 -0.0034332 -0.0168477 
-0.0034332 -9.91275 0.0820146 
-0.0168477 0.0820146 -9.94164 
-9.92935 -0.00301988 -0.0184656 
-0.00301988 -9.93236 0.0873213 
-0.0184656 0.0873213 -9.9161 
-9.926 -0.00643272 -0.0221241 
-0.00643272 -9.92462 0.0798848 
-0.0221241 0.0798848 -9.92719 
-9.92557 -0.00293124 -0.0216239 
-0.00293124 -9.9276 0.0810829 
-0.0216239 0.0810829 -9.92464 
-10.7114 0.498425 -0.215559 
0.498425 -9.90175 0.0563848 
-0.215559 0.0563848 -11.9399 
-10.4386 -0.136754 -0.327614 
-0.136754 -11.2763 0.0238394 
-0.327614 0.0238394 -10.8381 
-9.3639 0.498631 -0.721214 
0.498631 -11.1737 -0.0302767 
-0.721214 -0.0302767 -12.0154 
-10.2006 0.0785089 -0.0601457 
0.0785089 -11.2374 -0.361895 
-0.0601457 -0.361895 -11.1151 
-9.99403 -0.00195103 0.0261718 
-0.00195103 -9.99646 -0.0816203 
0.0261718 -0.0816203 -9.99298 
-9.99531 -0.00149995 0.0283539 
-0.00149995 -9.98713 -0.0809227 
0.0283539 -0.0809227 -10.001 
-9.99092 -0.000107915 0.0235972 
-0.000107915 -9.99323 -0.0822637 
0.0235972 -0.0822637 -9.99931 
-9.99409 -0.000343563 0.0269539 
-0.000343563 -9.99782 -0.0828126 
0.0269539 -0.0828126 -9.99156 
-9.90884 0.0385748 0.0165252 
0.0385748 -9.91246 0.0274525 
0.0165252 0.0274525 -9.97029 
-9.91011 -0.00969954 0.0224702 
-0.00969954 -9.94582 0.037366 
0.0224702 0.037366 -9.93566 
-9.92777 -0.00320218 0.0171316 
-0.00320218 -9.93264 0.0345404 
0.0171316 0.0345404 -9.93117 
-9.92309 0.000667618 0.0330511 
0.000667618 -9.91843 0.0433898 
0.0330511 0.0433898 -9.95007 
-9.96235 0.00491454 -0.0785979 
0.00491454 -9.97134 -0.0189256 
-0.0785979 -0.0189256 -9.96807 
-9.95577 0.000356463 -0.0811429 
0.000356463 -9.96106 -0.0184928 
-0.0811429 -0.0184928 -9.98494 
-9.98123 -0.00128691 -0.0850553 
-0.00128691 -9.96527 -0.0132748 
-0.0850553 -0.0132748 -9.95525 
-9.96913 0.0027712 -0.0717064 
0.0027712 -9.96936 -0.0185382 
-0.0717064 -0.0185382 -9.96326 
-9.9835 0.00599333 -0.00085222 
0.00599333 -9.98176 0.00349304 
-0.00085222 0.00349304 -9.98584 
-9.99922 -0.000391295 0.00697034 
-0.000391295 -9.99927 0.00494964 
0.00697034 0.00494964 -9.95261 
-9.98535 0.00397342 -0.00652946 
0.00397342 -9.97709 -0.00299085 
-0.00652946 -0.00299085 -9.98866 
-9.98137 0.00401486 -0.00185447 
0.00401486 -9.98256 0.000304706 
-0.00185447 0.000304706 -9.98717 
-9.90362 -0.00278806 0.0495058 
-0.00278806 -9.88407 -0.0238299 
0.0495058 -0.0238299 -9.90213 
-9.90834 -0.00597705 0.046157 
-0.00597705 -9.88499 -0.0301344 
0.046157 -0.0301344 -9.89649 
-9.86929 -0.0212201 0.0666767 
-0.0212201 -9.89664 -0.0419668 
0.0666767 -0.0419668 -9.92389 
-9.88552 -0.00923504 0.0392178 
-0.00923504 -9.87742 -0.0290242 
0.0392178 -0.0290242 -9.92689 
-9.96421 0.0181619 -0.0271129 
0.0181619 -9.92409 -0.0156219 
-0.0271129 -0.0156219 -9.96346 
-9.84202 0.0359369 0.00098964 
0.0359369 -9.96864 0.00723002 
0.00098964 0.00723002 -10.0411 
-9.92165 0.0200277 -0.0314245 
0.0200277 -9.95552 0.00320047 
-0.0314245 0.00320047 -9.97459 
-9.931 -0.015929 -0.0497256 
-0.015929 -9.93099 -0.014451 
-0.0497256 -0.014451 -9.98977 
-10.0211 -0.00352733 -0.00985067 
-0.00352733 -9.97421 -0.00815793 
-0.00985067 -0.00815793 -9.98063 
-9.94121 0.00209148 -0.00770245 
0.00209148 -10.0177 0.0167035 
-0.00770245 0.0167035 -10.017 
-9.99519 -0.0048497 -0.00110425 
-0.0048497 -9.99878 -0.000810744 
-0.00110425 -0.000810744 -9.98199 
-10.0206 -0.0134435 0.018442 
-0.0134435 -9.98407 -0.0147288 
0.018442 -0.0147288 -9.9713 
-9.99521 0.00151856 -0.0719124 
0.00151856 -9.99385 -0.038884 
-0.0719124 -0.038884 -9.99614 
-9.99023 0.00234702 -0.0697189 
0.00234702 -9.99475 -0.0399407 
-0.0697189 -0.0399407 -10.0002 
-9.99414 -0.000824587 -0.0714691 
-0.000824587 -9.99359 -0.0364579 
-0.0714691 -0.0364579 -9.99747 
-9.99646 0.00102739 -0.0708692 
0.00102739 -9.99551 -0.0383278 
-0.0708692 -0.0383278 -9.99323 
-11.4144 -0.0759716 -0.110723 
-0.0759716 -11.2066 -0.5318 
-0.110723 -0.5318 -10.0951 
-11.0175 -0.0139507 -0.0531662 
-0.0139507 -10.3716 -0.085621 
-0.0531662 -0.085621 -11.327 
-10.2929 -0.108101 0.277758 
-0.108101 -8.75552 -0.818695 
0.277758 -0.818695 -13.6677 
-11.0081 0.116481 0.218353 
0.116481 -10.3104 0.75599 
0.218353 0.75599 -11.3976 
-10.0169 -0.000266066 0.00170054 
-0.000266066 -10.0248 0.00511348 
0.00170054 0.00511348 -9.99946 
-10.0152 0.00159055 -0.00297715 
0.00159055 -10.0098 0.0015025 
-0.00297715 0.0015025 -10.0162 
-10.0032 -0.00530144 0.0051276 
-0.00530144 -10.0083 -0.00298602 
0.0051276 -0.00298602 -10.0296 
-10.0129 -0.00532169 -0.00874376 
-0.00532169 -10.0247 -0.00300968 
-0.00874376 -0.00300968 -10.0036 
-9.83818 0.0474622 0.023942 
0.0474622 -9.91942 0.00562977 
0.023942 0.00562977 -9.98849 
-9.91337 0.0150639 0.0461443 
0.0150639 -9.92026 0.00993925 
0.0461443 0.00993925 -9.91246 
-9.94118 0.0099409 0.0461502 
0.0099409 -9.87891 0.0239932 
0.0461502 0.0239932 -9.92601 
-9.9021 -0.00456476 0.0694428 
-0.00456476 -9.89694 0.0333214 
0.0694428 0.0333214 -9.94705 
-13.0732 -0.672735 0.419503 
-0.672735 -4.68174 0.904663 
0.419503 0.904663 -16.5525 
-11.8668 -0.893828 -0.266871 
-0.893828 -10.5697 0.952087 
-0.266871 0.952087 -11.871 
-10.6958 -0.929623 -0.758585 
-0.929623 -8.17422 0.385896 
-0.758585 0.385896 -15.4375 
-9.69879 0.377263 1.93213 
0.377263 -12.1232 -2.75007 
1.93213 -2.75007 -12.4855 
-9.99287 0.00184692 0.0589741 
0.00184692 -9.99446 0.0508392 
0.0589741 0.0508392 -9.99625 
-9.99115 0.000262823 0.0614678 
0.000262823 -9.99128 0.0479033 
0.0614678 0.0479033 -10.0011 
-9.99507 0.00119069 0.0606167 
0.00119069 -9.992 0.0514732 
0.0606167 0.0514732 -9.99651 
-9.99575 0.000870066 0.0589578 
0.000870066 -9.9948 0.0509576 
0.0589578 0.0509576 -9.99303 
-6.97706 -1.24226 -0.119915 
-1.24226 -10.152 0.732943 
-0.119915 0.732943 -15.2696 
-6.87034 -2.88402 -0.76231 
-2.88402 -8.90385 -0.819051 
-0.76231 -0.819051 -16.6244 
-10.8815 -0.497535 1.71494 
-0.497535 -13.4776 -0.806045 
1.71494 -0.806045 -8.03957 
-11.0332 0.0380127 -2.743 
0.0380127 -9.73456 1.46302 
-2.743 1.46302 -11.6308 
-9.99565 0.000625657 -0.0424599 
0.000625657 -9.99541 0.0454891 
-0.0424599 0.0454891 -9.99539 
-9.99549 0.000605994 -0.0405359 
0.000605994 -9.99393 0.047749 
-0.0405359 0.047749 -9.99703 
-9.99402 0.000592595 -0.0451117 
0.000592595 -9.9944 0.0471627 
-0.0451117 0.0471627 -9.99803 
-9.99646 -9.8357e-06 -0.0415902 
-9.8357e-06 -9.9977 0.0455605 
-0.0415902 0.0455605 -9.99229 
-10.1903 -0.144622 -0.847492 
-0.144622 -11.2949 -0.0609563 
-0.847492 -0.0609563 -12.955 
-11.0794 -0.0995216 -0.418413 
-0.0995216 -11.8174 0.0467114 
-0.418413 0.0467114 -11.5434 
-10.5001 0.046763 -0.17295 
0.046763 -11.2773 -0.217295 
-0.17295 -0.217295 -12.6628 
-10.603 0.244336 0.134276 
0.244336 -11.9457 0.27893 
0.134276 0.27893 -11.8916 
-9.99654 -0.00106112 0.00588189 
-0.00106112 -9.99471 0.00489695 
0.00588189 0.00489695 -9.99229 
-9.99236 0.000653799 0.00891013 
0.000653799 -9.99042 0.00599467 
0.00891013 0.00599467 -10.0007 
-9.9943 -0.000258288 0.00424598 
-0.000258288 -9.9931 0.00562343 
0.00424598 0.00562343 -9.99613 
-9.9944 -0.000200605 0.00359473 
-0.000200605 -9.99587 0.00268803 
0.00359473 0.00268803 -9.99326 
-9.9836 0.00388529 -0.00779854 
0.00388529 -10.0073 0.00941807 
-0.00779854 0.00941807 -9.97239 
-10.0078 0.00111997 -0.0158803 
0.00111997 -9.97859 -0.00773825 
-0.0158803 -0.00773825 -9.97696 
-9.96946 0.00350531 -0.00791368 
0.00350531 -10.0002 0.0065688 
-0.00791368 0.0065688 -9.99367 
-9.98974 -0.000149531 -0.00827419 
-0.000149531 -10.0018 -0.00531469 
-0.00827419 -0.00531469 -9.97185 
-9.99876 0.00145564 0.00344227 
0.00145564 -9.99925 7.64532e-05 
0.00344227 7.64532e-05 -10.0021 
-9.99951 0.00258114 0.00168074 
0.00258114 -10.0056 -0.00146383 
0.00168074 -0.00146383 -9.99498 
-9.99322 0.000161396 -0.000508114 
0.000161396 -9.99888 0.00058995 
-0.000508114 0.00058995 -10.008 
-9.99653 0.00275952 0.00444257 
0.00275952 -10.0054 -0.00512311 
0.00444257 -0.00512311 -9.99813 
-10.0016 0.00286363 0.00354057 
0.00286363 -9.99551 -0.00190653 
0.00354057 -0.00190653 -9.98174 
-9.98788 0.00154337 0.00521074 
0.00154337 -9.98511 0.00454714 
0.00521074 0.00454714 -10.0058 
-9.99518 -0.000154405 -0.00103807 
-0.000154405 -9.98541 -0.000716669 
-0.00103807 -0.000716669 -9.99824 
-9.99695 0.00669297 -0.00516211 
0.00669297 -9.99587 0.00339889 
-0.00516211 0.00339889 -9.986 
-9.95608 -0.000107225 0.000659665 
-0.000107225 -10.0339 0.00635405 
0.000659665 0.00635405 -10.0318 
-10.0417 0.00471993 -0.00760823 
0.00471993 -9.96229 0.0108138 
-0.00760823 0.0108138 -10.0178 
-10.0024 0.0086994 -0.00824373 
0.0086994 -10.0223 -0.0343853 
-0.00824373 -0.0343853 -9.99705 
-10.0519 0.000924995 0.0204138 
0.000924995 -9.98503 0.00553459 
0.0204138 0.00553459 -9.98484 
-10.0084 0.00144364 -0.0228613 
0.00144364 -9.89648 -0.00871673 
-0.0228613 -0.00871673 -10.0031 
-9.95107 0.000101099 0.0303383 
0.000101099 -10.0087 -0.00772728 
0.0303383 -0.00772728 -9.94818 
-9.9514 0.0237619 0.0233195 
0.0237619 -10.0233 0.0350871 
0.0233195 0.0350871 -9.93324 
-9.99495 0.0139281 0.00257663 
0.0139281 -9.95721 -0.0098223 
0.00257663 -0.0098223 -9.95578 
-9.93555 -8.4876e-05 -0.0256709 
-8.4876e-05 -9.94224 0.080214 
-0.0256709 0.080214 -9.94182 
-9.94121 -0.00258561 -0.0230953 
-0.00258561 -9.93771 0.081865 
-0.0230953 0.081865 -9.9407 
-9.94119 -0.00262127 -0.0232988 
-0.00262127 -9.94372 0.0819028 
-0.0232988 0.0819028 -9.9347 
-9.93932 -0.00348566 -0.0247809 
-0.00348566 -9.94336 0.0841958 
-0.0247809 0.0841958 -9.93694 
-10.0104 0.000888095 -0.00455857 
0.000888095 -10.0139 -0.00235364 
-0.00455857 -0.00235364 -10.0196 
-10.0092 -0.00201707 0.0041293 
-0.00201707 -10.011 0.00242234 
0.0041293 0.00242234 -10.0237 
-10.0146 0.00455795 -0.00620731 
0.00455795 -10.0237 0.00354828 
-0.00620731 0.00354828 -10.0056 
-10.0243 0.00348554 0.00126884 
0.00348554 -10.015 -0.00218781 
0.00126884 -0.00218781 -10.0046 
-10.0029 0.00316245 0.0026155 
0.00316245 -10.0217 -0.00791324 
0.0026155 -0.00791324 -9.99688 
-10.0045 0.00610604 0.00511927 
0.00610604 -10.005 -0.00255878 
0.00511927 -0.00255878 -10.012 
-9.9989 -0.00765332 0.00136294 
-0.00765332 -10.0143 -0.000857255 
0.00136294 -0.000857255 -10.0083 
-9.99823 0.000448794 0.00879711 
0.000448794 -10.019 -0.00125223 
0.00879711 -0.00125223 -10.0043 
-9.92553 -0.00785618 -0.0465961 
-0.00785618 -9.89534 0.0320216 
-0.0465961 0.0320216 -9.89133 
-9.87764 -0.0258383 -0.0754718 
-0.0258383 -9.89794 0.034854 
-0.0754718 0.034854 -9.93661 
-9.91244 -0.00355484 -0.0510092 
-0.00355484 -9.88925 0.0272819 
-0.0510092 0.0272819 -9.91051 
-9.8952 -0.0118262 -0.039516 
-0.0118262 -9.88237 0.0291306 
-0.039516 0.0291306 -9.93462 
-10.0008 -3.48656e-05 -0.0834473 
-3.48656e-05 -9.99662 0.0114201 
-0.0834473 0.0114201 -9.99006 
-9.99182 0.00049561 -0.0818775 
0.00049561 -9.99901 0.00851398 
-0.0818775 0.00851398 -9.9967 
-9.99168 -0.00072138 -0.0823443 
-0.00072138 -9.99244 0.00482736 
-0.0823443 0.00482736 -10.0034 
-9.99761 0.000670382 -0.0797153 
0.000670382 -9.99846 0.00660054 
-0.0797153 0.00660054 -9.99145 
-10.0244 0.0154596 -0.00752727 
0.0154596 -9.99839 0.00496247 
-0.00752727 0.00496247 -9.98686 
-10.0008 -0.00612428 -0.00219505 
-0.00612428 -9.99941 -0.00138808 
-0.00219505 -0.00138808 -10.0094 
-9.99912 0.00525011 0.00106505 
0.00525011 -10.0034 0.000563882 
0.00106505 0.000563882 -10.0072 
-10.003 0.00796989 0.000897933 
0.00796989 -10.0095 -0.0054597 
0.000897933 -0.0054597 -9.99719 
-9.9966 -0.00131258 -0.071752 
-0.00131258 -9.99459 0.0394736 
-0.071752 0.0394736 -9.99603 
-9.9937 0.000390077 -0.0722169 
0.000390077 -9.99291 0.0367754 
-0.0722169 0.0367754 -10.0006 
-9.99272 -0.00204477 -0.0705972 
-0.00204477 -9.99614 0.0398012 
-0.0705972 0.0398012 -9.99836 
-9.99765 -0.000839297 -0.0709557 
-0.000839297 -9.99572 0.0401827 
-0.0709557 0.0401827 -9.99384 
-9.99129 -0.00632106 -0.00265277 
-0.00632106 -9.99419 -0.00731339 
-0.00265277 -0.00731339 -10.0226 
-9.99894 -0.0014477 0.00137743 
-0.0014477 -10.0009 0.00495491 
0.00137743 0.00495491 -10.0083 
-10.0151 0.00266722 0.00144663 
0.00266722 -10.0049 0.0180569 
0.00144663 0.0180569 -9.98809 
-9.99626 0.00021687 -0.00242609 
0.00021687 -10.0104 0.000823356 
-0.00242609 0.000823356 -10.0015 
-9.99711 -0.0011902 0.0775217 
-0.0011902 -9.99794 0.00724089 
0.0775217 0.00724089 -9.99128 
-9.99035 -0.00104842 0.0798784 
-0.00104842 -9.99982 0.0083664 
0.0798784 0.0083664 -9.99616 
-9.99047 0.000543531 0.0802715 
0.000543531 -9.99118 0.00549178 
0.0802715 0.00549178 -10.0047 
-10.0005 2.27873e-05 0.0818038 
2.27873e-05 -9.99629 0.0117964 
0.0818038 0.0117964 -9.98953 
-9.99916 -0.00985513 0.0033758 
-0.00985513 -9.98059 -0.00138683 
0.0033758 -0.00138683 -10.0046 
-9.99431 -0.00244028 -0.00395116 
-0.00244028 -10.0075 0.00818955 
-0.00395116 0.00818955 -9.98255 
-9.98994 0.010593 -0.00110185 
0.010593 -9.98366 -0.00353549 
-0.00110185 -0.00353549 -10.0107 
-9.99822 0.00359174 0.00320249 
0.00359174 -9.99713 0.00190046 
0.00320249 0.00190046 -9.98896 
-9.98445 0.0167753 -0.00120786 
0.0167753 -10.0797 0.0341195 
-0.00120786 0.0341195 -9.9834 
-10.0768 -0.0122792 0.0266217 
-0.0122792 -9.90639 0.00895828 
0.0266217 0.00895828 -10.0643 
-10.0101 -0.00254284 -0.00489204 
-0.00254284 -10.0451 -0.0165195 
-0.00489204 -0.0165195 -9.99228 
-10.0185 0.0150949 -0.0236869 
0.0150949 -10.0565 -0.027658 
-0.0236869 -0.027658 -9.9725 
-9.9923 -0.000210471 -0.0223628 
-0.000210471 -9.99372 0.0780303 
-0.0223628 0.0780303 -10.0006 
-9.99612 -0.000775769 -0.0261677 
-0.000775769 -9.99113 0.0768909 
-0.0261677 0.0768909 -9.99936 
-9.99541 -0.000515991 -0.0255228 
-0.000515991 -9.99788 0.0782655 
-0.0255228 0.0782655 -9.99332 
-9.99465 -0.00219741 -0.0250665 
-0.00219741 -9.99724 0.0775456 
-0.0250665 0.0775456 -9.99472 
-9.87393 -0.0324141 0.04942 
-0.0324141 -9.90569 0.00338411 
0.04942 0.00338411 -9.93593 
-9.9075 -0.0100441 0.0507752 
-0.0100441 -9.89373 -0.0267175 
0.0507752 -0.0267175 -9.91432 
-9.91373 -0.0113744 0.0461666 
-0.0113744 -9.90726 -0.0271493 
0.0461666 -0.0271493 -9.89456 
-9.90975 -0.0107665 0.0648135 
-0.0107665 -9.89039 -0.0316249 
0.0648135 -0.0316249 -9.91542 
-10.3218 0.0504047 0.0311133 
0.0504047 -10.4447 -0.0389806 
0.0311133 -0.0389806 -9.8806 
-9.99267 -0.0092554 0.104299 
-0.0092554 -10.0788 -0.0408063 
0.104299 -0.0408063 -10.5757 
-10.2035 0.00571882 -0.0265767 
0.00571882 -10.1653 -0.0454186 
-0.0265767 -0.0454186 -10.2783 
-10.1551 0.0825939 -0.223411 
0.0825939 -10.2887 0.0506516 
-0.223411 0.0506516 -10.2033 
-9.98861 0.00176843 -9.35523e-05 
0.00176843 -9.98462 -0.000263207 
-9.35523e-05 -0.000263207 -9.99185 
-9.9915 -0.00215435 -0.000805179 
-0.00215435 -9.9886 -0.00137148 
-0.000805179 -0.00137148 -9.98499 
-9.99246 -0.00101879 -0.00135701 
-0.00101879 -9.98612 -0.00505676 
-0.00135701 -0.00505676 -9.98651 
-9.98899 -0.000810681 -0.00118426 
-0.000810681 -9.98845 -0.00219375 
-0.00118426 -0.00219375 -9.98765 
-9.9948 -0.00141659 0.0530292 
-0.00141659 -9.99698 -0.0621405 
0.0530292 -0.0621405 -9.99447 
-9.99433 0.00066674 0.0513917 
0.00066674 -9.99437 -0.0637504 
0.0513917 -0.0637504 -9.99754 
-9.99371 -0.00233668 0.0541118 
-0.00233668 -9.99334 -0.0616145 
0.0541118 -0.0616145 -9.99919 
-9.99229 -0.0014609 0.0541825 
-0.0014609 -9.99646 -0.0637254 
0.0541825 -0.0637254 -9.9975 
-10.008 -0.00348101 -0.0105446 
-0.00348101 -10.0041 0.0125741 
-0.0105446 0.0125741 -9.97669 
-10.0103 0.00913306 -0.0116318 
0.00913306 -9.99279 -0.000583717 
-0.0116318 -0.000583717 -9.98571 
-9.94881 -0.01191 -0.00121027 
-0.01191 -10.0179 -0.00154059 
-0.00121027 -0.00154059 -10.022 
-10.0236 0.00916999 0.00904991 
0.00916999 -9.98162 -0.0068854 
0.00904991 -0.0068854 -9.98355 
-9.99363 -0.000522671 -0.0396426 
-0.000522671 -9.99338 -0.0444734 
-0.0396426 -0.0444734 -9.99737 
-9.99292 -0.00106572 -0.0428795 
-0.00106572 -9.99244 -0.0443855 
-0.0428795 -0.0443855 -9.99902 
-9.99348 0.000199219 -0.0409031 
0.000199219 -9.99391 -0.0473982 
-0.0409031 -0.0473982 -9.99699 
-9.99547 -0.000903536 -0.040266 
-0.000903536 -9.99651 -0.0457874 
-0.040266 -0.0457874 -9.99241 
-9.98876 -0.0117011 -0.00543165 
-0.0117011 -9.99484 -0.0023362 
-0.00543165 -0.0023362 -9.98912 
-9.98882 -0.0115496 -0.00853506 
-0.0115496 -9.98969 -0.00242395 
-0.00853506 -0.00242395 -9.9942 
-9.98579 0.00175629 -0.00514513 
0.00175629 -10.0023 -0.00181856 
-0.00514513 -0.00181856 -9.98467 
-9.98026 -0.0167481 -0.0104827 
-0.0167481 -9.99456 0.00274626 
-0.0104827 0.00274626 -9.99789 
-9.99722 -0.00119415 -0.0814749 
-0.00119415 -9.99809 -0.00765608 
-0.0814749 -0.00765608 -9.9926 
-9.99209 -0.00107539 -0.0826853 
-0.00107539 -9.99962 -0.00880666 
-0.0826853 -0.00880666 -9.99621 
-9.99289 0.000121287 -0.0830946 
0.000121287 -9.99271 -0.00549473 
-0.0830946 -0.00549473 -10.0023 
-9.9993 0.000624069 -0.0840001 
0.000624069 -9.9973 -0.0110086 
-0.0840001 -0.0110086 -9.99131 
-9.99961 -0.00423384 2.30103e-05 
-0.00423384 -9.98969 -0.00617025 
2.30103e-05 -0.00617025 -9.99038 
-9.99265 0.00126488 0.000572606 
0.00126488 -9.98122 0.00133277 
0.000572606 0.00133277 -10.0058 
-9.99554 -0.00440813 -0.00113302 
-0.00440813 -9.99218 -0.00369949 
-0.00113302 -0.00369949 -9.99195 
-9.99747 -0.00222227 -0.00221299 
-0.00222227 -9.99298 -0.00281547 
-0.00221299 -0.00281547 -9.98923 
-9.83582 -0.00396277 0.339875 
-0.00396277 -10.503 -0.109648 
0.339875 -0.109648 -10.1784 
-10.1921 0.184491 0.29789 
0.184491 -10.4446 -0.0277103 
0.29789 -0.0277103 -9.88053 
-9.84007 -0.247458 -0.0280326 
-0.247458 -9.82056 0.0562014 
-0.0280326 0.0562014 -10.8566 
-9.92007 0.0107336 0.388011 
0.0107336 -10.4598 -0.247911 
0.388011 -0.247911 -10.1374 
-9.99416 -0.000286024 -0.0515033 
-0.000286024 -9.99514 0.0604785 
-0.0515033 0.0604785 -9.9978 
-9.99385 -0.00129472 -0.0489045 
-0.00129472 -9.99398 0.062669 
-0.0489045 0.062669 -9.99926 
-9.99588 -0.000842191 -0.0511374 
-0.000842191 -9.99415 0.0626448 
-0.0511374 0.0626448 -9.99706 
-9.99625 -0.000894172 -0.0506844 
-0.000894172 -9.99629 0.0611332 
-0.0506844 0.0611332 -9.99456 
-10.1338 -0.0177183 0.00731811 
-0.0177183 -10.3363 0.000874578 
0.00731811 0.000874578 -10.1539 
-10.2925 0.0467523 0.0698972 
0.0467523 -10.3354 0.00273719 
0.0698972 0.00273719 -9.99612 
-10.005 -0.011522 0.0358168 
-0.011522 -9.96459 0.0503511 
0.0358168 0.0503511 -10.6545 
-10.2737 0.0257337 -0.122442 
0.0257337 -10.2264 -0.120029 
-0.122442 -0.120029 -10.124 
-4.27219 0.173069 0.493774 
0.173069 -10.7135 -2.43959 
0.493774 -2.43959 3.3915 
-0.293647 -0.465879 -0.942985 
-0.465879 -4.83086 1.44824 
-0.942985 1.44824 -6.46973 
-5.16163 2.88356 -2.13821 
2.88356 -13.9119 -3.43698 
-2.13821 -3.43698 7.47925 
-5.08309 0.441822 0.677575 
0.441822 -3.21309 -5.86212 
0.677575 -5.86212 -3.29805 
-9.87996 -0.0335107 -0.0469956 
-0.0335107 -9.90259 0.00573932 
-0.0469956 0.00573932 -9.94106 
-9.91011 -0.0116968 -0.0536496 
-0.0116968 -9.8933 0.028039 
-0.0536496 0.028039 -9.9202 
-9.92004 -0.00966501 -0.0485164 
-0.00966501 -9.90229 0.0297283 
-0.0485164 0.0297283 -9.90127 
-9.91584 -0.0126184 -0.066665 
-0.0126184 -9.88517 0.0356593 
-0.066665 0.0356593 -9.92259 
-9.94125 -0.0057665 -0.0758702 
-0.0057665 -9.92957 0.0296006 
-0.0758702 0.0296006 -9.9172 
-9.92386 -0.0106193 -0.0745542 
-0.0106193 -9.92435 0.0367658 
-0.0745542 0.0367658 -9.93981 
-9.937 -0.00535149 -0.068079 
-0.00535149 -9.92486 0.0379519 
-0.068079 0.0379519 -9.92616 
-9.93547 -0.00711892 -0.0651208 
-0.00711892 -9.92606 0.0338592 
-0.0651208 0.0338592 -9.92649 
-9.9941 0.000300019 0.0770934 
0.000300019 -9.99338 0.0222333 
0.0770934 0.0222333 -9.99885 
-9.99114 0.000744372 0.0759134 
0.000744372 -9.99517 0.0263194 
0.0759134 0.0263194 -10 
-9.99735 0.000388796 0.0772552 
0.000388796 -9.99552 0.0248148 
0.0772552 0.0248148 -9.99348 
-9.99624 0.00135838 0.0768232 
0.00135838 -9.99518 0.0245948 
0.0768232 0.0245948 -9.99491 
-9.99598 0.000713511 -0.0103023 
0.000713511 -10.0004 0.0823518 
-0.0103023 0.0823518 -9.98995 
-9.99328 -0.00162217 -0.00469582 
-0.00162217 -9.98876 0.0807867 
-0.00469582 0.0807867 -10.0043 
-9.99783 0.00115742 -0.00827825 
0.00115742 -9.99225 0.0802697 
-0.00827825 0.0802697 -9.99622 
-9.99798 0.00216948 -0.00608427 
0.00216948 -9.99698 0.0782265 
-0.00608427 0.0782265 -9.99134 
-9.98027 0.00180297 -0.00118049 
0.00180297 -9.98051 -0.000996389 
-0.00118049 -0.000996389 -9.98403 
-9.98215 -0.0027016 0.0013887 
-0.0027016 -9.97914 0.00105283 
0.0013887 0.00105283 -9.98351 
-9.97816 -0.00171023 0.00179143 
-0.00171023 -9.98147 -0.00186901 
0.00179143 -0.00186901 -9.98517 
-9.9823 -0.00174166 -0.00157668 
-0.00174166 -9.98264 0.000577779 
-0.00157668 0.000577779 -9.97987 
-9.996 0.000800211 0.0123267 
0.000800211 -9.99465 0.0626559 
0.0123267 0.0626559 -9.99971 
-9.99376 4.6577e-06 0.0126977 
4.6577e-06 -9.99893 0.065067 
0.0126977 0.065067 -9.99767 
-9.9969 -0.00103935 0.0104788 
-0.00103935 -9.99663 0.0648909 
0.0104788 0.0648909 -9.99683 
-9.99802 -0.000283035 0.011747 
-0.000283035 -9.99822 0.0651332 
0.011747 0.0651332 -9.99412 
-9.99796 -0.00134549 0.048319 
-0.00134549 -9.99843 0.0608406 
0.048319 0.0608406 -9.99123 
-9.99462 0.00240349 0.0504849 
0.00240349 -9.99173 0.0567911 
0.0504849 0.0567911 -10.0013 
-9.99406 0.00299082 0.0465543 
0.00299082 -9.99545 0.0599269 
0.0465543 0.0599269 -9.99811 
-9.99734 0.000933282 0.0476903 
0.000933282 -9.9981 0.0580898 
0.0476903 0.0580898 -9.99219 
-9.99844 0.000595745 0.00879295 
0.000595745 -9.99164 -0.087688 
0.00879295 -0.087688 -9.99468 
-9.99073 -0.00107407 0.00449715 
-0.00107407 -9.98871 -0.0883003 
0.00449715 -0.0883003 -10.0053 
-9.99794 0.00177449 0.00698591 
0.00177449 -9.99598 -0.086398 
0.00698591 -0.086398 -9.99085 
-9.99692 -0.000555009 0.0127139 
-0.000555009 -9.99972 -0.0893658 
0.0127139 -0.0893658 -9.98812 
-10.0023 0.00284769 0.0146498 
0.00284769 -9.97006 -0.0131953 
0.0146498 -0.0131953 -9.96674 
-9.99378 0.00466691 0.00780386 
0.00466691 -9.96639 -0.0162834 
0.00780386 -0.0162834 -9.97897 
-9.9767 -0.00273327 -0.0135331 
-0.00273327 -9.99114 -0.000882099 
-0.0135331 -0.000882099 -9.97129 
-9.96579 -0.00772952 0.010355 
-0.00772952 -9.98361 0.00310756 
0.010355 0.00310756 -9.98973 
-9.98363 -0.00332753 -0.000242659 
-0.00332753 -9.98465 -0.000257381 
-0.000242659 -0.000257381 -9.98701 
-9.98468 0.000589191 0.00128514 
0.000589191 -9.98181 0.00254597 
0.00128514 0.00254597 -9.9888 
-9.98785 0.00227677 -0.00255107 
0.00227677 -9.98498 -0.00132171 
-0.00255107 -0.00132171 -9.98246 
-9.98137 0.00832081 0.000209582 
0.00832081 -9.99168 -0.00296796 
0.000209582 -0.00296796 -9.98224 
-10.3639 0.0433614 0.0670929 
0.0433614 -10.3383 0.0478764 
0.0670929 0.0478764 -10.056 
-10.3811 -0.079974 -0.0286536 
-0.079974 -10.3791 0.0633219 
-0.0286536 0.0633219 -9.99809 
-9.94943 0.0732791 -0.00627397 
0.0732791 -9.92138 -0.199845 
-0.00627397 -0.199845 -10.8875 
-10.4017 0.0656301 0.163416 
0.0656301 -10.1956 0.178171 
0.163416 0.178171 -10.161 
-9.99697 -0.00211124 0.0719704 
-0.00211124 -9.99328 -0.0388919 
0.0719704 -0.0388919 -9.99595 
-9.99354 0.00109548 0.0722784 
0.00109548 -9.99433 -0.0361593 
0.0722784 -0.0361593 -9.99833 
-9.99102 -0.00132146 0.070374 
-0.00132146 -9.995 -0.039872 
0.070374 -0.039872 -10.0002 
-9.99621 -0.000554579 0.0717642 
-0.000554579 -9.99626 -0.0379174 
0.0717642 -0.0379174 -9.99372 
-9.79872 -0.0721629 -0.145745 
-0.0721629 -9.86996 0.00255507 
-0.145745 0.00255507 -10.7306 
-10.1656 0.106065 0.0765714 
0.106065 -10.3029 -0.0238376 
0.0765714 -0.0238376 -9.93081 
-10.4688 0.151782 0.00456703 
0.151782 -10.1079 0.071011 
0.00456703 0.071011 -9.82261 
-10.076 0.109597 0.303686 
0.109597 -10.2893 -0.01565 
0.303686 -0.01565 -10.0341 
-9.97651 0.00381118 0.00950275 
0.00381118 -9.97416 0.0018267 
0.00950275 0.0018267 -9.98578 
-9.97781 0.0110639 0.00501579 
0.0110639 -9.99572 -0.00189754 
0.00501579 -0.00189754 -9.96292 
-9.96674 0.00206679 0.00360933 
0.00206679 -9.97991 -0.000913134 
0.00360933 -0.000913134 -9.98981 
-9.97561 0.0128148 0.0139707 
0.0128148 -9.98178 -0.00619562 
0.0139707 -0.00619562 -9.97907 
-9.99641 -0.0039458 -0.000904307 
-0.0039458 -9.99084 0.00236666 
-0.000904307 0.00236666 -10.0122 
-9.99395 0.00676167 -0.000739232 
0.00676167 -10.0125 0.00238235 
-0.000739232 0.00238235 -9.99302 
-10.0263 0.00716117 0.00429034 
0.00716117 -9.98189 -0.00568839 
0.00429034 -0.00568839 -9.99127 
-10.0043 0.00113871 0.000784009 
0.00113871 -9.99881 -0.00428181 
0.000784009 -0.00428181 -9.99642 
-9.99674 0.000483403 0.0382926 
0.000483403 -9.99938 0.0696668 
0.0382926 0.0696668 -9.9943 
-9.99714 0.00225741 0.0393789 
0.00225741 -9.99292 0.0682761 
0.0393789 0.0682761 -10.0004 
-9.99533 -0.000939706 0.035878 
-0.000939706 -9.99697 0.0700098 
0.035878 0.0700098 -9.99813 
-9.99634 0.00168178 0.0378568 
0.00168178 -9.99918 0.0688845 
0.0378568 0.0688845 -9.9949 
-9.99286 -0.00373676 -0.0583122 
-0.00373676 -9.99718 0.0515411 
-0.0583122 0.0515411 -9.99968 
-9.99612 -0.00388107 -0.0617258 
-0.00388107 -9.99427 0.0473532 
-0.0617258 0.0473532 -9.99933 
-10.001 0.00347035 -0.0622115 
0.00347035 -9.99927 0.0512223 
-0.0622115 0.0512223 -9.98947 
-10.0002 -0.0010319 -0.0570304 
-0.0010319 -10.0003 0.0467986 
-0.0570304 0.0467986 -9.98917 
-9.99755 -0.00368893 0.000113689 
-0.00368893 -9.96281 0.0192061 
0.000113689 0.0192061 -10.0045 
-9.97163 0.00493289 -0.00609829 
0.00493289 -9.99606 -0.00232699 
-0.00609829 -0.00232699 -9.99716 
-9.98291 0.00584854 0.00501372 
0.00584854 -9.99442 -0.0231359 
0.00501372 -0.0231359 -9.98752 
-9.98555 0.000925872 -0.00715285 
0.000925872 -9.99867 0.00704996 
-0.00715285 0.00704996 -9.98062 
-9.99409 -0.0032669 0.0596214 
-0.0032669 -9.99813 -0.0517528 
0.0596214 -0.0517528 -9.99927 
-9.99659 -0.00316993 0.0630864 
-0.00316993 -9.99535 -0.0475253 
0.0630864 -0.0475253 -9.99955 
-10.0012 0.00246559 0.062888 
0.00246559 -9.99989 -0.0514879 
0.062888 -0.0514879 -9.99041 
-10.0005 -0.00104994 0.0589702 
-0.00104994 -10.0008 -0.047803 
0.0589702 -0.047803 -9.99016 
-10.0134 0.00509287 -0.0029962 
0.00509287 -9.99614 -0.00876691 
-0.0029962 -0.00876691 -9.99797 
-9.96179 0.0135219 -0.000545929 
0.0135219 -10.0275 -0.00252257 
-0.000545929 -0.00252257 -10.0183 
-10.0169 -0.00395784 0.000976316 
-0.00395784 -9.99279 -0.00721764 
0.000976316 -0.00721764 -9.99787 
-10.021 0.0147826 0.00482012 
0.0147826 -9.99319 -0.00702854 
0.00482012 -0.00702854 -9.99333 
-9.9981 -0.00194069 -0.0390184 
-0.00194069 -9.99336 0.0674509 
-0.0390184 0.0674509 -9.99986 
-9.99634 -0.0027658 -0.0347869 
-0.0027658 -9.99583 0.0696815 
-0.0347869 0.0696815 -9.99914 
-9.99956 -0.00103228 -0.0361221 
-0.00103228 -9.99949 0.0672646 
-0.0361221 0.0672646 -9.99226 
-9.99858 0.00119165 -0.0377867 
0.00119165 -10.0007 0.0701664 
-0.0377867 0.0701664 -9.99202 
-10.008 0.00115431 0.00160302 
0.00115431 -10.0108 0.00146972 
0.00160302 0.00146972 -10.0087 
-10.0115 -0.00190557 0.000404303 
-0.00190557 -10.0183 0.00222635 
0.000404303 0.00222635 -9.99768 
-10.0274 0.00425284 0.000386769 
0.00425284 -9.99701 0.000486577 
0.000386769 0.000486577 -10.0031 
-9.98747 0.0132917 -0.00352992 
0.0132917 -10.0215 -0.00395112 
-0.00352992 -0.00395112 -10.0186 
-9.99813 -0.00162503 -0.0762275 
-0.00162503 -9.99753 0.0241452 
-0.0762275 0.0241452 -9.99246 
-9.99536 -0.00173851 -0.0776222 
-0.00173851 -9.996 0.0229572 
-0.0776222 0.0229572 -9.99676 
-9.98938 -0.00136652 -0.0764328 
-0.00136652 -9.99628 0.0274739 
-0.0764328 0.0274739 -10.0025 
-9.99982 0.000349343 -0.0793145 
0.000349343 -9.9964 0.0236831 
-0.0793145 0.0236831 -9.99191 
-10.0108 0.0111041 0.0177114 
0.0111041 -10.0026 0.0112662 
0.0177114 0.0112662 -9.98185 
-10.0217 0.0128016 -0.00427406 
0.0128016 -9.98813 -0.00130678 
-0.00427406 -0.00130678 -9.9854 
-9.95913 -0.00391282 0.000330233 
-0.00391282 -10.0239 -0.00772296 
0.000330233 -0.00772296 -10.0122 
-10.0021 0.00347567 0.0116326 
0.00347567 -10.0096 0.0011653 
0.0116326 0.0011653 -9.98349 
-9.99312 -0.000233175 -0.00173039 
-0.000233175 -9.98351 -0.000334961 
-0.00173039 -0.000334961 -9.98503 
-9.98433 -0.0019183 -0.00107478 
-0.0019183 -9.98553 -0.00151961 
-0.00107478 -0.00151961 -9.9918 
-9.98761 0.00334584 0.000289737 
0.00334584 -9.98758 0.000457244 
0.000289737 0.000457244 -9.98648 
-9.98939 0.00112676 0.00104608 
0.00112676 -9.98637 -0.000314569 
0.00104608 -0.000314569 -9.9859 
-9.99455 0.00116462 0.0166031 
0.00116462 -9.99725 0.018894 
0.0166031 0.018894 -9.99663 
-9.99682 -0.00209273 0.0152505 
-0.00209273 -9.99688 0.0176766 
0.0152505 0.0176766 -9.99472 
-9.99339 -0.00157118 0.0180298 
-0.00157118 -9.99475 0.0154262 
0.0180298 0.0154262 -10.0003 
-9.99863 -0.00253866 0.0136612 
-0.00253866 -9.99643 0.0181481 
0.0136612 0.0181481 -9.99337 
-9.99711 -0.00267888 0.0392872 
-0.00267888 -9.99983 -0.0733636 
0.0392872 -0.0733636 -9.99315 
-9.99636 -0.00326265 0.0430017 
-0.00326265 -9.98991 -0.0720857 
0.0430017 -0.0720857 -10.0038 
-9.99833 0.00122245 0.038573 
0.00122245 -9.99926 -0.0740002 
0.038573 -0.0740002 -9.99251 
-9.99833 -0.00030165 0.0369448 
-0.00030165 -9.99923 -0.0761651 
0.0369448 -0.0761651 -9.99253 
-9.96807 -0.00954046 -0.0166091 
-0.00954046 -9.96419 -0.00516225 
-0.0166091 -0.00516225 -9.96888 
-9.96371 -0.00502195 -0.00206404 
-0.00502195 -9.97419 -0.00034687 
-0.00206404 -0.00034687 -9.96324 
-9.96274 -0.00229911 -0.00698098 
-0.00229911 -9.97044 -0.000716011 
-0.00698098 -0.000716011 -9.96796 
-9.96449 0.000336693 -0.00431605 
0.000336693 -9.9681 -0.00270742 
-0.00431605 -0.00270742 -9.96854 
-9.99707 2.8137e-05 0.080711 
2.8137e-05 -9.99768 -0.00815778 
0.080711 -0.00815778 -9.99249 
-9.9911 -0.000593529 0.0820014 
-0.000593529 -9.99171 -0.00517099 
0.0820014 -0.00517099 -10.0044 
-9.99235 0.00103502 0.0814947 
0.00103502 -9.99931 -0.00877202 
0.0814947 -0.00877202 -9.99559 
-9.99951 -0.000816782 0.08302 
-0.000816782 -9.99716 -0.0120512 
0.08302 -0.0120512 -9.99057 
-10.0456 -0.00710643 0.00765058 
-0.00710643 -10.0452 -0.00976399 
0.00765058 -0.00976399 -10.0407 
-10.0436 -0.0033481 -0.000833164 
-0.0033481 -10.0398 0.00164628 
-0.000833164 0.00164628 -10.0481 
-10.0445 -0.000574954 0.000748781 
-0.000574954 -10.0435 -0.00144609 
0.000748781 -0.00144609 -10.0434 
-10.0474 -0.00412496 -0.0039085 
-0.00412496 -10.049 -0.00444807 
-0.0039085 -0.00444807 -10.0352 
-9.988 0.0037627 0.00339274 
0.0037627 -9.96145 0.0093619 
0.00339274 0.0093619 -10.0286 
-10.0098 -0.00527156 0.0149631 
-0.00527156 -9.99003 -0.00398188 
0.0149631 -0.00398188 -9.97828 
-9.99935 -0.00162739 -0.0102985 
-0.00162739 -10.0071 -0.0157932 
-0.0102985 -0.0157932 -9.97157 
-10.0038 -0.0168053 0.00950065 
-0.0168053 -9.9913 0.00780524 
0.00950065 0.00780524 -9.98301 
-10.0116 -0.0180516 -0.00327983 
-0.0180516 -10.0079 0.00755804 
-0.00327983 0.00755804 -10.0111 
-10.0255 -0.0118778 0.00449898 
-0.0118778 -9.98628 -0.0149794 
0.00449898 -0.0149794 -10.0188 
-9.9878 0.00521824 -0.00739095 
0.00521824 -10.0113 7.31664e-05 
-0.00739095 7.31664e-05 -10.0314 
-10.0349 -0.00193688 0.0131293 
-0.00193688 -9.99239 -0.00010408 
0.0131293 -0.00010408 -10.0033 
-9.98753 0.00462477 0.00121819 
0.00462477 -9.99027 -0.00158813 
0.00121819 -0.00158813 -9.98904 
-9.98941 -0.00364525 -0.000436096 
-0.00364525 -9.98732 0.000574083 
-0.000436096 0.000574083 -9.99011 
-9.99257 0.00175954 0.000875898 
0.00175954 -9.98758 -0.000888928 
0.000875898 -0.000888928 -9.98669 
-9.99475 0.00422938 -0.000388642 
0.00422938 -9.98022 -0.00401228 
-0.000388642 -0.00401228 -9.99187 
-9.95119 0.00658153 0.000758256 
0.00658153 -9.93014 3.17284e-05 
0.000758256 3.17284e-05 -9.93756 
-9.92786 -0.00183127 0.00585634 
-0.00183127 -9.95034 -0.000699309 
0.00585634 -0.000699309 -9.94069 
-9.93425 0.0396785 0.0178716 
0.0396785 -9.94455 0.003191 
0.0178716 0.003191 -9.94009 
-9.94047 0.0129489 0.00984219 
0.0129489 -9.93676 -0.00228226 
0.00984219 -0.00228226 -9.94165 
-9.99127 0.00179733 0.00152167 
0.00179733 -9.98357 0.00408128 
0.00152167 0.00408128 -9.98592 
-9.98595 0.00307782 -0.00143171 
0.00307782 -9.98192 -0.00161314 
-0.00143171 -0.00161314 -9.99289 
-9.98469 -0.00115976 0.00144381 
-0.00115976 -9.98579 0.00190785 
0.00144381 0.00190785 -9.99027 
-9.992 0.000735355 0.00309523 
0.000735355 -9.98554 0.000488561 
0.00309523 0.000488561 -9.98322 
-9.99907 -0.00156566 0.0759524 
-0.00156566 -9.99797 -0.0242603 
0.0759524 -0.0242603 -9.99287 
-9.9962 -0.00121557 0.0773083 
-0.00121557 -9.99629 -0.0227026 
0.0773083 -0.0227026 -9.99742 
-9.99036 -0.000710019 0.076034 
-0.000710019 -9.99676 -0.0274687 
0.076034 -0.0274687 -10.0028 
-10.0002 0.000419402 0.0788256 
0.000419402 -9.99714 -0.0234724 
0.0788256 -0.0234724 -9.99256 
-10.0468 0.037884 -0.0030351 
0.037884 -9.99623 0.0130043 
-0.0030351 0.0130043 -10.0136 
-10.0265 8.06514e-05 -0.00011378 
8.06514e-05 -10.0068 0.000308884 
-0.00011378 0.000308884 -10.0232 
-10.0117 0.00923758 -0.00204806 
0.00923758 -10.0186 0.00754243 
-0.00204806 0.00754243 -10.0262 
-10.0286 0.0132216 -0.00385362 
0.0132216 -10.0134 0.00650295 
-0.00385362 0.00650295 -10.0146 
-9.97172 -0.0289563 0.00836993 
-0.0289563 -10.013 0.00376353 
0.00836993 0.00376353 -9.98409 
-9.98687 0.00289332 -0.000138324 
0.00289332 -9.99774 0.000171453 
-0.000138324 0.000171453 -9.98421 
-9.98567 -0.00240971 0.00643666 
-0.00240971 -9.97703 0.00150662 
0.00643666 0.00150662 -10.0061 
-9.98674 -0.000888542 -0.00472481 
-0.000888542 -9.99569 -0.00491122 
-0.00472481 -0.00491122 -9.98639 
-9.99867 7.57029e-05 -0.0799526 
7.57029e-05 -9.99736 -0.0234371 
-0.0799526 -0.0234371 -9.99307 
-9.99659 0.000499552 -0.0787497 
0.000499552 -9.99634 -0.0233034 
-0.0787497 -0.0233034 -9.99617 
-9.99056 0.000710402 -0.0775541 
0.000710402 -9.99573 -0.0278964 
-0.0775541 -0.0278964 -10.0028 
-9.99807 0.00237635 -0.0784229 
0.00237635 -9.99679 -0.0249769 
-0.0784229 -0.0249769 -9.99423 
-9.99703 -0.00122502 -0.00973809 
-0.00122502 -9.99163 -0.0872649 
-0.00973809 -0.0872649 -9.99722 
-9.993 0.00194544 -0.0053276 
0.00194544 -9.98982 -0.0878121 
-0.0053276 -0.0878121 -10.0031 
-9.99608 -3.66015e-05 -0.0107669 
-3.66015e-05 -9.99981 -0.0893092 
-0.0107669 -0.0893092 -9.99 
-9.99716 -0.00187271 -0.00685633 
-0.00187271 -9.99672 -0.0864303 
-0.00685633 -0.0864303 -9.992 
-9.98372 -0.00299436 6.16826e-05 
-0.00299436 -9.9777 0.00365325 
6.16826e-05 0.00365325 -9.96125 
-9.96257 -0.00141294 0.00050518 
-0.00141294 -9.97137 0.00147564 
0.00050518 0.00147564 -9.98872 
-9.9659 0.010541 0.00338284 
0.010541 -9.97536 -0.00095874 
0.00338284 -0.00095874 -9.98141 
-9.97257 -0.00402538 -0.00100152 
-0.00402538 -9.98128 -0.0134509 
-0.00100152 -0.0134509 -9.96882 
-9.99864 0.00058742 -0.0613325 
0.00058742 -9.9998 -0.050458 
-0.0613325 -0.050458 -9.99496 
-9.99653 0.000991577 -0.0606839 
0.000991577 -9.99791 -0.0521721 
-0.0606839 -0.0521721 -9.99896 
-9.99705 0.00218932 -0.0629064 
0.00218932 -9.99644 -0.0495306 
-0.0629064 -0.0495306 -9.99991 
-9.99933 -0.00064981 -0.0625574 
-0.00064981 -9.99945 -0.0515722 
-0.0625574 -0.0515722 -9.99462 
-9.98974 0.00292919 -0.00195744 
0.00292919 -9.9914 -0.00157311 
-0.00195744 -0.00157311 -9.9884 
-9.98827 -0.00303991 -0.00177027 
-0.00303991 -10.0013 0.000125058 
-0.00177027 0.000125058 -9.97999 
-9.98144 0.0037968 -0.00445075 
0.0037968 -9.98462 -0.000702704 
-0.00445075 -0.000702704 -10.0035 
-9.99287 0.0130968 -0.0031382 
0.0130968 -9.9867 0.000565621 
-0.0031382 0.000565621 -9.98997 
-9.99734 -0.000291472 0.00890181 
-0.000291472 -9.99526 0.0833026 
0.00890181 0.0833026 -9.99388 
-9.99135 -0.000132486 0.00545269 
-0.000132486 -9.99073 0.0833693 
0.00545269 0.0833693 -10.0044 
-9.99877 -0.000436703 0.00919651 
-0.000436703 -9.99338 0.0828254 
0.00919651 0.0828254 -9.99434 
-9.99817 0.00136515 0.012372 
0.00136515 -9.99768 0.0837532 
0.012372 0.0837532 -9.99064 
-9.99553 0.00263191 -0.0026439 
0.00263191 -9.99139 -0.00153014 
-0.0026439 -0.00153014 -9.99122 
-9.99946 0.00238161 0.000773625 
0.00238161 -9.99324 3.34741e-05 
0.000773625 3.34741e-05 -9.98544 
-9.98479 -0.00175292 0.00410321 
-0.00175292 -9.98919 -0.000621743 
0.00410321 -0.000621743 -10.0042 
-9.99514 0.00210236 -0.00645104 
0.00210236 -9.99963 -0.00462169 
-0.00645104 -0.00462169 -9.98338 
-10.0093 -0.00307101 0.00514753 
-0.00307101 -10.0028 -0.00592277 
0.00514753 -0.00592277 -10.0025 
-10.0023 0.00189773 0.00289058 
0.00189773 -10.0026 -0.00257981 
0.00289058 -0.00257981 -10.0098 
-10.005 -0.000573826 -0.00103801 
-0.000573826 -10.0001 0.00069591 
-0.00103801 0.00069591 -10.0096 
-10.0058 -0.00108806 0.00187455 
-0.00108806 -10.008 0.00105374 
0.00187455 0.00105374 -10.0009 
-10.0101 0.00234139 0.00405011 
0.00234139 -10.0176 -0.00316288 
0.00405011 -0.00316288 -10.0163 
-10.0124 -0.000546559 0.000590193 
-0.000546559 -10.0274 -0.00107042 
0.000590193 -0.00107042 -10.0042 
-10.0098 -0.00114698 0.00369079 
-0.00114698 -10.0207 -0.00454176 
0.00369079 -0.00454176 -10.0135 
-10.0057 -8.83375e-05 0.0060414 
-8.83375e-05 -10.0241 -0.00944583 
0.0060414 -0.00944583 -10.0142 
-9.98988 0.00730337 -0.00275076 
0.00730337 -9.98481 0.00139648 
-0.00275076 0.00139648 -9.97846 
-9.99272 -5.8182e-05 -0.000460707 
-5.8182e-05 -9.98319 0.00253928 
-0.000460707 0.00253928 -9.97723 
-9.98026 0.00132608 -0.000158521 
0.00132608 -9.98505 0.00268908 
-0.000158521 0.00268908 -9.98783 
-9.98919 0.00506917 0.00128333 
0.00506917 -9.98382 0.00710197 
0.00128333 0.00710197 -9.98013 
-9.99808 5.59874e-05 -0.0377285 
5.59874e-05 -10.0001 -0.0751008 
-0.0377285 -0.0751008 -9.99321 
-9.99684 0.00299471 -0.0425128 
0.00299471 -9.99082 -0.0714291 
-0.0425128 -0.0714291 -10.0037 
-9.99774 -0.000502742 -0.0382708 
-0.000502742 -9.99916 -0.0733216 
-0.0382708 -0.0733216 -9.99447 
-9.99599 0.00296468 -0.0395634 
0.00296468 -10.0017 -0.0721989 
-0.0395634 -0.0721989 -9.99368 
-10.0102 -0.00337211 3.8308e-05 
-0.00337211 -10.0104 -0.00224438 
3.8308e-05 -0.00224438 -10.0074 
-10.0142 -0.00311134 -0.00122745 
-0.00311134 -10.014 0.00292932 
-0.00122745 0.00292932 -9.99975 
-9.99516 0.0085626 -0.00388023 
0.0085626 -10.0026 0.00574873 
-0.00388023 0.00574873 -10.0302 
-10.0098 -0.00307458 0.00259256 
-0.00307458 -10.0126 -0.000162877 
0.00259256 -0.000162877 -10.0056 
-10.011 0.00329277 -0.000955719 
0.00329277 -10.0125 0.000372168 
-0.000955719 0.000372168 -10.0054 
-9.99868 0.00294248 -0.00892431 
0.00294248 -10.0123 0.00257331 
-0.00892431 0.00257331 -10.0179 
-10.0095 -0.000486089 -0.00114988 
-0.000486089 -10.0184 -0.00511855 
-0.00114988 -0.00511855 -10.001 
-10.0215 -0.011717 0.00409316 
-0.011717 -10.0044 -0.000403428 
0.00409316 -0.000403428 -10.003 
-9.99593 0.00117632 0.00707269 
0.00117632 -9.99614 -0.0711269 
0.00707269 -0.0711269 -9.9817 
-9.99417 0.00120371 0.00289349 
0.00120371 -9.9942 -0.0678721 
0.00289349 -0.0678721 -9.98539 
-9.99349 0.00320258 0.00310173 
0.00320258 -9.99513 -0.0659473 
0.00310173 -0.0659473 -9.98514 
-9.98175 -0.00194136 0.0108392 
-0.00194136 -9.98105 -0.0620081 
0.0108392 -0.0620081 -10.011 
-9.97482 -0.00329223 0.00638432 
-0.00329223 -9.98282 -0.0665949 
0.00638432 -0.0665949 -9.97017 
-9.97859 0.00650089 -0.00283851 
0.00650089 -9.96699 -0.0635533 
-0.00283851 -0.0635533 -9.98224 
-9.97154 -0.00162213 -0.00138522 
-0.00162213 -9.98704 -0.0670366 
-0.00138522 -0.0670366 -9.96924 
-9.99174 0.00831127 -0.00165775 
0.00831127 -9.97626 -0.0618996 
-0.00165775 -0.0618996 -9.95981 
-9.93639 0.00308696 0.063071 
0.00308696 -9.93078 0.0409666 
0.063071 0.0409666 -9.95189 
-9.94575 0.0165004 0.0559662 
0.0165004 -9.92585 0.0475076 
0.0559662 0.0475076 -9.94747 
-9.94037 0.00786616 0.0717633 
0.00786616 -9.93566 0.0409486 
0.0717633 0.0409486 -9.94305 
-9.93693 0.00805923 0.0484129 
0.00805923 -9.93037 0.03135 
0.0484129 0.03135 -9.95177 
-9.92303 -0.00908173 0.0603262 
-0.00908173 -9.94087 0.0408511 
0.0603262 0.0408511 -9.93861 
-9.9345 0.00911693 0.0606093 
0.00911693 -9.93514 0.0391338 
0.0606093 0.0391338 -9.93286 
-9.94272 0.0136483 0.0509751 
0.0136483 -9.92805 0.0412373 
0.0509751 0.0412373 -9.93174 
-9.93866 0.00344649 0.0632897 
0.00344649 -9.91826 0.0629021 
0.0632897 0.0629021 -9.94558 
-9.94276 0.0135965 0.0493793 
0.0135965 -9.90733 -0.0295962 
0.0493793 -0.0295962 -9.96297 
-9.90552 -0.0214489 -0.0279835 
-0.0214489 -9.92632 -0.00834598 
-0.0279835 -0.00834598 -9.98121 
-9.93135 -0.0520305 -0.00731272 
-0.0520305 -9.90667 0.0319741 
-0.00731272 0.0319741 -9.97503 
-9.94007 -0.0501113 -0.0192973 
-0.0501113 -9.91319 -0.100601 
-0.0192973 -0.100601 -9.9598 
-9.93754 -0.0490691 -0.0123277 
-0.0490691 -9.92126 -0.000421717 
-0.0123277 -0.000421717 -9.96988 
-9.92855 -0.0282326 -0.0233582 
-0.0282326 -9.92478 -0.0119898 
-0.0233582 -0.0119898 -9.97536 
-9.93373 -0.0197066 0.00575278 
-0.0197066 -9.92283 -0.0179668 
0.00575278 -0.0179668 -9.97213 
-9.90985 -0.000478349 0.0143241 
-0.000478349 -9.94503 0.0077186 
0.0143241 0.0077186 -9.9738 
-9.91496 0.00375162 0.026553 
0.00375162 -9.91333 0.0162291 
0.026553 0.0162291 -9.89358 
-9.91838 0.00550985 0.0127145 
0.00550985 -9.90197 0.00881186 
0.0127145 0.00881186 -9.90151 
-9.91756 0.003452 0.0124925 
0.003452 -9.90223 0.00587 
0.0124925 0.00587 -9.90208 
-9.93594 0.00129198 0.00855261 
0.00129198 -9.89424 0.00106423 
0.00855261 0.00106423 -9.89168 
-9.93772 -0.000251514 0.00747469 
-0.000251514 -9.91279 0.0336045 
0.00747469 0.0336045 -9.95682 
-10.0006 4.74122e-05 0.0777041 
4.74122e-05 -9.94466 0.0109832 
0.0777041 0.0109832 -9.8621 
-9.99201 -0.00200209 0.0605053 
-0.00200209 -9.95767 0.0246852 
0.0605053 0.0246852 -9.85765 
-10.0301 -0.00585281 0.000683285 
-0.00585281 -10.0211 -0.0028352 
0.000683285 -0.0028352 -9.75609 
-9.96586 -0.0594142 0.0273678 
-0.0594142 -10.0625 0.142459 
0.0273678 0.142459 -10.2684 
-10.0209 -0.153205 -0.108224 
-0.153205 -10.0064 0.0538824 
-0.108224 0.0538824 -10.2695 
-10.153 -0.000602076 -0.00542082 
-0.000602076 -9.90101 -0.0192498 
-0.00542082 -0.0192498 -10.2428 
-10.4268 0.176653 -0.00654114 
0.176653 -9.78421 0.0983966 
-0.00654114 0.0983966 -10.0858 
-9.92594 -0.0858017 -0.0177467 
-0.0858017 -9.90751 0.0784481 
-0.0177467 0.0784481 -10.1231 
-10.0058 -0.0355509 0.0156164 
-0.0355509 -9.80608 0.0136171 
0.0156164 0.0136171 -10.1447 
-10.01 0.0268091 0.106245 
0.0268091 -9.80117 -0.0104374 
0.106245 -0.0104374 -10.1454 
-10.0488 -0.0660616 0.0182174 
-0.0660616 -9.85777 0.121833 
0.0182174 0.121833 -10.05 
-10.3346 0.147937 -0.113235 
0.147937 -9.47126 0.519529 
-0.113235 0.519529 -10.1889 
-9.82313 -0.264469 -0.0861484 
-0.264469 -10.2539 0.0558709 
-0.0861484 0.0558709 -9.91767 
-10.2201 -0.0233013 -0.14223 
-0.0233013 -9.50584 0.205841 
-0.14223 0.205841 -10.2688 
-10.1544 0.000195204 -0.133253 
0.000195204 -9.63318 0.313589 
-0.133253 0.313589 -10.2071 
-10.0487 -0.26853 -0.187663 
-0.26853 -9.76543 0.168684 
-0.187663 0.168684 -10.0932 
-10.1071 -0.126651 -0.132679 
-0.126651 -9.69803 0.137 
-0.132679 0.137 -10.1022 
-10.2906 -0.0378049 -0.0658128 
-0.0378049 -9.58588 0.174138 
-0.0658128 0.174138 -10.0309 
-9.94781 -0.0408095 -0.112645 
-0.0408095 -9.91529 0.151303 
-0.112645 0.151303 -10.0442 
-10.1124 0.104774 -0.0451679 
0.104774 -10.0689 -0.0467408 
-0.0451679 -0.0467408 -10.381 
-10.0933 0.103989 -0.00214312 
0.103989 -10.0562 -0.0385125 
-0.00214312 -0.0385125 -10.4129 
-10.1424 0.0913635 -0.0616408 
0.0913635 -9.98395 -0.0861034 
-0.0616408 -0.0861034 -10.4361 
-10.1168 0.086676 -0.0371862 
0.086676 -9.99931 0.0185753 
-0.0371862 0.0185753 -10.4463 
-9.93168 0.127027 -0.206533 
0.127027 -10.1792 0.0287295 
-0.206533 0.0287295 -10.2926 
-10.0534 0.212981 0.136895 
0.212981 -9.94896 0.0130115 
0.136895 0.0130115 -10.4011 
-10.1097 0.0385555 0.108403 
0.0385555 -10.0125 0.102646 
0.108403 0.102646 -10.2813 
-10.0246 0.114542 0.0972497 
0.114542 -9.99861 0.0153477 
0.0972497 0.0153477 -10.3803 
-9.05774 -0.0133436 -2.06413 
-0.0133436 -11.0741 0.130691 
-2.06413 0.130691 -10.3744 
-10.2314 -1.45849 -0.708187 
-1.45849 -9.98357 0.360571 
-0.708187 0.360571 -10.2913 
-9.63099 0.438689 -1.57577 
0.438689 -10.3645 -0.726137 
-1.57577 -0.726137 -10.5108 
-8.20493 1.0121 -1.13422 
1.0121 -10.389 0.315918 
-1.13422 0.315918 -11.9124 
-9.46029 -0.0919806 -0.378816 
-0.0919806 -9.84259 0.171204 
-0.378816 0.171204 -9.77603 
-9.27541 -0.174174 -0.523718 
-0.174174 -9.5568 -0.0288508 
-0.523718 -0.0288508 -10.2467 
-9.20451 -0.258794 -0.372059 
-0.258794 -9.8253 -0.202086 
-0.372059 -0.202086 -10.0491 
-10.0604 0.108239 -0.580011 
0.108239 -9.7876 -0.0420896 
-0.580011 -0.0420896 -9.23095 
-10.955 0.0889411 -0.158811 
0.0889411 -10.4975 -0.128504 
-0.158811 -0.128504 -10.7134 
-10.6412 -0.0215025 -0.866987 
-0.0215025 -10.9093 -0.417952 
-0.866987 -0.417952 -10.6155 
-11.2948 -0.0790325 -0.0488907 
-0.0790325 -10.7967 0.0485147 
-0.0488907 0.0485147 -10.0745 
-10.1638 0.0151618 0.260157 
0.0151618 -10.4902 -0.247621 
0.260157 -0.247621 -11.512 
-9.83643 -0.372445 -0.394376 
-0.372445 -9.15666 0.0991076 
-0.394376 0.0991076 -10.9857 
-10.1451 -0.493878 0.661953 
-0.493878 -10.0436 0.745116 
0.661953 0.745116 -9.78995 
-10.2887 -0.0504974 0.080804 
-0.0504974 -9.1002 0.665814 
0.080804 0.665814 -10.5898 
-9.5937 -0.322719 -0.527145 
-0.322719 -9.59761 0.536572 
-0.527145 0.536572 -10.7874 
-9.9801 0.450198 0.0357762 
0.450198 -9.93251 0.251197 
0.0357762 0.251197 -9.70857 
-9.83387 0.275274 0.185677 
0.275274 -9.84045 0.146302 
0.185677 0.146302 -9.94685 
-9.74033 -0.0305736 0.0027818 
-0.0305736 -9.97586 -0.0545754 
0.0027818 -0.0545754 -9.90498 
-9.87139 0.119487 0.340079 
0.119487 -9.76427 -0.121213 
0.340079 -0.121213 -9.98552 
-9.95996 0.42952 0.118767 
0.42952 -9.57834 0.258022 
0.118767 0.258022 -10.0631 
-9.60492 -0.229697 -0.0803298 
-0.229697 -10.3311 -0.14729 
-0.0803298 -0.14729 -9.66536 
-9.98569 0.319886 0.276348 
0.319886 -9.70129 0.508081 
0.276348 0.508081 -9.9144 
-9.71066 0.205895 -0.0399088 
0.205895 -9.66879 0.34323 
-0.0399088 0.34323 -10.2219 
-9.62975 -0.234238 -0.34892 
-0.234238 -9.85353 0.0209766 
-0.34892 0.0209766 -10.1087 
-9.53752 -0.279414 -0.204526 
-0.279414 -9.78126 0.109083 
-0.204526 0.109083 -10.2732 
-9.51457 -0.225444 -0.669368 
-0.225444 -9.96783 0.583523 
-0.669368 0.583523 -10.1095 
-10.1679 -0.0158207 -0.0520689 
-0.0158207 -9.57324 -0.00668216 
-0.0520689 -0.00668216 -9.85085 
-10.4122 -0.174257 -0.598209 
-0.174257 -10.3321 0.596951 
-0.598209 0.596951 -9.78479 
-9.86062 -0.409694 0.0656954 
-0.409694 -10.1831 0.0470096 
0.0656954 0.0470096 -10.4853 
-10.1835 0.0531234 -0.497695 
0.0531234 -10.0576 0.637809 
-0.497695 0.637809 -10.2879 
-9.99898 -0.200855 0.0618328 
-0.200855 -9.8668 0.22003 
0.0618328 0.22003 -10.6632 
-9.96422 -0.000276121 -0.0215377 
-0.000276121 -9.97346 0.053028 
-0.0215377 0.053028 -9.95637 
-9.96589 0.0014625 -0.0212597 
0.0014625 -9.96969 0.0479005 
-0.0212597 0.0479005 -9.95846 
-9.96546 -0.000809181 -0.0214794 
-0.000809181 -9.96868 0.0494197 
-0.0214794 0.0494197 -9.95991 
-9.96863 0.00253388 -0.0179887 
0.00253388 -9.97193 0.0508371 
-0.0179887 0.0508371 -9.95348 
-9.96685 0.000397235 -0.0191402 
0.000397235 -9.95854 0.0549415 
-0.0191402 0.0549415 -9.96023 
-9.97457 -0.000363715 -0.0141923 
-0.000363715 -9.97228 0.0492946 
-0.0141923 0.0492946 -9.93878 
-9.96342 0.00381752 -0.00928258 
0.00381752 -9.96375 0.0434016 
-0.00928258 0.0434016 -9.95845 
-9.96146 -0.00219192 -0.00843773 
-0.00219192 -9.97256 0.0472768 
-0.00843773 0.0472768 -9.95161 
-10.2032 0.158303 0.213254 
0.158303 -9.69453 0.870768 
0.213254 0.870768 -9.90789 
-10.117 0.004243 0.0434631 
0.004243 -9.61159 0.363045 
0.0434631 0.363045 -10.0771 
-9.97008 -0.094602 0.0754906 
-0.094602 -9.75395 0.411936 
0.0754906 0.411936 -10.0816 
-9.73011 -0.619599 -0.213459 
-0.619599 -10.4509 -0.150129 
-0.213459 -0.150129 -9.62466 
-12.1334 -0.576363 0.971995 
-0.576363 -8.98447 0.370533 
0.971995 0.370533 -12.3218 
-11.4699 0.258168 0.0348627 
0.258168 -9.85924 0.255618 
0.0348627 0.255618 -12.1105 
-10.3803 -0.339263 0.157644 
-0.339263 -10.2183 0.299916 
0.157644 0.299916 -12.841 
-10.3005 -0.237783 0.334475 
-0.237783 -7.40343 1.67478 
0.334475 1.67478 -15.7357 
-9.86405 -0.0329105 0.014395 
-0.0329105 -9.90654 -0.0249945 
0.014395 -0.0249945 -9.96788 
-9.88311 -0.0264326 0.0772395 
-0.0264326 -9.89541 -0.0341423 
0.0772395 -0.0341423 -9.95994 
-9.95885 0.0379243 0.0406316 
0.0379243 -9.9034 -0.0603053 
0.0406316 -0.0603053 -9.87621 
-9.90548 0.0029047 0.0378419 
0.0029047 -9.90509 -0.049288 
0.0378419 -0.049288 -9.9279 
-9.94977 -0.000779185 0.0533406 
-0.000779185 -9.94224 -0.0303013 
0.0533406 -0.0303013 -9.88632 
-9.895 -0.00713134 0.0610588 
-0.00713134 -9.91858 -0.0473509 
0.0610588 -0.0473509 -9.96475 
-9.8917 -0.0027633 0.0237628 
-0.0027633 -9.87965 -0.0396234 
0.0237628 -0.0396234 -10.007 
-9.9043 -0.00693292 0.0561854 
-0.00693292 -9.91051 -0.0606429 
0.0561854 -0.0606429 -9.96351 
-9.92854 0.0165572 0.0291513 
0.0165572 -9.97037 -0.0113736 
0.0291513 -0.0113736 -9.90674 
-9.96255 -0.00331556 0.0235913 
-0.00331556 -9.97204 -0.012245 
0.0235913 -0.012245 -9.87106 
-9.93165 -0.00507865 -0.036939 
-0.00507865 -9.91571 -0.0290417 
-0.036939 -0.0290417 -9.95829 
-9.95246 0.0128761 0.0274461 
0.0128761 -9.92969 -0.0301413 
0.0274461 -0.0301413 -9.9235 
-9.94236 0.0202066 0.0136223 
0.0202066 -9.96474 0.00708082 
0.0136223 0.00708082 -9.91402 
-9.91778 -0.00495989 -0.0206788 
-0.00495989 -9.95183 -0.0257849 
-0.0206788 -0.0257849 -9.9515 
-9.9644 0.00931166 0.0225911 
0.00931166 -9.99208 0.00262469 
0.0225911 0.00262469 -9.86464 
-9.92799 0.00797844 0.00877532 
0.00797844 -9.95797 0.0205665 
0.00877532 0.0205665 -9.93515 
-9.89663 0.0394067 0.054143 
0.0394067 -9.94125 0.0803475 
0.054143 0.0803475 -9.97763 
-9.94295 0.0822032 0.0577303 
0.0822032 -9.80931 0.0846247 
0.0577303 0.0846247 -10.0633 
-9.92647 0.0103546 0.0358802 
0.0103546 -9.91376 0.0341505 
0.0358802 0.0341505 -9.97528 
-9.9029 0.0302924 0.101209 
0.0302924 -9.96868 0.110808 
0.101209 0.110808 -9.94394 
-9.88809 0.0779742 0.0480876 
0.0779742 -9.94581 0.0677282 
0.0480876 0.0677282 -9.98923 
-9.95294 -0.00968087 0.0492226 
-0.00968087 -9.88763 0.0586409 
0.0492226 0.0586409 -9.98256 
-9.96799 0.109572 0.0593028 
0.109572 -9.78796 0.0879109 
0.0593028 0.0879109 -10.0672 
-9.83196 0.084873 -0.00468403 
0.084873 -9.93884 0.0545813 
-0.00468403 0.0545813 -10.0523 
-11.5469 1.96769 3.55665 
1.96769 -13.5498 3.21138 
3.55665 3.21138 -3.83287 
-15.6068 -3.78456 -5.45038 
-3.78456 -9.22444 -0.917879 
-5.45038 -0.917879 -4.0983 
-5.89464 2.31725 -3.55118 
2.31725 -5.80964 -0.570554 
-3.55118 -0.570554 -17.2253 
-1.38445 4.84174 -4.38012 
4.84174 -8.0594 -3.27938 
-4.38012 -3.27938 -19.4857 
-10.5843 0.763182 -1.31992 
0.763182 -8.55846 -0.635293 
-1.31992 -0.635293 -9.88208 
-10.5692 0.346247 -0.182805 
0.346247 -9.10902 -1.20745 
-0.182805 -1.20745 -9.34661 
-9.36212 0.410095 -0.946379 
0.410095 -10.7577 -0.373319 
-0.946379 -0.373319 -8.90502 
-10.2745 0.483506 -0.789456 
0.483506 -9.30044 -0.738908 
-0.789456 -0.738908 -9.44991 
-9.90231 -0.017921 -0.0195268 
-0.017921 -9.90806 0.000428904 
-0.0195268 0.000428904 -10.0129 
-9.91963 -0.000324694 -0.0474256 
-0.000324694 -9.89513 0.000268244 
-0.0474256 0.000268244 -10.0085 
-9.93346 0.0070041 -0.0324655 
0.0070041 -9.89865 -0.000793265 
-0.0324655 -0.000793265 -9.99118 
-9.90014 -0.00673846 -0.075771 
-0.00673846 -9.93003 0.00570174 
-0.075771 0.00570174 -9.99312 
-9.9047 0.0055581 -0.0258631 
0.0055581 -9.91842 -0.00358447 
-0.0258631 -0.00358447 -9.99993 
-9.92013 0.0129654 -0.023341 
0.0129654 -9.92168 0.0131386 
-0.023341 0.0131386 -9.98124 
-9.926 -0.00104572 -0.0473857 
-0.00104572 -9.8984 0.0042741 
-0.0473857 0.0042741 -9.99865 
-9.91015 0.00814398 -0.0281532 
0.00814398 -9.9104 0.00151496 
-0.0281532 0.00151496 -10.0025 
-9.99309 -0.00155257 0.0270646 
-0.00155257 -9.99546 -0.0605142 
0.0270646 -0.0605142 -9.99082 
-9.99414 -0.000315533 0.0265395 
-0.000315533 -9.99822 -0.0648787 
0.0265395 -0.0648787 -9.98702 
-9.99255 -0.000435043 0.0275837 
-0.000435043 -9.99817 -0.0596186 
0.0275837 -0.0596186 -9.98866 
-9.98449 0.000590156 0.0222659 
0.000590156 -9.98503 -0.0587954 
0.0222659 -0.0587954 -10.0099 
-9.97774 0.00231179 0.0334113 
0.00231179 -9.98168 -0.0567104 
0.0334113 -0.0567104 -9.9805 
-9.97769 0.00117753 0.034147 
0.00117753 -9.98355 -0.0578701 
0.034147 -0.0578701 -9.97869 
-9.97632 -0.002706 0.0316121 
-0.002706 -9.97972 -0.0545251 
0.0316121 -0.0545251 -9.98388 
-9.98295 -0.00391364 0.0309977 
-0.00391364 -9.98205 -0.0620079 
0.0309977 -0.0620079 -9.97492 
-9.4155 -0.0100084 -0.187808 
-0.0100084 -10.0716 0.10256 
-0.187808 0.10256 -10.3337 
-9.70832 0.28404 0.254373 
0.28404 -9.92886 0.392871 
0.254373 0.392871 -10.1836 
-10.0138 -0.00772526 0.289859 
-0.00772526 -9.87311 0.206642 
0.289859 0.206642 -9.93387 
-10.0309 0.0552917 0.506402 
0.0552917 -10.2559 0.00467402 
0.506402 0.00467402 -9.53398 
-10.3071 0.347891 0.11753 
0.347891 -9.83907 0.26762 
0.11753 0.26762 -10.8085 
-10.3029 0.192082 0.0379154 
0.192082 -9.97672 0.198467 
0.0379154 0.198467 -10.6751 
-10.2477 0.0839713 -0.0998136 
0.0839713 -9.95498 -0.0464889 
-0.0998136 -0.0464889 -10.7521 
-9.92195 0.287186 0.0768942 
0.287186 -10.4407 0.129828 
0.0768942 0.129828 -10.5921 
-9.06868 0.220099 0.366161 
0.220099 -10.7438 -0.140313 
0.366161 -0.140313 -9.11605 
-9.52197 0.684229 0.454143 
0.684229 -10.1091 0.242077 
0.454143 0.242077 -9.29744 
-9.41637 0.158311 0.690334 
0.158311 -10.1981 0.191409 
0.690334 0.191409 -9.31408 
-9.67557 -0.0479308 0.265461 
-0.0479308 -9.45093 0.585346 
0.265461 0.585346 -9.80206 
-9.86238 0.187109 0.234416 
0.187109 -9.40048 0.699565 
0.234416 0.699565 -9.56932 
-10.0297 -0.0298685 0.288794 
-0.0298685 -9.42954 0.733202 
0.288794 0.733202 -9.37291 
-10.5671 -1.58573 0.381692 
-1.58573 -10.0817 -0.235099 
0.381692 -0.235099 -8.18335 
-9.39117 -0.680556 -0.211199 
-0.680556 -9.23708 0.345919 
-0.211199 0.345919 -10.2039 
-9.92502 -0.00237501 -0.0449442 
-0.00237501 -9.93647 -0.0466316 
-0.0449442 -0.0466316 -9.93314 
-9.92464 -0.0091743 -0.0454363 
-0.0091743 -9.93384 -0.0451389 
-0.0454363 -0.0451389 -9.93615 
-9.92542 -0.00663248 -0.0546794 
-0.00663248 -9.93506 -0.0509015 
-0.0546794 -0.0509015 -9.93415 
-9.92496 -0.00366482 -0.048474 
-0.00366482 -9.93451 -0.0464813 
-0.048474 -0.0464813 -9.93516 
-9.92419 -0.0103463 -0.0505204 
-0.0103463 -9.93436 -0.0456339 
-0.0505204 -0.0456339 -9.94138 
-9.92044 -0.00294487 -0.0513463 
-0.00294487 -9.93494 -0.0407152 
-0.0513463 -0.0407152 -9.94455 
-9.93009 -0.0142075 -0.0501402 
-0.0142075 -9.93106 -0.0394972 
-0.0501402 -0.0394972 -9.93878 
-9.92751 -0.00990485 -0.044078 
-0.00990485 -9.93321 -0.0520781 
-0.044078 -0.0520781 -9.9392 
-9.98775 -0.117475 0.12718 
-0.117475 -9.90744 -0.235325 
0.12718 -0.235325 -9.90326 
-10.011 -0.0905773 0.0973263 
-0.0905773 -9.85795 -0.199124 
0.0973263 -0.199124 -9.92947 
-9.9797 -0.159728 0.131898 
-0.159728 -9.85169 -0.251472 
0.131898 -0.251472 -9.96706 
-9.96688 -0.141439 0.0949316 
-0.141439 -9.82041 -0.287645 
0.0949316 -0.287645 -10.0112 
-9.8233 -0.137484 0.356925 
-0.137484 -9.70599 -0.407186 
0.356925 -0.407186 -9.55662 
-9.57249 -0.2174 0.515886 
-0.2174 -9.44874 -0.206428 
0.515886 -0.206428 -10.0647 
-9.73764 -0.188435 -0.220371 
-0.188435 -10.0165 -0.253867 
-0.220371 -0.253867 -9.33179 
-9.82496 -0.0364944 0.396226 
-0.0364944 -9.68206 -0.482326 
0.396226 -0.482326 -9.5789 
-10.1179 0.096336 -0.0385816 
0.096336 -9.64179 0.442616 
-0.0385816 0.442616 -10.2084 
-9.89025 -0.0406619 -0.144395 
-0.0406619 -9.66381 0.340783 
-0.144395 0.340783 -10.414 
-10.3453 0.271449 -0.0891806 
0.271449 -9.62595 0.487199 
-0.0891806 0.487199 -9.99687 
-9.93643 -0.295082 0.0456899 
-0.295082 -10.1943 0.17334 
0.0456899 0.17334 -9.83733 
-11.9512 -0.601955 0.795478 
-0.601955 -9.26891 0.32326 
0.795478 0.32326 -11.2934 
-11.4285 0.131955 -0.139616 
0.131955 -9.61362 0.0924727 
-0.139616 0.0924727 -11.4714 
-10.7815 -0.255021 0.0356906 
-0.255021 -10.2135 -0.288624 
0.0356906 -0.288624 -11.5185 
-10.3424 -0.398483 0.329648 
-0.398483 -7.37213 1.22115 
0.329648 1.22115 -14.799 
-9.94684 0.0311355 0.0234298 
0.0311355 -9.89028 0.151395 
0.0234298 0.151395 -9.91607 
-9.85432 -0.0119217 0.0553004 
-0.0119217 -9.9307 0.027239 
0.0553004 0.027239 -9.96818 
-9.9919 0.051028 0.0130884 
0.051028 -9.85362 0.0559832 
0.0130884 0.0559832 -9.90768 
-9.8646 0.077387 0.106686 
0.077387 -9.82535 0.0829379 
0.106686 0.0829379 -10.0632 
-9.88898 0.0120634 0.0297986 
0.0120634 -9.86405 0.0742138 
0.0297986 0.0742138 -9.8961 
-9.88265 0.0130032 0.0224973 
0.0130032 -9.86439 0.0639918 
0.0224973 0.0639918 -9.90209 
-9.89179 0.0297277 0.0144418 
0.0297277 -9.85849 0.0635454 
0.0144418 0.0635454 -9.89885 
-9.86018 -0.013514 0.0175797 
-0.013514 -9.91248 0.0825826 
0.0175797 0.0825826 -9.87647 
-9.984 -0.00143504 0.0479098 
-0.00143504 -9.98381 -0.047408 
0.0479098 -0.047408 -9.98968 
-9.9826 0.00280066 0.0511092 
0.00280066 -9.98069 -0.0486783 
0.0511092 -0.0486783 -9.9942 
-9.98276 -0.000479499 0.0540685 
-0.000479499 -9.9883 -0.051974 
0.0540685 -0.051974 -9.98642 
-9.98002 -0.00064737 0.0507694 
-0.00064737 -9.98702 -0.0504007 
0.0507694 -0.0504007 -9.99045 
-9.97751 -0.000344609 0.0562461 
-0.000344609 -9.97955 -0.0558967 
0.0562461 -0.0558967 -9.97158 
-9.97004 0.00587772 0.0464712 
0.00587772 -9.9735 -0.0507821 
0.0464712 -0.0507821 -9.98511 
-9.97288 -0.000175774 0.0521239 
-0.000175774 -9.97741 -0.0551797 
0.0521239 -0.0551797 -9.97835 
-9.97343 -0.00113045 0.0535678 
-0.00113045 -9.97758 -0.0542053 
0.0535678 -0.0542053 -9.97764 
-9.92254 -0.011364 -0.00786024 
-0.011364 -9.93685 0.0222769 
-0.00786024 0.0222769 -10.018 
-9.91835 -0.0128608 0.0155084 
-0.0128608 -9.92316 0.0208796 
0.0155084 0.0208796 -10.0359 
-9.93633 -0.0081213 0.0166405 
-0.0081213 -9.91445 0.00767025 
0.0166405 0.00767025 -10.0266 
-9.92091 -0.00942305 0.0102282 
-0.00942305 -9.93522 0.0211066 
0.0102282 0.0211066 -10.0213 
-9.93269 0.0037533 -0.00396571 
0.0037533 -9.92674 0.0162083 
-0.00396571 0.0162083 -10.0231 
-9.9349 -0.00478672 0.0231396 
-0.00478672 -9.93313 0.00503663 
0.0231396 0.00503663 -10.0145 
-9.92407 -0.00546964 0.0154777 
-0.00546964 -9.92551 0.0172545 
0.0154777 0.0172545 -10.033 
-9.93059 0.00701671 -0.00557704 
0.00701671 -9.92516 0.00367608 
-0.00557704 0.00367608 -10.0268 
-11.3538 -0.00589156 -0.539822 
-0.00589156 -8.0189 -1.05875 
-0.539822 -1.05875 -6.02186 
-9.46238 0.557955 -1.51675 
0.557955 -7.74165 -1.43911 
-1.51675 -1.43911 -8.19053 
-6.16505 3.30359 2.65216 
3.30359 -9.18815 -0.651286 
2.65216 -0.651286 -10.0414 
-9.33377 1.54422 -4.6504 
1.54422 -7.68624 -3.32715 
-4.6504 -3.32715 -8.37454 
-9.54618 0.148969 -0.429341 
0.148969 -10.2529 -0.673016 
-0.429341 -0.673016 -9.00133 
-9.4121 0.046061 -0.536508 
0.046061 -10.1691 0.212902 
-0.536508 0.212902 -9.2192 
-9.72506 0.263541 -0.768286 
0.263541 -10.156 -0.394077 
-0.768286 -0.394077 -8.91937 
-9.25373 0.160544 -0.644943 
0.160544 -9.92039 -0.221504 
-0.644943 -0.221504 -9.62632 
-9.8816 0.0036951 0.0111461 
0.0036951 -9.96582 -0.00695874 
0.0111461 -0.00695874 -10.1936 
-9.91347 0.00407206 -0.030147 
0.00407206 -10.0074 0.00984133 
-0.030147 0.00984133 -10.1201 
-9.9231 0.00918931 0.0604563 
0.00918931 -9.94815 0.00058496 
0.0604563 0.00058496 -10.1698 
-9.81206 -0.00647389 0.00105163 
-0.00647389 -9.98654 0.00789487 
0.00105163 0.00789487 -10.2424 
-9.9138 -0.00491091 0.00295768 
-0.00491091 -9.97292 -0.0213556 
0.00295768 -0.0213556 -10.1947 
-9.93553 -0.0121246 0.0398392 
-0.0121246 -9.965 0.0208206 
0.0398392 0.0208206 -10.1809 
-9.93541 -0.0104324 -0.0171379 
-0.0104324 -9.9974 0.0130148 
-0.0171379 0.0130148 -10.1486 
-9.94397 0.0112173 -0.00441887 
0.0112173 -9.95895 -0.0229752 
-0.00441887 -0.0229752 -10.1785 
-9.92626 1.25103e-05 -0.0133774 
1.25103e-05 -9.93604 0.0543138 
-0.0133774 0.0543138 -9.92829 
-9.93971 0.0220348 -0.00168153 
0.0220348 -9.91184 0.0251584 
-0.00168153 0.0251584 -9.93904 
-9.9703 -0.0033722 -0.0313657 
-0.0033722 -9.94198 0.0510317 
-0.0313657 0.0510317 -9.87831 
-9.93095 -0.0102565 -0.0177985 
-0.0102565 -9.94038 0.0525009 
-0.0177985 0.0525009 -9.91925 
-9.95472 0.00572431 -0.0136035 
0.00572431 -9.95823 0.051694 
-0.0136035 0.051694 -9.91254 
-9.92375 2.84696e-05 -0.0126396 
2.84696e-05 -9.9444 0.0155395 
-0.0126396 0.0155395 -9.95734 
-9.93816 -0.00307321 -0.0140213 
-0.00307321 -9.94647 0.055156 
-0.0140213 0.055156 -9.94086 
-9.94348 -0.00176795 -0.00995345 
-0.00176795 -9.94724 0.0462117 
-0.00995345 0.0462117 -9.93477 
-9.9238 -0.000475399 -0.017338 
-0.000475399 -9.96022 0.0483787 
-0.017338 0.0483787 -9.8963 
-9.92469 -0.0002319 -0.025036 
-0.0002319 -9.958 0.0575303 
-0.025036 0.0575303 -9.89762 
-9.921 -0.00512236 -0.0447653 
-0.00512236 -9.94315 0.0322868 
-0.0447653 0.0322868 -9.91616 
-9.93216 0.00795505 -0.0187957 
0.00795505 -9.96087 0.0740747 
-0.0187957 0.0740747 -9.88728 
-9.9526 -0.00661799 -0.0173859 
-0.00661799 -9.96658 0.0480681 
-0.0173859 0.0480681 -9.91631 
-9.96064 -0.0133522 -0.012178 
-0.0133522 -9.97177 0.0646953 
-0.012178 0.0646953 -9.90309 
-9.95514 -0.0032494 -0.0272983 
-0.0032494 -9.96311 0.0368918 
-0.0272983 0.0368918 -9.91724 
-9.95283 -0.00169239 -0.013847 
-0.00169239 -9.95175 0.039702 
-0.013847 0.039702 -9.93092 
-10.1106 -0.0816944 -0.183298 
-0.0816944 -10.0542 0.0914646 
-0.183298 0.0914646 -9.69238 
-10.0976 -0.0948247 -0.273412 
-0.0948247 -9.99168 0.10806 
-0.273412 0.10806 -9.76782 
-9.89379 -0.051474 -0.0676756 
-0.051474 -9.99027 -0.00745928 
-0.0676756 -0.00745928 -9.97306 
-9.93687 -0.00144047 -0.148427 
-0.00144047 -10.0631 0.0891646 
-0.148427 0.0891646 -9.85717 
-10.1267 -0.0271777 -0.178288 
-0.0271777 -9.87515 0.208004 
-0.178288 0.208004 -9.61588 
-9.73144 -0.146034 -0.0250237 
-0.146034 -9.98676 -0.215743 
-0.0250237 -0.215743 -9.8995 
-10.0789 -0.276715 -0.2624 
-0.276715 -9.99351 0.378616 
-0.2624 0.378616 -9.54531 
-10.032 0.0361663 -0.105767 
0.0361663 -9.88897 0.559618 
-0.105767 0.559618 -9.69668 
-9.88152 0.0288758 0.126256 
0.0288758 -9.92387 0.0405194 
0.126256 0.0405194 -9.94473 
-9.82495 0.0319958 0.0730162 
0.0319958 -9.96132 -0.00438474 
0.0730162 -0.00438474 -9.96385 
-9.83174 0.00516235 0.107322 
0.00516235 -9.92426 0.0359973 
0.107322 0.0359973 -9.99413 
-9.95365 0.0159273 0.190084 
0.0159273 -9.92954 0.0285664 
0.190084 0.0285664 -9.86693 
-9.91181 0.040374 0.147938 
0.040374 -9.85756 0.0490158 
0.147938 0.0490158 -9.9039 
-9.84713 0.0196944 0.107827 
0.0196944 -9.93242 -0.0627172 
0.107827 -0.0627172 -9.89373 
-9.83789 0.000955993 0.126708 
0.000955993 -9.8917 0.0459534 
0.126708 0.0459534 -9.94369 
-9.85779 0.0240477 0.102554 
0.0240477 -9.89912 -0.00493577 
0.102554 -0.00493577 -9.91636 
-9.74771 -0.0896904 0.0845411 
-0.0896904 -9.89465 -0.0806928 
0.0845411 -0.0806928 -10.021 
-9.81033 0.0483527 0.158775 
0.0483527 -9.94249 0.00658891 
0.158775 0.00658891 -9.91056 
-9.87429 0.0035546 0.0680311 
0.0035546 -9.95744 0.0641394 
0.0680311 0.0641394 -9.83166 
-9.814 -0.043392 0.109089 
-0.043392 -9.90297 -0.0333902 
0.109089 -0.0333902 -9.94642 
-9.65337 0.000165922 0.0648159 
0.000165922 -10.0011 0.00695771 
0.0648159 0.00695771 -10.0388 
-9.913 0.00997236 0.0504484 
0.00997236 -9.88073 0.00660086 
0.0504484 0.00660086 -9.89956 
-9.87237 0.0259995 0.151986 
0.0259995 -9.90026 -0.0132593 
0.151986 -0.0132593 -9.92065 
-9.86085 -0.00449546 0.0716308 
-0.00449546 -9.90341 0.0316799 
0.0716308 0.0316799 -9.92902 
-10.2614 -0.0179888 0.0606534 
-0.0179888 -10.2398 0.0138567 
0.0606534 0.0138567 -10.2092 
-10.2122 0.036382 0.0426865 
0.036382 -10.2095 -0.00916669 
0.0426865 -0.00916669 -10.2887 
-10.1911 -0.0105015 -0.000180829 
-0.0105015 -10.3747 0.0356019 
-0.000180829 0.0356019 -10.1446 
-10.2093 -0.0354708 0.0485726 
-0.0354708 -10.1973 -0.0181991 
0.0485726 -0.0181991 -10.3039 
-10.1802 0.0385019 0.0193547 
0.0385019 -10.1725 0.00400869 
0.0193547 0.00400869 -10.3316 
-10.2023 0.0417303 0.0905281 
0.0417303 -10.1267 -0.00128285 
0.0905281 -0.00128285 -10.3553 
-10.1751 0.0289457 0.068551 
0.0289457 -10.1646 -0.0206847 
0.068551 -0.0206847 -10.3446 
-10.1682 0.00137864 0.0602871 
0.00137864 -10.1774 -0.015414 
0.0602871 -0.015414 -10.3388 
-9.94139 0.00410262 0.0525447 
0.00410262 -9.94079 -0.0480138 
0.0525447 -0.0480138 -9.95084 
-9.93937 0.000239532 0.0559141 
0.000239532 -9.9401 -0.0481824 
0.0559141 -0.0481824 -9.95355 
-9.93016 5.21703e-05 0.0540674 
5.21703e-05 -9.94652 -0.0477359 
0.0540674 -0.0477359 -9.95633 
-9.94158 0.00941938 0.0510053 
0.00941938 -9.93979 -0.0543288 
0.0510053 -0.0543288 -9.95166 
-9.93288 -0.000785697 0.0505032 
-0.000785697 -9.93992 -0.0522789 
0.0505032 -0.0522789 -9.94134 
-9.92776 0.000679012 0.0538353 
0.000679012 -9.93699 -0.0521067 
0.0538353 -0.0521067 -9.94938 
-9.93017 -0.00133627 0.0512732 
-0.00133627 -9.93607 -0.0509371 
0.0512732 -0.0509371 -9.9479 
-9.93068 -0.00597694 0.0463063 
-0.00597694 -9.94085 -0.0513979 
0.0463063 -0.0513979 -9.94261 
-9.82726 -0.0618417 -0.0442805 
-0.0618417 -9.90204 0.0402419 
-0.0442805 0.0402419 -9.97651 
-9.79525 -0.00978845 -0.0923414 
-0.00978845 -9.95171 0.016032 
-0.0923414 0.016032 -9.95884 
-9.83111 -0.0190868 -0.0430698 
-0.0190868 -9.93414 -0.00330497 
-0.0430698 -0.00330497 -9.94054 
-9.95989 -0.0124679 0.00274151 
-0.0124679 -9.85339 -0.0302128 
0.00274151 -0.0302128 -9.89252 
-9.75674 -0.00350208 -0.0591829 
-0.00350208 -9.91464 -0.00510515 
-0.0591829 -0.00510515 -9.97444 
-9.77735 0.0001065 -0.0661603 
0.0001065 -9.94914 0.00416069 
-0.0661603 0.00416069 -9.91934 
-9.74663 0.00327677 -0.0835154 
0.00327677 -9.91817 -0.0133497 
-0.0835154 -0.0133497 -9.98102 
-9.74191 -0.01543 -0.063695 
-0.01543 -9.96105 0.00245394 
-0.063695 0.00245394 -9.94287 
-10.6768 0.314516 -0.460784 
0.314516 -10.4251 -0.751206 
-0.460784 -0.751206 -12.7915 
-9.66008 0.0613479 -0.240089 
0.0613479 -11.0951 0.665246 
-0.240089 0.665246 -13.1382 
-10.1819 0.505069 -0.680982 
0.505069 -11.0086 0.207276 
-0.680982 0.207276 -12.7029 
-11.9474 -0.171995 -0.674709 
-0.171995 -12.7788 -1.05491 
-0.674709 -1.05491 -9.1672 
-9.79999 -0.155369 0.421564 
-0.155369 -10.5845 0.023194 
0.421564 0.023194 -11.3279 
-8.82282 0.307876 0.0420999 
0.307876 -10.9067 -0.124828 
0.0420999 -0.124828 -11.9828 
-10.6832 -0.250243 0.0602649 
-0.250243 -10.2425 0.113416 
0.0602649 0.113416 -10.7867 
-9.82723 -0.0759598 0.755723 
-0.0759598 -10.5511 0.102156 
0.755723 0.102156 -11.334 
-9.59676 -0.726912 -0.430645 
-0.726912 -9.81564 0.394534 
-0.430645 0.394534 -10.495 
-9.5712 -0.178304 -0.0470188 
-0.178304 -9.67304 0.133045 
-0.0470188 0.133045 -10.6631 
-9.85396 -0.744566 -0.30783 
-0.744566 -9.82034 0.026095 
-0.30783 0.026095 -10.2331 
-10.129 0.647261 -0.402727 
0.647261 -10.1759 0.320067 
-0.402727 0.320067 -9.60255 
-10.9862 -0.846824 -0.350148 
-0.846824 -10.8034 0.88812 
-0.350148 0.88812 -10.5479 
-10.728 -0.5211 0.0572664 
-0.5211 -10.4563 -0.468162 
0.0572664 -0.468162 -11.1533 
-10.9432 -1.02959 0.142975 
-1.02959 -9.63494 0.323347 
0.142975 0.323347 -11.7594 
-10.2941 -0.408495 0.381279 
-0.408495 -6.06804 2.05906 
0.381279 2.05906 -15.9754 
-9.94221 -0.00170661 0.0156366 
-0.00170661 -9.93809 0.0626011 
0.0156366 0.0626011 -9.94217 
-9.94741 -7.64837e-05 0.0130991 
-7.64837e-05 -9.9534 0.0512617 
0.0130991 0.0512617 -9.92166 
-9.95016 0.00566555 0.0179277 
0.00566555 -9.96015 0.0628151 
0.0179277 0.0628151 -9.91216 
-9.94906 -0.00346268 0.0105967 
-0.00346268 -9.95114 0.0517731 
0.0105967 0.0517731 -9.92227 
-9.93674 0.00147202 0.0212424 
0.00147202 -9.94081 0.0608843 
0.0212424 0.0608843 -9.95541 
-9.94531 0.000815278 0.0189988 
0.000815278 -9.96649 0.0615544 
0.0189988 0.0615544 -9.92117 
-9.95004 0.00225728 0.0265972 
0.00225728 -9.95027 0.0503866 
0.0265972 0.0503866 -9.93265 
-9.94998 0.00642158 0.0243356 
0.00642158 -9.94464 0.0565744 
0.0243356 0.0565744 -9.93835 
-10.2213 -0.0211054 -0.138323 
-0.0211054 -9.99719 0.0680177 
-0.138323 0.0680177 -10.3775 
-9.93936 -0.151354 -0.0576876 
-0.151354 -10.1735 0.241454 
-0.0576876 0.241454 -10.4831 
-10.0955 -0.302653 0.207789 
-0.302653 -10.0306 -0.0578484 
0.207789 -0.0578484 -10.4698 
-10.2099 0.29197 -0.0655777 
0.29197 -10.3705 0.0160467 
-0.0655777 0.0160467 -10.0156 
-10.1944 -0.166221 -0.076866 
-0.166221 -9.69834 0.388553 
-0.076866 0.388553 -10.3966 
-9.81372 -0.15603 -0.0048276 
-0.15603 -10.2719 0.0246686 
-0.0048276 0.0246686 -10.2037 
-10.0722 -0.00817225 0.0313221 
-0.00817225 -9.91285 -0.00450093 
0.0313221 -0.00450093 -10.3043 
-10.1107 -0.0605593 0.0227982 
-0.0605593 -9.9061 -0.0932175 
0.0227982 -0.0932175 -10.2725 
-9.86697 0.0408822 0.0538449 
0.0408822 -9.87502 0.0598027 
0.0538449 0.0598027 -9.83688 
-9.92407 0.0460084 0.0932107 
0.0460084 -9.91409 0.0625487 
0.0932107 0.0625487 -9.74071 
-9.8818 0.0377288 0.0793213 
0.0377288 -9.84714 0.0336975 
0.0793213 0.0336975 -9.84993 
-9.85382 0.00248819 0.11154 
0.00248819 -9.84357 0.0125742 
0.11154 0.0125742 -9.88148 
-10.0994 0.0516175 0.188114 
0.0516175 -9.9049 0.0102854 
0.188114 0.0102854 -9.77629 
-10.001 0.0475976 0.0122194 
0.0475976 -9.8403 0.0718402 
0.0122194 0.0718402 -9.93936 
-10.0323 0.0621687 0.196113 
0.0621687 -10.0517 0.0925606 
0.196113 0.0925606 -9.6966 
-9.79254 0.0232632 0.425288 
0.0232632 -10.1305 -0.0455482 
0.425288 -0.0455482 -9.85764 
-9.85311 -0.00850803 -0.102358 
-0.00850803 -9.86783 0.0491195 
-0.102358 0.0491195 -9.91427 
-9.89379 -0.0235617 -0.091472 
-0.0235617 -9.91877 0.0030675 
-0.091472 0.0030675 -9.82266 
-9.86088 -0.0293253 -0.0724983 
-0.0293253 -9.84928 0.0191056 
-0.0724983 0.0191056 -9.92505 
-9.84262 -0.0340245 -0.101101 
-0.0340245 -9.90271 0.016893 
-0.101101 0.016893 -9.88988 
-9.84683 0.00400348 -0.0961622 
0.00400348 -9.90685 0.0207681 
-0.0961622 0.0207681 -9.90565 
-9.83505 -0.0262189 -0.0771192 
-0.0262189 -9.90064 -0.000324984 
-0.0771192 -0.000324984 -9.92364 
-9.87061 -0.00666462 -0.089779 
-0.00666462 -9.90347 0.00152843 
-0.089779 0.00152843 -9.88525 
-9.93331 0.0146729 -0.0898587 
0.0146729 -9.86273 0.0111501 
-0.0898587 0.0111501 -9.86329 
-10.1312 -0.724276 0.623024 
-0.724276 -11.3976 -0.930768 
0.623024 -0.930768 -10.5966 
-10.2958 -1.08255 0.141403 
-1.08255 -10.523 0.0709803 
0.141403 0.0709803 -11.3066 
-10.5676 -0.124263 -0.475664 
-0.124263 -10.5507 0.143772 
-0.475664 0.143772 -11.0071 
-6.65014 -1.32338 0.57996 
-1.32338 -10.2012 -0.571756 
0.57996 -0.571756 -15.274 
-9.83306 -0.328887 0.276089 
-0.328887 -9.77948 -0.11769 
0.276089 -0.11769 -10.1503 
-9.9774 -0.534909 0.217584 
-0.534909 -9.65004 -0.249275 
0.217584 -0.249275 -10.1354 
-9.78884 -0.37633 0.278643 
-0.37633 -9.72181 -0.222326 
0.278643 -0.222326 -10.2522 
-9.61923 0.189871 0.500037 
0.189871 -10.4642 -0.447212 
0.500037 -0.447212 -9.6794 
-9.94632 0.00648953 -0.0453749 
0.00648953 -9.89425 0.0492453 
-0.0453749 0.0492453 -9.89426 
-9.88528 0.0158301 -0.0458271 
0.0158301 -9.94533 0.0166679 
-0.0458271 0.0166679 -9.90422 
-9.94391 -0.00758993 -0.0834061 
-0.00758993 -9.89759 0.071854 
-0.0834061 0.071854 -9.89333 
-9.94767 0.0137216 -0.0944338 
0.0137216 -9.88401 0.0583121 
-0.0944338 0.0583121 -9.90315 
-9.95808 -0.00932078 -0.068075 
-0.00932078 -9.92012 0.0736719 
-0.068075 0.0736719 -9.92017 
-9.91939 0.0257596 -0.0609872 
0.0257596 -9.94989 0.0108748 
-0.0609872 0.0108748 -9.92908 
-9.95897 0.0166422 -0.0497576 
0.0166422 -9.92516 0.0528295 
-0.0497576 0.0528295 -9.91423 
-9.94946 0.0105974 -0.057322 
0.0105974 -9.93078 0.0518358 
-0.057322 0.0518358 -9.91813 
-9.94432 0.00766822 -0.0746774 
0.00766822 -9.91221 0.0636592 
-0.0746774 0.0636592 -9.86588 
-9.97213 -0.0159322 0.0267311 
-0.0159322 -9.92617 0.121932 
0.0267311 0.121932 -9.8241 
-9.90248 0.0138928 -0.0306497 
0.0138928 -9.88695 0.0308216 
-0.0306497 0.0308216 -9.93297 
-9.9592 0.0284188 -0.0780471 
0.0284188 -9.8741 0.072359 
-0.0780471 0.072359 -9.88909 
-9.93838 0.019002 -0.0121001 
0.019002 -9.90505 0.00881597 
-0.0121001 0.00881597 -9.9281 
-10.058 0.00592331 -0.0125183 
0.00592331 -9.83969 0.079123 
-0.0125183 0.079123 -9.87385 
-9.93543 0.00341501 -0.0762648 
0.00341501 -9.94624 0.0663956 
-0.0762648 0.0663956 -9.88987 
-9.92773 0.010878 -0.0239455 
0.010878 -9.93901 0.0598943 
-0.0239455 0.0598943 -9.90479 
-9.99584 0.000108677 -0.0649863 
0.000108677 -9.99235 -0.0421208 
-0.0649863 -0.0421208 -9.98914 
-9.99525 -0.00196784 -0.0635679 
-0.00196784 -9.99061 -0.0411609 
-0.0635679 -0.0411609 -9.99146 
-9.98587 -0.00136174 -0.0664415 
-0.00136174 -9.98765 -0.0385612 
-0.0664415 -0.0385612 -10.0038 
-9.99118 -0.00231324 -0.0661599 
-0.00231324 -9.9901 -0.0424811 
-0.0661599 -0.0424811 -9.99604 
-9.98687 -0.00271495 -0.0645175 
-0.00271495 -9.98203 -0.0441019 
-0.0645175 -0.0441019 -9.98754 
-9.97685 0.00356661 -0.063665 
0.00356661 -9.98784 -0.0437579 
-0.063665 -0.0437579 -9.99174 
-9.98652 -0.00208681 -0.063154 
-0.00208681 -9.98347 -0.0438709 
-0.063154 -0.0438709 -9.98645 
-9.98219 0.00173985 -0.066377 
0.00173985 -9.98954 -0.0390448 
-0.066377 -0.0390448 -9.9847 
-9.9497 -0.0348013 0.0735747 
-0.0348013 -9.93622 0.030422 
0.0735747 0.030422 -10.0402 
-9.95603 -0.0933953 0.12825 
-0.0933953 -9.93852 0.0134974 
0.12825 0.0134974 -10.0315 
-9.93502 -0.103534 0.120045 
-0.103534 -9.91393 0.00280985 
0.120045 0.00280985 -10.0772 
-9.73353 -0.0849433 0.209184 
-0.0849433 -10.0747 0.00924492 
0.209184 0.00924492 -10.1179 
-9.89441 -0.064258 0.069511 
-0.064258 -9.89852 0.0247688 
0.069511 0.0247688 -9.99361 
-9.87893 -0.0712492 0.0517439 
-0.0712492 -9.92028 0.0364015 
0.0517439 0.0364015 -9.98732 
-9.88595 -0.0454095 0.0572539 
-0.0454095 -9.89859 0.00779535 
0.0572539 0.00779535 -10.002 
-9.87667 -0.0662305 0.0565662 
-0.0662305 -9.91323 0.0269237 
0.0565662 0.0269237 -9.99663 
-10.5662 -0.144707 -0.0423662 
-0.144707 -10.2455 0.501314 
-0.0423662 0.501314 -12.1955 
-10.6757 -0.0978075 0.0748277 
-0.0978075 -10.4485 0.110979 
0.0748277 0.110979 -11.8829 
-9.98418 -0.162093 0.0493096 
-0.162093 -11.5946 0.197318 
0.0493096 0.197318 -11.4284 
-10.8012 -0.0582171 0.147491 
-0.0582171 -10.4391 -0.267701 
0.147491 -0.267701 -11.7669 
-8.9293 -0.129806 -0.527747 
-0.129806 -9.76549 0.543241 
-0.527747 0.543241 -9.99132 
-8.77578 -0.15295 -0.693972 
-0.15295 -9.92579 0.108291 
-0.693972 0.108291 -9.98454 
-8.78404 0.519666 -1.91664 
0.519666 -9.11306 0.436447 
-1.91664 0.436447 -10.789 
-10.4139 0.589985 -0.840878 
0.589985 -10.9584 -0.668239 
-0.840878 -0.668239 -7.3138 
-11.8519 0.0121243 0.0912547 
0.0121243 -11.5201 0.0475314 
0.0912547 0.0475314 -11.4128 
-12.0355 0.137782 0.697494 
0.137782 -11.0139 0.782997 
0.697494 0.782997 -11.7354 
-11.7925 -0.309311 0.0858764 
-0.309311 -11.3699 0.0538333 
0.0858764 0.0538333 -11.6223 
-10.2677 -0.0734975 0.426406 
-0.0734975 -11.2333 -0.313725 
0.426406 -0.313725 -13.2838 
-9.34664 0.0396065 -1.05741 
0.0396065 -10.7504 -0.341625 
-1.05741 -0.341625 -10.3989 
-10.7712 -1.57002 -2.14211 
-1.57002 -8.32861 -1.67009 
-2.14211 -1.67009 -11.3961 
-9.793 -0.333114 -1.06394 
-0.333114 -10.0869 -0.316752 
-1.06394 -0.316752 -10.616 
-11.4962 -1.19045 -0.324831 
-1.19045 -9.02136 1.3586 
-0.324831 1.3586 -9.97842 
-9.86455 -0.00354493 0.0923559 
-0.00354493 -9.82817 -0.0442147 
0.0923559 -0.0442147 -9.82128 
-9.8783 -0.059083 0.0351572 
-0.059083 -9.89145 -0.0562832 
0.0351572 -0.0562832 -9.74425 
-9.92547 -0.104932 0.108133 
-0.104932 -9.90612 -0.00742672 
0.108133 -0.00742672 -9.68242 
-9.90294 -0.0378068 0.105 
-0.0378068 -9.82957 -0.0634167 
0.105 -0.0634167 -9.78149 
-9.96337 -0.0303303 0.0652508 
-0.0303303 -9.86829 -0.0137814 
0.0652508 -0.0137814 -9.79713 
-9.88871 -0.0139819 0.0373798 
-0.0139819 -9.89911 -0.0303854 
0.0373798 -0.0303854 -9.84097 
-9.86625 -0.0181908 0.062593 
-0.0181908 -9.87928 -0.0258589 
0.062593 -0.0258589 -9.88326 
-9.80153 -0.0484065 0.0851169 
-0.0484065 -9.91795 -0.00911009 
0.0851169 -0.00911009 -9.90931 
-9.93289 0.0054097 0.00649057 
0.0054097 -9.96538 -0.0868789 
0.00649057 -0.0868789 -9.89514 
-9.98259 0.0103597 -0.0324648 
0.0103597 -9.95434 -0.103165 
-0.0324648 -0.103165 -9.85649 
-9.9426 0.0344943 0.00445024 
0.0344943 -9.97936 -0.0878778 
0.00445024 -0.0878778 -9.87145 
-9.94896 -0.0172721 -0.0304024 
-0.0172721 -10.0201 -0.0633592 
-0.0304024 -0.0633592 -9.82435 
-9.92989 0.00186039 -0.000122156 
0.00186039 -9.90812 -0.0658 
-0.000122156 -0.0658 -9.87185 
-9.92493 -0.000446051 0.00773817 
-0.000446051 -9.9103 -0.0604703 
0.00773817 -0.0604703 -9.87464 
-9.9248 -0.000730416 -0.00242281 
-0.000730416 -9.92026 -0.06262 
-0.00242281 -0.06262 -9.8648 
-9.91368 -0.00317263 -0.00435868 
-0.00317263 -9.90627 -0.0748378 
-0.00435868 -0.0748378 -9.88991 
-9.99032 -0.00285265 -0.0526083 
-0.00285265 -9.99444 -0.0540175 
-0.0526083 -0.0540175 -9.99179 
-9.99238 -0.00062997 -0.0549234 
-0.00062997 -9.9955 -0.054618 
-0.0549234 -0.054618 -9.98867 
-9.98793 -0.00101096 -0.0502922 
-0.00101096 -9.98498 -0.0580408 
-0.0502922 -0.0580408 -10.0036 
-9.99067 -0.00261923 -0.0542687 
-0.00261923 -9.99087 -0.0561717 
-0.0542687 -0.0561717 -9.99502 
-9.98639 0.00624549 -0.0557827 
0.00624549 -9.97876 -0.053949 
-0.0557827 -0.053949 -9.99327 
-9.98315 -0.003756 -0.0555586 
-0.003756 -9.98658 -0.0552565 
-0.0555586 -0.0552565 -9.98869 
-9.98446 -0.0027909 -0.05511 
-0.0027909 -9.98672 -0.0534307 
-0.05511 -0.0534307 -9.98724 
-9.98912 0.00351453 -0.0513382 
0.00351453 -9.98409 -0.057684 
-0.0513382 -0.057684 -9.98521 
-9.93635 -0.0166123 -0.00356419 
-0.0166123 -9.96197 -0.0170139 
-0.00356419 -0.0170139 -9.96866 
-9.94252 -0.0120615 -0.00230999 
-0.0120615 -9.93648 -0.013014 
-0.00230999 -0.013014 -9.98798 
-9.94299 -0.00760809 0.0093552 
-0.00760809 -9.95959 -0.00759193 
0.0093552 -0.00759193 -9.96441 
-9.92403 0.0176486 0.0101765 
0.0176486 -9.97764 -0.000410536 
0.0101765 -0.000410536 -9.96531 
-9.96581 -0.00847868 0.00664674 
-0.00847868 -9.96879 -0.0100616 
0.00664674 -0.0100616 -10.0243 
-9.95386 -0.00890759 0.00102024 
-0.00890759 -9.9695 -0.0239643 
0.00102024 -0.0239643 -10.0356 
-9.95633 -0.0241871 0.00198781 
-0.0241871 -9.97445 -0.0103495 
0.00198781 -0.0103495 -10.0281 
-9.95792 -0.00685993 -0.00127553 
-0.00685993 -9.97252 -0.0104762 
-0.00127553 -0.0104762 -10.0285 
-9.99388 -0.00205286 0.0335635 
-0.00205286 -9.99551 -0.0760803 
0.0335635 -0.0760803 -9.98559 
-9.99134 3.48755e-05 0.0321368 
3.48755e-05 -9.99451 -0.072855 
0.0321368 -0.072855 -9.98913 
-9.9847 0.000346032 0.0268507 
0.000346032 -9.98293 -0.0762453 
0.0268507 -0.0762453 -10.0073 
-9.98797 0.00430416 0.0313112 
0.00430416 -9.9913 -0.0765993 
0.0313112 -0.0765993 -9.9957 
-9.9807 -0.00043176 0.0377033 
-0.00043176 -9.9935 -0.0772432 
0.0377033 -0.0772432 -9.98586 
-9.99095 -0.00362444 0.0301628 
-0.00362444 -9.97257 -0.0737524 
0.0301628 -0.0737524 -9.99654 
-9.98286 0.00048662 0.0372695 
0.00048662 -9.98993 -0.0731219 
0.0372695 -0.0731219 -9.98728 
-9.98944 -0.00317734 0.0318128 
-0.00317734 -9.98286 -0.0732045 
0.0318128 -0.0732045 -9.98777 
-9.94728 -0.00820769 0.0181521 
-0.00820769 -9.9563 -0.000598402 
0.0181521 -0.000598402 -9.91013 
-9.9397 -0.0126147 0.00306824 
-0.0126147 -9.96692 0.00283259 
0.00306824 0.00283259 -9.9071 
-9.93553 -0.000295317 0.0103887 
-0.000295317 -9.94729 0.0144102 
0.0103887 0.0144102 -9.9309 
-9.95291 -0.0260289 0.0218165 
-0.0260289 -9.94228 0.044267 
0.0218165 0.044267 -9.91852 
-9.93787 -0.00113877 0.0256054 
-0.00113877 -9.94213 0.00393396 
0.0256054 0.00393396 -9.90103 
-9.9204 -0.00941391 0.00615619 
-0.00941391 -9.9608 -0.00314785 
0.00615619 -0.00314785 -9.89983 
-9.93775 -0.015989 0.0213922 
-0.015989 -9.94098 -0.00320644 
0.0213922 -0.00320644 -9.9023 
-9.91501 -0.012329 0.0211761 
-0.012329 -9.9821 -0.0137924 
0.0211761 -0.0137924 -9.88392 
-10.5788 -0.16919 0.179192 
-0.16919 -11.1892 -0.160544 
0.179192 -0.160544 -10.7877 
-10.8981 0.00628826 0.285076 
0.00628826 -11.0728 -0.562514 
0.285076 -0.562514 -10.5848 
-10.6049 0.121556 0.122143 
0.121556 -11.3081 -0.0307886 
0.122143 -0.0307886 -10.6427 
-10.6757 -0.0368218 0.207715 
-0.0368218 -10.6155 0.040006 
0.207715 0.040006 -11.2645 
-9.189 -0.152507 0.0264975 
-0.152507 -10.3467 -0.208897 
0.0264975 -0.208897 -10.6554 
-9.94159 0.575933 -0.898515 
0.575933 -10.069 0.982022 
-0.898515 0.982022 -10.1805 
-9.15821 -0.0910292 -0.449613 
-0.0910292 -10.2271 0.269496 
-0.449613 0.269496 -10.8057 
-9.39136 0.0455744 -0.650432 
0.0455744 -9.87598 -0.34397 
-0.650432 -0.34397 -10.9237 
-9.8735 -0.0696649 0.0627769 
-0.0696649 -9.8944 -0.0574467 
0.0627769 -0.0574467 -9.85303 
-9.8803 -0.0571596 0.0909741 
-0.0571596 -9.88553 -0.0691924 
0.0909741 -0.0691924 -9.85509 
-9.94221 -0.0658139 0.072143 
-0.0658139 -9.83782 -0.0497223 
0.072143 -0.0497223 -9.84089 
-9.93453 -0.0711791 0.0562706 
-0.0711791 -9.8761 -0.00620846 
0.0562706 -0.00620846 -9.8103 
-10.0015 -0.0710412 0.193435 
-0.0710412 -10.1001 -0.0462873 
0.193435 -0.0462873 -9.86545 
-10.051 -0.107905 0.166944 
-0.107905 -10.0077 -0.0814454 
0.166944 -0.0814454 -9.90829 
-10.0971 -0.0642081 0.10963 
-0.0642081 -9.89199 -0.0585788 
0.10963 -0.0585788 -9.97783 
-10.0375 -0.213183 0.193599 
-0.213183 -10.0237 -0.150471 
0.193599 -0.150471 -9.90581 
-9.97567 0.000748398 -0.0330145 
0.000748398 -9.97502 0.0647583 
-0.0330145 0.0647583 -9.97783 
-9.9781 -0.000930648 -0.026558 
-0.000930648 -9.97626 0.0682935 
-0.026558 0.0682935 -9.97417 
-9.98103 0.00505229 -0.0300686 
0.00505229 -9.97242 0.0682249 
-0.0300686 0.0682249 -9.97508 
-9.97395 0.00167243 -0.0322154 
0.00167243 -9.98186 0.0634817 
-0.0322154 0.0634817 -9.97272 
-9.98559 -0.00406742 -0.0311921 
-0.00406742 -9.98476 0.0653636 
-0.0311921 0.0653636 -9.98621 
-9.98616 0.00136861 -0.0346365 
0.00136861 -9.98882 0.0657685 
-0.0346365 0.0657685 -9.98158 
-9.98414 -0.000286777 -0.0310926 
-0.000286777 -9.98578 0.0649826 
-0.0310926 0.0649826 -9.98664 
-9.97891 0.00386588 -0.0278716 
0.00386588 -9.98182 0.0594603 
-0.0278716 0.0594603 -9.99583 
-9.99554 -0.000572286 -0.00285954 
-0.000572286 -9.98306 -0.00274029 
-0.00285954 -0.00274029 -9.97942 
-9.99837 -0.00160223 0.00588148 
-0.00160223 -9.98245 -0.00542038 
0.00588148 -0.00542038 -9.9772 
-9.96153 -0.0088129 0.000118126 
-0.0088129 -9.99893 0.00676132 
0.000118126 0.00676132 -9.99755 
-9.9894 -0.0020414 -7.88365e-05 
-0.0020414 -9.98709 -0.0013831 
-7.88365e-05 -0.0013831 -9.98152 
-9.99131 -0.000766743 -0.00467835 
-0.000766743 -10.0001 -0.0039716 
-0.00467835 -0.0039716 -9.98475 
-10.0008 -0.00188969 -0.00387953 
-0.00188969 -9.98579 -0.000193177 
-0.00387953 -0.000193177 -9.98959 
-9.9977 -0.000732729 -0.00159016 
-0.000732729 -9.99071 0.00251935 
-0.00159016 0.00251935 -9.98778 
-9.98698 0.0122582 0.00492309 
0.0122582 -9.98181 -0.00020589 
0.00492309 -0.00020589 -10.0074 
-7.3192 -3.34637 -2.14815 
-3.34637 -9.84841 0.453516 
-2.14815 0.453516 -9.06556 
-9.07017 -0.596675 2.44345 
-0.596675 -8.22864 -1.69291 
2.44345 -1.69291 -8.93435 
-11.5578 0.831357 1.78582 
0.831357 -9.0445 -0.743902 
1.78582 -0.743902 -5.63086 
-8.0819 -2.25769 5.06859 
-2.25769 -8.9724 -3.75442 
5.06859 -3.75442 -9.17887 
-9.40765 -0.665559 0.336576 
-0.665559 -10.3491 -0.749412 
0.336576 -0.749412 -9.46188 
-9.58903 -0.125223 0.48903 
-0.125223 -10.39 -0.608426 
0.48903 -0.608426 -9.23959 
-9.54652 -0.325067 1.28256 
-0.325067 -10.6272 -0.0983714 
1.28256 -0.0983714 -9.0449 
-9.29636 -0.00733805 0.288535 
-0.00733805 -9.46749 0.587207 
0.288535 0.587207 -10.4548 
-10.0875 -0.0373019 0.00774421 
-0.0373019 -10.0844 -0.0173543 
0.00774421 -0.0173543 -10.0639 
-10.0714 -0.016381 0.0375402 
-0.016381 -10.0514 -0.00026527 
0.0375402 -0.00026527 -10.1129 
-10.0961 -0.0324862 0.00587337 
-0.0324862 -10.054 0.00288605 
0.00587337 0.00288605 -10.0857 
-10.1466 -0.0556882 2.79574e-05 
-0.0556882 -10.0766 0.0131481 
2.79574e-05 0.0131481 -10.0126 
-10.0365 -0.0302947 0.010347 
-0.0302947 -10.0278 -0.0208507 
0.010347 -0.0208507 -9.97803 
-9.99088 -0.0432648 0.0093269 
-0.0432648 -10.0096 0.0438444 
0.0093269 0.0438444 -10.0418 
-10.034 0.00167782 -0.00680389 
0.00167782 -10.0089 0.0044451 
-0.00680389 0.0044451 -9.99937 
-10.0159 0.0399319 -0.00899981 
0.0399319 -10.0185 -0.0498775 
-0.00899981 -0.0498775 -10.0078 
-9.9854 -0.00377032 0.0273265 
-0.00377032 -9.98635 0.0704897 
0.0273265 0.0704897 -9.98017 
-9.9839 0.000815131 0.0245791 
0.000815131 -9.98125 0.0718033 
0.0245791 0.0718033 -9.98676 
-9.98242 0.000241825 0.016873 
0.000241825 -9.98746 0.075683 
0.016873 0.075683 -9.98204 
-9.98565 0.00103794 0.0131318 
0.00103794 -9.97944 0.0737627 
0.0131318 0.0737627 -9.98683 
-9.9739 -0.000245496 0.0163469 
-0.000245496 -9.97229 0.0792457 
0.0163469 0.0792457 -9.97595 
-9.97249 -0.000939336 0.0163291 
-0.000939336 -9.97521 0.0796542 
0.0163291 0.0796542 -9.97445 
-9.97302 0.0010005 0.0167679 
0.0010005 -9.97317 0.0798725 
0.0167679 0.0798725 -9.97596 
-9.97534 -8.05901e-05 0.0198781 
-8.05901e-05 -9.97863 0.0779337 
0.0198781 0.0779337 -9.96818 
9.8015 -0.0724224 0.0238815 
-0.0724224 9.86688 0.0697994 
0.0238815 0.0697994 9.82851 
9.82673 -0.116314 0.00957334 
-0.116314 9.85169 0.0450488 
0.00957334 0.0450488 9.81849 
9.82631 -0.0958352 -0.0140446 
-0.0958352 9.84088 0.0792335 
-0.0140446 0.0792335 9.82971 
9.84764 -0.0964133 0.0430956 
-0.0964133 9.81882 0.0157387 
0.0430956 0.0157387 9.83044 
9.82728 -0.143879 0.00581465 
-0.143879 9.89002 0.00699812 
0.00581465 0.00699812 9.93002 
9.97604 0.035703 -0.0136571 
0.035703 9.85624 -0.00848584 
-0.0136571 -0.00848584 9.81504 
9.87977 -0.168153 0.0654746 
-0.168153 9.82323 0.0576993 
0.0654746 0.0576993 9.94432 
9.85986 -0.13324 0.037026 
-0.13324 9.92128 -0.0288125 
0.037026 -0.0288125 9.86618 
9.94453 -0.0281822 -0.0307036 
-0.0281822 9.92236 0.0243094 
-0.0307036 0.0243094 9.92468 
9.93518 -0.027688 -0.0314272 
-0.027688 9.93078 0.0330845 
-0.0314272 0.0330845 9.92561 
9.9328 -0.0321841 -0.0303019 
-0.0321841 9.93289 0.0364117 
-0.0303019 0.0364117 9.92587 
9.93199 -0.0248547 -0.0254711 
-0.0248547 9.92611 0.0461054 
-0.0254711 0.0461054 9.93347 
9.91269 0.0738012 -0.102673 
0.0738012 9.96297 0.0151404 
-0.102673 0.0151404 9.82379 
9.9081 0.0063534 -0.0851335 
0.0063534 9.96602 -0.00596144 
-0.0851335 -0.00596144 9.82533 
9.88268 0.0369284 -0.0766755 
0.0369284 9.98944 0.0395694 
-0.0766755 0.0395694 9.82733 
9.90988 0.0634185 -0.0777817 
0.0634185 9.94588 -0.0172921 
-0.0777817 -0.0172921 9.84368 
10.1309 0.0129933 -0.186124 
0.0129933 9.85897 0.0316584 
-0.186124 0.0316584 9.81624 
10.1058 0.0234195 -0.0384644 
0.0234195 9.97023 0.00154734 
-0.0384644 0.00154734 9.7301 
10.041 0.00830325 -0.0523513 
0.00830325 9.96422 -0.000944271 
-0.0523513 -0.000944271 9.80088 
10.0167 0.00202715 -0.0222631 
0.00202715 9.96289 0.0200238 
-0.0222631 0.0200238 9.82655 
9.91907 0.0103608 0.0607163 
0.0103608 9.93319 -0.0535414 
0.0607163 -0.0535414 9.89481 
9.90029 -0.0144056 0.0558098 
-0.0144056 9.92961 -0.0374323 
0.0558098 -0.0374323 9.91716 
9.90554 -0.0101963 0.0510502 
-0.0101963 9.93364 -0.0427654 
0.0510502 -0.0427654 9.90789 
9.90778 0.0143713 0.0524534 
0.0143713 9.92165 -0.060657 
0.0524534 -0.060657 9.91764 
9.89178 -0.0761866 0.0535646 
-0.0761866 9.84027 0.0865006 
0.0535646 0.0865006 9.99278 
9.87769 -0.028574 0.0593809 
-0.028574 9.9056 0.0793229 
0.0593809 0.0793229 9.94153 
9.91876 -0.0183981 0.0489138 
-0.0183981 9.87327 0.0643053 
0.0489138 0.0643053 9.93279 
9.87276 -0.0138957 0.0814685 
-0.0138957 9.91782 0.103756 
0.0814685 0.103756 9.93424 
9.9217 0.0322015 0.038043 
0.0322015 9.995 -0.0491454 
0.038043 -0.0491454 9.78829 
9.92468 -0.00560815 0.0209334 
-0.00560815 9.95767 -0.0298834 
0.0209334 -0.0298834 9.82264 
9.93816 0.00968839 0.00537633 
0.00968839 9.93814 -0.0516156 
0.00537633 -0.0516156 9.82869 
9.93371 -0.0733706 -0.0149559 
-0.0733706 9.95055 0.0623055 
-0.0149559 0.0623055 9.82073 
9.93138 -0.031743 -0.0163994 
-0.031743 9.85831 -0.048936 
-0.0163994 -0.048936 9.94277 
9.86861 -0.108208 0.0988038 
-0.108208 9.79979 -0.161696 
0.0988038 -0.161696 10.0641 
9.87898 -0.00730953 0.00475308 
-0.00730953 9.7565 -0.0739464 
0.00475308 -0.0739464 10.097 
9.83754 -0.0644848 0.0282446 
-0.0644848 9.90389 -0.0589418 
0.0282446 -0.0589418 9.99102 
9.86455 -0.0591469 0.0379998 
-0.0591469 9.80548 -0.118081 
0.0379998 -0.118081 10.0845 
9.87446 0.0204881 -0.00867754 
0.0204881 9.76275 -0.128835 
-0.00867754 -0.128835 10.1173 
9.89159 -0.17824 -0.0651692 
-0.17824 9.86274 -0.0135893 
-0.0651692 -0.0135893 10.0002 
9.90461 0.00654216 0.0722078 
0.00654216 9.84358 -0.289445 
0.0722078 -0.289445 10.0064 
9.88052 -0.086387 0.0798836 
-0.086387 9.79066 -0.0989228 
0.0798836 -0.0989228 10.084 
9.91322 -0.113367 0.0419109 
-0.113367 9.77365 -0.175445 
0.0419109 -0.175445 10.0683 
9.93563 -0.156456 0.0971244 
-0.156456 9.78183 -0.101142 
0.0971244 -0.101142 10.0377 
9.78292 0.00155167 -0.0354511 
0.00155167 9.9904 -0.118329 
-0.0354511 -0.118329 9.98182 
10.1255 -0.215607 0.152084 
-0.215607 9.8755 0.139301 
0.152084 0.139301 9.92858 
10.0419 -0.100252 0.0987445 
-0.100252 9.92949 0.0734205 
0.0987445 0.0734205 9.95826 
10.0326 -0.185694 0.172463 
-0.185694 9.95541 0.134042 
0.172463 0.134042 9.94158 
9.76502 -0.311263 0.276057 
-0.311263 10.1079 0.132762 
0.276057 0.132762 10.0567 
10.1167 0.0164849 0.00748696 
0.0164849 10.0696 0.0107257 
0.00748696 0.0107257 10.2363 
10.1267 -0.0128862 0.0389198 
-0.0128862 10.0645 -0.00583249 
0.0389198 -0.00583249 10.2315 
10.0746 0.0154798 -0.0187439 
0.0154798 10.146 -0.0789092 
-0.0187439 -0.0789092 10.2021 
10.1435 0.0535447 0.017585 
0.0535447 10.0221 -0.0162243 
0.017585 -0.0162243 10.257 
10.1152 -0.0512342 0.0398522 
-0.0512342 9.78391 -0.0131129 
0.0398522 -0.0131129 9.67299 
9.62362 -0.199589 0.381268 
-0.199589 10.0119 0.0691732 
0.381268 0.0691732 9.93652 
9.72909 -0.230751 0.13079 
-0.230751 9.97399 0.0619375 
0.13079 0.0619375 9.86901 
9.57658 -0.392662 0.058459 
-0.392662 9.94878 0.0844133 
0.058459 0.0844133 10.0467 
9.97442 -0.0501125 -0.0161642 
-0.0501125 9.92755 0.075106 
-0.0161642 0.075106 9.94402 
9.96738 -0.0434477 -0.0267186 
-0.0434477 9.94382 0.0573908 
-0.0267186 0.0573908 9.93479 
9.98386 -0.0334789 -0.00826099 
-0.0334789 9.94932 0.0535659 
-0.00826099 0.0535659 9.91281 
9.96835 -0.0249924 -0.027778 
-0.0249924 9.93324 0.05482 
-0.027778 0.05482 9.94441 
9.87135 -0.215189 0.0521447 
-0.215189 9.89077 -0.0227461 
0.0521447 -0.0227461 10.0721 
10.0142 -0.432201 0.110806 
-0.432201 9.841 0.0810657 
0.110806 0.0810657 9.97907 
9.71299 -0.245749 -0.307383 
-0.245749 10.0647 -0.185686 
-0.307383 -0.185686 10.0566 
9.96859 -0.252693 0.00321959 
-0.252693 10.0212 -0.136321 
0.00321959 -0.136321 9.84448 
9.95905 -0.0144543 0.00133874 
-0.0144543 9.96637 -0.0724764 
0.00133874 -0.0724764 9.88676 
9.95779 -0.000681482 0.00470575 
-0.000681482 9.95264 -0.0479259 
0.00470575 -0.0479259 9.90174 
9.95887 0.000809744 0.00577587 
0.000809744 9.97762 -0.044397 
0.00577587 -0.044397 9.87569 
9.95799 0.00311119 -0.00925736 
0.00311119 10.0081 -0.014952 
-0.00925736 -0.014952 9.84612 
9.94801 0.0026981 0.0478728 
0.0026981 9.93214 0.0409703 
0.0478728 0.0409703 9.93801 
9.9429 0.00210646 0.0485393 
0.00210646 9.94038 0.0461481 
0.0485393 0.0461481 9.93487 
9.94235 0.00748226 0.0547001 
0.00748226 9.93077 0.0439136 
0.0547001 0.0439136 9.94503 
9.94074 0.00738677 0.0519645 
0.00738677 9.92198 0.0465698 
0.0519645 0.0465698 9.95543 
9.93417 -0.0362649 0.0110181 
-0.0362649 9.91024 -0.020386 
0.0110181 -0.020386 9.98885 
9.90696 -0.0110955 -0.0098565 
-0.0110955 9.93948 -0.0723028 
-0.0098565 -0.0723028 9.98682 
9.93472 -0.00820609 0.0166068 
-0.00820609 9.94189 -0.0296735 
0.0166068 -0.0296735 9.95664 
9.92063 -0.0260753 -0.00455288 
-0.0260753 9.93628 -0.0342485 
-0.00455288 -0.0342485 9.97634 
9.89295 -0.0406071 -0.00991023 
-0.0406071 9.92798 -0.0100964 
-0.00991023 -0.0100964 9.91564 
9.86765 -0.0247997 -0.0267377 
-0.0247997 9.93996 -0.0446264 
-0.0267377 -0.0446264 9.92896 
9.90036 -0.0146778 -0.0225256 
-0.0146778 9.92636 0.0130741 
-0.0225256 0.0130741 9.90985 
9.89263 -0.0456665 -0.00269401 
-0.0456665 9.91585 -0.00932124 
-0.00269401 -0.00932124 9.92809 
9.96611 -0.0588164 0.0363821 
-0.0588164 10.0295 0.0380853 
0.0363821 0.0380853 10.0298 
10.0047 0.0485613 0.0399596 
0.0485613 9.9882 -0.0432097 
0.0399596 -0.0432097 10.0325 
9.67122 0.0934653 0.170224 
0.0934653 10.1109 -0.0488399 
0.170224 -0.0488399 10.2433 
9.83923 0.0700868 0.00352603 
0.0700868 9.98159 0.00710694 
0.00352603 0.00710694 10.2046 
9.96518 -0.000356442 0.0190132 
-0.000356442 9.92739 -0.0670116 
0.0190132 -0.0670116 9.88777 
9.9269 -0.00502439 0.0112124 
-0.00502439 9.94917 -0.0605973 
0.0112124 -0.0605973 9.90426 
9.93649 -0.0141916 0.00901231 
-0.0141916 9.97738 -0.0805368 
0.00901231 -0.0805368 9.86647 
9.97155 0.0218368 0.0265906 
0.0218368 9.90138 -0.112091 
0.0265906 -0.112091 9.90741 
9.39565 0.304013 -0.24843 
0.304013 10.8472 -0.260008 
-0.24843 -0.260008 11.1796 
10.9065 -0.0155899 -0.00588128 
-0.0155899 10.1244 0.365936 
-0.00588128 0.365936 10.3916 
9.71383 -0.171334 0.435803 
-0.171334 10.687 -0.202266 
0.435803 -0.202266 11.0216 
10.0357 0.110679 -0.00238885 
0.110679 10.5532 -0.0448199 
-0.00238885 -0.0448199 10.8336 
9.93776 -0.0210131 -0.0031769 
-0.0210131 9.94012 -0.0013655 
-0.0031769 -0.0013655 9.92914 
9.91154 -0.017198 -0.00583988 
-0.017198 9.93439 -0.0518458 
-0.00583988 -0.0518458 9.9611 
9.90371 -0.016963 0.0109232 
-0.016963 9.92541 -0.00803192 
0.0109232 -0.00803192 9.97791 
9.91842 -0.0482364 -0.00179769 
-0.0482364 9.93738 -0.00264208 
-0.00179769 -0.00264208 9.95123 
10.0546 -0.159117 0.11789 
-0.159117 9.91326 0.115009 
0.11789 0.115009 10.0782 
10.019 -0.155177 0.181834 
-0.155177 9.88905 -0.00122645 
0.181834 -0.00122645 10.138 
10.0399 -0.155647 0.135609 
-0.155647 9.90402 0.10288 
0.135609 0.10288 10.1022 
10.0057 -0.0715293 0.094333 
-0.0715293 9.92754 0.104721 
0.094333 0.104721 10.1129 
9.93322 0.0271918 0.00852996 
0.0271918 9.93876 0.0224055 
0.00852996 0.0224055 9.97372 
9.93125 0.00870225 0.00312798 
0.00870225 9.92054 -0.00640955 
0.00312798 -0.00640955 9.99392 
9.9426 0.0131056 0.0219812 
0.0131056 9.91656 -0.0136549 
0.0219812 -0.0136549 9.98654 
9.94225 0.0148591 -0.00991021 
0.0148591 9.95204 0.00930111 
-0.00991021 0.00930111 9.95141 
9.97824 0.0183047 0.00716584 
0.0183047 9.83771 -0.138183 
0.00716584 -0.138183 10.1164 
9.94432 -0.0224303 -0.00832405 
-0.0224303 9.88534 -0.0984254 
-0.00832405 -0.0984254 10.1027 
9.92937 -0.0454593 0.00338699 
-0.0454593 9.85556 -0.0884498 
0.00338699 -0.0884498 10.1474 
9.90603 0.0540116 -0.00902255 
0.0540116 9.90813 -0.0361674 
-0.00902255 -0.0361674 10.1182 
9.85345 -0.0278821 0.0528294 
-0.0278821 9.90172 0.019497 
0.0528294 0.019497 9.9375 
9.8866 -0.0305189 0.0352238 
-0.0305189 9.87902 0.0504247 
0.0352238 0.0504247 9.92705 
9.88577 -0.0398583 0.0950519 
-0.0398583 9.87209 0.0662347 
0.0950519 0.0662347 9.9348 
9.89112 -0.00743084 0.0278624 
-0.00743084 9.88832 0.086203 
0.0278624 0.086203 9.91323 
9.90733 -0.00577465 -0.103753 
-0.00577465 9.99015 -0.0602113 
-0.103753 -0.0602113 9.94607 
9.93123 0.0202029 -0.0637288 
0.0202029 9.98245 -0.0666539 
-0.0637288 -0.0666539 9.92987 
9.96165 0.010912 -0.0886941 
0.010912 9.97171 -0.0691334 
-0.0886941 -0.0691334 9.91019 
9.93923 0.0117852 -0.0837804 
0.0117852 9.98332 -0.0623935 
-0.0837804 -0.0623935 9.92101 
10.0854 0.00526127 0.0131891 
0.00526127 9.8383 0.0335583 
0.0131891 0.0335583 9.68555 
10.0001 -0.0302809 -0.0565068 
-0.0302809 9.8923 0.00871106 
-0.0565068 0.00871106 9.71686 
10.0204 0.0572162 -0.190848 
0.0572162 9.92028 0.131365 
-0.190848 0.131365 9.66855 
9.9727 0.0170902 -0.019951 
0.0170902 9.99198 0.122692 
-0.019951 0.122692 9.64458 
9.90935 0.00803143 -0.0254437 
0.00803143 9.93484 -0.0253927 
-0.0254437 -0.0253927 9.94594 
9.93045 0.0598191 -0.0636216 
0.0598191 9.93389 -0.0205396 
-0.0636216 -0.0205396 9.92578 
9.91378 0.0197964 -0.0729342 
0.0197964 9.93762 -0.0556536 
-0.0729342 -0.0556536 9.93873 
9.92452 0.0126367 -0.0225544 
0.0126367 9.91192 -0.0307954 
-0.0225544 -0.0307954 9.95368 
9.89055 0.0264855 0.0145614 
0.0264855 9.89488 -0.0301042 
0.0145614 -0.0301042 10.0292 
9.85009 0.0914169 0.0563432 
0.0914169 9.9152 -0.130177 
0.0563432 -0.130177 10.0494 
9.87277 -0.00291347 0.120832 
-0.00291347 9.90647 -0.00317888 
0.120832 -0.00317888 10.0354 
9.85576 0.0550744 0.00784124 
0.0550744 9.95794 0.0501281 
0.00784124 0.0501281 10.0009 
9.91636 -0.0168689 0.0499733 
-0.0168689 9.84693 -0.0659099 
0.0499733 -0.0659099 10.0659 
9.88682 -0.0452429 0.0131305 
-0.0452429 9.82141 -0.0238166 
0.0131305 -0.0238166 10.1209 
9.9053 -0.062405 0.0264897 
-0.062405 9.85513 -0.0532434 
0.0264897 -0.0532434 10.0687 
9.91756 -0.0202574 0.0103063 
-0.0202574 9.88095 -0.0797451 
0.0103063 -0.0797451 10.0306 
10.0798 -0.0146367 -0.0319407 
-0.0146367 10.1104 -0.0647453 
-0.0319407 -0.0647453 10.3392 
10.1404 -0.0272684 0.0219529 
-0.0272684 10.1958 0.0243377 
0.0219529 0.0243377 10.1932 
10.2564 0.0844146 0.0573884 
0.0844146 10.2629 0.0605931 
0.0573884 0.0605931 10.0101 
10.1113 -0.0793555 0.0648086 
-0.0793555 10.1244 0.0674937 
0.0648086 0.0674937 10.2936 
9.91935 0.0155013 0.0307897 
0.0155013 9.92083 0.00150373 
0.0307897 0.00150373 9.99469 
9.94384 0.01374 0.0181928 
0.01374 9.90735 0.00567807 
0.0181928 0.00567807 9.98369 
9.92399 0.0143421 0.0214277 
0.0143421 9.91862 0.0031236 
0.0214277 0.0031236 9.99226 
9.91971 0.0120098 0.0177629 
0.0120098 9.91785 0.00281487 
0.0177629 0.00281487 9.99731 
10.0919 -0.00822737 -0.00427005 
-0.00822737 10.0385 -0.153784 
-0.00427005 -0.153784 10.4883 
10.0512 -0.0186573 -0.0182215 
-0.0186573 10.1188 -0.157491 
-0.0182215 -0.157491 10.4488 
10.1843 0.0333762 -0.0209357 
0.0333762 9.92858 -0.352058 
-0.0209357 -0.352058 10.5059 
10.163 0.0389492 -0.017747 
0.0389492 10.1009 -0.279294 
-0.017747 -0.279294 10.3548 
9.94133 0.00251725 0.078498 
0.00251725 9.95606 0.0151845 
0.078498 0.0151845 9.93059 
9.9532 -0.00393413 0.0747992 
-0.00393413 9.95125 0.0148762 
0.0747992 0.0148762 9.92353 
9.96329 -0.00057212 0.0753811 
-0.00057212 9.95995 -0.00875787 
0.0753811 -0.00875787 9.90474 
9.93214 -0.0035594 0.0683861 
-0.0035594 9.93395 0.00862069 
0.0683861 0.00862069 9.9619 
9.91753 -0.00290794 0.0305588 
-0.00290794 9.92553 -0.00703206 
0.0305588 -0.00703206 9.96605 
9.92646 -0.0186258 0.0513464 
-0.0186258 9.93259 0.00935503 
0.0513464 0.00935503 9.95006 
9.92277 -0.0182349 0.0140292 
-0.0182349 9.90528 0.0085595 
0.0140292 0.0085595 9.98106 
9.91098 0.0111201 0.0495188 
0.0111201 9.91944 -0.0136735 
0.0495188 -0.0136735 9.97869 
9.91165 -0.0161606 -0.0397453 
-0.0161606 9.94674 -0.0485206 
-0.0397453 -0.0485206 9.95085 
9.93397 0.00554524 -0.0509239 
0.00554524 9.94532 -0.0553039 
-0.0509239 -0.0553039 9.92995 
9.92387 0.00612245 -0.0659327 
0.00612245 9.93233 -0.0476431 
-0.0659327 -0.0476431 9.95304 
9.92214 -0.00839332 -0.0316018 
-0.00839332 9.92528 -0.0645982 
-0.0316018 -0.0645982 9.96182 
9.8606 0.0102986 0.0949933 
0.0102986 9.90498 -0.0458103 
0.0949933 -0.0458103 9.76006 
9.87177 0.0160175 0.0683213 
0.0160175 9.90025 -0.0335562 
0.0683213 -0.0335562 9.75362 
9.85224 0.00051637 0.099571 
0.00051637 9.86656 -0.0465296 
0.099571 -0.0465296 9.80684 
9.85682 -0.017689 0.102786 
-0.017689 9.89868 -0.0604752 
0.102786 -0.0604752 9.77014 
10.0361 -0.489775 0.437444 
-0.489775 9.99543 -2.5055 
0.437444 -2.5055 8.28185 
8.30201 -0.379947 0.0493673 
-0.379947 9.37694 -0.285301 
0.0493673 -0.285301 10.6344 
9.06864 0.365708 0.171902 
0.365708 10.7828 -0.748265 
0.171902 -0.748265 8.46194 
10.9701 0.0330617 -0.213053 
0.0330617 10.8604 0.0612311 
-0.213053 0.0612311 6.48287 
9.9668 0.00103619 -0.0131681 
0.00103619 9.96529 -0.0686094 
-0.0131681 -0.0686094 9.96552 
9.98165 -0.00376548 -0.0172974 
-0.00376548 9.96579 -0.0736691 
-0.0172974 -0.0736691 9.95017 
9.96834 -0.000858371 -0.0180755 
-0.000858371 9.96843 -0.0710998 
-0.0180755 -0.0710998 9.96083 
9.96235 -0.00188371 -0.0224131 
-0.00188371 9.97069 -0.0735728 
-0.0224131 -0.0735728 9.96457 
9.94084 0.0360159 -0.0669047 
0.0360159 9.98587 0.0954841 
-0.0669047 0.0954841 9.77498 
9.94339 0.0138738 -0.0659375 
0.0138738 9.99375 0.075932 
-0.0659375 0.075932 9.76455 
9.90526 -0.00632514 -0.125222 
-0.00632514 9.97294 0.0936648 
-0.125222 0.0936648 9.82349 
9.94297 -0.00873786 -0.0402612 
-0.00873786 10.0019 0.0690473 
-0.0402612 0.0690473 9.75686 
9.94027 0.0129536 0.0580074 
0.0129536 9.94556 -0.0667006 
0.0580074 -0.0667006 9.92114 
9.92393 0.0327698 0.0475145 
0.0327698 9.94309 -0.0864685 
0.0475145 -0.0864685 9.93995 
9.92209 0.00183042 0.0163344 
0.00183042 9.93999 -0.0625972 
0.0163344 -0.0625972 9.94489 
9.94459 -0.0140752 0.0505422 
-0.0140752 9.93089 -0.0743932 
0.0505422 -0.0743932 9.93149 
9.96085 0.0098547 0.00909848 
0.0098547 9.96888 0.0136959 
0.00909848 0.0136959 9.96298 
9.96972 0.00671512 0.0046186 
0.00671512 9.97679 0.0101424 
0.0046186 0.0101424 9.9462 
9.96422 0.015268 0.0102594 
0.015268 9.97474 0.00721771 
0.0102594 0.00721771 9.95375 
9.96397 -0.000916524 0.00823086 
-0.000916524 9.96878 -0.0129499 
0.00823086 -0.0129499 9.95996 
9.97925 -0.00087988 -0.00108353 
-0.00087988 9.97767 -0.0748307 
-0.00108353 -0.0748307 9.97606 
9.97763 0.000763584 -0.00212735 
0.000763584 9.97651 -0.0709863 
-0.00212735 -0.0709863 9.97884 
9.97742 -0.000975964 -0.00329319 
-0.000975964 9.97684 -0.0729303 
-0.00329319 -0.0729303 9.97872 
9.97806 -0.000716342 -0.00156986 
-0.000716342 9.98226 -0.0767021 
-0.00156986 -0.0767021 9.97266 
10.0069 -0.0703519 0.104521 
-0.0703519 9.92957 0.110584 
0.104521 0.110584 9.91813 
9.86991 -0.0475505 0.0143282 
-0.0475505 9.89266 0.0015469 
0.0143282 0.0015469 10.092 
9.89074 -0.0236537 -0.0245084 
-0.0236537 9.93818 -0.0341423 
-0.0245084 -0.0341423 10.0257 
9.9216 -0.0551928 0.00252314 
-0.0551928 9.89967 0.00330634 
0.00252314 0.00330634 10.0333 
9.93515 0.00646672 0.0372106 
0.00646672 9.93666 -0.0653272 
0.0372106 -0.0653272 9.93293 
9.93151 0.00352473 0.0387326 
0.00352473 9.94195 -0.062209 
0.0387326 -0.062209 9.93129 
9.92463 0.00210914 0.0435931 
0.00210914 9.94207 -0.0659798 
0.0435931 -0.0659798 9.93805 
9.93459 -0.00195266 0.0412315 
-0.00195266 9.93209 -0.0672602 
0.0412315 -0.0672602 9.93807 
7.73247 -1.00583 0.523395 
-1.00583 10.0286 -0.681342 
0.523395 -0.681342 5.90554 
7.50845 0.86207 1.54223 
0.86207 8.67804 -0.22255 
1.54223 -0.22255 7.4801 
8.66804 0.847013 1.24536 
0.847013 10.4251 -1.23329 
1.24536 -1.23329 4.57346 
7.92221 -0.870307 0.715757 
-0.870307 9.78354 -0.447978 
0.715757 -0.447978 5.96085 
9.92967 -0.0519157 -0.0221623 
-0.0519157 9.93594 -0.033164 
-0.0221623 -0.033164 9.88922 
9.91669 -0.0346055 -0.0438952 
-0.0346055 9.92931 -0.00699336 
-0.0438952 -0.00699336 9.90882 
9.88725 -0.0369355 -0.0410856 
-0.0369355 9.9192 -0.0468594 
-0.0410856 -0.0468594 9.94837 
9.93459 -0.0429156 -0.022386 
-0.0429156 9.96141 -0.0498598 
-0.022386 -0.0498598 9.85882 
9.92303 -0.00794983 0.0618689 
-0.00794983 9.92142 0.0474091 
0.0618689 0.0474091 9.92059 
9.92629 0.0023744 0.0738867 
0.0023744 9.91124 0.0386017 
0.0738867 0.0386017 9.92751 
9.92671 -0.0006207 0.0660122 
-0.0006207 9.90692 0.055163 
0.0660122 0.055163 9.9314 
9.92056 -0.0195399 0.0632566 
-0.0195399 9.94074 0.054571 
0.0632566 0.054571 9.90373 
9.9111 -0.00594288 0.0195468 
-0.00594288 9.92194 -0.0102816 
0.0195468 -0.0102816 9.98181 
9.92711 -0.00138645 0.0143279 
-0.00138645 9.92153 -0.00183161 
0.0143279 -0.00183161 9.96621 
9.91274 0.00439187 0.0141038 
0.00439187 9.93427 -0.00534742 
0.0141038 -0.00534742 9.96784 
9.93526 0.00408581 0.0188566 
0.00408581 9.91407 0.0132472 
0.0188566 0.0132472 9.96552 
9.83737 -0.00547495 0.0191034 
-0.00547495 9.86998 -0.000678687 
0.0191034 -0.000678687 10.153 
9.90223 -0.0150345 0.0264626 
-0.0150345 9.89932 -0.0665097 
0.0264626 -0.0665097 10.0588 
9.8796 -0.0237093 0.0144489 
-0.0237093 9.86976 -0.0685572 
0.0144489 -0.0685572 10.111 
9.86975 -0.0211611 0.00726048 
-0.0211611 9.89323 -0.052692 
0.00726048 -0.052692 10.0974 
10.1857 -0.00598067 0.0323114 
-0.00598067 10.2015 0.0288391 
0.0323114 0.0288391 10.0755 
10.1254 -0.00900521 0.00931373 
-0.00900521 10.1381 0.00798201 
0.00931373 0.00798201 10.1991 
10.1192 -0.00459691 0.00418079 
-0.00459691 10.1254 -0.0150865 
0.00418079 -0.0150865 10.2181 
10.1101 -0.0228424 0.0651785 
-0.0228424 10.1306 0.00800734 
0.0651785 0.00800734 10.2219 
9.92603 0.0129099 0.0581494 
0.0129099 9.91472 0.00174355 
0.0581494 0.00174355 9.97239 
9.93645 0.0112983 0.0613448 
0.0112983 9.92518 0.011148 
0.0613448 0.011148 9.95152 
9.94259 0.0101663 0.0583896 
0.0101663 9.91631 0.00336697 
0.0583896 0.00336697 9.95425 
9.93655 0.0214818 0.058437 
0.0214818 9.91432 0.00258948 
0.058437 0.00258948 9.96227 
9.99623 0.000670661 -0.0381113 
0.000670661 9.99375 -0.0322955 
-0.0381113 -0.0322955 9.98739 
9.98473 -0.000196263 -0.0364675 
-0.000196263 9.98446 -0.0244948 
-0.0364675 -0.0244948 10.0082 
9.98795 0.00305087 -0.0365613 
0.00305087 9.995 -0.0290894 
-0.0365613 -0.0290894 9.99442 
9.9965 0.00383391 -0.0342199 
0.00383391 9.99328 -0.02928 
-0.0342199 -0.02928 9.98759 
7.39118 0.627993 -0.121021 
0.627993 10.0573 -2.64121 
-0.121021 -2.64121 10.8261 
8.80523 0.657208 -0.460006 
0.657208 11.201 -1.00437 
-0.460006 -1.00437 8.26834 
10.8969 0.0482198 0.576965 
0.0482198 8.26919 -2.34639 
0.576965 -2.34639 9.10852 
10.4366 -0.918223 -0.29382 
-0.918223 7.90742 -0.384874 
-0.29382 -0.384874 9.93055 
9.8189 -0.0665315 -0.0804815 
-0.0665315 9.63598 0.0187454 
-0.0804815 0.0187454 9.27196 
9.80508 -0.0267077 0.244331 
-0.0267077 9.82454 -0.303612 
0.244331 -0.303612 9.09722 
9.79267 0.0578394 0.117474 
0.0578394 9.83914 -0.271471 
0.117474 -0.271471 9.09503 
9.79253 0.151237 -0.00826012 
0.151237 9.64369 0.28125 
-0.00826012 0.28125 9.29062 
9.97818 -1.81405e-05 -0.0443726 
-1.81405e-05 9.97543 -0.0388907 
-0.0443726 -0.0388907 9.98799 
9.98241 0.00217765 -0.0362729 
0.00217765 9.97254 -0.0332544 
-0.0362729 -0.0332544 9.98665 
9.97965 -0.000539231 -0.0402137 
-0.000539231 9.97867 -0.0314034 
-0.0402137 -0.0314034 9.98328 
9.97952 0.00590557 -0.0380788 
0.00590557 9.98369 -0.0304839 
-0.0380788 -0.0304839 9.97839 
9.79968 0.0345316 0.123827 
0.0345316 9.88351 0.0564754 
0.123827 0.0564754 9.8932 
9.86014 0.0195293 0.114973 
0.0195293 9.91481 0.0663334 
0.114973 0.0663334 9.80145 
9.81709 -0.017678 0.118232 
-0.017678 9.92707 0.0699066 
0.118232 0.0699066 9.83224 
9.80626 0.00622058 0.17311 
0.00622058 9.99208 0.0551089 
0.17311 0.0551089 9.77806 
9.94152 -0.00286727 0.0537487 
-0.00286727 9.92702 0.0422053 
0.0537487 0.0422053 9.94831 
9.93997 -0.00246227 0.0627922 
-0.00246227 9.93576 0.0436406 
0.0627922 0.0436406 9.94111 
9.94013 -0.00188774 0.0626098 
-0.00188774 9.93336 0.0427756 
0.0626098 0.0427756 9.94336 
9.93489 -0.00199184 0.0571603 
-0.00199184 9.92776 0.043614 
0.0571603 0.043614 9.95421 
9.94653 -0.0303401 -0.029766 
-0.0303401 9.94386 -0.00559822 
-0.029766 -0.00559822 9.92901 
9.94262 -0.0454687 -0.023392 
-0.0454687 9.93017 -0.0223307 
-0.023392 -0.0223307 9.94661 
9.94371 -0.0120289 -0.0294301 
-0.0120289 9.94425 0.0353009 
-0.0294301 0.0353009 9.93144 
9.92774 0.00240106 -0.0550166 
0.00240106 9.97883 0.00159917 
-0.0550166 0.00159917 9.91283 
9.96958 0.00685796 -0.0412589 
0.00685796 9.96968 -0.0335873 
-0.0412589 -0.0335873 9.97197 
9.9712 0.00720639 -0.0408502 
0.00720639 9.97067 -0.036106 
-0.0408502 -0.036106 9.96937 
9.96859 0.00658124 -0.0401072 
0.00658124 9.97408 -0.0377414 
-0.0401072 -0.0377414 9.96857 
9.97165 0.00803945 -0.036861 
0.00803945 9.96835 -0.0329434 
-0.036861 -0.0329434 9.97124 
9.97262 -0.000172475 0.00881059 
-0.000172475 9.9858 0.0647972 
0.00881059 0.0647972 9.97007 
9.98235 -8.15292e-05 0.00405044 
-8.15292e-05 9.96569 0.0625 
0.00405044 0.0625 9.98046 
9.98425 0.00101856 0.0102876 
0.00101856 9.97789 0.0594283 
0.0102876 0.0594283 9.96636 
9.9772 -0.000893775 0.00761283 
-0.000893775 9.9793 0.0614118 
0.00761283 0.0614118 9.97199 
9.9603 0.00493919 -0.0356149 
0.00493919 9.96286 -0.0346001 
-0.0356149 -0.0346001 9.97998 
9.96322 0.00800746 -0.0324573 
0.00800746 9.96585 -0.0299805 
-0.0324573 -0.0299805 9.97407 
9.97431 0.00563489 -0.0289278 
0.00563489 9.97279 -0.0260744 
-0.0289278 -0.0260744 9.95604 
9.9725 0.0037827 -0.0296067 
0.0037827 9.96244 -0.0323569 
-0.0296067 -0.0323569 9.9682 
9.91148 0.126069 0.0727025 
0.126069 9.5255 -0.182312 
0.0727025 -0.182312 9.87411 
10.2334 0.071635 0.443816 
0.071635 10.2652 -0.169487 
0.443816 -0.169487 8.81254 
10.0473 -0.16953 0.46209 
-0.16953 9.96537 0.058195 
0.46209 0.058195 9.29838 
9.91906 0.171203 0.335122 
0.171203 9.87649 0.0578061 
0.335122 0.0578061 9.51554 
9.89325 -0.0242935 -0.0535705 
-0.0242935 9.88646 0.0496334 
-0.0535705 0.0496334 9.92647 
9.87638 -0.0210998 -0.0583075 
-0.0210998 9.91854 0.0415007 
-0.0583075 0.0415007 9.91126 
9.90064 -0.00632802 -0.0724482 
-0.00632802 9.89463 0.0388287 
-0.0724482 0.0388287 9.91091 
9.89511 -0.0071385 -0.0578726 
-0.0071385 9.88697 0.0493794 
-0.0578726 0.0493794 9.92409 
9.87592 0.00525767 -0.0689332 
0.00525767 9.91896 -0.0172152 
-0.0689332 -0.0172152 9.92221 
9.92938 0.00568872 -0.106952 
0.00568872 9.91833 0.0521465 
-0.106952 0.0521465 9.86937 
9.94881 -0.00200252 -0.114471 
-0.00200252 9.90306 0.00819089 
-0.114471 0.00819089 9.86521 
9.86349 0.0125381 -0.140434 
0.0125381 9.95717 0.00365969 
-0.140434 0.00365969 9.89641 
9.9361 0.0010954 -0.00797684 
0.0010954 9.93123 -0.000523082 
-0.00797684 -0.000523082 10.0076 
9.93597 0.00503174 -0.0051105 
0.00503174 9.92434 -0.0136565 
-0.0051105 -0.0136565 10.0147 
9.93859 0.00751543 -0.0064418 
0.00751543 9.92085 0.003441 
-0.0064418 0.003441 10.0155 
9.93053 0.00882284 -0.00907279 
0.00882284 9.92953 -0.0157988 
-0.00907279 -0.0157988 10.0149 
9.94082 -0.0120619 0.211063 
-0.0120619 9.87273 -0.0783393 
0.211063 -0.0783393 9.88109 
9.77054 -0.131871 0.259847 
-0.131871 10.0972 0.06916 
0.259847 0.06916 9.82687 
9.96187 -0.044076 0.190144 
-0.044076 9.90282 0.0277103 
0.190144 0.0277103 9.82995 
9.85046 -0.130709 0.142602 
-0.130709 9.90147 0.0777515 
0.142602 0.0777515 9.94271 
9.91155 0.0218405 0.00607258 
0.0218405 9.91645 0.0141982 
0.00607258 0.0141982 9.95962 
9.91902 0.0047913 -0.0157689 
0.0047913 9.93561 0.0103908 
-0.0157689 0.0103908 9.93299 
9.93824 0.0467119 0.02582 
0.0467119 9.91818 -0.018157 
0.02582 -0.018157 9.9312 
9.94506 0.0538892 0.0121152 
0.0538892 9.92667 0.00664789 
0.0121152 0.00664789 9.9159 
9.992 -0.00131 -0.00363296 
-0.00131 9.99489 -0.0644341 
-0.00363296 -0.0644341 9.99008 
9.99138 -0.000469415 -0.00432032 
-0.000469415 9.99701 -0.0652884 
-0.00432032 -0.0652884 9.98857 
9.98427 -0.00125027 -0.0042922 
-0.00125027 9.98634 -0.0634578 
-0.0042922 -0.0634578 10.0064 
9.99387 -0.00079707 -0.00389161 
-0.00079707 9.99748 -0.0562504 
-0.00389161 -0.0562504 9.98562 
9.9636 0.00580471 0.00594773 
0.00580471 9.96654 0.00717291 
0.00594773 0.00717291 9.97817 
9.9671 0.00545975 0.0097005 
0.00545975 9.96653 0.0058946 
0.0097005 0.0058946 9.97467 
9.96323 0.00629567 0.00690482 
0.00629567 9.9661 0.00970773 
0.00690482 0.00970773 9.97898 
9.96895 0.00528149 0.00480552 
0.00528149 9.96536 0.00288689 
0.00480552 0.00288689 9.974 
9.87108 0.0586119 0.202553 
0.0586119 9.99426 -0.282235 
0.202553 -0.282235 10.8147 
10.4233 -0.300701 -0.199389 
-0.300701 10.6053 0.260118 
-0.199389 0.260118 9.6515 
10.0277 0.126441 -0.0302388 
0.126441 10.3202 0.0682039 
-0.0302388 0.0682039 10.3321 
9.97648 0.302552 -0.149363 
0.302552 10.0618 0.229433 
-0.149363 0.229433 10.6417 
9.89972 -0.0108318 0.0245322 
-0.0108318 9.92464 -0.00584562 
0.0245322 -0.00584562 9.89261 
9.92165 -0.000615899 0.0452514 
-0.000615899 9.92827 0.0724194 
0.0452514 0.0724194 9.86705 
9.91858 0.0275755 0.0512134 
0.0275755 9.97593 0.0500258 
0.0512134 0.0500258 9.82246 
9.90956 -0.00305573 0.0419029 
-0.00305573 9.94024 0.0447732 
0.0419029 0.0447732 9.86716 
9.40383 -0.133037 -0.173197 
-0.133037 10.1481 0.0683589 
-0.173197 0.0683589 10.3025 
9.86778 -0.163487 -0.317783 
-0.163487 10.0266 0.0675064 
-0.317783 0.0675064 9.96016 
9.59548 0.050455 -0.295979 
0.050455 10.1253 0.0824613 
-0.295979 0.0824613 10.1337 
10.0994 0.0696379 -0.520351 
0.0696379 9.88017 -0.208928 
-0.520351 -0.208928 9.87492 
9.94278 -0.0258175 -0.0151875 
-0.0258175 9.93766 0.00242213 
-0.0151875 0.00242213 9.9442 
9.93012 -0.0179333 -0.0156186 
-0.0179333 9.9505 0.0113572 
-0.0156186 0.0113572 9.94402 
9.94887 -0.0258534 -0.0119259 
-0.0258534 9.93757 0.00996483 
-0.0119259 0.00996483 9.93819 
9.92561 -0.0292423 -0.0164882 
-0.0292423 9.94034 0.0232708 
-0.0164882 0.0232708 9.95868 
9.96648 -0.00479962 0.0688157 
-0.00479962 9.96799 -0.0209571 
0.0688157 -0.0209571 9.97329 
9.96759 0.00492211 0.0653344 
0.00492211 9.97148 -0.0293174 
0.0653344 -0.0293174 9.96868 
9.97117 0.00263284 0.0606868 
0.00263284 9.96972 -0.026507 
0.0606868 -0.026507 9.96686 
9.96294 -0.000328739 0.0636548 
-0.000328739 9.96698 -0.0304284 
0.0636548 -0.0304284 9.97783 
9.90741 -0.0272921 0.0663199 
-0.0272921 9.90073 0.0458815 
0.0663199 0.0458815 9.83623 
9.83435 0.0138474 0.031114 
0.0138474 9.9035 0.0939087 
0.031114 0.0939087 9.90652 
9.86708 0.00934099 0.112051 
0.00934099 9.96744 0.0929704 
0.112051 0.0929704 9.80985 
9.94528 -0.0322732 0.0590738 
-0.0322732 9.87359 0.0783544 
0.0590738 0.0783544 9.8255 
9.86053 -0.0341099 -0.100156 
-0.0341099 9.88936 0.0597115 
-0.100156 0.0597115 9.94132 
9.97264 -0.0027348 0.018031 
-0.0027348 9.98999 0.0325512 
0.018031 0.0325512 9.72858 
9.93586 0.00732349 -0.11891 
0.00732349 9.95013 0.102158 
-0.11891 0.102158 9.80521 
9.93187 0.000108324 -0.0663774 
0.000108324 9.92866 0.0782684 
-0.0663774 0.0782684 9.83069 
9.88085 0.00375161 0.0521327 
0.00375161 9.85859 -0.0913928 
0.0521327 -0.0913928 9.95 
9.92458 -0.044434 0.0385888 
-0.044434 9.79353 -0.174372 
0.0385888 -0.174372 9.97133 
9.83354 -0.108843 -0.037274 
-0.108843 9.83748 -0.0489417 
-0.037274 -0.0489417 10.0184 
9.94346 -0.0721024 0.103163 
-0.0721024 9.79181 -0.132876 
0.103163 -0.132876 9.95418 
9.93807 0.0231904 0.0119876 
0.0231904 9.93316 -0.0992084 
0.0119876 -0.0992084 9.85671 
9.9549 0.00705518 0.0285419 
0.00705518 9.9199 -0.108944 
0.0285419 -0.108944 9.85315 
9.92592 0.0312601 0.0228386 
0.0312601 9.92295 -0.110631 
0.0228386 -0.110631 9.87907 
9.92698 -0.000204208 0.0201402 
-0.000204208 9.95239 -0.0726731 
0.0201402 -0.0726731 9.84857 
9.91385 -0.0142269 0.0400049 
-0.0142269 9.92201 0.0131224 
0.0400049 0.0131224 9.91988 
9.93055 -0.00637571 0.0627254 
-0.00637571 9.90121 0.0639029 
0.0627254 0.0639029 9.92398 
9.89631 -0.0068101 0.0366227 
-0.0068101 9.90972 0.0638694 
0.0366227 0.0638694 9.94972 
9.92914 -0.0179667 0.0678632 
-0.0179667 9.9149 0.0523597 
0.0678632 0.0523597 9.9117 
9.95869 -0.00129594 0.0635329 
-0.00129594 9.95935 -0.027914 
0.0635329 -0.027914 9.9535 
9.95947 0.00234417 0.0666007 
0.00234417 9.96075 -0.0272683 
0.0666007 -0.0272683 9.95133 
9.96125 0.000455232 0.0652316 
0.000455232 9.95711 -0.0302088 
0.0652316 -0.0302088 9.95319 
9.96152 0.00273862 0.0671649 
0.00273862 9.96019 -0.0290603 
0.0671649 -0.0290603 9.94983 
9.92898 0.0096869 0.0534672 
0.0096869 9.95876 -0.0767859 
0.0534672 -0.0767859 9.94163 
9.94717 0.0042854 0.0380653 
0.0042854 9.93688 -0.0777344 
0.0380653 -0.0777344 9.94532 
9.94539 0.0148065 0.0319909 
0.0148065 9.93281 -0.07205 
0.0319909 -0.07205 9.95118 
9.94808 -0.00162459 0.0232322 
-0.00162459 9.93838 -0.0422967 
0.0232322 -0.0422967 9.94291 
9.92528 -0.105605 0.1017 
-0.105605 9.96363 0.21131 
0.1017 0.21131 9.6897 
9.85917 -0.0166311 0.0608939 
-0.0166311 9.95564 0.0627722 
0.0608939 0.0627722 9.7638 
9.8902 -0.0454406 0.0510079 
-0.0454406 9.99158 0.187941 
0.0510079 0.187941 9.69684 
9.91311 0.00355681 0.0546396 
0.00355681 9.86708 0.124395 
0.0546396 0.124395 9.79843 
9.82413 0.0300282 -0.099054 
0.0300282 9.8757 0.0752806 
-0.099054 0.0752806 9.81334 
9.92029 -0.00864192 -0.133346 
-0.00864192 9.73511 0.228817 
-0.133346 0.228817 9.85778 
10.0373 0.113285 -0.102884 
0.113285 10.0132 0.294775 
-0.102884 0.294775 9.46268 
9.74508 -0.00628424 -0.264505 
-0.00628424 9.72346 0.263907 
-0.264505 0.263907 10.0446 
10.0727 0.025935 -0.0350019 
0.025935 10.1891 0.0383432 
-0.0350019 0.0383432 10.1294 
10.073 0.0246645 0.039996 
0.0246645 9.98302 0.00664996 
0.039996 0.00664996 10.3351 
10.1215 -0.13085 -0.070642 
-0.13085 10.2788 0.0863443 
-0.070642 0.0863443 9.99078 
10.0091 -0.0256588 -0.102697 
-0.0256588 10.1505 -0.000418459 
-0.102697 -0.000418459 10.2315 
10.0626 -0.116197 0.0140731 
-0.116197 9.92007 0.0337844 
0.0140731 0.0337844 10.258 
9.80047 0.0539156 -0.145743 
0.0539156 9.9176 -0.056192 
-0.145743 -0.056192 10.5227 
10.4612 0.0608981 0.0669305 
0.0608981 10.049 0.150744 
0.0669305 0.150744 9.73056 
9.97173 -0.216388 0.236169 
-0.216388 9.96362 0.0869386 
0.236169 0.0869386 10.3054 
9.86153 0.011149 0.102711 
0.011149 9.89463 -0.0164897 
0.102711 -0.0164897 9.90916 
9.88828 -0.304424 -0.0509447 
-0.304424 9.81523 0.0385563 
-0.0509447 0.0385563 9.9618 
9.81355 -0.154282 -0.0444346 
-0.154282 9.86767 -0.00921971 
-0.0444346 -0.00921971 9.98409 
9.77314 -0.205961 -0.173202 
-0.205961 10.0665 -0.25172 
-0.173202 -0.25172 9.82572 
9.92416 -0.00210873 0.0373335 
-0.00210873 9.92357 -0.058242 
0.0373335 -0.058242 9.92963 
9.89769 0.00990695 0.0465415 
0.00990695 9.93989 -0.0661075 
0.0465415 -0.0661075 9.93978 
9.93837 0.0174275 0.0497801 
0.0174275 9.91057 -0.0677058 
0.0497801 -0.0677058 9.92842 
9.91541 0.00860987 0.0395438 
0.00860987 9.9294 -0.0705095 
0.0395438 -0.0705095 9.93256 
10.0693 -0.0503977 0.163233 
-0.0503977 9.74725 -0.298334 
0.163233 -0.298334 10.052 
10.1697 -0.0531679 -0.0159812 
-0.0531679 9.97878 -0.365045 
-0.0159812 -0.365045 9.72004 
10.0735 -0.108252 0.0520614 
-0.108252 9.7724 -0.267881 
0.0520614 -0.267881 10.0227 
9.9722 -0.0185787 0.021535 
-0.0185787 9.93636 -0.103607 
0.021535 -0.103607 9.95999 
9.8811 0.0113734 0.0437571 
0.0113734 9.91195 -0.0293819 
0.0437571 -0.0293819 9.995 
9.8817 0.0246291 0.0695832 
0.0246291 9.88721 -0.0381933 
0.0695832 -0.0381933 10.0191 
9.90924 0.00566538 0.0344519 
0.00566538 9.9175 -0.0480018 
0.0344519 -0.0480018 9.96131 
9.87532 0.0524405 -0.021511 
0.0524405 9.91569 0.0091526 
-0.021511 0.0091526 9.99704 
9.9664 -0.00630756 -0.0306666 
-0.00630756 9.95911 -0.0445443 
-0.0306666 -0.0445443 9.97585 
9.98101 0.00406214 -0.0489515 
0.00406214 9.97264 -0.0323531 
-0.0489515 -0.0323531 9.94772 
9.97082 0.0181662 -0.0392237 
0.0181662 9.97011 -0.0347433 
-0.0392237 -0.0347433 9.96044 
9.96386 0.0103716 -0.0324788 
0.0103716 9.9687 -0.0321648 
-0.0324788 -0.0321648 9.9688 
9.88125 0.0751461 -0.0633791 
0.0751461 10.0084 -0.0301044 
-0.0633791 -0.0301044 9.8778 
9.90944 -0.00427416 -0.0756742 
-0.00427416 9.95148 -0.0189549 
-0.0756742 -0.0189549 9.90656 
9.93431 0.0318732 -0.0368556 
0.0318732 9.93807 0.00718346 
-0.0368556 0.00718346 9.8951 
9.95807 0.0295047 -0.0327813 
0.0295047 9.92578 -0.0110977 
-0.0327813 -0.0110977 9.88363 
9.9406 -0.0264857 0.0118034 
-0.0264857 9.94986 -0.0125947 
0.0118034 -0.0125947 9.95762 
9.94842 -0.0265752 0.0152677 
-0.0265752 9.95006 -0.0134209 
0.0152677 -0.0134209 9.9496 
9.943 -0.0171939 0.0221355 
-0.0171939 9.93824 -0.02117 
0.0221355 -0.02117 9.96684 
9.93803 -0.0161521 0.0276297 
-0.0161521 9.9422 -0.0177945 
0.0276297 -0.0177945 9.96785 
10.276 0.150779 0.17808 
0.150779 9.60975 -0.161088 
0.17808 -0.161088 10.1337 
10.2627 0.0805301 -0.107233 
0.0805301 9.77205 -0.229368 
-0.107233 -0.229368 9.98463 
10.1351 -0.11097 0.0507225 
-0.11097 10.0059 -0.183383 
0.0507225 -0.183383 9.87844 
10.1699 0.134491 0.0767676 
0.134491 9.60804 -0.288689 
0.0767676 -0.288689 10.2415 
10.0627 -0.00193854 0.0044076 
-0.00193854 9.90963 0.0360674 
0.0044076 0.0360674 9.75587 
9.89447 -0.0964231 0.117553 
-0.0964231 9.85633 0.13037 
0.117553 0.13037 9.97738 
9.79245 -0.0392756 0.0531973 
-0.0392756 9.77619 0.000165013 
0.0531973 0.000165013 10.1595 
9.79794 -0.0299437 0.0583809 
-0.0299437 9.90414 0.111062 
0.0583809 0.111062 10.0261 
10.0421 0.00884649 0.124245 
0.00884649 10.0205 0.0243276 
0.124245 0.0243276 10.3024 
10.0289 -0.0356371 0.000733965 
-0.0356371 10.0705 0.00451791 
0.000733965 0.00451791 10.2656 
10.0362 -0.0563014 0.00734654 
-0.0563014 10.0777 -0.00393127 
0.00734654 -0.00393127 10.2511 
10.0803 -0.0227378 -0.0207303 
-0.0227378 10.1198 -0.0129911 
-0.0207303 -0.0129911 10.1649 
9.96667 -0.000732859 -0.00393326 
-0.000732859 9.96679 0.0102539 
-0.00393326 0.0102539 9.97933 
9.9725 -0.0079777 -0.00481999 
-0.0079777 9.96731 0.0104673 
-0.00481999 0.0104673 9.97298 
9.95821 0.000535774 0.000557486 
0.000535774 9.97171 0.0287354 
0.000557486 0.0287354 9.98287 
9.9826 -0.00180663 -0.00403894 
-0.00180663 9.98371 0.000951167 
-0.00403894 0.000951167 9.94649 
9.97319 -0.00471638 0.0457569 
-0.00471638 9.9643 -0.0561871 
0.0457569 -0.0561871 9.98068 
9.96692 -0.00017964 0.0530614 
-0.00017964 9.96712 -0.0457665 
0.0530614 -0.0457665 9.98414 
9.96815 0.00041886 0.0494991 
0.00041886 9.97691 -0.0472739 
0.0494991 -0.0472739 9.97312 
9.97031 0.00247447 0.0532459 
0.00247447 9.97582 -0.0491239 
0.0532459 -0.0491239 9.97205 
9.97852 0.00658231 -0.0177501 
0.00658231 9.97051 0.0590548 
-0.0177501 0.0590548 9.98356 
9.97649 -0.00208904 -0.0247525 
-0.00208904 9.98178 0.0586156 
-0.0247525 0.0586156 9.97431 
9.97616 -0.00191429 -0.0274924 
-0.00191429 9.98021 0.0575959 
-0.0274924 0.0575959 9.97621 
9.98148 0.00364489 -0.0269124 
0.00364489 9.9785 0.0635461 
-0.0269124 0.0635461 9.9726 
9.92943 0.00806731 -0.038503 
0.00806731 9.94252 -0.0359619 
-0.038503 -0.0359619 9.94675 
9.93706 0.0122943 -0.0377914 
0.0122943 9.944 -0.0367044 
-0.0377914 -0.0367044 9.93764 
9.93192 0.014893 -0.042676 
0.014893 9.92469 -0.0422844 
-0.042676 -0.0422844 9.96209 
9.92873 0.0138201 -0.0369473 
0.0138201 9.93465 -0.0285161 
-0.0369473 -0.0285161 9.95532 
10.1483 -0.162612 -0.00831154 
-0.162612 9.74174 -0.0808964 
-0.00831154 -0.0808964 10.2732 
10.0363 0.0408467 0.0780016 
0.0408467 10.0671 -0.131234 
0.0780016 -0.131234 10.0599 
10.1141 -0.0770967 -0.0256154 
-0.0770967 9.76662 -0.0392575 
-0.0256154 -0.0392575 10.2825 
10.1701 0.0558201 0.0212648 
0.0558201 9.69525 -0.0698814 
0.0212648 -0.0698814 10.298 
9.92045 -0.0127497 -0.022047 
-0.0127497 9.92123 0.0420357 
-0.022047 0.0420357 9.93638 
9.9259 -0.0163092 -0.0325789 
-0.0163092 9.91224 0.0393825 
-0.0325789 0.0393825 9.93992 
9.92397 -0.0120097 -0.0233979 
-0.0120097 9.92225 0.0324553 
-0.0233979 0.0324553 9.93184 
9.92696 -0.0181603 -0.0297702 
-0.0181603 9.91711 0.0420027 
-0.0297702 0.0420027 9.93399 
9.91943 0.0314903 0.0515951 
0.0314903 9.92522 0.0396987 
0.0515951 0.0396987 9.87079 
9.93955 -0.000589786 0.0466519 
-0.000589786 9.92824 0.0611885 
0.0466519 0.0611885 9.84765 
9.94012 -0.00307377 0.0446695 
-0.00307377 9.93993 0.0725724 
0.0446695 0.0725724 9.8354 
9.9057 0.000152393 0.0655276 
0.000152393 9.91701 0.0354992 
0.0655276 0.0354992 9.89272 
9.98038 0.0155612 -0.0254786 
0.0155612 9.96396 0.128784 
-0.0254786 0.128784 9.67041 
9.82737 -0.0256208 0.108617 
-0.0256208 9.86126 0.102816 
0.108617 0.102816 9.92612 
9.93941 0.0620083 -0.0384098 
0.0620083 9.90133 0.0247477 
-0.0384098 0.0247477 9.77402 
9.9645 0.0222824 -0.00401576 
0.0222824 9.89646 0.0253421 
-0.00401576 0.0253421 9.75379 
9.93034 -0.0260739 -0.0517396 
-0.0260739 9.93319 0.0387644 
-0.0517396 0.0387644 9.93303 
9.95185 -0.0232506 -0.0336829 
-0.0232506 9.89455 0.0483165 
-0.0336829 0.0483165 9.95015 
9.92791 -0.0203416 -0.0365021 
-0.0203416 9.90678 0.0426255 
-0.0365021 0.0426255 9.96186 
9.93229 -0.00556094 -0.0536312 
-0.00556094 9.93029 0.0363361 
-0.0536312 0.0363361 9.93397 
7.52014 2.09334 1.39004 
2.09334 12.2091 2.07419 
1.39004 2.07419 0.3529 
8.89535 -1.78468 -0.888173 
-1.78468 6.74788 0.901717 
-0.888173 0.901717 4.43891 
5.20631 0.920618 -0.87745 
0.920618 8.3463 3.50185 
-0.87745 3.50185 6.52953 
8.19086 0.653762 0.414112 
0.653762 7.73275 2.55797 
0.414112 2.55797 4.15852 
10.1242 -0.00483118 0.026453 
-0.00483118 10.1228 -0.00981945 
0.026453 -0.00981945 10.2126 
10.208 -0.012038 0.0273196 
-0.012038 10.2086 0.046481 
0.0273196 0.046481 10.0431 
10.1244 -0.000721559 0.00530225 
-0.000721559 10.1074 -0.00486754 
0.00530225 -0.00486754 10.2278 
10.1331 -0.017947 0.0536086 
-0.017947 10.1144 0.0357208 
0.0536086 0.0357208 10.2121 
9.96874 -0.0598119 -0.0148601 
-0.0598119 9.86334 0.0736205 
-0.0148601 0.0736205 9.87844 
9.93331 -0.0626588 -0.0193339 
-0.0626588 9.85746 0.0854477 
-0.0193339 0.0854477 9.91976 
9.96607 -0.0583481 -0.0518478 
-0.0583481 9.84562 0.0811226 
-0.0518478 0.0811226 9.89884 
9.93171 -0.0653664 -0.0245607 
-0.0653664 9.85642 0.117936 
-0.0245607 0.117936 9.9224 
9.96194 -0.00178502 0.00693807 
-0.00178502 9.96546 -0.0764162 
0.00693807 -0.0764162 9.95548 
9.96456 0.0012165 0.00862594 
0.0012165 9.96776 -0.0780629 
0.00862594 -0.0780629 9.95057 
9.96791 -0.00237629 0.00775181 
-0.00237629 9.95781 -0.06836 
0.00775181 -0.06836 9.95717 
9.96274 0.0044815 0.00607206 
0.0044815 9.96819 -0.0785093 
0.00607206 -0.0785093 9.95195 
9.90514 -0.175487 0.149641 
-0.175487 9.85413 0.0254369 
0.149641 0.0254369 9.89245 
9.94056 -0.0412502 0.111531 
-0.0412502 9.84083 0.0598597 
0.111531 0.0598597 9.87033 
9.87326 -0.0495687 0.117834 
-0.0495687 9.86812 0.0270254 
0.117834 0.0270254 9.91033 
9.79676 -0.00883198 0.0576962 
-0.00883198 9.91078 -0.0693923 
0.0576962 -0.0693923 9.94418 
9.93867 -0.0774714 0.0752729 
-0.0774714 9.9847 -0.18215 
0.0752729 -0.18215 10.1275 
9.99195 0.0452677 0.0855466 
0.0452677 9.71256 -0.240418 
0.0855466 -0.240418 10.3463 
10.1381 -0.253841 0.0981139 
-0.253841 9.91257 -0.224256 
0.0981139 -0.224256 10.0002 
10.0336 -0.0806669 0.0185237 
-0.0806669 9.89224 -0.276472 
0.0185237 -0.276472 10.125 
9.93948 -0.0069733 0.084843 
-0.0069733 9.93007 0.0126013 
0.084843 0.0126013 9.98338 
9.94735 0.00126787 0.0584861 
0.00126787 9.95418 0.0117132 
0.0584861 0.0117132 9.95141 
9.97514 -0.00382661 0.0793837 
-0.00382661 9.9725 0.0106012 
0.0793837 0.0106012 9.90529 
9.9486 -0.00228129 0.0582522 
-0.00228129 9.95768 -0.00687926 
0.0582522 -0.00687926 9.94665 
9.94388 -0.00993941 -0.00653339 
-0.00993941 9.9324 0.0141806 
-0.00653339 0.0141806 9.98267 
9.93123 -0.00247652 0.0288038 
-0.00247652 9.95202 0.00143892 
0.0288038 0.00143892 9.97569 
9.95344 0.00234234 0.0131863 
0.00234234 9.93518 0.00889277 
0.0131863 0.00889277 9.97033 
9.9431 -0.00433567 0.0216649 
-0.00433567 9.95294 -0.00765297 
0.0216649 -0.00765297 9.96291 
9.92991 -0.00107837 0.0509823 
-0.00107837 9.84943 -0.00779522 
0.0509823 -0.00779522 9.88142 
9.91791 0.0208694 -0.00536788 
0.0208694 9.90231 0.0436164 
-0.00536788 0.0436164 9.84054 
9.92446 0.0261159 0.00464049 
0.0261159 9.90578 0.042736 
0.00464049 0.042736 9.83053 
9.94335 0.0204387 -0.00608858 
0.0204387 9.91484 0.0395195 
-0.00608858 0.0395195 9.80257 
9.94464 0.0045708 -0.00457935 
0.0045708 9.94521 0.00259323 
-0.00457935 0.00259323 10.0064 
9.94093 0.00633588 -0.0150386 
0.00633588 9.94247 0.00273418 
-0.0150386 0.00273418 10.0129 
9.94239 0.00682536 0.00157185 
0.00682536 9.94451 -0.00351894 
0.00157185 -0.00351894 10.0094 
9.95349 -0.0140009 -0.0115962 
-0.0140009 9.94866 0.000284745 
-0.0115962 0.000284745 9.99415 
9.92117 -0.00681388 -0.0154857 
-0.00681388 9.94678 -0.117243 
-0.0154857 -0.117243 9.95229 
9.9429 -0.00122283 -0.0106156 
-0.00122283 9.95043 -0.0596405 
-0.0106156 -0.0596405 9.92691 
9.94617 0.0069813 -0.0325579 
0.0069813 9.93572 -0.0541836 
-0.0325579 -0.0541836 9.93836 
9.95128 -0.0133973 -0.0174873 
-0.0133973 9.95643 -0.0711415 
-0.0174873 -0.0711415 9.91253 
9.91834 -0.00318305 0.017704 
-0.00318305 9.92938 -0.0782808 
0.017704 -0.0782808 9.87583 
9.93502 8.1222e-07 0.017817 
8.1222e-07 9.89798 -0.0773273 
0.017817 -0.0773273 9.89055 
9.90689 -0.00304808 0.0106942 
-0.00304808 9.93975 -0.0552744 
0.0106942 -0.0552744 9.87692 
9.93331 0.00197766 0.0300705 
0.00197766 9.92227 -0.0799932 
0.0300705 -0.0799932 9.86797 
9.92778 -0.00170145 -0.0423863 
-0.00170145 9.94573 -0.0651955 
-0.0423863 -0.0651955 9.96085 
9.9325 -0.00109096 -0.0433882 
-0.00109096 9.93403 -0.0580394 
-0.0433882 -0.0580394 9.96784 
9.93591 0.00352749 -0.0422281 
0.00352749 9.94264 -0.0594857 
-0.0422281 -0.0594857 9.95582 
9.93941 0.00397412 -0.0406228 
0.00397412 9.95228 -0.054925 
-0.0406228 -0.054925 9.94267 
9.91244 0.0336827 -0.0132837 
0.0336827 9.90485 -0.0338605 
-0.0132837 -0.0338605 9.96474 
9.8016 0.00721681 0.125932 
0.00721681 9.9303 -0.0230572 
0.125932 -0.0230572 10.0501 
9.79078 0.187273 0.0818048 
0.187273 9.9403 -0.0641797 
0.0818048 -0.0641797 10.0509 
9.86781 -0.067368 0.0958904 
-0.067368 9.94239 -0.134652 
0.0958904 -0.134652 9.97182 
9.93638 0.0574968 -0.0827589 
0.0574968 9.86358 -0.05228 
-0.0827589 -0.05228 9.96066 
9.9009 0.0411013 -0.107727 
0.0411013 9.944 -0.0342619 
-0.107727 -0.0342619 9.91572 
9.91895 0.0377511 -0.0357236 
0.0377511 9.90709 -0.0430949 
-0.0357236 -0.0430949 9.93459 
9.90293 -0.00859517 -0.0251369 
-0.00859517 9.91047 -0.0711569 
-0.0251369 -0.0711569 9.94722 
9.9712 0.00721592 -0.0414856 
0.00721592 9.96554 -0.0390864 
-0.0414856 -0.0390864 9.9695 
9.96692 0.00438551 -0.0440674 
0.00438551 9.96998 -0.0361189 
-0.0440674 -0.0361189 9.96934 
9.9706 0.00519803 -0.0447774 
0.00519803 9.96337 -0.0406623 
-0.0447774 -0.0406623 9.97226 
9.97287 -0.00148034 -0.0408166 
-0.00148034 9.96344 -0.0433334 
-0.0408166 -0.0433334 9.96992 
9.83067 -0.0277269 0.00437792 
-0.0277269 9.88544 0.00121879 
0.00437792 0.00121879 9.94444 
10.0051 -0.108282 -0.0355739 
-0.108282 9.64498 -0.219603 
-0.0355739 -0.219603 10.0105 
9.91748 -0.0373713 -0.0450316 
-0.0373713 9.86134 -0.142681 
-0.0450316 -0.142681 9.88172 
9.9213 0.00746498 -0.0353206 
0.00746498 9.85305 -0.151514 
-0.0353206 -0.151514 9.88619 
9.8403 -0.023581 0.0350876 
-0.023581 9.84201 -0.0681252 
0.0350876 -0.0681252 10.0316 
9.83925 -0.0494762 0.0302714 
-0.0494762 9.87194 -0.0509469 
0.0302714 -0.0509469 10.0027 
9.87144 -0.0606311 0.0212465 
-0.0606311 9.86651 -0.0480877 
0.0212465 -0.0480877 9.97599 
9.87688 -0.0522613 0.0686338 
-0.0522613 9.82142 -0.0266453 
0.0686338 -0.0266453 10.0156 
9.86255 -0.218843 -0.0954261 
-0.218843 9.74156 -0.0756543 
-0.0954261 -0.0756543 9.89142 
9.79443 -0.148122 -0.174646 
-0.148122 9.83281 -0.0527571 
-0.174646 -0.0527571 9.86829 
9.99111 0.0102964 0.00127102 
0.0102964 9.67895 -0.227712 
0.00127102 -0.227712 9.82548 
9.65869 -0.19131 -0.109912 
-0.19131 10.0657 0.0390137 
-0.109912 0.0390137 9.77117 
9.12509 -0.00532068 -0.515288 
-0.00532068 9.01382 -0.464211 
-0.515288 -0.464211 10.0582 
10.8298 -0.241737 0.655109 
-0.241737 10.2573 0.30324 
0.655109 0.30324 7.11002 
9.42092 0.666453 0.237119 
0.666453 10.1683 -1.63693 
0.237119 -1.63693 8.60784 
10.3847 -1.31927 -0.0068864 
-1.31927 8.83669 -0.827536 
-0.0068864 -0.827536 8.97571 
9.89604 -0.237253 0.197987 
-0.237253 9.93838 0.113938 
0.197987 0.113938 9.89459 
9.87432 -0.00484113 0.189055 
-0.00484113 10.2252 0.0893842 
0.189055 0.0893842 9.62945 
9.935 -0.0332614 0.225028 
-0.0332614 9.83993 -0.00483307 
0.225028 -0.00483307 9.95408 
9.84807 0.00138594 -0.0340069 
0.00138594 9.92532 -0.0475541 
-0.0340069 -0.0475541 9.95562 
9.97507 0.00622037 0.0289226 
0.00622037 9.97218 -0.0453117 
0.0289226 -0.0453117 9.94883 
9.97111 -0.00281063 0.0229501 
-0.00281063 9.97241 -0.0442367 
0.0229501 -0.0442367 9.95256 
9.96832 0.000236976 0.0266556 
0.000236976 9.9676 -0.044265 
0.0266556 -0.044265 9.96015 
9.97268 -0.00388847 0.0211058 
-0.00388847 9.96893 -0.0463695 
0.0211058 -0.0463695 9.95447 
10.2641 0.0822143 0.0810021 
0.0822143 9.97844 0.0749754 
0.0810021 0.0749754 9.75138 
9.95412 0.0253327 0.109009 
0.0253327 9.89875 -0.432037 
0.109009 -0.432037 10.1411 
9.95762 0.0675802 -0.122925 
0.0675802 9.8998 -0.449886 
-0.122925 -0.449886 10.1365 
9.8741 -0.0122127 -0.0265565 
-0.0122127 9.72739 -0.312332 
-0.0265565 -0.312332 10.3924 
9.96472 0.0722193 -0.186234 
0.0722193 9.89654 0.0766939 
-0.186234 0.0766939 9.53036 
9.80791 0.0500548 -0.0537642 
0.0500548 9.83069 -0.0330195 
-0.0537642 -0.0330195 9.75302 
9.8831 0.0113308 -0.058372 
0.0113308 9.81761 0.114911 
-0.058372 0.114911 9.69091 
9.88659 0.0372047 -0.0794091 
0.0372047 9.81619 0.104171 
-0.0794091 0.104171 9.68884 
9.8551 -0.00916074 0.07346 
-0.00916074 9.88433 0.00933872 
0.07346 0.00933872 9.93453 
9.87066 0.0133921 0.128339 
0.0133921 9.88835 0.0318949 
0.128339 0.0318949 9.91495 
9.87644 -0.0183741 0.0659134 
-0.0183741 9.85199 0.0233558 
0.0659134 0.0233558 9.94553 
9.84609 0.0378984 0.0866884 
0.0378984 9.84723 0.00655277 
0.0866884 0.00655277 9.98064 
9.89899 -0.00140018 -0.0762221 
-0.00140018 9.93552 -0.0226367 
-0.0762221 -0.0226367 9.88422 
9.92088 -0.0133663 -0.105872 
-0.0133663 9.90772 -0.029047 
-0.105872 -0.029047 9.89013 
9.94422 -0.00384035 -0.0684306 
-0.00384035 9.87985 -0.0205146 
-0.0684306 -0.0205146 9.89465 
9.894 -0.000987308 -0.0777795 
-0.000987308 9.9335 -0.0280646 
-0.0777795 -0.0280646 9.89123 
9.91992 0.0111661 0.0260606 
0.0111661 9.92019 -0.0715038 
0.0260606 -0.0715038 9.9103 
9.92184 0.0019226 0.0349297 
0.0019226 9.91755 -0.0822357 
0.0349297 -0.0822357 9.91102 
9.94146 0.0259676 0.0268943 
0.0259676 9.90408 -0.0842173 
0.0268943 -0.0842173 9.90487 
9.92038 -0.00124688 0.0235643 
-0.00124688 9.91111 -0.085145 
0.0235643 -0.085145 9.91891 
9.8918 0.0286932 -0.0582858 
0.0286932 9.92338 -0.0305252 
-0.0582858 -0.0305252 9.89316 
9.90348 0.000841129 -0.0631089 
0.000841129 9.8815 -0.0551001 
-0.0631089 -0.0551001 9.92336 
9.86779 0.00874532 -0.033205 
0.00874532 9.9232 -0.0193589 
-0.033205 -0.0193589 9.91735 
9.92043 0.0431352 -0.0640449 
0.0431352 9.91938 -0.0523345 
-0.0640449 -0.0523345 9.86853 
9.86529 -0.0244635 0.0412207 
-0.0244635 9.91263 0.0497083 
0.0412207 0.0497083 9.94801 
9.88741 -0.00277375 0.0550578 
-0.00277375 9.9131 0.0603397 
0.0550578 0.0603397 9.92541 
9.88677 -0.0141413 0.0652303 
-0.0141413 9.89751 0.0534403 
0.0652303 0.0534403 9.94165 
9.88546 -0.016047 0.0465265 
-0.016047 9.88262 0.0547137 
0.0465265 0.0547137 9.95785 
9.90652 -0.0506128 -0.0361436 
-0.0506128 9.90239 0.0852531 
-0.0361436 0.0852531 9.88819 
9.92358 -0.0541374 -0.0876021 
-0.0541374 9.82131 0.110228 
-0.0876021 0.110228 9.95222 
9.88674 -0.0288351 -0.0613645 
-0.0288351 9.87677 0.0790495 
-0.0613645 0.0790495 9.9336 
9.8591 -0.028171 -0.0775397 
-0.028171 9.85925 0.0123394 
-0.0775397 0.0123394 9.97876 
9.90698 0.00897474 -0.0539288 
0.00897474 9.91602 -0.0168248 
-0.0539288 -0.0168248 9.92636 
9.9184 0.0255082 -0.0410932 
0.0255082 9.90469 -0.0542634 
-0.0410932 -0.0542634 9.92626 
9.89306 0.0283008 -0.0842942 
0.0283008 9.92192 -0.0305931 
-0.0842942 -0.0305931 9.93438 
9.90147 0.000141308 -0.0334841 
0.000141308 9.90273 -0.0599968 
-0.0334841 -0.0599968 9.94516 
9.9028 -0.0122208 -0.0396609 
-0.0122208 9.93436 -0.0610241 
-0.0396609 -0.0610241 9.93486 
9.91063 -0.010455 -0.0485415 
-0.010455 9.93924 -0.054916 
-0.0485415 -0.054916 9.92215 
9.91953 -0.010586 -0.0501825 
-0.010586 9.92706 -0.0614619 
-0.0501825 -0.0614619 9.92543 
9.91228 -0.00906381 -0.0469103 
-0.00906381 9.92794 -0.0625414 
-0.0469103 -0.0625414 9.9318 
10.1252 0.0259035 -0.0165562 
0.0259035 10.1575 -0.00145833 
-0.0165562 -0.00145833 10.2107 
10.147 -0.00247925 0.0144595 
-0.00247925 10.2034 -0.0137568 
0.0144595 -0.0137568 10.143 
10.1655 0.010593 -0.00639968 
0.010593 10.1269 0.00224074 
-0.00639968 0.00224074 10.201 
10.184 -0.0511755 -6.16903e-05 
-0.0511755 10.1798 0.0228188 
-6.16903e-05 0.0228188 10.1296 
9.98863 -0.00139206 -0.0182831 
-0.00139206 9.99146 0.0642248 
-0.0182831 0.0642248 9.99029 
9.984 0.000604557 -0.0171853 
0.000604557 9.98061 0.0626535 
-0.0171853 0.0626535 10.0058 
9.99 0.000451441 -0.0186721 
0.000451441 9.99059 0.0639895 
-0.0186721 0.0639895 9.98979 
9.99159 0.00176815 -0.0257026 
0.00176815 9.99198 0.0706995 
-0.0257026 0.0706995 9.98681 
9.86356 -0.157329 0.0266125 
-0.157329 10.0043 0.0166745 
0.0266125 0.0166745 9.78849 
9.87324 -0.172848 -0.085216 
-0.172848 9.83593 -0.0356497 
-0.085216 -0.0356497 9.94714 
9.91276 -0.0409776 -0.144226 
-0.0409776 9.90707 -0.0837761 
-0.144226 -0.0837761 9.83649 
9.84233 -0.139252 -0.117081 
-0.139252 10.0128 -0.0114168 
-0.117081 -0.0114168 9.80121 
9.92873 -0.0261686 -0.0431366 
-0.0261686 9.92038 0.0458089 
-0.0431366 0.0458089 9.93386 
9.90907 -0.00588618 -0.0359853 
-0.00588618 9.92934 0.042893 
-0.0359853 0.042893 9.94455 
9.90782 -0.0168843 -0.0493215 
-0.0168843 9.93693 0.0264199 
-0.0493215 0.0264199 9.93821 
9.92573 -0.0166363 -0.0486376 
-0.0166363 9.921 0.0500779 
-0.0486376 0.0500779 9.93623 
9.99027 -0.00091455 -0.00293641 
-0.00091455 9.98909 0.0625406 
-0.00293641 0.0625406 9.99849 
9.98844 -0.00226949 -8.28566e-05 
-0.00226949 9.98978 0.0606715 
-8.28566e-05 0.0606715 9.99963 
9.99479 -0.000339433 0.000177058 
-0.000339433 9.99631 0.0645852 
0.000177058 0.0645852 9.98675 
9.99443 0.0027362 -0.0022399 
0.0027362 9.99768 0.0598316 
-0.0022399 0.0598316 9.98574 
9.95042 -0.0465816 0.0457882 
-0.0465816 9.91941 -0.0164364 
0.0457882 -0.0164364 9.93038 
9.92713 -0.010503 0.0230826 
-0.010503 9.94299 -0.0245248 
0.0230826 -0.0245248 9.9301 
9.92672 -0.0149566 0.0422339 
-0.0149566 9.9353 -0.0324112 
0.0422339 -0.0324112 9.93819 
9.94498 -0.00709618 0.00423452 
-0.00709618 9.91566 -0.051138 
0.00423452 -0.051138 9.93957 
10.1234 0.0219682 -0.0143524 
0.0219682 10.0519 -0.0120285 
-0.0143524 -0.0120285 10.1702 
10.0882 -0.0229065 0.040337 
-0.0229065 10.1217 -0.00362304 
0.040337 -0.00362304 10.1355 
10.0911 0.0193613 0.0550029 
0.0193613 10.1078 -0.0352461 
0.0550029 -0.0352461 10.1466 
10.0782 -0.0176979 0.0441253 
-0.0176979 10.1029 -0.00587991 
0.0441253 -0.00587991 10.1644 
9.88587 -0.00507117 -0.0514525 
-0.00507117 9.87853 -0.0167856 
-0.0514525 -0.0167856 10.0926 
9.90203 -0.00795999 -0.0225001 
-0.00795999 9.87903 0.00248948 
-0.0225001 0.00248948 10.076 
9.90045 -0.022454 -0.0292893 
-0.022454 9.89152 0.0166606 
-0.0292893 0.0166606 10.0651 
9.90763 -0.00543603 -0.0446489 
-0.00543603 9.91883 0.0124642 
-0.0446489 0.0124642 10.0306 
9.97439 0.00398525 0.0166275 
0.00398525 9.97526 0.0319804 
0.0166275 0.0319804 9.95697 
9.96821 0.00231813 0.0140857 
0.00231813 9.97785 0.0337816 
0.0140857 0.0337816 9.96057 
9.97078 0.00504665 0.0143527 
0.00504665 9.97213 0.0292776 
0.0143527 0.0292776 9.96372 
9.97146 0.00325158 0.0179998 
0.00325158 9.97461 0.0313303 
0.0179998 0.0313303 9.96056 
9.94748 0.0581579 -0.142333 
0.0581579 10.0004 -0.0709667 
-0.142333 -0.0709667 9.95757 
9.9685 0.0352283 -0.0505228 
0.0352283 9.9813 -0.0537276 
-0.0505228 -0.0537276 9.95565 
9.9685 0.0190622 -0.104132 
0.0190622 10.0064 -0.0766744 
-0.104132 -0.0766744 9.93059 
9.94968 0.0468685 -0.0825371 
0.0468685 10.0174 -0.0730251 
-0.0825371 -0.0730251 9.93834 
9.88463 -0.000198477 -0.110177 
-0.000198477 9.91353 -0.0401098 
-0.110177 -0.0401098 9.85426 
9.89886 0.0065371 -0.12195 
0.0065371 9.92839 -0.0495845 
-0.12195 -0.0495845 9.82518 
9.90377 0.0236663 -0.132486 
0.0236663 9.92337 -0.0421944 
-0.132486 -0.0421944 9.8253 
9.86652 0.0066078 -0.111819 
0.0066078 9.93377 -0.0529103 
-0.111819 -0.0529103 9.85215 
9.93818 -0.0178057 0.0346286 
-0.0178057 9.92615 -0.0325127 
0.0346286 -0.0325127 9.94255 
9.94235 -0.00706282 0.0179244 
-0.00706282 9.93016 -0.0218132 
0.0179244 -0.0218132 9.93437 
9.92184 -0.0527375 0.0359318 
-0.0527375 9.94188 -0.0410095 
0.0359318 -0.0410095 9.94316 
9.9212 -0.00687142 0.057457 
-0.00687142 9.97235 0.000630764 
0.057457 0.000630764 9.91333 
9.87791 -0.0172713 -0.0592431 
-0.0172713 9.94272 0.0562859 
-0.0592431 0.0562859 9.93027 
9.92861 -0.0210398 -0.0473755 
-0.0210398 9.92173 0.0153786 
-0.0473755 0.0153786 9.90056 
9.9011 -0.0268093 -0.0601239 
-0.0268093 9.9484 0.032693 
-0.0601239 0.032693 9.90141 
9.91693 -0.0410368 -0.0694075 
-0.0410368 9.95867 0.0229186 
-0.0694075 0.0229186 9.8753 
9.94226 0.00385931 -0.0306797 
0.00385931 9.93045 -0.0355844 
-0.0306797 -0.0355844 9.93384 
9.93846 0.00649491 -0.0444427 
0.00649491 9.9193 -0.0416345 
-0.0444427 -0.0416345 9.94878 
9.93218 0.00431182 -0.0444102 
0.00431182 9.923 -0.0515377 
-0.0444102 -0.0515377 9.95136 
9.93304 0.00518492 -0.0474722 
0.00518492 9.92575 -0.0478167 
-0.0474722 -0.0478167 9.94775 
9.94435 0.000845648 0.0224651 
0.000845648 9.90507 0.0176591 
0.0224651 0.0176591 9.87601 
9.94157 0.016357 0.028642 
0.016357 9.94779 0.000516384 
0.028642 0.000516384 9.83607 
9.88493 0.0221666 0.021165 
0.0221666 9.91479 -0.0493681 
0.021165 -0.0493681 9.9257 
9.93216 -0.00416975 0.00978187 
-0.00416975 9.92041 -0.00362665 
0.00978187 -0.00362665 9.87285 
9.76315 0.0536534 0.106809 
0.0536534 9.78083 0.00473953 
0.106809 0.00473953 10.1899 
9.64043 -0.0363639 0.152324 
-0.0363639 9.94566 -0.0324829 
0.152324 -0.0324829 10.1478 
9.8215 -0.169816 0.064692 
-0.169816 9.9071 0.0281053 
0.064692 0.0281053 10.0053 
9.63744 -0.054201 0.141599 
-0.054201 9.94997 -0.130227 
0.141599 -0.130227 10.1464 
9.90453 -0.00361282 -0.0109689 
-0.00361282 9.94878 0.00984886 
-0.0109689 0.00984886 9.98237 
9.94669 0.0163885 0.000992409 
0.0163885 9.94165 -0.00224396 
0.000992409 -0.00224396 9.94733 
9.94252 0.0393319 0.0168749 
0.0393319 9.92085 0.00508528 
0.0168749 0.00508528 9.9723 
9.90968 -0.00276057 -0.0237167 
-0.00276057 9.95933 0.0380907 
-0.0237167 0.0380907 9.96666 
9.7124 0.0899747 0.696519 
0.0899747 10.2739 -0.337858 
0.696519 -0.337858 9.91435 
9.81802 0.142083 0.484542 
0.142083 10.2284 -0.255124 
0.484542 -0.255124 9.85419 
9.71726 -0.330313 0.395387 
-0.330313 10.6601 -0.245891 
0.395387 -0.245891 9.52328 
9.31421 0.256809 0.112314 
0.256809 10.3313 0.0262794 
0.112314 0.0262794 10.2551 
10.0719 0.00837733 0.0157177 
0.00837733 10.1015 0.0354837 
0.0157177 0.0354837 10.2097 
10.0901 -0.000224209 0.0158823 
-0.000224209 10.0795 0.0192674 
0.0158823 0.0192674 10.2135 
10.0658 0.00459876 0.0150156 
0.00459876 10.0788 0.0237978 
0.0150156 0.0237978 10.2385 
10.0917 -0.00245766 0.0105647 
-0.00245766 10.0895 0.000134455 
0.0105647 0.000134455 10.202 
9.8719 0.134924 -0.0357779 
0.134924 9.85459 0.0346489 
-0.0357779 0.0346489 10.0182 
9.90345 0.357019 0.125291 
0.357019 9.89701 0.0786173 
0.125291 0.0786173 9.94424 
9.85465 0.148709 -0.0417927 
0.148709 10.0014 0.184399 
-0.0417927 0.184399 9.88864 
9.84548 0.184026 -0.313268 
0.184026 9.94185 0.125867 
-0.313268 0.125867 9.95738 
9.86831 -0.00686775 -0.0415464 
-0.00686775 9.83312 0.164637 
-0.0415464 0.164637 9.73581 
9.907 0.0448151 -0.0580092 
0.0448151 9.83425 0.205341 
-0.0580092 0.205341 9.696 
9.88935 0.0455741 -0.03196 
0.0455741 9.86081 0.201082 
-0.03196 0.201082 9.68708 
9.88217 0.0300169 -0.0470104 
0.0300169 9.85325 0.182047 
-0.0470104 0.182047 9.70182 
9.94351 -0.00834244 0.0811171 
-0.00834244 9.9674 0.00518057 
0.0811171 0.00518057 9.96422 
9.93891 -0.00944448 0.0808408 
-0.00944448 9.95262 0.0130088 
0.0808408 0.0130088 9.9836 
9.98712 0.0154998 0.0818341 
0.0154998 9.96251 0.0111864 
0.0818341 0.0111864 9.9255 
9.9578 -0.00505244 0.0648167 
-0.00505244 9.96212 -0.0180604 
0.0648167 -0.0180604 9.95522 
9.73224 0.0305406 -0.191442 
0.0305406 10.0164 0.269405 
-0.191442 0.269405 9.79218 
9.98393 0.0233362 -0.135161 
0.0233362 9.70067 0.165524 
-0.135161 0.165524 9.85623 
9.71083 -0.0559257 0.00802306 
-0.0559257 10.0425 0.0477211 
0.00802306 0.0477211 9.78751 
9.97794 0.0159593 -0.014739 
0.0159593 9.83047 0.0865781 
-0.014739 0.0865781 9.73242 
9.81867 0.0730758 0.0622823 
0.0730758 9.80101 -0.163822 
0.0622823 -0.163822 9.93966 
9.78739 -0.00150513 0.102314 
-0.00150513 9.91297 -0.164433 
0.102314 -0.164433 9.85899 
9.87033 0.0770534 0.050331 
0.0770534 9.77435 -0.0817898 
0.050331 -0.0817898 9.91467 
9.86618 0.076653 0.0817241 
0.076653 9.76091 -0.169245 
0.0817241 -0.169245 9.93226 
9.95069 0.00123154 0.0558225 
0.00123154 9.95237 -0.0558082 
0.0558225 -0.0558082 9.95608 
9.94834 -0.0030845 0.0458613 
-0.0030845 9.94519 -0.0535974 
0.0458613 -0.0535974 9.96561 
9.95943 -0.0102753 0.0513465 
-0.0102753 9.95202 -0.0462537 
0.0513465 -0.0462537 9.9477 
9.94818 0.00252622 0.0485212 
0.00252622 9.95383 -0.053059 
0.0485212 -0.053059 9.95714 
9.96606 0.0200919 0.0270309 
0.0200919 9.93565 -0.00406901 
0.0270309 -0.00406901 9.9813 
9.94798 0.0385987 0.0555833 
0.0385987 9.9493 -0.00998224 
0.0555833 -0.00998224 9.98573 
9.95041 0.00758222 0.0377824 
0.00758222 9.92654 -0.0226355 
0.0377824 -0.0226355 10.006 
9.94821 0.0223543 0.0638026 
0.0223543 9.94277 -0.00072739 
0.0638026 -0.00072739 9.99203 
9.91247 0.030616 0.0464123 
0.030616 9.91823 0.0274701 
0.0464123 0.0274701 9.93345 
9.92871 -0.00846747 0.04997 
-0.00846747 9.90739 0.052756 
0.04997 0.052756 9.92806 
9.93419 -0.00388556 0.0527156 
-0.00388556 9.9188 0.0461359 
0.0527156 0.0461359 9.91117 
9.94425 0.0253958 0.0502519 
0.0253958 9.91946 0.0716402 
0.0502519 0.0716402 9.90045 
10.075 -0.0302652 0.00444531 
-0.0302652 10.0563 0.00118214 
0.00444531 0.00118214 9.67028 
10.002 0.0146838 0.0841909 
0.0146838 9.95414 -0.0348743 
0.0841909 -0.0348743 9.84546 
10.0014 0.00147468 0.0948178 
0.00147468 9.96157 0.0135392 
0.0948178 0.0135392 9.83864 
9.95685 -0.0118623 0.0126534 
-0.0118623 9.92363 0.005869 
0.0126534 0.005869 9.92114 
9.94001 -0.0100341 0.00170072 
-0.0100341 9.93392 -0.0137494 
0.00170072 -0.0137494 10.0207 
9.94973 -0.0255121 0.0221456 
-0.0255121 9.92631 -0.0148732 
0.0221456 -0.0148732 10.0186 
9.94777 -0.0419679 0.0227306 
-0.0419679 9.93907 -0.00857085 
0.0227306 -0.00857085 10.0078 
9.95997 -0.0210659 0.0483569 
-0.0210659 9.88372 -0.0349245 
0.0483569 -0.0349245 10.0509 
9.85497 -0.0292808 0.0750241 
-0.0292808 9.90042 -0.0102715 
0.0750241 -0.0102715 9.97347 
9.85184 0.037102 0.0614815 
0.037102 9.89866 -0.0420474 
0.0614815 -0.0420474 9.97836 
9.90318 0.0449013 0.0239641 
0.0449013 9.89049 -0.0432448 
0.0239641 -0.0432448 9.93519 
9.91769 0.0198381 0.0414776 
0.0198381 9.90002 -0.125968 
0.0414776 -0.125968 9.91115 
9.96391 0.000744447 0.00937367 
0.000744447 9.96205 0.070902 
0.00937367 0.070902 9.96088 
9.96564 -0.000506016 0.0102441 
-0.000506016 9.96394 0.0762225 
0.0102441 0.0762225 9.95726 
9.96396 0.00134382 0.0095165 
0.00134382 9.96688 0.0714082 
0.0095165 0.0714082 9.956 
9.96328 -0.00145554 0.00709457 
-0.00145554 9.96636 0.0761962 
0.00709457 0.0761962 9.9572 
9.93427 0.00269223 0.00415469 
0.00269223 9.94248 -0.0197053 
0.00415469 -0.0197053 10.0116 
9.92762 0.00430607 -0.0148042 
0.00430607 9.9158 -0.0383033 
-0.0148042 -0.0383033 10.045 
9.93728 0.000193871 -0.00715981 
0.000193871 9.929 -0.0136282 
-0.00715981 -0.0136282 10.0221 
9.93593 -0.00532037 -0.00281507 
-0.00532037 9.92812 -0.000172392 
-0.00281507 -0.000172392 10.0244 
9.94517 0.0253566 -0.00105816 
0.0253566 9.91372 -0.0267714 
-0.00105816 -0.0267714 10.0194 
9.93536 0.00696479 -0.0101389 
0.00696479 9.93266 -0.00919132 
-0.0101389 -0.00919132 10.0102 
9.93254 0.000173877 0.00141762 
0.000173877 9.92693 -0.0250288 
0.00141762 -0.0250288 10.0188 
9.92406 0.00924274 -0.00989343 
0.00924274 9.9172 -0.0330988 
-0.00989343 -0.0330988 10.037 
9.98176 -0.0121344 -0.0231058 
-0.0121344 9.92571 0.0507374 
-0.0231058 0.0507374 9.93184 
9.94995 -0.0530656 -0.0118806 
-0.0530656 9.96696 0.040297 
-0.0118806 0.040297 9.9224 
9.97352 -0.0178095 -0.0325172 
-0.0178095 9.92997 0.0749627 
-0.0325172 0.0749627 9.93582 
9.96072 -0.0244623 -0.0338433 
-0.0244623 9.93279 0.0448104 
-0.0338433 0.0448104 9.9458 
9.95067 -0.00477143 -0.0342893 
-0.00477143 9.96068 -0.0353056 
-0.0342893 -0.0353056 9.96448 
9.95165 0.018395 -0.0293103 
0.018395 9.97572 -0.0192386 
-0.0293103 -0.0192386 9.94845 
9.96633 0.0096504 -0.0214077 
0.0096504 9.94823 -0.0526699 
-0.0214077 -0.0526699 9.96126 
9.97154 0.00495534 -0.0132652 
0.00495534 9.95375 -0.0361644 
-0.0132652 -0.0361644 9.95053 
9.97669 -0.00240785 0.00370292 
-0.00240785 9.9832 -0.0629717 
0.00370292 -0.0629717 9.96907 
9.99641 0.00705652 0.00153643 
0.00705652 9.97257 -0.0534919 
0.00153643 -0.0534919 9.95998 
9.98354 0.00588788 -0.00704379 
0.00588788 9.96185 -0.0699267 
-0.00704379 -0.0699267 9.98357 
9.97299 -0.00286592 0.00966963 
-0.00286592 9.98525 -0.0604255 
0.00966963 -0.0604255 9.97071 
9.70774 0.138113 -0.161002 
0.138113 10.1098 -0.11598 
-0.161002 -0.11598 10.0373 
9.90497 0.0562905 -0.312114 
0.0562905 9.89588 0.0439589 
-0.312114 0.0439589 10.0539 
9.64367 0.0870831 -0.212777 
0.0870831 10.117 0.0609218 
-0.212777 0.0609218 10.0941 
9.70415 -0.142174 -0.0976937 
-0.142174 10.1341 -0.185266 
-0.0976937 -0.185266 10.0165 
10.9691 -0.425256 -0.0477548 
-0.425256 10.4559 0.551352 
-0.0477548 0.551352 9.51456 
8.79706 0.342438 0.185941 
0.342438 9.68805 -0.751727 
0.185941 -0.751727 12.4545 
10.6985 0.144099 -0.135931 
0.144099 10.1819 0.23924 
-0.135931 0.23924 10.0591 
10.6154 1.21201 -1.3112 
1.21201 8.35853 1.07326 
-1.3112 1.07326 11.9656 
9.92151 -0.00736921 0.0142039 
-0.00736921 9.92335 -0.00910423 
0.0142039 -0.00910423 9.97348 
9.92803 -0.000305607 0.00049677 
-0.000305607 9.92322 -0.00837751 
0.00049677 -0.00837751 9.96709 
9.9321 -0.00538251 -0.000697974 
-0.00538251 9.92449 -0.00837899 
-0.000697974 -0.00837899 9.96174 
9.91628 -0.0128767 -0.0149592 
-0.0128767 9.93489 -0.0165085 
-0.0149592 -0.0165085 9.96716 
9.27571 -0.483093 -2.19093 
-0.483093 9.80383 -0.475491 
-2.19093 -0.475491 8.89259 
10.9388 0.407456 -1.00688 
0.407456 9.01794 -0.265834 
-1.00688 -0.265834 8.01542 
9.32483 -0.781392 -1.52928 
-0.781392 9.96018 -0.175696 
-1.52928 -0.175696 8.68713 
8.86985 0.942646 -0.858171 
0.942646 9.84225 -0.229993 
-0.858171 -0.229993 9.26003 
9.91843 -0.00861803 -0.0650187 
-0.00861803 9.8303 0.0612324 
-0.0650187 0.0612324 9.86158 
9.98359 0.0299936 -0.0736503 
0.0299936 9.9328 0.0464623 
-0.0736503 0.0464623 9.69391 
9.95843 0.047742 0.0808268 
0.047742 9.7793 -0.00474637 
0.0808268 -0.00474637 9.87257 
9.87186 -0.0120725 -0.0580248 
-0.0120725 9.95107 0.043986 
-0.0580248 0.043986 9.78738 
9.8765 -0.00392812 0.0197412 
-0.00392812 9.87553 0.177402 
0.0197412 0.177402 9.87259 
9.90742 0.000989284 -0.000626281 
0.000989284 9.85364 0.135692 
-0.000626281 0.135692 9.86356 
9.89244 0.0039921 -0.00884035 
0.0039921 9.87496 0.123037 
-0.00884035 0.123037 9.85722 
9.91142 -0.0081658 -0.0156337 
-0.0081658 9.8557 0.118821 
-0.0156337 0.118821 9.8575 
9.97871 -0.0102156 -0.00812552 
-0.0102156 9.97143 0.0156167 
-0.00812552 0.0156167 9.99399 
9.97857 0.000209324 -0.00491651 
0.000209324 9.98056 0.0130329 
-0.00491651 0.0130329 9.985 
9.97321 0.00382151 -0.00202096 
0.00382151 9.98538 0.0100044 
-0.00202096 0.0100044 9.98554 
9.9906 -0.0114048 0.00225365 
-0.0114048 9.98116 0.00572789 
0.00225365 0.00572789 9.97237 
9.96256 0.00749842 -0.0296021 
0.00749842 9.9681 -0.030023 
-0.0296021 -0.030023 9.96865 
9.96956 0.00899604 -0.0276898 
0.00899604 9.9699 -0.0317355 
-0.0276898 -0.0317355 9.95985 
9.96378 0.00775684 -0.0285044 
0.00775684 9.96951 -0.0299195 
-0.0285044 -0.0299195 9.96602 
9.96609 0.00903791 -0.0275401 
0.00903791 9.96938 -0.0358924 
-0.0275401 -0.0358924 9.96384 
9.93644 0.0052627 0.0476137 
0.0052627 9.93454 0.0498435 
0.0476137 0.0498435 9.95071 
9.93917 0.00398812 0.0449757 
0.00398812 9.93076 0.0505823 
0.0449757 0.0505823 9.95175 
9.94315 0.00753537 0.0454129 
0.00753537 9.9255 0.0534721 
0.0454129 0.0534721 9.95304 
9.9354 -0.000235748 0.0548989 
-0.000235748 9.93225 0.0378568 
0.0548989 0.0378568 9.95404 
9.95124 -0.00159392 -0.00816082 
-0.00159392 9.93955 0.00132553 
-0.00816082 0.00132553 10.0055 
9.93863 0.00728991 0.00553866 
0.00728991 9.96126 0.00727939 
0.00553866 0.00727939 9.99637 
9.947 -0.00245072 -0.00419238 
-0.00245072 9.94173 -0.00686471 
-0.00419238 -0.00686471 10.0075 
9.93131 0.00387964 -0.00165297 
0.00387964 9.94221 0.00136288 
-0.00165297 0.00136288 10.0227 
10.0423 0.125175 0.127872 
0.125175 9.52914 -0.263731 
0.127872 -0.263731 10.0279 
10.1665 0.162984 0.132849 
0.162984 9.88348 -0.282094 
0.132849 -0.282094 9.54938 
9.97597 0.192778 0.301142 
0.192778 9.53225 -0.0907089 
0.301142 -0.0907089 10.0912 
10.0413 -0.056951 0.243807 
-0.056951 9.8078 -0.265687 
0.243807 -0.265687 9.75032 
9.98196 0.175424 0.0102147 
0.175424 9.65923 -0.164669 
0.0102147 -0.164669 10.2624 
9.98848 -0.258533 0.200237 
-0.258533 10.1308 -0.213239 
0.200237 -0.213239 9.78433 
10.1061 0.380018 0.0447871 
0.380018 9.66822 -0.148303 
0.0447871 -0.148303 10.1293 
10.0885 0.355887 0.197399 
0.355887 9.57592 -0.271114 
0.197399 -0.271114 10.2392 
9.95279 0.00657268 -0.0312902 
0.00657268 9.96642 -0.0373945 
-0.0312902 -0.0373945 9.93736 
9.95974 0.0111888 -0.0312595 
0.0111888 9.93271 -0.0308702 
-0.0312595 -0.0308702 9.96413 
9.95555 0.0171797 -0.0342831 
0.0171797 9.9571 -0.0419589 
-0.0342831 -0.0419589 9.94393 
9.96354 0.00937527 -0.0112516 
0.00937527 9.95956 -0.0315609 
-0.0112516 -0.0315609 9.93348 
10.0483 -0.0479317 0.031216 
-0.0479317 9.86489 -0.0182584 
0.031216 -0.0182584 10.1362 
10.0063 -0.109744 -0.0360522 
-0.109744 10.0223 -0.0383253 
-0.0360522 -0.0383253 10.0207 
10.0588 -0.0354759 0.0815615 
-0.0354759 9.83068 -0.0539562 
0.0815615 -0.0539562 10.1599 
9.96772 0.0542242 -0.00977329 
0.0542242 9.94128 -0.0523768 
-0.00977329 -0.0523768 10.1403 
11.1302 0.529247 -0.243042 
0.529247 10.0755 0.139772 
-0.243042 0.139772 10.7272 
9.10424 -0.0422199 -0.505677 
-0.0422199 6.81587 -1.03067 
-0.505677 -1.03067 16.0128 
10.3333 0.109513 0.0604594 
0.109513 10.6401 0.43577 
0.0604594 0.43577 10.9595 
10.8617 0.335291 0.908005 
0.335291 10.2799 -1.13748 
0.908005 -1.13748 10.7913 
10.0934 -0.0482042 0.0876351 
-0.0482042 10.0748 0.018403 
0.0876351 0.018403 10.3115 
10.1408 0.0345963 -0.0135281 
0.0345963 10.0714 0.00809554 
-0.0135281 0.00809554 10.2675 
10.112 0.000954375 -0.00862234 
0.000954375 10.066 0.0163075 
-0.00862234 0.0163075 10.3017 
10.1343 -0.02327 -0.0194376 
-0.02327 10.1211 0.0186414 
-0.0194376 0.0186414 10.2242 
9.91296 0.0201883 -0.0359684 
0.0201883 9.89493 0.0794716 
-0.0359684 0.0794716 10.0717 
9.91138 0.0535971 0.0166919 
0.0535971 9.83768 0.0050345 
0.0166919 0.0050345 10.1306 
10.0796 0.0344657 0.0803939 
0.0344657 9.92004 -0.122312 
0.0803939 -0.122312 9.88002 
9.94377 0.0475203 -0.0231265 
0.0475203 9.84035 -0.0039043 
-0.0231265 -0.0039043 10.0955 
8.08003 -0.108303 0.0928577 
-0.108303 9.43578 -0.942217 
0.0928577 -0.942217 10.2174 
9.38072 0.597188 -0.203218 
0.597188 10.4903 0.254888 
-0.203218 0.254888 7.86219 
9.78368 0.315276 -0.818752 
0.315276 10.796 -0.666527 
-0.818752 -0.666527 7.15354 
9.36825 0.42704 -0.437209 
0.42704 10.5801 0.501319 
-0.437209 0.501319 7.78482 
9.98085 -0.00265417 0.0409001 
-0.00265417 9.97808 -0.0474054 
0.0409001 -0.0474054 9.99057 
9.9796 -0.0029398 0.0440849 
-0.0029398 9.98086 -0.0471333 
0.0440849 -0.0471333 9.98903 
9.98058 -0.00544877 0.0463414 
-0.00544877 9.98091 -0.0434255 
0.0463414 -0.0434255 9.988 
9.98241 0.00558261 0.0500979 
0.00558261 9.98607 -0.0429933 
0.0500979 -0.0429933 9.98102 
9.89561 -0.0608745 -0.0741899 
-0.0608745 9.86978 -0.032548 
-0.0741899 -0.032548 10.0354 
9.87629 -0.00682897 -0.0252676 
-0.00682897 9.88407 0.0349322 
-0.0252676 0.0349322 10.0404 
9.90112 -0.0176075 -0.0357606 
-0.0176075 9.90077 -0.00505035 
-0.0357606 -0.00505035 9.99888 
9.88592 0.000851151 -0.0448346 
0.000851151 9.90727 0.00293653 
-0.0448346 0.00293653 10.0076 
9.95615 0.0266042 -0.0417305 
0.0266042 9.90266 -0.0852551 
-0.0417305 -0.0852551 9.92601 
9.91135 0.0357941 -0.0344984 
0.0357941 9.92809 -0.0338191 
-0.0344984 -0.0338191 9.94538 
9.93309 0.0879688 -0.0551592 
0.0879688 9.91155 -0.0201759 
-0.0551592 -0.0201759 9.94019 
9.98852 0.00895764 -0.0314755 
0.00895764 9.88467 -0.0556939 
-0.0314755 -0.0556939 9.91164 
9.93082 0.00265324 0.0109626 
0.00265324 9.93362 0.00520717 
0.0109626 0.00520717 9.91523 
9.93883 -0.00356543 0.010541 
-0.00356543 9.92189 0.0109618 
0.010541 0.0109618 9.91895 
9.94632 -0.004517 0.00783745 
-0.004517 9.92908 0.00370104 
0.00783745 0.00370104 9.90427 
9.93875 -0.01335 0.00361752 
-0.01335 9.93548 0.00427007 
0.00361752 0.00427007 9.90544 
10.1008 0.0876719 -0.20575 
0.0876719 10.0336 -0.06364 
-0.20575 -0.06364 10.219 
9.91034 0.0477758 -0.0285683 
0.0477758 10.1911 -0.0734088 
-0.0285683 -0.0734088 10.2519 
9.88634 0.0407088 -0.0217837 
0.0407088 10.1482 -0.0606881 
-0.0217837 -0.0606881 10.3189 
10.1611 -0.000383791 0.11159 
-0.000383791 10.0808 0.107005 
0.11159 0.107005 10.1115 
9.9463 0.0125708 0.0233202 
0.0125708 9.94428 0.0147901 
0.0233202 0.0147901 9.96477 
9.9639 0.0140735 0.019865 
0.0140735 9.94701 0.0305348 
0.019865 0.0305348 9.94444 
9.95411 0.0204689 0.021481 
0.0204689 9.95456 0.028637 
0.021481 0.028637 9.94667 
9.96478 0.0146269 0.0217431 
0.0146269 9.94446 0.0381946 
0.0217431 0.0381946 9.94611 
9.90668 0.0820981 -0.232357 
0.0820981 9.75456 0.059555 
-0.232357 0.059555 9.56467 
9.85798 0.121258 -0.355394 
0.121258 9.79201 0.00623375 
-0.355394 0.00623375 9.57592 
9.82479 0.0198928 -0.286104 
0.0198928 9.72351 0.0691179 
-0.286104 0.0691179 9.67761 
9.99245 0.138906 -0.110434 
0.138906 9.76556 0.127505 
-0.110434 0.127505 9.46791 
9.8987 -0.0170777 -0.0555426 
-0.0170777 9.89323 0.055555 
-0.0555426 0.055555 9.9492 
9.90073 -0.0243831 -0.0589974 
-0.0243831 9.89013 0.0585373 
-0.0589974 0.0585373 9.95027 
9.91992 -0.0257503 -0.049043 
-0.0257503 9.88992 0.0760046 
-0.049043 0.0760046 9.93129 
9.91256 -0.0129893 -0.0641375 
-0.0129893 9.90182 0.0454525 
-0.0641375 0.0454525 9.92675 
9.94425 -0.0170879 -0.0188162 
-0.0170879 9.91 0.00857239 
-0.0188162 0.00857239 9.9319 
9.92863 0.0287582 -0.0272491 
0.0287582 9.92815 0.0052973 
-0.0272491 0.0052973 9.92937 
9.93493 0.0302794 -0.0406942 
0.0302794 9.91982 0.00973545 
-0.0406942 0.00973545 9.93141 
9.91403 0.0222263 -0.0379021 
0.0222263 9.92745 -0.0335348 
-0.0379021 -0.0335348 9.94467 
9.98579 -0.195692 -0.170228 
-0.195692 9.7186 0.747607 
-0.170228 0.747607 9.37578 
9.57542 0.257003 0.790449 
0.257003 9.23972 0.126596 
0.790449 0.126596 10.265 
10.2171 0.510094 -0.352214 
0.510094 9.46989 1.2355 
-0.352214 1.2355 9.39315 
10.2014 -0.0499152 -0.739462 
-0.0499152 9.73055 0.461729 
-0.739462 0.461729 9.14823 
10.4378 -0.387169 0.136629 
-0.387169 9.8078 0.47787 
0.136629 0.47787 10.831 
10.5644 -0.214139 0.598585 
-0.214139 9.9958 0.573077 
0.598585 0.573077 10.5165 
10.8182 -0.118215 0.258122 
-0.118215 9.82004 0.0418787 
0.258122 0.0418787 10.4384 
10.5086 -0.415181 0.118503 
-0.415181 9.96592 0.430101 
0.118503 0.430101 10.6021 
9.89934 0.00226462 0.138708 
0.00226462 9.94675 0.0996292 
0.138708 0.0996292 9.78679 
9.84718 0.00766935 0.0808247 
0.00766935 9.91879 0.0504722 
0.0808247 0.0504722 9.8669 
9.87342 0.00153066 0.11015 
0.00153066 9.90122 0.0473303 
0.11015 0.0473303 9.85823 
9.85769 -0.00554067 0.0789345 
-0.00554067 9.88428 0.0895592 
0.0789345 0.0895592 9.89091 
9.91601 -0.0350787 0.0221777 
-0.0350787 9.89108 0.00399512 
0.0221777 0.00399512 10.0103 
9.93734 -0.0607088 0.048397 
-0.0607088 9.92457 -0.0397311 
0.048397 -0.0397311 9.95543 
9.90953 -0.033874 -0.00424821 
-0.033874 9.89283 0.000688412 
-0.00424821 0.000688412 10.015 
9.87661 -0.056244 0.0737063 
-0.056244 9.93111 -0.0297753 
0.0737063 -0.0297753 10.0096 
9.88635 0.0124857 0.0423043 
0.0124857 9.91565 -0.0452682 
0.0423043 -0.0452682 9.99197 
9.85398 0.0216582 0.0340567 
0.0216582 9.94215 -0.027564 
0.0340567 -0.027564 9.99785 
9.87688 0.0135492 0.0584515 
0.0135492 9.91398 -0.0420046 
0.0584515 -0.0420046 10.0031 
9.90051 0.0134069 0.0407433 
0.0134069 9.89424 -0.0439134 
0.0407433 -0.0439134 9.99922 
9.36162 -0.825008 -0.2703 
-0.825008 10.7312 -0.313919 
-0.2703 -0.313919 10.5696 
10.62 1.15682 1.39569 
1.15682 9.73974 -1.12152 
1.39569 -1.12152 10.3027 
10.7273 1.92608 -1.4525 
1.92608 8.20688 -0.508591 
-1.4525 -0.508591 11.7282 
9.80412 -0.0540145 0.361512 
-0.0540145 9.80272 -0.647684 
0.361512 -0.647684 11.0556 
9.95536 0.0219942 -0.0336633 
0.0219942 9.96118 -0.0378655 
-0.0336633 -0.0378655 9.95447 
9.94884 0.0113108 -0.0369702 
0.0113108 9.96066 -0.0368152 
-0.0369702 -0.0368152 9.9615 
9.95039 0.0148274 -0.0408629 
0.0148274 9.96419 -0.0297035 
-0.0408629 -0.0297035 9.95642 
9.94982 0.0224095 -0.0343191 
0.0224095 9.9643 -0.0298512 
-0.0343191 -0.0298512 9.95688 
9.96058 0.0246236 -0.14867 
0.0246236 9.91879 -0.00421475 
-0.14867 -0.00421475 9.92778 
9.947 -0.00623916 -0.0251924 
-0.00623916 9.92518 0.00847418 
-0.0251924 0.00847418 9.93498 
9.9637 0.0195742 -0.0200913 
0.0195742 9.93955 -0.0150108 
-0.0200913 -0.0150108 9.90392 
9.93539 0.0303178 -0.0137697 
0.0303178 9.89182 0.0395705 
-0.0137697 0.0395705 9.97995 
9.96894 -0.000594294 -0.0711275 
-0.000594294 9.97099 -0.0182204 
-0.0711275 -0.0182204 9.96323 
9.97258 0.000465425 -0.0714306 
0.000465425 9.97451 -0.0170316 
-0.0714306 -0.0170316 9.95608 
9.9636 0.00286387 -0.0617492 
0.00286387 9.96885 -0.00884932 
-0.0617492 -0.00884932 9.97071 
9.96835 -0.000296051 -0.0712754 
-0.000296051 9.97132 -0.0181224 
-0.0712754 -0.0181224 9.96349 
9.9654 -0.00196912 0.014263 
-0.00196912 9.96556 0.0221397 
0.014263 0.0221397 9.97491 
9.97027 0.00918027 0.00389043 
0.00918027 9.97531 0.012798 
0.00389043 0.012798 9.96029 
9.96046 0.00249547 0.00567351 
0.00249547 9.96827 0.0128894 
0.00567351 0.0128894 9.97714 
9.96556 0.0060458 0.0116986 
0.0060458 9.97522 0.00976756 
0.0116986 0.00976756 9.96509 
9.95013 -0.00880489 -0.0902257 
-0.00880489 9.94241 -0.0761636 
-0.0902257 -0.0761636 9.88357 
9.90844 0.0145369 -0.0513684 
0.0145369 9.95293 -0.0353135 
-0.0513684 -0.0353135 9.91473 
9.90892 0.00871609 -0.058026 
0.00871609 9.94362 -0.0561364 
-0.058026 -0.0561364 9.92357 
9.93337 -0.00251372 -0.0445173 
-0.00251372 9.90279 -0.0613351 
-0.0445173 -0.0613351 9.93996 
9.96019 -0.0037481 -0.022513 
-0.0037481 9.96791 0.0536927 
-0.022513 0.0536927 9.94181 
9.95864 0.000452674 -0.0187691 
0.000452674 9.96529 0.0529955 
-0.0187691 0.0529955 9.94597 
9.9578 -0.0001891 -0.0193226 
-0.0001891 9.96213 0.0517155 
-0.0193226 0.0517155 9.94998 
9.95984 -0.000132087 -0.0198997 
-0.000132087 9.9646 0.0507617 
-0.0198997 0.0507617 9.94547 
9.87731 0.00344344 0.0374841 
0.00344344 9.94815 -0.0153808 
0.0374841 -0.0153808 10.2376 
9.84213 -0.00882984 0.0155603 
-0.00882984 9.96065 -0.026426 
0.0155603 -0.026426 10.2603 
9.8667 -0.0102775 0.0466594 
-0.0102775 9.95017 -0.0153661 
0.0466594 -0.0153661 10.2462 
9.86555 -0.00101451 0.0260865 
-0.00101451 9.94092 -0.0187116 
0.0260865 -0.0187116 10.2566 
9.94753 -0.0263272 0.0247885 
-0.0263272 9.92982 -0.0159933 
0.0247885 -0.0159933 9.97932 
9.93343 -0.0295208 0.0274843 
-0.0295208 9.94265 -0.0225089 
0.0274843 -0.0225089 9.98059 
9.93534 -0.00701079 0.0194836 
-0.00701079 9.92746 -0.00650976 
0.0194836 -0.00650976 9.99388 
9.94544 -0.0497127 0.000311208 
-0.0497127 9.94021 0.00444545 
0.000311208 0.00444545 9.97102 
10.1344 0.0145095 -0.00358916 
0.0145095 10.0904 -0.014699 
-0.00358916 -0.014699 10.1394 
10.0687 -0.0340792 -0.00722299 
-0.0340792 10.1227 0.000118961 
-0.00722299 0.000118961 10.1728 
10.1085 0.0374419 -0.0128167 
0.0374419 10.0488 -0.0359807 
-0.0128167 -0.0359807 10.2069 
10.102 -0.0498627 0.0186425 
-0.0498627 10.0962 -0.0981696 
0.0186425 -0.0981696 10.1661 
9.89674 -0.00521772 0.0547851 
-0.00521772 9.90826 0.067829 
0.0547851 0.067829 9.91992 
9.94462 0.00380414 0.0610068 
0.00380414 9.93489 0.076191 
0.0610068 0.076191 9.8454 
9.90669 0.00214696 0.0656678 
0.00214696 9.90043 0.0424582 
0.0656678 0.0424582 9.9178 
9.9039 0.02547 0.0645596 
0.02547 9.93466 0.0692209 
0.0645596 0.0692209 9.88636 
9.93207 0.000471181 0.0846876 
0.000471181 9.94745 0.000795261 
0.0846876 0.000795261 9.92652 
9.95249 0.00303192 0.080481 
0.00303192 9.95097 -0.0135171 
0.080481 -0.0135171 9.90258 
9.93 0.0038549 0.0850351 
0.0038549 9.94782 0.000300154 
0.0850351 0.000300154 9.92821 
9.92922 -0.00376321 0.0641633 
-0.00376321 9.92587 0.0130968 
0.0641633 0.0130968 9.95095 
9.97983 -0.00744097 0.0557394 
-0.00744097 9.9785 -0.0518142 
0.0557394 -0.0518142 9.98732 
9.97685 -0.00576638 0.0453585 
-0.00576638 9.97782 -0.0457854 
0.0453585 -0.0457854 9.99099 
9.97641 0.000331666 0.042563 
0.000331666 9.983 -0.0475127 
0.042563 -0.0475127 9.98624 
9.98191 -0.00205361 0.0561044 
-0.00205361 9.98376 -0.0532398 
0.0561044 -0.0532398 9.97998 
9.93364 0.0529399 0.0533202 
0.0529399 9.89109 0.0883906 
0.0533202 0.0883906 10.0445 
9.90962 0.0507022 0.0943519 
0.0507022 9.90687 0.0490715 
0.0943519 0.0490715 10.0527 
9.96214 0.0186334 0.0723031 
0.0186334 9.88062 0.0680867 
0.0723031 0.0680867 10.0264 
9.9299 0.0302521 0.0591522 
0.0302521 9.88129 0.0844899 
0.0591522 0.0844899 10.058 
9.933 -0.00710155 0.0854904 
-0.00710155 9.93134 0.0144346 
0.0854904 0.0144346 9.90684 
9.93376 -0.00388055 0.0803577 
-0.00388055 9.92952 0.00963614 
0.0803577 0.00963614 9.9079 
9.91161 -0.00438827 0.0810427 
-0.00438827 9.93185 0.020397 
0.0810427 0.020397 9.92771 
9.92704 -0.00278077 0.07107 
-0.00278077 9.96092 0.0244548 
0.07107 0.0244548 9.88322 
9.95875 -0.000841746 0.0158968 
-0.000841746 9.95353 0.0142613 
0.0158968 0.0142613 9.97497 
9.94591 -0.00259713 0.0059711 
-0.00259713 9.95234 0.00444169 
0.0059711 0.00444169 9.98898 
9.94586 -0.00255605 0.0064878 
-0.00255605 9.94853 0.00436163 
0.0064878 0.00436163 9.99285 
9.96969 0.00451607 -0.00762652 
0.00451607 9.94701 -0.0120795 
-0.00762652 -0.0120795 9.97054 
9.91815 0.00564689 -0.0325507 
0.00564689 9.96412 0.0488655 
-0.0325507 0.0488655 9.91089 
9.93528 -0.00299134 -0.0146478 
-0.00299134 9.94466 0.0387925 
-0.0146478 0.0387925 9.91322 
9.93107 -0.000624883 -0.0236333 
-0.000624883 9.96228 0.0428956 
-0.0236333 0.0428956 9.89981 
9.9544 0.0100739 -0.0283798 
0.0100739 9.96285 0.0836201 
-0.0283798 0.0836201 9.87591 
9.97741 0.000148889 -0.0745148 
0.000148889 9.97958 -0.00018352 
-0.0745148 -0.00018352 9.97606 
9.9761 -0.00136606 -0.0677476 
-0.00136606 9.97701 -0.00219946 
-0.0677476 -0.00219946 9.97994 
9.9767 0.00148883 -0.0682207 
0.00148883 9.97659 -0.000471131 
-0.0682207 -0.000471131 9.97975 
9.98642 -0.000593208 -0.0748594 
-0.000593208 9.97601 0.000447007 
-0.0748594 0.000447007 9.97062 
9.98226 -0.299009 -0.322698 
-0.299009 9.75292 -0.144686 
-0.322698 -0.144686 9.99752 
10.0102 -0.296254 -0.160086 
-0.296254 9.69292 -0.23842 
-0.160086 -0.23842 10.0296 
10.2516 -0.102385 -0.0275927 
-0.102385 9.95603 -0.525365 
-0.0275927 -0.525365 9.5251 
9.91782 -0.063216 0.0473869 
-0.063216 9.89095 -0.0130914 
0.0473869 -0.0130914 9.92393 
9.86509 -0.042782 0.408224 
-0.042782 9.85871 0.0276593 
0.408224 0.0276593 9.8615 
9.80699 0.0733435 0.205615 
0.0733435 9.96196 0.0310288 
0.205615 0.0310288 9.81635 
9.8848 -0.0640705 0.278581 
-0.0640705 9.94054 -0.031072 
0.278581 -0.031072 9.75995 
9.77964 0.0480121 0.396313 
0.0480121 9.99925 -0.0167381 
0.396313 -0.0167381 9.80641 
9.94724 -0.000718434 0.0594163 
-0.000718434 9.94764 -0.0345874 
0.0594163 -0.0345874 9.94433 
9.94689 -0.00088181 0.0580584 
-0.00088181 9.95154 -0.0266064 
0.0580584 -0.0266064 9.94078 
9.95276 -0.000675687 0.0663596 
-0.000675687 9.94633 -0.0330925 
0.0663596 -0.0330925 9.94012 
9.94541 0.00243323 0.0571845 
0.00243323 9.95238 -0.0314955 
0.0571845 -0.0314955 9.94142 
10.0071 -0.298303 0.137277 
-0.298303 9.73381 0.159094 
0.137277 0.159094 10.2024 
10.0478 -0.291398 0.168169 
-0.291398 9.71831 0.103227 
0.168169 0.103227 10.1771 
9.99927 -0.320277 0.125154 
-0.320277 9.85248 0.0849845 
0.125154 0.0849845 10.0915 
10.0793 -0.213753 0.0941216 
-0.213753 9.64475 0.154576 
0.0941216 0.154576 10.2193 
9.92838 -0.0785523 -0.0579402 
-0.0785523 9.99802 0.0551696 
-0.0579402 0.0551696 9.93662 
9.94107 -0.0286857 -0.114874 
-0.0286857 9.96821 0.0310835 
-0.114874 0.0310835 9.95373 
9.90007 -0.101905 -0.133697 
-0.101905 9.94915 0.0596332 
-0.133697 0.0596332 10.0138 
9.95217 -0.0333081 -0.0565417 
-0.0333081 9.93457 0.0370975 
-0.0565417 0.0370975 9.97627 
9.98141 0.0136161 -0.0255845 
0.0136161 9.95955 -0.0702758 
-0.0255845 -0.0702758 9.9836 
9.979 0.00270954 -0.0203142 
0.00270954 9.97566 -0.0640776 
-0.0203142 -0.0640776 9.96991 
9.97421 -0.00400228 -0.0169041 
-0.00400228 9.97981 -0.0664889 
-0.0169041 -0.0664889 9.97055 
9.9854 0.00543648 -0.0165562 
0.00543648 9.97674 -0.0560502 
-0.0165562 -0.0560502 9.96243 
9.06108 -0.462714 -2.18808 
-0.462714 10.0556 -0.782454 
-2.18808 -0.782454 11.4165 
10.7108 0.414015 -0.836268 
0.414015 10.3157 0.0546594 
-0.836268 0.0546594 9.50675 
9.60471 -0.359028 -0.581779 
-0.359028 10.6163 -0.21053 
-0.581779 -0.21053 10.3122 
9.72369 -0.3996 -0.0843054 
-0.3996 9.88763 -0.142835 
-0.0843054 -0.142835 10.9219 
9.95762 -0.00259634 0.0622328 
-0.00259634 9.95735 0.0104277 
0.0622328 0.0104277 9.95579 
9.97699 0.00634645 0.0619178 
0.00634645 9.96311 0.00370373 
0.0619178 0.00370373 9.93066 
9.96991 -0.000786599 0.0590526 
-0.000786599 9.95963 0.011876 
0.0590526 0.011876 9.94121 
9.96336 -0.00392485 0.0595401 
-0.00392485 9.95466 0.00412715 
0.0595401 0.00412715 9.95273 
9.91634 -0.0234584 0.0458127 
-0.0234584 9.91882 -0.0140645 
0.0458127 -0.0140645 9.94539 
9.97807 -0.0287793 0.0351229 
-0.0287793 9.89973 -0.101053 
0.0351229 -0.101053 9.90275 
9.94242 -0.0615284 0.0325749 
-0.0615284 9.92573 -0.0198619 
0.0325749 -0.0198619 9.91241 
9.95464 -0.0217395 0.00962963 
-0.0217395 9.91795 -0.0557105 
0.00962963 -0.0557105 9.90797 
9.95376 0.032766 0.0486081 
0.032766 9.9142 0.00711225 
0.0486081 0.00711225 9.91784 
9.92399 0.0195792 -0.0463139 
0.0195792 9.95031 0.0140966 
-0.0463139 0.0140966 9.9115 
9.91224 -0.0360632 -0.054721 
-0.0360632 9.92119 0.00791859 
-0.054721 0.00791859 9.95237 
9.9137 0.0298138 -0.0292963 
0.0298138 9.85662 -0.023169 
-0.0292963 -0.023169 10.0155 
9.85406 0.0679696 0.00162932 
0.0679696 9.77204 -0.062849 
0.00162932 -0.062849 10.0648 
9.88183 0.0559901 0.0531168 
0.0559901 9.81986 -0.0893558 
0.0531168 -0.0893558 9.98922 
9.93765 0.0481125 0.041498 
0.0481125 9.83127 -0.036207 
0.041498 -0.036207 9.92197 
9.91839 0.0711953 0.039897 
0.0711953 9.80567 -0.090927 
0.039897 -0.090927 9.96683 
9.9498 -0.0127392 -0.009167 
-0.0127392 9.94248 0.0286198 
-0.009167 0.0286198 9.92837 
9.93252 -0.013009 0.00510818 
-0.013009 9.94349 0.0153846 
0.00510818 0.0153846 9.94464 
9.95745 -0.0253739 0.00814241 
-0.0253739 9.93103 0.0250521 
0.00814241 0.0250521 9.93218 
9.91236 -0.0219514 -0.00211017 
-0.0219514 9.95416 -0.0153173 
-0.00211017 -0.0153173 9.95413 
9.9783 0.00345739 0.0313178 
0.00345739 9.97619 0.0236641 
0.0313178 0.0236641 9.98001 
9.97952 0.00423895 0.0319182 
0.00423895 9.97841 0.0241795 
0.0319182 0.0241795 9.97657 
9.97571 0.00408938 0.0303549 
0.00408938 9.97651 0.0267964 
0.0303549 0.0267964 9.98229 
9.97702 0.00502854 0.0303758 
0.00502854 9.97946 0.0286253 
0.0303758 0.0286253 9.97802 
9.94746 0.00245204 0.0547764 
0.00245204 9.92092 0.0531726 
0.0547764 0.0531726 9.95701 
9.94385 -4.40028e-05 0.0582528 
-4.40028e-05 9.92758 0.0509432 
0.0582528 0.0509432 9.95396 
9.9389 -0.00892679 0.0490507 
-0.00892679 9.93132 0.0442261 
0.0490507 0.0442261 9.95517 
9.93354 -0.00131088 0.0566626 
-0.00131088 9.93546 0.0335464 
0.0566626 0.0335464 9.9564 
9.94399 -0.000816395 0.014507 
-0.000816395 9.93345 -0.0585109 
0.014507 -0.0585109 9.90729 
9.94519 -0.001406 0.0158883 
-0.001406 9.92916 -0.064849 
0.0158883 -0.064849 9.91038 
9.92745 0.00345977 0.0132015 
0.00345977 9.9254 -0.0717626 
0.0132015 -0.0717626 9.93188 
9.94258 0.00264571 0.0195327 
0.00264571 9.93835 -0.0667756 
0.0195327 -0.0667756 9.9038 
9.96169 -0.00116682 -0.00782158 
-0.00116682 9.97155 -0.0648814 
-0.00782158 -0.0648814 9.97463 
9.97693 0.00101804 -0.00662581 
0.00101804 9.96517 -0.0852051 
-0.00662581 -0.0852051 9.96578 
9.96874 0.000882071 -0.00929849 
0.000882071 9.97112 -0.0820457 
-0.00929849 -0.0820457 9.96802 
9.97462 -0.001652 -0.007111 
-0.001652 9.97546 -0.0806287 
-0.007111 -0.0806287 9.9578 
10.0582 0.106592 0.353255 
0.106592 10.2611 1.08036 
0.353255 1.08036 9.46084 
9.06533 -0.101346 0.0811158 
-0.101346 9.91837 0.0783817 
0.0811158 0.0783817 10.7965 
10.0676 0.106526 0.2661 
0.106526 9.20269 1.19703 
0.2661 1.19703 10.5099 
9.82959 0.458447 0.101974 
0.458447 10.1311 1.01007 
0.101974 1.01007 9.81942 
9.96776 0.00583494 0.000609197 
0.00583494 9.97209 0.000978287 
0.000609197 0.000978287 9.99028 
9.97211 0.00458533 0.00262034 
0.00458533 9.97101 0.00269283 
0.00262034 0.00269283 9.98702 
9.97157 0.00503961 -0.000585095 
0.00503961 9.97214 0.00392088 
-0.000585095 0.00392088 9.98642 
9.97215 0.00282967 -0.000238127 
0.00282967 9.97061 0.00598912 
-0.000238127 0.00598912 9.98738 
9.95496 -0.0572163 0.0253336 
-0.0572163 9.89574 -0.198039 
0.0253336 -0.198039 10.1481 
9.97867 -0.0553347 0.232121 
-0.0553347 9.64908 -0.120503 
0.232121 -0.120503 10.371 
9.97103 -0.0370059 0.0151789 
-0.0370059 9.93472 -0.150232 
0.0151789 -0.150232 10.093 
10.0079 -0.0805898 0.0428108 
-0.0805898 9.90873 -0.283686 
0.0428108 -0.283686 10.0821 
9.95742 -0.00302911 -0.0644751 
-0.00302911 9.96822 0.0100791 
-0.0644751 0.0100791 9.95754 
9.96951 -0.00025892 -0.0750436 
-0.00025892 9.96293 0.0100953 
-0.0750436 0.0100953 9.95073 
9.96536 -0.000902958 -0.074578 
-0.000902958 9.96152 0.00905357 
-0.074578 0.00905357 9.95629 
9.96878 0.000287871 -0.0746302 
0.000287871 9.96541 0.0051459 
-0.0746302 0.0051459 9.94899 
9.96019 0.0246914 0.0122215 
0.0246914 9.94666 0.0314046 
0.0122215 0.0314046 9.95069 
9.97039 0.0247185 0.0176954 
0.0247185 9.93459 0.0178604 
0.0176954 0.0178604 9.95257 
9.95543 0.0176558 0.0227565 
0.0176558 9.93739 0.00883062 
0.0227565 0.00883062 9.96472 
9.96956 0.0240158 0.0237757 
0.0240158 9.93996 0.0377935 
0.0237757 0.0377935 9.94803 
9.86069 0.00181578 -0.0328459 
0.00181578 9.88871 -0.00988235 
-0.0328459 -0.00988235 10.1529 
9.88705 -0.0151274 -0.0219578 
-0.0151274 9.89639 -0.0224552 
-0.0219578 -0.0224552 10.1188 
9.85403 -0.0018894 -0.0593772 
-0.0018894 9.91076 -0.0121107 
-0.0593772 -0.0121107 10.1375 
9.86799 0.00583379 -0.0384418 
0.00583379 9.8857 -0.00923997 
-0.0384418 -0.00923997 10.1486 
9.91931 -0.0912569 0.0161313 
-0.0912569 9.94445 0.0117199 
0.0161313 0.0117199 10.0877 
9.90848 -0.0916172 0.00333535 
-0.0916172 9.94115 0.00926776 
0.00333535 0.00926776 10.1018 
9.91271 -0.0761188 -0.097064 
-0.0761188 9.98969 -0.0313861 
-0.097064 -0.0313861 10.0491 
9.99786 -0.109379 0.0128137 
-0.109379 9.92429 -0.0248176 
0.0128137 -0.0248176 10.0293 
9.93441 -0.0179669 -0.070997 
-0.0179669 9.93867 -0.0495563 
-0.070997 -0.0495563 9.89767 
9.90072 0.00275777 -0.0543764 
0.00275777 9.93292 -0.0624587 
-0.0543764 -0.0624587 9.93712 
9.91239 -0.00412126 -0.0545079 
-0.00412126 9.92147 -0.0668426 
-0.0545079 -0.0668426 9.93689 
9.91661 -0.0073983 -0.0418253 
-0.0073983 9.91595 -0.0649548 
-0.0418253 -0.0649548 9.93819 
9.97068 0.00304168 -0.0312751 
0.00304168 9.97775 -0.0301133 
-0.0312751 -0.0301133 9.97924 
9.97307 0.00898829 -0.0299494 
0.00898829 9.9865 -0.0275 
-0.0299494 -0.0275 9.96811 
9.97019 0.000418762 -0.031884 
0.000418762 9.97251 -0.0430166 
-0.031884 -0.0430166 9.98498 
9.97814 0.00398012 -0.0231419 
0.00398012 9.96914 -0.0337188 
-0.0231419 -0.0337188 9.9804 
9.99979 -0.0829202 0.0415581 
-0.0829202 9.97474 0.0412223 
0.0415581 0.0412223 9.74046 
9.89896 0.0295911 0.042685 
0.0295911 9.99215 0.0461987 
0.042685 0.0461987 9.82388 
9.92919 0.0339072 0.0423167 
0.0339072 9.9613 0.101984 
0.0423167 0.101984 9.8245 
9.93334 -0.0814494 0.0042887 
-0.0814494 9.90065 0.0463924 
0.0042887 0.0463924 9.881 
10.0487 -0.646718 0.0586575 
-0.646718 10.2204 0.613731 
0.0586575 0.613731 9.60554 
10.1621 -0.423463 0.102039 
-0.423463 9.80083 0.550584 
0.102039 0.550584 9.91164 
10.0024 -0.422741 0.294146 
-0.422741 9.91046 0.933008 
0.294146 0.933008 9.96171 
10.1497 -0.645473 0.165818 
-0.645473 9.25788 -0.173921 
0.165818 -0.173921 10.467 
9.96433 0.00739832 -0.00194385 
0.00739832 9.93265 0.0151831 
-0.00194385 0.0151831 9.92871 
9.90454 0.0058379 0.0242644 
0.0058379 9.96667 0.0137758 
0.0242644 0.0137758 9.95448 
9.95016 0.00727629 0.0201913 
0.00727629 9.97144 0.0407386 
0.0201913 0.0407386 9.90409 
9.96845 0.0153461 0.0191437 
0.0153461 9.92942 0.0226316 
0.0191437 0.0226316 9.92782 
9.74591 0.0348985 0.0114935 
0.0348985 9.75966 -0.160324 
0.0114935 -0.160324 10.4442 
9.8732 0.223783 0.146054 
0.223783 9.80181 -0.225387 
0.146054 -0.225387 10.2747 
9.96036 0.402141 0.180283 
0.402141 9.80804 -0.137072 
0.180283 -0.137072 10.1813 
9.92501 -0.456896 0.355516 
-0.456896 10.2242 -0.583357 
0.355516 -0.583357 9.80048 
9.93471 0.0075923 -0.00152948 
0.0075923 9.93501 -0.0106258 
-0.00152948 -0.0106258 9.98516 
9.936 0.0155227 -0.0126511 
0.0155227 9.93746 0.00364157 
-0.0126511 0.00364157 9.98141 
9.94536 0.00305843 -0.00195331 
0.00305843 9.93798 0.00379365 
-0.00195331 0.00379365 9.97154 
9.94469 -0.00349552 -0.00702287 
-0.00349552 9.94204 0.000893544 
-0.00702287 0.000893544 9.96814 
9.94083 0.0142132 -0.00811047 
0.0142132 9.92483 -0.0093341 
-0.00811047 -0.0093341 9.99382 
9.92951 0.00990582 -0.00856267 
0.00990582 9.93493 -0.0158434 
-0.00856267 -0.0158434 9.99504 
9.94423 0.016738 -0.000879594 
0.016738 9.91329 -0.0085444 
-0.000879594 -0.0085444 10.002 
9.93175 0.0141609 -0.0162241 
0.0141609 9.93841 -0.00282716 
-0.0162241 -0.00282716 9.98932 
9.95123 0.0872023 -0.0622042 
0.0872023 9.76794 0.300615 
-0.0622042 0.300615 9.7656 
9.94406 0.0786415 -0.026254 
0.0786415 9.79501 0.192029 
-0.026254 0.192029 9.74571 
9.85863 0.00558301 -0.0620536 
0.00558301 9.8627 0.162163 
-0.0620536 0.162163 9.76344 
9.82347 0.00372405 -0.0249816 
0.00372405 9.81881 0.160768 
-0.0249816 0.160768 9.84249 
9.94052 0.0368458 0.0297634 
0.0368458 9.91507 -0.00150338 
0.0297634 -0.00150338 9.96425 
9.93746 0.0388851 0.025961 
0.0388851 9.92832 -0.000294538 
0.025961 -0.000294538 9.95405 
9.92969 0.0389015 0.0294865 
0.0389015 9.91421 -0.00562118 
0.0294865 -0.00562118 9.97594 
9.94457 0.0435889 0.0247641 
0.0435889 9.91884 0.00770269 
0.0247641 0.00770269 9.95643 
10.8254 -0.232247 0.116762 
-0.232247 9.49326 0.462622 
0.116762 0.462622 11.2227 
11.0885 -0.0366863 0.257745 
-0.0366863 9.55247 0.387121 
0.257745 0.387121 10.9004 
10.4097 -0.0775715 -0.581823 
-0.0775715 9.26479 0.0942351 
-0.581823 0.0942351 11.8669 
10.2711 0.160105 0.141013 
0.160105 9.4709 0.819084 
0.141013 0.819084 11.7994 
9.9818 0.00232917 -0.0245783 
0.00232917 9.99415 -0.0265094 
-0.0245783 -0.0265094 9.99655 
9.99273 0.00375561 -0.026892 
0.00375561 9.99355 -0.0313929 
-0.026892 -0.0313929 9.98622 
9.98162 0.000172638 -0.0238872 
0.000172638 9.98397 -0.0261645 
-0.0238872 -0.0261645 10.0069 
9.99458 0.00550427 -0.022313 
0.00550427 9.99142 -0.0286909 
-0.022313 -0.0286909 9.98651 
9.97134 0.00236537 -0.0143941 
0.00236537 9.97942 0.0681273 
-0.0143941 0.0681273 9.99026 
9.98322 0.000185592 -0.0150142 
0.000185592 9.97938 0.0756538 
-0.0150142 0.0756538 9.97843 
9.98408 0.000779569 -0.0154611 
0.000779569 9.9772 0.0724914 
-0.0154611 0.0724914 9.97974 
9.98213 0.000933717 -0.0190751 
0.000933717 9.9824 0.0736062 
-0.0190751 0.0736062 9.97649 
9.82246 -0.10256 0.0970734 
-0.10256 9.82612 -0.0421142 
0.0970734 -0.0421142 9.84021 
9.80315 -0.0640977 0.0395385 
-0.0640977 9.83214 0.0156622 
0.0395385 0.0156622 9.85351 
9.85694 -0.0843158 0.156444 
-0.0843158 9.75654 -0.0195135 
0.156444 -0.0195135 9.87532 
9.7903 -0.136434 0.0251844 
-0.136434 9.81034 -0.0485903 
0.0251844 -0.0485903 9.88815 
9.97069 -0.00289367 -0.000870681 
-0.00289367 9.9697 0.00373612 
-0.000870681 0.00373612 9.99189 
9.9686 -0.00205513 -0.00400734 
-0.00205513 9.97104 0.00247478 
-0.00400734 0.00247478 9.99265 
9.97443 -0.00257573 0.00184893 
-0.00257573 9.96733 0.00314869 
0.00184893 0.00314869 9.99053 
9.97034 -0.00337996 0.000826902 
-0.00337996 9.97326 0.00567245 
0.000826902 0.00567245 9.98869 
9.96024 -0.00369843 0.0641944 
-0.00369843 9.97194 0.00796127 
0.0641944 0.00796127 9.97016 
9.97137 4.1431e-05 0.0728259 
4.1431e-05 9.96672 0.00781406 
0.0728259 0.00781406 9.96425 
9.96965 -0.000118305 0.0717596 
-0.000118305 9.96659 0.00860293 
0.0717596 0.00860293 9.9661 
9.97014 -0.00111023 0.0716901 
-0.00111023 9.97021 0.0125097 
0.0716901 0.0125097 9.96199 
9.95193 -0.00129367 -0.00230555 
-0.00129367 9.95111 -0.00260674 
-0.00230555 -0.00260674 10.0007 
9.95223 -0.000518057 -0.003245 
-0.000518057 9.95196 0.00252004 
-0.003245 0.00252004 9.9996 
9.9536 0.0011165 -0.00766743 
0.0011165 9.94784 -0.000395276 
-0.00766743 -0.000395276 10.0024 
9.95826 -0.0028875 -0.00068569 
-0.0028875 9.95537 0.00958603 
-0.00068569 0.00958603 9.99016 
9.97602 -0.00275918 -0.0310792 
-0.00275918 9.97605 0.0188619 
-0.0310792 0.0188619 9.9728 
9.9793 -0.000211217 -0.032787 
-0.000211217 9.97537 0.0214743 
-0.032787 0.0214743 9.97021 
9.97447 -0.00146308 -0.0327098 
-0.00146308 9.98189 0.0254365 
-0.0327098 0.0254365 9.96852 
9.97721 -0.00227722 -0.0366335 
-0.00227722 9.97457 0.019847 
-0.0366335 0.019847 9.9731 
9.82764 0.11422 -0.119579 
0.11422 9.84864 0.0983805 
-0.119579 0.0983805 9.78459 
9.71227 0.0675524 -0.175129 
0.0675524 9.96808 0.0684969 
-0.175129 0.0684969 9.78051 
9.87385 0.00174343 -0.0515862 
0.00174343 9.86035 0.0281602 
-0.0515862 0.0281602 9.72667 
9.7562 0.0346443 -0.147487 
0.0346443 9.99918 0.121331 
-0.147487 0.121331 9.70549 
9.93301 0.0248577 0.00425547 
0.0248577 9.90098 0.0198889 
0.00425547 0.0198889 9.88133 
9.9516 0.0453621 -0.035385 
0.0453621 9.94774 0.0332792 
-0.035385 0.0332792 9.81598 
9.91214 0.0268001 -0.0170709 
0.0268001 9.89805 0.0125458 
-0.0170709 0.0125458 9.90513 
9.92261 0.0151392 0.0175405 
0.0151392 9.90779 0.0361631 
0.0175405 0.0361631 9.88491 
9.84162 -0.060509 0.0100807 
-0.060509 9.90139 -0.0426922 
0.0100807 -0.0426922 9.89509 
9.87855 -0.0821323 0.0216896 
-0.0821323 9.8538 0.000634485 
0.0216896 0.000634485 9.90575 
9.90698 -0.0856119 0.0171138 
-0.0856119 9.85737 -0.0482664 
0.0171138 -0.0482664 9.87376 
9.89236 -0.0845102 0.0472677 
-0.0845102 9.87432 -0.0535333 
0.0472677 -0.0535333 9.87143 
9.92376 0.0557812 0.00665834 
0.0557812 10.0562 0.0915927 
0.00665834 0.0915927 10.1842 
10.0572 -0.00429019 -0.0170011 
-0.00429019 9.87782 -0.130291 
-0.0170011 -0.130291 10.2291 
10.2442 -0.251899 -0.19012 
-0.251899 9.39198 0.136311 
-0.19012 0.136311 10.528 
9.95921 -0.0611303 0.00530776 
-0.0611303 9.9069 -0.0744395 
0.00530776 -0.0744395 10.298 
10.4088 0.0838926 0.150141 
0.0838926 10.0598 -0.0440886 
0.150141 -0.0440886 10.063 
10.1144 -0.0684316 0.169035 
-0.0684316 10.1271 0.0195127 
0.169035 0.0195127 10.2902 
9.91653 -0.0661622 -0.0161446 
-0.0661622 10.2988 -0.0606999 
-0.0161446 -0.0606999 10.3163 
10.1352 0.0169395 0.138452 
0.0169395 10.0596 0.0644523 
0.138452 0.0644523 10.3368 
9.9404 -0.0246371 -0.00140604 
-0.0246371 9.93566 0.00714212 
-0.00140604 0.00714212 9.90322 
9.93271 -0.00319009 0.00162073 
-0.00319009 9.92318 0.015545 
0.00162073 0.015545 9.92339 
9.93666 -0.0222205 -0.0252717 
-0.0222205 9.9353 0.0267714 
-0.0252717 0.0267714 9.90731 
9.94542 -0.00519003 0.01361 
-0.00519003 9.92718 0.0246508 
0.01361 0.0246508 9.90668 
10.1508 0.236976 0.0899603 
0.236976 9.8629 0.0712447 
0.0899603 0.0712447 10.5622 
10.0999 -0.0350446 0.0446796 
-0.0350446 10.0615 -0.0432374 
0.0446796 -0.0432374 10.4145 
10.1402 0.0817848 -0.043003 
0.0817848 10.0854 -0.0389081 
-0.043003 -0.0389081 10.3502 
10.1453 0.0439602 0.00170777 
0.0439602 10.0353 0.00740227 
0.00170777 0.00740227 10.3952 
9.97436 -2.88458e-05 -0.0144356 
-2.88458e-05 9.97565 0.0609555 
-0.0144356 0.0609555 9.96835 
9.97375 -0.00587998 -0.014125 
-0.00587998 9.97263 0.0582537 
-0.014125 0.0582537 9.97198 
9.98003 -0.00631249 -0.0180968 
-0.00631249 9.97458 0.0657404 
-0.0180968 0.0657404 9.96376 
9.97467 -0.000332839 -0.0148853 
-0.000332839 9.97611 0.0611145 
-0.0148853 0.0611145 9.96758 
10.0431 -0.313618 0.0586597 
-0.313618 9.80634 -0.100404 
0.0586597 -0.100404 10.4446 
10.0258 0.0446424 -0.0318275 
0.0446424 10.0743 -0.0442826 
-0.0318275 -0.0442826 10.194 
9.9979 0.013333 0.0484679 
0.013333 9.99775 0.0675798 
0.0484679 0.0675798 10.2985 
10.0277 -0.120726 0.052182 
-0.120726 10.0129 0.0271802 
0.052182 0.0271802 10.2535 
9.91465 -0.00748864 0.0170161 
-0.00748864 9.88654 -0.0117245 
0.0170161 -0.0117245 10.1506 
9.9027 -0.003439 0.013526 
-0.003439 9.89039 -0.0124548 
0.013526 -0.0124548 10.1587 
9.92076 -0.0022326 0.00371425 
-0.0022326 9.89194 -0.00314012 
0.00371425 -0.00314012 10.1391 
9.91237 -0.00857978 -0.00397377 
-0.00857978 9.90353 -0.0167826 
-0.00397377 -0.0167826 10.1359 
9.93795 0.125599 0.284565 
0.125599 9.80494 -0.0606148 
0.284565 -0.0606148 9.86087 
9.85596 -0.00206142 0.168934 
-0.00206142 9.87955 -0.0246129 
0.168934 -0.0246129 9.86825 
9.89381 -0.0490176 0.136915 
-0.0490176 9.91216 -0.0646624 
0.136915 -0.0646624 9.79779 
9.78854 -0.0426064 0.120007 
-0.0426064 9.92134 0.0564041 
0.120007 0.0564041 9.89388 
9.93376 -0.0205001 -0.0123893 
-0.0205001 9.93182 -0.0124839 
-0.0123893 -0.0124839 9.97144 
9.9329 -0.0172181 0.0238968 
-0.0172181 9.94105 0.0033011 
0.0238968 0.0033011 9.96308 
9.9479 -0.0163187 0.013248 
-0.0163187 9.93747 0.00713512 
0.013248 0.00713512 9.95164 
9.95622 -0.026498 0.00714249 
-0.026498 9.92856 0.00634187 
0.00714249 0.00634187 9.95223 
9.97186 -0.00242835 0.0526609 
-0.00242835 9.96486 -0.0296383 
0.0526609 -0.0296383 9.95583 
9.97255 -0.00127013 0.0517192 
-0.00127013 9.96075 -0.0301515 
0.0517192 -0.0301515 9.95926 
9.97008 -0.000807009 0.0527385 
-0.000807009 9.96133 -0.0269793 
0.0527385 -0.0269793 9.96114 
9.9705 -0.000420932 0.0536887 
-0.000420932 9.9628 -0.0279016 
0.0536887 -0.0279016 9.95926 
9.90283 0.0252006 0.0206472 
0.0252006 9.89448 0.00907847 
0.0206472 0.00907847 9.98126 
9.92914 0.00743011 -0.00777458 
0.00743011 9.92006 -0.0210846 
-0.00777458 -0.0210846 9.92936 
9.93089 0.0426609 -0.010452 
0.0426609 9.95994 0.0357504 
-0.010452 0.0357504 9.88774 
9.91614 0.0352655 -0.0285619 
0.0352655 9.95905 0.0368205 
-0.0285619 0.0368205 9.90339 
9.81223 0.309664 -0.189571 
0.309664 9.86234 0.184816 
-0.189571 0.184816 10.13 
9.76449 0.460729 -0.33499 
0.460729 9.78012 0.252171 
-0.33499 0.252171 10.2599 
9.83245 0.299595 -0.132858 
0.299595 9.81689 0.146029 
-0.132858 0.146029 10.1552 
10.0471 -0.578288 -0.399497 
-0.578288 10.1311 0.193653 
-0.399497 0.193653 9.62639 
9.86102 0.0089904 0.0242915 
0.0089904 9.92907 -0.140921 
0.0242915 -0.140921 9.91557 
9.94089 0.0265806 0.00885524 
0.0265806 9.86659 -0.0205025 
0.00885524 -0.0205025 9.89818 
9.95522 0.0133735 -0.0204896 
0.0133735 9.92848 -0.0729963 
-0.0204896 -0.0729963 9.82196 
9.89374 -0.00103428 0.00534585 
-0.00103428 9.94045 -0.0747488 
0.00534585 -0.0747488 9.87147 
9.93892 0.0014215 -0.0134004 
0.0014215 9.94075 0.0389003 
-0.0134004 0.0389003 9.92071 
9.93924 0.00165494 -0.0248315 
0.00165494 9.94811 0.0439913 
-0.0248315 0.0439913 9.91302 
9.94409 0.00583739 -0.0116689 
0.00583739 9.93315 0.0465513 
-0.0116689 0.0465513 9.92315 
9.93257 -0.0188752 -0.016917 
-0.0188752 9.93141 0.037901 
-0.016917 0.037901 9.93641 
10.2286 -0.024052 0.0295888 
-0.024052 10.4108 -0.0529055 
0.0295888 -0.0529055 10.1871 
10.1931 0.157142 -0.0359257 
0.157142 10.2297 -0.0354219 
-0.0359257 -0.0354219 10.4038 
10.4385 -0.0403082 0.0669852 
-0.0403082 10.1498 -0.0860213 
0.0669852 -0.0860213 10.2383 
10.1879 0.0125789 0.0133597 
0.0125789 10.2673 -0.0480139 
0.0133597 -0.0480139 10.3713 
9.9665 0.0543701 -0.020211 
0.0543701 9.90206 0.0137917 
-0.020211 0.0137917 9.90134 
9.91819 0.0406446 -0.0104379 
0.0406446 9.92314 0.00118836 
-0.0104379 0.00118836 9.92857 
9.92113 0.0300836 -0.0145783 
0.0300836 9.91668 0.0199546 
-0.0145783 0.0199546 9.93208 
9.92984 0.0136545 0.0107214 
0.0136545 9.91033 0.0362849 
0.0107214 0.0362849 9.92974 
9.91928 -0.0544517 0.022774 
-0.0544517 9.87008 0.0634761 
0.022774 0.0634761 9.98344 
9.89961 -0.00392878 0.0204684 
-0.00392878 9.94663 0.0148843 
0.0204684 0.0148843 9.92656 
9.89476 0.0167549 0.00950567 
0.0167549 9.95282 0.0202182 
0.00950567 0.0202182 9.92522 
9.88658 -0.0106604 -0.00153176 
-0.0106604 9.88399 -0.00606823 
-0.00153176 -0.00606823 10.0022 
9.93862 0.0177911 0.0310954 
0.0177911 9.89363 -0.0482461 
0.0310954 -0.0482461 10.086 
9.85289 -0.181941 0.101925 
-0.181941 9.83718 -0.0285603 
0.101925 -0.0285603 10.2282 
9.81312 -0.0213296 0.116567 
-0.0213296 9.98026 -0.00192392 
0.116567 -0.00192392 10.1249 
9.91975 -0.0710298 0.0896475 
-0.0710298 9.9325 -0.106493 
0.0896475 -0.106493 10.066 
9.92548 -0.00194919 0.00888181 
-0.00194919 9.93095 -0.0755054 
0.00888181 -0.0755054 9.93416 
9.9291 0.00467215 0.0111316 
0.00467215 9.92502 -0.0806581 
0.0111316 -0.0806581 9.93647 
9.9312 0.00840742 0.0240952 
0.00840742 9.93145 -0.0841862 
0.0240952 -0.0841862 9.92794 
9.94334 0.00237502 0.021428 
0.00237502 9.92612 -0.0844929 
0.021428 -0.0844929 9.92114 
9.9773 -0.00411546 0.0542651 
-0.00411546 9.98422 -0.0210902 
0.0542651 -0.0210902 9.98413 
9.97128 -0.00241998 0.0602893 
-0.00241998 9.98319 -0.0345664 
0.0602893 -0.0345664 9.99119 
9.98231 0.00198721 0.0622929 
0.00198721 9.97926 -0.0286153 
0.0622929 -0.0286153 9.98409 
9.98127 -0.000111108 0.0528796 
-0.000111108 9.9885 -0.0188749 
0.0528796 -0.0188749 9.97589 
9.98912 -0.0264767 -0.0184679 
-0.0264767 9.72089 -0.0256305 
-0.0184679 -0.0256305 9.85736 
9.86507 0.00842858 0.0128576 
0.00842858 9.77347 -0.172534 
0.0128576 -0.172534 9.92883 
9.88522 0.0282312 -0.0031778 
0.0282312 9.75741 -0.179075 
-0.0031778 -0.179075 9.92473 
9.81552 0.0128935 -0.00767794 
0.0128935 9.9288 -0.225312 
-0.00767794 -0.225312 9.82304 
10.2641 -0.0201418 -0.0289736 
-0.0201418 11.0532 0.0351912 
-0.0289736 0.0351912 10.1327 
10.3624 0.0159115 0.0443876 
0.0159115 10.3428 -0.0947041 
0.0443876 -0.0947041 10.7448 
10.3945 -0.10035 0.116546 
-0.10035 10.2616 -0.00626741 
0.116546 -0.00626741 10.7939 
10.26 0.0744083 -0.161727 
0.0744083 10.3881 0.255471 
-0.161727 0.255471 10.8019 
10.5283 0.445718 -0.135582 
0.445718 9.7092 0.279839 
-0.135582 0.279839 10.115 
9.9684 -0.215746 -0.259527 
-0.215746 9.84946 0.151082 
-0.259527 0.151082 10.5346 
9.89771 -0.086711 0.324788 
-0.086711 10.2348 -0.221881 
0.324788 -0.221881 10.2199 
10.2522 0.272302 0.160138 
0.272302 9.59622 0.00209891 
0.160138 0.00209891 10.504 
9.85669 0.0933195 -0.0918852 
0.0933195 9.85486 0.0543567 
-0.0918852 0.0543567 9.92497 
9.88363 0.0175656 -0.0947587 
0.0175656 9.92893 0.0515895 
-0.0947587 0.0515895 9.82397 
9.85606 0.085209 -0.0874538 
0.085209 10.0259 0.0331755 
-0.0874538 0.0331755 9.7546 
9.84361 0.128935 0.0239883 
0.128935 9.98671 0.0332707 
0.0239883 0.0332707 9.80621 
9.79834 -0.0600277 -0.138675 
-0.0600277 9.9986 0.018763 
-0.138675 0.018763 10.0054 
9.80266 -0.0183391 0.0284571 
-0.0183391 10.0208 0.0215014 
0.0284571 0.0215014 9.97885 
9.67978 -0.116104 -0.0751445 
-0.116104 10.0201 -0.0225724 
-0.0751445 -0.0225724 10.1024 
9.79942 0.184405 0.097798 
0.184405 10.0907 0.00789865 
0.097798 0.00789865 9.91217 
9.96625 0.00604253 0.0228694 
0.00604253 9.96043 0.0229675 
0.0228694 0.0229675 9.96617 
9.9641 0.00534122 0.0226391 
0.00534122 9.96904 0.0222298 
0.0226391 0.0222298 9.9597 
9.96658 0.00683818 0.0232546 
0.00683818 9.96431 0.0248376 
0.0232546 0.0248376 9.96195 
9.96961 0.00699288 0.0266496 
0.00699288 9.96365 0.0226445 
0.0266496 0.0226445 9.95958 
9.93081 0.0556868 0.125783 
0.0556868 9.97052 0.0696084 
0.125783 0.0696084 10.071 
9.98892 -0.0397521 -0.0680948 
-0.0397521 10.0509 -0.0607563 
-0.0680948 -0.0607563 9.93246 
9.9531 0.0104438 -0.0315451 
0.0104438 9.90527 0.00569043 
-0.0315451 0.00569043 10.1139 
10.0612 -0.156292 -0.0481987 
-0.156292 9.88767 0.00419502 
-0.0481987 0.00419502 10.0235 
10.2806 -0.0425442 0.0207667 
-0.0425442 10.1741 -0.0046577 
0.0207667 -0.0046577 10.5206 
10.3432 -0.0908545 0.0397608 
-0.0908545 10.156 -0.0364835 
0.0397608 -0.0364835 10.4761 
10.4452 -0.150107 0.058622 
-0.150107 9.97178 0.0896454 
0.058622 0.0896454 10.5582 
10.2555 -0.114275 0.0763199 
-0.114275 10.2393 -0.09767 
0.0763199 -0.09767 10.4805 
9.97229 -0.00486583 0.0220448 
-0.00486583 9.99142 -0.0210202 
0.0220448 -0.0210202 9.92577 
9.97141 0.00376681 0.0116237 
0.00376681 9.98176 -0.0451039 
0.0116237 -0.0451039 9.93632 
9.96566 0.00758146 0.0154262 
0.00758146 9.98644 -0.048319 
0.0154262 -0.048319 9.93739 
9.96549 -0.000768355 0.0187207 
-0.000768355 9.96784 -0.0570504 
0.0187207 -0.0570504 9.95616 
9.97723 -0.0028325 0.0199678 
-0.0028325 9.97803 -0.0482935 
0.0199678 -0.0482935 9.98399 
9.98178 -3.64662e-05 0.0168852 
-3.64662e-05 9.97458 -0.0516848 
0.0168852 -0.0516848 9.98289 
9.97675 -0.00115334 0.0191633 
-0.00115334 9.99144 -0.038563 
0.0191633 -0.038563 9.97106 
9.98352 -0.0026514 0.018128 
-0.0026514 9.97671 -0.0432364 
0.018128 -0.0432364 9.97903 
9.96437 0.00285711 -0.0842115 
0.00285711 9.97901 -0.00600129 
-0.0842115 -0.00600129 9.96327 
9.9692 -0.002319 -0.05972 
-0.002319 9.95771 -0.00661089 
-0.05972 -0.00661089 9.97975 
9.97302 0.00464752 -0.0851959 
0.00464752 9.96107 -0.0119621 
-0.0851959 -0.0119621 9.97256 
9.97696 -0.000969826 -0.0791883 
-0.000969826 9.97545 -0.00677971 
-0.0791883 -0.00677971 9.95424 
10.9525 -0.0597765 -0.448124 
-0.0597765 10.7426 0.340273 
-0.448124 0.340273 9.51264 
10.4005 -0.203305 0.218356 
-0.203305 9.65012 -0.048301 
0.218356 -0.048301 11.1571 
10.3656 -0.0053446 -0.0529713 
-0.0053446 10.2651 0.231009 
-0.0529713 0.231009 10.5769 
10.351 0.274537 -0.223471 
0.274537 10.0021 0.31613 
-0.223471 0.31613 10.8546 
9.8577 -0.0396316 0.00362622 
-0.0396316 9.96833 0.0199431 
0.00362622 0.0199431 10.2679 
9.76317 -0.0729363 0.063684 
-0.0729363 10.0285 -0.00939375 
0.063684 -0.00939375 10.3023 
9.93142 0.0362552 -0.169891 
0.0362552 9.91895 -0.0336535 
-0.169891 -0.0336535 10.2435 
9.94368 -0.0634627 0.042983 
-0.0634627 10.0035 0.00671431 
0.042983 0.00671431 10.1467 
9.91075 -0.02006 -0.0331497 
-0.02006 9.92679 0.0215501 
-0.0331497 0.0215501 10.1562 
9.92742 -0.00822197 -0.0166156 
-0.00822197 9.9252 -0.00333863 
-0.0166156 -0.00333863 10.1411 
9.90149 0.000723377 -0.0127429 
0.000723377 9.93243 0.00726315 
-0.0127429 0.00726315 10.1598 
9.93317 -0.0015954 -0.0201882 
-0.0015954 9.91112 -0.00974718 
-0.0201882 -0.00974718 10.1494 
9.95721 -0.00171048 0.0393984 
-0.00171048 9.97344 0.0184234 
0.0393984 0.0184234 9.9729 
9.97756 0.00167128 0.0315825 
0.00167128 9.97149 0.0415817 
0.0315825 0.0415817 9.9545 
9.97395 0.00529054 0.0394647 
0.00529054 9.96348 0.0288962 
0.0394647 0.0288962 9.96612 
9.96918 0.00454462 0.040959 
0.00454462 9.9649 0.0283378 
0.040959 0.0283378 9.96947 
9.96451 -0.024666 -0.00487598 
-0.024666 9.92943 -0.0369975 
-0.00487598 -0.0369975 9.92141 
9.92624 -0.00866586 -0.0148924 
-0.00866586 9.94969 -0.0386793 
-0.0148924 -0.0386793 9.93942 
9.95517 -0.0364778 -0.0119983 
-0.0364778 9.92639 -0.0965365 
-0.0119983 -0.0965365 9.93379 
9.92434 0.0142861 0.00454447 
0.0142861 9.99085 -0.0379604 
0.00454447 -0.0379604 9.90016 
10.0546 -0.019793 -0.0738638 
-0.019793 9.84206 0.214099 
-0.0738638 0.214099 9.87771 
9.93201 0.0775386 -0.0940866 
0.0775386 9.90369 0.150011 
-0.0940866 0.150011 9.93862 
9.94424 0.0682138 -0.072176 
0.0682138 9.8955 0.13985 
-0.072176 0.13985 9.93457 
9.96181 -0.00641735 -0.0277168 
-0.00641735 9.79465 0.0295595 
-0.0277168 0.0295595 10.0179 
9.92336 0.0174181 0.00391067 
0.0174181 9.9342 -0.018986 
0.00391067 -0.018986 9.95007 
9.92255 0.0145502 0.00386926 
0.0145502 9.92273 -0.019414 
0.00386926 -0.019414 9.96235 
9.92673 0.01755 0.00124514 
0.01755 9.9252 -0.0152074 
0.00124514 -0.0152074 9.9557 
9.93169 0.0152596 0.00464454 
0.0152596 9.92663 -0.00826231 
0.00464454 -0.00826231 9.94931 
9.88832 0.0136273 0.00722454 
0.0136273 9.93518 -0.0983024 
0.00722454 -0.0983024 9.99492 
9.94465 0.00413498 -0.015753 
0.00413498 9.90185 -0.107555 
-0.015753 -0.107555 9.97192 
9.91863 -0.0385282 -0.0265303 
-0.0385282 9.91595 0.0114959 
-0.0265303 0.0114959 9.98384 
9.91842 0.0259164 -0.00593498 
0.0259164 9.9506 -0.0481514 
-0.00593498 -0.0481514 9.94941 
9.99269 -0.000914954 0.0465845 
-0.000914954 9.9917 -0.0430327 
0.0465845 -0.0430327 9.99394 
9.99413 0.00221754 0.0460829 
0.00221754 9.98817 -0.0425913 
0.0460829 -0.0425913 9.99602 
9.98954 -0.000563442 0.0453749 
-0.000563442 9.98966 -0.0423941 
0.0453749 -0.0423941 9.99913 
9.9945 -0.000730132 0.0467104 
-0.000730132 9.99244 -0.0453162 
0.0467104 -0.0453162 9.99139 
9.90229 0.107235 -0.0528077 
0.107235 9.84551 -0.150364 
-0.0528077 -0.150364 9.7195 
9.8447 0.104827 0.0378238 
0.104827 9.87338 -0.170153 
0.0378238 -0.170153 9.74922 
9.90703 0.0639938 0.0597682 
0.0639938 9.73436 -0.100699 
0.0597682 -0.100699 9.8259 
10.1226 -0.0266164 0.0967046 
-0.0266164 9.72675 -0.222526 
0.0967046 -0.222526 9.61796 
10.0653 0.0214743 0.0180322 
0.0214743 10.107 0.0175578 
0.0180322 0.0175578 10.1906 
10.1146 -0.0220691 0.00328849 
-0.0220691 10.1039 0.00738238 
0.00328849 0.00738238 10.1445 
10.1 -0.082782 -0.0091143 
-0.082782 10.04 0.0240615 
-0.0091143 0.0240615 10.223 
10.0836 0.042477 0.0350335 
0.042477 10.1346 0.0783845 
0.0350335 0.0783845 10.1447 
9.99143 0.00470919 -0.0599227 
0.00470919 9.9766 -0.0132026 
-0.0599227 -0.0132026 9.97527 
9.97714 -0.00170524 -0.0507955 
-0.00170524 10.0004 -0.00869505 
-0.0507955 -0.00869505 9.96573 
9.96794 -0.000664748 -0.0606984 
-0.000664748 9.97905 -0.00512216 
-0.0606984 -0.00512216 9.9963 
9.98773 0.00254404 -0.0578077 
0.00254404 9.97877 -0.0214708 
-0.0578077 -0.0214708 9.97679 
10.1675 0.0304763 -0.0140531 
0.0304763 10.1501 -0.0398977 
-0.0140531 -0.0398977 10.1562 
10.2813 -0.0189326 0.0629779 
-0.0189326 10.2581 -0.0839471 
0.0629779 -0.0839471 9.93432 
9.97817 -0.017711 -0.0527949 
-0.017711 10.1559 0.0373802 
-0.0527949 0.0373802 10.3397 
10.1746 -0.0149136 -0.0243307 
-0.0149136 10.0964 -0.101355 
-0.0243307 -0.101355 10.2028 
7.73833 -0.708067 2.97753 
-0.708067 10.1195 1.34692 
2.97753 1.34692 8.79939 
9.88004 0.876877 1.56983 
0.876877 9.70053 0.766076 
1.56983 0.766076 7.07668 
8.32369 -0.546763 3.21279 
-0.546763 9.05052 1.38794 
3.21279 1.38794 9.28304 
7.12538 -2.49426 -1.07053 
-2.49426 10.7124 -0.888726 
-1.07053 -0.888726 8.81949 
9.97309 -0.178466 0.340546 
-0.178466 9.89688 0.271383 
0.340546 0.271383 9.07561 
10.0077 -0.131653 0.333025 
-0.131653 9.78185 -0.0184164 
0.333025 -0.0184164 9.15606 
9.95567 -0.0792529 0.551011 
-0.0792529 9.59384 0.0174436 
0.551011 0.0174436 9.39607 
10.0743 -0.242171 0.426576 
-0.242171 9.72159 0.118914 
0.426576 0.118914 9.14972 
9.86468 0.315054 -0.167243 
0.315054 9.60432 0.305927 
-0.167243 0.305927 10.1236 
10.078 0.153899 0.0376152 
0.153899 9.73217 0.191178 
0.0376152 0.191178 9.78245 
10.024 0.202045 -0.0740929 
0.202045 9.55345 0.0392183 
-0.0740929 0.0392183 10.0152 
9.87917 -0.0563139 -0.093696 
-0.0563139 10.0999 0.12531 
-0.093696 0.12531 9.61353 
9.87052 0.0231827 0.0738821 
0.0231827 9.85624 0.0320859 
0.0738821 0.0320859 10.0721 
9.89331 0.0325733 0.0656925 
0.0325733 9.89577 0.0205259 
0.0656925 0.0205259 10.0098 
9.90086 0.00610962 0.0606552 
0.00610962 9.901 0.089442 
0.0606552 0.089442 9.99699 
9.90062 -0.0123901 0.0767106 
-0.0123901 9.87618 0.0573533 
0.0767106 0.0573533 10.022 
9.92533 -0.00915323 -0.0767767 
-0.00915323 9.88179 -0.00896159 
-0.0767767 -0.00896159 9.92379 
9.89848 -0.00141624 -0.0932774 
-0.00141624 9.93018 -0.0243672 
-0.0932774 -0.0243672 9.90225 
9.9009 -0.00867411 -0.0782732 
-0.00867411 9.90292 -0.0133663 
-0.0782732 -0.0133663 9.9271 
9.911 -0.0118954 -0.0838709 
-0.0118954 9.92738 -0.0283402 
-0.0838709 -0.0283402 9.89253 
9.93142 -0.0217585 0.040559 
-0.0217585 9.93875 -0.0477755 
0.040559 -0.0477755 9.91851 
9.96779 -0.0297579 0.0485506 
-0.0297579 9.90699 -0.0856683 
0.0485506 -0.0856683 9.9139 
9.91927 -0.0272345 0.0416367 
-0.0272345 9.91181 -0.0191894 
0.0416367 -0.0191894 9.9576 
9.95046 -0.0253066 0.0351721 
-0.0253066 9.93263 -0.0460023 
0.0351721 -0.0460023 9.90559 
9.96991 -0.00240438 -0.127427 
-0.00240438 9.63348 -0.293048 
-0.127427 -0.293048 9.87014 
9.96677 0.138663 -0.104501 
0.138663 9.94759 -0.244195 
-0.104501 -0.244195 9.55916 
10.0134 -0.183645 0.153424 
-0.183645 10.1098 -0.199047 
0.153424 -0.199047 9.35026 
9.94939 0.143427 0.0279369 
0.143427 9.65248 -0.273677 
0.0279369 -0.273677 9.87166 
9.96853 -0.00391991 -0.0440632 
-0.00391991 9.96928 0.0189395 
-0.0440632 0.0189395 9.95503 
9.97176 -0.00770469 -0.038031 
-0.00770469 9.97085 0.026369 
-0.038031 0.026369 9.95024 
9.97311 -0.00409392 -0.0422265 
-0.00409392 9.96876 0.0216443 
-0.0422265 0.0216443 9.95098 
9.96684 -0.00168952 -0.0394788 
-0.00168952 9.97021 0.0237426 
-0.0394788 0.0237426 9.95581 
9.8523 0.000436699 0.0775116 
0.000436699 9.89671 -0.0302067 
0.0775116 -0.0302067 9.98127 
9.88315 -0.0174756 0.0799165 
-0.0174756 9.92382 -0.0834972 
0.0799165 -0.0834972 9.92331 
9.86102 0.000330967 0.0464263 
0.000330967 9.91206 -0.0473137 
0.0464263 -0.0473137 9.95721 
9.88397 -0.00144476 0.0259337 
-0.00144476 9.86042 -0.0281018 
0.0259337 -0.0281018 9.98588 
9.64842 0.269357 0.196065 
0.269357 9.72363 -0.0511121 
0.196065 -0.0511121 10.5426 
10.012 0.185332 -0.0859027 
0.185332 9.7848 -0.0196549 
-0.0859027 -0.0196549 10.1179 
9.66297 0.353734 -0.02244 
0.353734 9.94183 0.0121941 
-0.02244 0.0121941 10.3099 
9.62297 0.261798 -0.000514609 
0.261798 9.90169 0.0923149 
-0.000514609 0.0923149 10.39 
10.131 -0.00195833 -0.0733416 
-0.00195833 10.1453 0.0468551 
-0.0733416 0.0468551 10.3597 
10.1077 0.000975424 0.00486904 
0.000975424 10.112 0.00290682 
0.00486904 0.00290682 10.4163 
10.0911 -0.0571263 -0.024072 
-0.0571263 10.205 -0.0606754 
-0.024072 -0.0606754 10.34 
10.1181 0.00110371 -0.0336079 
0.00110371 10.1721 -0.00239032 
-0.0336079 -0.00239032 10.3458 
9.99532 0.00191643 -0.0104857 
0.00191643 9.9902 -0.0612705 
-0.0104857 -0.0612705 9.99175 
9.98371 0.000517829 -0.0109676 
0.000517829 9.98505 -0.0606326 
-0.0109676 -0.0606326 10.0085 
9.99421 0.00265377 -0.0110119 
0.00265377 9.99473 -0.0627965 
-0.0110119 -0.0627965 9.98833 
9.99563 9.75613e-05 -0.0071565 
9.75613e-05 9.99533 -0.0552777 
-0.0071565 -0.0552777 9.9863 
9.95102 -0.0148012 0.00289757 
-0.0148012 9.87597 -0.00281351 
0.00289757 -0.00281351 10.0684 
10.016 -0.122104 0.0297634 
-0.122104 9.80959 0.0616318 
0.0297634 0.0616318 10.0699 
9.96836 -0.00219508 0.00127319 
-0.00219508 9.95816 -0.0185014 
0.00127319 -0.0185014 9.9689 
9.94058 0.0456526 -0.121206 
0.0456526 9.90289 -0.0890178 
-0.121206 -0.0890178 10.052 
9.95369 -0.0126115 0.0568658 
-0.0126115 9.94291 -0.0310421 
0.0568658 -0.0310421 9.92101 
9.92653 -0.018629 0.0389038 
-0.018629 9.94152 -0.0337053 
0.0389038 -0.0337053 9.94956 
9.89273 -0.0226334 0.0841573 
-0.0226334 9.97304 -0.0273921 
0.0841573 -0.0273921 9.95184 
9.94696 -0.0213873 0.0549045 
-0.0213873 9.94797 -0.0223991 
0.0549045 -0.0223991 9.92268 
9.97941 -0.000451219 -0.000930153 
-0.000451219 9.978 0.0719004 
-0.000930153 0.0719004 9.97959 
9.97534 -0.00218956 0.00197954 
-0.00218956 9.97858 0.0679685 
0.00197954 0.0679685 9.98308 
9.97923 0.000727758 0.00197209 
0.000727758 9.98016 0.0710667 
0.00197209 0.0710667 9.97761 
9.97896 -0.000906409 -0.00158109 
-0.000906409 9.98431 0.0747982 
-0.00158109 0.0747982 9.97373 
9.86323 0.0844986 -0.094083 
0.0844986 9.86436 0.000705716 
-0.094083 0.000705716 9.89594 
9.82015 0.0727904 -0.150498 
0.0727904 9.97985 0.202056 
-0.150498 0.202056 9.82352 
9.86251 0.273943 -0.0460456 
0.273943 9.83451 0.0119097 
-0.0460456 0.0119097 9.92651 
9.86977 -0.11583 0.0793091 
-0.11583 9.89211 0.00162601 
0.0793091 0.00162601 9.86165 
9.96092 -0.00448862 -0.0706495 
-0.00448862 9.95404 -0.0187084 
-0.0706495 -0.0187084 9.94131 
9.94345 0.00783273 -0.0792662 
0.00783273 9.95653 -0.0169164 
-0.0792662 -0.0169164 9.95629 
9.96526 -0.00776114 -0.0750599 
-0.00776114 9.95521 -0.0167838 
-0.0750599 -0.0167838 9.93581 
9.96312 0.00564929 -0.0666575 
0.00564929 9.96388 -0.0313285 
-0.0666575 -0.0313285 9.92928 
10.1639 0.0101406 -0.25152 
0.0101406 9.90925 -0.214552 
-0.25152 -0.214552 10.4914 
10.2394 -0.168177 -0.107277 
-0.168177 9.88147 0.0657579 
-0.107277 0.0657579 10.4437 
10.1302 0.086708 0.199738 
0.086708 10.1492 0.219299 
0.199738 0.219299 10.2851 
10.2015 -0.1258 -0.0657855 
-0.1258 9.86972 0.111437 
-0.0657855 0.111437 10.4934 
10.1212 -0.0564665 0.051278 
-0.0564665 10.1528 -0.0188728 
0.051278 -0.0188728 10.191 
10.143 0.0493154 -0.00586757 
0.0493154 10.0698 -0.0239699 
-0.00586757 -0.0239699 10.2522 
10.0543 -0.102864 0.0744439 
-0.102864 10.113 -0.000981049 
0.0744439 -0.000981049 10.2977 
10.1179 0.072885 0.0920167 
0.072885 10.1308 -0.0358895 
0.0920167 -0.0358895 10.2163 
9.93228 -0.159052 0.120313 
-0.159052 10.0272 0.192438 
0.120313 0.192438 9.90552 
9.97347 -0.158077 0.0550344 
-0.158077 10.0514 0.187348 
0.0550344 0.187348 9.8402 
9.95864 -0.043812 0.282638 
-0.043812 10.2088 0.0956026 
0.282638 0.0956026 9.69757 
9.89011 -0.0654135 -0.0246818 
-0.0654135 9.98876 -0.0603908 
-0.0246818 -0.0603908 9.98617 
9.97548 0.0291896 -0.203715 
0.0291896 9.66932 0.0497239 
-0.203715 0.0497239 11.0058 
10.0944 0.10451 0.278782 
0.10451 10.6617 -0.0541908 
0.278782 -0.0541908 9.89456 
10.042 0.295448 0.0802946 
0.295448 10.2125 -0.0606999 
0.0802946 -0.0606999 10.396 
10.0846 0.697887 0.0828825 
0.697887 10.1312 -0.582421 
0.0828825 -0.582421 10.4348 
9.29111 -0.105692 0.172321 
-0.105692 10.2195 -0.0991257 
0.172321 -0.0991257 11.9245 
11.3669 0.952073 -0.388513 
0.952073 10.6741 0.643903 
-0.388513 0.643903 9.39408 
9.84635 0.0425337 0.206731 
0.0425337 8.02597 -0.597555 
0.206731 -0.597555 13.5627 
11.6444 -0.47423 1.49523 
-0.47423 9.09134 0.159061 
1.49523 0.159061 10.6993 
10.8266 0.0492167 0.0355393 
0.0492167 10.5658 0.147582 
0.0355393 0.147582 10.2301 
10.3873 -0.0129823 0.0586227 
-0.0129823 10.5295 -0.118993 
0.0586227 -0.118993 10.7057 
10.3819 -0.115882 0.0524474 
-0.115882 10.2488 -0.166317 
0.0524474 -0.166317 10.9918 
10.5345 0.216505 -0.0617879 
0.216505 10.6719 -0.128227 
-0.0617879 -0.128227 10.4161 
9.80411 0.140007 -0.0323039 
0.140007 9.65856 0.58113 
-0.0323039 0.58113 9.81995 
9.9054 0.082717 -0.0430835 
0.082717 9.86273 0.54263 
-0.0430835 0.54263 9.51449 
9.85447 0.134814 0.0101308 
0.134814 9.57564 0.524119 
0.0101308 0.524119 9.8525 
9.79582 0.153304 0.0168539 
0.153304 9.69655 0.575131 
0.0168539 0.575131 9.79024 
9.954 0.0879602 0.0844016 
0.0879602 9.85248 -0.0678887 
0.0844016 -0.0678887 9.37247 
9.94423 0.171438 -0.0106426 
0.171438 9.78699 -0.279268 
-0.0106426 -0.279268 9.44773 
10.0698 0.0026529 0.140801 
0.0026529 9.8323 -0.301667 
0.140801 -0.301667 9.2768 
10.2673 0.275378 0.401673 
0.275378 9.96443 -0.258508 
0.401673 -0.258508 8.94722 
9.9609 0.00430714 0.036142 
0.00430714 9.96443 0.0374975 
0.036142 0.0374975 9.97107 
9.96602 0.00755719 0.0382794 
0.00755719 9.96792 0.0337016 
0.0382794 0.0337016 9.96246 
9.9695 0.00536753 0.0386204 
0.00536753 9.9694 0.0384374 
0.0386204 0.0384374 9.9575 
9.96217 0.0060931 0.0331867 
0.0060931 9.96638 0.0380672 
0.0331867 0.0380672 9.96784 
10.3912 -0.03639 -0.137508 
-0.03639 9.62651 -0.0469432 
-0.137508 -0.0469432 9.42599 
9.42545 -0.185678 -0.32973 
-0.185678 9.95087 -0.092454 
-0.32973 -0.092454 10.0673 
9.41048 -0.312388 -0.698478 
-0.312388 10.0032 -0.226012 
-0.698478 -0.226012 10.03 
9.30314 -0.212888 -0.245926 
-0.212888 9.72678 -0.0184553 
-0.245926 -0.0184553 10.4137 
9.95977 -0.00627593 -0.0208937 
-0.00627593 9.97804 -0.0019022 
-0.0208937 -0.0019022 9.95661 
9.95911 -0.00552871 -0.0026437 
-0.00552871 9.96982 0.0134816 
-0.0026437 0.0134816 9.96548 
9.9659 -0.00196948 -0.00362416 
-0.00196948 9.97224 0.00358075 
-0.00362416 0.00358075 9.95628 
9.96612 0.00121395 -0.00656672 
0.00121395 9.9698 0.00919946 
-0.00656672 0.00919946 9.95849 
9.98267 0.00267724 0.0596066 
0.00267724 9.98057 -0.0279242 
0.0596066 -0.0279242 9.98309 
9.98096 -0.0024444 0.0616148 
-0.0024444 9.97599 -0.0294832 
0.0616148 -0.0294832 9.98938 
9.98004 -0.00269283 0.0690158 
-0.00269283 9.97995 -0.0323136 
0.0690158 -0.0323136 9.98633 
9.97878 -0.00044643 0.0697269 
-0.00044643 9.98456 -0.0335727 
0.0697269 -0.0335727 9.98298 
10.1912 0.10889 -0.0415295 
0.10889 10.1343 -0.0191629 
-0.0415295 -0.0191629 10.389 
10.2266 0.00802724 -0.0819007 
0.00802724 10.1232 -0.0212415 
-0.0819007 -0.0212415 10.3647 
10.233 -0.00306388 -0.0277473 
-0.00306388 10.1011 0.00327432 
-0.0277473 0.00327432 10.3805 
10.1845 0.0681351 0.015053 
0.0681351 10.1558 0.0156537 
0.015053 0.0156537 10.3742 
9.94409 -0.0210813 0.0376193 
-0.0210813 9.92701 -0.0436874 
0.0376193 -0.0436874 9.94682 
9.95424 -0.0762625 0.00721617 
-0.0762625 9.94556 -0.0182034 
0.00721617 -0.0182034 9.91812 
9.88894 -0.0347898 0.080372 
-0.0347898 9.97441 -0.0315686 
0.080372 -0.0315686 9.95457 
9.91953 -0.0258102 0.0515099 
-0.0258102 9.96099 0.00169612 
0.0515099 0.00169612 9.9374 
10.0759 0.00432256 0.00426942 
0.00432256 10.0872 -0.00170984 
0.00426942 -0.00170984 10.1976 
10.1022 0.00666959 0.0140365 
0.00666959 10.0436 -0.01517 
0.0140365 -0.01517 10.215 
10.0776 0.00940458 0.0153955 
0.00940458 10.0624 -0.0135703 
0.0153955 -0.0135703 10.2207 
10.116 0.00247376 0.0358391 
0.00247376 10.0737 -0.0456499 
0.0358391 -0.0456499 10.1711 
10.5218 -0.276133 -0.0535111 
-0.276133 10.0678 -0.247631 
-0.0535111 -0.247631 10.1323 
10.1376 -0.0597816 0.107499 
-0.0597816 10.24 -0.0687718 
0.107499 -0.0687718 10.3443 
10.0689 0.185661 -0.199199 
0.185661 10.2683 -0.157679 
-0.199199 -0.157679 10.3845 
10.2618 -0.173395 0.144613 
-0.173395 9.99769 0.0139154 
0.144613 0.0139154 10.4623 
10.6674 -0.214595 -0.130185 
-0.214595 9.91181 0.339989 
-0.130185 0.339989 9.86596 
9.97401 0.414321 0.256854 
0.414321 10.3208 0.118435 
0.256854 0.118435 10.1503 
10.2053 -0.245966 -0.16904 
-0.245966 9.65422 0.0850212 
-0.16904 0.0850212 10.5856 
9.74602 -0.0861619 -0.192408 
-0.0861619 10.2902 -0.142265 
-0.192408 -0.142265 10.409 
9.96282 -0.000533778 0.0450963 
-0.000533778 9.96212 -0.0480741 
0.0450963 -0.0480741 9.95909 
9.95387 -0.0017301 0.0552915 
-0.0017301 9.95868 -0.0422934 
0.0552915 -0.0422934 9.97148 
9.95185 -0.00530047 0.0532113 
-0.00530047 9.96593 -0.0451058 
0.0532113 -0.0451058 9.96626 
9.95461 -0.000663279 0.0469409 
-0.000663279 9.96634 -0.0495362 
0.0469409 -0.0495362 9.96308 
9.5768 -0.00314572 -0.0560729 
-0.00314572 9.75251 0.44958 
-0.0560729 0.44958 9.82069 
9.59314 -0.295495 0.12594 
-0.295495 9.56666 0.0666539 
0.12594 0.0666539 9.99021 
9.73512 -0.304073 0.246916 
-0.304073 9.42063 0.193617 
0.246916 0.193617 9.99426 
9.58479 -0.327359 0.221353 
-0.327359 9.66863 0.330802 
0.221353 0.330802 9.89659 
9.97465 -0.0024671 0.018514 
-0.0024671 9.97819 0.0155018 
0.018514 0.0155018 9.9854 
9.97889 0.00517151 0.00496854 
0.00517151 9.97152 0.0142824 
0.00496854 0.0142824 9.98784 
9.9702 0.003369 0.0092574 
0.003369 9.98139 0.00467092 
0.0092574 0.00467092 9.98665 
9.98618 0.00888368 0.000930223 
0.00888368 9.97492 0.0112002 
0.000930223 0.0112002 9.97714 
9.8761 -0.0522113 -0.191032 
-0.0522113 9.85086 -0.144672 
-0.191032 -0.144672 9.89129 
10.1346 -0.0241198 -0.235037 
-0.0241198 9.89511 -0.436542 
-0.235037 -0.436542 9.58857 
9.89172 -0.0525126 -0.181989 
-0.0525126 9.73627 -0.231273 
-0.181989 -0.231273 9.99027 
9.94242 -0.102219 -0.204611 
-0.102219 9.77385 -0.228656 
-0.204611 -0.228656 9.90198 
10.247 -0.058601 -0.05769 
-0.058601 10.2602 0.0437397 
-0.05769 0.0437397 10.2727 
10.2011 0.0284703 -0.0831477 
0.0284703 10.4799 -0.0745706 
-0.0831477 -0.0745706 10.0989 
10.1788 0.118156 -0.0562049 
0.118156 10.1473 0.110702 
-0.0562049 0.110702 10.4538 
10.1639 7.1303e-05 -0.1255 
7.1303e-05 10.3041 0.0167759 
-0.1255 0.0167759 10.3119 
10.003 0.0899097 0.0761454 
0.0899097 10.0819 0.104223 
0.0761454 0.104223 10.1635 
10.0692 -0.0278332 0.0301156 
-0.0278332 9.99705 -0.00668799 
0.0301156 -0.00668799 10.1823 
10.1182 -0.0291884 0.0239222 
-0.0291884 10.0064 -0.0199497 
0.0239222 -0.0199497 10.1239 
10.0597 0.00927802 -0.0648626 
0.00927802 10.0985 -0.04504 
-0.0648626 -0.04504 10.0903 
9.96715 -0.0100115 -0.033982 
-0.0100115 9.97579 0.0327637 
-0.033982 0.0327637 9.96415 
9.97595 -0.00585846 -0.0385483 
-0.00585846 9.96702 0.0273624 
-0.0385483 0.0273624 9.96412 
9.97006 -0.00470564 -0.0358166 
-0.00470564 9.96806 0.0322898 
-0.0358166 0.0322898 9.96896 
9.96965 -0.000222869 -0.043141 
-0.000222869 9.97046 0.0242318 
-0.043141 0.0242318 9.96697 
10.0073 -0.00648578 0.0196371 
-0.00648578 9.97699 -0.00292542 
0.0196371 -0.00292542 10.2405 
9.98669 -0.0621353 -0.134051 
-0.0621353 10.0227 0.0068428 
-0.134051 0.0068428 10.2154 
9.94336 -0.0587268 0.0739438 
-0.0587268 9.91882 -0.0500207 
0.0739438 -0.0500207 10.3625 
10.0159 -0.0395727 0.0154698 
-0.0395727 9.99636 0.00987472 
0.0154698 0.00987472 10.2125 
9.8942 -0.0880796 -0.0497489 
-0.0880796 9.90439 -0.0598957 
-0.0497489 -0.0598957 9.86483 
9.86269 -0.136973 0.0918534 
-0.136973 9.80269 -0.0142475 
0.0918534 -0.0142475 9.99804 
10.0642 -0.235344 0.084369 
-0.235344 9.73488 -0.207583 
0.084369 -0.207583 9.86434 
9.93534 -0.155764 0.0322143 
-0.155764 9.7936 -0.0890496 
0.0322143 -0.0890496 9.93449 
9.96109 -0.00230279 0.0685052 
-0.00230279 9.95054 -0.0184307 
0.0685052 -0.0184307 9.94001 
9.94945 0.0103591 0.0650754 
0.0103591 9.95203 -0.030467 
0.0650754 -0.030467 9.95016 
9.94173 -0.00770521 0.0695082 
-0.00770521 9.94767 -0.0414112 
0.0695082 -0.0414112 9.96224 
9.95431 0.00705611 0.0706378 
0.00705611 9.94701 -0.0313604 
0.0706378 -0.0313604 9.95033 
9.96422 -0.171906 -0.0836455 
-0.171906 9.75324 0.125256 
-0.0836455 0.125256 10.363 
10.0574 -0.167378 -0.0315293 
-0.167378 9.94468 0.135737 
-0.0315293 0.135737 10.0783 
9.8775 -0.215324 -0.222258 
-0.215324 9.98795 -0.00335046 
-0.222258 -0.00335046 10.215 
9.88903 -0.148326 -0.271346 
-0.148326 9.90468 -0.182404 
-0.271346 -0.182404 10.2867 
10.0899 0.00824811 -0.0165681 
0.00824811 10.0153 -0.0219456 
-0.0165681 -0.0219456 10.174 
10.0597 0.00071805 0.0698826 
0.00071805 10.0529 0.00936457 
0.0698826 0.00936457 10.1665 
10.0991 -0.0232828 -0.0137916 
-0.0232828 10.0457 -0.0395196 
-0.0137916 -0.0395196 10.1343 
10.0573 -0.0289122 -0.0333911 
-0.0289122 10.052 0.0139063 
-0.0333911 0.0139063 10.1698 
10.0688 -0.0101174 0.0441037 
-0.0101174 10.1568 0.147929 
0.0441037 0.147929 10.236 
9.98675 0.0291567 0.0221747 
0.0291567 10.1422 0.0289353 
0.0221747 0.0289353 10.3328 
10.1923 0.165435 0.00997546 
0.165435 10.0456 -0.0414246 
0.00997546 -0.0414246 10.2238 
10.2169 -0.0252436 0.0237024 
-0.0252436 10.151 0.0160199 
0.0237024 0.0160199 10.0937 
10.3487 0.160028 -0.320841 
0.160028 9.48385 0.0144998 
-0.320841 0.0144998 10.6884 
10.0331 -0.235548 -0.0105584 
-0.235548 9.89161 -0.0410571 
-0.0105584 -0.0410571 10.5963 
10.1 -0.163831 -0.171851 
-0.163831 9.94928 0.0329001 
-0.171851 0.0329001 10.4716 
10.2545 0.0154417 0.084237 
0.0154417 9.82529 -0.0244102 
0.084237 -0.0244102 10.4411 
10.1153 -0.0185252 -0.0175935 
-0.0185252 10.0739 -0.0172282 
-0.0175935 -0.0172282 10.223 
10.1073 0.00125162 0.0111774 
0.00125162 10.0857 -0.0401131 
0.0111774 -0.0401131 10.2192 
10.0907 0.0311548 -0.00522271 
0.0311548 10.0636 -0.0145313 
-0.00522271 -0.0145313 10.2578 
10.1019 0.000496813 0.00888696 
0.000496813 10.066 -0.0039364 
0.00888696 -0.0039364 10.2442 
9.99363 -1.8255 3.0092 
-1.8255 15.084 0.341229 
3.0092 0.341229 4.40072 
2.59757 -3.93687 -2.4539 
-3.93687 8.51389 -0.574397 
-2.4539 -0.574397 18.3669 
8.16416 -1.76322 -0.930642 
-1.76322 8.63285 0.00499378 
-0.930642 0.00499378 12.6814 
13.5929 0.178792 -4.17398 
0.178792 8.57376 -1.28271 
-4.17398 -1.28271 7.31174 
9.90747 0.08545 -0.076874 
0.08545 9.80238 -0.103913 
-0.076874 -0.103913 10.1539 
9.8917 -0.0551711 -0.0682967 
-0.0551711 9.86007 -0.169794 
-0.0682967 -0.169794 10.112 
9.93714 0.134042 -0.0752571 
0.134042 9.91204 -0.241196 
-0.0752571 -0.241196 10.0146 
9.86781 0.186232 0.00440913 
0.186232 9.80562 -0.0942986 
0.00440913 -0.0942986 10.1903 
9.86732 -0.0205902 0.0391698 
-0.0205902 9.87614 -0.0286856 
0.0391698 -0.0286856 10.0425 
9.87253 -0.0179859 0.0406717 
-0.0179859 9.87022 -0.0263037 
0.0406717 -0.0263037 10.0432 
9.8548 0.00891994 0.0420868 
0.00891994 9.86836 -0.015094 
0.0420868 -0.015094 10.0628 
9.86911 -0.0240832 0.0539462 
-0.0240832 9.86878 -0.0385615 
0.0539462 -0.0385615 10.048 
9.91463 0.000850542 -0.00220587 
0.000850542 9.91632 -0.0146364 
-0.00220587 -0.0146364 10.1169 
9.90729 0.00399888 0.0146524 
0.00399888 9.90357 -0.0186059 
0.0146524 -0.0186059 10.137 
9.90132 0.00187318 0.00272839 
0.00187318 9.90152 -0.00970382 
0.00272839 -0.00970382 10.1451 
9.90907 0.00304398 0.0121519 
0.00304398 9.90172 -0.0164953 
0.0121519 -0.0164953 10.1371 
10.0203 -0.100178 0.0391726 
-0.100178 9.89326 -0.0555672 
0.0391726 -0.0555672 9.54767 
9.86027 0.0513994 0.05628 
0.0513994 9.89996 -0.0190471 
0.05628 -0.0190471 9.701 
10.0327 -0.0158139 -0.1445 
-0.0158139 9.94121 -0.179421 
-0.1445 -0.179421 9.48736 
10.272 0.517313 0.3215 
0.517313 9.9612 -0.101503 
0.3215 -0.101503 9.22799 
9.8959 0.0278556 0.068511 
0.0278556 9.84397 0.00694392 
0.068511 0.00694392 9.86915 
9.88535 -0.0460521 0.000583911 
-0.0460521 9.90364 0.0109578 
0.000583911 0.0109578 9.82004 
9.86962 0.00995291 0.157252 
0.00995291 9.86545 0.0172754 
0.157252 0.0172754 9.87396 
9.8593 0.0359722 0.139385 
0.0359722 9.87522 0.0822547 
0.139385 0.0822547 9.87451 
9.7725 0.0733348 0.0740867 
0.0733348 9.96624 -0.0254855 
0.0740867 -0.0254855 10.0152 
9.75056 0.0136053 0.0723494 
0.0136053 9.94647 -0.0442657 
0.0723494 -0.0442657 10.0569 
9.85852 0.0124965 0.0931302 
0.0124965 9.95193 -0.0382071 
0.0931302 -0.0382071 9.94349 
9.85716 0.00336074 0.215927 
0.00336074 9.87343 -0.0157777 
0.215927 -0.0157777 10.0233 
9.87513 0.0640433 -0.00974686 
0.0640433 9.79654 -0.148099 
-0.00974686 -0.148099 9.99222 
9.89064 -0.161184 0.0675241 
-0.161184 9.79292 -0.253767 
0.0675241 -0.253767 9.98034 
9.81038 0.000280081 0.130232 
0.000280081 9.83748 -0.0631649 
0.130232 -0.0631649 10.016 
9.88982 -0.00134159 -0.068422 
-0.00134159 9.83413 -0.102148 
-0.068422 -0.102148 9.93994 
10.2126 -0.0968395 -0.0577462 
-0.0968395 10.0524 -0.02026 
-0.0577462 -0.02026 10.2236 
10.0958 -0.066745 0.0807845 
-0.066745 10.1548 0.0542946 
0.0807845 0.0542946 10.2379 
10.1137 0.127312 -0.0116935 
0.127312 10.2599 0.0595823 
-0.0116935 0.0595823 10.1149 
10.06 0.0540673 0.0702948 
0.0540673 10.1406 0.0391483 
0.0702948 0.0391483 10.2879 
9.88157 -0.0703903 -0.0270958 
-0.0703903 9.79198 -0.055474 
-0.0270958 -0.055474 9.9353 
9.82821 -0.021364 -0.0881399 
-0.021364 9.89584 -0.0992084 
-0.0881399 -0.0992084 9.8848 
9.84189 -0.0948834 -0.0873387 
-0.0948834 9.81917 -0.14528 
-0.0873387 -0.14528 9.94779 
9.82427 -0.0530979 -0.07187 
-0.0530979 9.85738 -0.0914902 
-0.07187 -0.0914902 9.92721 
9.67944 0.120573 -0.124807 
0.120573 9.96372 -0.00827117 
-0.124807 -0.00827117 10.0457 
9.7724 0.0614222 -0.155425 
0.0614222 9.94282 0.0487975 
-0.155425 0.0487975 9.97363 
9.67502 0.116897 -0.0835214 
0.116897 10.0052 0.0237115 
-0.0835214 0.0237115 10.0087 
9.79526 0.197845 -0.147671 
0.197845 10.0259 0.022397 
-0.147671 0.022397 9.86766 
10.084 0.00903783 0.00991618 
0.00903783 10.0843 0.0239841 
0.00991618 0.0239841 10.2119 
10.068 0.00338033 0.00806045 
0.00338033 10.0787 0.0316182 
0.00806045 0.0316182 10.2336 
10.0942 0.000873946 -0.0322785 
0.000873946 10.0895 0.060943 
-0.0322785 0.060943 10.1965 
10.0794 0.000203922 -0.0154796 
0.000203922 10.0944 0.021988 
-0.0154796 0.021988 10.2065 
9.97083 0.00318041 0.0202363 
0.00318041 9.97793 0.04249 
0.0202363 0.04249 9.97656 
9.96932 0.00321201 0.0251182 
0.00321201 9.99118 0.0425146 
0.0251182 0.0425146 9.96482 
9.97553 0.00147619 0.0228024 
0.00147619 9.97599 0.0426091 
0.0228024 0.0426091 9.9738 
9.98062 0.00138236 0.0231256 
0.00138236 9.97149 0.0509803 
0.0231256 0.0509803 9.97322 
9.89758 -0.0687453 0.016446 
-0.0687453 9.883 0.0422721 
0.016446 0.0422721 9.89894 
9.88345 -0.0761812 0.0698507 
-0.0761812 9.90204 0.0557787 
0.0698507 0.0557787 9.89403 
9.83917 -0.0799527 0.0122195 
-0.0799527 9.92094 0.0255339 
0.0122195 0.0255339 9.91941 
9.87275 -0.0778805 0.0308602 
-0.0778805 9.90988 0.0454409 
0.0308602 0.0454409 9.89688 
9.9383 -0.187223 -0.0757702 
-0.187223 9.57757 0.364036 
-0.0757702 0.364036 9.99414 
9.88186 -0.218978 0.107754 
-0.218978 9.59419 0.348895 
0.107754 0.348895 10.034 
10.1584 -0.0875576 -0.0607823 
-0.0875576 9.77314 0.270462 
-0.0607823 0.270462 9.57847 
9.8401 -0.0729523 0.0696773 
-0.0729523 9.77368 0.284502 
0.0696773 0.284502 9.89624 
9.99724 -0.000613755 -0.0618156 
-0.000613755 9.99715 -0.000367842 
-0.0618156 -0.000367842 9.98534 
9.98586 -0.00039959 -0.0603547 
-0.00039959 9.98484 -0.00198007 
-0.0603547 -0.00198007 10.009 
9.9963 4.07569e-05 -0.0599393 
4.07569e-05 9.98947 -0.00191975 
-0.0599393 -0.00191975 9.99396 
9.99562 -0.00296197 -0.0527175 
-0.00296197 9.99697 -0.00641293 
-0.0527175 -0.00641293 9.98714 
9.9678 -0.00399521 0.0415907 
-0.00399521 9.973 -0.0427571 
0.0415907 -0.0427571 9.96948 
9.96884 -0.00384913 0.0404875 
-0.00384913 9.96821 -0.0408889 
0.0404875 -0.0408889 9.97323 
9.96563 -0.00385012 0.0408371 
-0.00385012 9.96969 -0.0431557 
0.0408371 -0.0431557 9.97496 
9.97264 -0.00144411 0.0417806 
-0.00144411 9.97023 -0.0377713 
0.0417806 -0.0377713 9.96742 
9.96319 -0.00706397 0.0394679 
-0.00706397 9.96691 -0.015862 
0.0394679 -0.015862 9.95461 
9.97276 -0.00203396 0.0430527 
-0.00203396 9.96945 -0.0168255 
0.0430527 -0.0168255 9.94249 
9.97073 -0.00706151 0.043628 
-0.00706151 9.97489 -0.0127777 
0.043628 -0.0127777 9.93909 
9.97476 -0.00404762 0.037637 
-0.00404762 9.96053 -0.0148831 
0.037637 -0.0148831 9.94942 
9.91377 0.0687361 -0.0566069 
0.0687361 9.88303 -0.0218372 
-0.0566069 -0.0218372 10.648 
10.2805 0.0372022 0.0166525 
0.0372022 10.1746 0.0196375 
0.0166525 0.0196375 9.98972 
10.2643 -0.0122321 0.0681509 
-0.0122321 10.1771 0.0417295 
0.0681509 0.0417295 10.0033 
10.3638 0.0210288 -0.165736 
0.0210288 10.0319 0.425337 
-0.165736 0.425337 10.0491 
9.94461 -0.0164312 -0.0400617 
-0.0164312 9.95097 0.0269789 
-0.0400617 0.0269789 9.92108 
9.93881 -0.0241624 -0.0301772 
-0.0241624 9.94848 0.0235649 
-0.0301772 0.0235649 9.92937 
9.95979 -0.00318692 -0.0338401 
-0.00318692 9.95483 0.0524487 
-0.0338401 0.0524487 9.90204 
9.92347 -0.0336807 -0.0276069 
-0.0336807 9.99595 0.00761906 
-0.0276069 0.00761906 9.89724 
10.1111 -0.151496 0.123394 
-0.151496 9.78864 0.0557882 
0.123394 0.0557882 10.0176 
10.1571 -0.0113922 -0.0808543 
-0.0113922 9.84152 0.165982 
-0.0808543 0.165982 9.9187 
10.0428 -0.129289 0.0844576 
-0.129289 9.76161 0.109677 
0.0844576 0.109677 10.1129 
9.96513 -0.00164353 0.0954099 
-0.00164353 9.95592 0.146674 
0.0954099 0.146674 9.99628 
9.87129 0.00527931 0.131557 
0.00527931 9.92634 0.0818528 
0.131557 0.0818528 9.90385 
9.85159 -0.023254 0.114417 
-0.023254 9.90845 0.0544808 
0.114417 0.0544808 9.94145 
9.90033 -0.0311682 0.156518 
-0.0311682 9.9579 0.109664 
0.156518 0.109664 9.84326 
9.92621 -0.0243709 0.0273506 
-0.0243709 9.83686 0.0978244 
0.0273506 0.0978244 9.93842 
10.0247 -0.0219782 -0.0651995 
-0.0219782 9.99475 -0.023521 
-0.0651995 -0.023521 10.1865 
10.1863 -0.00199433 0.0576061 
-0.00199433 10.146 0.033062 
0.0576061 0.033062 9.87361 
10.0532 -0.0154009 -0.00668738 
-0.0154009 10.0409 0.0122927 
-0.00668738 0.0122927 10.1117 
10.0079 -0.0689256 0.0473229 
-0.0689256 10.0408 0.0207416 
0.0473229 0.0207416 10.1572 
9.95437 0.313485 -0.260046 
0.313485 9.64756 -0.177118 
-0.260046 -0.177118 9.87672 
9.31746 -0.252555 -0.474819 
-0.252555 10.2562 -0.392155 
-0.474819 -0.392155 9.90498 
9.60639 0.00792209 -0.156491 
0.00792209 9.75621 -0.133946 
-0.156491 -0.133946 10.116 
9.7946 -0.109283 -0.518657 
-0.109283 10.0152 0.274185 
-0.518657 0.274185 9.66889 
9.9687 0.00153566 0.0146349 
0.00153566 9.97409 0.0735866 
0.0146349 0.0735866 9.97376 
9.96985 -0.00157892 0.0125005 
-0.00157892 9.97637 0.0749906 
0.0125005 0.0749906 9.97033 
9.97395 0.000527619 0.00758369 
0.000527619 9.97241 0.0747908 
0.00758369 0.0747908 9.9702 
9.97066 0.00299796 0.0081961 
0.00299796 9.97597 0.0776233 
0.0081961 0.0776233 9.96992 
9.85146 0.104175 -0.15993 
0.104175 9.9666 0.0368432 
-0.15993 0.0368432 10.1691 
9.79694 0.102956 -0.187883 
0.102956 9.97469 0.00906575 
-0.187883 0.00906575 10.2156 
9.89295 0.102257 -0.147173 
0.102257 9.95817 -0.0142107 
-0.147173 -0.0142107 10.1361 
9.88467 0.185408 -0.179481 
0.185408 9.93288 0.0171257 
-0.179481 0.0171257 10.1697 
9.94631 -0.0122613 -0.0216949 
-0.0122613 9.94424 -0.0790316 
-0.0216949 -0.0790316 9.92543 
9.94494 -0.00433851 -0.0203167 
-0.00433851 9.95062 -0.0747935 
-0.0203167 -0.0747935 9.92043 
9.94576 -0.00575273 -0.0383849 
-0.00575273 9.95316 -0.0699878 
-0.0383849 -0.0699878 9.91706 
9.93895 -0.00121819 -0.0220312 
-0.00121819 9.91955 -0.0682432 
-0.0220312 -0.0682432 9.9575 
9.98486 0.00424579 0.0221978 
0.00424579 9.97599 0.0348486 
0.0221978 0.0348486 9.98016 
9.97006 0.00157437 0.0227733 
0.00157437 9.98239 0.0362674 
0.0227733 0.0362674 9.98857 
9.97355 0.000180697 0.0154551 
0.000180697 9.99486 0.0368924 
0.0154551 0.0368924 9.97261 
9.98368 0.00758835 0.0207925 
0.00758835 9.97926 0.0261807 
0.0207925 0.0261807 9.97808 
10.9095 0.246267 0.967167 
0.246267 8.39641 0.279932 
0.967167 0.279932 10.7792 
10.3534 0.0976261 0.396507 
0.0976261 9.37986 0.376703 
0.396507 0.376703 10.3519 
9.55829 -0.544895 0.0476615 
-0.544895 10.2349 0.297062 
0.0476615 0.297062 10.292 
9.70963 0.183011 0.121704 
0.183011 9.8438 0.926815 
0.121704 0.926815 10.5317 
9.95375 0.0132532 -0.0225012 
0.0132532 9.98774 -0.0347061 
-0.0225012 -0.0347061 9.95625 
9.96405 0.0111126 -0.0160635 
0.0111126 9.97203 -0.0224283 
-0.0160635 -0.0224283 9.96165 
9.98007 0.000149191 -0.0220883 
0.000149191 9.95208 -0.0337039 
-0.0220883 -0.0337039 9.96559 
9.96299 0.0053777 -0.0465175 
0.0053777 9.97355 -0.0342154 
-0.0465175 -0.0342154 9.9612 
9.98595 0.00431136 -0.00938009 
0.00431136 9.8377 -0.131083 
-0.00938009 -0.131083 9.80288 
9.89274 -0.014944 -0.0188288 
-0.014944 9.89631 -0.157556 
-0.0188288 -0.157556 9.83748 
9.96706 -0.159304 -0.0141404 
-0.159304 9.67466 -0.234878 
-0.0141404 -0.234878 9.98481 
9.87328 0.175567 -0.113747 
0.175567 10.023 -0.360816 
-0.113747 -0.360816 9.73024 
10.3276 -0.299956 0.0546135 
-0.299956 9.8496 0.162651 
0.0546135 0.162651 10.218 
9.99978 0.406021 -0.429259 
0.406021 10.0633 0.615752 
-0.429259 0.615752 10.3321 
9.88943 0.857597 0.589065 
0.857597 9.46297 0.655447 
0.589065 0.655447 11.0428 
10.0567 0.207344 0.0222833 
0.207344 9.74455 0.404267 
0.0222833 0.404267 10.5939 
9.98778 0.00366887 0.0558315 
0.00366887 9.97421 0.00168209 
0.0558315 0.00168209 9.97285 
9.98532 0.00520306 0.0545711 
0.00520306 9.9805 -0.00331153 
0.0545711 -0.00331153 9.96901 
9.96638 -0.0159745 0.0458965 
-0.0159745 9.97329 0.00982919 
0.0458965 0.00982919 9.99516 
9.97976 -0.0107388 0.0383402 
-0.0107388 10.0017 0.00111081 
0.0383402 0.00111081 9.95341 
9.87771 0.0695096 0.0241064 
0.0695096 9.77624 -0.0985772 
0.0241064 -0.0985772 10.0786 
9.88319 0.022703 0.00432552 
0.022703 9.7983 -0.0761449 
0.00432552 -0.0761449 10.0511 
9.82657 0.110217 -0.0420222 
0.110217 9.81869 -0.0657787 
-0.0420222 -0.0657787 10.0873 
9.87224 0.0622283 0.00199769 
0.0622283 9.80131 -0.077913 
0.00199769 -0.077913 10.059 
9.90071 0.0107139 -0.144231 
0.0107139 9.84601 -0.0161424 
-0.144231 -0.0161424 10.0712 
9.76854 -0.103481 -0.112389 
-0.103481 10.009 0.0486987 
-0.112389 0.0486987 10.0404 
9.79576 -0.152556 -0.134328 
-0.152556 9.94486 -0.0261449 
-0.134328 -0.0261449 10.0773 
9.8257 -0.166817 -0.11588 
-0.166817 9.97502 -0.0816568 
-0.11588 -0.0816568 10.0172 
10.0171 -0.111103 0.0995409 
-0.111103 10.1846 0.0705069 
0.0995409 0.0705069 10.5754 
10.0186 -0.0773729 0.142596 
-0.0773729 10.1485 0.0733788 
0.142596 0.0733788 10.61 
10.1504 -0.212674 0.0710736 
-0.212674 10.0737 -0.0499187 
0.0710736 -0.0499187 10.553 
9.99682 0.0301975 -0.0307777 
0.0301975 10.3576 -0.130717 
-0.0307777 -0.130717 10.4227 
9.71325 0.134676 0.153389 
0.134676 9.8923 0.0126806 
0.153389 0.0126806 10.1048 
9.61571 0.173887 0.241955 
0.173887 10.011 -0.0411291 
0.241955 -0.0411291 10.0837 
10.117 0.211489 0.194573 
0.211489 9.76143 -0.0174617 
0.194573 -0.0174617 9.83193 
9.66522 0.0446114 0.14533 
0.0446114 10.0172 0.0692947 
0.14533 0.0692947 10.028 
9.96382 -0.00244334 -0.0480501 
-0.00244334 9.95698 0.0299189 
-0.0480501 0.0299189 9.95547 
9.96345 -0.00206786 -0.0500169 
-0.00206786 9.95846 0.0320081 
-0.0500169 0.0320081 9.95437 
9.96698 -0.002076 -0.0504632 
-0.002076 9.96049 0.033676 
-0.0504632 0.033676 9.94881 
9.96465 -0.00214016 -0.0480058 
-0.00214016 9.95928 0.033488 
-0.0480058 0.033488 9.95235 
9.92441 -0.141237 -0.0528618 
-0.141237 10.0256 0.0510244 
-0.0528618 0.0510244 9.90343 
9.90318 -0.00477825 -0.167025 
-0.00477825 9.97909 0.0650542 
-0.167025 0.0650542 9.97114 
9.94403 -0.0404739 -0.0609465 
-0.0404739 9.93558 0.0438815 
-0.0609465 0.0438815 9.9738 
9.96188 -0.00508391 -0.0832863 
-0.00508391 10.0524 0.0307253 
-0.0832863 0.0307253 9.8391 
9.83813 0.0867956 -0.0615287 
0.0867956 9.85262 -0.0177167 
-0.0615287 -0.0177167 10.0507 
9.80106 0.092186 -0.136134 
0.092186 9.86985 -0.00967322 
-0.136134 -0.00967322 10.0705 
9.84032 0.0663008 -0.0859358 
0.0663008 9.86845 0.00535015 
-0.0859358 0.00535015 10.0327 
9.77502 0.0318035 -0.0264557 
0.0318035 9.88143 -0.103583 
-0.0264557 -0.103583 10.085 
9.89649 0.0172046 0.0158582 
0.0172046 9.92681 -0.0224549 
0.0158582 -0.0224549 9.94239 
9.90318 0.0194866 0.0072007 
0.0194866 9.92093 -0.0165435 
0.0072007 -0.0165435 9.94157 
9.89848 0.0306043 0.000627685 
0.0306043 9.92736 -0.0142558 
0.000627685 -0.0142558 9.93984 
9.9146 0.0208643 0.0173942 
0.0208643 9.91631 -0.000828997 
0.0173942 -0.000828997 9.93478 
9.92094 0.0934043 0.0151792 
0.0934043 9.90234 -0.0690516 
0.0151792 -0.0690516 10.0409 
9.88472 -0.00343427 -0.00456415 
-0.00343427 9.86944 -0.0611051 
-0.00456415 -0.0611051 10.11 
9.88491 0.0551617 -0.0192914 
0.0551617 9.89124 -0.0696845 
-0.0192914 -0.0696845 10.088 
9.87276 0.047319 -0.0561228 
0.047319 9.93775 -0.0948539 
-0.0561228 -0.0948539 10.0537 
9.92583 -0.00583166 -0.00485928 
-0.00583166 9.87595 0.13185 
-0.00485928 0.13185 9.86873 
9.90418 0.0130249 -0.00977796 
0.0130249 9.87223 0.125107 
-0.00977796 0.125107 9.89411 
9.84826 -0.0168671 0.0222022 
-0.0168671 9.83653 0.0136824 
0.0222022 0.0136824 9.98573 
9.93635 0.00696438 -0.0145122 
0.00696438 9.79624 0.154948 
-0.0145122 0.154948 9.93792 
9.96969 0.00531037 0.00937303 
0.00531037 9.86385 0.0422727 
0.00937303 0.0422727 10.0016 
9.98601 -0.0300183 0.00711786 
-0.0300183 9.85555 0.0424091 
0.00711786 0.0424091 9.99362 
9.89349 0.0405539 -0.00124739 
0.0405539 9.99662 -0.122535 
-0.00124739 -0.122535 9.94507 
10.0229 -0.0208464 -0.0102596 
-0.0208464 9.77504 -0.020491 
-0.0102596 -0.020491 10.0372 
9.9959 -0.0100886 0.0176913 
-0.0100886 9.9389 -0.0384681 
0.0176913 -0.0384681 9.89389 
9.8869 -0.041427 -0.00997205 
-0.041427 9.93546 0.0082841 
-0.00997205 0.0082841 10.0063 
9.97363 -0.0119659 0.0280222 
-0.0119659 9.88516 -0.127469 
0.0280222 -0.127469 9.9699 
9.90309 0.0187736 -0.0105234 
0.0187736 9.97865 -0.0329408 
-0.0105234 -0.0329408 9.94696 
9.94192 -0.0418768 -0.0626463 
-0.0418768 9.7831 0.0522911 
-0.0626463 0.0522911 9.85564 
9.8689 -0.0371912 0.0630672 
-0.0371912 9.76604 0.141886 
0.0630672 0.141886 9.94571 
9.86981 0.00170794 0.0657171 
0.00170794 9.83687 0.191014 
0.0657171 0.191014 9.87398 
9.91182 -0.135948 0.0557742 
-0.135948 9.69095 0.194012 
0.0557742 0.194012 9.97788 
9.95886 0.00358542 0.0284181 
0.00358542 9.96416 0.0450005 
0.0284181 0.0450005 9.96151 
9.96048 0.00260858 0.0288393 
0.00260858 9.96683 0.0467106 
0.0288393 0.0467106 9.95721 
9.96172 0.00131662 0.0330338 
0.00131662 9.97487 0.0441598 
0.0330338 0.0441598 9.94793 
9.96076 0.000633767 0.0308438 
0.000633767 9.96365 0.0496265 
0.0308438 0.0496265 9.96011 
10.0163 0.0374661 -0.025949 
0.0374661 10.0254 -0.0171422 
-0.025949 -0.0171422 10.117 
10.0619 0.00115468 -0.0122711 
0.00115468 10.0177 -0.00471919 
-0.0122711 -0.00471919 10.0791 
10.0823 -0.0115026 0.0157538 
-0.0115026 10.0627 0.00891722 
0.0157538 0.00891722 10.0137 
10.1012 -0.0115859 -0.0241414 
-0.0115859 9.9832 0.0379224 
-0.0241414 0.0379224 10.0744 
10.0966 -0.00226385 -0.0141435 
-0.00226385 10.05 0.0172291 
-0.0141435 0.0172291 10.3162 
10.2238 -0.020024 0.0609566 
-0.020024 10.2322 -0.0180099 
0.0609566 -0.0180099 10.0067 
10.1097 0.00614384 0.0338965 
0.00614384 10.1707 0.0221788 
0.0338965 0.0221788 10.1823 
10.091 -0.0336822 0.135467 
-0.0336822 10.1398 0.0680932 
0.135467 0.0680932 10.232 
9.9503 0.00296205 -0.086372 
0.00296205 9.91421 0.0236023 
-0.086372 0.0236023 9.94072 
9.93619 -0.00859649 -0.0953745 
-0.00859649 9.94824 0.00119495 
-0.0953745 0.00119495 9.92081 
9.94069 0.0254938 -0.0644866 
0.0254938 9.97697 0.0122283 
-0.0644866 0.0122283 9.88758 
9.90916 0.0160196 -0.0668586 
0.0160196 9.9177 0.0300404 
-0.0668586 0.0300404 9.97838 
9.85853 0.0852049 0.0121787 
0.0852049 9.96868 0.083792 
0.0121787 0.083792 10.2098 
9.94789 0.0237583 -0.080282 
0.0237583 10.0008 -0.0597999 
-0.080282 -0.0597999 10.0883 
9.80017 0.075835 0.0347938 
0.075835 9.93208 0.00956304 
0.0347938 0.00956304 10.3047 
9.92552 0.170454 -0.0657841 
0.170454 9.88882 -0.027181 
-0.0657841 -0.027181 10.2227 
9.94242 0.000543309 -0.0122193 
0.000543309 9.9331 0.00303288 
-0.0122193 0.00303288 9.93578 
9.94245 0.000210864 -0.0135791 
0.000210864 9.93113 0.00624014 
-0.0135791 0.00624014 9.93772 
9.94965 0.00182524 -0.0156587 
0.00182524 9.93268 -0.00263529 
-0.0156587 -0.00263529 9.92897 
9.94869 0.0071579 -0.00085695 
0.0071579 9.93205 0.0100822 
-0.00085695 0.0100822 9.93057 
9.89485 -0.0123312 0.0466987 
-0.0123312 9.92679 0.0541823 
0.0466987 0.0541823 10.0639 
9.91581 0.0173663 -0.039439 
0.0173663 9.91823 0.0421468 
-0.039439 0.0421468 10.0515 
9.88337 0.0136397 -0.0125315 
0.0136397 9.87306 0.0431625 
-0.0125315 0.0431625 10.1291 
9.9184 -0.0268593 0.0357141 
-0.0268593 9.8956 0.0198177 
0.0357141 0.0198177 10.0716 
9.94767 -0.0129347 -0.0327246 
-0.0129347 9.93865 0.0350855 
-0.0327246 0.0350855 9.94023 
9.94804 -0.00885932 -0.0360265 
-0.00885932 9.93725 0.0398215 
-0.0360265 0.0398215 9.94126 
9.94753 -0.0105337 -0.0438216 
-0.0105337 9.94942 0.0471221 
-0.0438216 0.0471221 9.92961 
9.93248 -0.00800504 -0.0384017 
-0.00800504 9.92554 0.0442372 
-0.0384017 0.0442372 9.96854 
9.89249 0.0102484 -0.0522803 
0.0102484 9.91715 0.0660918 
-0.0522803 0.0660918 9.93955 
9.90095 0.0037032 -0.0639081 
0.0037032 9.92169 0.0563425 
-0.0639081 0.0563425 9.92656 
9.89434 -0.00776288 -0.0595202 
-0.00776288 9.92481 0.0615992 
-0.0595202 0.0615992 9.93004 
9.90825 0.00818738 -0.0535584 
0.00818738 9.89631 0.0517181 
-0.0535584 0.0517181 9.94464 
9.89117 0.0046207 0.00229734 
0.0046207 9.88969 0.0490241 
0.00229734 0.0490241 10.1221 
9.90829 -0.000558142 -0.0199286 
-0.000558142 9.91131 0.02768 
-0.0199286 0.02768 10.0833 
9.92008 -0.0115595 -0.00284732 
-0.0115595 9.87812 -0.017514 
-0.00284732 -0.017514 10.1047 
9.9142 -0.00483663 0.0022202 
-0.00483663 9.89145 0.011528 
0.0022202 0.011528 10.0973 
8.59021 -0.832197 -0.527889 
-0.832197 11.12 0.998654 
-0.527889 0.998654 11.0698 
9.88335 0.540589 -0.54861 
0.540589 10.4721 0.150422 
-0.54861 0.150422 10.4246 
9.72811 -0.766724 -0.956493 
-0.766724 10.1748 -0.593775 
-0.956493 -0.593775 10.877 
9.46386 -0.211781 -0.53954 
-0.211781 10.6129 0.321792 
-0.53954 0.321792 10.7032 
9.89701 -0.015552 -0.0172367 
-0.015552 9.87129 -0.086141 
-0.0172367 -0.086141 9.87595 
9.8914 -0.0145603 -0.0169871 
-0.0145603 9.86385 -0.0883458 
-0.0169871 -0.0883458 9.88899 
9.90098 -0.0159889 -0.0169228 
-0.0159889 9.85451 -0.0885457 
-0.0169228 -0.0885457 9.88876 
9.88116 -0.0012811 -0.0190688 
-0.0012811 9.86032 -0.0888588 
-0.0190688 -0.0888588 9.90277 
9.95967 0.128111 0.111966 
0.128111 9.98065 0.33702 
0.111966 0.33702 9.16887 
10.0586 0.0980037 -0.00484779 
0.0980037 10.5004 -0.0672305 
-0.00484779 -0.0672305 8.55015 
9.77431 -0.338871 0.158103 
-0.338871 9.63664 -0.257482 
0.158103 -0.257482 9.69823 
9.77311 0.0129476 0.0705045 
0.0129476 10.1056 0.120068 
0.0705045 0.120068 9.23044 
9.94034 0.00110105 -0.082883 
0.00110105 9.94136 0.00705979 
-0.082883 0.00705979 9.91095 
9.96724 0.0138648 -0.0840584 
0.0138648 9.94094 0.0290658 
-0.0840584 0.0290658 9.88448 
9.92921 0.0053854 -0.0933555 
0.0053854 9.94543 0.000444157 
-0.0933555 0.000444157 9.91801 
9.91145 -0.00917624 -0.0637783 
-0.00917624 9.93329 0.0182097 
-0.0637783 0.0182097 9.94791 
10.069 0.0227888 -0.153668 
0.0227888 9.93572 0.106113 
-0.153668 0.106113 9.4911 
10.269 -0.155467 0.100061 
-0.155467 9.8107 -0.092221 
0.100061 -0.092221 9.41617 
10.229 0.0477495 -0.189671 
0.0477495 9.90405 0.0138374 
-0.189671 0.0138374 9.36278 
9.63623 0.0305888 -0.243918 
0.0305888 10.1112 -0.03009 
-0.243918 -0.03009 9.74846 
9.97059 -0.000229838 0.00594708 
-0.000229838 9.97418 -0.00468908 
0.00594708 -0.00468908 9.99052 
9.98131 -0.00476248 0.00261424 
-0.00476248 9.98189 -0.0104464 
0.00261424 -0.0104464 9.97208 
9.97421 -0.0110348 0.00483318 
-0.0110348 9.97871 -0.00251558 
0.00483318 -0.00251558 9.98236 
9.97524 -0.00731619 0.00303435 
-0.00731619 9.97326 9.34525e-06 
0.00303435 9.34525e-06 9.98678 
10.1022 0.0152611 0.159357 
0.0152611 9.95672 0.062823 
0.159357 0.062823 9.73956 
10.0033 0.0962069 0.194687 
0.0962069 9.96891 0.0454671 
0.194687 0.0454671 9.82622 
9.98889 -0.0340524 0.0882535 
-0.0340524 9.90208 -0.0560713 
0.0882535 -0.0560713 9.90752 
9.98842 -0.00323232 0.196311 
-0.00323232 9.95847 -0.15664 
0.196311 -0.15664 9.85159 
9.89909 -0.0755943 -0.013279 
-0.0755943 9.84074 0.231072 
-0.013279 0.231072 9.69933 
9.90144 -0.0519422 0.0486603 
-0.0519422 9.8165 0.250459 
0.0486603 0.250459 9.72122 
9.88951 -0.0440206 0.0609783 
-0.0440206 9.82029 0.167169 
0.0609783 0.167169 9.72935 
9.82386 0.0231249 0.0314966 
0.0231249 9.8123 0.152406 
0.0314966 0.152406 9.80299 
9.97975 0.0075161 -0.0528968 
0.0075161 9.97618 0.00043058 
-0.0528968 0.00043058 9.98352 
9.9886 0.0108344 -0.0546361 
0.0108344 9.98449 -0.0022587 
-0.0546361 -0.0022587 9.96637 
9.98086 -0.00461774 -0.052356 
-0.00461774 9.9851 0.00271966 
-0.052356 0.00271966 9.97349 
9.98482 -0.00653495 -0.0425421 
-0.00653495 9.98216 0.00919536 
-0.0425421 0.00919536 9.97247 
9.9634 0.000907341 0.0112909 
0.000907341 9.88241 -0.0439949 
0.0112909 -0.0439949 10.1154 
9.80987 -0.0157339 0.135278 
-0.0157339 9.96213 -0.0249703 
0.135278 -0.0249703 10.1892 
9.92906 -0.0442642 0.156281 
-0.0442642 10.0067 0.0238827 
0.156281 0.0238827 10.0254 
9.96394 -0.162923 0.0787077 
-0.162923 9.98155 -0.0916351 
0.0787077 -0.0916351 10.0157 
9.87253 -0.0301607 0.0757722 
-0.0301607 9.87895 0.0440982 
0.0757722 0.0440982 9.93675 
9.91967 2.21943e-05 0.0581546 
2.21943e-05 9.90884 0.0597068 
0.0581546 0.0597068 9.85973 
9.90058 -0.0258844 0.0789084 
-0.0258844 9.88191 0.0721548 
0.0789084 0.0721548 9.90575 
9.88475 -0.0392602 0.100869 
-0.0392602 9.87249 0.107233 
0.100869 0.107233 9.931 
9.94932 0.0363803 -0.0219783 
0.0363803 9.90277 -0.0835218 
-0.0219783 -0.0835218 9.79912 
9.98539 0.0370552 0.0284847 
0.0370552 9.85531 -0.0817693 
0.0284847 -0.0817693 9.8105 
10.0035 0.0552714 -0.0429102 
0.0552714 9.92709 -0.086437 
-0.0429102 -0.086437 9.72059 
9.81914 -0.0183073 -0.105146 
-0.0183073 9.87341 -0.0849212 
-0.105146 -0.0849212 9.95866 
9.94371 -0.0147638 0.00680756 
-0.0147638 9.96382 -0.00787728 
0.00680756 -0.00787728 9.98477 
9.95241 -0.00274341 -0.00416101 
-0.00274341 9.95471 -0.000116518 
-0.00416101 -0.000116518 9.98518 
9.96594 -0.00944375 0.00268168 
-0.00944375 9.95145 0.00460398 
0.00268168 0.00460398 9.9749 
9.95614 -0.00442468 0.00153573 
-0.00442468 9.95048 0.00221357 
0.00153573 0.00221357 9.98568 
9.98173 0.00365348 0.00245543 
0.00365348 9.98109 0.0042142 
0.00245543 0.0042142 9.99527 
9.97966 -0.00282243 0.00445846 
-0.00282243 9.97866 0.00380209 
0.00445846 0.00380209 9.99977 
9.98131 0.0035473 0.00162756 
0.0035473 9.98046 0.00448755 
0.00162756 0.00448755 9.99633 
9.98153 -0.00093144 -0.00187468 
-0.00093144 9.98338 0.00614309 
-0.00187468 0.00614309 9.99319 
9.92838 -0.000514834 -0.0581566 
-0.000514834 9.93487 -0.0381955 
-0.0581566 -0.0381955 9.94509 
9.94773 -0.000642381 -0.0523292 
-0.000642381 9.92358 -0.0372529 
-0.0523292 -0.0372529 9.93703 
9.94572 -0.000724201 -0.0662792 
-0.000724201 9.93093 -0.0375232 
-0.0662792 -0.0375232 9.9317 
9.95215 -0.00923505 -0.0707458 
-0.00923505 9.92301 -0.0376376 
-0.0707458 -0.0376376 9.93318 
8.884 0.00981601 -0.0206047 
0.00981601 9.30271 0.845215 
-0.0206047 0.845215 9.11405 
10.2221 -0.421028 0.414795 
-0.421028 10.1314 -0.726357 
0.414795 -0.726357 6.9473 
9.35778 -0.347076 -0.281899 
-0.347076 10.873 0.875661 
-0.281899 0.875661 7.06998 
9.38746 -0.346334 -0.757923 
-0.346334 9.65827 0.456374 
-0.757923 0.456374 8.25503 
9.91174 -0.055355 -0.00420545 
-0.055355 9.90004 -0.0364115 
-0.00420545 -0.0364115 9.91975 
9.8835 -0.0296431 -0.0309326 
-0.0296431 9.9203 -0.0522773 
-0.0309326 -0.0522773 9.92773 
9.90953 -0.0443429 0.00607394 
-0.0443429 9.90628 0.00285944 
0.00607394 0.00285944 9.91572 
9.83719 -0.0997143 0.0453195 
-0.0997143 9.9141 0.00457967 
0.0453195 0.00457967 9.98024 
9.90567 0.0256525 -0.0916283 
0.0256525 9.88119 -0.0116192 
-0.0916283 -0.0116192 9.77376 
9.91112 0.00866011 -0.0949678 
0.00866011 9.88103 0.00331675 
-0.0949678 0.00331675 9.76846 
9.90242 0.0126757 -0.099862 
0.0126757 9.87479 -0.00309578 
-0.099862 -0.00309578 9.7834 
9.9162 -0.0054914 -0.0701448 
-0.0054914 9.87432 0.00532096 
-0.0701448 0.00532096 9.7701 
9.9352 0.011821 0.00369078 
0.011821 9.91759 -0.0916771 
0.00369078 -0.0916771 10.1325 
9.9237 0.0245382 -0.0204344 
0.0245382 9.90932 -0.0732371 
-0.0204344 -0.0732371 10.1523 
9.93449 0.0106423 -0.017067 
0.0106423 9.93253 -0.0488934 
-0.017067 -0.0488934 10.1183 
9.94767 0.00300313 0.00291306 
0.00300313 9.917 -0.0628837 
0.00291306 -0.0628837 10.1206 
9.94501 0.10738 -0.0827673 
0.10738 9.89307 0.0374407 
-0.0827673 0.0374407 9.78107 
9.96252 -0.18544 0.124799 
-0.18544 9.75308 0.0186127 
0.124799 0.0186127 9.90355 
10.0087 0.0788376 -0.0450365 
0.0788376 9.93385 0.137603 
-0.0450365 0.137603 9.67657 
9.83383 0.237864 -0.0825455 
0.237864 9.9632 0.150431 
-0.0825455 0.150431 9.82211 
9.9372 -0.00294208 -0.0814212 
-0.00294208 9.94195 -0.0132145 
-0.0814212 -0.0132145 9.92923 
9.93278 -0.00311144 -0.0812412 
-0.00311144 9.94395 -0.0129454 
-0.0812412 -0.0129454 9.93166 
9.93606 -0.00229193 -0.0807814 
-0.00229193 9.94069 -0.0124787 
-0.0807814 -0.0124787 9.93164 
9.93548 -0.00285079 -0.0826184 
-0.00285079 9.94152 -0.0126608 
-0.0826184 -0.0126608 9.93138 
9.90558 -0.0296874 0.0445005 
-0.0296874 9.89883 0.069863 
0.0445005 0.069863 9.94365 
9.91485 0.00299941 0.0260815 
0.00299941 9.8863 0.0483469 
0.0260815 0.0483469 9.94692 
9.90214 -0.0357386 -0.00960969 
-0.0357386 9.86369 0.120681 
-0.00960969 0.120681 9.98223 
9.89125 -0.0305314 0.0916789 
-0.0305314 9.94982 0.0870053 
0.0916789 0.0870053 9.90699 
9.9668 0.00598797 -0.00121695 
0.00598797 9.95813 0.00827932 
-0.00121695 0.00827932 9.96572 
9.9677 0.00691861 0.0141774 
0.00691861 9.95999 0.00323639 
0.0141774 0.00323639 9.96295 
9.97529 0.00821818 -0.0209612 
0.00821818 9.95709 -0.00518867 
-0.0209612 -0.00518867 9.95827 
9.95905 -8.65901e-06 0.0140454 
-8.65901e-06 9.95537 0.0155943 
0.0140454 0.0155943 9.97623 
9.91579 -0.00899861 0.0703165 
-0.00899861 9.89122 -0.0557619 
0.0703165 -0.0557619 9.90485 
9.9289 -0.0144647 0.0657327 
-0.0144647 9.88522 -0.0543892 
0.0657327 -0.0543892 9.89774 
9.86283 -0.000437333 0.0307545 
-0.000437333 9.95006 0.0122885 
0.0307545 0.0122885 9.89896 
9.95377 0.00422646 0.0648787 
0.00422646 9.92045 -0.101355 
0.0648787 -0.101355 9.83763 
10.028 -0.0471912 0.0168128 
-0.0471912 10.0009 -0.00531342 
0.0168128 -0.00531342 9.95987 
9.98825 0.0481695 -0.0264237 
0.0481695 9.98143 -0.0267236 
-0.0264237 -0.0267236 10.0191 
9.99954 -0.0108186 0.0417225 
-0.0108186 9.9768 0.00437691 
0.0417225 0.00437691 10.0124 
9.95338 0.0135895 0.0533381 
0.0135895 10.0281 -0.0264027 
0.0533381 -0.0264027 10.0073 
9.9968 -0.0182723 0.0195852 
-0.0182723 10.0408 -0.00521515 
0.0195852 -0.00521515 10.3543 
10.0087 -0.0385792 0.0459379 
-0.0385792 10.1 0.0104288 
0.0459379 0.0104288 10.2832 
10.0334 -0.0657437 0.0154637 
-0.0657437 10.0812 -0.0180732 
0.0154637 -0.0180732 10.2774 
9.98383 -0.0329214 0.00146725 
-0.0329214 10.0586 0.0150993 
0.00146725 0.0150993 10.3495 
9.90477 -0.0103621 -0.0499623 
-0.0103621 9.93458 -0.0507217 
-0.0499623 -0.0507217 9.96052 
9.89013 0.0132952 -0.0543901 
0.0132952 9.94447 -0.0492503 
-0.0543901 -0.0492503 9.96526 
9.90628 -0.00827373 -0.0445174 
-0.00827373 9.93454 -0.0492648 
-0.0445174 -0.0492648 9.95904 
9.93181 0.000401369 -0.0208875 
0.000401369 9.92757 -0.0524812 
-0.0208875 -0.0524812 9.94049 
9.80654 0.057553 -0.150181 
0.057553 9.97286 0.0309797 
-0.150181 0.0309797 9.89857 
9.86816 0.0444438 -0.130418 
0.0444438 9.88468 0.0591232 
-0.130418 0.0591232 9.92514 
9.87884 0.0548106 -0.129603 
0.0548106 9.90126 0.0278356 
-0.129603 0.0278356 9.89788 
9.86677 0.0193662 -0.162653 
0.0193662 9.88749 -0.0177773 
-0.162653 -0.0177773 9.92371 
9.97194 -0.00266041 0.00128488 
-0.00266041 9.97422 0.000727331 
0.00128488 0.000727331 10.0003 
9.97431 -0.00148345 0.000601323 
-0.00148345 9.97461 0.00248887 
0.000601323 0.00248887 9.99753 
9.9739 -0.00173835 -0.000200981 
-0.00173835 9.97168 -0.00100218 
-0.000200981 -0.00100218 10.0009 
9.975 -0.0015808 0.00421356 
-0.0015808 9.976 0.00410529 
0.00421356 0.00410529 9.99544 
9.91988 -0.0227668 0.0525504 
-0.0227668 9.91836 -0.0164169 
0.0525504 -0.0164169 10.1347 
9.91078 -0.0163226 0.14526 
-0.0163226 9.99059 -0.0150504 
0.14526 -0.0150504 10.0716 
9.80308 -0.0489871 0.128669 
-0.0489871 9.96325 -0.0280709 
0.128669 -0.0280709 10.2066 
9.90837 0.0541974 0.115261 
0.0541974 9.97584 0.0104478 
0.115261 0.0104478 10.0887 
9.97998 -0.000146676 0.0048484 
-0.000146676 9.978 -0.00685678 
0.0048484 -0.00685678 9.99361 
9.98047 -0.00258494 0.00932407 
-0.00258494 9.9833 -0.000305575 
0.00932407 -0.000305575 9.98781 
9.97248 0.000363735 0.0101253 
0.000363735 9.98518 0.00105785 
0.0101253 0.00105785 9.99392 
9.98055 -0.00515964 0.00284337 
-0.00515964 9.98228 -0.00632722 
0.00284337 -0.00632722 9.98875 
9.7068 -0.0497091 0.256799 
-0.0497091 9.90559 0.0396088 
0.256799 0.0396088 10.0049 
9.46252 -0.0783486 0.259191 
-0.0783486 9.80586 0.0523515 
0.259191 0.0523515 10.3489 
9.7767 -0.125587 0.300139 
-0.125587 9.95863 0.00973373 
0.300139 0.00973373 9.882 
9.79971 -0.14876 0.149324 
-0.14876 9.96408 -0.0667434 
0.149324 -0.0667434 9.85354 
9.21794 0.230048 0.199103 
0.230048 9.18002 1.07899 
0.199103 1.07899 9.25305 
10.1272 0.0992046 -0.439695 
0.0992046 9.56273 -0.996854 
-0.439695 -0.996854 7.96112 
10.0148 0.191687 0.467643 
0.191687 10.0792 0.382071 
0.467643 0.382071 7.55707 
9.62851 0.324251 0.134149 
0.324251 9.76022 -0.570979 
0.134149 -0.570979 8.26229 
9.96773 0.0212243 0.128635 
0.0212243 9.91161 -0.184075 
0.128635 -0.184075 9.88877 
10.0089 -0.0378512 0.0335749 
-0.0378512 9.90957 -0.0888493 
0.0335749 -0.0888493 9.84961 
9.90298 -0.0159147 0.0844326 
-0.0159147 9.96529 -0.0437835 
0.0844326 -0.0437835 9.89985 
9.97582 -0.0253448 0.058265 
-0.0253448 9.94689 -0.0976157 
0.058265 -0.0976157 9.84541 
9.98422 0.000653936 0.00393374 
0.000653936 9.97355 0.00985861 
0.00393374 0.00985861 9.99334 
9.97462 -0.00138512 -0.00853729 
-0.00138512 9.98514 0.00357712 
-0.00853729 0.00357712 9.99135 
9.97926 -0.00656333 -0.00364641 
-0.00656333 9.97811 -0.00302808 
-0.00364641 -0.00302808 9.99373 
9.98249 -0.00268058 0.00132828 
-0.00268058 9.98106 0.00700087 
0.00132828 0.00700087 9.98755 
9.92201 -0.000517371 0.0127868 
-0.000517371 9.92092 0.0641875 
0.0127868 0.0641875 9.9075 
9.92237 -0.0171761 0.041142 
-0.0171761 9.91699 0.0632513 
0.041142 0.0632513 9.91106 
9.9232 -0.0105205 0.0266339 
-0.0105205 9.93103 0.0583799 
0.0266339 0.0583799 9.89619 
9.91058 -0.00486507 0.0455857 
-0.00486507 9.95619 0.0557875 
0.0455857 0.0557875 9.88366 
9.65699 -0.0250985 -0.330796 
-0.0250985 9.98006 -0.0538975 
-0.330796 -0.0538975 10.1344 
10.0097 0.169986 -0.34312 
0.169986 9.88262 0.0496839 
-0.34312 0.0496839 9.87911 
9.86045 0.084434 -0.134905 
0.084434 9.89109 0.0570497 
-0.134905 0.0570497 10.0199 
9.84426 0.0881803 -0.258998 
0.0881803 9.92341 0.0174487 
-0.258998 0.0174487 10.0038 
10.0921 0.0189473 -0.0275798 
0.0189473 9.99818 -0.019926 
-0.0275798 -0.019926 10.3154 
10.0772 0.0265796 -0.0279466 
0.0265796 9.99417 -0.0214594 
-0.0279466 -0.0214594 10.3342 
10.1026 -0.00432751 0.0763005 
-0.00432751 10.0131 0.00378895 
0.0763005 0.00378895 10.2899 
10.1069 -0.0125939 0.0260687 
-0.0125939 9.99522 0.0347493 
0.0260687 0.0347493 10.3035 
10.1071 -0.0173649 0.00337159 
-0.0173649 9.34993 0.376592 
0.00337159 0.376592 10.5485 
10.1421 -0.0877033 -0.0447921 
-0.0877033 9.56255 0.0447014 
-0.0447921 0.0447014 10.3008 
10.085 -0.192841 -0.00100007 
-0.192841 9.61376 0.0574107 
-0.00100007 0.0574107 10.3067 
9.96993 0.143775 0.0740753 
0.143775 9.74751 0.442453 
0.0740753 0.442453 10.288 
10.3842 0.226632 0.988945 
0.226632 9.4869 0.697598 
0.988945 0.697598 9.58667 
9.27014 -0.207563 0.957031 
-0.207563 9.93392 0.650891 
0.957031 0.650891 10.2537 
9.24607 -0.40322 0.858733 
-0.40322 10.6089 0.00185201 
0.858733 0.00185201 9.6028 
10.1563 -0.0757236 0.705799 
-0.0757236 9.74894 1.39208 
0.705799 1.39208 9.55258 
9.89359 -7.89661e-05 -0.0190769 
-7.89661e-05 9.91416 -0.0317631 
-0.0190769 -0.0317631 10.1076 
9.8697 0.0252428 -0.0333651 
0.0252428 9.89475 -0.0514332 
-0.0333651 -0.0514332 10.1509 
9.87062 -0.00211968 -0.00429508 
-0.00211968 9.896 -0.0209102 
-0.00429508 -0.0209102 10.1487 
9.93989 0.0152951 -0.0136255 
0.0152951 9.85685 -0.0565424 
-0.0136255 -0.0565424 10.1186 
9.98421 0.000156327 -0.00360028 
0.000156327 9.98338 0.0112431 
-0.00360028 0.0112431 10.0019 
9.98824 -0.00239895 -0.00106425 
-0.00239895 9.98604 0.010883 
-0.00106425 0.010883 9.99521 
9.98701 -0.00159171 -0.00298702 
-0.00159171 9.98978 0.010389 
-0.00298702 0.010389 9.9927 
9.98972 0.000194285 -0.00284545 
0.000194285 9.99151 0.0109617 
-0.00284545 0.0109617 9.98826 
9.8506 0.0211988 0.0309081 
0.0211988 9.88102 -0.0143496 
0.0309081 -0.0143496 9.97187 
9.89769 0.134202 0.11715 
0.134202 9.79606 -0.0999351 
0.11715 -0.0999351 10.0097 
9.90929 0.0445181 0.0338852 
0.0445181 9.90931 -0.118131 
0.0338852 -0.118131 9.88489 
9.8083 -0.00830966 0.0622909 
-0.00830966 9.95837 -0.111951 
0.0622909 -0.111951 9.93682 
9.65092 0.147571 -0.167178 
0.147571 10.2168 0.772783 
-0.167178 0.772783 8.79445 
9.87353 0.0230731 -0.22578 
0.0230731 9.50799 1.26951 
-0.22578 1.26951 9.28063 
9.21841 0.0318238 -0.385996 
0.0318238 9.39957 0.316616 
-0.385996 0.316616 10.0442 
9.57476 -0.0779124 0.129503 
-0.0779124 10.3331 0.720874 
0.129503 0.720874 8.7543 
9.95574 0.000475356 -0.0124704 
0.000475356 9.9802 -0.0566081 
-0.0124704 -0.0566081 10.0051 
9.9866 -0.00390697 -0.0144517 
-0.00390697 9.97441 -0.0714552 
-0.0144517 -0.0714552 9.98003 
9.98381 -0.00338868 -0.0147589 
-0.00338868 9.97629 -0.0740125 
-0.0147589 -0.0740125 9.98095 
9.98122 0.000779646 -0.0238282 
0.000779646 9.99237 -0.071694 
-0.0238282 -0.071694 9.96746 
9.91045 0.0183984 0.0307277 
0.0183984 9.92784 0.00864674 
0.0307277 0.00864674 9.94119 
9.92704 0.025183 0.0550725 
0.025183 9.97599 0.0474193 
0.0550725 0.0474193 9.87645 
9.92835 -0.00500009 0.0722549 
-0.00500009 9.94377 0.0642719 
0.0722549 0.0642719 9.90735 
9.93844 0.0227726 0.0514403 
0.0227726 9.9266 0.0315178 
0.0514403 0.0315178 9.91444 
9.79987 0.0385469 0.0260188 
0.0385469 9.77233 -0.138461 
0.0260188 -0.138461 9.8931 
9.82511 0.0266958 0.0316791 
0.0266958 9.80931 -0.124546 
0.0316791 -0.124546 9.83088 
9.87485 0.041096 0.0449739 
0.041096 9.81588 -0.200916 
0.0449739 -0.200916 9.77457 
9.81297 0.0177877 0.0103762 
0.0177877 9.8228 -0.0872769 
0.0103762 -0.0872769 9.82952 
9.94326 -0.0129774 0.00642719 
-0.0129774 9.95799 -0.0104662 
0.00642719 -0.0104662 9.98252 
9.95555 -0.00381797 -0.00394699 
-0.00381797 9.95297 -0.0101725 
-0.00394699 -0.0101725 9.97525 
9.95475 -0.0122246 -0.0104833 
-0.0122246 9.96116 -0.00669847 
-0.0104833 -0.00669847 9.96786 
9.95361 -0.00643328 0.00854721 
-0.00643328 9.9488 0.0265828 
0.00854721 0.0265828 9.98136 
9.96542 0.000178108 0.00734501 
0.000178108 9.96296 0.0536215 
0.00734501 0.0536215 9.95988 
9.97179 -0.00116874 0.0121966 
-0.00116874 9.97701 0.0550872 
0.0121966 0.0550872 9.93947 
9.96343 0.00131405 0.00904814 
0.00131405 9.97147 0.0500552 
0.00904814 0.0500552 9.95337 
9.96328 0.000909983 0.0109027 
0.000909983 9.96894 0.0498687 
0.0109027 0.0498687 9.95605 
10.0728 -0.0113698 -0.00664262 
-0.0113698 10.1077 0.00124157 
-0.00664262 0.00124157 10.2348 
10.0455 -0.0132869 0.0103193 
-0.0132869 10.0715 -0.00199992 
0.0103193 -0.00199992 10.2983 
10.0934 -0.00770679 0.0228241 
-0.00770679 10.1051 0.0146703 
0.0228241 0.0146703 10.2167 
10.0858 -0.00106112 0.010934 
-0.00106112 10.1063 0.0318061 
0.010934 0.0318061 10.2231 
9.99434 -0.0113159 0.0385935 
-0.0113159 9.97097 -0.00567084 
0.0385935 -0.00567084 10.1677 
9.98082 -0.00582405 0.0107279 
-0.00582405 9.98655 -0.0293485 
0.0107279 -0.0293485 10.1657 
9.94044 0.0209221 -0.00471842 
0.0209221 9.95908 0.0107093 
-0.00471842 0.0107093 10.2335 
9.98278 0.0231186 -0.0292904 
0.0231186 9.9868 0.0315683 
-0.0292904 0.0315683 10.1635 
9.97291 0.00328847 0.00716163 
0.00328847 9.97861 0.0251326 
0.00716163 0.0251326 9.98637 
9.97915 0.000904218 0.00409767 
0.000904218 9.97779 0.0178188 
0.00409767 0.0178188 9.98095 
9.9812 -0.0011663 0.0070754 
-0.0011663 9.97217 0.0147002 
0.0070754 0.0147002 9.98451 
9.9705 0.00361151 0.00123574 
0.00361151 9.99679 0.00711889 
0.00123574 0.00711889 9.97059 
9.96411 0.000346796 0.0126658 
0.000346796 9.97226 0.0439316 
0.0126658 0.0439316 9.94448 
9.96512 0.00116954 0.0127649 
0.00116954 9.96225 0.0416215 
0.0127649 0.0416215 9.95348 
9.96193 -0.000317265 0.0107907 
-0.000317265 9.96627 0.0448798 
0.0107907 0.0448798 9.95265 
9.96391 0.00177406 0.0161372 
0.00177406 9.9691 0.0452589 
0.0161372 0.0452589 9.94784 
9.62381 0.167021 -0.0401854 
0.167021 10.3693 -0.596827 
-0.0401854 -0.596827 10.6265 
10.2092 0.695017 0.16449 
0.695017 9.2774 -0.147265 
0.16449 -0.147265 11.133 
10.6307 0.678479 0.399671 
0.678479 9.93063 -0.535642 
0.399671 -0.535642 10.0583 
9.94989 -0.711138 -0.298289 
-0.711138 9.73828 0.678833 
-0.298289 0.678833 10.9314 
9.76891 -0.00840713 0.267194 
-0.00840713 9.86114 -0.175767 
0.267194 -0.175767 10.1105 
9.93706 0.0744421 0.314006 
0.0744421 10.0443 0.00189713 
0.314006 0.00189713 9.75915 
9.98038 0.100838 0.0456062 
0.100838 9.79129 0.0837387 
0.0456062 0.0837387 9.96887 
9.65766 0.0132585 0.267502 
0.0132585 10.1673 -0.0137311 
0.267502 -0.0137311 9.91559 
9.93462 -0.00655837 0.0383191 
-0.00655837 9.92388 -0.0427869 
0.0383191 -0.0427869 9.95382 
9.93685 -0.00954054 0.0272162 
-0.00954054 9.94655 -0.0392057 
0.0272162 -0.0392057 9.92892 
9.94121 -0.0139823 0.0339413 
-0.0139823 9.95323 -0.0438168 
0.0339413 -0.0438168 9.91788 
9.95129 -0.00624062 0.0278035 
-0.00624062 9.92029 -0.0126574 
0.0278035 -0.0126574 9.94074 
9.94218 0.0440879 -0.012592 
0.0440879 9.69922 -0.357798 
-0.012592 -0.357798 9.75518 
9.90933 -0.0123285 -0.10003 
-0.0123285 9.45681 -0.271655 
-0.10003 -0.271655 10.0304 
9.86336 -0.0410577 0.045935 
-0.0410577 9.85807 -0.180478 
0.045935 -0.180478 9.67514 
10.1196 0.29272 -0.0200106 
0.29272 9.8856 -0.609426 
-0.0200106 -0.609426 9.39143 
9.95003 -0.00598195 0.0282629 
-0.00598195 9.94249 -0.0320554 
0.0282629 -0.0320554 9.9498 
9.95706 -0.0200476 0.041357 
-0.0200476 9.94651 -0.0347623 
0.041357 -0.0347623 9.93876 
9.94704 -0.00958034 0.0231463 
-0.00958034 9.94523 -0.0262856 
0.0231463 -0.0262856 9.95006 
9.94943 -0.0189104 0.0246807 
-0.0189104 9.93622 -0.0271701 
0.0246807 -0.0271701 9.95668 
9.94935 -0.000491424 -0.03398 
-0.000491424 9.95445 -0.00580673 
-0.03398 -0.00580673 9.90647 
9.95672 0.00599343 -0.0291476 
0.00599343 9.95443 -0.0231678 
-0.0291476 -0.0231678 9.89912 
9.95219 -0.000500143 -0.0270662 
-0.000500143 9.95216 -0.00758776 
-0.0270662 -0.00758776 9.90592 
9.94663 0.0118741 -0.0361273 
0.0118741 9.94196 -0.0203134 
-0.0361273 -0.0203134 9.92169 
9.92865 -0.0213329 -0.257566 
-0.0213329 9.81659 -0.0153981 
-0.257566 -0.0153981 10.0869 
9.82737 -0.0971599 0.198739 
-0.0971599 10.2007 -0.0736457 
0.198739 -0.0736457 9.80408 
9.70754 0.10275 0.0111833 
0.10275 9.94949 -0.024446 
0.0111833 -0.024446 10.1751 
9.82981 0.0538148 0.011918 
0.0538148 9.8204 0.0674456 
0.011918 0.0674456 10.1819 
9.91038 0.0315371 0.0997061 
0.0315371 9.92676 0.0427651 
0.0997061 0.0427651 9.8509 
9.84509 -0.0127078 0.0821376 
-0.0127078 9.94476 0.0676183 
0.0821376 0.0676183 9.89819 
9.85492 0.0394825 0.107305 
0.0394825 9.97741 0.0388602 
0.107305 0.0388602 9.8557 
9.93403 0.0659731 0.0909824 
0.0659731 9.84541 0.00347247 
0.0909824 0.00347247 9.9086 
9.19487 -0.256424 -0.953888 
-0.256424 10.4051 -0.0998712 
-0.953888 -0.0998712 10.3312 
9.96661 -0.65664 -0.427815 
-0.65664 10.1419 -0.158427 
-0.427815 -0.158427 9.82261 
9.82137 -0.239369 -0.542529 
-0.239369 10.3359 -0.184836 
-0.542529 -0.184836 9.77387 
9.61189 0.150925 0.356045 
0.150925 9.71048 0.364549 
0.356045 0.364549 10.6088 
9.91021 -0.00803596 -0.00747475 
-0.00803596 9.91257 0.00145778 
-0.00747475 0.00145778 10.1562 
9.92603 -0.00434895 -0.000139538 
-0.00434895 9.90659 -0.00323015 
-0.000139538 -0.00323015 10.1464 
9.93262 -0.00194782 -0.00585639 
-0.00194782 9.90946 -0.00887281 
-0.00585639 -0.00887281 10.1369 
9.91431 0.0015536 0.00857667 
0.0015536 9.91363 0.0137345 
0.00857667 0.0137345 10.1511 
9.01225 -0.0991715 0.0988329 
-0.0991715 9.41245 0.529809 
0.0988329 0.529809 9.83944 
10.1492 -0.0661345 0.912274 
-0.0661345 10.6391 -0.6339 
0.912274 -0.6339 7.47589 
9.62119 -0.0891355 0.851302 
-0.0891355 10.4331 1.43762 
0.851302 1.43762 8.20985 
9.22404 -0.743178 0.568126 
-0.743178 10.4152 0.240653 
0.568126 0.240653 8.62489 
9.85607 0.0253526 0.088374 
0.0253526 9.88875 0.0476332 
0.088374 0.0476332 9.9868 
9.87672 -0.00167524 0.0467796 
-0.00167524 9.9109 0.0610445 
0.0467796 0.0610445 9.944 
9.90723 0.0238667 0.0491743 
0.0238667 9.87891 0.0403665 
0.0491743 0.0403665 9.94548 
9.8523 -0.000823007 0.051989 
-0.000823007 9.89619 0.0389548 
0.051989 0.0389548 9.98313 
9.88552 0.000576141 0.0102082 
0.000576141 9.89704 0.0709875 
0.0102082 0.0709875 10.0456 
9.89222 0.00488894 -0.00727715 
0.00488894 9.89134 0.0641629 
-0.00727715 0.0641629 10.0445 
9.8829 -0.00809001 0.00137449 
-0.00809001 9.87255 0.0362526 
0.00137449 0.0362526 10.0727 
9.89723 0.00551687 -0.00967355 
0.00551687 9.87561 0.0217321 
-0.00967355 0.0217321 10.0553 
10.196 -0.0316695 0.0164086 
-0.0316695 10.1485 -0.0285931 
0.0164086 -0.0285931 10.2513 
10.299 0.00339997 0.0645991 
0.00339997 10.2578 -0.0303034 
0.0645991 -0.0303034 10.0391 
10.1863 0.0189267 -0.00951402 
0.0189267 10.1328 0.00966759 
-0.00951402 0.00966759 10.2767 
10.1525 0.0083203 0.0707832 
0.0083203 10.1691 0.0484248 
0.0707832 0.0484248 10.2742 
9.67576 0.176808 -0.522668 
0.176808 10.3032 -0.415612 
-0.522668 -0.415612 11.4736 
10.0657 0.478382 -0.765634 
0.478382 10.3583 0.113056 
-0.765634 0.113056 11.0287 
9.89075 -0.299575 -0.358779 
-0.299575 10.5341 -0.091663 
-0.358779 -0.091663 11.0278 
9.83106 0.0999707 -0.567981 
0.0999707 10.3981 -0.263559 
-0.567981 -0.263559 11.2234 
9.95556 -0.00213725 -0.0245027 
-0.00213725 9.96806 -0.036866 
-0.0245027 -0.036866 9.9594 
9.95706 0.00551474 -0.0319793 
0.00551474 9.9651 -0.04902 
-0.0319793 -0.04902 9.96086 
9.96933 0.0212129 -0.0266549 
0.0212129 9.96503 -0.0401306 
-0.0266549 -0.0401306 9.94866 
9.96185 0.00707476 -0.0341138 
0.00707476 9.97019 -0.0255306 
-0.0341138 -0.0255306 9.95099 
9.9357 -0.0134288 0.00194674 
-0.0134288 9.95319 -0.00909269 
0.00194674 -0.00909269 9.96971 
9.95069 0.000891367 -0.000530507 
0.000891367 9.93753 0.0191532 
-0.000530507 0.0191532 9.97038 
9.94637 -0.0171368 -0.00779722 
-0.0171368 9.95479 -0.0034375 
-0.00779722 -0.0034375 9.95744 
9.94612 -0.0290731 -0.00428948 
-0.0290731 9.95686 -0.000159376 
-0.00428948 -0.000159376 9.95562 
9.96038 0.00113613 -0.0108003 
0.00113613 9.96702 0.0787049 
-0.0108003 0.0787049 9.96115 
9.98343 0.00156285 -0.0222486 
0.00156285 9.96677 0.0692282 
-0.0222486 0.0692282 9.93836 
9.97266 -0.00329966 -0.00541307 
-0.00329966 9.95169 0.0630404 
-0.00541307 0.0630404 9.9642 
9.95752 0.00617391 -0.0139905 
0.00617391 9.973 0.0722672 
-0.0139905 0.0722672 9.95803 
9.9909 -0.0446556 0.0713661 
-0.0446556 9.98577 0.0511899 
0.0713661 0.0511899 10.0177 
9.99565 -0.00952996 -0.0167265 
-0.00952996 9.99102 0.00222974 
-0.0167265 0.00222974 10.0077 
9.98268 0.0596594 -0.0254113 
0.0596594 9.99746 -0.0277577 
-0.0254113 -0.0277577 10.0142 
9.98529 -0.00206822 -0.00730568 
-0.00206822 9.94703 0.000354264 
-0.00730568 0.000354264 10.062 
9.86941 -0.0523168 0.068883 
-0.0523168 9.81341 0.0615376 
0.068883 0.0615376 9.65168 
9.74641 0.0080618 0.162867 
0.0080618 9.66944 -0.00692577 
0.162867 -0.00692577 9.91864 
9.90304 -0.0601275 0.176489 
-0.0601275 9.84169 0.0817484 
0.176489 0.0817484 9.58976 
9.89666 -0.0748169 0.0624782 
-0.0748169 9.76406 0.0819528 
0.0624782 0.0819528 9.67377 
9.84089 0.0843594 0.0836417 
0.0843594 9.91605 0.00641836 
0.0836417 0.00641836 10.4517 
10.2672 -0.106064 -0.0935642 
-0.106064 10.0857 -0.0809657 
-0.0935642 -0.0809657 9.85582 
9.89411 -0.0892323 -0.0248631 
-0.0892323 9.99338 -0.0229625 
-0.0248631 -0.0229625 10.3212 
9.80552 -0.119822 -0.259335 
-0.119822 10.1329 0.049205 
-0.259335 0.049205 10.2702 
10.0552 0.06248 -0.0145303 
0.06248 9.84345 -0.313184 
-0.0145303 -0.313184 10.2102 
9.98503 -0.00683222 0.159151 
-0.00683222 9.87334 -0.292252 
0.159151 -0.292252 10.2505 
9.99824 0.119545 -0.0171047 
0.119545 9.95826 -0.106431 
-0.0171047 -0.106431 10.1524 
10.0348 -0.0712571 -0.228712 
-0.0712571 9.92216 -0.275914 
-0.228712 -0.275914 10.1519 
9.96244 -0.00583983 0.0190936 
-0.00583983 9.9699 -0.0491905 
0.0190936 -0.0491905 9.96763 
9.9706 0.00484766 0.0138758 
0.00484766 9.97751 -0.0370357 
0.0138758 -0.0370357 9.95186 
9.96918 -0.00195056 0.0184931 
-0.00195056 9.97482 -0.0444597 
0.0184931 -0.0444597 9.95597 
9.97004 0.00116521 0.0155674 
0.00116521 9.96923 -0.04124 
0.0155674 -0.04124 9.9607 
9.84964 -0.12121 0.152694 
-0.12121 9.63536 0.0601376 
0.152694 0.0601376 10.0115 
9.82753 -0.00295508 0.259571 
-0.00295508 9.9144 0.0547407 
0.259571 0.0547407 9.75454 
9.96557 -0.126465 0.159497 
-0.126465 9.76207 0.132882 
0.159497 0.132882 9.76882 
9.66854 -0.235718 0.154434 
-0.235718 9.73349 0.300504 
0.154434 0.300504 10.0944 
9.88254 -0.00842469 -0.0440639 
-0.00842469 9.86897 0.00609829 
-0.0440639 0.00609829 10.0738 
9.91106 -0.00972841 -0.00556164 
-0.00972841 9.85761 0.0582186 
-0.00556164 0.0582186 10.0567 
9.88852 -0.00584033 -0.0256899 
-0.00584033 9.88029 0.0292233 
-0.0256899 0.0292233 10.0565 
9.90387 0.00128158 -0.00927511 
0.00128158 9.8852 0.033523 
-0.00927511 0.033523 10.0363 
9.92925 0.00958677 0.0105671 
0.00958677 9.9233 -0.0145459 
0.0105671 -0.0145459 10.1571 
9.90904 -0.00820047 0.000428276 
-0.00820047 9.9133 -0.0039685 
0.000428276 -0.0039685 10.1873 
9.93778 0.00448588 0.0085429 
0.00448588 9.92169 -0.0107538 
0.0085429 -0.0107538 10.1501 
9.94271 -0.00830857 0.0170218 
-0.00830857 9.93885 0.0152126 
0.0170218 0.0152126 10.128 
9.85438 -0.0349381 0.0396185 
-0.0349381 9.92002 -0.0352827 
0.0396185 -0.0352827 10.0145 
9.85845 -0.0310702 0.0454767 
-0.0310702 9.90401 -0.0243604 
0.0454767 -0.0243604 10.0265 
9.84933 -0.026849 0.0422858 
-0.026849 9.91044 -0.0243954 
0.0422858 -0.0243954 10.0292 
9.85727 -0.0268284 0.0593313 
-0.0268284 9.90208 -0.0243415 
0.0593313 -0.0243415 10.0296 
9.75404 0.0864537 0.341632 
0.0864537 9.78977 -0.177261 
0.341632 -0.177261 9.96065 
9.95048 0.141524 0.261763 
0.141524 9.72926 -0.172397 
0.261763 -0.172397 9.82472 
9.63689 0.0663694 0.0294353 
0.0663694 9.99586 0.0509195 
0.0294353 0.0509195 9.87171 
9.8514 0.113721 0.264883 
0.113721 9.98385 -0.18028 
0.264883 -0.18028 9.66921 
9.97523 -0.00520352 0.0323213 
-0.00520352 9.96994 -0.0398376 
0.0323213 -0.0398376 9.97278 
9.97191 -0.00569018 0.0290568 
-0.00569018 9.97862 -0.0397164 
0.0290568 -0.0397164 9.96741 
9.97925 -0.00577571 0.0300781 
-0.00577571 9.97398 -0.0410672 
0.0300781 -0.0410672 9.96471 
9.9717 -0.00299997 0.0306713 
-0.00299997 9.97649 -0.0432439 
0.0306713 -0.0432439 9.96976 
9.50284 0.126069 -0.386714 
0.126069 10.3103 -1.03349 
-0.386714 -1.03349 8.02207 
9.78843 -0.550531 0.258302 
-0.550531 10.4477 0.0349854 
0.258302 0.0349854 7.59903 
8.95289 -0.0943257 -0.100351 
-0.0943257 9.61409 -0.719956 
-0.100351 -0.719956 9.26822 
9.85676 -0.837827 -0.459418 
-0.837827 8.68874 -0.817121 
-0.459418 -0.817121 9.28971 
9.80089 0.0561733 0.003652 
0.0561733 9.86576 0.0111368 
0.003652 0.0111368 10.0114 
10.0242 0.0190845 -0.0218942 
0.0190845 9.79207 -0.0192276 
-0.0218942 -0.0192276 9.86173 
9.82912 -0.034781 -0.0496638 
-0.034781 9.81539 -0.152598 
-0.0496638 -0.152598 10.0335 
9.97007 -0.023355 -0.00783488 
-0.023355 9.87851 -0.156481 
-0.00783488 -0.156481 9.82944 
9.91239 -0.0859783 -0.00280163 
-0.0859783 9.9144 0.0497596 
-0.00280163 0.0497596 9.95149 
9.88929 -0.0545066 0.029062 
-0.0545066 9.92737 0.0403153 
0.029062 0.0403153 9.96162 
9.88993 0.00587025 0.0434922 
0.00587025 9.89284 0.173587 
0.0434922 0.173587 9.99552 
9.96498 -0.0373856 -0.00423675 
-0.0373856 9.9335 0.0415124 
-0.00423675 0.0415124 9.87981 
9.96748 -0.00207245 0.00197991 
-0.00207245 9.97263 0.00132398 
0.00197991 0.00132398 9.99061 
9.97412 -0.00397126 0.00524517 
-0.00397126 9.96935 0.000779912 
0.00524517 0.000779912 9.98725 
9.9706 -0.00302083 0.00295584 
-0.00302083 9.96737 -0.00214032 
0.00295584 -0.00214032 9.99274 
9.97009 -0.00191692 0.00233252 
-0.00191692 9.96904 -0.000788097 
0.00233252 -0.000788097 9.99158 
10.0318 0.0597272 -0.0346351 
0.0597272 9.77838 0.079992 
-0.0346351 0.079992 10.1007 
10.0027 0.00784871 0.0157742 
0.00784871 9.91924 0.0719087 
0.0157742 0.0719087 9.98897 
9.98322 0.0530253 -0.00692316 
0.0530253 9.86537 0.0374565 
-0.00692316 0.0374565 10.0623 
9.95545 0.051327 -0.0183929 
0.051327 9.93501 0.068324 
-0.0183929 0.068324 10.0205 
9.85249 0.00410962 0.0791825 
0.00410962 9.91429 0.0482892 
0.0791825 0.0482892 9.97713 
9.855 0.0250645 0.0530909 
0.0250645 9.91661 0.0450256 
0.0530909 0.0450256 9.97229 
9.86034 -0.0098797 0.0787094 
-0.0098797 9.89339 0.0373137 
0.0787094 0.0373137 9.99018 
9.84898 -0.0079606 0.0644111 
-0.0079606 9.90009 0.030599 
0.0644111 0.030599 9.99483 
9.90189 0.0160353 -0.0336264 
0.0160353 9.89256 0.0398846 
-0.0336264 0.0398846 9.90372 
9.91715 -0.0059819 -0.0383495 
-0.0059819 9.92954 -0.0707662 
-0.0383495 -0.0707662 9.85149 
9.89483 0.0126312 -0.0734943 
0.0126312 9.9861 -0.0335077 
-0.0734943 -0.0335077 9.81724 
9.91224 0.00344513 -0.0433503 
0.00344513 9.93514 -0.0362571 
-0.0433503 -0.0362571 9.85079 
9.96458 -0.000475514 0.000718153 
-0.000475514 9.96647 -0.0543335 
0.000718153 -0.0543335 9.95876 
9.9675 -0.00035464 0.00911916 
-0.00035464 9.9701 -0.0515165 
0.00911916 -0.0515165 9.95221 
9.97679 0.00120271 0.000419071 
0.00120271 9.98287 -0.0573716 
0.000419071 -0.0573716 9.93014 
9.96819 -0.00231285 0.008789 
-0.00231285 9.97018 -0.0503966 
0.008789 -0.0503966 9.95143 
9.94815 -0.194645 0.0365652 
-0.194645 9.95536 0.0615836 
0.0365652 0.0615836 10.3321 
9.98544 -0.11476 0.107686 
-0.11476 9.95355 -0.0539859 
0.107686 -0.0539859 10.2966 
9.96685 0.0160823 0.0293442 
0.0160823 10.0495 0.0353327 
0.0293442 0.0353327 10.2192 
9.79484 -0.188849 -0.425369 
-0.188849 10.149 -0.218661 
-0.425369 -0.218661 10.2918 
9.97088 0.00414271 0.036984 
0.00414271 9.95614 0.0240503 
0.036984 0.0240503 9.96546 
9.96616 -0.000270349 0.0388778 
-0.000270349 9.96789 0.031508 
0.0388778 0.031508 9.95842 
9.97645 0.000238441 0.0462278 
0.000238441 9.96569 0.0334744 
0.0462278 0.0334744 9.95033 
9.96725 -0.000642477 0.0398483 
-0.000642477 9.96423 0.0284232 
0.0398483 0.0284232 9.96099 
10.0753 -0.00231369 -0.0165544 
-0.00231369 10.0362 0.0318752 
-0.0165544 0.0318752 10.0751 
10.0726 -0.0148829 0.00755438 
-0.0148829 10.0301 0.0154862 
0.00755438 0.0154862 10.0839 
10.0992 -0.00363582 0.0403356 
-0.00363582 10.0171 0.0173589 
0.0403356 0.0173589 10.0703 
10.0376 -0.00652922 0.00530242 
-0.00652922 10.0703 0.0434768 
0.00530242 0.0434768 10.0787 
9.98411 0.00126892 0.0592303 
0.00126892 9.97124 -0.0204901 
0.0592303 -0.0204901 9.97532 
9.9809 -0.0013268 0.0470925 
-0.0013268 9.97318 -0.0173211 
0.0470925 -0.0173211 9.97659 
9.98426 0.00281291 0.055744 
0.00281291 9.97488 -0.0238527 
0.055744 -0.0238527 9.97153 
9.97909 0.000953072 0.0486544 
0.000953072 9.98052 -0.0158899 
0.0486544 -0.0158899 9.97106 
10.0685 -0.0028619 0.164648 
-0.0028619 10.1449 0.0995361 
0.164648 0.0995361 9.44015 
10.0519 -0.125399 0.116236 
-0.125399 9.92789 0.147786 
0.116236 0.147786 9.67379 
9.89684 -0.00345598 -0.0157759 
-0.00345598 10.015 0.487006 
-0.0157759 0.487006 9.74179 
9.80518 0.0230053 -0.0388721 
0.0230053 9.9121 0.118355 
-0.0388721 0.118355 9.93633 
9.97542 0.869424 0.462366 
0.869424 8.21145 0.317893 
0.462366 0.317893 13.7054 
10.5185 -0.705013 0.255435 
-0.705013 9.69582 0.140253 
0.255435 0.140253 11.678 
10.9144 0.881164 0.191763 
0.881164 10.9691 -0.300494 
0.191763 -0.300494 10.0088 
10.6071 0.56181 -1.0671 
0.56181 9.40917 -0.381154 
-1.0671 -0.381154 11.876 
10.2472 -0.332997 0.29732 
-0.332997 10.3188 -0.0883901 
0.29732 -0.0883901 10.9247 
10.2129 -0.407269 -0.202444 
-0.407269 10.6251 0.0877075 
-0.202444 0.0877075 10.6528 
10.3887 0.0432823 0.247663 
0.0432823 10.3044 -0.163281 
0.247663 -0.163281 10.7977 
10.4248 0.113 -0.160789 
0.113 10.1962 0.0448795 
-0.160789 0.0448795 10.8698 
9.97513 -0.00458138 0.0217129 
-0.00458138 9.96062 0.00173011 
0.0217129 0.00173011 9.98993 
9.96996 0.0094175 0.0106012 
0.0094175 9.97523 0.00715852 
0.0106012 0.00715852 9.98049 
9.98547 0.00411906 -0.00046408 
0.00411906 9.98031 0.0208473 
-0.00046408 0.0208473 9.9599 
9.96798 0.00741541 0.00866669 
0.00741541 9.97519 0.00601196 
0.00866669 0.00601196 9.98251 
10.1447 0.105179 -0.170579 
0.105179 10.1935 0.0954493 
-0.170579 0.0954493 10.323 
10.2521 0.148397 0.108515 
0.148397 10.0849 0.000241388 
0.108515 0.000241388 10.3242 
10.1337 -0.130628 -0.0700803 
-0.130628 10.1176 0.062571 
-0.0700803 0.062571 10.41 
10.2096 -0.0933139 0.0104651 
-0.0933139 10.1731 -0.025873 
0.0104651 -0.025873 10.2786 
9.94807 -0.00277678 -0.0635654 
-0.00277678 9.93913 -0.0360783 
-0.0635654 -0.0360783 9.95037 
9.95919 -0.00325434 -0.0617675 
-0.00325434 9.93298 -0.0533148 
-0.0617675 -0.0533148 9.94539 
9.94583 -0.00482043 -0.061039 
-0.00482043 9.94126 -0.0413776 
-0.061039 -0.0413776 9.95048 
9.93678 0.0117476 -0.053516 
0.0117476 9.95244 -0.0224586 
-0.053516 -0.0224586 9.94834 
9.46414 -0.0411186 0.304738 
-0.0411186 9.96095 -0.0871073 
0.304738 -0.0871073 9.9561 
9.51837 -0.0209295 0.180598 
-0.0209295 9.84842 -0.0526088 
0.180598 -0.0526088 10.0144 
9.91615 -0.0729864 0.253823 
-0.0729864 9.7775 -0.158556 
0.253823 -0.158556 9.68753 
9.48884 0.00336044 0.181185 
0.00336044 9.92087 -0.058694 
0.181185 -0.058694 9.97147 
9.9622 0.0210722 -0.00450679 
0.0210722 9.93181 -0.0665132 
-0.00450679 -0.0665132 9.75202 
9.87655 0.0148444 0.017338 
0.0148444 9.97529 -0.0625879 
0.017338 -0.0625879 9.79418 
9.95235 0.0533225 0.0265198 
0.0533225 9.83942 -0.0266713 
0.0265198 -0.0266713 9.85425 
9.87212 -0.0146324 0.0267029 
-0.0146324 10.0073 0.0202572 
0.0267029 0.0202572 9.76656 
9.96066 0.000524933 0.0274661 
0.000524933 9.96624 -0.0512147 
0.0274661 -0.0512147 9.95558 
9.96641 -0.000441945 0.033467 
-0.000441945 9.96541 -0.05361 
0.033467 -0.05361 9.95066 
9.96923 -0.000872182 0.0318847 
-0.000872182 9.9729 -0.0531635 
0.0318847 -0.0531635 9.94036 
9.96061 -0.000247658 0.0382949 
-0.000247658 9.9606 -0.0629434 
0.0382949 -0.0629434 9.96128 
9.93061 0.0249592 0.00020745 
0.0249592 9.93869 -0.016923 
0.00020745 -0.016923 9.9462 
9.93632 0.0236984 0.00217495 
0.0236984 9.93945 -0.0164254 
0.00217495 -0.0164254 9.93973 
9.9225 0.0243898 -0.0010959 
0.0243898 9.95153 -0.00901131 
-0.0010959 -0.00901131 9.94146 
9.93085 0.0221572 -0.000386278 
0.0221572 9.93532 -0.0147826 
-0.000386278 -0.0147826 9.94933 
9.93552 -0.0540533 -0.0365535 
-0.0540533 9.93739 -0.019135 
-0.0365535 -0.019135 9.9844 
9.91726 -0.00927621 -0.04305 
-0.00927621 9.92643 -0.01705 
-0.04305 -0.01705 10.0136 
9.92384 -0.0168448 -0.0498083 
-0.0168448 9.88579 0.0353423 
-0.0498083 0.0353423 10.0477 
9.95239 -0.0185731 0.0500119 
-0.0185731 9.96129 0.0370836 
0.0500119 0.0370836 9.94363 
9.90032 -0.00685849 -0.0615965 
-0.00685849 9.9257 -0.0214873 
-0.0615965 -0.0214873 9.87956 
9.93692 0.0104744 -0.076967 
0.0104744 9.9332 0.00913245 
-0.076967 0.00913245 9.83546 
9.9461 0.00158119 -0.0669308 
0.00158119 9.9108 -0.00135012 
-0.0669308 -0.00135012 9.84867 
9.93537 0.0163215 -0.0426455 
0.0163215 9.91145 0.00226713 
-0.0426455 0.00226713 9.85876 
9.955 0.00375235 0.0715048 
0.00375235 9.96908 -0.00925431 
0.0715048 -0.00925431 9.90295 
9.94434 -0.000501338 0.0628875 
-0.000501338 9.92411 0.00688301 
0.0628875 0.00688301 9.95858 
9.95381 -0.00582284 0.0565953 
-0.00582284 9.95755 0.0129076 
0.0565953 0.0129076 9.91567 
9.9579 -0.00429775 0.0524875 
-0.00429775 9.95317 0.00703286 
0.0524875 0.00703286 9.91597 
9.97517 -0.0581772 -0.0474938 
-0.0581772 9.9948 0.0608415 
-0.0474938 0.0608415 10.1699 
9.99369 -0.00718535 -0.0369902 
-0.00718535 9.96414 -0.00257678 
-0.0369902 -0.00257678 10.1821 
9.98549 -0.141437 0.0248571 
-0.141437 9.89973 0.0799438 
0.0248571 0.0799438 10.2547 
9.85107 -0.0573298 -0.0424741 
-0.0573298 10.1067 -0.194343 
-0.0424741 -0.194343 10.1822 
9.98808 0.00194532 0.0338318 
0.00194532 9.98518 0.0319128 
0.0338318 0.0319128 9.99677 
9.98755 0.00467153 0.0356488 
0.00467153 9.98823 0.0303408 
0.0356488 0.0303408 9.99426 
9.98405 -0.00131376 0.034063 
-0.00131376 9.98798 0.0290906 
0.034063 0.0290906 9.998 
9.99119 0.00240901 0.036039 
0.00240901 9.98873 0.0300829 
0.036039 0.0300829 9.99011 
9.99957 0.00010884 -0.0428823 
0.00010884 9.99006 -0.0143706 
-0.0428823 -0.0143706 9.99294 
9.98788 0.00117798 -0.0394625 
0.00117798 9.98873 -0.0188233 
-0.0394625 -0.0188233 10.006 
9.99769 0.00380625 -0.0442836 
0.00380625 9.99587 -0.0139573 
-0.0442836 -0.0139573 9.98902 
9.99674 0.00263847 -0.0417706 
0.00263847 9.99699 -0.0107214 
-0.0417706 -0.0107214 9.98885 
9.67737 0.15234 0.199187 
0.15234 10.0927 0.118324 
0.199187 0.118324 10.3957 
9.83252 0.175276 0.221198 
0.175276 9.94527 -0.0685515 
0.221198 -0.0685515 10.388 
9.84107 0.0769349 0.2998 
0.0769349 10.2663 0.0298042 
0.2998 0.0298042 10.0584 
9.8487 0.0592519 0.179674 
0.0592519 9.95536 -0.15807 
0.179674 -0.15807 10.3617 
9.8387 0.043959 -0.0714889 
0.043959 9.81875 -0.122547 
-0.0714889 -0.122547 10.0052 
9.92424 0.0592632 0.0158137 
0.0592632 9.87852 -0.179081 
0.0158137 -0.179081 9.85993 
9.91412 -0.0122417 0.121019 
-0.0122417 9.88571 -0.056054 
0.121019 -0.056054 9.86286 
9.92269 0.106453 0.0776446 
0.106453 9.78529 -0.0783308 
0.0776446 -0.0783308 9.95471 
9.97215 -0.00161674 0.0281791 
-0.00161674 9.95946 -0.00595803 
0.0281791 -0.00595803 9.96612 
9.96865 -0.00337934 0.0241358 
-0.00337934 9.9712 -0.0096953 
0.0241358 -0.0096953 9.95788 
9.97152 -0.000907339 0.0211935 
-0.000907339 9.97403 -0.00880586 
0.0211935 -0.00880586 9.95218 
9.96854 -0.00128917 0.0231623 
-0.00128917 9.96756 -0.0101262 
0.0231623 -0.0101262 9.96163 
9.98142 0.00493634 0.0412561 
0.00493634 9.96907 0.0328034 
0.0412561 0.0328034 9.98475 
9.97628 1.61166e-05 0.0405653 
1.61166e-05 9.98012 0.0338784 
0.0405653 0.0338784 9.97884 
9.97934 0.00236826 0.0405692 
0.00236826 9.97915 0.0352871 
0.0405692 0.0352871 9.97675 
9.97657 0.00209635 0.0417003 
0.00209635 9.98055 0.0353333 
0.0417003 0.0353333 9.97812 
9.75836 -0.0607455 0.514835 
-0.0607455 10.0803 -0.062028 
0.514835 -0.062028 9.43581 
9.95281 -0.1278 -0.0163723 
-0.1278 9.7223 0.133785 
-0.0163723 0.133785 9.59932 
9.95363 0.0873137 0.0573948 
0.0873137 9.87727 0.0744583 
0.0573948 0.0744583 9.44353 
10.7171 -0.167438 0.205934 
-0.167438 9.51608 0.104877 
0.205934 0.104877 9.04126 
9.94217 0.0385373 0.0264466 
0.0385373 9.84931 -0.0741194 
0.0264466 -0.0741194 9.95123 
9.938 0.127645 -0.0161839 
0.127645 9.73445 -0.0444548 
-0.0161839 -0.0444548 10.0703 
9.80977 -0.139269 0.0242515 
-0.139269 10.1082 -0.00375906 
0.0242515 -0.00375906 9.82471 
9.98323 -0.0448308 0.0581298 
-0.0448308 9.77916 -0.122584 
0.0581298 -0.122584 9.98032 
9.92493 0.0135824 -0.0171234 
0.0135824 9.91628 0.0184716 
-0.0171234 0.0184716 10.0393 
9.92039 -0.0148541 -0.030751 
-0.0148541 9.91391 0.00570318 
-0.030751 0.00570318 10.0462 
9.91695 -0.00469984 -0.0324409 
-0.00469984 9.91227 0.00966809 
-0.0324409 0.00966809 10.0513 
9.92478 -0.0125439 -0.0408886 
-0.0125439 9.91957 -0.00654509 
-0.0408886 -0.00654509 10.0362 
9.98253 -0.00134908 0.054187 
-0.00134908 9.9728 0.0106456 
0.054187 0.0106456 9.96823 
9.96321 0.00726328 0.0540113 
0.00726328 9.98157 0.00320147 
0.0540113 0.00320147 9.97879 
9.97891 0.00182134 0.0519977 
0.00182134 9.97659 0.00740191 
0.0519977 0.00740191 9.96805 
9.97959 0.00484401 0.0499363 
0.00484401 9.98027 0.0128836 
0.0499363 0.0128836 9.96371 
9.93844 -0.063005 0.00504294 
-0.063005 9.9398 0.0366525 
0.00504294 0.0366525 9.90712 
9.90994 0.0211709 -0.0129675 
0.0211709 9.90548 -0.0233315 
-0.0129675 -0.0233315 9.96994 
9.90225 -0.0320739 -0.0164363 
-0.0320739 9.91049 0.0720462 
-0.0164363 0.0720462 9.97262 
9.93827 -0.055952 0.0186285 
-0.055952 9.96982 0.0495569 
0.0186285 0.0495569 9.87727 
9.93401 0.000222371 0.0499159 
0.000222371 9.931 -0.0372633 
0.0499159 -0.0372633 9.95454 
9.93433 0.00942676 0.0577619 
0.00942676 9.92602 -0.0496038 
0.0577619 -0.0496038 9.9592 
9.93746 -0.000421642 0.0553503 
-0.000421642 9.92604 -0.0475078 
0.0553503 -0.0475078 9.95605 
9.93888 -0.00643122 0.0597417 
-0.00643122 9.92684 -0.0497792 
0.0597417 -0.0497792 9.95382 
9.98149 -0.000332485 0.00400834 
-0.000332485 9.98263 0.0139696 
0.00400834 0.0139696 10.0037 
9.98381 0.000643744 0.00487276 
0.000643744 9.99014 0.0123716 
0.00487276 0.0123716 9.99389 
9.98718 0.00302368 0.00417591 
0.00302368 9.98993 0.0142652 
0.00417591 0.0142652 9.99072 
9.99103 0.00146128 0.00344796 
0.00146128 9.99026 0.0137612 
0.00344796 0.0137612 9.98655 
9.94471 -0.00734976 0.00850748 
-0.00734976 9.93009 -0.0685738 
0.00850748 -0.0685738 9.94041 
9.95316 0.00213589 0.000970253 
0.00213589 9.93957 -0.0827401 
0.000970253 -0.0827401 9.92248 
9.92953 0.0061423 0.00291175 
0.0061423 9.95774 -0.0814557 
0.00291175 -0.0814557 9.92793 
9.95403 -7.06956e-05 0.0093678 
-7.06956e-05 9.93217 -0.0858509 
0.0093678 -0.0858509 9.929 
10.0446 0.0125472 0.0175456 
0.0125472 9.98807 0.0697718 
0.0175456 0.0697718 10.1986 
10.0263 -0.0149779 -0.008601 
-0.0149779 9.99391 0.0619235 
-0.008601 0.0619235 10.2111 
10.0305 0.0118991 -0.0494384 
0.0118991 9.96668 -0.0486704 
-0.0494384 -0.0486704 10.2341 
10.025 -0.0139926 0.0720326 
-0.0139926 10.0349 0.0400639 
0.0720326 0.0400639 10.1713 
9.91673 -0.021707 0.0179972 
-0.021707 10.156 -0.0676857 
0.0179972 -0.0676857 10.2524 
9.94036 -0.0559967 0.0508125 
-0.0559967 10.1449 0.20968 
0.0508125 0.20968 10.2399 
10.0073 0.0599913 0.00926638 
0.0599913 9.95991 -0.0442312 
0.00926638 -0.0442312 10.358 
9.98153 -0.0250409 -0.0441524 
-0.0250409 10.0773 -0.0455651 
-0.0441524 -0.0455651 10.2663 
9.90385 -0.0314738 -0.00303113 
-0.0314738 9.89961 -0.0923541 
-0.00303113 -0.0923541 9.92964 
9.92726 0.00545529 -0.0111998 
0.00545529 9.90521 -0.0800907 
-0.0111998 -0.0800907 9.90063 
9.9375 -0.0151441 -0.0350777 
-0.0151441 9.9202 -0.0867346 
-0.0350777 -0.0867346 9.8754 
9.93224 -0.00536422 -0.0209281 
-0.00536422 9.90345 -0.0865657 
-0.0209281 -0.0865657 9.89741 
9.91377 0.102477 -0.0494793 
0.102477 9.82027 -0.134856 
-0.0494793 -0.134856 10.0787 
9.90856 0.0674566 -0.103982 
0.0674566 9.80425 0.00609835 
-0.103982 0.00609835 10.0999 
9.834 0.078195 -0.0345568 
0.078195 9.86703 -0.109273 
-0.0345568 -0.109273 10.1117 
9.81066 0.10185 -0.0615604 
0.10185 9.94533 -0.0795415 
-0.0615604 -0.0795415 10.0567 
10.0189 0.00438437 -0.0734766 
0.00438437 9.9168 -0.0764289 
-0.0734766 -0.0764289 9.58343 
10.0049 0.0178029 0.0429909 
0.0178029 9.81949 -0.0657569 
0.0429909 -0.0657569 9.69473 
9.97985 -0.0383974 -0.0397155 
-0.0383974 9.87147 -0.0584169 
-0.0397155 -0.0584169 9.66778 
9.72721 0.0623094 -0.155387 
0.0623094 9.85524 -0.142232 
-0.155387 -0.142232 9.93665 
9.98583 0.000666018 0.000857553 
0.000666018 9.98559 0.00410395 
0.000857553 0.00410395 9.99918 
9.98209 -0.00244174 0.00270725 
-0.00244174 9.98496 0.00754951 
0.00270725 0.00754951 10.0036 
9.99232 0.000440608 0.00463454 
0.000440608 9.98978 0.00367428 
0.00463454 0.00367428 9.9885 
9.98811 0.000479585 0.0059324 
0.000479585 9.98659 0.00048046 
0.0059324 0.00048046 9.9959 
9.93018 0.0431188 0.0117186 
0.0431188 9.92923 -0.0109789 
0.0117186 -0.0109789 10.0026 
9.91599 -0.019267 0.0614894 
-0.019267 9.84732 -0.00838237 
0.0614894 -0.00838237 10.0987 
9.95007 -0.0212825 -0.00523079 
-0.0212825 9.94529 0.00143574 
-0.00523079 0.00143574 9.96667 
9.90638 -0.0633931 -0.155244 
-0.0633931 9.97918 -0.0616924 
-0.155244 -0.0616924 9.97646 
9.91489 -0.00316406 -0.0154738 
-0.00316406 9.9188 0.0177148 
-0.0154738 0.0177148 10.0057 
9.93049 -0.0249864 -0.0324134 
-0.0249864 9.89286 0.00794765 
-0.0324134 0.00794765 10.016 
9.91877 0.00260343 -0.0210318 
0.00260343 9.91064 0.00288515 
-0.0210318 0.00288515 10.01 
9.90977 -0.0126986 0.00245153 
-0.0126986 9.9342 0.0156879 
0.00245153 0.0156879 9.9954 
9.86274 0.000561231 0.0641991 
0.000561231 9.88911 0.0721043 
0.0641991 0.0721043 9.95188 
9.87093 -0.0105641 0.0766097 
-0.0105641 9.88814 0.0492937 
0.0766097 0.0492937 9.94466 
9.87402 -0.00847285 0.0654604 
-0.00847285 9.8998 0.0523465 
0.0654604 0.0523465 9.92992 
9.85179 0.0108945 0.0542353 
0.0108945 9.89928 0.0633059 
0.0542353 0.0633059 9.95267 
10.0228 0.133672 0.0061267 
0.133672 9.85099 -0.00352686 
0.0061267 -0.00352686 9.84273 
9.86556 -0.0268849 -0.0257298 
-0.0268849 9.73655 -0.227551 
-0.0257298 -0.227551 10.1144 
9.72234 -0.0157144 -0.0711607 
-0.0157144 9.93389 0.0132937 
-0.0711607 0.0132937 10.0603 
10.0559 0.00144391 0.150059 
0.00144391 9.88339 -0.198737 
0.150059 -0.198737 9.77722 
9.92738 0.0615992 0.0379734 
0.0615992 9.94874 -0.0300912 
0.0379734 -0.0300912 9.95998 
9.923 0.0147205 0.00456933 
0.0147205 9.95994 0.000174055 
0.00456933 0.000174055 9.95315 
9.93361 0.0195935 0.0194347 
0.0195935 9.95153 -0.0255623 
0.0194347 -0.0255623 9.95096 
9.96645 0.0183432 0.0140309 
0.0183432 9.95508 -0.0564634 
0.0140309 -0.0564634 9.91457 
10.0244 0.0526956 -0.03669 
0.0526956 9.81 -0.223148 
-0.03669 -0.223148 10.2222 
10.0087 0.10417 0.00869201 
0.10417 9.83615 -0.206961 
0.00869201 -0.206961 10.2117 
10.0623 0.21133 0.0279085 
0.21133 9.90768 -0.158389 
0.0279085 -0.158389 10.0866 
9.98855 0.0730861 0.00435067 
0.0730861 9.92105 -0.129557 
0.00435067 -0.129557 10.147 
10.5543 -0.38169 0.216131 
-0.38169 9.99379 0.177262 
0.216131 0.177262 11.0747 
10.2742 0.0644806 0.182679 
0.0644806 10.6682 -0.268131 
0.182679 -0.268131 10.6803 
9.96666 -0.00620156 0.0770313 
-0.00620156 10.3251 -0.253352 
0.0770313 -0.253352 11.331 
10.2782 -0.436806 -0.129928 
-0.436806 10.3112 -0.0237049 
-0.129928 -0.0237049 11.0334 
9.8473 -0.0602194 -0.0361975 
-0.0602194 9.87576 -0.06634 
-0.0361975 -0.06634 9.94785 
9.8858 -0.040845 -0.0548435 
-0.040845 9.86812 -0.0914441 
-0.0548435 -0.0914441 9.91699 
9.87067 -0.0351035 -0.048569 
-0.0351035 9.89296 -0.0910112 
-0.048569 -0.0910112 9.90727 
9.89023 -0.0428509 -0.061251 
-0.0428509 9.85509 -0.113052 
-0.061251 -0.113052 9.92559 
9.92477 -0.0334847 0.0667643 
-0.0334847 9.88872 0.0830163 
0.0667643 0.0830163 9.94528 
9.9033 -0.00989105 0.0438853 
-0.00989105 9.92693 0.0868609 
0.0438853 0.0868609 9.92854 
9.90512 -0.0165946 0.0361768 
-0.0165946 9.92125 0.0722143 
0.0361768 0.0722143 9.93239 
9.92621 0.00302935 0.0486067 
0.00302935 9.9311 0.0992004 
0.0486067 0.0992004 9.90146 
9.93115 -0.00669668 -0.0354353 
-0.00669668 9.96471 0.0565783 
-0.0354353 0.0565783 9.87627 
9.91115 -0.0167604 -0.0400134 
-0.0167604 9.94364 0.0392951 
-0.0400134 0.0392951 9.91733 
9.95225 -0.0189503 -0.0168218 
-0.0189503 9.97822 0.00730984 
-0.0168218 0.00730984 9.84165 
9.92629 -0.00451318 -0.0207661 
-0.00451318 9.96901 0.0542663 
-0.0207661 0.0542663 9.87682 
9.7916 0.0295192 -0.0495361 
0.0295192 9.80115 0.180544 
-0.0495361 0.180544 10.0304 
9.98926 -0.0502196 0.0264781 
-0.0502196 9.73073 0.00353003 
0.0264781 0.00353003 9.90316 
9.81551 0.0400654 0.0237134 
0.0400654 9.95514 0.184647 
0.0237134 0.184647 9.85251 
9.97947 0.0422748 -0.0311097 
0.0422748 9.6839 0.19014 
-0.0311097 0.19014 9.95978 
9.92035 -0.019159 0.0466972 
-0.019159 9.92923 -0.0457497 
0.0466972 -0.0457497 9.93471 
9.92483 0.0027168 0.0617198 
0.0027168 9.93503 -0.0471767 
0.0617198 -0.0471767 9.92443 
9.90625 -0.0251544 0.0793736 
-0.0251544 9.95047 -0.0422876 
0.0793736 -0.0422876 9.92757 
9.91733 0.0151253 0.0689191 
0.0151253 9.93237 -0.0672078 
0.0689191 -0.0672078 9.93458 
9.97544 -0.000333622 -0.0291652 
-0.000333622 9.9409 -0.0158944 
-0.0291652 -0.0158944 9.89198 
9.97412 -0.00442265 -0.0262891 
-0.00442265 9.94307 -0.0120783 
-0.0262891 -0.0120783 9.89113 
9.95672 -0.00180207 -0.0207206 
-0.00180207 9.94732 -0.0268496 
-0.0207206 -0.0268496 9.90428 
9.97174 -0.0112298 -0.0431968 
-0.0112298 9.94996 -0.0154877 
-0.0431968 -0.0154877 9.88662 
9.84075 -0.00962466 0.124978 
-0.00962466 9.92336 0.0460902 
0.124978 0.0460902 9.97374 
9.96766 0.0511075 0.172663 
0.0511075 9.9384 0.168481 
0.172663 0.168481 9.83178 
9.71793 0.103534 0.193117 
0.103534 10.0394 0.243349 
0.193117 0.243349 9.98049 
9.99543 -0.0352121 0.266754 
-0.0352121 10.0864 -0.0648448 
0.266754 -0.0648448 9.65601 
9.96855 -0.120457 0.0628352 
-0.120457 10.0237 0.543814 
0.0628352 0.543814 9.21013 
9.73402 -0.264007 -0.605909 
-0.264007 10.1986 0.103087 
-0.605909 0.103087 9.26984 
10.1065 0.218941 -0.443188 
0.218941 9.36319 -0.303918 
-0.443188 -0.303918 9.73271 
9.60134 0.10834 -0.355625 
0.10834 9.83251 -0.0929782 
-0.355625 -0.0929782 9.76857 
9.9857 0.00167131 0.0163518 
0.00167131 9.97787 0.0301037 
0.0163518 0.0301037 9.98896 
9.98098 0.0055536 0.00905279 
0.0055536 9.98556 0.0264095 
0.00905279 0.0264095 9.98599 
9.98025 0.00093732 0.0121488 
0.00093732 9.9901 0.0242225 
0.0121488 0.0242225 9.98218 
9.988 -0.000641295 0.0218577 
-0.000641295 9.98196 0.0306645 
0.0218577 0.0306645 9.98257 
9.94625 0.0206134 -0.000519683 
0.0206134 9.93266 -0.0156245 
-0.000519683 -0.0156245 9.92342 
9.95423 0.000204474 -0.0367424 
0.000204474 9.92998 -0.030329 
-0.0367424 -0.030329 9.91812 
9.95898 0.0128333 -0.0179011 
0.0128333 9.94564 -0.031492 
-0.0179011 -0.031492 9.89771 
9.93221 0.0282485 -0.00360032 
0.0282485 9.94869 -0.0341614 
-0.00360032 -0.0341614 9.92142 
9.9768 0.00254605 0.0521001 
0.00254605 9.97377 -0.0501523 
0.0521001 -0.0501523 9.97639 
9.97282 -0.00226297 0.0560478 
-0.00226297 9.97282 -0.0518594 
0.0560478 -0.0518594 9.98133 
9.97003 -0.00359373 0.0528901 
-0.00359373 9.96917 -0.0404648 
0.0528901 -0.0404648 9.98776 
9.98002 5.66215e-05 0.0529735 
5.66215e-05 9.97949 -0.0552314 
0.0529735 -0.0552314 9.96745 
10.0585 -0.0013565 -0.00488062 
-0.0013565 9.94028 0.0205725 
-0.00488062 0.0205725 10.2241 
10.0558 0.0127252 0.00403917 
0.0127252 9.96374 0.0512466 
0.00403917 0.0512466 10.2033 
10.0809 0.0142621 -0.0348287 
0.0142621 9.95182 0.0444402 
-0.0348287 0.0444402 10.1901 
10.0335 0.00256384 -0.0134876 
0.00256384 9.94271 0.045362 
-0.0134876 0.045362 10.2466 
9.96646 0.000120888 -0.0242646 
0.000120888 9.93922 -0.012758 
-0.0242646 -0.012758 9.95203 
9.94403 -0.00488105 -0.00670664 
-0.00488105 9.91768 -0.00370979 
-0.00670664 -0.00370979 9.99599 
9.93621 0.00409751 -0.0187408 
0.00409751 9.94652 0.00123625 
-0.0187408 0.00123625 9.97498 
9.93875 0.010987 -0.025036 
0.010987 9.94952 -0.00332177 
-0.025036 -0.00332177 9.96944 
9.90278 -0.0034708 -0.030767 
-0.0034708 9.90021 -0.105308 
-0.030767 -0.105308 9.90018 
9.91224 0.0024196 -0.0204125 
0.0024196 9.90472 -0.098236 
-0.0204125 -0.098236 9.88621 
9.91458 -0.012463 -0.0164481 
-0.012463 9.87589 -0.0937251 
-0.0164481 -0.0937251 9.9127 
9.92193 0.0116474 -0.0290537 
0.0116474 9.91617 -0.0887077 
-0.0290537 -0.0887077 9.86507 
9.96618 -0.00357222 -0.0127515 
-0.00357222 9.96755 -0.0767264 
-0.0127515 -0.0767264 9.91195 
9.93718 0.0011736 -0.0213163 
0.0011736 9.93761 -0.084276 
-0.0213163 -0.084276 9.97089 
9.95354 -0.00949174 -0.0154588 
-0.00949174 9.94452 -0.0670083 
-0.0154588 -0.0670083 9.94762 
9.95433 -0.00568514 -0.0248867 
-0.00568514 9.94392 -0.062689 
-0.0248867 -0.062689 9.94744 
10.3136 -0.0880643 0.398263 
-0.0880643 10.7611 0.0868285 
0.398263 0.0868285 11.3185 
11.0646 0.37517 -0.225766 
0.37517 11.3115 -0.150717 
-0.225766 -0.150717 10.017 
10.5063 -0.278317 0.274263 
-0.278317 10.5697 -0.0790156 
0.274263 -0.0790156 11.3171 
10.1779 -0.0517841 -0.0898673 
-0.0517841 10.8256 -0.0437901 
-0.0898673 -0.0437901 11.3897 
9.92064 0.0114812 0.0134123 
0.0114812 9.8813 -0.0729239 
0.0134123 -0.0729239 9.92466 
9.91522 0.0238635 0.0449431 
0.0238635 9.89349 -0.113593 
0.0449431 -0.113593 9.91788 
9.96839 0.0856938 0.0244933 
0.0856938 9.77348 -0.117312 
0.0244933 -0.117312 9.98472 
9.89305 -0.0310187 0.0489822 
-0.0310187 9.90796 -0.139671 
0.0489822 -0.139671 9.92559 
10.6523 -0.438848 -0.351493 
-0.438848 10.0785 0.0138078 
-0.351493 0.0138078 10.1124 
8.5173 1.25412 0.349943 
1.25412 10.2417 0.768163 
0.349943 0.768163 12.0842 
10.2086 0.559165 0.812952 
0.559165 10.2895 -0.609263 
0.812952 -0.609263 10.3451 
9.71119 0.199286 0.10826 
0.199286 10.2061 -0.171059 
0.10826 -0.171059 10.926 
9.91994 -0.034348 0.0237042 
-0.034348 9.9151 -0.026658 
0.0237042 -0.026658 9.92729 
9.9116 0.0249219 -0.0969603 
0.0249219 9.82028 -0.149729 
-0.0969603 -0.149729 10.0304 
9.88293 0.0239009 0.00978738 
0.0239009 9.90091 -0.075991 
0.00978738 -0.075991 9.97849 
9.88662 -0.0190389 -0.0105514 
-0.0190389 9.91178 -0.156891 
-0.0105514 -0.156891 9.96393 
9.89172 -0.0368098 -0.0905524 
-0.0368098 9.84479 0.0169842 
-0.0905524 0.0169842 10.0599 
9.91002 -0.0175767 -0.0403493 
-0.0175767 9.86888 0.00715495 
-0.0403493 0.00715495 10.0175 
9.86429 -0.0586194 -0.022588 
-0.0586194 9.8863 0.0267772 
-0.022588 0.0267772 10.0458 
9.86619 -0.0471707 -0.0763807 
-0.0471707 9.90353 0.02108 
-0.0763807 0.02108 10.0267 
9.9065 -0.0159432 0.00273088 
-0.0159432 9.88518 0.0603249 
0.00273088 0.0603249 10.0527 
9.90896 -0.00242441 -0.0172021 
-0.00242441 9.85454 0.0835077 
-0.0172021 0.0835077 10.0809 
9.92103 0.0149991 0.00979572 
0.0149991 9.89256 0.0443592 
0.00979572 0.0443592 10.0308 
9.90463 0.00232669 -0.000184259 
0.00232669 9.86989 0.0917163 
-0.000184259 0.0917163 10.0698 
10.2098 -0.0436296 -0.173319 
-0.0436296 9.89543 0.0702212 
-0.173319 0.0702212 9.51238 
9.86453 -0.0159073 -0.118643 
-0.0159073 9.98626 -0.00695992 
-0.118643 -0.00695992 9.76684 
9.89953 0.0321239 -0.0621527 
0.0321239 9.97111 -0.0538785 
-0.0621527 -0.0538785 9.74699 
9.94447 -0.0171813 -0.0157897 
-0.0171813 9.84725 0.00885859 
-0.0157897 0.00885859 9.82592 
9.96317 0.00467814 0.0274276 
0.00467814 9.96441 0.0391744 
0.0274276 0.0391744 9.96663 
9.96876 0.00540361 0.0303057 
0.00540361 9.96855 0.0398677 
0.0303057 0.0398677 9.95689 
9.96476 0.00463172 0.026611 
0.00463172 9.96897 0.0376853 
0.026611 0.0376853 9.96047 
9.96248 0.00478266 0.0299889 
0.00478266 9.96646 0.0385195 
0.0299889 0.0385195 9.96525 
9.85772 0.0387255 -0.0554758 
0.0387255 9.89576 0.0595023 
-0.0554758 0.0595023 9.93122 
9.87852 0.00729523 -0.0765406 
0.00729523 9.91459 0.0670189 
-0.0765406 0.0670189 9.8916 
9.87417 0.0258391 -0.0909625 
0.0258391 9.9026 0.0642818 
-0.0909625 0.0642818 9.90793 
9.87217 0.0603815 -0.107925 
0.0603815 9.90114 0.104332 
-0.107925 0.104332 9.91139 
9.94848 0.00295867 -0.00198127 
0.00295867 9.94715 0.00987476 
-0.00198127 0.00987476 9.99042 
9.94953 0.00287018 -0.00904732 
0.00287018 9.94274 0.002942 
-0.00904732 0.002942 9.99379 
9.95327 -0.0062073 -0.00676501 
-0.0062073 9.93624 -0.00331173 
-0.00676501 -0.00331173 9.99653 
9.95037 0.00145313 -0.00646953 
0.00145313 9.94405 -0.00348522 
-0.00646953 -0.00348522 9.99163 
9.94736 -0.0211534 0.159074 
-0.0211534 9.89548 -0.0826265 
0.159074 -0.0826265 9.90747 
9.95709 -5.84035e-05 0.0412182 
-5.84035e-05 9.93986 -0.0663397 
0.0412182 -0.0663397 9.85336 
9.93481 0.015289 0.0723098 
0.015289 9.92448 -0.0682755 
0.0723098 -0.0682755 9.89101 
9.90755 0.00221301 0.0788009 
0.00221301 9.92047 -0.0487268 
0.0788009 -0.0487268 9.92229 
9.9254 0.00923194 -0.017169 
0.00923194 9.93386 -0.01229 
-0.017169 -0.01229 9.98909 
9.95256 0.0206405 -0.0209761 
0.0206405 9.93208 -0.0183339 
-0.0209761 -0.0183339 9.96372 
9.94285 0.0427049 -0.00160003 
0.0427049 9.92089 0.0297635 
-0.00160003 0.0297635 9.98462 
9.91605 0.0341402 -0.0167775 
0.0341402 9.91676 -0.0133568 
-0.0167775 -0.0133568 10.0155 
9.988 0.0026989 0.00804996 
0.0026989 9.98849 0.00947123 
0.00804996 0.00947123 9.99193 
9.98707 0.00149842 0.00400224 
0.00149842 9.98136 0.0104683 
0.00400224 0.0104683 9.99999 
9.98604 -0.00101252 0.00814665 
-0.00101252 9.98503 0.00953195 
0.00814665 0.00953195 9.99735 
9.98696 0.00332258 0.00953985 
0.00332258 9.99121 0.00790004 
0.00953985 0.00790004 9.99025 
9.90539 -0.0531408 -0.0908757 
-0.0531408 9.99122 -0.00052941 
-0.0908757 -0.00052941 9.73839 
9.88341 0.0490531 -0.0594501 
0.0490531 9.96141 -0.0307899 
-0.0594501 -0.0307899 9.79019 
9.91043 0.0332504 -0.0721633 
0.0332504 9.92849 -0.0790535 
-0.0721633 -0.0790535 9.79609 
9.88201 -0.0386911 -0.0235116 
-0.0386911 9.93094 -0.0366425 
-0.0235116 -0.0366425 9.82206 
9.9638 -0.202338 0.0330586 
-0.202338 10.1736 0.278761 
0.0330586 0.278761 10.9058 
10.4871 -0.381995 0.214361 
-0.381995 9.96445 0.407103 
0.214361 0.407103 10.5918 
10.3278 -0.511895 -0.0294388 
-0.511895 9.74608 -0.158203 
-0.0294388 -0.158203 10.9694 
10.0456 0.480137 -0.345928 
0.480137 10.4243 -0.918342 
-0.345928 -0.918342 10.5734 
9.92888 0.00374997 0.0528382 
0.00374997 9.92423 -0.0401576 
0.0528382 -0.0401576 9.9391 
9.9281 0.0115969 0.0623988 
0.0115969 9.92799 -0.0489376 
0.0623988 -0.0489376 9.93612 
9.92977 0.00213891 0.0660972 
0.00213891 9.92236 -0.0442008 
0.0660972 -0.0442008 9.94007 
9.92841 -0.0016789 0.0676634 
-0.0016789 9.92758 -0.041057 
0.0676634 -0.041057 9.93622 
9.90947 -0.0366018 0.0192375 
-0.0366018 9.8911 0.0724422 
0.0192375 0.0724422 10.0384 
9.90406 0.0225484 0.01608 
0.0225484 9.8587 0.0771225 
0.01608 0.0771225 10.0762 
9.89843 0.0283139 0.00862399 
0.0283139 9.86667 0.0891597 
0.00862399 0.0891597 10.0738 
9.87239 -0.0163056 0.0292448 
-0.0163056 9.84693 0.0736757 
0.0292448 0.0736757 10.1196 
9.8779 -0.0182406 0.00138858 
-0.0182406 9.94266 0.0979798 
0.00138858 0.0979798 9.85041 
10.0065 -0.0343652 0.111051 
-0.0343652 9.99903 0.217653 
0.111051 0.217653 9.66547 
10.0023 -0.0115974 0.061489 
-0.0115974 10.032 0.175714 
0.061489 0.175714 9.63662 
10.0589 0.0974878 0.0075355 
0.0974878 10.0331 0.181573 
0.0075355 0.181573 9.57901 
10.0876 -0.0147212 -0.0164001 
-0.0147212 10.1138 0.0278955 
-0.0164001 0.0278955 10.2285 
10.0607 0.0141506 -0.0105896 
0.0141506 10.0737 0.0397178 
-0.0105896 0.0397178 10.2955 
10.1109 -0.0295861 -0.0167616 
-0.0295861 10.1014 0.0421576 
-0.0167616 0.0421576 10.2176 
10.0806 0.000946664 -0.032352 
0.000946664 10.1464 0.11294 
-0.032352 0.11294 10.2028 
9.82011 -0.0168636 -0.311079 
-0.0168636 9.76296 -0.128552 
-0.311079 -0.128552 9.91879 
9.68692 -0.266499 -0.271287 
-0.266499 9.71893 -0.0571439 
-0.271287 -0.0571439 10.096 
9.73913 -0.245386 -0.118027 
-0.245386 9.73376 0.0616072 
-0.118027 0.0616072 10.029 
9.73533 -0.198355 -0.223411 
-0.198355 9.75673 -0.0601167 
-0.223411 -0.0601167 10.0098 
9.79883 -0.00462241 0.0841494 
-0.00462241 9.89316 0.00924208 
0.0841494 0.00924208 9.93945 
9.86306 0.00346894 0.14725 
0.00346894 9.94639 -0.00211072 
0.14725 -0.00211072 9.82198 
9.70461 -0.022113 0.204574 
-0.022113 9.92239 -0.0905029 
0.204574 -0.0905029 10.0044 
9.8681 0.0546599 0.136294 
0.0546599 9.89133 0.00108401 
0.136294 0.00108401 9.872 
10.0353 0.11472 0.0074873 
0.11472 9.88942 -0.138473 
0.0074873 -0.138473 9.7819 
9.9802 -0.0211046 -0.0197272 
-0.0211046 9.67557 -0.0240846 
-0.0197272 -0.0240846 10.0509 
9.91046 -0.0284341 -0.0193427 
-0.0284341 9.77528 0.035634 
-0.0193427 0.035634 10.0209 
9.86737 -0.0503475 -0.00702059 
-0.0503475 9.78325 -0.00878925 
-0.00702059 -0.00878925 10.056 
9.93939 0.0162437 0.0298941 
0.0162437 9.90762 -0.0424006 
0.0298941 -0.0424006 9.99455 
9.94461 0.0313486 0.0301343 
0.0313486 9.90496 -0.0116831 
0.0301343 -0.0116831 9.99198 
9.94483 0.00358195 0.026957 
0.00358195 9.91698 -0.0235094 
0.026957 -0.0235094 9.97975 
9.95177 0.0101004 0.0319664 
0.0101004 9.90273 -0.036142 
0.0319664 -0.036142 9.98705 
9.40092 -0.0746546 0.238928 
-0.0746546 9.87871 0.109605 
0.238928 0.109605 10.0051 
9.65735 -0.117425 0.224413 
-0.117425 9.95406 -0.0253079 
0.224413 -0.0253079 9.6733 
9.58567 -0.0477103 0.281747 
-0.0477103 9.921 0.0834205 
0.281747 0.0834205 9.77804 
9.46336 -0.104988 0.685317 
-0.104988 9.57761 0.0638597 
0.685317 0.0638597 10.2437 
7.13078 0.190951 0.333629 
0.190951 10.0251 -0.761418 
0.333629 -0.761418 15.7578 
7.52113 -0.419859 0.321259 
-0.419859 9.47793 0.721473 
0.321259 0.721473 15.9146 
12.7553 -0.416323 1.51019 
-0.416323 14.4 0.423987 
1.51019 0.423987 5.75841 
10.7892 0.112587 -5.25173 
0.112587 9.60536 -0.0604082 
-5.25173 -0.0604082 12.5191 
9.96652 0.00503657 0.0389637 
0.00503657 9.9675 0.0411355 
0.0389637 0.0411355 9.96331 
9.96191 0.00557422 0.0410129 
0.00557422 9.96907 0.037897 
0.0410129 0.037897 9.96635 
9.96435 0.00540795 0.0414829 
0.00540795 9.96253 0.0411425 
0.0414829 0.0411425 9.97045 
9.96373 0.00262032 0.0392418 
0.00262032 9.96595 0.0425628 
0.0392418 0.0425628 9.96765 
9.92674 -0.0179362 -0.0173222 
-0.0179362 9.91404 0.0492937 
-0.0173222 0.0492937 9.89457 
9.99627 -0.0404224 -0.00409907 
-0.0404224 9.92204 0.045722 
-0.00409907 0.045722 9.81703 
9.93024 -0.000235312 0.0376265 
-0.000235312 9.93004 0.00709478 
0.0376265 0.00709478 9.87506 
9.9502 -0.0190656 0.00592899 
-0.0190656 9.923 0.0354279 
0.00592899 0.0354279 9.86214 
9.95526 -0.00614027 0.0452584 
-0.00614027 9.95952 -0.0427047 
0.0452584 -0.0427047 9.95651 
9.95415 -0.00603694 0.0392693 
-0.00603694 9.95274 -0.0452283 
0.0392693 -0.0452283 9.96439 
9.95052 -0.00602136 0.0434504 
-0.00602136 9.96304 -0.0421311 
0.0434504 -0.0421311 9.95773 
9.95653 -0.00235433 0.042065 
-0.00235433 9.95463 -0.0421149 
0.042065 -0.0421149 9.96013 
9.91688 0.00464809 0.0482637 
0.00464809 9.93183 -0.0667854 
0.0482637 -0.0667854 9.93777 
9.92356 0.00996488 0.0397652 
0.00996488 9.92494 -0.0606523 
0.0397652 -0.0606523 9.93798 
9.92902 0.0120577 0.040683 
0.0120577 9.93274 -0.0669521 
0.040683 -0.0669521 9.92472 
9.92088 0.00271695 0.0472202 
0.00271695 9.92268 -0.065195 
0.0472202 -0.065195 9.94293 
9.8827 -0.048439 -0.0949848 
-0.048439 10.0536 -0.0418846 
-0.0949848 -0.0418846 9.71031 
9.84742 0.0581359 -0.103227 
0.0581359 10.01 -0.0393454 
-0.103227 -0.0393454 9.78917 
9.94824 -0.0176662 -0.105134 
-0.0176662 10.0132 -0.0431535 
-0.105134 -0.0431535 9.68513 
9.91734 4.05687e-05 -0.07832 
4.05687e-05 9.95857 -0.0165361 
-0.07832 -0.0165361 9.7707 
9.8475 0.0498695 -0.00565105 
0.0498695 9.96053 -0.0558099 
-0.00565105 -0.0558099 10.0048 
9.85963 -0.033965 0.084233 
-0.033965 9.94548 -0.00802761 
0.084233 -0.00802761 10.0077 
9.89643 -0.0484324 0.0802166 
-0.0484324 9.89287 -0.0465025 
0.0802166 -0.0465025 10.0236 
9.88587 0.0114012 0.0992819 
0.0114012 9.88932 -0.0684711 
0.0992819 -0.0684711 10.0377 
9.91725 0.0427365 0.179923 
0.0427365 9.98717 0.0522347 
0.179923 0.0522347 9.9859 
9.95508 -0.00920903 0.279611 
-0.00920903 9.88211 -0.0896304 
0.279611 -0.0896304 10.0531 
9.95142 -0.0170992 0.230602 
-0.0170992 9.87121 -0.0560361 
0.230602 -0.0560361 10.0677 
9.80472 0.140657 0.232593 
0.140657 9.96515 0.0275089 
0.232593 0.0275089 10.1204 
9.9319 -0.0115071 0.0453787 
-0.0115071 9.93582 -0.0297945 
0.0453787 -0.0297945 9.93986 
9.92549 -0.00691016 0.0237255 
-0.00691016 9.95107 -0.0279422 
0.0237255 -0.0279422 9.93102 
9.92528 -0.01126 0.0388855 
-0.01126 9.94022 -0.0314301 
0.0388855 -0.0314301 9.94208 
9.93283 -0.0150066 0.0469186 
-0.0150066 9.93839 -0.0333553 
0.0469186 -0.0333553 9.93636 
9.9402 -0.0345028 0.333263 
-0.0345028 9.69526 0.00658435 
0.333263 0.00658435 9.98886 
9.88654 -0.146115 0.231821 
-0.146115 10.3997 -0.236741 
0.231821 -0.236741 9.33804 
9.84668 0.339389 0.274471 
0.339389 9.9845 -0.203982 
0.274471 -0.203982 9.79315 
9.79154 -0.145673 -0.0843783 
-0.145673 9.92218 -0.0378662 
-0.0843783 -0.0378662 9.91061 
10.1182 0.000183579 -0.00678573 
0.000183579 10.0938 -0.00963243 
-0.00678573 -0.00963243 10.0832 
10.0637 -0.00408038 0.0143548 
-0.00408038 10.061 -0.0186391 
0.0143548 -0.0186391 10.1706 
10.0803 -0.000952052 -0.00743237 
-0.000952052 10.0775 -0.00981285 
-0.00743237 -0.00981285 10.1375 
10.0772 0.00585296 -0.0369693 
0.00585296 10.0961 -0.0344801 
-0.0369693 -0.0344801 10.1219 
10.0568 0.0306774 -0.016766 
0.0306774 10.0768 0.00594377 
-0.016766 0.00594377 10.1771 
10.1044 -0.0582349 0.0293858 
-0.0582349 9.97917 0.044773 
0.0293858 0.044773 10.227 
10.0257 0.0221551 0.0152483 
0.0221551 10.0896 -0.0409758 
0.0152483 -0.0409758 10.1953 
10.095 -0.00862019 0.00494624 
-0.00862019 10.0439 -0.0268457 
0.00494624 -0.0268457 10.1717 
9.96642 0.00553944 0.0161667 
0.00553944 9.83162 -0.0403312 
0.0161667 -0.0403312 10.1939 
9.91394 0.0658846 0.0197836 
0.0658846 9.83646 -0.0313775 
0.0197836 -0.0313775 10.2416 
9.93392 0.0168568 0.0137034 
0.0168568 9.84584 -0.0146224 
0.0137034 -0.0146224 10.2122 
9.91142 -0.0189938 -0.00402338 
-0.0189938 9.87559 -0.00495917 
-0.00402338 -0.00495917 10.205 
9.923 0.000398961 0.0511798 
0.000398961 9.92759 -0.0577395 
0.0511798 -0.0577395 9.92305 
9.91211 -0.00191119 0.064533 
-0.00191119 9.92598 -0.0694554 
0.064533 -0.0694554 9.93555 
9.93528 -0.0156045 0.0465599 
-0.0156045 9.89832 -0.035987 
0.0465599 -0.035987 9.94003 
9.94565 -0.00810576 0.0539075 
-0.00810576 9.90838 -0.0699675 
0.0539075 -0.0699675 9.9196 
9.96171 -0.00250799 0.0504405 
-0.00250799 9.96159 -0.0118741 
0.0504405 -0.0118741 9.94293 
9.96105 0.00101618 0.0528895 
0.00101618 9.96074 -0.013167 
0.0528895 -0.013167 9.94444 
9.96221 -0.0033581 0.0520408 
-0.0033581 9.96596 -0.0118873 
0.0520408 -0.0118873 9.93805 
9.96673 -0.00275755 0.0514678 
-0.00275755 9.96287 -0.0144534 
0.0514678 -0.0144534 9.93663 
10.0626 0.21433 -0.0499908 
0.21433 10.1614 -0.00441463 
-0.0499908 -0.00441463 10.2302 
10.518 0.0531475 -0.114194 
0.0531475 10.0915 0.0907282 
-0.114194 0.0907282 9.84471 
9.79661 -0.0729784 0.182916 
-0.0729784 9.99597 -0.0499763 
0.182916 -0.0499763 10.6616 
9.86682 0.248447 -0.266474 
0.248447 10.158 0.120034 
-0.266474 0.120034 10.4294 
10.2727 0.115132 -0.0942409 
0.115132 10.1004 0.0309795 
-0.0942409 0.0309795 10.154 
10.155 -0.0167618 -0.104111 
-0.0167618 10.0924 -0.0231815 
-0.104111 -0.0231815 10.2797 
10.0607 -0.0360922 -0.0178062 
-0.0360922 10.1969 0.0803499 
-0.0178062 0.0803499 10.2695 
10.147 0.0278454 -0.0642319 
0.0278454 10.1138 -0.0244116 
-0.0642319 -0.0244116 10.2662 
9.89964 -0.00588424 -0.00782392 
-0.00588424 9.92483 -0.0219014 
-0.00782392 -0.0219014 9.94424 
9.93889 0.00342087 -0.0177533 
0.00342087 9.93941 -0.00831324 
-0.0177533 -0.00831324 9.89041 
9.92852 0.0123016 -0.0318455 
0.0123016 9.99031 -0.0320404 
-0.0318455 -0.0320404 9.84988 
9.96783 -0.00329773 0.0112338 
-0.00329773 9.98254 0.0355041 
0.0112338 0.0355041 9.81834 
9.89358 -0.0112719 0.0931897 
-0.0112719 9.90698 0.0129151 
0.0931897 0.0129151 9.89735 
9.89273 -0.00785873 0.094092 
-0.00785873 9.91094 0.00900079 
0.094092 0.00900079 9.89425 
9.8896 -0.00215348 0.092603 
-0.00215348 9.90872 0.00657511 
0.092603 0.00657511 9.8996 
9.88391 -0.00631764 0.097162 
-0.00631764 9.92767 0.011063 
0.097162 0.011063 9.88634 
9.85349 -0.0399122 -0.10628 
-0.0399122 9.91098 -0.119391 
-0.10628 -0.119391 9.92173 
9.94646 -0.0296424 -0.143611 
-0.0296424 9.87463 -0.0224749 
-0.143611 -0.0224749 9.86511 
9.8047 0.0829071 -0.144402 
0.0829071 9.9993 -0.310667 
-0.144402 -0.310667 9.8822 
9.87368 -0.153315 -0.0610381 
-0.153315 9.80217 -0.190077 
-0.0610381 -0.190077 10.0103 
9.96285 0.0298428 0.0363237 
0.0298428 9.83508 -0.174297 
0.0363237 -0.174297 9.75542 
9.95275 -0.0201353 -0.00762934 
-0.0201353 9.7998 -0.236381 
-0.00762934 -0.236381 9.80081 
9.9023 0.106395 -0.0256967 
0.106395 9.95851 -0.274013 
-0.0256967 -0.274013 9.69255 
9.92598 -0.0431536 0.116711 
-0.0431536 9.90156 -0.0889117 
0.116711 -0.0889117 9.72582 
9.90681 -0.0237749 -0.0755249 
-0.0237749 9.9488 0.0365219 
-0.0755249 0.0365219 9.92249 
9.90286 -0.0289322 -0.0794996 
-0.0289322 9.95246 0.0360382 
-0.0794996 0.0360382 9.92279 
9.90842 -0.0284218 -0.0507462 
-0.0284218 9.95752 0.0280735 
-0.0507462 0.0280735 9.91216 
9.90249 -0.0273481 -0.0845045 
-0.0273481 9.9513 0.0370911 
-0.0845045 0.0370911 9.92431 
9.9876 -0.00720418 -0.0349355 
-0.00720418 9.9833 0.0196757 
-0.0349355 0.0196757 9.98347 
9.97582 0.0071523 -0.0282129 
0.0071523 9.98209 0.0222128 
-0.0282129 0.0222128 9.99647 
9.9864 -0.0039857 -0.0331437 
-0.0039857 9.982 0.0192265 
-0.0331437 0.0192265 9.98597 
9.98794 0.000746299 -0.0334604 
0.000746299 9.98807 0.015071 
-0.0334604 0.015071 9.97837 
9.92779 -0.000743276 0.00999629 
-0.000743276 9.9322 -0.0811575 
0.00999629 -0.0811575 9.92206 
9.93319 -0.00479554 0.00947107 
-0.00479554 9.92342 -0.0870035 
0.00947107 -0.0870035 9.92544 
9.94045 0.00608634 -0.00211202 
0.00608634 9.92322 -0.0854283 
-0.00211202 -0.0854283 9.91837 
9.93303 -0.00103309 0.0062404 
-0.00103309 9.93111 -0.0867415 
0.0062404 -0.0867415 9.91791 
9.86325 0.0010499 0.062938 
0.0010499 9.91345 0.0394417 
0.062938 0.0394417 9.94047 
9.96114 -0.0424702 0.00215049 
-0.0424702 9.84881 0.0780577 
0.00215049 0.0780577 9.90722 
9.89452 -0.0599093 0.0945608 
-0.0599093 9.85163 0.101947 
0.0945608 0.101947 9.97103 
9.93106 -0.016285 0.0135649 
-0.016285 9.89147 0.144191 
0.0135649 0.144191 9.89465 
9.75249 0.0214909 -0.046244 
0.0214909 9.90736 -0.00226144 
-0.046244 -0.00226144 10.1054 
9.81042 0.0118186 -0.116297 
0.0118186 9.88835 -0.03631 
-0.116297 -0.03631 10.0665 
9.80749 0.0216097 -0.10303 
0.0216097 9.92745 -0.0248454 
-0.10303 -0.0248454 10.0303 
9.7974 0.01994 -0.0808826 
0.01994 9.91163 -0.035357 
-0.0808826 -0.035357 10.0562 
9.95496 0.00724547 0.0249924 
0.00724547 9.97452 0.0148991 
0.0249924 0.0148991 9.99405 
9.98683 0.00186271 0.00496554 
0.00186271 9.99136 0.00361719 
0.00496554 0.00361719 9.94534 
9.9857 -0.0083036 0.00668173 
-0.0083036 9.96731 0.00549251 
0.00668173 0.00549251 9.97052 
9.97267 0.00132742 0.00195808 
0.00132742 9.96659 0.00379445 
0.00195808 0.00379445 9.98428 
9.96168 0.00884137 0.0488169 
0.00884137 9.96404 0.0404853 
0.0488169 0.0404853 9.94548 
9.96109 0.0125544 0.0415177 
0.0125544 9.96127 0.0292553 
0.0415177 0.0292553 9.94883 
9.96553 0.0133472 0.046049 
0.0133472 9.95709 0.0434993 
0.046049 0.0434993 9.94858 
9.95832 0.00216034 0.0358572 
0.00216034 9.95527 0.026134 
0.0358572 0.026134 9.95761 
9.85896 -0.0484703 -0.0134301 
-0.0484703 9.91973 0.107142 
-0.0134301 0.107142 9.87937 
9.90367 0.00308311 -0.0677335 
0.00308311 9.835 0.104355 
-0.0677335 0.104355 9.91939 
9.93112 0.00860372 -0.0782666 
0.00860372 9.81599 0.130765 
-0.0782666 0.130765 9.91094 
9.90258 0.0245862 -0.0808312 
0.0245862 9.82338 0.0892671 
-0.0808312 0.0892671 9.9321 
9.97053 -0.00423349 -0.0119329 
-0.00423349 9.98172 -0.0596887 
-0.0119329 -0.0596887 9.98543 
9.97966 -0.00518563 -0.00689226 
-0.00518563 9.99361 -0.0574052 
-0.00689226 -0.0574052 9.96441 
9.98606 0.0011913 -0.0138551 
0.0011913 9.97931 -0.0546362 
-0.0138551 -0.0546362 9.97232 
9.98747 0.00694869 -0.0167828 
0.00694869 9.97958 -0.0423 
-0.0167828 -0.0423 9.97064 
10.4295 0.185902 0.12201 
0.185902 10.335 -0.0340416 
0.12201 -0.0340416 10.3628 
10.1891 -0.175262 0.220768 
-0.175262 10.3371 0.0436119 
0.220768 0.0436119 10.6011 
10.1328 -0.219762 -0.0142848 
-0.219762 10.5322 0.0998775 
-0.0142848 0.0998775 10.4624 
10.246 0.0277285 0.0638427 
0.0277285 10.2947 0.0694866 
0.0638427 0.0694866 10.5865 
9.92206 -0.0688549 0.0496964 
-0.0688549 10.144 -0.236874 
0.0496964 -0.236874 9.59639 
9.78112 0.0242139 0.0418437 
0.0242139 9.89685 0.0658181 
0.0418437 0.0658181 9.98451 
9.82358 0.174737 0.291079 
0.174737 10.1311 -0.042185 
0.291079 -0.042185 9.7078 
10.0023 -0.259067 0.103602 
-0.259067 9.8755 -0.0369172 
0.103602 -0.0369172 9.78464 
9.96496 0.000252836 -0.0179495 
0.000252836 9.96475 0.0502833 
-0.0179495 0.0502833 9.96075 
9.96884 0.000295632 -0.0174688 
0.000295632 9.96729 0.050121 
-0.0174688 0.050121 9.95433 
9.96358 -0.000251111 -0.0223141 
-0.000251111 9.96867 0.0491682 
-0.0223141 0.0491682 9.95821 
9.96671 -0.00307328 -0.0219043 
-0.00307328 9.96703 0.051809 
-0.0219043 0.051809 9.95672 
9.93456 -0.0164177 0.0213453 
-0.0164177 9.91983 -0.0506435 
0.0213453 -0.0506435 9.89453 
9.95875 -0.0295044 0.0425888 
-0.0295044 9.89969 -0.0415636 
0.0425888 -0.0415636 9.89049 
9.9578 -0.00961554 0.0265542 
-0.00961554 9.91434 -0.0167482 
0.0265542 -0.0167482 9.87679 
9.93502 -0.0265433 0.0136365 
-0.0265433 9.93328 -0.0574151 
0.0136365 -0.0574151 9.88062 
9.84215 0.0237564 0.0182077 
0.0237564 9.98292 0.0646603 
0.0182077 0.0646603 9.95101 
9.95611 0.0937009 -0.0377178 
0.0937009 9.82104 0.186179 
-0.0377178 0.186179 9.99893 
9.90322 0.117353 0.0227056 
0.117353 9.8028 0.0745908 
0.0227056 0.0745908 10.0701 
9.831 0.0564283 0.0728515 
0.0564283 9.81792 0.092213 
0.0728515 0.092213 10.1272 
9.90092 -0.0292939 0.02121 
-0.0292939 9.99498 -0.121629 
0.02121 -0.121629 9.99786 
9.98483 0.0643195 -0.000288966 
0.0643195 9.92663 0.0423636 
-0.000288966 0.0423636 9.9823 
9.99973 0.0466772 0.00962922 
0.0466772 9.9099 0.028972 
0.00962922 0.028972 9.98413 
10.0051 0.0581742 0.0238701 
0.0581742 9.86638 0.00524921 
0.0238701 0.00524921 10.0223 
9.92897 -0.00808505 -0.0590661 
-0.00808505 9.99716 -0.0654525 
-0.0590661 -0.0654525 10.1762 
9.99366 0.00538827 0.0232812 
0.00538827 9.91522 0.065005 
0.0232812 0.065005 10.1934 
9.85603 0.0114363 -5.73895e-05 
0.0114363 9.98065 0.0744391 
-5.73895e-05 0.0744391 10.2656 
9.92365 -0.00643295 0.0225847 
-0.00643295 10.0161 -0.0103449 
0.0225847 -0.0103449 10.1626 
10.3737 -0.198846 0.0471098 
-0.198846 10.3319 0.0336456 
0.0471098 0.0336456 10.2846 
10.3205 -0.0051319 0.0604364 
-0.0051319 10.6184 0.105047 
0.0604364 0.105047 10.0513 
10.1318 0.098255 -0.0323509 
0.098255 10.0448 -0.126833 
-0.0323509 -0.126833 10.8136 
10.1464 -0.0706165 0.367937 
-0.0706165 10.465 0.00578633 
0.367937 0.00578633 10.3788 
9.87138 0.071989 0.0534458 
0.071989 9.89283 0.100407 
0.0534458 0.100407 9.94897 
9.89397 0.0415836 0.0431402 
0.0415836 9.86113 0.0875235 
0.0431402 0.0875235 9.9581 
9.83971 0.0631288 0.0771212 
0.0631288 9.89404 0.0798494 
0.0771212 0.0798494 9.97944 
9.92154 0.0853469 0.00803788 
0.0853469 9.86621 0.0533278 
0.00803788 0.0533278 9.92544 
9.87007 -0.00813009 -0.359561 
-0.00813009 9.92724 -0.134132 
-0.359561 -0.134132 9.8999 
9.95935 -0.0887597 0.0162242 
-0.0887597 9.86306 -0.212381 
0.0162242 -0.212381 9.8748 
10.0397 -0.141965 -0.396608 
-0.141965 10.107 0.148538 
-0.396608 0.148538 9.55047 
9.8045 0.0143489 -0.358936 
0.0143489 9.95675 0.0141771 
-0.358936 0.0141771 9.93597 
9.92084 -0.0130409 -0.0154845 
-0.0130409 9.90678 -0.0895619 
-0.0154845 -0.0895619 9.90474 
9.91361 -0.00993154 -0.00435943 
-0.00993154 9.9115 -0.0929605 
-0.00435943 -0.0929605 9.90726 
9.90773 0.00109448 -0.000640889 
0.00109448 9.9143 -0.0794808 
-0.000640889 -0.0794808 9.91034 
9.92715 0.00124099 -0.00972637 
0.00124099 9.9047 -0.0993784 
-0.00972637 -0.0993784 9.90052 
9.98259 -0.00802594 -0.010002 
-0.00802594 9.96688 -0.0186849 
-0.010002 -0.0186849 10.0039 
9.98223 0.00903787 -0.0193955 
0.00903787 9.98523 -0.0198723 
-0.0193955 -0.0198723 9.98587 
9.98514 0.00289295 -0.0143414 
0.00289295 9.98236 -0.0186901 
-0.0143414 -0.0186901 9.98582 
9.98748 0.00383585 -0.0160793 
0.00383585 9.98609 -0.0143575 
-0.0160793 -0.0143575 9.97975 
9.92866 0.00243129 0.0518344 
0.00243129 9.94002 -0.0476759 
0.0518344 -0.0476759 9.93741 
9.93145 -0.00905954 0.0516036 
-0.00905954 9.93403 -0.0402207 
0.0516036 -0.0402207 9.94061 
9.9263 0.000423103 0.0447614 
0.000423103 9.9422 -0.0612133 
0.0447614 -0.0612133 9.93759 
9.92884 -0.00506818 0.0472448 
-0.00506818 9.93788 -0.0456778 
0.0472448 -0.0456778 9.93937 
9.98103 0.00397209 0.00544341 
0.00397209 9.97529 -0.0538761 
0.00544341 -0.0538761 9.97347 
9.9683 -0.00562439 0.00422463 
-0.00562439 9.98 -0.0489014 
0.00422463 -0.0489014 9.9815 
9.97496 -0.00246078 0.00266898 
-0.00246078 9.98385 -0.0476827 
0.00266898 -0.0476827 9.97098 
9.97705 0.00162617 0.00825644 
0.00162617 9.98147 -0.0522699 
0.00825644 -0.0522699 9.97127 
9.97262 -0.000346566 0.0683704 
-0.000346566 9.9705 -0.0346781 
0.0683704 -0.0346781 9.97593 
9.97195 0.000556019 0.068074 
0.000556019 9.97524 -0.0333006 
0.068074 -0.0333006 9.97185 
9.97351 -0.0056521 0.0612312 
-0.0056521 9.96522 -0.0344621 
0.0612312 -0.0344621 9.98032 
9.97412 0.00129093 0.072827 
0.00129093 9.97453 -0.0347841 
0.072827 -0.0347841 9.97039 
9.55286 -0.213159 0.517794 
-0.213159 10.3546 1.6209 
0.517794 1.6209 7.80405 
9.89053 0.411243 -0.00689625 
0.411243 10.5145 -0.188403 
-0.00689625 -0.188403 7.30647 
9.18874 0.0864176 0.130873 
0.0864176 9.18817 0.628443 
0.130873 0.628443 9.33456 
9.57694 0.396173 0.235775 
0.396173 9.93352 0.678474 
0.235775 0.678474 8.20101 
9.956 0.0847705 0.364467 
0.0847705 9.73886 -0.528794 
0.364467 -0.528794 9.54632 
9.75978 0.0817005 0.0597059 
0.0817005 9.88667 -0.194681 
0.0597059 -0.194681 9.59473 
9.86853 0.100827 0.249958 
0.100827 9.58407 -0.349744 
0.249958 -0.349744 9.78858 
9.72361 0.151008 0.290555 
0.151008 9.55734 -0.307602 
0.290555 -0.307602 9.96023 
9.95034 0.000868999 -0.00947239 
0.000868999 9.96011 -0.0815101 
-0.00947239 -0.0815101 9.93759 
9.94945 0.0111121 0.00684877 
0.0111121 9.95257 -0.0737452 
0.00684877 -0.0737452 9.94602 
9.95319 0.00691434 0.0170453 
0.00691434 9.94541 -0.0824948 
0.0170453 -0.0824948 9.94943 
9.95493 0.00603699 0.00213276 
0.00603699 9.94881 -0.0774054 
0.00213276 -0.0774054 9.94429 
9.97951 0.000814827 -0.060248 
0.000814827 9.97255 0.00878855 
-0.060248 0.00878855 9.94388 
9.97833 -0.00182669 -0.0558967 
-0.00182669 9.96894 0.0053532 
-0.0558967 0.0053532 9.94867 
9.97289 -0.000542332 -0.0533919 
-0.000542332 9.96743 0.00857118 
-0.0533919 0.00857118 9.95562 
9.97669 -0.000534381 -0.051952 
-0.000534381 9.96612 0.00972625 
-0.051952 0.00972625 9.95313 
9.96021 0.0299244 -0.00421586 
0.0299244 9.90904 -0.0302098 
-0.00421586 -0.0302098 10.2065 
9.94622 0.0105879 -0.00232719 
0.0105879 9.91225 -0.0385304 
-0.00232719 -0.0385304 10.2173 
9.96348 0.0140203 -0.00903618 
0.0140203 9.92629 -0.0390556 
-0.00903618 -0.0390556 10.186 
9.95378 0.00240837 0.0184345 
0.00240837 9.92011 -0.0549935 
0.0184345 -0.0549935 10.2018 
9.91907 0.0127582 0.0116852 
0.0127582 9.92882 0.0267983 
0.0116852 0.0267983 9.96543 
9.90444 0.00972357 0.0195857 
0.00972357 9.91306 0.0249892 
0.0195857 0.0249892 9.99583 
9.92381 0.0103714 -0.00817155 
0.0103714 9.91223 0.0367977 
-0.00817155 0.0367977 9.97728 
9.92496 0.0205606 0.00601246 
0.0205606 9.91649 0.0336458 
0.00601246 0.0336458 9.97188 
10.3159 -0.0908772 -0.11744 
-0.0908772 10.2482 -0.0700202 
-0.11744 -0.0700202 9.65307 
9.68288 -0.0958451 0.0346584 
-0.0958451 9.51295 0.205646 
0.0346584 0.205646 11.0214 
10.1134 -0.00631561 -0.0525636 
-0.00631561 10.0122 -0.12325 
-0.0525636 -0.12325 10.0917 
10.1861 -0.35121 -0.155908 
-0.35121 9.72049 -0.665024 
-0.155908 -0.665024 10.3106 
9.95489 -0.00465267 0.00601508 
-0.00465267 9.95029 0.00476007 
0.00601508 0.00476007 9.97012 
9.96111 -0.00403355 0.0095175 
-0.00403355 9.94682 -0.0047392 
0.0095175 -0.0047392 9.96737 
9.95745 -0.0116172 -0.0033458 
-0.0116172 9.9495 -0.000174642 
-0.0033458 -0.000174642 9.96834 
9.94748 0.00150054 0.000176039 
0.00150054 9.95081 0.00064678 
0.000176039 0.00064678 9.977 
8.43642 -0.868637 1.16624 
-0.868637 6.70795 -0.296002 
1.16624 -0.296002 16.9136 
12.2998 -1.33356 0.987983 
-1.33356 4.88272 -0.236555 
0.987983 -0.236555 14.8755 
10.367 -3.61614 -1.88635 
-3.61614 14.408 -0.028242 
-1.88635 -0.028242 7.283 
11.0528 1.17693 0.922477 
1.17693 9.15571 1.89356 
0.922477 1.89356 11.8495 
9.96817 -0.0264439 -0.146052 
-0.0264439 10.094 -0.00637941 
-0.146052 -0.00637941 10.1655 
9.87176 0.0621403 0.0326685 
0.0621403 10.1492 0.0227809 
0.0326685 0.0227809 10.2068 
9.37295 0.362149 -0.0880429 
0.362149 10.3193 -0.0290481 
-0.0880429 -0.0290481 10.5355 
10.0338 0.0962579 0.117919 
0.0962579 9.97822 0.0507519 
0.117919 0.0507519 10.2157 
9.93157 0.0389581 0.216947 
0.0389581 9.92373 0.439941 
0.216947 0.439941 9.50262 
9.84362 -0.0818497 0.247556 
-0.0818497 10.0031 0.49111 
0.247556 0.49111 9.51122 
9.8127 0.152929 0.150773 
0.152929 10.258 0.248304 
0.150773 0.248304 9.28727 
9.92981 -0.198621 -0.0661788 
-0.198621 9.87021 0.0539955 
-0.0661788 0.0539955 9.55791 
9.91416 -0.0223157 -0.0920583 
-0.0223157 9.97047 -0.00266687 
-0.0920583 -0.00266687 9.80825 
9.9188 0.014592 -0.107041 
0.014592 10.0012 0.0331297 
-0.107041 0.0331297 9.77292 
9.82316 -0.0316414 -0.0724874 
-0.0316414 9.95542 -0.0318244 
-0.0724874 -0.0318244 9.9143 
9.93227 -0.044726 -0.0900688 
-0.044726 9.94639 -0.0264671 
-0.0900688 -0.0264671 9.81421 
9.89172 0.00667096 0.0489213 
0.00667096 9.88189 0.0419782 
0.0489213 0.0419782 9.97113 
9.88928 -0.00633745 0.0464629 
-0.00633745 9.90191 0.047937 
0.0464629 0.047937 9.95355 
9.89722 -0.00189753 0.0474152 
-0.00189753 9.88175 0.0375446 
0.0474152 0.0375446 9.96576 
9.89722 0.00190655 0.0496253 
0.00190655 9.88679 0.0351075 
0.0496253 0.0351075 9.96072 
9.7922 -0.0777418 -0.042807 
-0.0777418 9.84132 -0.00126586 
-0.042807 -0.00126586 10.1195 
9.84469 -0.10365 -0.117404 
-0.10365 9.90642 -0.0941733 
-0.117404 -0.0941733 10.0019 
9.93368 -0.00734138 -0.0382058 
-0.00734138 9.95462 -0.111568 
-0.0382058 -0.111568 9.86469 
9.88593 -0.0909754 -0.0791502 
-0.0909754 9.84974 -0.037128 
-0.0791502 -0.037128 10.0173 
10.258 0.199988 0.0589665 
0.199988 10.0136 0.112187 
0.0589665 0.112187 10.1464 
10.0365 -0.122405 0.145534 
-0.122405 10.3618 0.0389912 
0.145534 0.0389912 10.0198 
9.983 -0.0729428 -0.0295503 
-0.0729428 10.1745 -0.162447 
-0.0295503 -0.162447 10.2606 
10.2656 0.0448603 -0.076538 
0.0448603 9.98931 -0.155975 
-0.076538 -0.155975 10.1632 
9.97191 0.00152301 0.0447194 
0.00152301 9.97079 0.0521572 
0.0447194 0.0521572 9.98093 
9.97353 -0.00101615 0.0485011 
-0.00101615 9.97425 0.0517539 
0.0485011 0.0517539 9.97585 
9.97237 0.000142533 0.0458105 
0.000142533 9.97429 0.0493858 
0.0458105 0.0493858 9.97696 
9.97354 -0.000204181 0.0476935 
-0.000204181 9.97064 0.0521517 
0.0476935 0.0521517 9.97944 
9.8968 -0.0179748 0.046305 
-0.0179748 9.9159 0.034557 
0.046305 0.034557 9.98307 
9.8759 -0.0497574 -0.000558154 
-0.0497574 9.92624 0.0487859 
-0.000558154 0.0487859 9.99363 
9.90838 0.00494657 0.0120582 
0.00494657 9.91899 0.0354261 
0.0120582 0.0354261 9.9684 
9.88299 -0.0192595 0.0626081 
-0.0192595 9.94181 0.0374269 
0.0626081 0.0374269 9.97096 
9.94288 0.0443952 -0.0294413 
0.0443952 9.92146 -0.0448184 
-0.0294413 -0.0448184 9.97987 
9.92756 0.0321537 -0.0360306 
0.0321537 9.93607 -0.0558156 
-0.0360306 -0.0558156 9.98059 
9.93046 0.0342291 -0.022618 
0.0342291 9.94188 -0.00391724 
-0.022618 -0.00391724 9.97188 
9.93661 0.015909 -0.0184062 
0.015909 9.91675 -0.00357882 
-0.0184062 -0.00357882 9.99085 
9.96543 -0.00193544 -0.0249207 
-0.00193544 9.97254 -0.0573222 
-0.0249207 -0.0573222 9.94831 
9.96972 -0.000369323 -0.0197266 
-0.000369323 9.97145 -0.0584478 
-0.0197266 -0.0584478 9.94512 
9.96413 -0.000828502 -0.0227564 
-0.000828502 9.96548 -0.0561921 
-0.0227564 -0.0561921 9.95667 
9.9567 0.00472406 -0.0252115 
0.00472406 9.97004 -0.0447761 
-0.0252115 -0.0447761 9.95954 
9.93725 0.00256791 0.00630266 
0.00256791 9.91278 -0.00197386 
0.00630266 -0.00197386 10.1692 
9.94728 -2.73375e-05 0.00307534 
-2.73375e-05 9.90699 -0.00445277 
0.00307534 -0.00445277 10.165 
9.93804 0.000509831 0.00218091 
0.000509831 9.91874 0.00730069 
0.00218091 0.00730069 10.1625 
9.94078 0.00473327 0.0022173 
0.00473327 9.91561 0.00272259 
0.0022173 0.00272259 10.1629 
9.77657 0.51872 -2.70316 
0.51872 9.78407 0.130233 
-2.70316 0.130233 8.50728 
9.95326 0.121835 -0.29705 
0.121835 8.36337 -0.101562 
-0.29705 -0.101562 9.75128 
10.583 -1.03947 -0.87128 
-1.03947 9.17647 0.130091 
-0.87128 0.130091 8.30844 
10.3118 0.0765863 -0.559763 
0.0765863 10.8728 0.42796 
-0.559763 0.42796 6.88327 
9.91399 -0.0264135 -0.0195692 
-0.0264135 9.91804 -0.0216072 
-0.0195692 -0.0216072 9.90031 
9.96749 -0.0253072 -0.000706571 
-0.0253072 9.85125 -0.0760572 
-0.000706571 -0.0760572 9.91361 
9.94289 -0.103823 -0.0108542 
-0.103823 9.96154 -0.0222127 
-0.0108542 -0.0222127 9.82791 
9.92985 -0.0375952 -0.019989 
-0.0375952 9.90434 -0.0177272 
-0.019989 -0.0177272 9.89816 
10.0249 0.0801784 0.0459054 
0.0801784 9.96359 0.016961 
0.0459054 0.016961 10.0593 
9.99774 -0.035558 -0.0340571 
-0.035558 9.98366 0.0197957 
-0.0340571 0.0197957 10.0664 
10.0268 -0.0438823 0.0107159 
-0.0438823 10.0269 0.0267661 
0.0107159 0.0267661 9.99409 
10.0078 0.075464 -0.0726878 
0.075464 10.0264 -0.00740889 
-0.0726878 -0.00740889 10.0136 
9.87317 0.0920028 0.142304 
0.0920028 9.96167 -0.0341934 
0.142304 -0.0341934 10.0583 
9.90422 0.078699 0.144071 
0.078699 9.9645 -0.00489425 
0.144071 -0.00489425 10.0244 
9.80844 0.0274829 0.00027824 
0.0274829 9.923 0.0202396 
0.00027824 0.0202396 10.1617 
9.85723 0.015801 0.218177 
0.015801 10.0099 0.0439527 
0.218177 0.0439527 10.0259 
9.90642 0.00501066 -0.0128871 
0.00501066 9.84182 0.061994 
-0.0128871 0.061994 9.92765 
9.92529 -0.0251811 0.0189665 
-0.0251811 9.86444 0.116344 
0.0189665 0.116344 9.88616 
9.91903 0.0180363 0.0223459 
0.0180363 9.8184 0.0311436 
0.0223459 0.0311436 9.93846 
9.88873 -0.0126475 -0.0213578 
-0.0126475 9.81869 0.129604 
-0.0213578 0.129604 9.96847 
9.93638 -0.00814652 0.0193413 
-0.00814652 9.92687 0.0101005 
0.0193413 0.0101005 9.93769 
9.91567 -0.0172339 0.000637836 
-0.0172339 9.91716 -0.0197252 
0.000637836 -0.0197252 9.9681 
9.91302 -0.00566646 -0.00317316 
-0.00566646 9.92625 -0.0170365 
-0.00317316 -0.0170365 9.96167 
9.93512 -0.00540505 -0.00930935 
-0.00540505 9.92324 -0.0441578 
-0.00930935 -0.0441578 9.94258 
9.86249 0.0220136 0.0798194 
0.0220136 9.88569 -0.0262785 
0.0798194 -0.0262785 9.9271 
9.65376 0.0324119 0.274262 
0.0324119 10.0247 -0.0400805 
0.274262 -0.0400805 9.99679 
9.90466 -0.0916591 0.160056 
-0.0916591 9.90134 0.00979204 
0.160056 0.00979204 9.86928 
9.84982 -0.0878558 0.162912 
-0.0878558 9.87296 0.032045 
0.162912 0.032045 9.9525 
10.246 0.0989679 0.0985138 
0.0989679 10.2011 -0.0338624 
0.0985138 -0.0338624 10.1383 
10.1378 0.0686164 0.0139524 
0.0686164 10.083 0.0124431 
0.0139524 0.0124431 10.3646 
10.1337 -0.122903 0.121906 
-0.122903 10.1396 0.0488594 
0.121906 0.0488594 10.312 
10.134 -0.0759009 0.0168066 
-0.0759009 10.2062 0.0357068 
0.0168066 0.0357068 10.2451 
9.24056 0.102284 -0.984651 
0.102284 10.4469 -0.162964 
-0.984651 -0.162964 9.89613 
9.3018 0.105677 0.0445984 
0.105677 9.83232 -0.375705 
0.0445984 -0.375705 10.4494 
10.0004 0.140208 -0.53757 
0.140208 10.1059 -0.0163683 
-0.53757 -0.0163683 9.47723 
10.3259 0.427401 -0.489973 
0.427401 10.1606 0.529574 
-0.489973 0.529574 9.09705 
9.99864 0.0219446 0.0554159 
0.0219446 9.83867 0.0606427 
0.0554159 0.0606427 10.1397 
9.91511 -0.0753671 -0.00323145 
-0.0753671 9.91041 0.0103584 
-0.00323145 0.0103584 10.1515 
9.96193 0.0810533 0.0133585 
0.0810533 9.97683 0.0827601 
0.0133585 0.0827601 10.0382 
10.0337 0.0236005 0.0398355 
0.0236005 9.91885 0.0692954 
0.0398355 0.0692954 10.0245 
9.98489 -0.0269256 0.254171 
-0.0269256 9.71764 -0.0191341 
0.254171 -0.0191341 9.56457 
9.89842 0.239232 -0.283159 
0.239232 10.0959 0.218209 
-0.283159 0.218209 9.2728 
9.75384 -0.0174232 -0.329458 
-0.0174232 10.1234 0.330105 
-0.329458 0.330105 9.38985 
9.75362 0.212353 -0.346753 
0.212353 9.91723 -0.040026 
-0.346753 -0.040026 9.59626 
9.9508 -0.00744172 -0.00449317 
-0.00744172 9.94531 -0.00534848 
-0.00449317 -0.00534848 9.98193 
9.94986 -0.00436128 0.00249916 
-0.00436128 9.94224 0.00340399 
0.00249916 0.00340399 9.98594 
9.94991 -0.00207577 0.000971541 
-0.00207577 9.9454 -0.00271919 
0.000971541 -0.00271919 9.98273 
9.95176 -0.00152379 0.00173025 
-0.00152379 9.94593 1.73847e-05 
0.00173025 1.73847e-05 9.98036 
9.95622 -0.00242192 -0.0452135 
-0.00242192 9.95755 -0.0240707 
-0.0452135 -0.0240707 9.9419 
9.96277 -0.00987949 -0.0360598 
-0.00987949 9.954 -0.035755 
-0.0360598 -0.035755 9.9389 
9.9646 0.000219585 -0.0576086 
0.000219585 9.95865 -0.0280663 
-0.0576086 -0.0280663 9.93243 
9.95247 0.0102246 -0.0511338 
0.0102246 9.96077 -0.0294299 
-0.0511338 -0.0294299 9.94244 
9.96336 0.00461288 0.0212939 
0.00461288 9.96138 0.0209331 
0.0212939 0.0209331 9.97106 
9.97366 0.0102837 0.0144794 
0.0102837 9.9632 0.0214046 
0.0144794 0.0214046 9.95893 
9.96457 0.00622804 0.0203025 
0.00622804 9.96394 0.0200057 
0.0203025 0.0200057 9.96728 
9.96871 0.00952116 0.0190984 
0.00952116 9.96947 0.0163671 
0.0190984 0.0163671 9.95761 
9.94491 0.00703452 0.00402532 
0.00703452 9.94327 0.00169008 
0.00402532 0.00169008 9.97101 
9.94667 0.00513015 -0.00209513 
0.00513015 9.94338 -0.000285292 
-0.00209513 -0.000285292 9.96914 
9.9407 0.00822596 -0.00224118 
0.00822596 9.94265 9.94014e-05 
-0.00224118 9.94014e-05 9.97583 
9.93346 0.0111067 -0.00422422 
0.0111067 9.9358 -0.00231283 
-0.00422422 -0.00231283 9.98992 
9.98324 0.00564564 0.0221092 
0.00564564 9.96213 0.0156193 
0.0221092 0.0156193 9.98515 
9.97164 0.00500029 0.019251 
0.00500029 9.98211 0.0118973 
0.019251 0.0118973 9.97677 
9.97427 0.0023221 0.0224621 
0.0023221 9.97982 0.0163306 
0.0224621 0.0163306 9.97643 
9.99194 0.00508409 0.0103564 
0.00508409 9.96976 0.0126318 
0.0103564 0.0126318 9.96882 
9.98434 -0.00494852 -0.0123279 
-0.00494852 9.97679 0.0481447 
-0.0123279 0.0481447 9.9739 
9.98014 0.00194928 -0.0103274 
0.00194928 9.98639 0.0424131 
-0.0103274 0.0424131 9.96849 
9.96897 0.0039174 -0.0121318 
0.0039174 9.98202 0.0514003 
-0.0121318 0.0514003 9.98404 
9.98 -0.00384752 -0.0116318 
-0.00384752 9.9804 0.0438805 
-0.0116318 0.0438805 9.97463 
9.898 -0.0364188 0.0965175 
-0.0364188 9.92813 -0.0481356 
0.0965175 -0.0481356 9.93086 
9.88038 -0.0526761 0.0669652 
-0.0526761 9.94429 -0.0346426 
0.0669652 -0.0346426 9.93232 
9.8623 -0.0162159 0.0807788 
-0.0162159 9.94402 -0.0478812 
0.0807788 -0.0478812 9.95067 
9.88248 -0.0229825 0.0790305 
-0.0229825 9.93243 -0.0635304 
0.0790305 -0.0635304 9.94209 
9.94098 -0.00382701 0.0817083 
-0.00382701 9.94848 0.000412929 
0.0817083 0.000412929 9.94424 
9.95082 0.00178643 0.085484 
0.00178643 9.94465 0.00317086 
0.085484 0.00317086 9.93823 
9.93759 -0.00182762 0.0839747 
-0.00182762 9.94607 0.000838268 
0.0839747 0.000838268 9.95005 
9.94519 0.00208133 0.077377 
0.00208133 9.95031 0.00378408 
0.077377 0.00378408 9.93821 
9.45534 0.0412421 -0.76388 
0.0412421 9.55259 -0.197223 
-0.76388 -0.197223 9.41935 
10.0951 -0.0371865 -0.599542 
-0.0371865 9.96458 0.618547 
-0.599542 0.618547 8.36758 
9.17496 0.694736 -1.30236 
0.694736 9.76651 -0.507566 
-1.30236 -0.507566 9.4858 
9.30068 -0.279385 -0.290832 
-0.279385 9.43799 -0.490803 
-0.290832 -0.490803 9.6886 
10.0975 -0.00944345 -0.0106475 
-0.00944345 10.0289 -0.0239618 
-0.0106475 -0.0239618 10.1089 
10.0681 -0.0205524 0.0137664 
-0.0205524 10.0021 -0.00325157 
0.0137664 -0.00325157 10.165 
10.1005 0.0140066 -0.0194673 
0.0140066 10.1024 0.00160708 
-0.0194673 0.00160708 10.0324 
10.0965 -0.0203714 -0.0425458 
-0.0203714 10.0293 -0.060518 
-0.0425458 -0.060518 10.1094 
10.4329 -0.0788825 -0.0705476 
-0.0788825 9.76132 0.0655267 
-0.0705476 0.0655267 10.1561 
9.96742 0.159479 0.222414 
0.159479 10.1143 -0.060637 
0.222414 -0.060637 10.2685 
9.67205 0.272665 -0.179216 
0.272665 10.0259 -0.0732229 
-0.179216 -0.0732229 10.6523 
10.186 0.101011 0.114863 
0.101011 9.75194 0.151602 
0.114863 0.151602 10.4123 
10.0678 0.200089 0.09246 
0.200089 9.94703 -0.0394178 
0.09246 -0.0394178 10.2686 
10.0702 -0.0527043 0.072318 
-0.0527043 10.1201 -0.00818704 
0.072318 -0.00818704 10.0932 
10.0338 0.143673 -0.0360608 
0.143673 10.0852 -0.00335913 
-0.0360608 -0.00335913 10.1645 
10.016 0.00418188 0.0621937 
0.00418188 10.0503 0.0606324 
0.0621937 0.0606324 10.217 
10.1233 -0.00460535 -0.0179806 
-0.00460535 10.1779 0.0499133 
-0.0179806 0.0499133 10.1889 
10.069 0.00012672 -0.0291525 
0.00012672 10.1351 0.0106534 
-0.0291525 0.0106534 10.2861 
10.178 0.0633472 -0.0179717 
0.0633472 10.0552 0.0637757 
-0.0179717 0.0637757 10.2569 
10.1771 0.0158233 -0.0502205 
0.0158233 10.0816 0.00997995 
-0.0502205 0.00997995 10.2315 
9.92216 0.0299513 -0.00776045 
0.0299513 9.75427 -0.0723159 
-0.00776045 -0.0723159 9.88819 
9.94506 0.00568998 -0.0239751 
0.00568998 9.71773 -0.132407 
-0.0239751 -0.132407 9.90182 
9.85506 0.00391417 -0.00201785 
0.00391417 9.6706 -0.0859549 
-0.00201785 -0.0859549 10.039 
9.89326 0.00367803 -0.00279334 
0.00367803 9.7353 -0.109135 
-0.00279334 -0.109135 9.93606 
9.93286 0.0228341 0.0284277 
0.0228341 9.95005 0.0167384 
0.0284277 0.0167384 9.9306 
9.93909 0.0133848 0.024875 
0.0133848 9.93968 0.0236747 
0.024875 0.0236747 9.93474 
9.95232 0.0364669 0.0378481 
0.0364669 9.94552 0.0123629 
0.0378481 0.0123629 9.91567 
9.93919 0.0285064 0.0538529 
0.0285064 9.95813 0.0193914 
0.0538529 0.0193914 9.91619 
10.018 -0.48892 0.143229 
-0.48892 9.43712 -0.751786 
0.143229 -0.751786 10.9736 
9.98083 -0.738954 -0.524789 
-0.738954 10.1473 -0.631685 
-0.524789 -0.631685 10.3005 
10.3921 -0.221868 -0.174261 
-0.221868 9.64975 -0.26933 
-0.174261 -0.26933 10.3868 
10.1164 -0.229177 -0.073316 
-0.229177 9.65744 -0.288965 
-0.073316 -0.288965 10.6549 
9.9677 -0.00171473 0.00526378 
-0.00171473 9.96442 0.0261684 
0.00526378 0.0261684 9.98275 
9.98422 -0.0040148 -0.0104087 
-0.0040148 9.98691 0.0116807 
-0.0104087 0.0116807 9.94375 
9.96627 -0.00905868 -0.00794454 
-0.00905868 9.98019 0.0179757 
-0.00794454 0.0179757 9.96841 
9.96971 -0.00408959 -0.00990011 
-0.00408959 9.96954 0.0217539 
-0.00990011 0.0217539 9.97562 
9.97646 -0.00125075 0.0480738 
-0.00125075 9.96817 -0.0286632 
0.0480738 -0.0286632 9.96616 
9.97279 -0.00261007 0.0460199 
-0.00261007 9.97072 -0.0247314 
0.0460199 -0.0247314 9.96728 
9.97009 -0.00216024 0.044272 
-0.00216024 9.96849 -0.0294029 
0.044272 -0.0294029 9.97222 
9.97267 -0.00311468 0.0426128 
-0.00311468 9.96764 -0.0302648 
0.0426128 -0.0302648 9.97049 
9.94942 -0.00299475 0.00901723 
-0.00299475 9.94411 0.0759888 
0.00901723 0.0759888 9.93374 
9.94475 -0.00238126 0.00759423 
-0.00238126 9.93902 0.0765618 
0.00759423 0.0765618 9.94349 
9.95217 -0.00388208 0.00753328 
-0.00388208 9.94415 0.0779474 
0.00753328 0.0779474 9.93095 
9.94856 -0.00200255 0.0137314 
-0.00200255 9.94914 0.07387 
0.0137314 0.07387 9.92957 
9.94628 0.0011954 -0.0641313 
0.0011954 9.94111 -0.0415784 
-0.0641313 -0.0415784 9.94737 
9.94746 -0.00749808 -0.0599705 
-0.00749808 9.93694 -0.03232 
-0.0599705 -0.03232 9.95035 
9.95036 0.00222255 -0.0618599 
0.00222255 9.93961 -0.0398416 
-0.0618599 -0.0398416 9.94479 
9.95329 -0.00394244 -0.0608445 
-0.00394244 9.94206 -0.039754 
-0.0608445 -0.039754 9.9394 
9.86155 0.037643 0.122143 
0.037643 9.87215 0.00129218 
0.122143 0.00129218 9.91002 
9.83541 -0.00734867 0.118848 
-0.00734867 9.90945 0.0162471 
0.118848 0.0162471 9.89886 
9.89371 -0.00770789 0.122666 
-0.00770789 9.87457 0.0266327 
0.122666 0.0266327 9.87543 
9.81391 -0.0328662 0.141971 
-0.0328662 9.9255 0.01762 
0.141971 0.01762 9.9043 
11.5123 0.463828 -0.158756 
0.463828 11.3438 0.0159058 
-0.158756 0.0159058 11.553 
11.7676 0.0761351 -0.120972 
0.0761351 11.5733 0.051867 
-0.120972 0.051867 11.0682 
10.0876 0.24985 -0.267515 
0.24985 11.085 0.271248 
-0.267515 0.271248 13.2365 
11.713 0.0792055 -0.744517 
0.0792055 11.2866 -0.790149 
-0.744517 -0.790149 11.4093 
10.1894 -0.0157513 0.00209664 
-0.0157513 10.1423 0.0242883 
0.00209664 0.0242883 10.1225 
10.0876 -0.00803898 0.0144923 
-0.00803898 10.0813 -0.0336167 
0.0144923 -0.0336167 10.2853 
10.1791 0.0121584 0.0252423 
0.0121584 10.1573 0.0248871 
0.0252423 0.0248871 10.1178 
10.1807 0.0154178 -0.0520369 
0.0154178 10.204 -0.0249995 
-0.0520369 -0.0249995 10.0695 
12.2398 0.368143 -0.568318 
0.368143 11.5515 0.0921411 
-0.568318 0.0921411 8.96255 
11.597 0.287231 0.00933081 
0.287231 9.13535 0.915918 
0.00933081 0.915918 12.0214 
10.5448 0.144491 -0.260977 
0.144491 9.78679 0.794523 
-0.260977 0.794523 12.4222 
10.9841 0.10015 0.0760691 
0.10015 9.91653 -0.163034 
0.0760691 -0.163034 11.8532 
9.94336 -0.0609579 0.0206311 
-0.0609579 9.93011 -0.0228999 
0.0206311 -0.0228999 9.9342 
9.93352 -0.0268738 0.0392657 
-0.0268738 9.91871 -0.0360901 
0.0392657 -0.0360901 9.95544 
9.93346 -0.0437395 0.0664798 
-0.0437395 9.95188 -0.0534404 
0.0664798 -0.0534404 9.92232 
9.9523 -0.0602177 0.0690903 
-0.0602177 9.93158 -0.0657796 
0.0690903 -0.0657796 9.92379 
9.93247 0.00468666 0.0687569 
0.00468666 9.90012 -0.047685 
0.0687569 -0.047685 9.90876 
9.94124 -0.00069541 0.0624816 
-0.00069541 9.92511 -0.0691437 
0.0624816 -0.0691437 9.875 
9.88896 -0.0233478 0.03472 
-0.0233478 9.93454 0.00345644 
0.03472 0.00345644 9.91784 
9.93549 0.00321473 0.0701323 
0.00321473 9.90836 -0.0406367 
0.0701323 -0.0406367 9.89749 
9.942 0.00141325 -0.0475456 
0.00141325 9.9455 0.0566216 
-0.0475456 0.0566216 9.94984 
9.95015 0.0012925 -0.0438384 
0.0012925 9.94804 0.0546204 
-0.0438384 0.0546204 9.93915 
9.93857 -0.00168811 -0.0393416 
-0.00168811 9.93919 0.0569757 
-0.0393416 0.0569757 9.95958 
9.94296 -0.000310889 -0.0498086 
-0.000310889 9.94109 0.0550424 
-0.0498086 0.0550424 9.95329 
9.98086 0.00221122 0.00837271 
0.00221122 9.97742 0.0061426 
0.00837271 0.0061426 9.98761 
9.97498 0.00573179 0.0103071 
0.00573179 9.98041 0.00501481 
0.0103071 0.00501481 9.99049 
9.9824 0.00183837 0.00885923 
0.00183837 9.9779 0.00556697 
0.00885923 0.00556697 9.98558 
9.98094 0.00355743 0.0103313 
0.00355743 9.97877 0.00920714 
0.0103313 0.00920714 9.98616 
9.89545 0.260208 -0.12768 
0.260208 9.82109 -0.408949 
-0.12768 -0.408949 9.90059 
10.0424 -0.318049 -0.0446082 
-0.318049 9.37507 -0.253398 
-0.0446082 -0.253398 10.1997 
9.90209 -0.280151 -0.00974164 
-0.280151 9.46626 -0.198768 
-0.00974164 -0.198768 10.2488 
9.83015 -0.386809 -0.18924 
-0.386809 9.66874 -0.066424 
-0.18924 -0.066424 10.1182 
9.8949 -0.0975728 -0.00192096 
-0.0975728 9.84757 0.000860779 
-0.00192096 0.000860779 10.02 
9.91859 0.0236585 -0.00551372 
0.0236585 9.93282 0.0487438 
-0.00551372 0.0487438 9.91106 
9.89409 0.0103126 0.00938284 
0.0103126 9.9293 0.0481304 
0.00938284 0.0481304 9.93908 
9.93629 -0.025475 0.0843102 
-0.025475 9.84174 0.0693792 
0.0843102 0.0693792 9.98444 
10.1532 -0.0267904 0.00530691 
-0.0267904 10.205 -0.0111612 
0.00530691 -0.0111612 10.4347 
10.1243 0.0993662 0.00260979 
0.0993662 10.2347 -0.0220562 
0.00260979 -0.0220562 10.4338 
10.4132 -0.0493533 0.0634361 
-0.0493533 10.2819 0.101417 
0.0634361 0.101417 10.0977 
10.1238 -0.124922 0.15181 
-0.124922 10.4548 -0.0741955 
0.15181 -0.0741955 10.2142 
10.0739 0.0877191 -0.122454 
0.0877191 9.96264 -0.0883517 
-0.122454 -0.0883517 9.60192 
9.93326 -0.0579937 -0.0829085 
-0.0579937 9.93113 0.065387 
-0.0829085 0.065387 9.77402 
9.87273 -0.0462116 -0.112966 
-0.0462116 9.98443 -0.00187592 
-0.112966 -0.00187592 9.78125 
9.9301 0.0505108 -0.0150028 
0.0505108 9.85022 0.0331393 
-0.0150028 0.0331393 9.8581 
9.97139 0.00694406 -0.0217166 
0.00694406 9.96706 -0.0193342 
-0.0217166 -0.0193342 9.97208 
9.975 0.00162953 -0.022131 
0.00162953 9.96419 -0.0175905 
-0.022131 -0.0175905 9.97134 
9.95785 0.00652305 -0.012015 
0.00652305 9.97274 -0.0372403 
-0.012015 -0.0372403 9.97994 
9.98299 0.0151653 -0.030968 
0.0151653 9.98975 -0.0139499 
-0.030968 -0.0139499 9.93778 
9.96336 -0.0478132 0.000999077 
-0.0478132 9.97877 -0.129914 
0.000999077 -0.129914 9.85983 
9.99249 -0.0366065 0.0354879 
-0.0366065 10.0336 -0.0799037 
0.0354879 -0.0799037 9.77592 
9.98876 -0.027596 -0.00257728 
-0.027596 9.92892 -0.125404 
-0.00257728 -0.125404 9.88429 
9.94776 0.0114474 -0.0191196 
0.0114474 9.97069 -0.179489 
-0.0191196 -0.179489 9.88351 
9.92926 -0.0573667 -0.0334118 
-0.0573667 9.89923 -0.0124598 
-0.0334118 -0.0124598 9.95719 
9.90232 -0.0307553 -0.00145131 
-0.0307553 9.92443 0.0308902 
-0.00145131 0.0308902 9.95894 
9.91632 -0.0156993 0.0201772 
-0.0156993 9.90956 0.0135046 
0.0201772 0.0135046 9.9598 
9.92486 -0.0293234 -0.0279236 
-0.0293234 9.89446 0.0120173 
-0.0279236 0.0120173 9.96637 
9.87794 0.0480045 0.135359 
0.0480045 9.92904 -0.0681063 
0.135359 -0.0681063 9.85984 
9.91306 0.0460588 0.130653 
0.0460588 9.91579 -0.0900999 
0.130653 -0.0900999 9.83797 
9.85926 0.0664115 0.113314 
0.0664115 9.85973 -0.0673516 
0.113314 -0.0673516 9.94784 
9.8257 0.0490492 0.12408 
0.0490492 9.95409 -0.0604747 
0.12408 -0.0604747 9.88704 
10.9679 -0.388203 0.115298 
-0.388203 11.8319 0.304232 
0.115298 0.304232 9.04087 
9.3018 0.493744 -0.551151 
0.493744 10.9637 -0.0295529 
-0.551151 -0.0295529 11.5752 
10.1596 0.376817 -0.167799 
0.376817 9.81136 -0.530447 
-0.167799 -0.530447 11.8697 
10.1478 0.20783 -0.987016 
0.20783 9.87564 1.42213 
-0.987016 1.42213 11.8172 
9.92106 -0.006164 -0.0186787 
-0.006164 9.9044 -0.0818412 
-0.0186787 -0.0818412 9.9447 
9.92524 -0.00178508 -0.00746757 
-0.00178508 9.92827 -0.0863872 
-0.00746757 -0.0863872 9.91665 
9.9318 -0.00034171 -0.0144427 
-0.00034171 9.93523 -0.091475 
-0.0144427 -0.091475 9.90313 
9.92712 0.00243169 -0.00211883 
0.00243169 9.93159 -0.0745708 
-0.00211883 -0.0745708 9.91146 
9.96956 0.00466369 0.000428294 
0.00466369 9.96629 -0.00643683 
0.000428294 -0.00643683 9.97813 
9.9626 0.00150423 -0.0115954 
0.00150423 9.95555 0.000186638 
-0.0115954 0.000186638 9.99582 
9.96981 0.00403403 0.00163471 
0.00403403 9.95921 -0.00263066 
0.00163471 -0.00263066 9.98496 
9.96675 0.00276549 0.00378475 
0.00276549 9.96721 -0.00324908 
0.00378475 -0.00324908 9.98001 
9.84792 0.280053 0.132934 
0.280053 10.2481 -0.318406 
0.132934 -0.318406 10.6621 
10.0573 0.00950317 0.146042 
0.00950317 9.8458 -0.458382 
0.146042 -0.458382 10.855 
10.2415 -0.24832 0.517998 
-0.24832 9.40361 -0.290056 
0.517998 -0.290056 11.113 
10.339 -0.328674 -0.140621 
-0.328674 9.78069 -0.675464 
-0.140621 -0.675464 10.6384 
9.91282 0.00126069 -0.0605355 
0.00126069 9.89506 -0.0571389 
-0.0605355 -0.0571389 9.92786 
9.88966 0.0256084 -0.0480062 
0.0256084 9.93159 -0.0564771 
-0.0480062 -0.0564771 9.9145 
9.9255 -0.00483581 -0.0346522 
-0.00483581 9.91736 -0.0720471 
-0.0346522 -0.0720471 9.89289 
9.90246 0.0271026 -0.054888 
0.0271026 9.90655 -0.03292 
-0.054888 -0.03292 9.92674 
10.0645 -0.0286588 0.0449771 
-0.0286588 10.0448 0.372792 
0.0449771 0.372792 11.609 
10.8422 -0.0488859 -0.0708844 
-0.0488859 10.6835 -0.0772973 
-0.0708844 -0.0772973 10.1925 
10.6913 -0.042633 0.0415018 
-0.042633 10.662 -0.165223 
0.0415018 -0.165223 10.3649 
10.7664 0.217513 0.823481 
0.217513 10.7874 -0.133752 
0.823481 -0.133752 10.1645 
9.97522 -0.0357659 -0.0347307 
-0.0357659 9.46686 0.326071 
-0.0347307 0.326071 9.85495 
10.0344 -0.0694578 -0.0832609 
-0.0694578 9.50207 0.221625 
-0.0832609 0.221625 9.76061 
9.812 -0.29065 -0.0035106 
-0.29065 9.853 0.298263 
-0.0035106 0.298263 9.63203 
9.94097 0.0146229 -0.116127 
0.0146229 9.50304 0.256785 
-0.116127 0.256785 9.85303 
9.95514 0.0119958 -0.0307355 
0.0119958 9.96271 0.0281839 
-0.0307355 0.0281839 9.90481 
9.94787 0.0195447 -0.0213015 
0.0195447 9.95654 0.0190375 
-0.0213015 0.0190375 9.91825 
9.95797 0.0198684 -0.0145608 
0.0198684 9.97038 0.0182106 
-0.0145608 0.0182106 9.89432 
9.94246 0.0392467 -0.0235719 
0.0392467 9.94082 0.00380177 
-0.0235719 0.00380177 9.93939 
9.97463 0.000461283 0.0029415 
0.000461283 9.96973 0.000221749 
0.0029415 0.000221749 10.0022 
9.9745 0.00124047 -0.00164884 
0.00124047 9.96981 0.00144562 
-0.00164884 0.00144562 10.0022 
9.97189 0.00367843 -0.00141596 
0.00367843 9.97375 0.00245353 
-0.00141596 0.00245353 10.0009 
9.97372 0.00068209 -0.00445967 
0.00068209 9.97807 0.00584417 
-0.00445967 0.00584417 9.99475 
9.88597 -0.198548 -0.0811168 
-0.198548 9.84265 -0.331016 
-0.0811168 -0.331016 9.89052 
9.81012 -0.208767 -0.0510517 
-0.208767 9.89514 -0.322839 
-0.0510517 -0.322839 9.91388 
9.75373 -0.0491381 0.0597019 
-0.0491381 9.84938 -0.47968 
0.0597019 -0.47968 10.016 
9.86744 -0.178629 -0.0169655 
-0.178629 9.78888 -0.282163 
-0.0169655 -0.282163 9.96283 
11.4056 0.910561 0.207517 
0.910561 11.4203 1.05808 
0.207517 1.05808 8.67975 
10.9272 0.00107218 0.0459506 
0.00107218 9.48453 0.188733 
0.0459506 0.188733 11.0939 
9.31835 -0.227139 -0.544446 
-0.227139 9.31767 -1.02478 
-0.544446 -1.02478 12.8696 
10.7619 -0.932466 1.29311 
-0.932466 8.45509 0.83821 
1.29311 0.83821 12.2886 
10.1223 0.0644223 0.0414134 
0.0644223 9.95311 -0.080984 
0.0414134 -0.080984 10.1151 
10.039 -0.409366 -0.0253539 
-0.409366 9.64597 0.0953413 
-0.0253539 0.0953413 10.5056 
10.0209 0.038794 0.142402 
0.038794 9.9676 0.213868 
0.142402 0.213868 10.202 
10.1537 -0.131899 -0.0395654 
-0.131899 9.84855 0.157321 
-0.0395654 0.157321 10.1883 
9.94428 0.00429797 0.00623854 
0.00429797 9.93113 -0.0830297 
0.00623854 -0.0830297 9.93778 
9.93372 -0.00393824 0.00347212 
-0.00393824 9.96487 -0.0907017 
0.00347212 -0.0907017 9.9146 
9.94265 0.0019727 0.0021488 
0.0019727 9.92138 -0.0896211 
0.0021488 -0.0896211 9.94915 
9.9468 -0.00538181 0.00700405 
-0.00538181 9.93353 -0.0654903 
0.00700405 -0.0654903 9.93285 
9.92515 -0.000684685 -0.0455261 
-0.000684685 9.92719 0.0594671 
-0.0455261 0.0594671 9.94973 
9.92405 0.00854735 -0.0450786 
0.00854735 9.93935 0.0594337 
-0.0450786 0.0594337 9.93867 
9.92334 0.00432428 -0.0490335 
0.00432428 9.93634 0.0604396 
-0.0490335 0.0604396 9.94238 
9.92874 0.00891709 -0.0452498 
0.00891709 9.934 0.0526433 
-0.0452498 0.0526433 9.93933 
9.87309 0.00488459 -0.0596235 
0.00488459 9.92627 -0.0123481 
-0.0596235 -0.0123481 10.0836 
9.90506 0.0171194 -0.0502555 
0.0171194 9.8849 -0.0047362 
-0.0502555 -0.0047362 10.093 
9.88695 -0.0125694 -0.00591467 
-0.0125694 9.91827 -0.0124075 
-0.00591467 -0.0124075 10.0778 
9.92938 0.0198889 -0.0554593 
0.0198889 9.89061 -0.0178973 
-0.0554593 -0.0178973 10.063 
9.96846 0.038549 -0.0618783 
0.038549 9.86924 -0.0962469 
-0.0618783 -0.0962469 9.9331 
9.88804 -0.0150954 -0.0429594 
-0.0150954 9.95014 -0.0465262 
-0.0429594 -0.0465262 9.93262 
9.88178 0.0256812 -0.0711902 
0.0256812 9.90173 -0.0140241 
-0.0711902 -0.0140241 9.9873 
9.96439 0.00251877 -0.0184748 
0.00251877 9.92098 -0.0580515 
-0.0184748 -0.0580515 9.88544 
9.82823 0.0940126 0.227356 
0.0940126 9.86775 0.0257677 
0.227356 0.0257677 9.9179 
9.64997 0.0259775 0.361013 
0.0259775 9.88415 -0.00536263 
0.361013 -0.00536263 10.0798 
9.56867 -0.0290581 0.222875 
-0.0290581 9.86574 0.0284409 
0.222875 0.0284409 10.1795 
9.47961 0.0059624 0.172115 
0.0059624 9.79932 0.00364046 
0.172115 0.00364046 10.335 
9.92097 -0.00919557 -0.0433641 
-0.00919557 9.89653 -0.0632149 
-0.0433641 -0.0632149 9.96012 
9.91274 0.00525066 -0.0398749 
0.00525066 9.95452 -0.0546431 
-0.0398749 -0.0546431 9.91037 
9.91122 0.00643298 -0.037129 
0.00643298 9.93723 -0.0556555 
-0.037129 -0.0556555 9.92919 
9.91583 -0.00958139 -0.0544884 
-0.00958139 9.92149 -0.0278552 
-0.0544884 -0.0278552 9.94031 
9.21621 -0.10993 -0.8552 
-0.10993 10.3769 -0.976335 
-0.8552 -0.976335 7.61281 
11.0398 -0.209472 -0.119295 
-0.209472 6.83058 -1.37137 
-0.119295 -1.37137 9.33553 
8.45512 -0.382073 -0.953363 
-0.382073 11.0371 -1.14517 
-0.953363 -1.14517 7.71368 
7.51834 -0.25522 -0.371557 
-0.25522 11.9492 1.35089 
-0.371557 1.35089 7.73834 
9.83368 -0.50325 0.0884623 
-0.50325 10.021 -0.234999 
0.0884623 -0.234999 8.94755 
9.7403 -0.153392 -0.0963502 
-0.153392 10.028 -0.121006 
-0.0963502 -0.121006 9.03388 
9.84696 -0.0966941 -0.125788 
-0.0966941 9.91301 0.0381674 
-0.125788 0.0381674 9.04224 
9.52231 0.104468 -0.0277094 
0.104468 10.0022 -0.0672477 
-0.0277094 -0.0672477 9.2777 
7.23501 -1.78423 -0.701425 
-1.78423 11.0011 0.593954 
-0.701425 0.593954 5.77349 
8.48753 3.16829 -2.44143 
3.16829 7.08552 0.494723 
-2.44143 0.494723 8.43655 
9.59792 -0.128979 -0.92346 
-0.128979 10.4653 0.863896 
-0.92346 0.863896 3.94641 
8.25345 -2.20442 0.207909 
-2.20442 10.2428 -2.28243 
0.207909 -2.28243 5.51329 
9.57846 -0.121362 0.0299501 
-0.121362 9.34666 -0.693225 
0.0299501 -0.693225 9.63616 
9.51873 0.176946 8.50845e-05 
0.176946 9.46987 -0.84289 
8.50845e-05 -0.84289 9.57268 
9.53166 -0.00667031 0.0683309 
-0.00667031 9.38876 -0.560482 
0.0683309 -0.560482 9.64086 
9.57096 -0.019831 0.058814 
-0.019831 9.20596 -0.366208 
0.058814 -0.366208 9.78436 
10.1001 -0.02083 -0.0125266 
-0.02083 10.0718 -0.0138209 
-0.0125266 -0.0138209 10.1148 
10.0784 -0.0173399 -0.0227611 
-0.0173399 10.0576 -0.00697606 
-0.0227611 -0.00697606 10.1506 
10.0548 0.0155608 0.0085172 
0.0155608 10.0829 -0.00719375 
0.0085172 -0.00719375 10.1489 
10.0687 0.0193732 0.00929499 
0.0193732 10.0919 0.0231265 
0.00929499 0.0231265 10.1261 
10.1428 -0.0215179 -0.191638 
-0.0215179 10.351 -0.0187817 
-0.191638 -0.0187817 10.0158 
10.0714 0.128754 -0.149894 
0.128754 10.2196 -0.0475659 
-0.149894 -0.0475659 10.2186 
10.0986 -0.0568757 0.0715111 
-0.0568757 9.72854 0.0368975 
0.0715111 0.0368975 10.6825 
9.79729 -0.0747218 -0.323379 
-0.0747218 10.1937 -0.0112896 
-0.323379 -0.0112896 10.5187 
9.89896 -0.00830423 0.0137005 
-0.00830423 9.9172 -0.0835812 
0.0137005 -0.0835812 9.91528 
9.91583 0.0134161 0.0311871 
0.0134161 9.90151 -0.0811152 
0.0311871 -0.0811152 9.91409 
9.91781 0.00326335 0.0155502 
0.00326335 9.91587 -0.0862437 
0.0155502 -0.0862437 9.89776 
9.92223 0.00663804 0.0174414 
0.00663804 9.9015 -0.0841958 
0.0174414 -0.0841958 9.9077 
9.96885 -0.000925543 -0.0374757 
-0.000925543 9.97152 -0.0548914 
-0.0374757 -0.0548914 9.96743 
9.96462 8.16376e-05 -0.0414448 
8.16376e-05 9.96777 -0.0596267 
-0.0414448 -0.0596267 9.97542 
9.96549 0.0031473 -0.0383326 
0.0031473 9.96771 -0.0633116 
-0.0383326 -0.0633116 9.97461 
9.97077 -0.00571514 -0.0421661 
-0.00571514 9.97166 -0.0593221 
-0.0421661 -0.0593221 9.96538 
9.95868 0.0441723 -0.102478 
0.0441723 9.94988 0.0225012 
-0.102478 0.0225012 9.93085 
9.91691 -0.0270934 -0.0584487 
-0.0270934 9.96583 0.0612419 
-0.0584487 0.0612419 9.95667 
9.86837 -0.0572206 -0.124085 
-0.0572206 10.0125 0.0615505 
-0.124085 0.0615505 9.9585 
9.94376 -0.0220367 -0.0867897 
-0.0220367 10.0386 -0.041295 
-0.0867897 -0.041295 9.85705 
9.80084 -2.55812 0.386421 
-2.55812 8.39733 -1.63617 
0.386421 -1.63617 12.4698 
10.2914 1.23282 0.705667 
1.23282 10.4461 -0.3068 
0.705667 -0.3068 9.93044 
10.5485 -0.431016 0.0296329 
-0.431016 9.64606 -1.64833 
0.0296329 -1.64833 10.4734 
10.3647 -0.666834 -0.72987 
-0.666834 10.3783 -1.4418 
-0.72987 -1.4418 9.92499 
9.81929 0.028549 -0.0498661 
0.028549 9.94506 0.0385466 
-0.0498661 0.0385466 9.94172 
9.90655 0.0209786 -0.0462948 
0.0209786 9.89605 0.117824 
-0.0462948 0.117824 9.90347 
9.93143 0.0474445 -0.0559507 
0.0474445 9.82011 0.159244 
-0.0559507 0.159244 9.95453 
9.90096 0.0021284 -0.0490075 
0.0021284 9.90039 0.116724 
-0.0490075 0.116724 9.90472 
9.96559 0.00135265 0.0328431 
0.00135265 9.9705 -0.041621 
0.0328431 -0.041621 9.9772 
9.97224 0.000402576 0.0283549 
0.000402576 9.97034 -0.0410596 
0.0283549 -0.0410596 9.97071 
9.97412 0.00284483 0.0258651 
0.00284483 9.97937 -0.038797 
0.0258651 -0.038797 9.9598 
9.97002 0.00110286 0.0317911 
0.00110286 9.97184 -0.042458 
0.0317911 -0.042458 9.97143 
10.3424 0.342478 0.584947 
0.342478 10.3353 0.169593 
0.584947 0.169593 10.5457 
10.0157 0.464812 -0.120232 
0.464812 10.1633 0.0473558 
-0.120232 0.0473558 11.0443 
9.64202 0.347874 -0.0356943 
0.347874 10.0195 0.343215 
-0.0356943 0.343215 11.5617 
10.6589 0.638452 -1.04476 
0.638452 9.64161 -0.156851 
-1.04476 -0.156851 10.9228 
9.98246 0.00292517 0.0340099 
0.00292517 9.97452 0.0240997 
0.0340099 0.0240997 9.98712 
9.98814 0.00266098 0.03054 
0.00266098 9.97554 0.0363423 
0.03054 0.0363423 9.98041 
9.98587 -0.000530953 0.0259753 
-0.000530953 9.97382 0.0371448 
0.0259753 0.0371448 9.98441 
9.98717 0.00533353 0.0339902 
0.00533353 9.97491 0.022308 
0.0339902 0.022308 9.98202 
10.0658 0.0726428 -0.0892775 
0.0726428 9.61733 0.0874915 
-0.0892775 0.0874915 10.348 
10.0766 -0.0223525 0.15785 
-0.0223525 9.73671 0.0153417 
0.15785 0.0153417 10.2178 
9.75056 0.24541 -0.0927152 
0.24541 10.1862 0.0751231 
-0.0927152 0.0751231 10.0944 
10.1457 0.16125 -0.0912013 
0.16125 9.43076 0.344722 
-0.0912013 0.344722 10.4546 
9.65758 0.281365 0.93498 
0.281365 10.1046 0.114228 
0.93498 0.114228 9.69772 
10.5893 0.586919 0.703202 
0.586919 9.47837 0.0946724 
0.703202 0.0946724 9.39217 
9.64363 0.092526 0.717268 
0.092526 10.3529 0.113021 
0.717268 0.113021 9.46337 
9.16851 0.855528 0.272381 
0.855528 9.94773 -0.0587186 
0.272381 -0.0587186 10.3436 
9.9395 -0.00862992 -0.0249823 
-0.00862992 9.94521 0.0269755 
-0.0249823 0.0269755 9.93037 
9.93678 -0.00527637 -0.0241317 
-0.00527637 9.94602 0.0310905 
-0.0241317 0.0310905 9.93229 
9.9373 -0.0106216 -0.0296494 
-0.0106216 9.95053 0.0372332 
-0.0296494 0.0372332 9.92726 
9.93366 -0.00894032 -0.0266124 
-0.00894032 9.94584 0.0361381 
-0.0266124 0.0361381 9.93559 
10.0916 0.00483158 0.0302755 
0.00483158 10.185 0.00954095 
0.0302755 0.00954095 10.2419 
10.1848 0.0137955 0.0739089 
0.0137955 10.0805 0.0588108 
0.0739089 0.0588108 10.2532 
10.1655 0.00153472 0.0292453 
0.00153472 10.1323 -0.00520349 
0.0292453 -0.00520349 10.2207 
10.0789 -0.00463314 0.054266 
-0.00463314 10.2271 0.0585334 
0.054266 0.0585334 10.2126 
9.93526 -0.00378644 -0.0453038 
-0.00378644 9.91946 -0.0530306 
-0.0453038 -0.0530306 9.93526 
9.93103 -0.00399884 -0.0536468 
-0.00399884 9.92672 -0.0494175 
-0.0536468 -0.0494175 9.93223 
9.93456 -0.00385363 -0.0514884 
-0.00385363 9.92081 -0.0524976 
-0.0514884 -0.0524976 9.93461 
9.93013 -0.00371412 -0.0527875 
-0.00371412 9.92624 -0.049317 
-0.0527875 -0.049317 9.93361 
9.92421 -0.000139173 0.0499964 
-0.000139173 9.93897 -0.0546652 
0.0499964 -0.0546652 9.95326 
9.92304 0.000793657 0.0550944 
0.000793657 9.93896 -0.0509323 
0.0550944 -0.0509323 9.95444 
9.9223 -0.000729128 0.0437148 
-0.000729128 9.94252 -0.0487284 
0.0437148 -0.0487284 9.95163 
9.93053 -0.00509193 0.0588674 
-0.00509193 9.93785 -0.0520459 
0.0588674 -0.0520459 9.94805 
9.96196 0.000742244 -0.0654576 
0.000742244 9.94727 -0.0461151 
-0.0654576 -0.0461151 9.95098 
9.94979 -0.00228551 -0.0571809 
-0.00228551 9.95201 -0.0392638 
-0.0571809 -0.0392638 9.95841 
9.94941 -0.00505143 -0.0641777 
-0.00505143 9.95354 -0.0396301 
-0.0641777 -0.0396301 9.95725 
9.94629 0.000784531 -0.0535686 
0.000784531 9.95254 -0.0330053 
-0.0535686 -0.0330053 9.96138 
9.84164 0.187743 -0.214469 
0.187743 10.3922 -0.278835 
-0.214469 -0.278835 9.88305 
9.96968 0.02614 -0.26786 
0.02614 10.013 -0.127219 
-0.26786 -0.127219 10.1342 
9.79081 0.0058746 -0.297144 
0.0058746 10.0951 -0.155775 
-0.297144 -0.155775 10.2309 
9.69481 -0.304163 0.0277111 
-0.304163 10.3149 -0.0598911 
0.0277111 -0.0598911 10.1071 
9.85941 0.0206995 0.0623331 
0.0206995 9.86796 0.0211382 
0.0623331 0.0211382 10.0256 
9.90341 0.04606 0.102591 
0.04606 9.85087 0.0177191 
0.102591 0.0177191 9.99864 
9.87368 0.0187275 0.0555313 
0.0187275 9.87881 -0.00655504 
0.0555313 -0.00655504 10.0004 
9.86549 0.00341568 0.0724034 
0.00341568 9.90275 0.00265815 
0.0724034 0.00265815 9.98467 
9.97186 0.00422219 0.00189801 
0.00422219 9.96871 -0.00527624 
0.00189801 -0.00527624 9.9863 
9.96273 0.00537214 0.00364231 
0.00537214 9.96575 0.00290718 
0.00364231 0.00290718 9.99837 
9.97191 -0.000716959 -0.00755368 
-0.000716959 9.97002 0.00450627 
-0.00755368 0.00450627 9.98492 
9.97638 0.00710015 -0.00575938 
0.00710015 9.97304 0.00766451 
-0.00575938 0.00766451 9.97744 
9.89437 0.0112843 0.0347448 
0.0112843 9.89086 -0.0710141 
0.0347448 -0.0710141 9.90817 
9.92351 0.0103371 0.0616619 
0.0103371 9.8846 -0.0985677 
0.0616619 -0.0985677 9.88528 
9.89674 0.022587 0.00718973 
0.022587 9.87917 -0.0837683 
0.00718973 -0.0837683 9.91748 
9.89157 -0.00768492 0.0133027 
-0.00768492 9.90266 -0.110445 
0.0133027 -0.110445 9.89916 
9.4419 0.0273766 0.0655767 
0.0273766 9.92531 -0.0475983 
0.0655767 -0.0475983 10.7005 
9.73548 0.239983 0.14596 
0.239983 10.4526 0.0413144 
0.14596 0.0413144 9.87961 
10.0212 -0.364504 0.300825 
-0.364504 9.77819 0.0193784 
0.300825 0.0193784 10.2682 
9.93042 -0.681473 0.421051 
-0.681473 9.6847 0.565357 
0.421051 0.565357 10.4525 
9.86688 -0.0280315 -0.132748 
-0.0280315 9.97248 0.0348795 
-0.132748 0.0348795 10.0531 
10.0164 -0.0149213 -0.0278995 
-0.0149213 9.91499 0.041472 
-0.0278995 0.041472 9.96111 
9.90257 -0.0419642 -0.198496 
-0.0419642 9.99019 0.0741858 
-0.198496 0.0741858 9.99974 
9.7923 -0.0175806 -0.133511 
-0.0175806 9.98973 0.0596994 
-0.133511 0.0596994 10.1105 
9.93831 -0.00454355 0.000601926 
-0.00454355 9.92762 0.0782759 
0.000601926 0.0782759 9.92646 
9.94082 0.00344452 0.015202 
0.00344452 9.92104 0.0778979 
0.015202 0.0778979 9.93052 
9.93546 0.00180828 0.0094519 
0.00180828 9.93346 0.0827435 
0.0094519 0.0827435 9.92347 
9.93888 -0.0045653 -0.00101357 
-0.0045653 9.9368 0.0790981 
-0.00101357 0.0790981 9.9167 
9.86019 0.057597 -0.306376 
0.057597 9.71344 0.0764007 
-0.306376 0.0764007 9.68831 
9.91158 0.17894 -0.252045 
0.17894 9.82973 0.0294109 
-0.252045 0.0294109 9.52062 
9.90209 0.0348306 -0.315397 
0.0348306 9.68336 0.102733 
-0.315397 0.102733 9.67649 
10.0555 0.0147503 -0.242764 
0.0147503 9.61558 0.178851 
-0.242764 0.178851 9.59087 
9.9755 0.000455259 0.0639896 
0.000455259 9.98057 0.0254238 
0.0639896 0.0254238 9.9817 
9.98052 -0.00233625 0.0676657 
-0.00233625 9.97984 0.0285746 
0.0676657 0.0285746 9.97741 
9.97977 0.00230072 0.0649955 
0.00230072 9.97535 0.0285631 
0.0649955 0.0285631 9.98266 
9.98696 0.00462837 0.0680089 
0.00462837 9.97712 0.0324891 
0.0680089 0.0324891 9.9737 
9.91816 -0.00198455 -0.0363578 
-0.00198455 9.93814 -0.0713753 
-0.0363578 -0.0713753 9.9385 
9.93115 -0.00233714 -0.0453468 
-0.00233714 9.93519 -0.0655252 
-0.0453468 -0.0655252 9.92845 
9.921 -0.00761551 -0.0425739 
-0.00761551 9.93653 -0.0677998 
-0.0425739 -0.0677998 9.93727 
9.92264 -0.00316347 -0.034636 
-0.00316347 9.92973 -0.0666297 
-0.034636 -0.0666297 9.94243 
9.97101 0.00248781 0.0612197 
0.00248781 9.97244 0.0357372 
0.0612197 0.0357372 9.97469 
9.9748 0.00142811 0.0600846 
0.00142811 9.97065 0.0375036 
0.0600846 0.0375036 9.97267 
9.96689 -0.00299244 0.0564619 
-0.00299244 9.97383 0.0324161 
0.0564619 0.0324161 9.9774 
9.97916 0.00143753 0.0605937 
0.00143753 9.96965 0.0350064 
0.0605937 0.0350064 9.96932 
9.81475 -0.0380051 -0.0444647 
-0.0380051 9.98897 0.0563794 
-0.0444647 0.0563794 10.1814 
9.76369 -0.130052 -0.0573371 
-0.130052 9.97795 0.0469634 
-0.0573371 0.0469634 10.2434 
9.80928 -0.120255 -0.0634431 
-0.120255 9.97069 0.0693434 
-0.0634431 0.0693434 10.2051 
9.80399 -0.145225 -0.0540376 
-0.145225 9.89852 0.0801217 
-0.0540376 0.0801217 10.2826 
7.91972 0.356539 -0.774632 
0.356539 8.71025 0.20117 
-0.774632 0.20117 3.14915 
7.06322 -0.716033 1.48563 
-0.716033 10.6006 2.25273 
1.48563 2.25273 2.1153 
5.2186 -0.112687 -0.931368 
-0.112687 11.0446 -0.839163 
-0.931368 -0.839163 3.51588 
8.2457 0.60851 -0.306627 
0.60851 8.5948 0.983554 
-0.306627 0.983554 2.93862 
9.96722 -0.00219664 -0.0205309 
-0.00219664 9.9699 0.0727189 
-0.0205309 0.0727189 9.97462 
9.9731 0.00204424 -0.0193653 
0.00204424 9.97185 0.0732052 
-0.0193653 0.0732052 9.96678 
9.96988 0.00229613 -0.0196785 
0.00229613 9.97251 0.0796979 
-0.0196785 0.0796979 9.96934 
9.97193 0.00322604 -0.0219163 
0.00322604 9.97414 0.0753702 
-0.0219163 0.0753702 9.96567 
9.9107 0.0034294 -0.0126604 
0.0034294 9.97806 0.0189936 
-0.0126604 0.0189936 9.99095 
9.94897 0.0304418 0.00187008 
0.0304418 9.94837 -0.029753 
0.00187008 -0.029753 9.98236 
9.95942 0.049182 -0.0178546 
0.049182 9.92281 0.00172165 
-0.0178546 0.00172165 9.99748 
9.92524 0.0305642 -0.0574271 
0.0305642 9.94356 -0.00405567 
-0.0574271 -0.00405567 10.0109 
9.92941 -0.0115131 -0.0407154 
-0.0115131 9.90481 0.0653717 
-0.0407154 0.0653717 9.912 
9.93325 -0.0127974 -0.0734112 
-0.0127974 9.91853 0.0677892 
-0.0734112 0.0677892 9.89445 
9.93763 -0.0116977 -0.0553991 
-0.0116977 9.9166 0.0711775 
-0.0553991 0.0711775 9.892 
9.96873 -0.000150352 -0.0352736 
-0.000150352 9.92887 0.0652442 
-0.0352736 0.0652442 9.84862 
10.3669 -0.10638 0.0553356 
-0.10638 9.58407 -0.0408978 
0.0553356 -0.0408978 10.0621 
9.87638 0.0619853 -0.26118 
0.0619853 10.1796 -0.213691 
-0.26118 -0.213691 9.95712 
9.62289 0.148735 0.0527231 
0.148735 9.91792 0.105486 
0.0527231 0.105486 10.4723 
10.0988 0.0660051 -0.162111 
0.0660051 9.68859 -0.143771 
-0.162111 -0.143771 10.2258 
9.40193 0.0645169 0.401531 
0.0645169 10.64 -0.532001 
0.401531 -0.532001 11.2965 
9.58239 -0.0540173 0.541804 
-0.0540173 10.7852 -0.322368 
0.541804 -0.322368 10.9708 
10.2587 0.500378 0.403737 
0.500378 10.2266 -0.312492 
0.403737 -0.312492 10.8531 
9.5196 -0.33489 0.683181 
-0.33489 10.7153 0.0851803 
0.683181 0.0851803 11.1035 
9.97647 -0.00307366 0.0023157 
-0.00307366 9.98207 0.0476705 
0.0023157 0.0476705 9.97587 
9.97688 -0.0087792 0.00437576 
-0.0087792 9.99013 0.0492479 
0.00437576 0.0492479 9.9674 
9.97931 -0.000665566 -0.00203567 
-0.000665566 9.97842 0.0500188 
-0.00203567 0.0500188 9.97668 
9.97962 0.00324771 0.00208502 
0.00324771 9.9811 0.0441607 
0.00208502 0.0441607 9.97369 
10.0878 -0.00944311 0.0179726 
-0.00944311 10.1232 -0.00110367 
0.0179726 -0.00110367 10.1808 
10.0798 0.0215947 -0.0337109 
0.0215947 10.1178 -0.00903629 
-0.0337109 -0.00903629 10.1942 
10.1516 0.0380293 -0.0231619 
0.0380293 10.0987 0.0503383 
-0.0231619 0.0503383 10.1415 
10.112 0.0125644 -0.0133896 
0.0125644 10.1054 0.0132127 
-0.0133896 0.0132127 10.1745 
8.63651 -0.815466 -0.62644 
-0.815466 10.5081 0.227294 
-0.62644 0.227294 11.9751 
10.3188 0.991805 -0.276321 
0.991805 10.3083 -0.00720672 
-0.276321 -0.00720672 10.4926 
9.43768 -0.204297 -1.37238 
-0.204297 10.7489 -0.074255 
-1.37238 -0.074255 10.9332 
9.21742 -0.0966908 -1.08592 
-0.0966908 10.7196 0.368723 
-1.08592 0.368723 11.1827 
9.2874 -0.111677 -0.750039 
-0.111677 10.7596 -0.392912 
-0.750039 -0.392912 9.69269 
9.95861 -0.853553 -0.947364 
-0.853553 9.36298 -0.506737 
-0.947364 -0.506737 10.4181 
9.92059 -0.580253 -0.827531 
-0.580253 9.76675 -0.759633 
-0.827531 -0.759633 10.0523 
10.0124 -0.455495 -0.721304 
-0.455495 9.59687 -0.972945 
-0.721304 -0.972945 10.1304 
8.84308 -1.02956 -0.603835 
-1.02956 11.0137 0.562784 
-0.603835 0.562784 10.7948 
10.0834 1.75932 -1.06955 
1.75932 7.71556 -0.83549 
-1.06955 -0.83549 12.8526 
10.1555 -0.799393 0.947878 
-0.799393 9.74078 0.0841201 
0.947878 0.0841201 10.7553 
11.411 0.901887 0.551915 
0.901887 9.61089 -0.747826 
0.551915 -0.747826 9.62967 
10.0605 -0.0716504 -0.00330524 
-0.0716504 9.92068 -0.019782 
-0.00330524 -0.019782 10.1073 
10.0261 -0.032734 0.0168895 
-0.032734 9.9977 0.0483884 
0.0168895 0.0483884 10.0646 
10.027 0.015144 -0.0044768 
0.015144 10.0497 0.0471263 
-0.0044768 0.0471263 10.0118 
9.9533 0.0358791 0.041345 
0.0358791 9.99936 0.0543134 
0.041345 0.0543134 10.1358 
9.99027 -0.000186789 -0.00308996 
-0.000186789 9.9892 0.00558534 
-0.00308996 0.00558534 9.99122 
9.98593 0.00281077 0.000440493 
0.00281077 9.98041 0.00892396 
0.000440493 0.00892396 10.0043 
9.98704 -0.000599977 -0.0011136 
-0.000599977 9.98797 0.00481038 
-0.0011136 0.00481038 9.99568 
9.98998 -0.0020646 -0.00508333 
-0.0020646 9.98665 0.0025917 
-0.00508333 0.0025917 9.99406 
10.139 0.254761 -0.07627 
0.254761 10.391 -0.111246 
-0.07627 -0.111246 9.39375 
9.98562 -0.238046 -0.13146 
-0.238046 9.71471 0.517334 
-0.13146 0.517334 10.2234 
10.099 -0.0863605 -0.0210625 
-0.0863605 9.72549 0.774752 
-0.0210625 0.774752 10.0993 
9.62289 -0.0197356 0.068351 
-0.0197356 9.41566 0.390865 
0.068351 0.390865 10.8852 
9.87925 -0.265179 0.0828831 
-0.265179 9.84771 0.0714416 
0.0828831 0.0714416 10.4162 
9.95224 -0.116218 -0.0203126 
-0.116218 9.93252 0.0762897 
-0.0203126 0.0762897 10.2584 
10.1161 -0.0678147 -0.0415611 
-0.0678147 9.83828 0.0452574 
-0.0415611 0.0452574 10.1888 
9.93607 -0.0893502 -0.0531853 
-0.0893502 9.96562 0.0749422 
-0.0531853 0.0749422 10.2415 
10 -0.00830153 0.0597109 
-0.00830153 9.7292 0.285429 
0.0597109 0.285429 9.87017 
9.92439 0.0118046 0.0700655 
0.0118046 9.83019 0.126481 
0.0700655 0.126481 9.84482 
9.93972 0.0721366 0.0507615 
0.0721366 9.75368 0.181352 
0.0507615 0.181352 9.906 
9.94563 0.0702937 0.00792781 
0.0702937 9.77923 0.152853 
0.00792781 0.152853 9.87453 
9.90533 0.0105205 -0.0291231 
0.0105205 9.90736 0.033449 
-0.0291231 0.033449 9.96875 
9.90814 0.00187293 -0.0456456 
0.00187293 9.91395 0.0384143 
-0.0456456 0.0384143 9.95935 
9.91941 0.00256189 -0.0392869 
0.00256189 9.90563 0.0375226 
-0.0392869 0.0375226 9.95641 
9.89965 0.00356629 -0.0203944 
0.00356629 9.90806 0.0309001 
-0.0203944 0.0309001 9.97373 
9.94645 0.0172834 0.0222219 
0.0172834 9.95123 0.0178104 
0.0222219 0.0178104 9.95388 
9.96204 0.0176067 0.017201 
0.0176067 9.93624 0.0121757 
0.017201 0.0121757 9.95327 
9.94409 0.0134946 0.0188752 
0.0134946 9.94861 0.0208494 
0.0188752 0.0208494 9.95885 
9.94495 0.0159694 0.0190681 
0.0159694 9.94996 0.0173979 
0.0190681 0.0173979 9.95665 
10.1302 0.159201 -0.187013 
0.159201 10.2195 0.161919 
-0.187013 0.161919 10.7361 
10.5068 0.134332 -0.2055 
0.134332 10.6972 -0.160438 
-0.2055 -0.160438 9.88161 
10.136 0.121786 -0.086456 
0.121786 10.3202 0.0820598 
-0.086456 0.0820598 10.6295 
10.1943 0.0328958 -0.153682 
0.0328958 10.2062 -0.145377 
-0.153682 -0.145377 10.6851 
9.93302 0.006663 -0.0503982 
0.006663 9.92785 -0.0482818 
-0.0503982 -0.0482818 9.94868 
9.93401 0.00215851 -0.0592947 
0.00215851 9.9303 -0.0462791 
-0.0592947 -0.0462791 9.94524 
9.93357 0.00596899 -0.0534767 
0.00596899 9.92656 -0.0480636 
-0.0534767 -0.0480636 9.94942 
9.93307 0.003678 -0.0485748 
0.003678 9.92754 -0.0497212 
-0.0485748 -0.0497212 9.94894 
9.95338 0.0151434 0.00223345 
0.0151434 9.96772 -0.000771712 
0.00223345 -0.000771712 9.96591 
9.95651 0.00831473 0.0141736 
0.00831473 9.96058 0.00942608 
0.0141736 0.00942608 9.96991 
9.96232 0.0154715 0.00758362 
0.0154715 9.95828 0.00747842 
0.00758362 0.00747842 9.96641 
9.95996 0.0127533 0.00129653 
0.0127533 9.9627 -0.00180448 
0.00129653 -0.00180448 9.96434 
10.5883 0.283753 0.198945 
0.283753 10.484 -0.289464 
0.198945 -0.289464 9.87877 
9.95994 -0.12739 -0.130392 
-0.12739 10.0834 0.0163458 
-0.130392 0.0163458 10.9078 
9.91437 0.171531 -0.0223962 
0.171531 10.0915 -0.0403704 
-0.0223962 -0.0403704 10.9453 
9.77864 0.305678 0.366657 
0.305678 10.6817 0.204117 
0.366657 0.204117 10.4908 
10.0024 0.0487719 -0.0569826 
0.0487719 10.1568 0.0752384 
-0.0569826 0.0752384 9.45446 
9.83241 -0.0134436 -0.0165486 
-0.0134436 10.0379 0.410228 
-0.0165486 0.410228 9.7434 
9.94109 0.105604 0.00069545 
0.105604 9.97304 0.13613 
0.00069545 0.13613 9.69955 
9.90562 0.0468949 0.00945875 
0.0468949 9.87338 0.0969539 
0.00945875 0.0969539 9.83469 
9.90599 -0.00561719 -0.0421656 
-0.00561719 9.90373 0.0580581 
-0.0421656 0.0580581 9.97916 
9.91271 -0.0279829 -0.0578904 
-0.0279829 9.92209 0.046053 
-0.0578904 0.046053 9.95409 
9.91348 0.00544213 -0.035783 
0.00544213 9.91698 0.0277697 
-0.035783 0.0277697 9.95842 
9.92235 0.0150384 -0.0451207 
0.0150384 9.89846 0.0548771 
-0.0451207 0.0548771 9.96808 
9.97193 -0.0237306 0.0778332 
-0.0237306 10.0539 -0.0780217 
0.0778332 -0.0780217 9.76356 
9.9052 0.0197307 0.1006 
0.0197307 10.0788 -0.0870382 
0.1006 -0.0870382 9.80545 
10.0109 -0.0384311 0.202346 
-0.0384311 10.0032 -0.0344861 
0.202346 -0.0344861 9.77536 
9.93529 -0.0212753 0.0964384 
-0.0212753 9.96687 -0.0749173 
0.0964384 -0.0749173 9.88726 
9.92902 0.061004 -0.103226 
0.061004 9.77659 -0.00179651 
-0.103226 -0.00179651 10.0118 
9.76343 -0.0121876 0.0256035 
-0.0121876 9.78692 0.0392328 
0.0256035 0.0392328 10.167 
9.7723 0.052229 -0.176929 
0.052229 9.93079 0.0495533 
-0.176929 0.0495533 10.0143 
9.8726 0.0637572 -0.111473 
0.0637572 9.89963 -0.0318327 
-0.111473 -0.0318327 9.94516 
9.06001 -0.00347575 0.169265 
-0.00347575 10.3059 0.30175 
0.169265 0.30175 10.2964 
9.44992 0.166191 0.227766 
0.166191 10.3262 -0.348828 
0.227766 -0.348828 9.88621 
9.48984 0.0942587 0.351363 
0.0942587 10.0128 -0.00954473 
0.351363 -0.00954473 10.1597 
9.11955 -0.237377 0.915316 
-0.237377 9.90139 0.14196 
0.915316 0.14196 10.6414 
10.3139 0.0019074 -0.137894 
0.0019074 10.3054 0.0710889 
-0.137894 0.0710889 9.97163 
10.1532 0.0220489 0.0445544 
0.0220489 10.0952 0.0126944 
0.0445544 0.0126944 10.3425 
10.1807 -0.029907 -0.0394749 
-0.029907 10.1763 0.0644589 
-0.0394749 0.0644589 10.2339 
10.0629 0.0341885 -0.0850867 
0.0341885 10.2007 0.0338465 
-0.0850867 0.0338465 10.3273 
9.89128 -0.0154088 0.0518303 
-0.0154088 9.87237 0.0290422 
0.0518303 0.0290422 9.96845 
9.91163 0.0200634 0.0408772 
0.0200634 9.87006 0.0386018 
0.0408772 0.0386018 9.95041 
9.90154 -0.017079 0.046453 
-0.017079 9.85509 0.0436326 
0.046453 0.0436326 9.97546 
9.91098 -0.0329823 0.0477776 
-0.0329823 9.83759 0.0517074 
0.0477776 0.0517074 9.98352 
9.95521 -0.00131352 -0.0663666 
-0.00131352 9.95021 -0.041579 
-0.0663666 -0.041579 9.95181 
9.95399 -0.0014219 -0.0661146 
-0.0014219 9.95038 -0.0413304 
-0.0661146 -0.0413304 9.95286 
9.95201 -0.00255485 -0.0657965 
-0.00255485 9.94934 -0.0402858 
-0.0657965 -0.0402858 9.95589 
9.95634 0.000270417 -0.0660563 
0.000270417 9.95068 -0.0412898 
-0.0660563 -0.0412898 9.95022 
10.0767 0.156115 0.287384 
0.156115 10.0426 0.0584671 
0.287384 0.0584671 9.92864 
9.95299 -0.257296 0.235924 
-0.257296 9.79621 0.032562 
0.235924 0.032562 10.2988 
9.78339 -0.0614504 0.248581 
-0.0614504 9.89274 -0.0257702 
0.248581 -0.0257702 10.3719 
9.65385 -0.164085 0.202609 
-0.164085 10.0921 -0.0973435 
0.202609 -0.0973435 10.3021 
9.89837 -0.0867386 -0.280019 
-0.0867386 9.4579 -0.878892 
-0.280019 -0.878892 9.89051 
10.0202 -0.0303201 -0.262261 
-0.0303201 9.9148 -0.659645 
-0.262261 -0.659645 9.31182 
9.29407 -0.233555 -0.0996322 
-0.233555 9.68088 -0.0582379 
-0.0996322 -0.0582379 10.2718 
9.6447 0.364667 -0.175903 
0.364667 10.3686 -0.798091 
-0.175903 -0.798091 9.23352 
9.97636 -8.48652e-05 0.0679955 
-8.48652e-05 9.98394 0.0171161 
0.0679955 0.0171161 9.98271 
9.97925 0.000119104 0.0655292 
0.000119104 9.97586 0.0152692 
0.0655292 0.0152692 9.98791 
9.98073 -0.000312921 0.0686291 
-0.000312921 9.98197 0.0162956 
0.0686291 0.0162956 9.98031 
9.9828 -0.000352277 0.0726688 
-0.000352277 9.98313 0.0171876 
0.0726688 0.0171876 9.97708 
10.0872 -0.0779601 -0.0697378 
-0.0779601 9.54047 -0.338285 
-0.0697378 -0.338285 10.5159 
10.315 0.0433239 -0.197103 
0.0433239 9.73785 -0.418416 
-0.197103 -0.418416 10.0908 
9.91544 -0.523659 -0.161212 
-0.523659 9.97325 -0.384471 
-0.161212 -0.384471 10.2549 
10.0559 -0.116605 -0.535727 
-0.116605 9.83452 -0.373052 
-0.535727 -0.373052 10.2532 
9.97915 -0.000119651 -0.0328894 
-0.000119651 9.97615 -0.0538438 
-0.0328894 -0.0538438 9.98465 
9.97856 0.000702042 -0.0356348 
0.000702042 9.97992 -0.0546348 
-0.0356348 -0.0546348 9.98147 
9.97786 0.000845416 -0.0371006 
0.000845416 9.97905 -0.0543322 
-0.0371006 -0.0543322 9.98304 
9.98256 -0.00423374 -0.0397834 
-0.00423374 9.97846 -0.0553884 
-0.0397834 -0.0553884 9.97893 
9.89257 -0.000683039 0.094757 
-0.000683039 9.88891 -0.129359 
0.094757 -0.129359 10.0442 
9.81987 -0.0434878 0.0605469 
-0.0434878 9.87984 -0.0399953 
0.0605469 -0.0399953 10.1259 
9.92745 -0.0550687 0.0176374 
-0.0550687 9.8072 -0.0213608 
0.0176374 -0.0213608 10.091 
9.85601 0.053659 -0.00726379 
0.053659 9.95868 -0.10626 
-0.00726379 -0.10626 10.0109 
9.9265 -0.00628616 0.0347062 
-0.00628616 9.92864 0.0671218 
0.0347062 0.0671218 9.92466 
9.92455 -0.00141986 0.0375981 
-0.00141986 9.9259 0.0730424 
0.0375981 0.0730424 9.92935 
9.92717 -0.0041158 0.0274675 
-0.0041158 9.9236 0.0759718 
0.0274675 0.0759718 9.92903 
9.93623 -0.00826782 0.03997 
-0.00826782 9.93021 0.0670308 
0.03997 0.0670308 9.91336 
12.2272 1.0849 1.42986 
1.0849 13.5563 -1.42514 
1.42986 -1.42514 4.40425 
9.32892 3.43191 -0.3985 
3.43191 4.16568 -0.179908 
-0.3985 -0.179908 16.6931 
8.33499 0.944559 0.482912 
0.944559 8.23743 0.305453 
0.482912 0.305453 13.6153 
9.49649 -0.793691 -1.10588 
-0.793691 10.3258 6.44904 
-1.10588 6.44904 10.3654 
9.92853 0.0224557 0.0267896 
0.0224557 9.93246 -0.0235619 
0.0267896 -0.0235619 10.001 
9.93844 0.0238075 0.0154205 
0.0238075 9.90851 -0.00555373 
0.0154205 -0.00555373 10.015 
9.93578 0.0450099 -0.00300892 
0.0450099 9.94509 -0.0260169 
-0.00300892 -0.0260169 9.98108 
9.88632 -0.0125795 0.0580779 
-0.0125795 9.97019 -0.0298138 
0.0580779 -0.0298138 10.0054 
9.92337 0.0456088 0.00899072 
0.0456088 9.91173 -0.263041 
0.00899072 -0.263041 9.92784 
9.9407 0.151533 0.113837 
0.151533 9.86612 -0.303328 
0.113837 -0.303328 9.95611 
9.98494 -0.102129 0.00499798 
-0.102129 10.039 -0.251968 
0.00499798 -0.251968 9.739 
9.92896 0.159281 0.00152575 
0.159281 9.81156 -0.137557 
0.00152575 -0.137557 10.0224 
9.8188 -0.0371181 -0.0555425 
-0.0371181 9.86013 -0.0357697 
-0.0555425 -0.0357697 9.95359 
9.90889 -0.0893906 -0.00177777 
-0.0893906 9.81772 -0.0397769 
-0.00177777 -0.0397769 9.9059 
9.92065 -0.0113012 -0.0463424 
-0.0113012 9.85888 -0.110074 
-0.0463424 -0.110074 9.85299 
9.8264 -0.00090001 -0.0665264 
-0.00090001 9.78608 -0.147918 
-0.0665264 -0.147918 10.02 
9.94599 -0.00170537 -0.0839012 
-0.00170537 9.95694 -0.00794723 
-0.0839012 -0.00794723 9.95365 
9.94797 -0.000669632 -0.0849013 
-0.000669632 9.9472 -0.0121892 
-0.0849013 -0.0121892 9.96142 
9.97294 0.00449584 -0.0816314 
0.00449584 9.94897 -0.00873688 
-0.0816314 -0.00873688 9.93468 
9.94695 -0.00824338 -0.07302 
-0.00824338 9.955 -0.00264398 
-0.07302 -0.00264398 9.95462 
9.4899 -0.815881 -0.177958 
-0.815881 8.87514 0.184454 
-0.177958 0.184454 12.833 
13.1228 -0.096716 0.531861 
-0.096716 11.2504 0.948819 
0.531861 0.948819 6.82487 
8.54634 -1.6702 0.73846 
-1.6702 7.78507 0.00859521 
0.73846 0.00859521 14.8666 
9.27812 -0.275591 -2.04988 
-0.275591 10.5576 -2.79608 
-2.04988 -2.79608 11.3623 
9.98149 -0.00319645 0.0109062 
-0.00319645 9.97938 0.00478835 
0.0109062 0.00478835 9.99402 
9.97935 0.0003917 0.0118767 
0.0003917 9.9841 0.00301257 
0.0118767 0.00301257 9.99144 
9.98402 -0.0019543 0.0104923 
-0.0019543 9.98172 0.00670061 
0.0104923 0.00670061 9.98916 
9.98123 0.00351839 0.0106795 
0.00351839 9.98396 0.00450197 
0.0106795 0.00450197 9.98969 
9.93987 -0.000710516 0.062804 
-0.000710516 9.92855 -0.0424655 
0.062804 -0.0424655 9.93224 
9.93102 -0.00745628 0.0510916 
-0.00745628 9.93355 -0.0448383 
0.0510916 -0.0448383 9.93609 
9.9361 -0.00254992 0.0581972 
-0.00254992 9.92986 -0.0485951 
0.0581972 -0.0485951 9.9347 
9.93616 -0.000741401 0.0529968 
-0.000741401 9.92787 -0.0456805 
0.0529968 -0.0456805 9.93663 
9.89764 -0.00759793 0.0897627 
-0.00759793 9.91474 0.00860948 
0.0897627 0.00860948 9.93215 
9.92812 0.00612009 0.0836015 
0.00612009 9.91781 0.00833669 
0.0836015 0.00833669 9.8986 
9.91803 0.000538183 0.0831984 
0.000538183 9.91278 0.00871596 
0.0831984 0.00871596 9.91372 
9.90497 -0.00201813 0.0756847 
-0.00201813 9.91727 -0.00822025 
0.0756847 -0.00822025 9.92229 
9.98479 0.00208373 0.0120487 
0.00208373 9.98393 0.0140469 
0.0120487 0.0140469 9.99757 
9.9835 -0.00285483 0.0164352 
-0.00285483 9.97865 0.0123817 
0.0164352 0.0123817 10.0041 
9.99047 0.00512787 0.0159655 
0.00512787 9.98753 0.0140335 
0.0159655 0.0140335 9.9883 
9.98783 0.00368303 0.013574 
0.00368303 9.99192 0.0103963 
0.013574 0.0103963 9.98654 
9.69192 0.241298 -0.235291 
0.241298 10.868 0.212081 
-0.235291 0.212081 10.382 
9.21397 0.0570344 -1.13286 
0.0570344 10.658 -0.00970546 
-1.13286 -0.00970546 11.0698 
10.2477 0.340006 -1.02554 
0.340006 10.6095 0.756499 
-1.02554 0.756499 10.0846 
9.72438 0.063088 -0.193466 
0.063088 10.506 0.126304 
-0.193466 0.126304 10.7114 
9.94536 0.00613126 -0.00760333 
0.00613126 9.96168 0.000784259 
-0.00760333 0.000784259 9.97808 
9.96779 0.00794926 -0.00529737 
0.00794926 9.95359 0.00291886 
-0.00529737 0.00291886 9.96373 
9.94956 0.0168576 -0.0055135 
0.0168576 9.96505 0.00349864 
-0.0055135 0.00349864 9.97051 
9.95248 0.0095089 -0.00705731 
0.0095089 9.95602 0.0060499 
-0.00705731 0.0060499 9.97661 
10.064 0.125672 -0.0919396 
0.125672 9.42005 0.00180746 
-0.0919396 0.00180746 10.0148 
10.1053 0.0699546 -0.139936 
0.0699546 9.63219 -0.24706 
-0.139936 -0.24706 9.76128 
10.0579 -0.0649992 0.0223452 
-0.0649992 9.82579 -0.261278 
0.0223452 -0.261278 9.61515 
9.89316 0.283965 0.0413007 
0.283965 9.45045 -0.257771 
0.0413007 -0.257771 10.1552 
9.48992 0.240165 0.579218 
0.240165 9.72631 0.101185 
0.579218 0.101185 9.69292 
9.59146 -0.0395562 0.282611 
-0.0395562 9.95383 -0.145275 
0.282611 -0.145275 9.36386 
9.88978 0.0955457 0.410512 
0.0955457 9.76818 0.0285082 
0.410512 0.0285082 9.25118 
9.67481 0.238177 0.435034 
0.238177 9.39083 -0.167909 
0.435034 -0.167909 9.8435 
9.56986 -0.708625 -0.310639 
-0.708625 9.21429 -0.833995 
-0.310639 -0.833995 9.41537 
7.85178 -0.674808 -0.986368 
-0.674808 10.3804 0.522203 
-0.986368 0.522203 9.96737 
8.733 -0.359618 0.560715 
-0.359618 10.5708 -1.71922 
0.560715 -1.71922 8.89575 
8.89475 -0.41439 -0.890618 
-0.41439 9.96024 -0.0801986 
-0.890618 -0.0801986 9.34452 
10.0129 -0.274596 -0.0901002 
-0.274596 9.78049 0.441295 
-0.0901002 0.441295 10.0908 
9.96639 0.0117322 0.093188 
0.0117322 9.93592 0.178178 
0.093188 0.178178 9.98192 
9.96942 -0.101811 0.183779 
-0.101811 9.98953 0.273254 
0.183779 0.273254 9.92529 
10.0058 -0.117376 0.125478 
-0.117376 9.96881 0.234175 
0.125478 0.234175 9.9096 
9.95634 -0.00511976 -0.014226 
-0.00511976 9.9648 0.0822867 
-0.014226 0.0822867 9.93554 
9.95326 -0.00547206 0.0217978 
-0.00547206 9.94773 0.0798839 
0.0217978 0.0798839 9.9557 
9.95191 -0.00829766 0.00747634 
-0.00829766 9.95583 0.0687841 
0.00747634 0.0687841 9.94894 
9.96128 -0.00528543 0.000608463 
-0.00528543 9.95048 0.0681216 
0.000608463 0.0681216 9.94492 
9.93428 -0.00141374 0.0366734 
-0.00141374 9.91803 0.0110018 
0.0366734 0.0110018 9.90979 
9.93961 -0.0614362 0.00135253 
-0.0614362 9.9474 0.0264428 
0.00135253 0.0264428 9.87509 
9.93687 -0.0104632 0.00325208 
-0.0104632 9.92492 0.0413417 
0.00325208 0.0413417 9.90031 
9.92355 -0.0475902 -0.00862437 
-0.0475902 9.92999 0.0205154 
-0.00862437 0.0205154 9.90857 
9.92162 -0.0228605 0.0117412 
-0.0228605 9.92638 0.0316922 
0.0117412 0.0316922 9.93311 
9.93617 -0.0366113 -0.00179449 
-0.0366113 9.89548 0.054337 
-0.00179449 0.054337 9.94946 
9.93343 -0.00386503 -0.000735758 
-0.00386503 9.90657 -0.016437 
-0.000735758 -0.016437 9.94112 
9.88629 -0.0246661 0.0393493 
-0.0246661 9.97702 0.0677133 
0.0393493 0.0677133 9.9178 
10.8898 0.178356 -0.109662 
0.178356 10.3986 -0.231688 
-0.109662 -0.231688 10.9873 
10.9913 -0.371111 -0.302911 
-0.371111 10.4632 -0.24506 
-0.302911 -0.24506 10.8213 
10.3832 -0.275328 -0.23115 
-0.275328 11.016 0.0423961 
-0.23115 0.0423961 10.8765 
10.8376 -0.217662 -0.129907 
-0.217662 10.7526 -0.155349 
-0.129907 -0.155349 10.6856 
9.89005 0.00379443 0.0372023 
0.00379443 9.84854 0.0491613 
0.0372023 0.0491613 9.94031 
9.87125 -0.0250408 0.0839241 
-0.0250408 9.91676 0.0340705 
0.0839241 0.0340705 9.8909 
9.8847 -0.0413663 0.0739475 
-0.0413663 9.87612 0.0224272 
0.0739475 0.0224272 9.91808 
9.81685 -0.0175323 0.0857757 
-0.0175323 9.89678 0.0799807 
0.0857757 0.0799807 9.96528 
10.49 0.153063 0.450341 
0.153063 9.4975 0.247243 
0.450341 0.247243 10.7716 
10.1971 -0.737774 0.331435 
-0.737774 10.0203 0.695498 
0.331435 0.695498 10.5418 
10.0478 -0.729947 0.0505364 
-0.729947 9.73048 0.633862 
0.0505364 0.633862 10.9809 
9.85086 -0.250261 0.273101 
-0.250261 9.99462 1.17534 
0.273101 1.17534 10.9137 
10.1279 0.0631514 -0.0238219 
0.0631514 9.83049 0.0754829 
-0.0238219 0.0754829 10.3535 
10.0582 0.0744428 -0.020632 
0.0744428 9.79277 0.0353842 
-0.020632 0.0353842 10.4609 
10.0846 0.0514957 0.0365324 
0.0514957 9.99412 -0.0723948 
0.0365324 -0.0723948 10.2332 
10.1232 0.0910963 0.199546 
0.0910963 9.98521 -0.0319462 
0.199546 -0.0319462 10.2035 
9.94265 -0.0164336 0.0181274 
-0.0164336 9.98011 -0.0865652 
0.0181274 -0.0865652 9.98826 
9.9919 0.00858208 0.0339718 
0.00858208 9.94923 -0.0585884 
0.0339718 -0.0585884 9.9699 
9.98058 0.0596927 -0.0315473 
0.0596927 9.94567 0.0617813 
-0.0315473 0.0617813 9.98477 
9.94131 0.0318187 0.0352105 
0.0318187 9.90915 0.00388282 
0.0352105 0.00388282 10.0606 
10.2533 -0.0839875 0.142227 
-0.0839875 10.2413 0.135469 
0.142227 0.135469 10.4179 
10.4422 0.166811 -0.171275 
0.166811 9.94489 0.075635 
-0.171275 0.075635 10.5255 
10.2938 0.0465511 -0.0365483 
0.0465511 10.1928 0.087328 
-0.0365483 0.087328 10.426 
10.1781 0.0911346 -0.0290207 
0.0911346 10.223 -0.0877047 
-0.0290207 -0.0877047 10.5116 
9.98166 0.000419246 0.0138479 
0.000419246 9.97885 0.0475897 
0.0138479 0.0475897 9.97881 
9.98234 0.00135662 0.00771434 
0.00135662 9.98312 0.047532 
0.00771434 0.047532 9.97387 
9.9817 0.00591562 0.00631911 
0.00591562 9.97624 0.0472626 
0.00631911 0.0472626 9.98139 
9.98224 0.00213813 0.0161833 
0.00213813 9.98437 0.0488412 
0.0161833 0.0488412 9.97272 
9.97869 -0.00242758 -0.043063 
-0.00242758 9.98001 -0.0590631 
-0.043063 -0.0590631 9.98193 
9.97717 0.000412 -0.0425615 
0.000412 9.98057 -0.059702 
-0.0425615 -0.059702 9.98289 
9.97351 0.00618207 -0.0391035 
0.00618207 9.976 -0.0535626 
-0.0391035 -0.0535626 9.99112 
9.98037 0.0033431 -0.046016 
0.0033431 9.98301 -0.0592158 
-0.046016 -0.0592158 9.97725 
10.0755 0.00106356 -0.00844926 
0.00106356 10.0703 -0.0186951 
-0.00844926 -0.0186951 10.1795 
10.0633 -0.0174946 -0.0183965 
-0.0174946 10.1059 0.030676 
-0.0183965 0.030676 10.1562 
10.0532 0.0101148 -0.00896666 
0.0101148 10.0559 -0.00669631 
-0.00896666 -0.00669631 10.2162 
10.083 -0.00635879 0.00774626 
-0.00635879 10.0826 0.023619 
0.00774626 0.023619 10.1598 
7.55428 0.460773 -0.886445 
0.460773 9.0537 1.81968 
-0.886445 1.81968 6.29641 
8.97232 -3.73495 0.0615058 
-3.73495 5.98632 -0.835846 
0.0615058 -0.835846 7.94576 
10.4995 -2.05093 -0.920058 
-2.05093 8.94928 0.843305 
-0.920058 0.843305 3.45556 
7.05838 -0.486307 0.377034 
-0.486307 9.24998 2.91927 
0.377034 2.91927 6.59604 
9.8724 -0.112707 -0.113193 
-0.112707 9.91479 -0.064473 
-0.113193 -0.064473 9.79119 
9.94434 -0.0287183 -0.0412807 
-0.0287183 9.89179 -0.0800087 
-0.0412807 -0.0800087 9.74225 
9.83819 -0.116886 -0.0836288 
-0.116886 9.92619 -0.00902188 
-0.0836288 -0.00902188 9.814 
9.88067 -0.0732508 -0.0866702 
-0.0732508 9.89342 -0.0781048 
-0.0866702 -0.0781048 9.80429 
9.96082 0.24005 0.068315 
0.24005 9.9127 -0.00257293 
0.068315 -0.00257293 9.97868 
9.91605 0.136875 0.00324625 
0.136875 9.882 -0.0168777 
0.00324625 -0.0168777 10.0542 
10.0269 0.130154 0.149504 
0.130154 9.85093 -0.112582 
0.149504 -0.112582 9.97434 
10.0439 0.180942 0.0809527 
0.180942 9.85111 -0.185444 
0.0809527 -0.185444 9.95721 
9.94208 0.00856784 0.0620986 
0.00856784 9.90836 0.0285894 
0.0620986 0.0285894 9.94567 
9.93247 -0.00732025 0.0416425 
-0.00732025 9.91274 0.0524376 
0.0416425 0.0524376 9.9509 
9.93774 -0.00786158 0.0606372 
-0.00786158 9.92541 0.0556124 
0.0606372 0.0556124 9.93296 
9.91886 -0.00344172 0.0601695 
-0.00344172 9.91644 0.0236611 
0.0601695 0.0236611 9.96082 
10.1221 -0.387409 0.172646 
-0.387409 9.90805 0.0320479 
0.172646 0.0320479 9.96363 
9.91193 -0.215603 0.102448 
-0.215603 9.87599 0.0871196 
0.102448 0.0871196 10.2059 
9.74342 0.0422001 0.158786 
0.0422001 9.97427 -0.0888829 
0.158786 -0.0888829 10.2761 
9.94421 0.119606 0.0795789 
0.119606 10.0238 0.220499 
0.0795789 0.220499 10.0258 
9.92664 0.0013847 -0.0694394 
0.0013847 9.91262 -0.0492269 
-0.0694394 -0.0492269 9.93393 
9.93211 -0.00762248 -0.0643468 
-0.00762248 9.92426 -0.0521353 
-0.0643468 -0.0521353 9.91682 
9.93249 -0.000519252 -0.0648728 
-0.000519252 9.91549 -0.0448389 
-0.0648728 -0.0448389 9.92522 
9.93684 -0.00655205 -0.0745916 
-0.00655205 9.91406 -0.0444924 
-0.0745916 -0.0444924 9.92229 
9.98502 0.00182231 -0.0158665 
0.00182231 9.98667 -0.0192218 
-0.0158665 -0.0192218 10.0038 
9.99091 -0.0018543 -0.0174783 
-0.0018543 9.98744 -0.0194666 
-0.0174783 -0.0194666 9.99713 
9.99181 0.00138046 -0.0163793 
0.00138046 9.99248 -0.021824 
-0.0163793 -0.021824 9.99118 
9.9912 0.00196703 -0.0164326 
0.00196703 9.99463 -0.0198938 
-0.0164326 -0.0198938 9.98964 
7.90305 -1.03511 0.409676 
-1.03511 10.4471 1.18485 
0.409676 1.18485 7.75042 
9.44003 2.6142 -0.96986 
2.6142 7.66313 -0.113044 
-0.96986 -0.113044 8.99741 
9.05069 1.61398 -0.613738 
1.61398 9.8223 1.66885 
-0.613738 1.66885 7.22758 
9.31667 0.158866 1.58409 
0.158866 9.56211 0.520887 
1.58409 0.520887 7.2218 
10.029 -0.0118343 -0.0216843 
-0.0118343 10.0332 0.033184 
-0.0216843 0.033184 9.67916 
9.99807 -0.0136418 0.048198 
-0.0136418 9.93284 0.0469124 
0.048198 0.0469124 9.81045 
10.0005 -0.0070775 0.0208925 
-0.0070775 9.92333 0.0501499 
0.0208925 0.0501499 9.8175 
9.91711 -0.0189034 -0.000460613 
-0.0189034 9.94057 -0.00624717 
-0.000460613 -0.00624717 9.88368 
9.9146 -0.001667 -0.0334158 
-0.001667 9.88826 0.00987688 
-0.0334158 0.00987688 10.1041 
9.90398 -0.00426779 -0.0206351 
-0.00426779 9.89876 0.0141789 
-0.0206351 0.0141789 10.1043 
9.90809 -0.0063309 -0.024136 
-0.0063309 9.89136 0.0178969 
-0.024136 0.0178969 10.1075 
9.86921 -0.0329325 -0.0407187 
-0.0329325 9.90501 0.0258136 
-0.0407187 0.0258136 10.1328 
9.97136 -0.00114906 -0.0755574 
-0.00114906 9.97537 0.00758377 
-0.0755574 0.00758377 9.97197 
9.9717 -0.00108425 -0.0702569 
-0.00108425 9.9693 0.01741 
-0.0702569 0.01741 9.9777 
9.97629 0.0015544 -0.0739695 
0.0015544 9.97095 0.0133396 
-0.0739695 0.0133396 9.97145 
9.98069 -0.00341348 -0.0755386 
-0.00341348 9.97238 0.00376197 
-0.0755386 0.00376197 9.96563 
10.1203 0.0164025 -0.0281406 
0.0164025 10.0954 0.0203277 
-0.0281406 0.0203277 10.262 
10.1286 0.019227 -0.022509 
0.019227 10.099 0.0164169 
-0.022509 0.0164169 10.2502 
10.1105 0.0138047 -0.0187585 
0.0138047 10.0885 0.0168273 
-0.0187585 0.0168273 10.2787 
10.1275 0.0058177 -0.0429059 
0.0058177 10.1183 0.0291583 
-0.0429059 0.0291583 10.2319 
9.9594 -0.0030561 -0.0244128 
-0.0030561 9.95796 0.0502074 
-0.0244128 0.0502074 9.92257 
9.94416 -0.00728772 -0.0279219 
-0.00728772 9.95961 0.0557488 
-0.0279219 0.0557488 9.93617 
9.95257 -0.00466853 -0.0231462 
-0.00466853 9.95741 0.0566579 
-0.0231462 0.0566579 9.92996 
9.94782 -0.00271943 -0.0257393 
-0.00271943 9.95679 0.0474521 
-0.0257393 0.0474521 9.93533 
9.95667 -0.0129594 0.0171372 
-0.0129594 9.91462 -0.0128693 
0.0171372 -0.0128693 10.1631 
9.94098 0.0258128 0.0163185 
0.0258128 9.90371 -0.0171763 
0.0163185 -0.0171763 10.1897 
9.95724 0.000576279 0.017023 
0.000576279 9.91318 -0.0257859 
0.017023 -0.0257859 10.164 
9.95554 -0.00645111 0.0255512 
-0.00645111 9.91455 -0.0253981 
0.0255512 -0.0253981 10.1643 
9.97325 0.00380165 0.0308326 
0.00380165 9.97627 0.0399849 
0.0308326 0.0399849 9.98 
9.97475 0.00278257 0.0337943 
0.00278257 9.97568 0.0384575 
0.0337943 0.0384575 9.9791 
9.97589 0.00550378 0.0339056 
0.00550378 9.97974 0.0358829 
0.0339056 0.0358829 9.97389 
9.97548 0.00181286 0.0347563 
0.00181286 9.9775 0.0385469 
0.0347563 0.0385469 9.97654 
9.98661 0.000910143 0.0507296 
0.000910143 9.98222 0.0506844 
0.0507296 0.0506844 9.9889 
9.9841 -0.00295069 0.0465265 
-0.00295069 9.98384 0.0505402 
0.0465265 0.0505402 9.9898 
9.97853 0.00374687 0.0469663 
0.00374687 9.98201 0.0442668 
0.0469663 0.0442668 9.99721 
9.98663 0.00143386 0.0532126 
0.00143386 9.98909 0.0537303 
0.0532126 0.0537303 9.98202 
9.81789 0.0771646 -0.0871392 
0.0771646 10.1372 -0.014181 
-0.0871392 -0.014181 10.2205 
9.86 0.112715 -0.111575 
0.112715 10.1104 -0.101 
-0.111575 -0.101 10.2052 
9.72211 0.133999 -0.042935 
0.133999 10.1221 -0.00803227 
-0.042935 -0.00803227 10.3313 
9.71456 0.0395895 -0.134145 
0.0395895 10.0778 -0.0184799 
-0.134145 -0.0184799 10.3832 
10.0055 -0.0667682 0.0785912 
-0.0667682 9.77894 0.327275 
0.0785912 0.327275 10.0793 
9.99349 -0.0179116 -0.0171875 
-0.0179116 9.99846 0.229316 
-0.0171875 0.229316 9.87182 
9.9859 -0.0588213 0.0269978 
-0.0588213 9.92552 0.233203 
0.0269978 0.233203 9.95235 
9.97324 -0.0238004 -0.0086471 
-0.0238004 9.95495 0.124799 
-0.0086471 0.124799 9.93559 
10.1644 -0.0788971 -0.0208631 
-0.0788971 10.1754 -0.0831997 
-0.0208631 -0.0831997 10.189 
10.1738 0.030819 0.0346189 
0.030819 10.6576 -0.00878571 
0.0346189 -0.00878571 9.69742 
9.86992 -0.0651952 -0.122119 
-0.0651952 9.92389 0.129399 
-0.122119 0.129399 10.735 
10.1765 -0.02513 -0.00966215 
-0.02513 10.015 -0.469891 
-0.00966215 -0.469891 10.3374 
10.0388 -0.0174854 -0.0707194 
-0.0174854 10.0136 -0.0989323 
-0.0707194 -0.0989323 10.3191 
10.1875 -0.00934722 -0.0206079 
-0.00934722 10.1318 0.0303128 
-0.0206079 0.0303128 10.0523 
10.1204 0.0628684 0.00964945 
0.0628684 10.2119 0.0347463 
0.00964945 0.0347463 10.0392 
10.1461 -0.0980221 0.0408627 
-0.0980221 10.0009 0.0576648 
0.0408627 0.0576648 10.2246 
9.92623 0.0064879 0.0179992 
0.0064879 9.94775 -0.0193361 
0.0179992 -0.0193361 9.98519 
9.92009 -0.00502229 0.0349065 
-0.00502229 9.9565 -0.00696982 
0.0349065 -0.00696982 9.98258 
9.93817 0.0146791 0.0126476 
0.0146791 9.94726 -0.0177317 
0.0126476 -0.0177317 9.97373 
9.92716 0.00636698 0.0163291 
0.00636698 9.94397 -0.0169467 
0.0163291 -0.0169467 9.98803 
9.94358 -0.00737692 -0.0332251 
-0.00737692 9.93936 -0.0803033 
-0.0332251 -0.0803033 9.93182 
9.93763 -0.00940706 -0.0365784 
-0.00940706 9.9509 -0.0677503 
-0.0365784 -0.0677503 9.92624 
9.92659 -0.00201611 -0.0262834 
-0.00201611 9.94724 -0.0770879 
-0.0262834 -0.0770879 9.94093 
9.92392 -0.00142984 -0.0143659 
-0.00142984 9.92851 -0.0655647 
-0.0143659 -0.0655647 9.96232 
10.5751 -0.172668 -0.0362401 
-0.172668 9.93374 0.42806 
-0.0362401 0.42806 11.2807 
10.3441 -0.133575 0.0243426 
-0.133575 10.8046 0.153178 
0.0243426 0.153178 10.6409 
10.827 0.0397381 0.0267693 
0.0397381 10.2683 0.17445 
0.0267693 0.17445 10.6944 
10.7611 -0.0387163 0.245937 
-0.0387163 10.2128 0.150144 
0.245937 0.150144 10.8157 
10.465 -0.0381688 0.0221901 
-0.0381688 10.38 0.0623072 
0.0221901 0.0623072 9.84943 
10.6051 -0.0727009 -0.0743786 
-0.0727009 10.331 -0.0415705 
-0.0743786 -0.0415705 9.75832 
9.67478 -0.0283031 -0.0492186 
-0.0283031 9.67148 0.0323204 
-0.0492186 0.0323204 11.3482 
10.3623 0.124992 0.92797 
0.124992 10.3729 -0.492704 
0.92797 -0.492704 9.95917 
10.1013 0.0114948 -0.00857945 
0.0114948 10.2537 0.00313128 
-0.00857945 0.00313128 10.0834 
10.1341 -0.0428125 -0.00781952 
-0.0428125 10.1822 0.00803901 
-0.00781952 0.00803901 10.122 
10.1007 0.00694521 0.0257908 
0.00694521 10.0923 0.0490563 
0.0257908 0.0490563 10.2454 
10.1981 -0.0422879 0.0241008 
-0.0422879 10.0827 -0.032098 
0.0241008 -0.032098 10.1575 
9.80631 0.218641 -0.800519 
0.218641 10.4945 0.313194 
-0.800519 0.313194 9.13312 
9.95621 0.307112 -0.56524 
0.307112 9.69624 0.0289751 
-0.56524 0.0289751 9.78151 
9.59343 0.00418787 -0.52834 
0.00418787 9.5744 0.0569577 
-0.52834 0.0569577 10.2661 
9.68816 -0.158765 0.168758 
-0.158765 9.99465 -0.103594 
0.168758 -0.103594 9.75115 
9.94043 0.00854088 -0.0396695 
0.00854088 9.94929 -0.039778 
-0.0396695 -0.039778 9.93299 
9.96204 0.00309083 -0.0316754 
0.00309083 9.93908 -0.0382594 
-0.0316754 -0.0382594 9.9216 
9.9504 0.00743704 -0.0336158 
0.00743704 9.93904 -0.0346603 
-0.0336158 -0.0346603 9.93328 
9.94399 0.0288502 -0.0217792 
0.0288502 9.94236 -0.0435125 
-0.0217792 -0.0435125 9.93636 
9.97525 0.0149139 0.0639037 
0.0149139 9.88551 0.0831274 
0.0639037 0.0831274 9.32349 
9.67226 -0.00803689 -0.532624 
-0.00803689 9.97568 -0.0474172 
-0.532624 -0.0474172 9.53631 
9.54788 -0.115407 -0.415953 
-0.115407 10.046 -0.160435 
-0.415953 -0.160435 9.59041 
9.57277 -0.016091 -0.391319 
-0.016091 10.0042 -0.127655 
-0.391319 -0.127655 9.60722 
10.0228 -0.00396145 0.0295344 
-0.00396145 10.0483 -0.0595714 
0.0295344 -0.0595714 10.0599 
10.116 0.0160754 0.0164368 
0.0160754 9.97643 -0.0249065 
0.0164368 -0.0249065 10.0386 
9.99204 -0.0324443 0.0105704 
-0.0324443 10.0563 0.147735 
0.0105704 0.147735 10.0826 
10.0904 0.0233267 0.0314644 
0.0233267 9.9454 -0.00805929 
0.0314644 -0.00805929 10.0952 
9.96625 -1.14207e-05 -0.0633883 
-1.14207e-05 9.96388 0.0342279 
-0.0633883 0.0342279 9.97037 
9.96937 0.00107567 -0.0571205 
0.00107567 9.96828 0.0317205 
-0.0571205 0.0317205 9.96286 
9.96871 -9.6821e-05 -0.0621731 
-9.6821e-05 9.96315 0.0351953 
-0.0621731 0.0351953 9.96864 
9.96868 0.0030434 -0.0610548 
0.0030434 9.96444 0.0371015 
-0.0610548 0.0371015 9.96739 
9.89452 -0.0506921 -0.140646 
-0.0506921 9.87502 -0.0796801 
-0.140646 -0.0796801 9.9005 
9.8216 -0.11422 -0.297014 
-0.11422 9.86875 -0.0141325 
-0.297014 -0.0141325 9.97969 
9.83681 -0.117558 -0.11642 
-0.117558 9.86731 -0.0208871 
-0.11642 -0.0208871 9.96592 
9.66658 -0.046151 -0.0622843 
-0.046151 9.92903 0.131188 
-0.0622843 0.131188 10.0744 
9.88325 -0.0239383 0.0230175 
-0.0239383 9.79344 0.0537919 
0.0230175 0.0537919 10.0946 
9.9344 0.0670156 0.0273871 
0.0670156 9.88732 0.0884294 
0.0273871 0.0884294 9.94955 
9.88282 -0.0353955 0.0800414 
-0.0353955 9.84747 0.113973 
0.0800414 0.113973 10.041 
9.91169 0.00370308 0.00699476 
0.00370308 9.86442 0.114802 
0.00699476 0.114802 9.99515 
9.93509 0.00275012 0.0610347 
0.00275012 9.9243 -0.0417115 
0.0610347 -0.0417115 9.92546 
9.92609 -0.00109469 0.0563674 
-0.00109469 9.92374 -0.0399959 
0.0563674 -0.0399959 9.93501 
9.93686 0.00316449 0.0582083 
0.00316449 9.92937 -0.043099 
0.0582083 -0.043099 9.91861 
9.92836 0.00113258 0.063301 
0.00113258 9.92995 -0.0286866 
0.063301 -0.0286866 9.92653 
9.96621 -0.000297331 0.0379268 
-0.000297331 9.96232 0.0119352 
0.0379268 0.0119352 9.95222 
9.9703 0.00321428 0.0390486 
0.00321428 9.96016 0.0152122 
0.0390486 0.0152122 9.95029 
9.96798 7.52795e-05 0.0373651 
7.52795e-05 9.96347 0.0125897 
0.0373651 0.0125897 9.94931 
9.97094 0.00152922 0.0402607 
0.00152922 9.96787 0.0158285 
0.0402607 0.0158285 9.94194 
9.9802 0.0439292 -0.0142901 
0.0439292 9.97556 0.00124322 
-0.0142901 0.00124322 9.99717 
9.95261 0.0197819 -0.00556732 
0.0197819 9.98196 -0.00488764 
-0.00556732 -0.00488764 10.0184 
9.99725 0.0282173 -0.0147429 
0.0282173 9.96417 0.0531046 
-0.0147429 0.0531046 9.99151 
9.97261 0.00228297 -0.0279479 
0.00228297 9.98742 0.0148705 
-0.0279479 0.0148705 9.99291 
9.92873 -0.0304227 -0.00220309 
-0.0304227 9.91975 -0.0107798 
-0.00220309 -0.0107798 10.0276 
9.92295 0.0156525 0.0461652 
0.0156525 9.93462 -0.0243819 
0.0461652 -0.0243819 10.0185 
9.93446 -0.0214524 0.0335821 
-0.0214524 9.94008 -0.0144623 
0.0335821 -0.0144623 10.0016 
9.93237 -0.0181333 0.0396165 
-0.0181333 9.91484 -0.0127864 
0.0396165 -0.0127864 10.0289 
9.98815 -0.000756149 -0.00701924 
-0.000756149 9.98986 0.0582843 
-0.00701924 0.0582843 10.0023 
9.99575 -0.000769928 -0.00808163 
-0.000769928 9.99633 0.0552067 
-0.00808163 0.0552067 9.98828 
9.98947 -0.0025215 -0.00643263 
-0.0025215 9.99234 0.0533078 
-0.00643263 0.0533078 9.99856 
9.99832 0.000249876 -0.00387955 
0.000249876 9.99464 0.0547302 
-0.00387955 0.0547302 9.9874 
9.91256 -0.00902154 0.0338332 
-0.00902154 9.91809 0.071147 
0.0338332 0.071147 9.91347 
9.91072 -0.0097822 0.034034 
-0.0097822 9.91262 0.0682561 
0.034034 0.0682561 9.92078 
9.91103 -0.00682174 0.0340651 
-0.00682174 9.90921 0.0733647 
0.0340651 0.0733647 9.92388 
9.91221 -0.0145557 0.0336103 
-0.0145557 9.91634 0.0711344 
0.0336103 0.0711344 9.91557 
10.2936 -0.00111454 -0.10987 
-0.00111454 9.74333 0.0420302 
-0.10987 0.0420302 10.1626 
10.0212 -0.061774 -0.0741233 
-0.061774 9.91081 0.188722 
-0.0741233 0.188722 10.2675 
10.1778 -0.0232116 -0.014793 
-0.0232116 9.76855 0.0795155 
-0.014793 0.0795155 10.2532 
10.0413 -0.0299154 0.0693029 
-0.0299154 9.97567 0.026696 
0.0693029 0.026696 10.1825 
10.0148 -0.00397045 -0.00820246 
-0.00397045 10.0006 -0.0102401 
-0.00820246 -0.0102401 10.0348 
10.0209 0.00108721 -0.037837 
0.00108721 10.0166 0.0372982 
-0.037837 0.0372982 10.0127 
10.0097 -0.00380725 -0.00354155 
-0.00380725 10.0225 -0.0122446 
-0.00354155 -0.0122446 10.018 
9.99968 0.00447652 -0.0242025 
0.00447652 10.0026 -0.0138509 
-0.0242025 -0.0138509 10.0479 
9.92207 -0.00614923 -0.414158 
-0.00614923 9.79899 -0.00519303 
-0.414158 -0.00519303 9.56174 
9.97587 -0.102305 -0.503899 
-0.102305 9.93874 -0.0544011 
-0.503899 -0.0544011 9.36819 
9.7984 -0.196903 0.0849757 
-0.196903 9.85038 -0.355986 
0.0849757 -0.355986 9.63402 
9.82149 -0.0200182 -0.426794 
-0.0200182 9.82464 -0.0237643 
-0.426794 -0.0237643 9.63666 
9.93394 -0.00276381 -0.0441834 
-0.00276381 9.92978 -0.0411723 
-0.0441834 -0.0411723 9.94595 
9.92953 -0.00220354 -0.0528627 
-0.00220354 9.92588 -0.0482801 
-0.0528627 -0.0482801 9.95425 
9.93333 -0.000396131 -0.0522014 
-0.000396131 9.92513 -0.0479921 
-0.0522014 -0.0479921 9.95121 
9.937 0.00377889 -0.0591085 
0.00377889 9.92108 -0.0489389 
-0.0591085 -0.0489389 9.9516 
9.86458 0.0668768 -0.00378718 
0.0668768 9.82387 0.083938 
-0.00378718 0.083938 9.892 
9.86441 0.0447441 -0.0540252 
0.0447441 9.80427 0.126382 
-0.0540252 0.126382 9.91177 
9.8412 0.0542282 -0.0708793 
0.0542282 9.77962 0.137538 
-0.0708793 0.137538 9.95964 
9.86344 0.012951 -0.0734354 
0.012951 9.84541 0.138454 
-0.0734354 0.138454 9.87161 
9.84913 0.0383057 0.129953 
0.0383057 10.0815 -0.138678 
0.129953 -0.138678 9.82299 
9.78183 0.0927243 0.213702 
0.0927243 10.032 -0.154601 
0.213702 -0.154601 9.93981 
9.9793 -0.17786 0.394789 
-0.17786 10.0035 -0.115194 
0.394789 -0.115194 9.77083 
9.92254 -0.000653761 0.0684776 
-0.000653761 9.93487 -0.111881 
0.0684776 -0.111881 9.89625 
9.99114 0.00277133 0.0576423 
0.00277133 9.99197 0.0239876 
0.0576423 0.0239876 9.99504 
9.99382 3.01729e-05 0.0574464 
3.01729e-05 9.99309 0.0252694 
0.0574464 0.0252694 9.99123 
9.99052 0.000608498 0.058032 
0.000608498 9.98558 0.0252073 
0.058032 0.0252073 10.002 
9.99578 0.000535069 0.0537149 
0.000535069 9.99295 0.0238564 
0.0537149 0.0238564 9.98941 
10.121 0.0100564 0.0211931 
0.0100564 10.1466 0.0208517 
0.0211931 0.0208517 10.2198 
10.2354 0.00104284 -0.0423133 
0.00104284 10.2684 0.00864207 
-0.0423133 0.00864207 9.98364 
10.0809 0.00253033 0.00693625 
0.00253033 10.1 -0.0258105 
0.00693625 -0.0258105 10.3065 
10.1302 0.00129735 -0.0113616 
0.00129735 10.1567 0.119553 
-0.0113616 0.119553 10.2005 
9.94713 0.019295 0.114727 
0.019295 9.90436 0.102655 
0.114727 0.102655 10.075 
9.89558 -0.0072569 0.00687834 
-0.0072569 9.93414 -0.0140404 
0.00687834 -0.0140404 10.0968 
10.0122 -0.0458664 -0.0428148 
-0.0458664 10.0082 -0.0470775 
-0.0428148 -0.0470775 9.90618 
9.85205 -0.0715495 0.00121583 
-0.0715495 10.0307 -0.0116808 
0.00121583 -0.0116808 10.0437 
8.85291 1.24372 1.08183 
1.24372 6.08951 -0.579866 
1.08183 -0.579866 15.1481 
7.03525 2.53623 -0.146303 
2.53623 5.45166 -1.3849 
-0.146303 -1.3849 17.6036 
13.8887 0.800534 -1.64026 
0.800534 12.2073 2.44955 
-1.64026 2.44955 3.99451 
9.24672 -1.58862 2.80614 
-1.58862 12.2002 -5.33887 
2.80614 -5.33887 8.64355 
9.96067 0.00145981 -0.0341734 
0.00145981 9.96648 -0.0465231 
-0.0341734 -0.0465231 9.96927 
9.96702 0.00404766 -0.0359867 
0.00404766 9.97259 -0.044672 
-0.0359867 -0.044672 9.9568 
9.96761 0.00475264 -0.0304118 
0.00475264 9.96946 -0.0483414 
-0.0304118 -0.0483414 9.95935 
9.96331 0.00489451 -0.0346235 
0.00489451 9.96828 -0.0463998 
-0.0346235 -0.0463998 9.96483 
9.7569 0.190573 -0.144649 
0.190573 9.91925 0.0988947 
-0.144649 0.0988947 9.93936 
9.85266 -0.00412053 -0.0143418 
-0.00412053 9.67251 0.279283 
-0.0143418 0.279283 10.0904 
9.92477 0.0243548 -0.0842088 
0.0243548 9.75368 0.233144 
-0.0842088 0.233144 9.93707 
10.0415 0.14678 0.018984 
0.14678 9.59099 0.314186 
0.018984 0.314186 9.98301 
9.93931 0.00883489 -0.0173088 
0.00883489 9.85836 -0.0407103 
-0.0173088 -0.0407103 10.1983 
9.92664 0.0255799 0.0315074 
0.0255799 9.89427 -0.0339916 
0.0315074 -0.0339916 10.1751 
9.9145 -0.0126813 -0.026622 
-0.0126813 9.83627 -0.0434666 
-0.026622 -0.0434666 10.2452 
9.94111 0.0376204 -0.0247156 
0.0376204 9.88191 -0.0781435 
-0.0247156 -0.0781435 10.173 
10.1043 0.0495197 -0.0493165 
0.0495197 10.1656 -0.0809538 
-0.0493165 -0.0809538 10.0256 
10.0237 0.0489553 0.09967 
0.0489553 10.0248 0.0418102 
0.09967 0.0418102 10.247 
10.175 -0.233151 -0.0207395 
-0.233151 9.83156 -0.0906661 
-0.0207395 -0.0906661 10.289 
10.0592 -0.107879 0.146314 
-0.107879 10.0631 -0.0621693 
0.146314 -0.0621693 10.1732 
9.94478 -0.0123235 -0.0442051 
-0.0123235 9.93792 0.0466828 
-0.0442051 0.0466828 9.95676 
9.95172 -0.0117734 -0.048477 
-0.0117734 9.93158 0.0476021 
-0.048477 0.0476021 9.95616 
9.9369 -0.00766198 -0.0440834 
-0.00766198 9.93797 0.0433208 
-0.0440834 0.0433208 9.96459 
9.93635 -0.00068859 -0.0421737 
-0.00068859 9.93874 0.0362795 
-0.0421737 0.0362795 9.96438 
9.97324 0.00117848 -0.0446215 
0.00117848 9.9671 -0.0331579 
-0.0446215 -0.0331579 9.97031 
9.97452 -0.000647365 -0.0462729 
-0.000647365 9.96329 -0.0316489 
-0.0462729 -0.0316489 9.97283 
9.96968 -0.000472366 -0.047347 
-0.000472366 9.96643 -0.0341686 
-0.047347 -0.0341686 9.97454 
9.97651 0.00385143 -0.0435626 
0.00385143 9.97197 -0.0287551 
-0.0435626 -0.0287551 9.96216 
9.94173 -0.000994002 0.000625022 
-0.000994002 9.92725 0.0846066 
0.000625022 0.0846066 9.9589 
9.93706 0.00366304 0.0039558 
0.00366304 9.9657 0.0871134 
0.0039558 0.0871134 9.92512 
9.94806 -0.00496904 0.00682897 
-0.00496904 9.93424 0.0784603 
0.00682897 0.0784603 9.94558 
9.94999 0.00508032 0.00716338 
0.00508032 9.94049 0.0637332 
0.00716338 0.0637332 9.9374 
10.0775 6.75247e-05 0.0108505 
6.75247e-05 10.0729 0.00884178 
0.0108505 0.00884178 10.1384 
10.0972 0.0102537 0.0108118 
0.0102537 10.0399 0.0102603 
0.0108118 0.0102603 10.1516 
10.0776 -0.00354567 0.00668127 
-0.00354567 10.0741 0.0127041 
0.00668127 0.0127041 10.137 
10.0621 -0.00745026 0.0189204 
-0.00745026 10.0992 -0.0232923 
0.0189204 -0.0232923 10.1274 
10.8867 -0.288957 -0.12974 
-0.288957 11.3165 -0.0158813 
-0.12974 -0.0158813 9.12634 
9.75815 -0.27659 -0.831665 
-0.27659 10.3009 -0.291932 
-0.831665 -0.291932 11.2704 
9.76564 -0.520118 -0.780026 
-0.520118 10.286 -0.575493 
-0.780026 -0.575493 11.2779 
9.81329 -0.353235 -0.424112 
-0.353235 10.325 -0.157756 
-0.424112 -0.157756 11.1912 
9.93759 0.012142 0.0464454 
0.012142 9.91251 0.0312713 
0.0464454 0.0312713 9.91983 
9.95076 0.00374795 0.0506541 
0.00374795 9.91488 0.0281406 
0.0506541 0.0281406 9.90429 
9.90186 -0.0209907 0.0732801 
-0.0209907 9.91846 0.0532792 
0.0732801 0.0532792 9.94961 
9.92068 -0.0169143 0.0389544 
-0.0169143 9.89885 0.0498589 
0.0389544 0.0498589 9.95041 
9.83726 0.0116711 0.0148803 
0.0116711 9.87654 -0.0257627 
0.0148803 -0.0257627 10.0708 
9.90067 -0.0171127 -0.0401781 
-0.0171127 9.92011 0.0119842 
-0.0401781 0.0119842 9.96381 
9.80797 -0.0376796 0.00625432 
-0.0376796 9.95196 0.00212464 
0.00625432 0.00212464 10.0247 
9.85545 0.0114022 -0.0755154 
0.0114022 9.91834 -0.0817752 
-0.0755154 -0.0817752 10.0108 
9.90195 0.0112214 -0.0510461 
0.0112214 9.87784 0.0726463 
-0.0510461 0.0726463 9.99336 
9.91329 0.00937217 -0.0319972 
0.00937217 9.90051 0.0666954 
-0.0319972 0.0666954 9.95935 
9.91561 0.019684 -0.0805983 
0.019684 9.88465 0.0640898 
-0.0805983 0.0640898 9.97289 
9.91169 -0.0214249 -0.0370058 
-0.0214249 9.87609 0.0677687 
-0.0370058 0.0677687 9.98536 
9.23642 0.352817 0.351001 
0.352817 9.47894 0.082324 
0.351001 0.082324 9.16062 
9.48737 -0.268866 -0.450428 
-0.268866 9.37657 0.0106773 
-0.450428 0.0106773 9.01203 
9.49619 -0.19519 -0.00634816 
-0.19519 9.21064 -0.108774 
-0.00634816 -0.108774 9.16914 
9.58365 -0.234787 -0.415519 
-0.234787 9.15617 -0.234936 
-0.415519 -0.234936 9.13615 
9.72465 0.00854522 0.0258451 
0.00854522 10.1395 -0.0299029 
0.0258451 -0.0299029 9.64645 
9.88075 0.0940021 -0.147911 
0.0940021 10.0519 -0.0755111 
-0.147911 -0.0755111 9.57798 
10.0519 0.0119385 -0.0731821 
0.0119385 10.006 0.00759884 
-0.0731821 0.00759884 9.4528 
9.96937 -0.0197265 -0.107562 
-0.0197265 10.0125 0.00622369 
-0.107562 0.00622369 9.52876 
9.779 0.046292 -0.945665 
0.046292 10.2534 1.34357 
-0.945665 1.34357 9.3712 
8.99 0.129975 0.490135 
0.129975 9.48839 0.0999837 
0.490135 0.0999837 10.9252 
10.1339 0.0330102 -0.154797 
0.0330102 10.4999 1.12505 
-0.154797 1.12505 8.76979 
10.1934 0.616985 -0.161284 
0.616985 9.39926 0.0746827 
-0.161284 0.0746827 9.8109 
9.97942 -0.00165967 -0.00536361 
-0.00165967 9.96674 0.0803039 
-0.00536361 0.0803039 9.9661 
9.95938 0.00313378 -0.005552 
0.00313378 9.96986 0.0602625 
-0.005552 0.0602625 9.98301 
9.9657 -0.00303967 -0.0094703 
-0.00303967 9.97351 0.0801244 
-0.0094703 0.0801244 9.97305 
9.97729 0.00206133 -0.00544525 
0.00206133 9.97954 0.0777654 
-0.00544525 0.0777654 9.95543 
9.69538 -0.4728 0.163568 
-0.4728 10.1833 -0.0126843 
0.163568 -0.0126843 10.2648 
9.95438 -0.0471666 0.399239 
-0.0471666 10.1166 0.091567 
0.399239 0.091567 10.0724 
9.76653 -0.60295 0.188101 
-0.60295 10.069 -0.0829567 
0.188101 -0.0829567 10.3079 
9.50396 -0.402393 0.0477938 
-0.402393 10.3099 -0.0974969 
0.0477938 -0.0974969 10.3296 
9.80399 -0.0571635 -0.0486261 
-0.0571635 9.88966 0.00567441 
-0.0486261 0.00567441 10.0886 
9.83572 -0.0594728 -0.10537 
-0.0594728 9.89985 0.0198448 
-0.10537 0.0198448 10.0467 
9.83539 -0.0183744 -0.178729 
-0.0183744 9.85995 -0.0254944 
-0.178729 -0.0254944 10.0869 
9.87604 -0.042356 -0.122135 
-0.042356 9.896 0.0229678 
-0.122135 0.0229678 10.0102 
9.94963 0.00687937 0.0177429 
0.00687937 9.94399 0.0223613 
0.0177429 0.0223613 9.95545 
9.94534 0.0048676 0.0233496 
0.0048676 9.94817 0.0208257 
0.0233496 0.0208257 9.95555 
9.94762 0.00685613 0.0141135 
0.00685613 9.94691 0.0196355 
0.0141135 0.0196355 9.95454 
9.94794 0.0086588 0.0236065 
0.0086588 9.94317 0.0172945 
0.0236065 0.0172945 9.95795 
9.95278 -0.00475071 0.00475417 
-0.00475071 9.94681 -0.000903004 
0.00475417 -0.000903004 9.99665 
9.9484 -0.00171784 -0.00214412 
-0.00171784 9.95665 -0.0031704 
-0.00214412 -0.0031704 9.99119 
9.9531 -0.0027173 -0.000506361 
-0.0027173 9.94798 -0.00397804 
-0.000506361 -0.00397804 9.99516 
9.95792 -0.00585607 0.00451353 
-0.00585607 9.95363 -0.00409135 
0.00451353 -0.00409135 9.98469 
10.0988 0.0222152 -0.132572 
0.0222152 9.52391 0.160297 
-0.132572 0.160297 10.6086 
10.0206 -0.0994221 -0.282925 
-0.0994221 9.56817 0.315294 
-0.282925 0.315294 10.6425 
10.2086 0.0065892 -0.151497 
0.0065892 9.49504 0.241151 
-0.151497 0.241151 10.5276 
9.56723 0.219104 -0.246766 
0.219104 10.5057 0.565819 
-0.246766 0.565819 10.1584 
9.90999 -0.0698405 -0.0576863 
-0.0698405 9.91149 0.0663419 
-0.0576863 0.0663419 9.98531 
9.84848 -0.116601 -0.0532131 
-0.116601 9.90445 0.0626442 
-0.0532131 0.0626442 10.0539 
9.88975 -0.096219 0.0351906 
-0.096219 9.90761 0.0758466 
0.0351906 0.0758466 10.0094 
9.88224 -0.0885095 -0.0194886 
-0.0885095 9.91214 0.0669221 
-0.0194886 0.0669221 10.0124 
9.93985 0.00110198 -0.0510346 
0.00110198 9.9299 0.0475789 
-0.0510346 0.0475789 9.95779 
9.94345 -0.00564726 -0.0557718 
-0.00564726 9.92881 0.0514302 
-0.0557718 0.0514302 9.95528 
9.94115 -0.006225 -0.0507092 
-0.006225 9.9255 0.0510038 
-0.0507092 0.0510038 9.96089 
9.93649 -0.0016442 -0.0543417 
-0.0016442 9.93199 0.040317 
-0.0543417 0.040317 9.95906 
9.94681 0.000986801 0.00762611 
0.000986801 9.95797 0.0201724 
0.00762611 0.0201724 9.92959 
9.9493 0.00680939 0.010843 
0.00680939 9.95043 0.0157495 
0.010843 0.0157495 9.93463 
9.94501 0.0060355 0.0196848 
0.0060355 9.95295 0.0151247 
0.0196848 0.0151247 9.9364 
9.94502 0.00471044 0.0246841 
0.00471044 9.95609 0.013846 
0.0246841 0.013846 9.93325 
9.91283 -0.00140906 0.0548631 
-0.00140906 9.89678 -0.0500035 
0.0548631 -0.0500035 9.94403 
9.90904 0.00484781 0.0544176 
0.00484781 9.8953 -0.056287 
0.0544176 -0.056287 9.9493 
9.9029 0.00344641 0.0529749 
0.00344641 9.90518 -0.0492082 
0.0529749 -0.0492082 9.94556 
9.91253 -0.0105416 0.0540074 
-0.0105416 9.88615 -0.0492248 
0.0540074 -0.0492248 9.95496 
10.0933 0.0221495 -0.000936439 
0.0221495 10.1242 0.0363443 
-0.000936439 0.0363443 10.1858 
10.1362 0.00661449 -0.0163146 
0.00661449 10.0875 0.0126239 
-0.0163146 0.0126239 10.1797 
10.1301 0.0014041 0.00589537 
0.0014041 10.1032 0.0382488 
0.00589537 0.0382488 10.17 
10.1013 0.0218108 -0.0226817 
0.0218108 10.1364 -0.0023608 
-0.0226817 -0.0023608 10.1656 
9.85114 0.0416306 0.10137 
0.0416306 9.86946 0.0175534 
0.10137 0.0175534 10.0743 
9.84834 0.0814261 0.0985427 
0.0814261 9.87062 0.0205026 
0.0985427 0.0205026 10.0759 
9.89272 0.0365457 0.0611203 
0.0365457 9.88665 0.0316921 
0.0611203 0.0316921 10.0155 
9.8745 0.0419019 0.0389352 
0.0419019 9.87672 0.00927628 
0.0389352 0.00927628 10.0437 
9.94007 -0.0874332 0.0260095 
-0.0874332 9.89211 -0.0145578 
0.0260095 -0.0145578 9.96169 
9.86178 0.176468 0.0533038 
0.176468 9.86909 0.108102 
0.0533038 0.108102 10.063 
9.83791 0.0880096 0.0969965 
0.0880096 9.92211 -0.0205229 
0.0969965 -0.0205229 10.0338 
9.84279 -0.01848 0.0661572 
-0.01848 9.80549 0.170427 
0.0661572 0.170427 10.1456 
9.83388 -0.0156984 -0.0723016 
-0.0156984 9.91328 0.0470905 
-0.0723016 0.0470905 9.93865 
9.81706 0.012189 -0.0693201 
0.012189 9.90217 0.0584245 
-0.0693201 0.0584245 9.96657 
9.84131 0.0396597 -0.0621796 
0.0396597 9.88539 0.0508964 
-0.0621796 0.0508964 9.9591 
9.8005 0.0417417 -0.0820376 
0.0417417 9.9162 0.0702221 
-0.0820376 0.0702221 9.96911 
9.86148 2.38967 -0.74084 
2.38967 8.72091 -1.39755 
-0.74084 -1.39755 12.2419 
10.432 0.22247 0.0491014 
0.22247 9.62404 -1.38507 
0.0491014 -1.38507 10.7682 
10.4192 -1.19976 -0.754382 
-1.19976 10.4392 -0.376759 
-0.754382 -0.376759 9.96582 
10.2765 0.640808 0.653709 
0.640808 10.3999 -1.29675 
0.653709 -1.29675 10.1479 
9.92511 0.00602931 -0.0488344 
0.00602931 9.9045 -0.0648663 
-0.0488344 -0.0648663 9.9533 
9.91265 0.0057973 -0.047984 
0.0057973 9.92793 -0.0655128 
-0.047984 -0.0655128 9.94233 
9.91316 0.0111962 -0.0582091 
0.0111962 9.90549 -0.0709553 
-0.0582091 -0.0709553 9.96425 
9.93472 0.0089354 -0.0392488 
0.0089354 9.89698 -0.0375348 
-0.0392488 -0.0375348 9.9512 
10.0616 -1.86174 -2.81571 
-1.86174 9.59906 0.148828 
-2.81571 0.148828 9.18359 
10.3104 2.03131 -0.931337 
2.03131 9.47106 -0.000491008 
-0.931337 -0.000491008 9.06275 
9.86457 0.183733 -0.086058 
0.183733 8.149 1.43172 
-0.086058 1.43172 10.8307 
10.9247 0.134346 -0.130991 
0.134346 11.4642 -1.91937 
-0.130991 -1.91937 6.4554 
9.94538 0.0110969 0.0221716 
0.0110969 9.96113 -0.0122997 
0.0221716 -0.0122997 10.003 
9.92839 0.0147955 -0.000480015 
0.0147955 9.97122 -0.0267334 
-0.000480015 -0.0267334 10.0099 
9.94 0.00965603 0.0159971 
0.00965603 9.9625 -0.0118867 
0.0159971 -0.0118867 10.007 
9.9602 0.00777045 0.00954273 
0.00777045 9.92585 0.029135 
0.00954273 0.029135 10.0235 
9.92574 0.0813103 0.032813 
0.0813103 9.84207 -0.0396097 
0.032813 -0.0396097 9.9445 
9.91841 0.0434675 0.04489 
0.0434675 9.94134 -0.112844 
0.04489 -0.112844 9.85257 
9.84211 -0.00221973 0.0244519 
-0.00221973 9.85551 -0.0327495 
0.0244519 -0.0327495 10.0147 
9.81568 0.0446703 0.112305 
0.0446703 9.85679 -0.108016 
0.112305 -0.108016 10.0398 
10.016 0.314845 0.268175 
0.314845 9.55619 -0.544472 
0.268175 -0.544472 10.0071 
10.1271 0.173568 0.494799 
0.173568 9.29722 -0.568435 
0.494799 -0.568435 10.155 
10.4184 -0.300194 -0.073813 
-0.300194 9.47261 -0.692877 
-0.073813 -0.692877 9.68836 
10.0106 0.22138 0.381631 
0.22138 9.57048 -0.435433 
0.381631 -0.435433 9.99829 
9.97939 0.00329817 0.000622432 
0.00329817 9.98005 -0.00122875 
0.000622432 -0.00122875 9.99311 
9.97467 0.00816421 0.00118064 
0.00816421 9.97974 0.000942552 
0.00118064 0.000942552 9.99815 
9.97771 -0.00588135 0.000390845 
-0.00588135 9.97702 -0.0037019 
0.000390845 -0.0037019 9.99782 
9.98345 -0.00325281 -0.00593719 
-0.00325281 9.97751 0.00619036 
-0.00593719 0.00619036 9.99159 
9.95906 0.00987494 0.0587949 
0.00987494 9.9535 -0.0541435 
0.0587949 -0.0541435 9.98168 
9.96847 -0.00979147 0.0588666 
-0.00979147 9.97174 -0.0529081 
0.0588666 -0.0529081 9.95403 
9.96702 0.00141382 0.0523849 
0.00141382 9.96393 -0.0521597 
0.0523849 -0.0521597 9.9633 
9.96959 -0.000706638 0.0447821 
-0.000706638 9.96173 -0.0397967 
0.0447821 -0.0397967 9.96292 
9.54387 0.00844668 0.466267 
0.00844668 9.75557 0.278509 
0.466267 0.278509 10.6252 
10.4073 -0.640089 0.353454 
-0.640089 9.58155 0.407831 
0.353454 0.407831 9.93588 
9.71438 0.317485 0.521345 
0.317485 10.4948 -0.569097 
0.521345 -0.569097 9.71552 
10.739 -0.238114 0.861575 
-0.238114 9.58288 1.16089 
0.861575 1.16089 9.60277 
9.90469 0.00743546 0.0400048 
0.00743546 9.88407 -0.0522501 
0.0400048 -0.0522501 10.0056 
9.94749 0.0129779 0.0228014 
0.0129779 9.90958 -0.035279 
0.0228014 -0.035279 9.93729 
9.91422 0.0798711 0.00195117 
0.0798711 9.93939 -0.0242924 
0.00195117 -0.0242924 9.94075 
9.86744 -0.0111799 0.0360722 
-0.0111799 9.92573 -0.0189857 
0.0360722 -0.0189857 10.0012 
9.87648 0.10531 0.0134262 
0.10531 9.88821 0.0602056 
0.0134262 0.0602056 9.98216 
9.90706 0.0631778 0.0218145 
0.0631778 9.86747 0.0127191 
0.0218145 0.0127191 9.97232 
9.86708 0.0720639 0.0701172 
0.0720639 9.84252 -0.0347631 
0.0701172 -0.0347631 10.0372 
9.91064 0.0702776 0.0148359 
0.0702776 9.92046 0.0191657 
0.0148359 0.0191657 9.91576 
9.96779 0.00238941 0.0472953 
0.00238941 9.98203 0.0232947 
0.0472953 0.0232947 9.99792 
9.98215 0.00207837 0.0532104 
0.00207837 9.99189 0.0277968 
0.0532104 0.0277968 9.9737 
9.99216 -0.00424113 0.046296 
-0.00424113 9.9745 0.0290061 
0.046296 0.0290061 9.98109 
9.98706 0.000279471 0.050008 
0.000279471 9.97906 0.0317273 
0.050008 0.0317273 9.98162 
10.0924 0.0155219 0.0111873 
0.0155219 10.0307 0.0119781 
0.0111873 0.0119781 9.9906 
10.0176 -0.0153053 0.000311668 
-0.0153053 9.99825 -0.0229652 
0.000311668 -0.0229652 10.0979 
10.02 0.00465104 0.0122069 
0.00465104 10.0173 0.00271242 
0.0122069 0.00271242 10.0764 
10.0512 0.0123958 -0.0623254 
0.0123958 9.97906 0.039882 
-0.0623254 0.039882 10.0834 
9.88579 -0.0161817 0.0217967 
-0.0161817 9.90201 0.0198879 
0.0217967 0.0198879 9.95777 
9.90392 -0.00583555 0.0396164 
-0.00583555 9.89005 0.0313268 
0.0396164 0.0313268 9.9516 
9.89585 -0.00395693 0.0320288 
-0.00395693 9.90488 0.0449063 
0.0320288 0.0449063 9.94484 
9.89853 -0.0121757 0.0288448 
-0.0121757 9.88686 0.0354567 
0.0288448 0.0354567 9.96017 
9.98078 0.00409661 0.0101241 
0.00409661 9.98053 0.0203611 
0.0101241 0.0203611 9.98566 
9.97976 0.00781491 0.0076526 
0.00781491 9.98343 0.0143613 
0.0076526 0.0143613 9.98379 
9.96741 -0.00162591 0.0248091 
-0.00162591 9.98655 0.00809515 
0.0248091 0.00809515 9.99301 
9.97159 0.00212295 0.0252056 
0.00212295 9.99279 0.00754101 
0.0252056 0.00754101 9.9826 
9.9518 -0.00523153 0.0367946 
-0.00523153 9.95585 -0.0429668 
0.0367946 -0.0429668 9.95758 
9.95705 -0.0142481 0.0479527 
-0.0142481 9.94862 -0.0373903 
0.0479527 -0.0373903 9.95956 
9.94754 -0.00238201 0.035108 
-0.00238201 9.95246 -0.035401 
0.035108 -0.035401 9.96523 
9.96174 -0.01171 0.044691 
-0.01171 9.94818 -0.0293545 
0.044691 -0.0293545 9.95531 
10.0194 -0.0392279 -0.0136272 
-0.0392279 9.97433 -0.00756236 
-0.0136272 -0.00756236 10.2434 
10.0509 -0.0552838 -0.0361833 
-0.0552838 9.96799 -0.0131215 
-0.0361833 -0.0131215 10.2182 
10.0079 -0.0736028 -0.0215522 
-0.0736028 9.92512 0.0494773 
-0.0215522 0.0494773 10.3041 
10.0746 0.0883352 0.0409668 
0.0883352 9.94028 0.118742 
0.0409668 0.118742 10.2222 
10.154 -0.0555539 -0.0274953 
-0.0555539 9.41532 0.135269 
-0.0274953 0.135269 10.4315 
10.321 0.107648 -0.187633 
0.107648 9.53229 0.114418 
-0.187633 0.114418 10.1475 
10.2161 -0.0499219 -0.0913542 
-0.0499219 9.43975 0.00368861 
-0.0913542 0.00368861 10.3449 
10.0908 -0.0587812 -0.0444325 
-0.0587812 9.71655 0.393877 
-0.0444325 0.393877 10.1935 
9.88643 -0.0450073 0.0347914 
-0.0450073 9.8568 0.0260292 
0.0347914 0.0260292 9.92515 
9.87962 0.0153263 0.0384913 
0.0153263 9.90852 0.0678405 
0.0384913 0.0678405 9.88024 
9.86667 0.00672735 0.0337857 
0.00672735 9.93394 0.0759834 
0.0337857 0.0759834 9.86777 
9.86532 -0.0193239 0.0482501 
-0.0193239 9.84624 0.0831083 
0.0482501 0.0831083 9.95681 
9.95271 0.00138207 0.0543136 
0.00138207 9.95226 0.053002 
0.0543136 0.053002 9.98322 
9.9566 0.00143221 0.040478 
0.00143221 9.963 0.0461257 
0.040478 0.0461257 9.9686 
9.9712 0.00245588 0.0462144 
0.00245588 9.96978 0.0566549 
0.0462144 0.0566549 9.94722 
9.96292 -0.00262795 0.0463739 
-0.00262795 9.96271 0.0414215 
0.0463739 0.0414215 9.96257 
9.9184 0.0077146 0.0513811 
0.0077146 9.93364 0.00845219 
0.0513811 0.00845219 9.85804 
9.90838 -0.00310416 0.0564273 
-0.00310416 9.91979 0.0110882 
0.0564273 0.0110882 9.88191 
9.9385 0.026264 0.0674504 
0.026264 9.94869 0.000518328 
0.0674504 0.000518328 9.8229 
9.92163 -0.00149644 0.0413988 
-0.00149644 9.9106 0.0103245 
0.0413988 0.0103245 9.87785 
6.54627 -7.53331 -0.32219 
-7.53331 17.5575 9.74573 
-0.32219 9.74573 -6.64796 
1.65911 4.96965 2.04078 
4.96965 5.75796 -3.32597 
2.04078 -3.32597 10.0387 
9.57497 -1.18416 -1.60947 
-1.18416 11.5633 5.52821 
-1.60947 5.52821 -3.6825 
8.95108 0.418313 -2.38969 
0.418313 -1.37624 4.00141 
-2.38969 4.00141 9.88094 
9.94509 -0.00850963 0.0410119 
-0.00850963 9.95838 -0.0469604 
0.0410119 -0.0469604 9.95758 
9.94902 -0.00374408 0.030001 
-0.00374408 9.95966 -0.0452137 
0.030001 -0.0452137 9.95237 
9.94719 -0.00641775 0.044822 
-0.00641775 9.95792 -0.0422748 
0.044822 -0.0422748 9.95593 
9.94431 -0.00499205 0.0443934 
-0.00499205 9.9566 -0.0393614 
0.0443934 -0.0393614 9.96014 
9.86998 0.0345809 -0.046743 
0.0345809 9.86265 0.0572291 
-0.046743 0.0572291 9.92489 
9.89568 0.0340949 -0.0466291 
0.0340949 9.85609 0.0727135 
-0.0466291 0.0727135 9.90574 
9.90271 0.0196852 -0.0400977 
0.0196852 9.86967 0.0847857 
-0.0400977 0.0847857 9.88514 
9.88346 0.0219403 -0.0909986 
0.0219403 9.84518 0.0949277 
-0.0909986 0.0949277 9.92888 
9.94066 -0.0076741 0.0350539 
-0.0076741 9.94804 0.0629312 
0.0350539 0.0629312 9.94463 
9.94254 0.00174433 0.0460666 
0.00174433 9.95365 0.0583452 
0.0460666 0.0583452 9.93714 
9.93722 -0.00156171 0.0299615 
-0.00156171 9.93582 0.0633555 
0.0299615 0.0633555 9.96029 
9.94348 0.0010521 0.03906 
0.0010521 9.9486 0.065311 
0.03906 0.065311 9.94125 
10.2335 0.139017 0.000976955 
0.139017 9.94836 0.193086 
0.000976955 0.193086 10.7201 
10.4705 0.322176 0.0143576 
0.322176 10.0749 0.517872 
0.0143576 0.517872 10.3566 
10.2793 -0.0081014 -0.0620389 
-0.0081014 9.97818 0.249105 
-0.0620389 0.249105 10.6445 
10.3419 0.025957 -0.130321 
0.025957 10.0261 0.160301 
-0.130321 0.160301 10.534 
9.94229 -0.0962127 -0.0132383 
-0.0962127 9.93688 -0.0596449 
-0.0132383 -0.0596449 9.73428 
9.93912 -0.0250877 -0.0209855 
-0.0250877 9.85926 -0.0296908 
-0.0209855 -0.0296908 9.81506 
9.94728 -0.0395061 0.0334906 
-0.0395061 9.86301 -0.0691509 
0.0334906 -0.0691509 9.80316 
9.94581 -0.0410398 0.0215588 
-0.0410398 9.88039 -0.0586148 
0.0215588 -0.0586148 9.78726 
9.98079 -0.00122508 -0.014084 
-0.00122508 9.97946 -0.02722 
-0.014084 -0.02722 9.97725 
9.98171 0.00104856 -0.0103771 
0.00104856 9.98768 -0.0259111 
-0.0103771 -0.0259111 9.96811 
9.96543 -0.00270769 -0.0225657 
-0.00270769 9.98379 -0.0165409 
-0.0225657 -0.0165409 9.98828 
9.9721 0.00137868 -0.0223765 
0.00137868 9.98578 -0.0191595 
-0.0223765 -0.0191595 9.97961 
9.95537 -0.00619894 0.0445326 
-0.00619894 9.95586 -0.0327219 
0.0445326 -0.0327219 9.96549 
9.95774 0.0006568 0.0369225 
0.0006568 9.9402 -0.0356061 
0.0369225 -0.0356061 9.97878 
9.96037 -0.00851117 0.0433265 
-0.00851117 9.96071 -0.0342836 
0.0433265 -0.0342836 9.95564 
9.96417 -0.0107589 0.038908 
-0.0107589 9.95449 -0.0326563 
0.038908 -0.0326563 9.95806 
9.96627 0.0081116 -0.0517538 
0.0081116 9.94517 -0.0191657 
-0.0517538 -0.0191657 9.94679 
9.95696 0.00323983 -0.0440111 
0.00323983 9.95252 -0.021196 
-0.0440111 -0.021196 9.94875 
9.95926 0.0012284 -0.0556247 
0.0012284 9.96135 -0.0196487 
-0.0556247 -0.0196487 9.93762 
9.9644 0.0058204 -0.0491932 
0.0058204 9.94935 -0.0226899 
-0.0491932 -0.0226899 9.94448 
9.89247 0.0591482 0.0489712 
0.0591482 9.94435 0.0124463 
0.0489712 0.0124463 9.92047 
9.93286 0.0605409 0.0691861 
0.0605409 9.91258 -0.0146785 
0.0691861 -0.0146785 9.91185 
9.93537 0.0239577 0.0319175 
0.0239577 9.92286 0.0178612 
0.0319175 0.0178612 9.89905 
9.90204 0.0573704 0.0531547 
0.0573704 9.95101 0.00577733 
0.0531547 0.00577733 9.90424 
11.6161 -0.323092 0.143208 
-0.323092 10.2952 0.328105 
0.143208 0.328105 10.4369 
9.41839 0.175267 0.135704 
0.175267 11.0292 0.190725 
0.135704 0.190725 11.9006 
10.2981 0.319475 0.201056 
0.319475 8.66785 0.161258 
0.201056 0.161258 13.3823 
11.0851 0.325956 -0.952549 
0.325956 9.63551 0.044238 
-0.952549 0.044238 11.6276 
10.6808 -0.314848 -0.0906197 
-0.314848 10.4921 0.118988 
-0.0906197 0.118988 10.5635 
10.4763 0.0116976 0.127166 
0.0116976 10.0441 0.194399 
0.127166 0.194399 11.216 
10.6531 0.00561333 -0.327427 
0.00561333 10.8694 -0.0669976 
-0.327427 -0.0669976 10.2138 
10.5034 0.492467 -0.426258 
0.492467 10.9296 0.513191 
-0.426258 0.513191 10.3034 
9.89154 0.152542 0.0464293 
0.152542 9.95057 0.306407 
0.0464293 0.306407 11.6807 
10.8824 -0.119779 -0.0132693 
-0.119779 10.6167 -0.132007 
-0.0132693 -0.132007 10.0237 
10.6075 -0.175593 0.166662 
-0.175593 10.9325 -0.238846 
0.166662 -0.238846 9.98284 
10.7326 -0.0975433 -0.100666 
-0.0975433 11.1752 0.612778 
-0.100666 0.612778 9.61507 
9.88307 0.117022 0.0309523 
0.117022 9.87835 0.0785815 
0.0309523 0.0785815 10.0125 
9.8899 0.0324725 -0.0809565 
0.0324725 9.88681 0.136614 
-0.0809565 0.136614 9.99723 
9.88355 0.053746 -0.00614676 
0.053746 9.91352 0.0591227 
-0.00614676 0.0591227 9.97687 
9.94158 0.085826 0.0226426 
0.085826 9.91491 0.037617 
0.0226426 0.037617 9.91745 
9.91567 -0.105672 0.0118877 
-0.105672 9.91 -0.038526 
0.0118877 -0.038526 9.95868 
9.86838 -0.160084 0.0250151 
-0.160084 9.89813 -0.0160955 
0.0250151 -0.0160955 10.0178 
9.79174 -0.0678627 -0.144269 
-0.0678627 9.91949 -0.0902237 
-0.144269 -0.0902237 10.0731 
9.89051 -0.101446 0.0166232 
-0.101446 9.93173 -0.0616203 
0.0166232 -0.0616203 9.9621 
9.99835 -0.254151 0.172914 
-0.254151 9.7913 0.140129 
0.172914 0.140129 9.75367 
9.89156 -0.216272 0.303916 
-0.216272 9.74916 0.150496 
0.303916 0.150496 9.9026 
10.0032 -0.17464 0.261212 
-0.17464 9.85718 0.0443902 
0.261212 0.0443902 9.6829 
9.76061 -0.152975 0.337387 
-0.152975 9.85069 0.303414 
0.337387 0.303414 9.93202 
9.96746 -0.00772576 0.00311014 
-0.00772576 9.96493 -0.0247436 
0.00311014 -0.0247436 9.98388 
9.97196 0.00264819 0.000520385 
0.00264819 9.96878 -0.00162852 
0.000520385 -0.00162852 9.97552 
9.99299 -0.00205323 -0.000962933 
-0.00205323 9.98932 -0.00073183 
-0.000962933 -0.00073183 9.93395 
9.97401 0.0097492 -0.000640919 
0.0097492 9.97352 -0.00478092 
-0.000640919 -0.00478092 9.96874 
9.90604 -0.0635481 -0.0591046 
-0.0635481 9.90937 0.0441699 
-0.0591046 0.0441699 9.92331 
9.88842 -0.106544 -0.102227 
-0.106544 9.89805 -0.0534093 
-0.102227 -0.0534093 9.95224 
9.87159 -0.123941 -0.0611081 
-0.123941 9.87341 0.043681 
-0.0611081 0.043681 9.99372 
9.9047 -0.0860538 -0.0820663 
-0.0860538 9.88452 0.0228922 
-0.0820663 0.0228922 9.94949 
9.95335 0.0186384 -2.72695e-05 
0.0186384 9.83565 0.00107947 
-2.72695e-05 0.00107947 10.2058 
9.92574 0.0104083 -0.00828787 
0.0104083 9.87367 -0.00966988 
-0.00828787 -0.00966988 10.1954 
9.9569 -0.0288304 -0.000479833 
-0.0288304 9.7984 -0.0465459 
-0.000479833 -0.0465459 10.2395 
9.93002 0.00543562 -0.00184676 
0.00543562 9.84374 -0.0157454 
-0.00184676 -0.0157454 10.2211 
9.78273 0.00737877 0.134356 
0.00737877 9.87875 -0.0778795 
0.134356 -0.0778795 9.87123 
9.79801 0.0123436 0.125232 
0.0123436 9.89908 -0.0722077 
0.125232 -0.0722077 9.83561 
9.81249 0.00463974 0.108179 
0.00463974 9.87737 -0.0483136 
0.108179 -0.0483136 9.84284 
9.8212 0.0176738 0.122875 
0.0176738 9.83797 -0.107548 
0.122875 -0.107548 9.87353 
10.9163 0.0705914 0.439201 
0.0705914 10.7314 0.220614 
0.439201 0.220614 9.47826 
10.3722 0.0143162 0.0831789 
0.0143162 10.4353 0.212829 
0.0831789 0.212829 10.3184 
10.1233 0.38947 -0.365119 
0.38947 9.81209 0.0191036 
-0.365119 0.0191036 11.1905 
10.472 -0.272817 0.144249 
-0.272817 9.96132 0.52685 
0.144249 0.52685 10.6926 
9.89202 0.186684 -0.176641 
0.186684 9.96951 0.122929 
-0.176641 0.122929 10.0112 
9.89935 0.107106 -0.121006 
0.107106 9.92795 0.0158182 
-0.121006 0.0158182 10.0454 
9.91906 0.142721 -0.205883 
0.142721 10.0093 0.00946727 
-0.205883 0.00946727 9.94443 
9.91544 0.217365 -0.128341 
0.217365 9.9932 0.177304 
-0.128341 0.177304 9.96411 
9.9341 0.00147897 0.0212866 
0.00147897 9.92895 0.00106107 
0.0212866 0.00106107 9.9905 
9.91346 -0.00364644 0.0240932 
-0.00364644 9.93 0.010326 
0.0240932 0.010326 10.0101 
9.93878 -0.00700206 0.0152728 
-0.00700206 9.91502 -0.00387613 
0.0152728 -0.00387613 9.99974 
9.93394 -0.000296942 -0.0110862 
-0.000296942 9.90784 -0.00973198 
-0.0110862 -0.00973198 10.0118 
9.89565 0.0245398 0.127633 
0.0245398 9.98916 -0.137729 
0.127633 -0.137729 9.83099 
9.95254 -0.0744809 -0.0172992 
-0.0744809 9.94963 -0.122783 
-0.0172992 -0.122783 9.81363 
9.88253 -0.00554196 0.0640052 
-0.00554196 10.0875 -0.034465 
0.0640052 -0.034465 9.74572 
9.9084 -0.0103015 0.178282 
-0.0103015 10.0369 -0.057793 
0.178282 -0.057793 9.77046 
9.95622 0.0007038 -0.065173 
0.0007038 9.94722 -0.0495485 
-0.065173 -0.0495485 9.94856 
9.94409 -0.00205775 -0.0627655 
-0.00205775 9.94333 -0.0381754 
-0.0627655 -0.0381754 9.96458 
9.95325 -0.00555675 -0.0582509 
-0.00555675 9.94387 -0.0468761 
-0.0582509 -0.0468761 9.95487 
9.9567 0.00160865 -0.0596095 
0.00160865 9.94748 -0.047045 
-0.0596095 -0.047045 9.94781 
5.32178 2.59357 -1.71328 
2.59357 8.99706 1.79964 
-1.71328 1.79964 0.627653 
6.39608 0.941716 -1.00802 
0.941716 7.87955 1.56137 
-1.00802 1.56137 0.670865 
4.12975 -0.361502 0.100578 
-0.361502 5.97384 1.02592 
0.100578 1.02592 4.8429 
6.79966 1.60587 0.0931219 
1.60587 4.64777 2.91824 
0.0931219 2.91824 3.49906 
9.93465 0.00220319 -0.0527349 
0.00220319 9.92345 0.0422465 
-0.0527349 0.0422465 9.9482 
9.93317 0.00167085 -0.0470429 
0.00167085 9.9246 0.0466629 
-0.0470429 0.0466629 9.94854 
9.9298 0.00722586 -0.0387259 
0.00722586 9.92765 0.0503199 
-0.0387259 0.0503199 9.94886 
9.92898 -0.00103912 -0.0547591 
-0.00103912 9.92566 0.0479317 
-0.0547591 0.0479317 9.95167 
10.0584 0.00889257 -0.0214071 
0.00889257 10.0356 0.0231185 
-0.0214071 0.0231185 10.2251 
10.1334 0.0142764 -0.0013567 
0.0142764 10.1276 -0.0248956 
-0.0013567 -0.0248956 10.058 
10.1043 0.00952197 0.0111507 
0.00952197 10.1088 -0.00342608 
0.0111507 -0.00342608 10.106 
10.1069 0.00384931 0.0346838 
0.00384931 10.1125 0.0177102 
0.0346838 0.0177102 10.0997 
10.3171 -0.00977196 0.0262462 
-0.00977196 10.2441 -0.0670483 
0.0262462 -0.0670483 10.1676 
10.239 -0.0708659 0.0324222 
-0.0708659 10.2021 -0.0306779 
0.0324222 -0.0306779 10.2877 
10.2301 -0.0587562 -0.046359 
-0.0587562 10.101 0.00856972 
-0.046359 0.00856972 10.3977 
10.252 -0.0534429 0.0192451 
-0.0534429 10.2571 -0.0396371 
0.0192451 -0.0396371 10.2198 
10.023 0.0295645 0.185246 
0.0295645 9.92528 -0.166795 
0.185246 -0.166795 9.8484 
10.092 -0.0788113 0.024238 
-0.0788113 9.94626 -0.307369 
0.024238 -0.307369 9.7584 
10.027 0.0317173 0.237055 
0.0317173 9.83599 -0.222386 
0.237055 -0.222386 9.9337 
9.94495 0.000302008 0.0304226 
0.000302008 9.90225 -0.116274 
0.0304226 -0.116274 9.94945 
9.99029 -0.00216742 0.0769067 
-0.00216742 9.9534 -0.0220903 
0.0769067 -0.0220903 9.93786 
9.96119 0.00247632 0.0702515 
0.00247632 9.95876 -0.0324694 
0.0702515 -0.0324694 9.9616 
9.93463 0.00205708 0.0719147 
0.00205708 9.95863 -0.037712 
0.0719147 -0.037712 9.98829 
9.96279 0.00714005 0.0469452 
0.00714005 9.96459 -0.0420437 
0.0469452 -0.0420437 9.95417 
9.9194 0.0510271 0.0193728 
0.0510271 9.88017 -0.272201 
0.0193728 -0.272201 9.93899 
9.9882 0.0373012 0.0419933 
0.0373012 9.93702 -0.369897 
0.0419933 -0.369897 9.81333 
9.91529 0.193764 -0.00358631 
0.193764 9.89935 -0.23556 
-0.00358631 -0.23556 9.92391 
9.85163 0.0351619 0.0805924 
0.0351619 10.0668 -0.403822 
0.0805924 -0.403822 9.82017 
9.92066 -0.00607426 0.0151187 
-0.00607426 9.89516 0.0402962 
0.0151187 0.0402962 10.095 
9.86853 0.0139346 0.0159114 
0.0139346 9.85875 0.0705498 
0.0159114 0.0705498 10.1836 
9.92229 0.0116015 0.0254773 
0.0116015 9.90835 0.0597181 
0.0254773 0.0597181 10.0802 
9.89184 0.030399 0.00732706 
0.030399 9.89968 0.0268072 
0.00732706 0.0268072 10.1193 
9.76745 -0.00549292 0.0283855 
-0.00549292 9.64202 -0.102137 
0.0283855 -0.102137 10.4397 
9.6061 0.507779 -0.029511 
0.507779 10.5363 -0.764616 
-0.029511 -0.764616 9.70675 
10.2389 -0.206451 -0.0400344 
-0.206451 9.42824 -0.0953102 
-0.0400344 -0.0953102 10.1821 
10.058 -0.229458 0.0419939 
-0.229458 9.42985 -0.33025 
0.0419939 -0.33025 10.3613 
9.42922 -0.510645 -0.066524 
-0.510645 9.64268 0.266091 
-0.066524 0.266091 10.8201 
9.61329 -0.396952 0.298403 
-0.396952 9.60261 0.407388 
0.298403 0.407388 10.6761 
9.36857 -0.332616 0.229967 
-0.332616 10.016 0.215472 
0.229967 0.215472 10.5074 
10.433 -0.836347 0.760537 
-0.836347 9.79588 -0.270215 
0.760537 -0.270215 9.66316 
10.0338 0.723611 0.466729 
0.723611 9.87433 -0.537413 
0.466729 -0.537413 11.3436 
10.708 0.497125 0.380886 
0.497125 10.4313 -0.205964 
0.380886 -0.205964 10.1125 
10.3501 0.631367 0.289787 
0.631367 9.85358 -0.486362 
0.289787 -0.486362 11.0481 
10.2518 0.585905 0.30119 
0.585905 10.2839 -0.487756 
0.30119 -0.487756 10.716 
9.97791 -0.00304268 0.027165 
-0.00304268 9.98849 -0.0387074 
0.027165 -0.0387074 9.9802 
9.98631 -0.00358453 0.0165393 
-0.00358453 9.96291 -0.0323209 
0.0165393 -0.0323209 9.99738 
9.97818 -0.00289832 0.0283124 
-0.00289832 9.985 -0.0362432 
0.0283124 -0.0362432 9.98342 
9.99338 -0.00136316 0.0315424 
-0.00136316 9.98383 -0.0325167 
0.0315424 -0.0325167 9.96939 
10.186 0.0448177 -0.00150266 
0.0448177 9.74384 0.0176232 
-0.00150266 0.0176232 10.1949 
9.96661 -0.0346203 -0.0433684 
-0.0346203 10.1666 0.127335 
-0.0433684 0.127335 9.99154 
10.1042 0.0588611 0.0212845 
0.0588611 9.77138 -0.0595723 
0.0212845 -0.0595723 10.2492 
10.3613 0.194328 -0.0696856 
0.194328 9.42898 0.32035 
-0.0696856 0.32035 10.3345 
9.91852 -0.0317739 -0.0335476 
-0.0317739 9.8757 0.0462771 
-0.0335476 0.0462771 9.89073 
9.92615 0.0208042 -0.085517 
0.0208042 9.86688 0.108565 
-0.085517 0.108565 9.89193 
9.90751 0.0298023 -0.0722574 
0.0298023 9.89586 0.0617736 
-0.0722574 0.0617736 9.88159 
9.89389 0.0264938 -0.0723945 
0.0264938 9.8865 0.0937006 
-0.0723945 0.0937006 9.90457 
9.97154 0.00519143 0.0621006 
0.00519143 9.96246 0.0191852 
0.0621006 0.0191852 9.97893 
9.97084 -0.00214747 0.0760599 
-0.00214747 9.9749 0.0223592 
0.0760599 0.0223592 9.96718 
9.97318 -0.000845713 0.0754236 
-0.000845713 9.97049 0.0219297 
0.0754236 0.0219297 9.96925 
9.97745 -0.000808532 0.0767123 
-0.000808532 9.97514 0.0234596 
0.0767123 0.0234596 9.96033 
9.96343 -0.000691178 -0.0252299 
-0.000691178 9.95646 -0.0150487 
-0.0252299 -0.0150487 9.92451 
9.97799 -0.0106173 -0.0295762 
-0.0106173 9.96867 0.0104361 
-0.0295762 0.0104361 9.89774 
9.96361 -0.000304308 -0.0312734 
-0.000304308 9.95693 -0.0140553 
-0.0312734 -0.0140553 9.92387 
9.95841 0.0029588 -0.0266439 
0.0029588 9.94593 0.000117134 
-0.0266439 0.000117134 9.94006 
10.7273 0.0656132 0.427342 
0.0656132 10.991 -0.0530576 
0.427342 -0.0530576 9.49227 
9.36236 0.0744608 -0.694685 
0.0744608 9.72014 -0.243851 
-0.694685 -0.243851 12.1281 
10.3611 -0.11525 0.342902 
-0.11525 10.6536 0.0629604 
0.342902 0.0629604 10.1959 
8.35913 0.21547 1.31063 
0.21547 11.1265 -0.645957 
1.31063 -0.645957 11.7249 
10.3554 0.113218 -1.07168 
0.113218 9.57848 -0.606475 
-1.07168 -0.606475 8.03075 
9.25779 0.281368 -0.619978 
0.281368 8.58753 -0.00958433 
-0.619978 -0.00958433 10.1193 
10.6945 0.164986 -0.0726117 
0.164986 9.26061 -0.476786 
-0.0726117 -0.476786 8.00955 
10.6984 0.24377 0.0675637 
0.24377 9.62291 -0.168051 
0.0675637 -0.168051 7.6433 
10.0565 -0.01606 0.0291499 
-0.01606 10.08 -0.0275388 
0.0291499 -0.0275388 10.3546 
10.1223 0.00267519 0.00108017 
0.00267519 10.1805 0.0818468 
0.00108017 0.0818468 10.1883 
10.1132 -0.0275945 0.0304499 
-0.0275945 10.2632 0.0520591 
0.0304499 0.0520591 10.1146 
10.1731 0.022354 -0.0636352 
0.022354 10.1136 0.18403 
-0.0636352 0.18403 10.2044 
9.95058 -0.00212702 -0.010671 
-0.00212702 9.94933 -0.0856981 
-0.010671 -0.0856981 9.96093 
9.95694 -0.00232123 -0.00777501 
-0.00232123 9.94822 -0.0847534 
-0.00777501 -0.0847534 9.95568 
9.94864 0.0042914 -0.00942317 
0.0042914 9.97306 -0.0824364 
-0.00942317 -0.0824364 9.93914 
9.95489 -0.00860087 -0.003825 
-0.00860087 9.949 -0.0741879 
-0.003825 -0.0741879 9.95695 
9.78812 -0.127833 0.110571 
-0.127833 9.78743 0.0896512 
0.110571 0.0896512 10.0739 
9.791 -0.133529 -0.015962 
-0.133529 9.8722 0.082972 
-0.015962 0.082972 9.9863 
9.84961 -0.0404225 0.0891931 
-0.0404225 9.85595 0.098713 
0.0891931 0.098713 9.94393 
9.89712 -0.112635 0.0930333 
-0.112635 9.9252 0.0998175 
0.0930333 0.0998175 9.82717 
4.03544 1.17202 -1.95772 
1.17202 10.1851 2.15526 
-1.95772 2.15526 16.9954 
12.5549 2.3629 2.90531 
2.3629 12.4308 -1.62922 
2.90531 -1.62922 6.2301 
4.92289 2.40223 -2.71783 
2.40223 7.59271 1.07676 
-2.71783 1.07676 18.7003 
12.3587 -2.27583 -3.888 
-2.27583 10.0292 1.45952 
-3.888 1.45952 8.82799 
9.92775 0.00498344 -0.0674641 
0.00498344 10.0144 0.0326677 
-0.0674641 0.0326677 9.99649 
9.9238 0.0280225 -0.0277061 
0.0280225 9.99484 0.0221753 
-0.0277061 0.0221753 10.02 
9.96305 -0.0451865 0.105592 
-0.0451865 9.94789 -0.0264821 
0.105592 -0.0264821 10.0277 
9.85988 0.047112 0.00175301 
0.047112 10.0159 0.00639428 
0.00175301 0.00639428 10.0628 
10.5179 -0.459483 -0.118907 
-0.459483 10.5654 0.168211 
-0.118907 0.168211 11.2643 
10.6402 0.115864 -0.254693 
0.115864 10.9166 -0.0789442 
-0.254693 -0.0789442 10.7908 
11.0211 -0.173963 -0.0166713 
-0.173963 11.259 -0.344887 
-0.0166713 -0.344887 10.0674 
10.9075 0.0189935 -0.204258 
0.0189935 10.2881 -0.122126 
-0.204258 -0.122126 11.1519 
10.0544 0.00359786 0.00848771 
0.00359786 10.0481 -0.0188178 
0.00848771 -0.0188178 10.1677 
10.0632 0.010298 0.0107853 
0.010298 10.0551 -0.00797403 
0.0107853 -0.00797403 10.1519 
10.0525 0.00133173 -0.00184323 
0.00133173 10.0689 -0.0199124 
-0.00184323 -0.0199124 10.1488 
10.077 0.0201048 0.012618 
0.0201048 10.0606 0.0304221 
0.012618 0.0304221 10.1326 
9.91998 -0.0282503 0.0307625 
-0.0282503 9.92051 0.0311871 
0.0307625 0.0311871 9.94107 
9.90547 -0.00501519 0.00546224 
-0.00501519 9.91429 0.0142382 
0.00546224 0.0142382 9.96181 
9.91743 -0.0186882 0.0156538 
-0.0186882 9.9099 0.0131378 
0.0156538 0.0131378 9.95424 
9.90008 -0.00915976 -0.00694755 
-0.00915976 9.88597 0.0130916 
-0.00694755 0.0130916 9.99553 
9.97682 0.00426349 0.00538191 
0.00426349 9.95915 -0.0283827 
0.00538191 -0.0283827 9.98018 
9.97534 -0.00425831 0.00602275 
-0.00425831 9.99401 -0.00488307 
0.00602275 -0.00488307 9.94679 
9.9701 -0.00516976 0.00834386 
-0.00516976 9.96809 -0.00195928 
0.00834386 -0.00195928 9.97796 
9.97023 -0.0073783 0.00546683 
-0.0073783 9.97982 -0.008511 
0.00546683 -0.008511 9.9661 
9.9439 -0.0024972 0.0739434 
-0.0024972 9.89106 0.00855277 
0.0739434 0.00855277 9.93152 
9.93003 -0.00654653 0.0420772 
-0.00654653 9.94154 0.0325383 
0.0420772 0.0325383 9.89491 
9.96173 0.00198071 0.0490215 
0.00198071 9.93225 0.0471655 
0.0490215 0.0471655 9.87251 
9.9263 0.00565289 0.0485509 
0.00565289 9.94934 0.01351 
0.0485509 0.01351 9.89084 
5.19454 -3.61139 -1.49471 
-3.61139 9.96644 0.448219 
-1.49471 0.448219 -1.38067 
2.67254 -0.480183 0.0840784 
-0.480183 9.09333 -0.547936 
0.0840784 -0.547936 2.01444 
7.71321 1.56729 -1.84137 
1.56729 7.38999 -0.387161 
-1.84137 -0.387161 -1.32289 
5.14105 -2.4429 0.369922 
-2.4429 8.91732 -0.956193 
0.369922 -0.956193 -0.278056 
9.92235 0.00120104 0.0602937 
0.00120104 9.91495 0.0320724 
0.0602937 0.0320724 9.89846 
9.95055 -0.00336863 0.0520004 
-0.00336863 9.93858 0.0514149 
0.0520004 0.0514149 9.84663 
9.92893 0.00583728 0.047508 
0.00583728 9.91882 0.0323811 
0.047508 0.0323811 9.88801 
9.92328 0.00671524 0.0417516 
0.00671524 9.9201 0.0366513 
0.0417516 0.0366513 9.89238 
10.2597 0.0433103 -0.390346 
0.0433103 10.9209 -0.199339 
-0.390346 -0.199339 11.4885 
11.0703 -0.109926 -0.0103862 
-0.109926 11.6909 0.315772 
-0.0103862 0.315772 9.90791 
10.7131 -0.140905 -0.405339 
-0.140905 10.904 0.00244496 
-0.405339 0.00244496 11.052 
10.8171 0.17238 -0.445415 
0.17238 10.8757 0.486565 
-0.445415 0.486565 10.9763 
10.0193 0.0220538 0.019673 
0.0220538 9.9768 -0.0139911 
0.019673 -0.0139911 9.99718 
9.93964 -0.000412785 -0.0431979 
-0.000412785 9.99593 0.0305003 
-0.0431979 0.0305003 10.0577 
9.96216 0.0382917 0.00796993 
0.0382917 9.96869 -0.00446045 
0.00796993 -0.00446045 10.0625 
9.95356 0.0239011 -0.0054968 
0.0239011 9.96605 -0.0130768 
-0.0054968 -0.0130768 10.0737 
9.92219 0.010971 0.00748954 
0.010971 9.93534 0.0163608 
0.00748954 0.0163608 10.026 
9.91751 0.0156381 0.0116581 
0.0156381 9.92765 0.0171839 
0.0116581 0.0171839 10.0384 
9.93663 0.00893685 0.0164335 
0.00893685 9.91596 0.00713932 
0.0164335 0.00713932 10.031 
9.92014 0.00936345 -0.0102751 
0.00936345 9.94232 0.0191842 
-0.0102751 0.0191842 10.0211 
9.83077 0.0028829 0.0790798 
0.0028829 9.95239 -0.0303346 
0.0790798 -0.0303346 10.0236 
9.93662 -0.0296902 0.0222526 
-0.0296902 9.8934 -0.00266172 
0.0222526 -0.00266172 9.97671 
9.8594 -0.0384458 0.0373736 
-0.0384458 9.86877 -0.00297938 
0.0373736 -0.00297938 10.0786 
9.82135 -0.0543443 0.053147 
-0.0543443 9.9069 -0.0395339 
0.053147 -0.0395339 10.0785 
9.19044 -0.244935 0.229024 
-0.244935 10.156 -0.00524415 
0.229024 -0.00524415 10.3216 
10.1745 0.052378 0.315751 
0.052378 9.71535 -0.186742 
0.315751 -0.186742 9.77823 
9.33578 -0.290396 0.154816 
-0.290396 9.78781 0.0148586 
0.154816 0.0148586 10.5445 
8.94043 -0.590513 1.22276 
-0.590513 10.4667 0.108668 
1.22276 0.108668 10.261 
9.93915 0.00646837 0.00574419 
0.00646837 9.95153 -0.0649956 
0.00574419 -0.0649956 9.90406 
9.93847 -0.0131858 -0.00776322 
-0.0131858 9.91938 -0.0299127 
-0.00776322 -0.0299127 9.93689 
9.93635 0.00530531 0.0114677 
0.00530531 9.95464 -0.0465706 
0.0114677 -0.0465706 9.90375 
9.94564 -0.000210495 0.01314 
-0.000210495 9.97408 -0.0317646 
0.01314 -0.0317646 9.87502 
9.9681 -0.00413528 -0.0160701 
-0.00413528 9.97757 -0.0132975 
-0.0160701 -0.0132975 9.98408 
9.95958 0.0137272 0.000849999 
0.0137272 9.98329 0.0454609 
0.000849999 0.0454609 9.98688 
9.97632 0.00623348 -0.0150228 
0.00623348 9.96358 -0.00707674 
-0.0150228 -0.00707674 9.98986 
9.99424 -0.0226479 -0.00421197 
-0.0226479 9.91797 0.0101259 
-0.00421197 0.0101259 10.0175 
10.0042 0.0957785 0.0278912 
0.0957785 9.879 0.0793451 
0.0278912 0.0793451 9.92107 
9.85754 0.0429978 0.095988 
0.0429978 9.91499 0.032778 
0.095988 0.032778 10.0317 
9.81931 -0.0434072 0.065706 
-0.0434072 9.92008 -0.0196593 
0.065706 -0.0196593 10.0648 
9.84999 0.0664026 0.0380369 
0.0664026 9.79988 0.0184159 
0.0380369 0.0184159 10.1544 
10.258 0.0164436 0.0293346 
0.0164436 10.2742 0.0325509 
0.0293346 0.0325509 10.2471 
10.1353 -0.054558 0.158864 
-0.054558 10.2048 0.0366569 
0.158864 0.0366569 10.4392 
10.2513 0.0049257 0.011244 
0.0049257 10.354 0.00470561 
0.011244 0.00470561 10.174 
10.0166 0.0144903 0.00171186 
0.0144903 10.3045 0.0607023 
0.00171186 0.0607023 10.4583 
9.96799 -0.00521241 0.0857796 
-0.00521241 9.98455 0.00741027 
0.0857796 0.00741027 9.96902 
9.97727 -0.000338104 0.06363 
-0.000338104 9.95841 -0.00719362 
0.06363 -0.00719362 9.98588 
9.97775 -0.000813522 0.0781728 
-0.000813522 9.96937 0.00285758 
0.0781728 0.00285758 9.97444 
9.99169 -0.00860594 0.0767856 
-0.00860594 9.98009 0.00814312 
0.0767856 0.00814312 9.94978 
9.90322 -0.0583516 0.00707438 
-0.0583516 9.71898 0.21792 
0.00707438 0.21792 10.2572 
9.94814 6.98547e-07 -0.0153808 
6.98547e-07 9.88477 0.104032 
-0.0153808 0.104032 10.0465 
9.87036 -0.0130432 -0.00274204 
-0.0130432 9.88446 0.0470017 
-0.00274204 0.0470017 10.1246 
9.95108 0.0675038 0.00619653 
0.0675038 9.86594 0.0645226 
0.00619653 0.0645226 10.0624 
9.90145 -0.00776216 -0.0424314 
-0.00776216 9.92567 0.0319909 
-0.0424314 0.0319909 9.95014 
9.90367 0.00480281 -0.033779 
0.00480281 9.92751 0.0411467 
-0.033779 0.0411467 9.94606 
9.89758 0.0056969 -0.0521457 
0.0056969 9.89373 0.0326911 
-0.0521457 0.0326911 9.98594 
9.93629 0.0166051 -0.0651805 
0.0166051 9.9195 0.0629533 
-0.0651805 0.0629533 9.92146 
9.94599 -0.00733421 0.00344537 
-0.00733421 9.95344 -0.00226544 
0.00344537 -0.00226544 9.98174 
9.94409 -0.0044373 -0.00440908 
-0.0044373 9.95496 0.00385033 
-0.00440908 0.00385033 9.9821 
9.94691 -0.00623324 0.00125679 
-0.00623324 9.95729 0.00622661 
0.00125679 0.00622661 9.97696 
9.9507 -0.0060883 0.00445237 
-0.0060883 9.94712 -0.000132082 
0.00445237 -0.000132082 9.98334 
9.77315 0.582301 -0.0128019 
0.582301 9.95632 -0.0525221 
-0.0128019 -0.0525221 10.3168 
9.86306 0.227369 0.0526723 
0.227369 9.97008 0.0831126 
0.0526723 0.0831126 10.2132 
9.66546 0.364343 0.105454 
0.364343 9.85743 -0.110326 
0.105454 -0.110326 10.5234 
9.87517 0.143113 0.20173 
0.143113 9.89982 -0.239575 
0.20173 -0.239575 10.2713 
9.8466 0.0471723 -0.0672364 
0.0471723 9.84145 0.0486491 
-0.0672364 0.0486491 9.95831 
9.82728 0.0303608 -0.114061 
0.0303608 9.91975 0.0173358 
-0.114061 0.0173358 9.89933 
9.88696 0.0425817 -0.103446 
0.0425817 9.92938 -0.019959 
-0.103446 -0.019959 9.83002 
9.83427 0.00415326 -0.111547 
0.00415326 9.90332 0.0586369 
-0.111547 0.0586369 9.90877 
10.955 -0.306726 -0.151442 
-0.306726 10.6045 -0.0479434 
-0.151442 -0.0479434 10.0898 
10.7887 -0.145169 0.0290732 
-0.145169 10.6506 -0.176879 
0.0290732 -0.176879 10.21 
10.0721 -0.187338 -0.251403 
-0.187338 9.58087 -0.538968 
-0.251403 -0.538968 11.9963 
10.6797 -0.555469 0.543903 
-0.555469 9.95133 0.407477 
0.543903 0.407477 11.0182 
9.94517 -0.000944841 -0.0768693 
-0.000944841 9.93484 0.026646 
-0.0768693 0.026646 9.94324 
9.92942 0.00135094 -0.0712753 
0.00135094 9.94445 0.027264 
-0.0712753 0.027264 9.94937 
9.94169 0.00271589 -0.0733641 
0.00271589 9.94589 0.0275312 
-0.0733641 0.0275312 9.93567 
9.9533 0.0115728 -0.0746295 
0.0115728 9.93248 0.0358376 
-0.0746295 0.0358376 9.93746 
10.0642 -0.0106524 -0.0160453 
-0.0106524 10.0345 0.0511565 
-0.0160453 0.0511565 10.2457 
10.0922 -0.00359776 -0.0136733 
-0.00359776 10.0777 0.0154145 
-0.0136733 0.0154145 10.1745 
10.176 -0.017925 0.038305 
-0.017925 10.17 0.0227213 
0.038305 0.0227213 9.99844 
10.0828 -0.013766 0.0268049 
-0.013766 10.098 -0.0365301 
0.0268049 -0.0365301 10.1637 
9.92477 0.00177273 0.0547555 
0.00177273 9.91162 -0.0403549 
0.0547555 -0.0403549 9.94388 
9.91751 0.0117414 0.0407184 
0.0117414 9.91786 -0.0471944 
0.0407184 -0.0471944 9.9449 
9.92034 -7.90893e-05 0.0558549 
-7.90893e-05 9.91744 -0.0516032 
0.0558549 -0.0516032 9.9425 
9.9231 0.00580982 0.057715 
0.00580982 9.91317 -0.044804 
0.057715 -0.044804 9.944 
12.9257 0.344836 -0.749824 
0.344836 10.3614 -1.27474 
-0.749824 -1.27474 9.54751 
10.3589 -0.543773 0.83197 
-0.543773 8.67657 0.267991 
0.83197 0.267991 13.7991 
8.15997 -0.344943 1.51397 
-0.344943 11.2399 -0.00865727 
1.51397 -0.00865727 13.4347 
10.0907 -1.35655 -0.93466 
-1.35655 9.12228 0.497324 
-0.93466 0.497324 13.6216 
9.67257 0.0964415 -0.0197504 
0.0964415 9.95067 -0.180643 
-0.0197504 -0.180643 9.11852 
9.57858 -0.021668 0.0440497 
-0.021668 9.93571 -0.391209 
0.0440497 -0.391209 9.22746 
9.55215 0.0739821 -0.0332405 
0.0739821 9.87151 -0.364123 
-0.0332405 -0.364123 9.3181 
9.56039 0.0558261 0.0506167 
0.0558261 9.92154 -0.297948 
0.0506167 -0.297948 9.25983 
9.98719 -0.000651023 -0.0625861 
-0.000651023 9.98325 -0.020912 
-0.0625861 -0.020912 10.0105 
9.99602 -0.00412926 -0.0593781 
-0.00412926 9.99503 -0.014263 
-0.0593781 -0.014263 9.98993 
9.9968 -0.00064448 -0.0573309 
-0.00064448 9.99367 -0.0160151 
-0.0573309 -0.0160151 9.99052 
9.99925 -0.00178298 -0.0535111 
-0.00178298 9.9958 -0.0162935 
-0.0535111 -0.0162935 9.98594 
10.1949 -0.0287988 0.0496606 
-0.0287988 10.1905 0.0113455 
0.0496606 0.0113455 10.1286 
10.0853 -0.0162055 -0.0317693 
-0.0162055 10.1443 -0.0238737 
-0.0317693 -0.0238737 10.2843 
10.1872 0.0630833 0.0409784 
0.0630833 10.1837 0.0267272 
0.0409784 0.0267272 10.143 
10.1386 -0.0667892 0.033777 
-0.0667892 10.158 0.0785743 
0.033777 0.0785743 10.2173 
9.95691 -0.0235003 -0.0163416 
-0.0235003 9.81948 0.0770959 
-0.0163416 0.0770959 10.1724 
9.91453 -0.0547982 -0.0478197 
-0.0547982 9.8467 0.060538 
-0.0478197 0.060538 10.1876 
9.8842 0.0240605 0.00707603 
0.0240605 9.93675 0.0391943 
0.00707603 0.0391943 10.1279 
9.94376 -0.0554733 -0.00532214 
-0.0554733 9.89196 0.0527908 
-0.00532214 0.0527908 10.1131 
9.9918 -0.00216139 -1.18059e-05 
-0.00216139 9.94395 0.017604 
-1.18059e-05 0.017604 10.0244 
9.98255 -0.0185321 -0.0128961 
-0.0185321 9.99984 0.0140704 
-0.0128961 0.0140704 9.9778 
9.98408 -0.00450468 0.015284 
-0.00450468 9.96413 0.0243892 
0.015284 0.0243892 10.012 
10.0015 -0.00117153 0.0093895 
-0.00117153 9.96919 0.0209464 
0.0093895 0.0209464 9.98952 
9.92726 0.00620065 -0.00270473 
0.00620065 9.91333 -0.0659182 
-0.00270473 -0.0659182 10.1815 
9.91946 0.0137129 -0.0107841 
0.0137129 9.92806 -0.0738016 
-0.0107841 -0.0738016 10.1745 
9.9246 0.00672693 -0.00293838 
0.00672693 9.92269 -0.0450683 
-0.00293838 -0.0450683 10.1748 
9.96612 0.00590714 -0.00705253 
0.00590714 9.91808 -0.035505 
-0.00705253 -0.035505 10.1379 
9.89426 0.00493188 0.00536062 
0.00493188 9.89029 -0.00384298 
0.00536062 -0.00384298 10.0663 
9.89465 0.00353075 0.0175644 
0.00353075 9.90159 0.00786075 
0.0175644 0.00786075 10.0546 
9.898 -0.0059124 0.00932162 
-0.0059124 9.9046 0.018081 
0.00932162 0.018081 10.0483 
9.8847 -0.0194596 0.0287453 
-0.0194596 9.89558 0.0137602 
0.0287453 0.0137602 10.0706 
9.94746 -0.0141462 -0.001183 
-0.0141462 9.94726 0.00457349 
-0.001183 0.00457349 9.97248 
9.95369 -0.0116302 -0.00548592 
-0.0116302 9.94666 0.00920322 
-0.00548592 0.00920322 9.96685 
9.94977 -0.0053644 -0.00653478 
-0.0053644 9.95033 0.00684108 
-0.00653478 0.00684108 9.96711 
9.9457 -0.00567739 -0.00899762 
-0.00567739 9.94799 0.0115702 
-0.00899762 0.0115702 9.97352 
9.91693 -0.144899 -0.0384508 
-0.144899 9.82208 -0.024668 
-0.0384508 -0.024668 9.86433 
9.88341 -0.0860987 -0.12287 
-0.0860987 9.85707 -0.131306 
-0.12287 -0.131306 9.86287 
9.85152 -0.04697 -0.0489497 
-0.04697 9.89538 -0.0218927 
-0.0489497 -0.0218927 9.85644 
9.90328 -0.111628 0.00818958 
-0.111628 9.86611 -0.057655 
0.00818958 -0.057655 9.83396 
10.0623 -0.0354767 0.016234 
-0.0354767 9.87182 0.171858 
0.016234 0.171858 10.1912 
9.92876 -0.123815 -0.015976 
-0.123815 9.96838 0.0745622 
-0.015976 0.0745622 10.2282 
10.0499 -0.0814533 0.00356029 
-0.0814533 9.90114 0.204072 
0.00356029 0.204072 10.1742 
10.0703 -0.158134 -0.0374159 
-0.158134 9.6218 0.198522 
-0.0374159 0.198522 10.4332 
9.97967 0.00390777 0.0447622 
0.00390777 9.98258 0.0452317 
0.0447622 0.0452317 9.98427 
9.98094 0.000612076 0.0460718 
0.000612076 9.98384 0.0491526 
0.0460718 0.0491526 9.98174 
9.9826 -0.000947748 0.0369118 
-0.000947748 9.97308 0.0439002 
0.0369118 0.0439002 9.99083 
9.98177 0.00016696 0.0380241 
0.00016696 9.98149 0.0457537 
0.0380241 0.0457537 9.98326 
10.1737 -0.0379403 -0.0653689 
-0.0379403 10.2252 0.0534012 
-0.0653689 0.0534012 10.0805 
10.0771 -0.0906489 -0.0545936 
-0.0906489 10.1382 0.0728467 
-0.0545936 0.0728467 10.2642 
10.0776 0.135549 -0.00898029 
0.135549 10.2028 0.0102906 
-0.00898029 0.0102906 10.199 
10.1799 0.191995 0.0158337 
0.191995 10.1843 0.173286 
0.0158337 0.173286 10.1152 
9.7848 -0.00542394 -0.167305 
-0.00542394 9.84089 0.0322379 
-0.167305 0.0322379 9.84781 
9.75722 -0.0307895 -0.183931 
-0.0307895 9.91187 0.020744 
-0.183931 0.020744 9.80442 
9.66322 0.0222461 -0.135062 
0.0222461 9.86631 -0.00953701 
-0.135062 -0.00953701 9.94397 
9.59086 0.107975 -0.326821 
0.107975 9.95862 0.110362 
-0.326821 0.110362 9.92403 
9.88926 -0.0398912 -0.0556652 
-0.0398912 9.86778 0.00215964 
-0.0556652 0.00215964 9.95357 
9.89684 -0.0535295 -0.0306729 
-0.0535295 9.87667 0.0245303 
-0.0306729 0.0245303 9.93709 
9.90034 -0.0357193 -0.0159396 
-0.0357193 9.88073 0.00469956 
-0.0159396 0.00469956 9.92954 
9.89454 -0.0121222 -0.0358525 
-0.0121222 9.87412 0.0216981 
-0.0358525 0.0216981 9.94195 
9.84875 -0.00870107 0.101304 
-0.00870107 9.87271 -0.0888827 
0.101304 -0.0888827 9.88239 
9.8376 0.0150709 0.0726396 
0.0150709 9.90059 -0.085158 
0.0726396 -0.085158 9.86566 
9.83953 -0.00215991 0.0940083 
-0.00215991 9.87228 -0.0655451 
0.0940083 -0.0655451 9.89204 
9.83698 0.00555461 0.0825679 
0.00555461 9.86372 -0.0634936 
0.0825679 -0.0634936 9.90315 
9.97447 0.00238273 -0.00681625 
0.00238273 9.97632 0.037017 
-0.00681625 0.037017 9.94777 
9.97076 -0.000425692 -0.00794838 
-0.000425692 9.97256 0.0388652 
-0.00794838 0.0388652 9.95524 
9.9637 -0.00352457 -0.00315146 
-0.00352457 9.97271 0.0442889 
-0.00315146 0.0442889 9.96215 
9.96897 -0.00077096 -0.00731238 
-0.00077096 9.97089 0.0357753 
-0.00731238 0.0357753 9.9587 
10.086 0.0121139 -0.0162355 
0.0121139 10.0905 -0.00839959 
-0.0162355 -0.00839959 10.1572 
10.09 0.0414992 -0.0193264 
0.0414992 10.0548 -0.00108358 
-0.0193264 -0.00108358 10.189 
10.0794 -0.00698827 -0.0107678 
-0.00698827 10.0909 -0.0178136 
-0.0107678 -0.0178136 10.1634 
10.0691 -0.0370188 -0.0463253 
-0.0370188 10.127 0.0388455 
-0.0463253 0.0388455 10.1376 
9.92344 -0.00444509 -0.0609462 
-0.00444509 9.89663 0.0739978 
-0.0609462 0.0739978 9.98179 
9.90425 -0.0222542 -0.0518822 
-0.0222542 9.8965 0.0305239 
-0.0518822 0.0305239 10.0011 
9.92416 -0.0208306 -0.0406506 
-0.0208306 9.88019 0.0809674 
-0.0406506 0.0809674 9.99752 
9.93524 0.00374068 -0.0653482 
0.00374068 9.88173 0.0637674 
-0.0653482 0.0637674 9.98489 
9.91499 -0.0399957 -0.0122059 
-0.0399957 9.91962 -0.036651 
-0.0122059 -0.036651 9.8821 
9.88903 -0.0300038 -0.0678112 
-0.0300038 9.92194 -0.0818062 
-0.0678112 -0.0818062 9.90575 
9.89942 -0.0300656 -0.0281131 
-0.0300656 9.95986 -0.0595422 
-0.0281131 -0.0595422 9.85744 
9.92522 -0.0229837 -0.0191499 
-0.0229837 9.96152 -0.0470993 
-0.0191499 -0.0470993 9.82997 
10.1069 -0.00110118 0.0108693 
-0.00110118 10.1087 0.00347412 
0.0108693 0.00347412 10.0714 
10.0612 -0.00279214 -0.00190822 
-0.00279214 10.0498 -0.00221906 
-0.00190822 -0.00221906 10.176 
10.0792 -0.00156021 0.0144724 
-0.00156021 10.0741 0.0107 
0.0144724 0.0107 10.1337 
10.0885 -0.0181356 0.0128816 
-0.0181356 10.092 0.0589254 
0.0128816 0.0589254 10.1065 
10.045 -0.0122346 -0.0344828 
-0.0122346 9.87525 0.131869 
-0.0344828 0.131869 10.0807 
10.0074 0.0428817 -0.0444699 
0.0428817 9.89358 0.105386 
-0.0444699 0.105386 10.1 
9.9777 0.0343044 -0.0188023 
0.0343044 9.9375 0.0620587 
-0.0188023 0.0620587 10.0858 
10.088 0.123766 -0.103945 
0.123766 9.79267 0.0455335 
-0.103945 0.0455335 10.1203 
9.84151 0.0886461 0.00413052 
0.0886461 9.89334 -0.0324189 
0.00413052 -0.0324189 9.89534 
9.86883 0.13253 -0.0110639 
0.13253 9.85824 0.0165298 
-0.0110639 0.0165298 9.90311 
9.8603 0.0738289 0.093473 
0.0738289 9.8074 -0.0503873 
0.093473 -0.0503873 9.96248 
9.85821 0.0732045 0.00562225 
0.0732045 9.89164 -0.0184339 
0.00562225 -0.0184339 9.88033 
9.82374 0.237829 0.0260871 
0.237829 9.92544 -0.0160315 
0.0260871 -0.0160315 10.2711 
10.0182 0.258112 0.0249972 
0.258112 9.93824 -0.00690099 
0.0249972 -0.00690099 10.0639 
9.78459 0.150748 0.0404811 
0.150748 9.99539 0.0186875 
0.0404811 0.0186875 10.2403 
9.76797 0.292012 -0.0122708 
0.292012 10.0312 -0.0728096 
-0.0122708 -0.0728096 10.2212 
9.91431 -0.0528925 -0.0548873 
-0.0528925 9.90314 6.70247e-05 
-0.0548873 6.70247e-05 9.96134 
9.97579 -0.0528738 -0.104167 
-0.0528738 9.86336 -0.00904572 
-0.104167 -0.00904572 9.93964 
9.9077 -0.024607 -0.0181458 
-0.024607 9.92404 -0.0190742 
-0.0181458 -0.0190742 9.94705 
9.86296 -0.065413 -0.0787438 
-0.065413 9.92577 0.034061 
-0.0787438 0.034061 9.99006 
9.96815 0.000774258 -0.0429053 
0.000774258 9.9683 -0.0620847 
-0.0429053 -0.0620847 9.97745 
9.97219 0.00202391 -0.0413709 
0.00202391 9.97362 -0.0543356 
-0.0413709 -0.0543356 9.9681 
9.97062 0.00205094 -0.0403202 
0.00205094 9.97002 -0.0607877 
-0.0403202 -0.0607877 9.97327 
9.97323 0.0046378 -0.0417083 
0.0046378 9.96583 -0.0615031 
-0.0417083 -0.0615031 9.97485 
9.99554 -0.00157728 0.0585074 
-0.00157728 9.99498 -0.0300211 
0.0585074 -0.0300211 9.99192 
9.98997 -0.00468727 0.0572545 
-0.00468727 9.98973 -0.0340617 
0.0572545 -0.0340617 10.0027 
9.9987 -0.00102074 0.0586389 
-0.00102074 9.99051 -0.0319025 
0.0586389 -0.0319025 9.99323 
9.99751 -0.00222446 0.0582181 
-0.00222446 9.99534 -0.0290079 
0.0582181 -0.0290079 9.98959 
9.89702 -0.0813434 -0.0369718 
-0.0813434 9.89563 -0.0199203 
-0.0369718 -0.0199203 9.85894 
9.89425 -0.00380708 -0.0538031 
-0.00380708 9.96813 -0.0199044 
-0.0538031 -0.0199044 9.78921 
9.90328 -0.0220348 -0.033021 
-0.0220348 9.94993 -0.00604006 
-0.033021 -0.00604006 9.79839 
9.89526 0.00768025 -0.0401868 
0.00768025 9.97091 0.0543342 
-0.0401868 0.0543342 9.78541 
9.97433 0.000821083 -0.0698035 
0.000821083 9.97017 0.0293141 
-0.0698035 0.0293141 9.9772 
9.97623 0.00377169 -0.0708281 
0.00377169 9.97157 0.0323056 
-0.0708281 0.0323056 9.97389 
9.97906 0.00189898 -0.0655672 
0.00189898 9.97516 0.0267463 
-0.0655672 0.0267463 9.96748 
9.98113 0.00277363 -0.0696731 
0.00277363 9.96845 0.0322417 
-0.0696731 0.0322417 9.97211 
10.1551 0.0466797 1.26069e-05 
0.0466797 10.1086 0.0336861 
1.26069e-05 0.0336861 10.0519 
10.0739 -0.0171746 0.0287577 
-0.0171746 10.0531 -0.0304521 
0.0287577 -0.0304521 10.1886 
10.1344 0.00840017 0.00579185 
0.00840017 10.062 -0.00655227 
0.00579185 -0.00655227 10.1192 
10.0601 0.029611 -0.0188829 
0.029611 10.174 -0.015779 
-0.0188829 -0.015779 10.0815 
9.97195 0.00263597 -0.00173315 
0.00263597 9.98343 -0.00854245 
-0.00173315 -0.00854245 9.99091 
9.97888 -0.00210846 -0.00342405 
-0.00210846 9.97857 -0.00206375 
-0.00342405 -0.00206375 9.98883 
9.9815 -0.00444028 -0.0044553 
-0.00444028 9.97908 -0.00356734 
-0.0044553 -0.00356734 9.98571 
9.9777 0.00733627 -0.00573936 
0.00733627 9.98097 0.00301573 
-0.00573936 0.00301573 9.98762 
9.9594 -0.00912821 0.0251769 
-0.00912821 9.95518 -0.0159066 
0.0251769 -0.0159066 9.96668 
9.95853 -0.0168929 0.0155976 
-0.0168929 9.96131 -0.0161164 
0.0155976 -0.0161164 9.96141 
9.95872 -0.0221601 0.0232635 
-0.0221601 9.96474 -0.0161182 
0.0232635 -0.0161182 9.9578 
9.96084 -0.0213363 0.0132993 
-0.0213363 9.95809 -0.0110774 
0.0132993 -0.0110774 9.96232 
9.96823 0.000317976 0.0316101 
0.000317976 9.96723 0.0617488 
0.0316101 0.0617488 9.96718 
9.96819 -6.84317e-05 0.0327916 
-6.84317e-05 9.97074 0.0648656 
0.0327916 0.0648656 9.96372 
9.96426 -0.000563278 0.0330754 
-0.000563278 9.9669 0.0612422 
0.0330754 0.0612422 9.97148 
9.96541 -0.000640936 0.0347163 
-0.000640936 9.96828 0.0635208 
0.0347163 0.0635208 9.96895 
11.1123 -0.183372 0.106209 
-0.183372 10.7864 0.0866967 
0.106209 0.0866967 10.7266 
10.8379 -0.154893 0.107662 
-0.154893 10.4971 0.350559 
0.107662 0.350559 11.2903 
10.8952 -0.249785 0.0833285 
-0.249785 10.601 0.181922 
0.0833285 0.181922 11.129 
10.9369 -0.166034 0.166436 
-0.166034 10.6103 0.065662 
0.166436 0.065662 11.078 
9.90795 -0.0447887 -0.0738211 
-0.0447887 9.89935 -0.0841302 
-0.0738211 -0.0841302 9.97187 
9.84695 -0.0256801 -0.0604743 
-0.0256801 9.94085 -0.0746491 
-0.0604743 -0.0746491 9.99138 
9.89568 -0.0178182 -0.0652582 
-0.0178182 9.84864 -0.0729226 
-0.0652582 -0.0729226 10.0348 
9.94619 -0.0319501 -0.130891 
-0.0319501 9.86156 -0.109396 
-0.130891 -0.109396 9.97143 
9.8785 0.0138377 -0.0439754 
0.0138377 9.89293 0.0361958 
-0.0439754 0.0361958 9.97668 
9.88064 0.00616763 -0.0418889 
0.00616763 9.89131 0.0336546 
-0.0418889 0.0336546 9.97616 
9.87669 -0.000260027 -0.0428355 
-0.000260027 9.89543 0.0367578 
-0.0428355 0.0367578 9.97598 
9.88857 0.0107427 -0.0461648 
0.0107427 9.87761 0.0393127 
-0.0461648 0.0393127 9.98193 
9.46633 -0.280291 0.00944331 
-0.280291 10.1162 -0.0765457 
0.00944331 -0.0765457 9.54159 
10.2842 -0.0709441 -0.0408171 
-0.0709441 9.76094 0.197226 
-0.0408171 0.197226 9.07901 
10.2077 0.0873153 -0.304087 
0.0873153 9.68946 0.0948349 
-0.304087 0.0948349 9.22697 
10.0868 -0.0671956 -0.110937 
-0.0671956 9.83693 0.0784712 
-0.110937 0.0784712 9.20046 
9.95596 0.0495548 -0.0225472 
0.0495548 9.9608 0.0224026 
-0.0225472 0.0224026 9.97485 
9.97471 0.0357505 -0.00867102 
0.0357505 9.93905 -0.00960761 
-0.00867102 -0.00960761 9.97786 
9.96627 0.0302987 -0.0313604 
0.0302987 9.97548 0.0294506 
-0.0313604 0.0294506 9.94986 
9.9701 0.0340357 -0.019312 
0.0340357 9.95266 0.0124539 
-0.019312 0.0124539 9.96886 
9.97023 0.0081632 0.00321954 
0.0081632 9.95693 0.00996224 
0.00321954 0.00996224 9.95319 
9.96705 0.00753388 0.00512708 
0.00753388 9.96389 0.00776424 
0.00512708 0.00776424 9.94941 
9.97257 0.00510139 0.01472 
0.00510139 9.96465 0.0180447 
0.01472 0.0180447 9.94313 
9.95058 0.00400378 0.0174624 
0.00400378 9.94627 0.00156635 
0.0174624 0.00156635 9.9835 
9.89561 0.0116377 0.00107785 
0.0116377 9.90075 -0.0945817 
0.00107785 -0.0945817 9.87582 
9.88819 0.00280121 0.00476511 
0.00280121 9.89666 -0.0980445 
0.00476511 -0.0980445 9.88734 
9.90488 -0.0149996 -0.00480788 
-0.0149996 9.868 -0.0824472 
-0.00480788 -0.0824472 9.8993 
9.89972 -0.00448564 -0.013125 
-0.00448564 9.86781 -0.0940896 
-0.013125 -0.0940896 9.90467 
9.97061 0.000245612 0.0597549 
0.000245612 9.9641 0.0248662 
0.0597549 0.0248662 9.98437 
9.97659 -8.53556e-05 0.0672181 
-8.53556e-05 9.96943 0.0316094 
0.0672181 0.0316094 9.97307 
9.97186 -0.00485016 0.0751696 
-0.00485016 9.97655 0.0357223 
0.0751696 0.0357223 9.97068 
9.98569 -0.00503384 0.0638411 
-0.00503384 9.97244 0.0360057 
0.0638411 0.0360057 9.96095 
10.0042 0.031089 -0.00526103 
0.031089 9.90866 0.0037046 
-0.00526103 0.0037046 10.1975 
9.98628 -0.00393739 0.0166179 
-0.00393739 9.91258 0.0427189 
0.0166179 0.0427189 10.2115 
9.99613 0.0296349 0.000802819 
0.0296349 9.91283 0.00469878 
0.000802819 0.00469878 10.2014 
9.9918 0.0410926 -0.00633196 
0.0410926 9.92272 -0.00612351 
-0.00633196 -0.00612351 10.1958 
9.96244 0.000641194 -0.0364305 
0.000641194 9.95878 -0.0175593 
-0.0364305 -0.0175593 9.93091 
9.95222 0.00120749 -0.0271781 
0.00120749 9.96287 -0.000616792 
-0.0271781 -0.000616792 9.93704 
9.95118 0.00942208 -0.0216594 
0.00942208 9.95676 0.000883759 
-0.0216594 0.000883759 9.9442 
9.95366 0.0062557 -0.029051 
0.0062557 9.95807 -0.00957186 
-0.029051 -0.00957186 9.94041 
9.96871 0.000824968 -0.0217283 
0.000824968 9.96962 0.0622531 
-0.0217283 0.0622531 9.96155 
9.96563 -0.00304086 -0.0279437 
-0.00304086 9.96797 0.0688324 
-0.0279437 0.0688324 9.96627 
9.96743 0.00150467 -0.0284975 
0.00150467 9.96821 0.0670168 
-0.0284975 0.0670168 9.96424 
9.96969 0.00426122 -0.02662 
0.00426122 9.97004 0.0673385 
-0.02662 0.0673385 9.96014 
9.32952 -0.256919 -0.0947854 
-0.256919 10.3071 0.101345 
-0.0947854 0.101345 10.425 
9.8334 -0.0109783 0.136179 
-0.0109783 10.0004 0.0457518 
0.136179 0.0457518 10.2278 
10.1465 0.0554224 -0.0894133 
0.0554224 9.81783 0.0592467 
-0.0894133 0.0592467 10.0973 
9.7648 -0.119501 0.145825 
-0.119501 10.0844 0.0397203 
0.145825 0.0397203 10.2124 
9.96741 -0.0006076 -0.00642036 
-0.0006076 9.96869 -0.0508823 
-0.00642036 -0.0508823 9.96011 
9.97256 -0.000419211 -0.00625716 
-0.000419211 9.97185 -0.0380865 
-0.00625716 -0.0380865 9.95181 
9.98161 0.00703246 -0.00306717 
0.00703246 9.98801 -0.0554264 
-0.00306717 -0.0554264 9.9266 
9.96986 -0.0012071 -0.00964579 
-0.0012071 9.9737 -0.0394325 
-0.00964579 -0.0394325 9.95266 
9.97949 0.00433716 -0.0476702 
0.00433716 9.96729 -0.0433454 
-0.0476702 -0.0433454 9.95239 
9.97103 0.00532432 -0.0471048 
0.00532432 9.97378 -0.035588 
-0.0471048 -0.035588 9.95436 
9.97202 0.00225137 -0.048297 
0.00225137 9.97667 -0.0335834 
-0.048297 -0.0335834 9.95047 
9.96909 0.00681444 -0.0444711 
0.00681444 9.96914 -0.0295425 
-0.0444711 -0.0295425 9.96094 
9.98346 -0.00413508 -0.0238019 
-0.00413508 9.9784 -0.0502627 
-0.0238019 -0.0502627 9.98673 
9.98046 -0.00106688 -0.0346701 
-0.00106688 9.98054 -0.0378769 
-0.0346701 -0.0378769 9.98759 
9.98376 0.00339991 -0.0277513 
0.00339991 9.98258 -0.0484622 
-0.0277513 -0.0484622 9.98225 
9.98638 0.00388625 -0.0315486 
0.00388625 9.98074 -0.0373964 
-0.0315486 -0.0373964 9.98147 
9.9125 -0.00969154 -0.00655729 
-0.00969154 9.9293 0.0617828 
-0.00655729 0.0617828 9.90245 
9.92723 0.00538077 -0.0208039 
0.00538077 9.92252 0.0505975 
-0.0208039 0.0505975 9.89449 
9.9455 0.0157934 -0.00653944 
0.0157934 9.92749 0.059297 
-0.00653944 0.059297 9.87126 
9.93765 0.00380096 -0.0154866 
0.00380096 9.92406 0.062154 
-0.0154866 0.062154 9.88253 
9.97909 -0.00245774 0.0433982 
-0.00245774 9.97778 0.0239011 
0.0433982 0.0239011 9.97249 
9.98377 0.0118606 0.0467078 
0.0118606 9.98244 0.019656 
0.0467078 0.019656 9.96316 
9.97323 0.00888671 0.0469695 
0.00888671 9.97237 0.028618 
0.0469695 0.028618 9.98375 
9.97771 -0.00193772 0.0412191 
-0.00193772 9.97887 0.0205064 
0.0412191 0.0205064 9.97278 
9.97722 0.00281314 0.0316062 
0.00281314 9.98138 0.0533129 
0.0316062 0.0533129 9.98109 
9.9798 -0.00224126 0.0291663 
-0.00224126 9.97578 0.0515706 
0.0291663 0.0515706 9.98411 
9.98461 -0.00304748 0.0292616 
-0.00304748 9.98 0.0535002 
0.0292616 0.0535002 9.97508 
9.97806 0.000574948 0.0320864 
0.000574948 9.98264 0.0542528 
0.0320864 0.0542528 9.97899 
9.85622 -0.0508384 -0.120204 
-0.0508384 10.0407 0.102643 
-0.120204 0.102643 9.83212 
9.92513 -0.00457112 -0.122348 
-0.00457112 9.88792 0.0335033 
-0.122348 0.0335033 9.91596 
9.87075 0.00222976 -0.0897269 
0.00222976 9.94557 0.0575068 
-0.0897269 0.0575068 9.91269 
9.87642 0.144443 -0.139792 
0.144443 9.89622 0.150241 
-0.139792 0.150241 9.95636 
9.87086 -0.11741 0.0738353 
-0.11741 9.70264 0.299894 
0.0738353 0.299894 9.85133 
9.88495 -0.0159551 0.0242743 
-0.0159551 9.75119 0.393646 
0.0242743 0.393646 9.78869 
9.60139 -0.27735 0.0841273 
-0.27735 10.067 0.171686 
0.0841273 0.171686 9.75641 
9.75264 -0.151684 0.114414 
-0.151684 9.83731 0.326667 
0.114414 0.326667 9.83488 
10.072 -0.209287 -0.0836102 
-0.209287 9.95426 0.0132259 
-0.0836102 0.0132259 9.86265 
9.49218 0.369491 -0.432816 
0.369491 10.0668 -0.0058027 
-0.432816 -0.0058027 10.33 
9.58868 0.215186 -0.0261828 
0.215186 9.86851 -0.0420205 
-0.0261828 -0.0420205 10.4318 
9.65491 0.352922 -0.0679405 
0.352922 9.90615 0.0308692 
-0.0679405 0.0308692 10.3279 
9.7694 0.169724 0.144857 
0.169724 9.95027 -0.5004 
0.144857 -0.5004 9.52169 
10.1357 0.034289 0.0585511 
0.034289 10.0241 -0.508689 
0.0585511 -0.508689 9.08159 
9.30717 -0.0776843 0.143052 
-0.0776843 9.93766 -0.697441 
0.143052 -0.697441 9.99653 
9.8126 -0.237315 -0.041485 
-0.237315 9.75598 0.364136 
-0.041485 0.364136 9.67279 
9.94224 0.00807242 0.057719 
0.00807242 9.93983 -0.0372563 
0.057719 -0.0372563 9.93833 
9.94544 0.0040538 0.0683086 
0.0040538 9.93427 -0.0371719 
0.0683086 -0.0371719 9.94069 
9.94466 -0.00179943 0.0618584 
-0.00179943 9.93311 -0.0292687 
0.0618584 -0.0292687 9.94263 
9.9429 0.00307556 0.0674081 
0.00307556 9.93788 -0.0382754 
0.0674081 -0.0382754 9.93963 
10.3688 0.00390527 0.00039577 
0.00390527 10.3494 -0.0149737 
0.00039577 -0.0149737 10.2789 
10.4197 0.106567 0.0241914 
0.106567 10.492 -0.0486791 
0.0241914 -0.0486791 10.0854 
10.2913 0.0517131 -0.094675 
0.0517131 10.2537 0.0404802 
-0.094675 0.0404802 10.4521 
10.245 0.083642 0.0538937 
0.083642 10.3134 0.0275319 
0.0538937 0.0275319 10.4387 
9.89428 -0.0321416 0.0320177 
-0.0321416 9.91173 0.0318671 
0.0320177 0.0318671 9.952 
9.95594 -0.0335449 0.0903654 
-0.0335449 9.96176 0.041595 
0.0903654 0.041595 9.8403 
9.95331 0.0142833 0.0770768 
0.0142833 9.91872 0.00709022 
0.0770768 0.00709022 9.88598 
9.93492 0.0224273 0.050739 
0.0224273 9.93413 0.00900859 
0.050739 0.00900859 9.88895 
9.99259 -0.000187223 -0.00393188 
-0.000187223 9.99315 0.0571769 
-0.00393188 0.0571769 9.99634 
9.9916 0.000574521 -0.00252517 
0.000574521 9.99214 0.0590856 
-0.00252517 0.0590856 9.99835 
9.99212 0.000430643 -0.00218508 
0.000430643 9.99346 0.056292 
-0.00218508 0.056292 9.99651 
9.9946 0.000167042 -0.00238645 
0.000167042 9.9956 0.0571478 
-0.00238645 0.0571478 9.99188 
9.9312 -0.171014 -0.337035 
-0.171014 9.43237 -0.23853 
-0.337035 -0.23853 8.69059 
9.65062 -0.0233663 -0.373442 
-0.0233663 9.39438 -0.399981 
-0.373442 -0.399981 9.00915 
10.2435 0.111566 -0.367721 
0.111566 9.53286 -0.251538 
-0.367721 -0.251538 8.2778 
9.60907 -0.305422 -0.319754 
-0.305422 9.42156 -0.0464757 
-0.319754 -0.0464757 9.02353 
9.96488 -0.00700014 -0.00490309 
-0.00700014 9.98263 0.0121325 
-0.00490309 0.0121325 9.994 
9.97916 -0.00341311 -0.00741756 
-0.00341311 9.98251 0.0181093 
-0.00741756 0.0181093 9.97982 
9.98144 -0.01352 -0.0116207 
-0.01352 10.0007 0.0154011 
-0.0116207 0.0154011 9.95939 
9.98755 0.000699656 -0.00758941 
0.000699656 9.97542 0.0244187 
-0.00758941 0.0244187 9.97853 
10.2956 0.0679155 -0.0397943 
0.0679155 10.1699 0.0614348 
-0.0397943 0.0614348 10.2708 
10.2939 -0.0378677 -0.021519 
-0.0378677 10.1413 0.0528687 
-0.021519 0.0528687 10.3011 
10.2253 0.0134683 -0.0164301 
0.0134683 10.2406 0.0332721 
-0.0164301 0.0332721 10.2705 
10.2871 0.0168592 -0.0321501 
0.0168592 10.1969 0.0370005 
-0.0321501 0.0370005 10.2524 
10.0017 0.0143497 -0.0199292 
0.0143497 9.89434 -0.000361922 
-0.0199292 -0.000361922 10.1457 
9.97993 0.0112617 -0.0170969 
0.0112617 9.88314 -0.0131317 
-0.0170969 -0.0131317 10.1786 
9.97209 0.0162193 -0.0231786 
0.0162193 9.88926 -0.0135438 
-0.0231786 -0.0135438 10.1804 
9.96003 0.000416844 -0.0236415 
0.000416844 9.85062 0.013329 
-0.0236415 0.013329 10.2311 
9.91642 -0.0105985 0.085065 
-0.0105985 9.95921 -0.0258978 
0.085065 -0.0258978 9.85026 
9.95651 -0.000621151 0.055921 
-0.000621151 9.95183 -0.0208415 
0.055921 -0.0208415 9.81755 
9.9631 0.00847829 0.152463 
0.00847829 9.90228 -0.0934872 
0.152463 -0.0934872 9.86051 
9.90779 0.00533605 0.0718123 
0.00533605 9.90416 -0.0445517 
0.0718123 -0.0445517 9.91394 
9.98944 -0.0060785 0.0332335 
-0.0060785 9.95881 0.0196226 
0.0332335 0.0196226 10.1961 
9.97846 -0.00656061 -0.00969545 
-0.00656061 9.96575 -0.042778 
-0.00969545 -0.042778 10.2002 
9.97427 0.0114931 0.0160508 
0.0114931 9.94104 0.0556686 
0.0160508 0.0556686 10.2291 
9.9879 -0.000811693 -0.0309077 
-0.000811693 10.0015 0.00149974 
-0.0309077 0.00149974 10.155 
9.49426 -1.13086 0.300143 
-1.13086 9.24496 -1.12178 
0.300143 -1.12178 9.24899 
11.0033 0.429354 -1.54636 
0.429354 8.53946 -0.394809 
-1.54636 -0.394809 8.44549 
10.6466 1.13627 1.2781 
1.13627 6.97579 -0.7198 
1.2781 -0.7198 10.3658 
10.0667 -0.450655 -0.062205 
-0.450655 8.51751 -0.720465 
-0.062205 -0.720465 9.40404 
9.96091 -0.00202004 0.0868385 
-0.00202004 9.72118 0.0968086 
0.0868385 0.0968086 10.0096 
9.89852 -0.0218493 0.0563905 
-0.0218493 9.87829 0.0982484 
0.0563905 0.0982484 9.91485 
10.0008 -0.0720724 0.0322916 
-0.0720724 9.77343 0.252231 
0.0322916 0.252231 9.91744 
9.89432 -0.0426182 0.145222 
-0.0426182 9.746 0.0978614 
0.145222 0.0978614 10.0513 
9.99076 -0.0227935 0.0238367 
-0.0227935 9.97396 -0.0189785 
0.0238367 -0.0189785 10.0288 
10.0006 0.00512645 -0.0189313 
0.00512645 9.9859 0.0184906 
-0.0189313 0.0184906 10.007 
9.98229 0.0032437 -0.000946501 
0.0032437 9.96365 0.00963602 
-0.000946501 0.00963602 10.0476 
9.98408 0.00926264 -0.00373449 
0.00926264 9.97483 0.0051634 
-0.00373449 0.0051634 10.0346 
9.95303 0.00114574 0.0479968 
0.00114574 9.95058 0.0542131 
0.0479968 0.0542131 9.95261 
9.95342 -1.82277e-05 0.0473112 
-1.82277e-05 9.94953 0.0525268 
0.0473112 0.0525268 9.95326 
9.9522 0.00492908 0.0495262 
0.00492908 9.95107 0.0507764 
0.0495262 0.0507764 9.95295 
9.95068 0.00673715 0.046583 
0.00673715 9.95639 0.0469374 
0.046583 0.0469374 9.94915 
9.86236 -0.0146077 0.0690227 
-0.0146077 9.89473 0.00740205 
0.0690227 0.00740205 10.0749 
9.864 -0.00103582 0.0777504 
-0.00103582 9.90371 -0.00470376 
0.0777504 -0.00470376 10.0643 
9.86827 0.00577732 0.0761124 
0.00577732 9.90885 0.00705155 
0.0761124 0.00705155 10.0549 
9.89864 -0.0450131 0.0461138 
-0.0450131 9.9028 -0.0282398 
0.0461138 -0.0282398 10.0306 
10.0976 -0.0664031 -0.0196416 
-0.0664031 10.002 -0.130009 
-0.0196416 -0.130009 10.232 
10.065 -0.106902 -0.0066286 
-0.106902 9.85281 0.00577494 
-0.0066286 0.00577494 10.4137 
10.1226 -0.0710402 -0.000779592 
-0.0710402 9.81193 0.0232937 
-0.000779592 0.0232937 10.3971 
10.1476 -0.0670247 -0.183044 
-0.0670247 9.96209 -0.117551 
-0.183044 -0.117551 10.2219 
9.71491 0.219769 0.124359 
0.219769 9.68864 -0.068436 
0.124359 -0.068436 10.0711 
9.65201 0.242247 0.100715 
0.242247 9.78205 -0.195261 
0.100715 -0.195261 10.0406 
9.77157 0.0883217 0.327199 
0.0883217 9.72846 -0.0894841 
0.327199 -0.0894841 9.97461 
9.81575 0.183586 0.302055 
0.183586 9.65805 -0.18521 
0.302055 -0.18521 10.0008 
9.91993 -0.0178851 -0.00743707 
-0.0178851 9.87415 -0.0101438 
-0.00743707 -0.0101438 9.99842 
9.84818 -0.00549959 0.0387534 
-0.00549959 9.87895 -0.0244433 
0.0387534 -0.0244433 10.0654 
9.94551 0.0438009 -0.01091 
0.0438009 9.91028 -0.00815585 
-0.01091 -0.00815585 9.9367 
9.9188 0.025096 0.0559239 
0.025096 9.96326 -0.103877 
0.0559239 -0.103877 9.91043 
9.89159 0.0167886 -0.0812927 
0.0167886 9.89271 0.038332 
-0.0812927 0.038332 9.92163 
9.90144 0.0183763 -0.0764675 
0.0183763 9.88876 0.0552931 
-0.0764675 0.0552931 9.91574 
9.90622 0.0190427 -0.0751286 
0.0190427 9.88892 0.0411967 
-0.0751286 0.0411967 9.9108 
9.88571 0.0130374 -0.0726737 
0.0130374 9.9076 0.0342682 
-0.0726737 0.0342682 9.91263 
9.89028 -0.0299996 0.0314815 
-0.0299996 9.75277 0.0628956 
0.0314815 0.0628956 10.1597 
9.97481 -0.159939 0.00394987 
-0.159939 9.7362 0.118606 
0.00394987 0.118606 10.0917 
9.81456 -0.0734377 -0.0567671 
-0.0734377 9.83005 0.051123 
-0.0567671 0.051123 10.1581 
9.87515 -0.092442 -0.0162623 
-0.092442 10.0088 0.104694 
-0.0162623 0.104694 9.91877 
9.93245 0.0373387 -0.0565285 
0.0373387 9.90743 0.0759792 
-0.0565285 0.0759792 9.8446 
9.95178 0.0396122 0.0244794 
0.0396122 9.89043 0.0426534 
0.0244794 0.0426534 9.84227 
9.91409 -0.0182278 -0.00757162 
-0.0182278 9.90044 -0.0250802 
-0.00757162 -0.0250802 9.86995 
9.92407 0.00906106 -0.0138379 
0.00906106 9.9163 0.0898455 
-0.0138379 0.0898455 9.84411 
9.93636 -0.00425735 -0.019586 
-0.00425735 9.91419 0.00129511 
-0.019586 0.00129511 9.8871 
9.93043 -0.00396737 -0.00378295 
-0.00396737 9.9232 0.0077866 
-0.00378295 0.0077866 9.88401 
9.92316 -0.00589203 -0.0172909 
-0.00589203 9.90923 0.00642443 
-0.0172909 0.00642443 9.90525 
9.93525 -0.00721901 -0.0193094 
-0.00721901 9.91929 0.00521287 
-0.0193094 0.00521287 9.88311 
10.0029 -0.0119518 0.0108533 
-0.0119518 10.0342 0.0276734 
0.0108533 0.0276734 10.0957 
10.0525 -0.00588646 -0.00199761 
-0.00588646 10.0573 -0.00244589 
-0.00199761 -0.00244589 10.023 
10.0662 -0.0102975 -0.0141996 
-0.0102975 10.0722 -0.00167975 
-0.0141996 -0.00167975 9.99446 
10.0401 -0.0260086 0.00766609 
-0.0260086 10.0158 -0.039212 
0.00766609 -0.039212 10.0768 
10.6926 0.13454 0.137213 
0.13454 9.38118 -0.277629 
0.137213 -0.277629 12.6972 
10.0777 0.574641 0.0527085 
0.574641 11.0484 0.0492856 
0.0527085 0.0492856 11.6449 
9.48285 1.29782 0.357047 
1.29782 9.99861 -0.306929 
0.357047 -0.306929 13.2895 
10.0998 1.49899 0.278958 
1.49899 10.0108 0.945242 
0.278958 0.945242 12.6603 
9.93921 -0.000729039 -0.0440447 
-0.000729039 9.93336 -0.0582218 
-0.0440447 -0.0582218 9.94463 
9.93509 0.00249811 -0.043298 
0.00249811 9.9347 -0.0552403 
-0.043298 -0.0552403 9.94741 
9.92784 0.00560773 -0.0432789 
0.00560773 9.92737 -0.0510146 
-0.0432789 -0.0510146 9.962 
9.94963 0.00238615 -0.0401994 
0.00238615 9.94266 -0.0505551 
-0.0401994 -0.0505551 9.92492 
10.1209 0.0282787 0.00128303 
0.0282787 10.0352 -0.0170128 
0.00128303 -0.0170128 10.1471 
10.0288 -0.0642456 -0.0240836 
-0.0642456 10.1174 0.0245259 
-0.0240836 0.0245259 10.157 
10.1017 0.00779237 0.021967 
0.00779237 10.0815 -0.0171759 
0.021967 -0.0171759 10.1199 
10.1268 0.0583597 -0.119755 
0.0583597 10.0358 -0.0156062 
-0.119755 -0.0156062 10.1406 
9.89061 0.0104115 -0.11058 
0.0104115 9.91805 0.11044 
-0.11058 0.11044 9.89344 
9.93069 0.0115257 -0.061252 
0.0115257 9.90948 0.134942 
-0.061252 0.134942 9.86192 
10.0082 0.0740385 -0.164449 
0.0740385 9.81614 0.121217 
-0.164449 0.121217 9.87781 
9.89873 0.0208565 -0.0983896 
0.0208565 9.91893 0.058086 
-0.0983896 0.058086 9.88443 
9.8511 -0.142566 -0.211362 
-0.142566 9.88811 -0.0805725 
-0.211362 -0.0805725 9.97362 
9.78384 -0.0397222 -0.0639247 
-0.0397222 9.86304 0.0197861 
-0.0639247 0.0197861 10.066 
9.922 -0.0635214 -0.114266 
-0.0635214 9.85996 -0.0329591 
-0.114266 -0.0329591 9.93087 
9.90927 -0.018396 -0.122406 
-0.018396 9.8705 -0.0150526 
-0.122406 -0.0150526 9.93306 
9.96367 0.0137797 -0.0213874 
0.0137797 9.97056 -0.0158101 
-0.0213874 -0.0158101 9.94214 
9.94974 0.0166829 -0.022921 
0.0166829 9.97805 -0.00596603 
-0.022921 -0.00596603 9.94857 
9.96399 0.0107689 -0.017438 
0.0107689 9.96532 -0.0218304 
-0.017438 -0.0218304 9.94705 
9.95564 0.00257504 -0.0275637 
0.00257504 9.9605 -0.0149031 
-0.0275637 -0.0149031 9.96022 
9.92823 0.000802482 -0.0343422 
0.000802482 9.939 -0.0720163 
-0.0343422 -0.0720163 9.92909 
9.92995 -0.00794301 -0.0424309 
-0.00794301 9.93767 -0.0641475 
-0.0424309 -0.0641475 9.92871 
9.91937 -0.00227144 -0.0348414 
-0.00227144 9.92643 -0.0640768 
-0.0348414 -0.0640768 9.95053 
9.92997 -0.00099104 -0.0358235 
-0.00099104 9.93328 -0.0673446 
-0.0358235 -0.0673446 9.93308 
9.92961 0.00083407 -0.0108388 
0.00083407 9.88975 0.0641437 
-0.0108388 0.0641437 9.90726 
9.9355 -0.012067 -0.0739058 
-0.012067 9.93568 0.0228827 
-0.0739058 0.0228827 9.85544 
9.98076 -1.67813e-06 -0.0266059 
-1.67813e-06 9.93161 0.0558735 
-0.0266059 0.0558735 9.81426 
9.94841 -0.00711312 -0.0411941 
-0.00711312 9.92784 0.032369 
-0.0411941 0.032369 9.85038 
9.92136 -0.0229932 0.0614311 
-0.0229932 9.92146 -0.0498354 
0.0614311 -0.0498354 9.93484 
9.872 0.000350531 0.053753 
0.000350531 9.9315 -0.0640224 
0.053753 -0.0640224 9.97417 
9.90078 -0.04432 0.0700441 
-0.04432 9.94348 -0.066051 
0.0700441 -0.066051 9.9334 
9.89827 -0.0188758 0.063875 
-0.0188758 9.92145 -0.0498596 
0.063875 -0.0498596 9.95795 
9.80598 0.096124 0.0112295 
0.096124 9.86297 -0.0595269 
0.0112295 -0.0595269 10.1628 
9.89967 0.0687986 -0.036649 
0.0687986 9.87405 -0.0399718 
-0.036649 -0.0399718 10.058 
9.85097 0.162462 -0.00501819 
0.162462 9.86553 -0.0671274 
-0.00501819 -0.0671274 10.1153 
9.85916 0.0174004 -0.142163 
0.0174004 10.0812 -0.229606 
-0.142163 -0.229606 9.89141 
9.91616 0.00308344 0.0448026 
0.00308344 9.91925 0.0612438 
0.0448026 0.0612438 9.93283 
9.91246 -0.00599332 0.0531131 
-0.00599332 9.91179 0.0568626 
0.0531131 0.0568626 9.94399 
9.90104 0.000351918 0.0412198 
0.000351918 9.92771 0.0529478 
0.0412198 0.0529478 9.93949 
9.90994 -0.00194091 0.0463885 
-0.00194091 9.91753 0.0568398 
0.0463885 0.0568398 9.94077 
9.94611 0.00200557 -0.0478688 
0.00200557 9.9425 -0.0242962 
-0.0478688 -0.0242962 9.92706 
9.94391 0.00391729 -0.0450864 
0.00391729 9.94393 -0.0291329 
-0.0450864 -0.0291329 9.92783 
9.94179 0.00272704 -0.05898 
0.00272704 9.93915 -0.0265776 
-0.05898 -0.0265776 9.93474 
9.95273 0.00665072 -0.05384 
0.00665072 9.95372 -0.0373609 
-0.05384 -0.0373609 9.90922 
9.98405 0.0125706 -0.00785075 
0.0125706 9.97734 0.00385532 
-0.00785075 0.00385532 9.99808 
9.98235 -0.00384257 -0.000657225 
-0.00384257 9.98129 -6.86386e-05 
-0.000657225 -6.86386e-05 9.99582 
9.98133 -0.0016444 0.00107375 
-0.0016444 9.98096 -0.000501509 
0.00107375 -0.000501509 9.99718 
9.97618 0.00626839 0.00969177 
0.00626839 9.9849 0.00404683 
0.00969177 0.00404683 9.99839 
10.2485 0.0291486 -0.034299 
0.0291486 9.75759 0.111062 
-0.034299 0.111062 9.60346 
9.25392 -0.0198286 -0.452478 
-0.0198286 10.243 0.0441043 
-0.452478 0.0441043 10.1126 
9.89581 -0.117513 -0.596727 
-0.117513 10.1622 -0.0561643 
-0.596727 -0.0561643 9.55151 
9.64499 -0.0959496 -0.425034 
-0.0959496 10.0471 -0.0867917 
-0.425034 -0.0867917 9.91749 
9.85161 0.264039 0.00283068 
0.264039 9.90613 -0.00106369 
0.00283068 -0.00106369 10.2011 
10.0642 0.156001 -0.0169254 
0.156001 9.81129 -0.0574979 
-0.0169254 -0.0574979 10.0833 
9.76242 0.122203 -0.018954 
0.122203 10.171 -0.113736 
-0.018954 -0.113736 10.0254 
9.84254 0.381174 -0.0571045 
0.381174 9.86259 -0.0366342 
-0.0571045 -0.0366342 10.2537 
9.88367 0.0951524 0.0132989 
0.0951524 10.0582 -0.0108273 
0.0132989 -0.0108273 9.85312 
9.89076 -0.0225709 0.0122457 
-0.0225709 9.92962 0.0282211 
0.0122457 0.0282211 9.97461 
9.95525 -0.098792 -0.0192862 
-0.098792 9.79815 0.000427603 
-0.0192862 0.000427603 10.0416 
9.82952 -0.0693672 0.0390831 
-0.0693672 9.96851 0.116129 
0.0390831 0.116129 9.99696 
9.98778 0.00261962 0.00955697 
0.00261962 9.9911 0.00646976 
0.00955697 0.00646976 9.99593 
9.98739 0.00037651 0.00999322 
0.00037651 9.98944 0.00713853 
0.00999322 0.00713853 9.99799 
9.98623 0.000960726 0.0105285 
0.000960726 9.99169 0.00549413 
0.0105285 0.00549413 9.9969 
9.99062 0.00119921 0.0118608 
0.00119921 9.99173 0.00663322 
0.0118608 0.00663322 9.99247 
9.98104 -0.00194154 -0.00115209 
-0.00194154 9.98018 -0.00758287 
-0.00115209 -0.00758287 9.98815 
9.98116 0.00465424 0.00270999 
0.00465424 9.97513 -0.00740342 
0.00270999 -0.00740342 9.99308 
9.98215 3.979e-05 -0.00191737 
3.979e-05 9.98376 -0.00724711 
-0.00191737 -0.00724711 9.98345 
9.9807 -0.000161806 0.00240293 
-0.000161806 9.98193 -0.00785776 
0.00240293 -0.00785776 9.98673 
9.96207 0.0182727 -0.0326463 
0.0182727 9.90811 -0.123404 
-0.0326463 -0.123404 9.86891 
9.93739 0.0342835 -0.0676206 
0.0342835 9.94838 -0.103993 
-0.0676206 -0.103993 9.85331 
9.96652 -0.0438843 -0.098542 
-0.0438843 9.89088 -0.143245 
-0.098542 -0.143245 9.88168 
9.87727 -0.0110456 -0.0908021 
-0.0110456 9.9248 -0.0647512 
-0.0908021 -0.0647512 9.93701 
9.94653 -0.0380993 -0.0249905 
-0.0380993 9.93656 0.0120208 
-0.0249905 0.0120208 10.2048 
9.958 -0.0438577 -0.0180016 
-0.0438577 9.92463 0.0287356 
-0.0180016 0.0287356 10.2053 
10.0092 0.0199766 -0.0258215 
0.0199766 9.93108 -0.00191571 
-0.0258215 -0.00191571 10.1476 
9.95235 -0.0104728 -0.011339 
-0.0104728 9.9066 0.0236561 
-0.011339 0.0236561 10.2289 
9.96894 -0.0199428 0.123858 
-0.0199428 10.0932 -0.376819 
0.123858 -0.376819 9.57267 
9.96125 0.03648 0.133018 
0.03648 10.1485 -0.355263 
0.133018 -0.355263 9.52508 
10.0485 0.156542 0.180269 
0.156542 9.91057 -0.200756 
0.180269 -0.200756 9.67573 
9.9923 -0.0437349 0.139794 
-0.0437349 10.1642 -0.364622 
0.139794 -0.364622 9.47831 
9.99562 0.00352533 0.017763 
0.00352533 9.99647 0.0319862 
0.017763 0.0319862 9.98941 
9.98842 0.00330472 0.0229168 
0.00330472 9.98884 0.0308903 
0.0229168 0.0308903 10.0042 
9.98816 0.00268683 0.0217542 
0.00268683 9.99658 0.0284212 
0.0217542 0.0284212 9.99677 
9.99463 0.00529485 0.015051 
0.00529485 9.99545 0.0299116 
0.015051 0.0299116 9.99141 
10.0931 -0.0332615 -0.111254 
-0.0332615 9.93076 0.0181012 
-0.111254 0.0181012 9.96632 
9.95242 0.10105 0.0400411 
0.10105 10.0015 0.0388473 
0.0400411 0.0388473 10.0363 
10.0032 -0.0876559 0.150582 
-0.0876559 9.82056 -0.0515652 
0.150582 -0.0515652 10.1664 
9.91801 0.111022 -0.00476908 
0.111022 9.9647 0.0439072 
-0.00476908 0.0439072 10.1075 
9.81554 -0.00958787 -0.0769308 
-0.00958787 9.93156 -0.0540954 
-0.0769308 -0.0540954 10.0142 
9.86428 -0.0034902 -0.060858 
-0.0034902 9.88761 -0.0439114 
-0.060858 -0.0439114 10.0094 
9.85999 -0.00367254 -0.0703207 
-0.00367254 9.89773 -0.0550303 
-0.0703207 -0.0550303 10.0036 
9.83007 0.0153201 -0.0281294 
0.0153201 9.92859 -0.0409397 
-0.0281294 -0.0409397 10.0026 
9.61194 -0.145978 -0.362611 
-0.145978 10.1346 -0.00569999 
-0.362611 -0.00569999 9.6183 
9.72217 -0.216452 -0.274075 
-0.216452 9.98139 -0.149297 
-0.274075 -0.149297 9.66122 
9.87958 -0.329025 -0.316747 
-0.329025 10.1443 -0.377481 
-0.316747 -0.377481 9.34091 
9.92834 -0.012511 0.154071 
-0.012511 9.56701 -0.195161 
0.154071 -0.195161 9.86944 
10.4734 -0.249826 -0.143277 
-0.249826 10.5012 0.0176549 
-0.143277 0.0176549 10.024 
10.368 -0.0543386 -0.0068206 
-0.0543386 10.3344 0.0453735 
-0.0068206 0.0453735 10.2962 
10.3508 0.0778406 0.0710823 
0.0778406 10.1453 0.0251766 
0.0710823 0.0251766 10.5024 
10.0894 0.0711488 -0.0335816 
0.0711488 10.4798 0.219424 
-0.0335816 0.219424 10.4294 
5.12703 -0.0669947 -0.21125 
-0.0669947 7.06516 -1.02415 
-0.21125 -1.02415 3.53899 
8.92524 0.80053 -1.55521 
0.80053 8.7448 -1.09494 
-1.55521 -1.09494 -1.93887 
6.42939 0.29347 -0.207035 
0.29347 7.63473 -1.06625 
-0.207035 -1.06625 1.66706 
7.38977 -0.788749 2.61351 
-0.788749 6.80723 -1.85954 
2.61351 -1.85954 1.53418 
9.77924 0.0193427 0.0617442 
0.0193427 9.86753 -0.0216428 
0.0617442 -0.0216428 9.94362 
9.72371 0.0201323 0.0687434 
0.0201323 9.89269 0.0783617 
0.0687434 0.0783617 9.97399 
9.76207 -0.0185811 0.172772 
-0.0185811 9.96991 -0.145095 
0.172772 -0.145095 9.85841 
9.89208 -0.0530384 0.190689 
-0.0530384 9.79181 0.116094 
0.190689 0.116094 9.9065 
10.8796 -0.737126 -0.0615922 
-0.737126 10.4444 0.238918 
-0.0615922 0.238918 10.033 
9.2492 -0.584942 0.323913 
-0.584942 10.2002 0.236902 
0.323913 0.236902 11.9076 
10.1161 0.325464 0.159625 
0.325464 10.4802 0.108371 
0.159625 0.108371 10.7607 
10.1115 -0.684093 0.303274 
-0.684093 10.6547 -0.578206 
0.303274 -0.578206 10.5909 
9.88094 -0.191134 0.041113 
-0.191134 9.97715 0.0896796 
0.041113 0.0896796 10.0153 
9.89306 -0.110943 0.0141855 
-0.110943 9.82327 0.221274 
0.0141855 0.221274 10.157 
9.92287 -0.12377 0.0655717 
-0.12377 10.0324 0.12033 
0.0655717 0.12033 9.91813 
9.91583 -0.129129 -0.0433434 
-0.129129 9.81826 0.0584604 
-0.0433434 0.0584604 10.1393 
9.76554 -0.034722 0.0415886 
-0.034722 10.0807 0.0149363 
0.0415886 0.0149363 9.81258 
9.93305 -0.00739618 -0.0141752 
-0.00739618 9.76291 -0.103061 
-0.0141752 -0.103061 9.96284 
9.93345 -0.00477162 -0.010912 
-0.00477162 9.75402 -0.048892 
-0.010912 -0.048892 9.97134 
9.9085 -0.101113 -0.0377439 
-0.101113 9.79381 -0.0654442 
-0.0377439 -0.0654442 9.9565 
9.8747 0.0345164 0.233569 
0.0345164 9.71545 -0.0405299 
0.233569 -0.0405299 9.766 
9.86054 -0.0226053 -0.103728 
-0.0226053 10.1061 0.329209 
-0.103728 0.329209 9.38946 
9.8918 -0.020064 -0.117196 
-0.020064 9.9935 0.436331 
-0.117196 0.436331 9.47085 
10.1197 -0.0984938 0.0160856 
-0.0984938 10.2687 0.363176 
0.0160856 0.363176 8.96779 
10.0742 0.0162973 -0.0354518 
0.0162973 10.0707 0.0233394 
-0.0354518 0.0233394 10.2559 
10.0843 0.0248175 -0.0259296 
0.0248175 10.0992 0.0199642 
-0.0259296 0.0199642 10.2173 
10.1042 -0.000348615 -0.0259657 
-0.000348615 10.0989 0.0433329 
-0.0259657 0.0433329 10.1977 
10.1112 0.0302584 0.0069585 
0.0302584 10.1021 -0.00735605 
0.0069585 -0.00735605 10.1875 
9.87267 -0.0579036 0.0395325 
-0.0579036 9.90743 0.0452227 
0.0395325 0.0452227 9.941 
9.9232 -0.0358717 0.0386951 
-0.0358717 9.91909 0.040574 
0.0386951 0.040574 9.87881 
9.90229 -0.0521687 0.0307174 
-0.0521687 9.90441 0.0291304 
0.0307174 0.0291304 9.91439 
9.93053 -0.0485679 0.00322861 
-0.0485679 9.89691 0.0288996 
0.00322861 0.0288996 9.89365 
9.96476 0.03444 0.113815 
0.03444 10.0603 -0.00445848 
0.113815 -0.00445848 9.96978 
10.0422 0.00706742 -0.117114 
0.00706742 9.89656 0.0282685 
-0.117114 0.0282685 10.056 
9.92879 0.0386743 -0.0127155 
0.0386743 9.94486 -0.00955262 
-0.0127155 -0.00955262 10.1212 
9.93803 0.0627784 -0.00820734 
0.0627784 9.97399 -0.00631324 
-0.00820734 -0.00631324 10.0828 
10.9466 0.0805479 0.0335143 
0.0805479 10.7648 -0.284321 
0.0335143 -0.284321 9.94828 
10.506 0.0836949 -0.067913 
0.0836949 10.5746 0.0181263 
-0.067913 0.0181263 10.579 
10.3839 -0.138176 -0.110002 
-0.138176 10.1174 0.0873515 
-0.110002 0.0873515 11.1583 
10.5616 0.121411 0.0885627 
0.121411 10.9939 0.327046 
0.0885627 0.327046 10.1042 
10.1767 0.025619 -0.0230415 
0.025619 10.1305 0.00248578 
-0.0230415 0.00248578 10.1471 
10.169 0.0101096 -0.0270262 
0.0101096 10.159 0.0067946 
-0.0270262 0.0067946 10.1262 
10.082 0.00954856 -0.00678255 
0.00954856 10.124 0.0387364 
-0.00678255 0.0387364 10.2483 
10.1437 -0.0288639 -0.0647705 
-0.0288639 10.1132 -0.0130061 
-0.0647705 -0.0130061 10.1973 
9.46037 -0.0354393 -0.196555 
-0.0354393 9.8462 -0.413338 
-0.196555 -0.413338 9.89171 
9.33508 0.0497606 -0.290747 
0.0497606 9.78002 -0.153664 
-0.290747 -0.153664 10.0832 
9.57184 0.244408 -0.0713512 
0.244408 9.5796 0.371032 
-0.0713512 0.371032 10.0468 
8.86808 -0.0284565 -0.658314 
-0.0284565 9.92713 0.171121 
-0.658314 0.171121 10.4031 
9.99057 0.000799133 -0.0395611 
0.000799133 9.99142 -0.0515554 
-0.0395611 -0.0515554 9.99257 
9.98704 0.00179557 -0.0379415 
0.00179557 9.98602 -0.0502078 
-0.0379415 -0.0502078 10.0015 
9.99096 0.000636215 -0.0398033 
0.000636215 9.98989 -0.0519472 
-0.0398033 -0.0519472 9.99371 
9.99159 0.000401243 -0.0409705 
0.000401243 9.99292 -0.0526711 
-0.0409705 -0.0526711 9.99005 
9.99871 0.041116 -0.0974394 
0.041116 9.72537 0.351096 
-0.0974394 0.351096 10.073 
9.9507 0.0247942 -0.0303732 
0.0247942 9.89203 0.25364 
-0.0303732 0.25364 9.95437 
9.94875 -0.0252163 0.0292943 
-0.0252163 9.97615 0.242032 
0.0292943 0.242032 9.8722 
10.0289 0.0145978 0.0170921 
0.0145978 9.8771 0.0946751 
0.0170921 0.0946751 9.89106 
9.78444 0.300406 0.122605 
0.300406 9.79674 -0.107218 
0.122605 -0.107218 10.0746 
9.82418 0.327616 0.215305 
0.327616 9.69453 -0.200147 
0.215305 -0.200147 10.1371 
10.1194 -0.0120278 0.195412 
-0.0120278 9.9223 -0.146306 
0.195412 -0.146306 9.6141 
9.75223 0.281719 0.202999 
0.281719 9.92853 0.00597224 
0.202999 0.00597224 9.97504 
9.94766 0.0144981 0.0073158 
0.0144981 9.95051 0.00274347 
0.0073158 0.00274347 9.96301 
9.94677 0.0151105 0.00911909 
0.0151105 9.9458 0.00423315 
0.00911909 0.00423315 9.96861 
9.95033 0.0151238 0.0112208 
0.0151238 9.95331 0.00944089 
0.0112208 0.00944089 9.95754 
9.94626 0.0161542 0.00718482 
0.0161542 9.95023 0.00364852 
0.00718482 0.00364852 9.96469 
9.99578 -0.0276138 -0.0656893 
-0.0276138 10.0674 -0.0308698 
-0.0656893 -0.0308698 10.3133 
9.94558 0.0197452 0.0210796 
0.0197452 10.0467 -0.0946267 
0.0210796 -0.0946267 10.3841 
10.137 -0.0102738 -0.107307 
-0.0102738 10.3062 0.0713366 
-0.107307 0.0713366 9.93315 
10.0406 0.117872 -0.065123 
0.117872 9.98682 0.108422 
-0.065123 0.108422 10.3489 
9.97417 0.00645757 0.0507542 
0.00645757 9.96976 0.0437647 
0.0507542 0.0437647 9.98634 
9.97854 -0.00169016 0.0541906 
-0.00169016 9.97261 0.0531601 
0.0541906 0.0531601 9.97912 
9.97895 -0.00253662 0.0534373 
-0.00253662 9.97451 0.052188 
0.0534373 0.052188 9.97681 
9.98338 -0.000514843 0.0555305 
-0.000514843 9.98104 0.0556212 
0.0555305 0.0556212 9.96585 
10.2128 -0.587971 -2.23042 
-0.587971 8.91909 -0.221137 
-2.23042 -0.221137 5.56108 
6.88291 1.1865 -1.60592 
1.1865 9.59077 1.3296 
-1.60592 1.3296 8.21925 
10.9552 -0.5362 -2.06746 
-0.5362 7.27248 -0.0941498 
-2.06746 -0.0941498 6.46522 
11.4043 -1.69978 1.36103 
-1.69978 6.99022 -0.211466 
1.36103 -0.211466 6.29841 
9.93091 -0.0113048 -0.0340894 
-0.0113048 9.87878 -0.0966262 
-0.0340894 -0.0966262 9.93508 
9.90225 -0.00476467 -0.0242783 
-0.00476467 9.94902 -0.076461 
-0.0242783 -0.076461 9.89351 
9.9085 -0.00513138 -0.0244318 
-0.00513138 9.92289 -0.0767532 
-0.0244318 -0.0767532 9.91339 
9.91141 -0.0192672 -0.0413006 
-0.0192672 9.90007 -0.0553106 
-0.0413006 -0.0553106 9.9333 
9.27234 -0.541174 1.04049 
-0.541174 10.6307 0.568904 
1.04049 0.568904 10.2342 
9.98923 0.30002 1.10896 
0.30002 9.49844 0.432178 
1.10896 0.432178 10.6495 
10.9661 2.23808 2.5211 
2.23808 7.39237 1.87794 
2.5211 1.87794 11.7787 
11.5067 1.04921 0.0450785 
1.04921 8.92286 -1.68601 
0.0450785 -1.68601 9.70761 
9.9573 -0.0140694 -0.0196267 
-0.0140694 9.95432 0.00822047 
-0.0196267 0.00822047 9.95128 
9.95107 -0.0011101 -0.00398806 
-0.0011101 9.95015 0.0249216 
-0.00398806 0.0249216 9.96168 
9.95484 -0.0169192 -0.0199357 
-0.0169192 9.95147 0.0214237 
-0.0199357 0.0214237 9.9566 
9.94966 -0.0194711 -0.0158078 
-0.0194711 9.95739 0.011096 
-0.0158078 0.011096 9.95586 
9.9537 0.0226659 0.0130503 
0.0226659 9.93394 0.00581368 
0.0130503 0.00581368 9.97813 
9.94038 0.0105703 0.00882189 
0.0105703 9.94664 0.0226669 
0.00882189 0.0226669 9.97875 
9.94218 0.00126039 8.36516e-05 
0.00126039 9.94857 0.0133077 
8.36516e-05 0.0133077 9.97501 
9.95567 0.0239224 0.0101747 
0.0239224 9.9438 0.0135098 
0.0101747 0.0135098 9.9663 
7.99444 -1.28417 3.63742 
-1.28417 10.3017 -1.76669 
3.63742 -1.76669 -3.41892 
4.32089 -0.3571 0.458358 
-0.3571 6.19029 0.131521 
0.458358 0.131521 4.36609 
8.15932 3.02088 1.59939 
3.02088 5.23437 0.492156 
1.59939 0.492156 1.48357 
5.31035 -0.646247 -0.153232 
-0.646247 6.76229 -2.10688 
-0.153232 -2.10688 2.80463 
9.90798 0.00712739 0.0383514 
0.00712739 9.91861 -0.065245 
0.0383514 -0.065245 9.92047 
9.91308 0.0122997 0.038843 
0.0122997 9.9102 -0.0712629 
0.038843 -0.0712629 9.92378 
9.90415 0.000391753 0.0380766 
0.000391753 9.93259 -0.0642122 
0.0380766 -0.0642122 9.91032 
9.90684 0.00731013 0.0347482 
0.00731013 9.91352 -0.0612876 
0.0347482 -0.0612876 9.9267 
9.83901 -0.0563123 0.138378 
-0.0563123 9.921 0.0169238 
0.138378 0.0169238 9.9524 
9.89072 -0.129439 0.0608701 
-0.129439 9.88861 0.0726369 
0.0608701 0.0726369 9.93309 
9.96443 -0.00319661 -0.0760069 
-0.00319661 9.87732 0.0183499 
-0.0760069 0.0183499 9.87066 
9.88807 -0.107007 0.0439813 
-0.107007 9.93512 -0.0775581 
0.0439813 -0.0775581 9.88923 
10.4188 0.0715225 -0.169642 
0.0715225 9.31141 -0.191897 
-0.169642 -0.191897 10.329 
10.2683 0.0995546 0.00086449 
0.0995546 9.31611 -0.109858 
0.00086449 -0.109858 10.4748 
9.97011 0.0373711 -0.00288917 
0.0373711 9.86918 -0.279116 
-0.00288917 -0.279116 10.2199 
10.2185 0.328052 0.181547 
0.328052 9.63332 -0.0351564 
0.181547 -0.0351564 10.2074 
9.89733 0.0437884 -0.0273655 
0.0437884 9.86171 -0.0592817 
-0.0273655 -0.0592817 9.8857 
9.95036 0.0254128 -0.0167741 
0.0254128 9.85747 -0.062008 
-0.0167741 -0.062008 9.83691 
9.88318 0.0158508 -0.0297002 
0.0158508 9.89584 -0.0725737 
-0.0297002 -0.0725737 9.86572 
9.89493 0.0616232 0.0129728 
0.0616232 9.87783 -0.0140162 
0.0129728 -0.0140162 9.87198 
10.7527 0.567892 -0.189521 
0.567892 9.68355 0.713964 
-0.189521 0.713964 9.90953 
10.6225 -0.556032 -0.266731 
-0.556032 9.40017 1.46492 
-0.266731 1.46492 10.3231 
10.6928 -0.39638 0.624876 
-0.39638 10.2815 1.45536 
0.624876 1.45536 9.3715 
10.9649 -0.124709 -0.0143235 
-0.124709 9.55514 1.30149 
-0.0143235 1.30149 9.82578 
9.89172 0.0265375 -0.0227467 
0.0265375 9.88709 -0.0339111 
-0.0227467 -0.0339111 10.0469 
9.89273 0.0262591 -0.014773 
0.0262591 9.88427 -0.0207339 
-0.014773 -0.0207339 10.0487 
9.88575 0.00600357 -0.040089 
0.00600357 9.88701 -0.0299304 
-0.040089 -0.0299304 10.0529 
9.89931 0.012096 -0.0302516 
0.012096 9.90323 -0.0338566 
-0.0302516 -0.0338566 10.0232 
9.96969 -0.0229178 -0.0283475 
-0.0229178 9.84322 0.0628167 
-0.0283475 0.0628167 10.1436 
9.91013 0.00544953 -0.0399249 
0.00544953 9.93684 0.0203227 
-0.0399249 0.0203227 10.1095 
9.94583 -0.0311209 -0.0180699 
-0.0311209 9.87676 0.064736 
-0.0180699 0.064736 10.1339 
9.9336 -0.0622105 -0.014535 
-0.0622105 9.88309 0.0706408 
-0.014535 0.0706408 10.1398 
9.89099 0.0261131 0.0400914 
0.0261131 9.88141 -0.0391288 
0.0400914 -0.0391288 9.97933 
9.93285 -0.00311995 0.0692366 
-0.00311995 9.90055 -0.058871 
0.0692366 -0.058871 9.91833 
9.87521 0.0311081 0.0640961 
0.0311081 9.89144 -0.0666094 
0.0640961 -0.0666094 9.98508 
9.90865 0.019744 0.0572305 
0.019744 9.88556 -0.0555079 
0.0572305 -0.0555079 9.95751 
10.0352 -0.101667 0.0434117 
-0.101667 9.82943 0.143569 
0.0434117 0.143569 9.93447 
9.61539 -0.107325 0.0250823 
-0.107325 10.0165 0.172438 
0.0250823 0.172438 10.1672 
9.80541 0.0538197 0.0183685 
0.0538197 10.0765 -0.0822016 
0.0183685 -0.0822016 9.91721 
9.78062 0.108555 0.241705 
0.108555 9.98187 -0.191006 
0.241705 -0.191006 10.0366 
9.90643 -0.029741 -0.0631089 
-0.029741 9.95106 -0.0471467 
-0.0631089 -0.0471467 9.97079 
9.85312 -0.0779667 -0.03782 
-0.0779667 9.90195 -0.0318619 
-0.03782 -0.0318619 10.0732 
9.93398 0.00792584 -0.00737759 
0.00792584 9.89197 -0.0326083 
-0.00737759 -0.0326083 10.0023 
9.8939 -0.000816602 -0.0390068 
-0.000816602 9.94177 -0.058451 
-0.0390068 -0.058451 9.99261 
9.90618 0.0142635 0.0572036 
0.0142635 9.91167 -0.0690442 
0.0572036 -0.0690442 9.91641 
9.90493 0.0156145 0.0364858 
0.0156145 9.92177 -0.0708508 
0.0364858 -0.0708508 9.90756 
9.90371 0.0144102 0.0452995 
0.0144102 9.91602 -0.0647041 
0.0452995 -0.0647041 9.91453 
9.90701 0.0170556 0.0385381 
0.0170556 9.91555 -0.0695582 
0.0385381 -0.0695582 9.9117 
9.81593 0.115116 0.131175 
0.115116 9.89004 0.0210765 
0.131175 0.0210765 10.0583 
9.83678 0.0941825 0.0304202 
0.0941825 9.956 0.0828461 
0.0304202 0.0828461 9.97144 
9.83501 0.163174 0.0899222 
0.163174 9.88605 0.0113734 
0.0899222 0.0113734 10.0432 
9.73183 0.229095 0.086067 
0.229095 9.92139 0.0280487 
0.086067 0.0280487 10.111 
10.1088 0.00837593 0.020326 
0.00837593 10.1146 -0.0507803 
0.020326 -0.0507803 10.1127 
10.1435 -0.00304543 0.00380385 
-0.00304543 10.125 -0.0576583 
0.00380385 -0.0576583 10.0676 
10.0538 -0.00639092 0.00484952 
-0.00639092 10.0107 0.0318125 
0.00484952 0.0318125 10.2716 
10.1407 0.0213572 0.0427948 
0.0213572 10.0142 -0.0983648 
0.0427948 -0.0983648 10.1812 
9.94268 0.0503502 0.0276158 
0.0503502 9.9761 -0.024579 
0.0276158 -0.024579 10.0116 
10.0051 0.0239146 -0.116511 
0.0239146 9.98095 0.0820456 
-0.116511 0.0820456 9.94432 
9.90271 0.0347453 0.065286 
0.0347453 9.99864 -0.00374241 
0.065286 -0.00374241 10.029 
9.99227 0.182558 0.0122152 
0.182558 9.93008 -0.0426653 
0.0122152 -0.0426653 10.008 
9.92023 0.0156647 -0.0659219 
0.0156647 9.8413 0.0872889 
-0.0659219 0.0872889 10.0168 
9.87642 0.0482416 -0.0340771 
0.0482416 9.86272 0.0798383 
-0.0340771 0.0798383 10.0392 
9.92227 0.0166128 -0.0482773 
0.0166128 9.85185 0.0655213 
-0.0482773 0.0655213 10.0042 
9.93238 -0.00930219 -0.0310814 
-0.00930219 9.86239 0.0683392 
-0.0310814 0.0683392 9.98354 
9.98586 -0.00290273 -0.064827 
-0.00290273 9.96919 -0.0179248 
-0.064827 -0.0179248 9.99344 
9.98097 0.00040861 -0.0679262 
0.00040861 9.98442 -0.0170944 
-0.0679262 -0.0170944 9.98311 
9.98129 0.00395997 -0.0724125 
0.00395997 9.9846 -0.0178874 
-0.0724125 -0.0178874 9.9826 
9.98601 -1.1471e-05 -0.0756315 
-1.1471e-05 9.98659 -0.0196926 
-0.0756315 -0.0196926 9.97589 
9.92364 -0.0193331 -0.0228301 
-0.0193331 9.94015 -0.00541834 
-0.0228301 -0.00541834 10.1977 
10.0109 0.00306829 -0.0293213 
0.00306829 9.9207 0.00795384 
-0.0293213 0.00795384 10.1298 
9.92731 -0.0142708 -0.0133078 
-0.0142708 9.94134 -0.00106813 
-0.0133078 -0.00106813 10.1928 
9.92746 -0.0126296 -0.00056741 
-0.0126296 9.92231 0.00846313 
-0.00056741 0.00846313 10.2117 
9.97134 8.23074e-05 -0.0225177 
8.23074e-05 9.9762 -0.0751455 
-0.0225177 -0.0751455 9.97349 
9.97791 -0.00091364 -0.0220683 
-0.00091364 9.97288 -0.0761653 
-0.0220683 -0.0761653 9.97023 
9.96092 0.0051037 -0.0251302 
0.0051037 9.96867 -0.063052 
-0.0251302 -0.063052 9.99143 
9.98242 0.000730806 -0.0191378 
0.000730806 9.98651 -0.0703769 
-0.0191378 -0.0703769 9.95209 
9.90536 -0.0351937 -0.0201286 
-0.0351937 9.89022 0.0146626 
-0.0201286 0.0146626 10.0065 
9.89805 -0.0268439 -0.0335285 
-0.0268439 9.89108 0.0364087 
-0.0335285 0.0364087 10.0129 
9.91377 -0.0311542 -0.0255257 
-0.0311542 9.87915 -0.0083911 
-0.0255257 -0.0083911 10.0091 
9.87947 -0.000816857 -0.0272139 
-0.000816857 9.94027 0.0337026 
-0.0272139 0.0337026 9.98229 
9.95949 -0.00207864 0.00777224 
-0.00207864 9.959 0.00309353 
0.00777224 0.00309353 9.98295 
9.93695 0.0383198 0.00281732 
0.0383198 9.90781 -0.00493138 
0.00281732 -0.00493138 10.0567 
9.92971 0.0171944 0.0129589 
0.0171944 9.93388 0.0147102 
0.0129589 0.0147102 10.0379 
9.94724 -0.0392245 -0.0478888 
-0.0392245 9.94969 0.0368184 
-0.0478888 0.0368184 10.0045 
9.98888 -0.0020784 0.000671712 
-0.0020784 9.98758 0.000222055 
0.000671712 0.000222055 9.99932 
9.98587 -0.00227117 -0.00039884 
-0.00227117 9.98814 -0.00288589 
-0.00039884 -0.00288589 10.0018 
9.99305 -0.000626914 -0.00380638 
-0.000626914 9.99287 -0.000717148 
-0.00380638 -0.000717148 9.98985 
9.98956 -0.000558041 -0.00356386 
-0.000558041 9.99036 0.00131687 
-0.00356386 0.00131687 9.99586 
10.0334 -0.0132903 -0.0219509 
-0.0132903 10.0924 -0.00885717 
-0.0219509 -0.00885717 10.1399 
9.96641 0.0997716 -0.0573209 
0.0997716 10.1281 0.0205701 
-0.0573209 0.0205701 10.1713 
10.1867 -0.0110405 0.0585742 
-0.0110405 10.1178 0.0362493 
0.0585742 0.0362493 9.96126 
9.94871 -0.0348869 0.0548018 
-0.0348869 10.138 -0.069302 
0.0548018 -0.069302 10.1791 
9.96633 -0.00188885 -0.00563246 
-0.00188885 9.96624 0.0226448 
-0.00563246 0.0226448 9.96474 
9.96631 -0.00258 -0.00943998 
-0.00258 9.97415 0.0182042 
-0.00943998 0.0182042 9.95684 
9.97621 -0.0081711 -0.0154004 
-0.0081711 9.96546 0.00671148 
-0.0154004 0.00671148 9.95563 
9.96467 -0.00414689 -0.0105262 
-0.00414689 9.98288 0.0224624 
-0.0105262 0.0224624 9.94976 
9.88572 0.07483 0.0133334 
0.07483 10.2536 -0.150048 
0.0133334 -0.150048 10.6572 
10.0438 0.0964543 -0.284858 
0.0964543 10.2167 -0.00141615 
-0.284858 -0.00141615 10.5361 
9.94647 0.331077 -0.0581252 
0.331077 10.2747 -0.00936284 
-0.0581252 -0.00936284 10.5754 
10.0487 0.0583276 -0.299907 
0.0583276 10.4578 0.0551029 
-0.299907 0.0551029 10.2901 
10.1905 -0.593627 0.125769 
-0.593627 9.40234 0.378951 
0.125769 0.378951 10.7636 
10.3176 -0.341178 0.045856 
-0.341178 9.89211 0.458236 
0.045856 0.458236 10.1467 
9.9686 -0.473699 0.0905496 
-0.473699 10.049 0.376629 
0.0905496 0.376629 10.3389 
10.0853 0.0934639 0.259827 
0.0934639 9.53178 -0.264613 
0.259827 -0.264613 10.7394 
9.93425 -0.00605496 0.0395936 
-0.00605496 9.94264 0.0661029 
0.0395936 0.0661029 9.94157 
9.93555 -0.00460633 0.0439331 
-0.00460633 9.94928 0.0539467 
0.0439331 0.0539467 9.93363 
9.93465 -0.00420933 0.0365616 
-0.00420933 9.94154 0.0595534 
0.0365616 0.0595534 9.94227 
9.93032 -3.6217e-05 0.0296461 
-3.6217e-05 9.93164 0.0630693 
0.0296461 0.0630693 9.9565 
11.3584 -0.604947 -0.544852 
-0.604947 10.1638 -0.071322 
-0.544852 -0.071322 10.2212 
10.1458 0.189661 0.159977 
0.189661 10.3921 -0.23846 
0.159977 -0.23846 11.2056 
10.7885 0.229091 0.222903 
0.229091 8.83511 -0.234876 
0.222903 -0.234876 12.1198 
11.8521 0.0915192 0.255834 
0.0915192 9.67319 -0.114866 
0.255834 -0.114866 10.2182 
9.88694 0.0274002 -0.0266775 
0.0274002 9.92815 -0.026892 
-0.0266775 -0.026892 10.0589 
9.8856 0.0152784 -0.0168376 
0.0152784 9.88607 -0.0501244 
-0.0168376 -0.0501244 10.1024 
9.90227 -0.00176355 -0.0235272 
-0.00176355 9.88518 -0.0227845 
-0.0235272 -0.0227845 10.0866 
9.93404 0.0207348 -0.0162285 
0.0207348 9.84132 -0.0764102 
-0.0162285 -0.0764102 10.0987 
10.0386 0.0508966 0.0206007 
0.0508966 10.0507 -0.0527241 
0.0206007 -0.0527241 10.0702 
10.0011 -0.0471674 0.0142135 
-0.0471674 10.1081 -0.0127615 
0.0142135 -0.0127615 10.0502 
10.1137 0.0518924 -0.0230218 
0.0518924 10.014 0.0223126 
-0.0230218 0.0223126 10.0318 
10.097 0.0130696 -0.0597331 
0.0130696 10.0441 -0.00789685 
-0.0597331 -0.00789685 10.0184 
9.95282 -0.0069258 0.00764915 
-0.0069258 9.9729 0.00989946 
0.00764915 0.00989946 9.94216 
9.95712 0.00102462 -0.00846433 
0.00102462 9.95926 -0.00217351 
-0.00846433 -0.00217351 9.9515 
9.9479 0.000484145 0.0039246 
0.000484145 9.9709 0.00312185 
0.0039246 0.00312185 9.94908 
9.95302 -0.00313809 0.000263718 
-0.00313809 9.96957 0.00317638 
0.000263718 0.00317638 9.9453 
9.847 -0.00362356 0.0994009 
-0.00362356 9.88649 0.0103045 
0.0994009 0.0103045 9.88748 
9.84114 -0.0122659 0.104834 
-0.0122659 9.87894 0.0283617 
0.104834 0.0283617 9.9009 
9.88403 -0.00706211 0.102674 
-0.00706211 9.833 0.0514766 
0.102674 0.0514766 9.90394 
9.84402 -0.0262594 0.089947 
-0.0262594 9.90528 0.0167081 
0.089947 0.0167081 9.87167 
9.89328 -0.313872 -0.226244 
-0.313872 9.95858 0.110357 
-0.226244 0.110357 10.558 
9.65898 -0.11146 -0.175252 
-0.11146 10.2186 -0.164072 
-0.175252 -0.164072 10.5323 
9.22745 0.224073 0.0298469 
0.224073 10.7571 -0.502474 
0.0298469 -0.502474 10.4253 
9.7167 0.105768 -0.414333 
0.105768 9.94666 0.161617 
-0.414333 0.161617 10.7465 
9.97439 -0.00103766 -0.00251738 
-0.00103766 9.9747 0.00241611 
-0.00251738 0.00241611 10.0017 
9.97656 -0.00374435 -0.00196312 
-0.00374435 9.9771 0.00388657 
-0.00196312 0.00388657 9.99717 
9.97752 -0.00208108 -0.000927021 
-0.00208108 9.97635 0.00103561 
-0.000927021 0.00103561 9.99696 
9.97702 -0.00208065 -0.00393181 
-0.00208065 9.97689 0.000744992 
-0.00393181 0.000744992 9.99692 
10.0165 0.0164865 -0.0152354 
0.0164865 9.86397 -0.0143147 
-0.0152354 -0.0143147 9.91817 
9.91125 -0.0287714 -0.00408207 
-0.0287714 9.92196 -0.012367 
-0.00408207 -0.012367 9.96545 
9.89838 -0.0330981 -0.0188765 
-0.0330981 9.91063 -0.00518616 
-0.0188765 -0.00518616 9.98965 
9.93291 -0.0463726 -0.000354918 
-0.0463726 9.8928 -0.0107773 
-0.000354918 -0.0107773 9.97295 
9.97957 -2.55535e-05 -0.00848092 
-2.55535e-05 9.98249 0.00322275 
-0.00848092 0.00322275 9.99634 
9.98107 7.96784e-05 -0.00344358 
7.96784e-05 9.98308 0.0120897 
-0.00344358 0.0120897 9.99424 
9.98379 -0.00386215 -0.00846081 
-0.00386215 9.98312 0.00498904 
-0.00846081 0.00498904 9.9915 
9.98244 -0.00418368 -0.000410923 
-0.00418368 9.98442 0.00846958 
-0.000410923 0.00846958 9.99154 
9.9925 -0.0051 0.0617425 
-0.0051 9.98902 -0.0171914 
0.0617425 -0.0171914 10.0023 
9.99344 -0.000276887 0.0575933 
-0.000276887 9.99465 -0.0165715 
0.0575933 -0.0165715 9.99572 
9.99234 -0.00218368 0.0599368 
-0.00218368 9.99816 -0.0180943 
0.0599368 -0.0180943 9.99331 
9.99562 -0.00078619 0.0580686 
-0.00078619 9.99856 -0.0183355 
0.0580686 -0.0183355 9.98962 
9.93942 -0.00103743 -0.00575122 
-0.00103743 9.96019 -0.0891919 
-0.00575122 -0.0891919 9.92421 
9.94906 -0.00491891 -0.00759667 
-0.00491891 9.9301 -0.0847092 
-0.00759667 -0.0847092 9.94465 
9.93818 -0.000415942 -0.00391174 
-0.000415942 9.93786 -0.0861779 
-0.00391174 -0.0861779 9.94777 
9.94743 0.00825729 -0.0110644 
0.00825729 9.94029 -0.075728 
-0.0110644 -0.075728 9.93609 
9.96478 0.00313163 -0.00519562 
0.00313163 9.96436 -0.00957398 
-0.00519562 -0.00957398 9.9797 
9.96478 0.00820162 -0.00128371 
0.00820162 9.96871 -0.000300384 
-0.00128371 -0.000300384 9.97535 
9.96255 0.00593057 -0.00438693 
0.00593057 9.96314 -0.00310879 
-0.00438693 -0.00310879 9.98315 
9.96853 0.0059102 -0.00736848 
0.0059102 9.97065 0.00385719 
-0.00736848 0.00385719 9.96966 
9.93627 0.00181122 0.0576867 
0.00181122 9.93829 -0.0426444 
0.0576867 -0.0426444 9.95138 
9.94076 -0.00368853 0.0527349 
-0.00368853 9.93408 -0.0508118 
0.0527349 -0.0508118 9.9511 
9.9378 -0.00404245 0.0586404 
-0.00404245 9.94135 -0.0416579 
0.0586404 -0.0416579 9.94679 
9.93505 -0.00148811 0.0572882 
-0.00148811 9.93949 -0.0470711 
0.0572882 -0.0470711 9.9514 
10.5201 -0.533848 0.251738 
-0.533848 9.60401 0.0249748 
0.251738 0.0249748 11.2331 
10.4919 -0.358609 0.37315 
-0.358609 9.29364 -0.152158 
0.37315 -0.152158 11.5717 
10.1922 -0.549384 0.185745 
-0.549384 10.557 -0.40598 
0.185745 -0.40598 10.6081 
9.8486 -0.786272 -0.361141 
-0.786272 10.5229 0.912329 
-0.361141 0.912329 10.9858 
9.68709 0.102367 -0.273717 
0.102367 9.83392 -0.199626 
-0.273717 -0.199626 9.88446 
9.42847 0.119526 -0.217905 
0.119526 9.92902 -0.254936 
-0.217905 -0.254936 10.048 
9.69698 0.0275632 -0.175664 
0.0275632 9.93794 0.0882558 
-0.175664 0.0882558 9.77054 
9.59299 0.139749 -0.330066 
0.139749 9.99365 -0.0211685 
-0.330066 -0.0211685 9.81882 
9.97995 0.000320671 -0.0553928 
0.000320671 9.97847 0.0310916 
-0.0553928 0.0310916 9.98183 
9.97823 0.00158626 -0.0529878 
0.00158626 9.97884 0.0306077 
-0.0529878 0.0306077 9.98319 
9.98077 -9.23754e-05 -0.056029 
-9.23754e-05 9.98028 0.0316551 
-0.056029 0.0316551 9.9792 
9.98154 0.00151966 -0.0544519 
0.00151966 9.98017 0.0343054 
-0.0544519 0.0343054 9.97855 
10.1182 -0.147537 -0.0252427 
-0.147537 9.8788 0.0332306 
-0.0252427 0.0332306 9.65798 
9.72649 -0.1204 -0.246303 
-0.1204 10.0076 -0.0797834 
-0.246303 -0.0797834 9.9209 
9.69475 -0.0511594 -0.0059682 
-0.0511594 9.64044 -0.0016722 
-0.0059682 -0.0016722 10.3198 
9.64393 0.121668 -0.0997375 
0.121668 9.89189 -0.10733 
-0.0997375 -0.10733 10.1192 
9.97903 -0.00318303 0.0408507 
-0.00318303 9.98154 -0.0360472 
0.0408507 -0.0360472 9.98351 
9.98102 -0.00382698 0.04103 
-0.00382698 9.98094 -0.0364018 
0.04103 -0.0364018 9.98213 
9.98328 -0.00639286 0.0421361 
-0.00639286 9.97391 -0.038021 
0.0421361 -0.038021 9.98689 
9.98443 -0.00395401 0.0371354 
-0.00395401 9.98006 -0.0341389 
0.0371354 -0.0341389 9.9796 
9.90922 0.00494664 -0.0275571 
0.00494664 9.9052 0.0714654 
-0.0275571 0.0714654 9.90787 
9.89102 0.00190797 -0.0330487 
0.00190797 9.9131 0.0682731 
-0.0330487 0.0682731 9.91816 
9.90006 0.00828735 -0.0313568 
0.00828735 9.90988 0.0723918 
-0.0313568 0.0723918 9.91235 
9.90247 0.0132946 -0.0386355 
0.0132946 9.90737 0.0784009 
-0.0386355 0.0784009 9.91245 
9.97529 -0.0082479 0.00680416 
-0.0082479 9.98452 0.000936785 
0.00680416 0.000936785 9.99776 
9.98304 0.000902297 -0.000561549 
0.000902297 9.9794 0.000176232 
-0.000561549 0.000176232 9.99512 
9.98376 0.00151744 -0.00021934 
0.00151744 9.97817 0.000900841 
-0.00021934 0.000900841 9.99563 
9.97655 1.72235e-05 -0.00469528 
1.72235e-05 9.98559 0.00613088 
-0.00469528 0.00613088 9.99543 
9.97225 -0.00646351 0.0378222 
-0.00646351 9.97404 -0.0441578 
0.0378222 -0.0441578 9.95547 
9.97177 -0.00989176 0.0319662 
-0.00989176 9.97056 -0.0411649 
0.0319662 -0.0411649 9.95943 
9.9688 -0.00775154 0.0321479 
-0.00775154 9.97647 -0.0420664 
0.0321479 -0.0420664 9.95649 
9.97086 -0.00557867 0.0377895 
-0.00557867 9.9703 -0.0461669 
0.0377895 -0.0461669 9.96059 
9.93389 0.00661695 -0.158339 
0.00661695 9.91801 0.0505189 
-0.158339 0.0505189 9.67191 
9.86417 0.00286044 -0.128148 
0.00286044 9.85008 0.0728183 
-0.128148 0.0728183 9.80956 
9.90053 0.0199781 -0.11868 
0.0199781 9.88577 0.0653401 
-0.11868 0.0653401 9.7375 
9.92547 0.0235878 -0.0278856 
0.0235878 9.86268 0.0768472 
-0.0278856 0.0768472 9.73565 
9.87089 0.000995348 0.0760894 
0.000995348 9.92089 -0.0103636 
0.0760894 -0.0103636 9.89219 
9.88033 0.0195796 0.114925 
0.0195796 9.89762 -0.0165116 
0.114925 -0.0165116 9.90601 
9.91648 -0.0156789 0.055585 
-0.0156789 9.90244 0.042473 
0.055585 0.042473 9.86505 
9.84715 -0.00187924 0.113438 
-0.00187924 9.93798 0.0386964 
0.113438 0.0386964 9.89884 
9.97501 0.0462681 -0.00326395 
0.0462681 10.0186 0.0245259 
-0.00326395 0.0245259 10.082 
10.0308 -0.000585155 0.021134 
-0.000585155 10 -0.0267869 
0.021134 -0.0267869 10.0448 
10.0504 -0.0434566 0.000661414 
-0.0434566 10.0058 -0.00010338 
0.000661414 -0.00010338 10.0195 
10.0129 -0.0109456 0.0131662 
-0.0109456 10.0104 -0.024868 
0.0131662 -0.024868 10.0523 
9.77914 -0.0484276 -0.00634516 
-0.0484276 9.88567 -0.085788 
-0.00634516 -0.085788 10.1985 
9.88581 -0.0266439 0.0416605 
-0.0266439 9.85486 -0.0265371 
0.0416605 -0.0265371 10.1227 
9.97254 -0.0616717 -0.00745371 
-0.0616717 9.75207 -0.0551933 
-0.00745371 -0.0551933 10.1387 
9.8332 -0.0307848 0.0502611 
-0.0307848 9.91344 -0.0531543 
0.0502611 -0.0531543 10.1167 
9.45349 -0.0656583 0.263398 
-0.0656583 9.8402 -0.0953822 
0.263398 -0.0953822 10.3089 
9.38409 -0.30069 0.397871 
-0.30069 9.95448 -0.028098 
0.397871 -0.028098 10.2641 
9.74615 -0.151099 0.223381 
-0.151099 9.84992 0.0332605 
0.223381 0.0332605 10.0066 
9.49299 -0.0603947 0.0492731 
-0.0603947 9.81875 -0.463871 
0.0492731 -0.463871 10.2909 
9.82842 -0.106414 0.0720043 
-0.106414 9.81391 0.34295 
0.0720043 0.34295 9.6458 
10.0465 -0.048923 -0.0967846 
-0.048923 9.69837 0.356616 
-0.0967846 0.356616 9.54328 
9.89474 -0.0187012 0.0424442 
-0.0187012 9.73577 0.33412 
0.0424442 0.33412 9.65761 
9.87049 0.0566239 -0.0305094 
0.0566239 9.75992 0.342879 
-0.0305094 0.342879 9.65771 
9.98087 0.00952103 -0.0857317 
0.00952103 9.91308 0.163917 
-0.0857317 0.163917 10.0606 
9.92543 -0.0689486 0.0869983 
-0.0689486 9.85697 0.13574 
0.0869983 0.13574 10.1721 
9.95052 -0.0857539 -0.0270829 
-0.0857539 9.86771 0.119453 
-0.0270829 0.119453 10.1363 
9.91797 -0.135679 -0.002757 
-0.135679 9.88252 0.111749 
-0.002757 0.111749 10.1541 
9.96622 0.0039741 0.000172225 
0.0039741 9.96558 -0.00544964 
0.000172225 -0.00544964 9.96797 
9.96593 0.00440501 -0.00161397 
0.00440501 9.96302 0.00283582 
-0.00161397 0.00283582 9.97081 
9.95298 -0.00118298 -0.00788377 
-0.00118298 9.95805 -0.00498514 
-0.00788377 -0.00498514 9.98874 
9.96646 0.0031699 -0.00048437 
0.0031699 9.96186 -5.14614e-05 
-0.00048437 -5.14614e-05 9.97145 
9.93982 -0.0138149 -0.0836768 
-0.0138149 9.84835 0.0040926 
-0.0836768 0.0040926 9.8799 
9.87485 0.0151626 -0.0777013 
0.0151626 9.90701 0.0199738 
-0.0777013 0.0199738 9.8862 
9.86294 0.0326136 -0.0647935 
0.0326136 9.89606 0.031738 
-0.0647935 0.031738 9.90906 
9.86477 0.000460626 -0.0907704 
0.000460626 9.90964 0.0316995 
-0.0907704 0.0316995 9.89365 
9.8757 -0.0983275 -0.0416134 
-0.0983275 9.86634 -0.0132233 
-0.0416134 -0.0132233 10.2275 
9.81404 -0.124032 -0.0289336 
-0.124032 9.94064 0.0216717 
-0.0289336 0.0216717 10.2148 
9.88579 -0.0628442 -0.0341389 
-0.0628442 9.90624 0.0152406 
-0.0341389 0.0152406 10.1775 
9.86678 -0.0454344 -0.0801325 
-0.0454344 9.86276 0.0261348 
-0.0801325 0.0261348 10.24 
10.1406 -0.0890855 -0.0566641 
-0.0890855 9.88292 -0.233289 
-0.0566641 -0.233289 9.79199 
9.97055 -0.190808 -0.141051 
-0.190808 10.0296 -0.0421788 
-0.141051 -0.0421788 9.81535 
9.94818 -0.197413 -0.20584 
-0.197413 9.95901 -0.0914787 
-0.20584 -0.0914787 9.90828 
9.9633 -0.0984153 -0.0128 
-0.0984153 9.89466 -0.0662759 
-0.0128 -0.0662759 9.95751 
9.99273 -0.000999069 0.0599637 
-0.000999069 9.99262 0.0198185 
0.0599637 0.0198185 9.99225 
9.99417 -0.00312018 0.0603423 
-0.00312018 9.99085 0.0203896 
0.0603423 0.0203896 9.99259 
9.98888 0.000907151 0.06109 
0.000907151 9.98516 0.019848 
0.06109 0.019848 10.0036 
9.99443 -0.00106421 0.0572041 
-0.00106421 9.99448 0.0206149 
0.0572041 0.0206149 9.9887 
9.95502 -0.00135181 -0.0539095 
-0.00135181 9.9542 -0.0346277 
-0.0539095 -0.0346277 9.91564 
9.96297 0.00655649 -0.0404141 
0.00655649 9.95097 -0.053224 
-0.0404141 -0.053224 9.91093 
9.94052 0.00034042 -0.0475688 
0.00034042 9.95302 -0.0234971 
-0.0475688 -0.0234971 9.93134 
9.96345 -0.0189285 -0.0635151 
-0.0189285 9.94859 -0.0237299 
-0.0635151 -0.0237299 9.91282 
9.88038 0.0214234 0.032356 
0.0214234 9.87438 0.0293466 
0.032356 0.0293466 10.0466 
9.88068 0.0135478 0.0103938 
0.0135478 9.89231 0.0182923 
0.0103938 0.0182923 10.0284 
9.88075 0.011607 0.0258829 
0.011607 9.88031 0.0168355 
0.0258829 0.0168355 10.0403 
9.87939 0.0032127 0.0290204 
0.0032127 9.87256 0.0112324 
0.0290204 0.0112324 10.0494 
9.89744 -0.312178 -0.153846 
-0.312178 9.80579 -0.113673 
-0.153846 -0.113673 9.98359 
10.0828 -0.222075 -0.0272367 
-0.222075 9.7006 -0.148858 
-0.0272367 -0.148858 9.9034 
9.91622 -0.310878 -0.0446157 
-0.310878 9.83633 -0.120241 
-0.0446157 -0.120241 9.93427 
9.74416 0.032075 -0.0600316 
0.032075 9.88069 -0.20743 
-0.0600316 -0.20743 10.062 
9.93869 -0.00287216 0.00867066 
-0.00287216 9.94101 -0.0163043 
0.00867066 -0.0163043 9.98665 
9.92385 -0.0188288 0.0146713 
-0.0188288 9.93814 -0.0107556 
0.0146713 -0.0107556 10.0044 
9.92976 0.00680555 -0.00913622 
0.00680555 9.91111 -0.0384835 
-0.00913622 -0.0384835 10.0255 
9.92033 -0.00619068 0.00549026 
-0.00619068 9.93512 -9.75774e-05 
0.00549026 -9.75774e-05 10.0109 
9.99532 -0.065484 -0.0115321 
-0.065484 9.90962 0.191028 
-0.0115321 0.191028 9.83837 
9.90689 -0.0338867 -0.0304099 
-0.0338867 9.81006 -0.0475633 
-0.0304099 -0.0475633 10.0263 
9.93528 -0.0669159 -0.000882708 
-0.0669159 9.75538 0.024152 
-0.000882708 0.024152 10.0526 
9.92992 -0.0415539 0.0161392 
-0.0415539 9.77846 0.00539796 
0.0161392 0.00539796 10.0349 
10.112 0.0158046 0.0225705 
0.0158046 10.3286 0.0657892 
0.0225705 0.0657892 10.1403 
10.226 -0.0519538 -0.0101481 
-0.0519538 10.0977 0.019495 
-0.0101481 0.019495 10.2572 
10.1248 -0.0354504 0.00459046 
-0.0354504 10.1817 0.107169 
0.00459046 0.107169 10.2744 
10.2389 -0.0417234 -0.0153017 
-0.0417234 10.1483 0.0741627 
-0.0153017 0.0741627 10.1938 
9.79221 -0.244684 -0.181994 
-0.244684 9.74658 -0.289704 
-0.181994 -0.289704 9.91586 
9.7623 -0.308334 -0.0652248 
-0.308334 9.80714 -0.218909 
-0.0652248 -0.218909 9.88521 
9.65053 -0.194643 -0.138759 
-0.194643 9.9732 -0.165168 
-0.138759 -0.165168 9.83093 
10.0931 -0.00790976 -0.156102 
-0.00790976 9.51959 -0.140164 
-0.156102 -0.140164 9.84193 
9.92878 0.132398 -0.0795002 
0.132398 9.96012 -0.0205087 
-0.0795002 -0.0205087 10.2551 
10.0085 -0.124325 0.0337325 
-0.124325 9.87144 -0.0408217 
0.0337325 -0.0408217 10.2641 
10.0972 -0.16586 -0.0414593 
-0.16586 9.9443 0.0197569 
-0.0414593 0.0197569 10.1024 
9.89091 0.0992446 0.134446 
0.0992446 10.1143 0.0172901 
0.134446 0.0172901 10.1388 
9.9927 0.00104297 0.0169738 
0.00104297 9.9969 -0.0419444 
0.0169738 -0.0419444 9.98854 
9.9821 0.00115167 0.0155322 
0.00115167 9.98001 -0.0330502 
0.0155322 -0.0330502 10.016 
9.9895 -0.00195511 0.0192043 
-0.00195511 9.99855 -0.0420266 
0.0192043 -0.0420266 9.99009 
9.99629 -0.000260265 0.0201138 
-0.000260265 9.9973 -0.0378285 
0.0201138 -0.0378285 9.98454 
9.65312 0.024589 -0.086805 
0.024589 9.86498 0.109005 
-0.086805 0.109005 10.0092 
9.64869 0.0837256 -0.132931 
0.0837256 9.85335 0.0220362 
-0.132931 0.0220362 10.0253 
9.6465 0.0505402 -0.0722008 
0.0505402 9.85932 0.0180256 
-0.0722008 0.0180256 10.0215 
9.67215 0.0955802 -0.0115898 
0.0955802 9.85226 0.0306706 
-0.0115898 0.0306706 10.0029 
8.99236 -1.04332 0.863833 
-1.04332 3.41065 -3.25859 
0.863833 -3.25859 18.6415 
9.40983 1.10532 -1.01174 
1.10532 3.01879 -3.32955 
-1.01174 -3.32955 18.6159 
14.1777 -0.442198 0.0933012 
-0.442198 11.0941 4.09632 
0.0933012 4.09632 5.77267 
8.44758 0.15022 0.0649081 
0.15022 14.67 -4.53715 
0.0649081 -4.53715 7.92696 
2.55354 -0.0546362 0.524712 
-0.0546362 7.68919 0.273949 
0.524712 0.273949 2.55359 
4.56886 0.919829 1.48942 
0.919829 8.7701 0.91026 
1.48942 0.91026 -0.542648 
5.61955 -1.05492 1.65397 
-1.05492 7.27932 0.813656 
1.65397 0.813656 -0.102563 
3.90752 0.854134 0.0283877 
0.854134 7.38317 1.02158 
0.0283877 1.02158 1.50562 
9.83661 -0.0272823 -0.0530714 
-0.0272823 9.90517 0.110943 
-0.0530714 0.110943 9.60196 
9.92977 -0.115022 0.0887027 
-0.115022 10.025 0.081617 
0.0887027 0.081617 9.389 
9.82117 -0.00263026 -0.066129 
-0.00263026 9.87098 0.193534 
-0.066129 0.193534 9.6516 
9.8876 -0.108428 0.187377 
-0.108428 9.86095 -0.0754233 
0.187377 -0.0754233 9.59518 
10.2976 0.167349 0.145123 
0.167349 9.29328 -0.328711 
0.145123 -0.328711 10.7032 
10.4062 -0.0638586 -0.343816 
-0.0638586 9.40895 -0.415321 
-0.343816 -0.415321 10.4789 
10.66 0.24858 -0.676904 
0.24858 9.53959 -0.262183 
-0.676904 -0.262183 10.0944 
10.3325 0.260858 0.0775235 
0.260858 9.41995 -0.49665 
0.0775235 -0.49665 10.5416 
9.98887 0.00335604 -0.0111381 
0.00335604 9.8693 0.0263891 
-0.0111381 0.0263891 10.1769 
9.984 0.00817806 -0.0134269 
0.00817806 9.86366 0.00088543 
-0.0134269 0.00088543 10.1874 
9.99059 0.0056116 0.00211425 
0.0056116 9.84801 0.0259351 
0.00211425 0.0259351 10.1965 
9.99113 0.0123912 0.00691588 
0.0123912 9.79957 0.0369421 
0.00691588 0.0369421 10.2444 
9.97303 -0.00441323 0.00575818 
-0.00441323 9.98316 -0.00622819 
0.00575818 -0.00622819 9.9432 
9.98119 0.00315634 -0.0265031 
0.00315634 9.96887 0.000883483 
-0.0265031 0.000883483 9.94932 
9.98186 0.00990287 -0.0235825 
0.00990287 9.9632 -0.00740876 
-0.0235825 -0.00740876 9.95432 
9.9618 0.00597153 -0.0259502 
0.00597153 9.95669 -0.00401964 
-0.0259502 -0.00401964 9.98089 
9.92472 0.00949826 0.0138191 
0.00949826 9.87782 0.271552 
0.0138191 0.271552 9.9284 
9.99529 -0.0361105 -0.162833 
-0.0361105 9.81392 0.384137 
-0.162833 0.384137 9.92173 
10.0346 0.0384163 0.0152662 
0.0384163 9.78227 0.249409 
0.0152662 0.249409 9.91408 
9.97621 0.180181 0.00528888 
0.180181 9.65022 0.322337 
0.00528888 0.322337 10.1045 
9.97165 5.20072e-05 -0.0249048 
5.20072e-05 9.94466 0.00530409 
-0.0249048 0.00530409 10.1704 
9.97215 -0.00249883 9.40798e-05 
-0.00249883 9.94882 0.0133892 
9.40798e-05 0.0133892 10.1657 
9.96507 0.00136677 0.0199694 
0.00136677 9.94227 -0.00995953 
0.0199694 -0.00995953 10.1794 
10.0048 0.000752141 0.00903836 
0.000752141 9.95371 -0.0101928 
0.00903836 -0.0101928 10.1282 
9.93375 0.0285387 -0.0172095 
0.0285387 9.91774 -0.0148726 
-0.0172095 -0.0148726 9.94034 
9.91105 0.0324944 -0.015574 
0.0324944 9.95367 0.00091383 
-0.015574 0.00091383 9.92711 
9.92965 0.0294091 -0.0267731 
0.0294091 9.93299 -0.0307402 
-0.0267731 -0.0307402 9.92919 
9.93058 0.027568 -0.00902556 
0.027568 9.93169 -0.0145743 
-0.00902556 -0.0145743 9.92957 
10.2523 -0.0428162 -0.0448513 
-0.0428162 10.3289 0.0444352 
-0.0448513 0.0444352 10.1714 
10.3283 0.117918 -0.0610262 
0.117918 10.1004 0.125199 
-0.0610262 0.125199 10.3239 
10.1527 -0.0413498 -0.00644507 
-0.0413498 10.207 0.0451166 
-0.00644507 0.0451166 10.3929 
10.3336 0.200483 0.099073 
0.200483 10.1632 0.0810462 
0.099073 0.0810462 10.2558 
9.93638 0.00112932 -0.0575242 
0.00112932 9.92211 0.0466958 
-0.0575242 0.0466958 9.94709 
9.93874 -0.00141644 -0.0564092 
-0.00141644 9.92627 0.0478317 
-0.0564092 0.0478317 9.94057 
9.93464 0.00226647 -0.0580909 
0.00226647 9.92377 0.046283 
-0.0580909 0.046283 9.94717 
9.93542 -0.00239032 -0.0539323 
-0.00239032 9.92696 0.0505719 
-0.0539323 0.0505719 9.9432 
10.0905 0.00434816 0.0122773 
0.00434816 10.0388 -0.00691763 
0.0122773 -0.00691763 10.1488 
10.0864 0.0363645 0.0319315 
0.0363645 10.0658 -0.0238588 
0.0319315 -0.0238588 10.1259 
10.1014 0.0160078 0.0098912 
0.0160078 10.0478 -0.0321045 
0.0098912 -0.0321045 10.1288 
10.0924 0.0226054 0.0145176 
0.0226054 10.0544 -0.0191483 
0.0145176 -0.0191483 10.1312 
10.0214 -0.17048 -0.00527746 
-0.17048 9.97627 0.0780795 
-0.00527746 0.0780795 10.267 
10.0886 0.0975846 -0.0189737 
0.0975846 10.0507 0.046197 
-0.0189737 0.046197 10.1254 
10.1237 -0.0749224 -0.0162842 
-0.0749224 9.97372 -0.0633074 
-0.0162842 -0.0633074 10.1671 
10.0125 0.024587 -0.0428247 
0.024587 10.0058 -0.0457126 
-0.0428247 -0.0457126 10.2463 
9.92153 -0.0208081 0.0309464 
-0.0208081 9.92942 0.064725 
0.0309464 0.064725 9.94051 
9.92333 -0.00125805 0.00715624 
-0.00125805 9.95081 0.0934543 
0.00715624 0.0934543 9.91732 
9.92741 -0.0280612 0.020447 
-0.0280612 9.9115 0.174841 
0.020447 0.174841 9.95254 
9.92646 -0.0146873 0.0134374 
-0.0146873 9.95221 0.0953174 
0.0134374 0.0953174 9.91278 
9.94198 0.000525187 -0.0384825 
0.000525187 9.94629 0.0681624 
-0.0384825 0.0681624 9.94293 
9.93428 0.00843681 -0.0347497 
0.00843681 9.93736 0.0550133 
-0.0347497 0.0550133 9.95957 
9.94954 0.00117604 -0.0394393 
0.00117604 9.95107 0.0583381 
-0.0394393 0.0583381 9.9306 
9.95018 -0.00258556 -0.0326035 
-0.00258556 9.94251 0.0733961 
-0.0326035 0.0733961 9.93851 
10.0911 -0.0486425 0.0392691 
-0.0486425 9.87856 -0.0688194 
0.0392691 -0.0688194 9.9058 
9.95126 -0.356071 0.0769549 
-0.356071 9.909 0.0852194 
0.0769549 0.0852194 10.0152 
9.94702 -0.519162 0.0545775 
-0.519162 9.66918 0.179132 
0.0545775 0.179132 10.2592 
9.75955 -0.362858 0.367261 
-0.362858 9.99801 0.167881 
0.367261 0.167881 10.1179 
10.65 -0.0260731 0.172438 
-0.0260731 10.6701 0.0659584 
0.172438 0.0659584 9.79749 
10.4734 -0.435399 0.112586 
-0.435399 10.564 0.0391554 
0.112586 0.0391554 10.0802 
9.68765 0.32197 -0.353046 
0.32197 10.105 -0.191682 
-0.353046 -0.191682 11.3249 
10.8491 0.00789916 -0.129516 
0.00789916 10.0264 0.47686 
-0.129516 0.47686 10.2421 
9.92158 0.0518947 -0.0508974 
0.0518947 9.84234 0.141161 
-0.0508974 0.141161 10.004 
9.86094 0.0712481 -0.00287367 
0.0712481 9.80033 0.254124 
-0.00287367 0.254124 10.1066 
9.92402 0.0893346 -0.000545981 
0.0893346 9.78761 0.104844 
-0.000545981 0.104844 10.0563 
9.86317 0.0328075 0.0360399 
0.0328075 9.78324 0.0885774 
0.0360399 0.0885774 10.1215 
9.93019 0.0119844 -0.0108202 
0.0119844 9.91055 -0.0155013 
-0.0108202 -0.0155013 9.98034 
9.93036 0.00234909 -0.00406132 
0.00234909 9.9214 -0.0257109 
-0.00406132 -0.0257109 9.96931 
9.89597 -0.00533624 0.00110728 
-0.00533624 9.96675 -0.00633326 
0.00110728 -0.00633326 9.95835 
9.94681 -0.00377661 0.0142999 
-0.00377661 9.92208 -0.0693102 
0.0142999 -0.0693102 9.95218 
10.0318 0.00633906 -0.16523 
0.00633906 10.0038 -0.118954 
-0.16523 -0.118954 9.45595 
10.1391 -0.0283317 -0.364195 
-0.0283317 9.90249 -0.134193 
-0.364195 -0.134193 9.44991 
9.64775 0.122662 0.127266 
0.122662 9.90894 -0.1876 
0.127266 -0.1876 9.93477 
10.1882 -0.0607336 -0.0761593 
-0.0607336 10.227 0.0355756 
-0.0761593 0.0355756 9.07624 
9.97895 0.00127665 -0.066903 
0.00127665 9.98495 0.0286528 
-0.066903 0.0286528 9.98208 
9.98043 -0.00204342 -0.0612591 
-0.00204342 9.97262 0.0252275 
-0.0612591 0.0252275 9.99293 
9.97965 0.00132972 -0.0713212 
0.00132972 9.98351 0.0305783 
-0.0713212 0.0305783 9.98282 
9.9898 -0.00212069 -0.0684335 
-0.00212069 9.98072 0.0280541 
-0.0684335 0.0280541 9.97546 
9.75111 -0.0550171 -0.0807065 
-0.0550171 9.92535 -0.0449898 
-0.0807065 -0.0449898 10.1063 
9.77392 0.0198202 -0.195527 
0.0198202 9.90335 -0.0367222 
-0.195527 -0.0367222 10.1055 
9.79257 0.0203667 -0.138925 
0.0203667 9.89539 0.0142746 
-0.138925 0.0142746 10.0948 
9.78626 -0.00989044 -0.147558 
-0.00989044 9.91772 0.0141068 
-0.147558 0.0141068 10.0788 
9.97212 -0.00381483 0.0329106 
-0.00381483 9.97584 0.0688446 
0.0329106 0.0688446 9.97159 
9.97543 -0.00261062 0.027383 
-0.00261062 9.97845 0.0635973 
0.027383 0.0635973 9.96567 
9.9702 -0.00150867 0.0295018 
-0.00150867 9.97439 0.0690664 
0.0295018 0.0690664 9.97496 
9.96887 -0.00272194 0.0327722 
-0.00272194 9.98093 0.0676913 
0.0327722 0.0676913 9.96975 
9.89811 0.0135635 -0.00270083 
0.0135635 9.88213 0.00327287 
-0.00270083 0.00327287 10.0582 
9.90245 0.00147844 -0.0123307 
0.00147844 9.90185 -0.0144715 
-0.0123307 -0.0144715 10.0341 
9.9076 -0.000605286 -0.00842996 
-0.000605286 9.8976 -0.0314943 
-0.00842996 -0.0314943 10.0332 
9.90198 -0.00117687 -0.0132953 
-0.00117687 9.92096 -0.00360159 
-0.0132953 -0.00360159 10.0155 
11.0262 -2.17351 -1.73438 
-2.17351 8.84334 2.7065 
-1.73438 2.7065 -2.34696 
5.72554 -0.0149256 0.0558392 
-0.0149256 6.85761 -0.413733 
0.0558392 -0.413733 4.93948 
9.17678 -0.786512 -2.09012 
-0.786512 10.2293 1.40882 
-2.09012 1.40882 -1.88349 
5.67278 1.78953 -3.22392 
1.78953 8.15301 0.0893484 
-3.22392 0.0893484 3.69683 
10.5353 0.196386 0.0760457 
0.196386 10.0644 0.230622 
0.0760457 0.230622 10.4104 
10.1871 -0.0712109 0.113895 
-0.0712109 10.5556 0.0253051 
0.113895 0.0253051 10.2674 
10.051 -0.0611175 0.149079 
-0.0611175 10.3549 0.0122812 
0.149079 0.0122812 10.6041 
10.4282 -0.0740906 -0.019241 
-0.0740906 10.0866 -0.0162426 
-0.019241 -0.0162426 10.4953 
9.72342 0.156691 -0.0573435 
0.156691 10.0374 0.11803 
-0.0573435 0.11803 9.34532 
10.1461 0.0370342 0.100791 
0.0370342 9.77329 -0.178887 
0.100791 -0.178887 9.18667 
10.1664 -0.00664428 0.0916592 
-0.00664428 9.77479 -0.242353 
0.0916592 -0.242353 9.16487 
10.1856 0.107426 0.249203 
0.107426 9.7964 -0.265736 
0.249203 -0.265736 9.12414 
9.88851 -0.265196 0.237469 
-0.265196 9.95712 0.367981 
0.237469 0.367981 9.54781 
9.92114 0.000886956 0.0411084 
0.000886956 9.74917 0.305384 
0.0411084 0.305384 9.72312 
9.40334 -0.17671 0.295361 
-0.17671 10.097 -0.101444 
0.295361 -0.101444 9.8931 
9.73224 -0.180121 0.160045 
-0.180121 10.0134 0.285715 
0.160045 0.285715 9.64776 
10.6425 -0.00879708 -0.159963 
-0.00879708 10.3712 -0.285384 
-0.159963 -0.285384 10.4448 
9.93949 0.440751 -0.444763 
0.440751 10.5196 -0.0131185 
-0.444763 -0.0131185 10.9994 
9.04749 0.601391 0.0723453 
0.601391 11.1002 -0.248377 
0.0723453 -0.248377 11.3108 
10.0256 0.612185 -0.372056 
0.612185 10.3538 0.125875 
-0.372056 0.125875 11.0791 
9.90789 -0.0206815 0.0143878 
-0.0206815 9.90064 0.0206247 
0.0143878 0.0206247 9.97537 
9.89466 0.0301778 0.0554766 
0.0301778 9.93748 0.042625 
0.0554766 0.042625 9.95176 
9.8747 -0.0386842 0.03649 
-0.0386842 9.90808 0.0421423 
0.03649 0.0421423 10.0011 
9.88305 -0.00509947 0.0363195 
-0.00509947 9.91413 0.0307261 
0.0363195 0.0307261 9.98672 
9.98484 -0.000497299 0.00214162 
-0.000497299 9.97314 -0.00715053 
0.00214162 -0.00715053 9.99435 
9.98268 -0.00387252 0.00474034 
-0.00387252 9.98089 -0.00542499 
0.00474034 -0.00542499 9.98877 
9.97859 -0.00242373 0.00902944 
-0.00242373 9.98234 -0.00235649 
0.00902944 -0.00235649 9.99141 
9.98592 -0.00597016 0.0099707 
-0.00597016 9.97707 0.00232326 
0.0099707 0.00232326 9.98935 
9.95222 -0.000145363 -0.0327238 
-0.000145363 9.95339 0.0536887 
-0.0327238 0.0536887 9.93346 
9.94038 0.0123413 -0.0239951 
0.0123413 9.94339 0.0462805 
-0.0239951 0.0462805 9.9553 
9.95392 -0.00349842 -0.0230215 
-0.00349842 9.95046 0.051977 
-0.0230215 0.051977 9.93469 
9.9515 -0.00103676 -0.0245993 
-0.00103676 9.95017 0.0519849 
-0.0245993 0.0519849 9.9374 
9.98345 0.00301888 0.0343064 
0.00301888 9.98311 -0.0678927 
0.0343064 -0.0678927 9.9832 
9.97209 -0.00175498 0.0329737 
-0.00175498 9.98181 -0.058959 
0.0329737 -0.058959 9.99587 
9.98143 0.0019609 0.0346909 
0.0019609 9.98401 -0.0709592 
0.0346909 -0.0709592 9.98432 
9.98236 -0.00128727 0.0360723 
-0.00128727 9.99043 -0.0676583 
0.0360723 -0.0676583 9.97697 
9.98127 -0.000535793 0.0103996 
-0.000535793 9.97786 -0.0139438 
0.0103996 -0.0139438 9.98418 
9.97946 0.00298431 0.00639143 
0.00298431 9.97936 -0.0100091 
0.00639143 -0.0100091 9.9845 
9.97703 -0.00420795 0.00747435 
-0.00420795 9.98006 -0.0147201 
0.00747435 -0.0147201 9.98622 
9.98032 -0.0109352 0.00131516 
-0.0109352 9.98638 -0.00786244 
0.00131516 -0.00786244 9.97662 
9.95099 -0.00873457 0.0176911 
-0.00873457 9.96207 0.0235581 
0.0176911 0.0235581 9.93095 
9.94935 -0.0099583 0.0110943 
-0.0099583 9.95908 -0.000637809 
0.0110943 -0.000637809 9.93557 
9.95277 -0.0113209 0.0185002 
-0.0113209 9.95542 0.00387284 
0.0185002 0.00387284 9.9358 
9.95295 -0.0181702 0.0177519 
-0.0181702 9.96549 -0.000387206 
0.0177519 -0.000387206 9.92555 
9.58973 -0.305937 0.119516 
-0.305937 9.79802 -0.0383863 
0.119516 -0.0383863 10.0166 
10.445 -0.00808987 0.0313291 
-0.00808987 9.70073 0.0352871 
0.0313291 0.0352871 9.25862 
10.235 0.14609 0.129135 
0.14609 10.1237 0.174334 
0.129135 0.174334 9.04562 
10.0171 -0.104941 0.541223 
-0.104941 10.4364 -0.229403 
0.541223 -0.229403 8.95086 
9.91339 0.0106654 0.0319624 
0.0106654 9.88017 -0.0868299 
0.0319624 -0.0868299 9.86834 
9.89844 0.0121416 0.0242258 
0.0121416 9.8576 -0.0988534 
0.0242258 -0.0988534 9.90585 
9.8903 0.0124594 0.0196536 
0.0124594 9.85749 -0.0864145 
0.0196536 -0.0864145 9.91411 
9.89047 0.00599637 0.0255658 
0.00599637 9.86185 -0.093851 
0.0255658 -0.093851 9.90958 
10.3115 -0.180416 -0.118179 
-0.180416 10.5656 -0.156385 
-0.118179 -0.156385 10.3931 
10.2607 0.0654475 -0.0110338 
0.0654475 10.2917 -0.0110966 
-0.0110338 -0.0110966 10.7177 
10.373 0.0923393 0.136779 
0.0923393 10.1926 -0.180325 
0.136779 -0.180325 10.7045 
10.3918 0.06174 0.0837408 
0.06174 10.3197 -0.0888523 
0.0837408 -0.0888523 10.5586 
9.8948 0.0322644 0.000415765 
0.0322644 9.83439 0.0672431 
0.000415765 0.0672431 9.9418 
9.86021 0.00549967 -0.0558255 
0.00549967 9.75659 0.0932101 
-0.0558255 0.0932101 10.0542 
9.85977 0.0145225 -0.0208929 
0.0145225 9.87116 0.0263715 
-0.0208929 0.0263715 9.94006 
9.93909 0.00583745 -0.02214 
0.00583745 9.85114 0.133607 
-0.02214 0.133607 9.88076 
10.0845 0.0184387 -0.043505 
0.0184387 10.1323 -0.0011 
-0.043505 -0.0011 10.2636 
10.0882 -0.0155929 -0.0356516 
-0.0155929 10.1201 -0.0162646 
-0.0356516 -0.0162646 10.2721 
10.1127 -0.000113284 -0.052064 
-0.000113284 10.1249 -0.0121995 
-0.052064 -0.0121995 10.2428 
10.1259 0.0157716 -0.0628696 
0.0157716 10.1285 -0.0341828 
-0.0628696 -0.0341828 10.2259 
9.97629 -0.0192823 0.0562274 
-0.0192823 9.95838 -0.0193336 
0.0562274 -0.0193336 9.90798 
9.95111 0.000999327 0.0220142 
0.000999327 9.96364 -0.00468937 
0.0220142 -0.00468937 9.9279 
9.95438 -0.00998605 0.0061892 
-0.00998605 9.96242 -0.0194725 
0.0061892 -0.0194725 9.92585 
9.9601 -0.0219321 0.0196285 
-0.0219321 9.97069 -0.00235757 
0.0196285 -0.00235757 9.91186 
9.78372 -0.0818961 1.93667 
-0.0818961 9.38268 -0.301719 
1.93667 -0.301719 8.87653 
9.3289 -0.165761 0.644628 
-0.165761 8.60217 -0.209537 
0.644628 -0.209537 10.1118 
9.78025 -0.86697 0.881694 
-0.86697 9.74432 -0.0673171 
0.881694 -0.0673171 8.51834 
10.914 -0.393777 0.10089 
-0.393777 10.5666 0.0729182 
0.10089 0.0729182 6.56234 
9.91141 -0.0130651 0.0118645 
-0.0130651 10.0158 0.0333348 
0.0118645 0.0333348 9.96587 
9.87658 0.165253 -0.00900209 
0.165253 9.92248 0.0517955 
-0.00900209 0.0517955 10.094 
9.98795 -0.000937939 0.0999639 
-0.000937939 9.8883 -0.070182 
0.0999639 -0.070182 10.0168 
9.95029 -0.00355316 0.13149 
-0.00355316 9.92159 -0.116109 
0.13149 -0.116109 10.0212 
9.81572 -0.079099 -0.874762 
-0.079099 10.2465 -0.119674 
-0.874762 -0.119674 9.55224 
9.47898 -0.0308932 -0.422389 
-0.0308932 9.99696 0.0435013 
-0.422389 0.0435013 10.1385 
9.61632 -0.141256 -0.39864 
-0.141256 9.95662 -0.0198172 
-0.39864 -0.0198172 10.0416 
10.0594 0.252584 0.160333 
0.252584 9.61142 -0.0945674 
0.160333 -0.0945674 9.94367 
9.7852 -0.050093 -0.0212075 
-0.050093 9.77765 -0.151195 
-0.0212075 -0.151195 9.9112 
9.82058 -0.0777869 0.0167857 
-0.0777869 9.76976 -0.20014 
0.0167857 -0.20014 9.88371 
9.81524 -0.0508746 -0.0676239 
-0.0508746 9.80216 -0.141752 
-0.0676239 -0.141752 9.85666 
9.79893 -0.0606987 -0.0265721 
-0.0606987 9.78392 -0.160154 
-0.0265721 -0.160154 9.8912 
9.97874 0.0105056 -0.017428 
0.0105056 9.9333 -0.0807857 
-0.017428 -0.0807857 9.83097 
9.9223 -0.0215599 -0.0659064 
-0.0215599 9.95673 -0.0482743 
-0.0659064 -0.0482743 9.86397 
9.92532 4.15e-05 0.000248176 
4.15e-05 9.93876 -0.0538864 
0.000248176 -0.0538864 9.87893 
9.92969 -0.0109446 -0.0508136 
-0.0109446 9.97037 -0.0356186 
-0.0508136 -0.0356186 9.84295 
9.9367 -0.00999864 0.079219 
-0.00999864 9.94158 0.0316673 
0.079219 0.0316673 9.92468 
9.92635 -0.00371526 0.0746754 
-0.00371526 9.92269 0.0137933 
0.0746754 0.0137933 9.95391 
9.94454 -0.00561803 0.0795268 
-0.00561803 9.92627 0.0238223 
0.0795268 0.0238223 9.93214 
9.9506 -0.00740751 0.0671687 
-0.00740751 9.93937 0.0331904 
0.0671687 0.0331904 9.91299 
8.06729 0.200221 -0.362266 
0.200221 10.9006 -2.38856 
-0.362266 -2.38856 5.87168 
6.89004 1.34781 0.174219 
1.34781 12.634 1.4546 
0.174219 1.4546 5.31553 
9.05441 0.542614 -0.145639 
0.542614 10.254 -2.22133 
-0.145639 -2.22133 5.53109 
10.7128 -1.50356 -0.846441 
-1.50356 5.38798 -1.87602 
-0.846441 -1.87602 8.73874 
9.75219 -0.0265558 -0.00689621 
-0.0265558 9.91999 0.125207 
-0.00689621 0.125207 9.96041 
9.97604 0.0988221 0.169022 
0.0988221 9.88884 0.372314 
0.169022 0.372314 9.76771 
10.0882 0.00354272 -0.207361 
0.00354272 10.4086 0.538404 
-0.207361 0.538404 9.13584 
10.1015 -0.0904766 -0.0160286 
-0.0904766 9.80305 0.510796 
-0.0160286 0.510796 9.72805 
9.92886 0.0147665 -0.0146072 
0.0147665 9.91212 -0.0629979 
-0.0146072 -0.0629979 9.85658 
9.92102 -0.0147057 -0.011382 
-0.0147057 9.90827 -0.108626 
-0.011382 -0.108626 9.86827 
9.93269 -0.00385704 -0.00632272 
-0.00385704 9.94515 -0.106885 
-0.00632272 -0.106885 9.81972 
9.91978 -0.0124726 -0.00178264 
-0.0124726 9.86742 -0.140883 
-0.00178264 -0.140883 9.91036 
9.92954 0.00056684 0.0440825 
0.00056684 9.9319 0.053189 
0.0440825 0.053189 9.95011 
9.92612 0.00211808 0.0455309 
0.00211808 9.93593 0.0579277 
0.0455309 0.0579277 9.94949 
9.92956 -0.00114901 0.0469779 
-0.00114901 9.93379 0.0551309 
0.0469779 0.0551309 9.94821 
9.92815 -0.00116758 0.0471829 
-0.00116758 9.9328 0.0555288 
0.0471829 0.0555288 9.95061 
10.1905 -0.424057 0.0920665 
-0.424057 10.1786 -0.15245 
0.0920665 -0.15245 10.4412 
10.1204 0.474725 0.0120917 
0.474725 10.2921 0.312444 
0.0120917 0.312444 10.3979 
10.3632 0.191991 0.033934 
0.191991 10.2206 -0.245893 
0.033934 -0.245893 10.2266 
10.4044 -0.452 -0.0800305 
-0.452 10.3298 0.429231 
-0.0800305 0.429231 10.0762 
9.94355 -0.00426197 -0.062426 
-0.00426197 9.91047 0.0594746 
-0.062426 0.0594746 9.92078 
9.94696 0.00904748 -0.0743038 
0.00904748 9.91278 0.0722949 
-0.0743038 0.0722949 9.91506 
9.96317 -0.0181231 -0.0514841 
-0.0181231 9.9122 0.0499474 
-0.0514841 0.0499474 9.89943 
9.90372 0.00934056 -0.0437813 
0.00934056 9.94447 0.0171019 
-0.0437813 0.0171019 9.92662 
9.98181 0.0031624 0.0456553 
0.0031624 9.97716 -0.00604827 
0.0456553 -0.00604827 9.97409 
9.98001 -0.000459358 0.0509036 
-0.000459358 9.98279 -0.00583727 
0.0509036 -0.00583727 9.97025 
9.98741 0.000845423 0.0514101 
0.000845423 9.97174 -0.00109114 
0.0514101 -0.00109114 9.9739 
9.99586 -0.000875871 0.0525944 
-0.000875871 9.97137 0.0027365 
0.0525944 0.0027365 9.96582 
9.97848 0.00774969 0.0179473 
0.00774969 10.0207 -0.02874 
0.0179473 -0.02874 9.99921 
9.96992 0.0263004 -0.00186521 
0.0263004 9.97515 -0.00784286 
-0.00186521 -0.00784286 10.0534 
9.99728 -0.0127693 -0.0324712 
-0.0127693 9.96559 0.0203122 
-0.0324712 0.0203122 10.0356 
9.98364 -0.000852113 0.00286802 
-0.000852113 9.9639 0.00449762 
0.00286802 0.00449762 10.0509 
9.90607 0.0250228 0.0215882 
0.0250228 9.88658 -0.0252202 
0.0215882 -0.0252202 9.90479 
9.96429 0.0473075 0.0148294 
0.0473075 9.92437 -0.0154836 
0.0148294 -0.0154836 9.80877 
9.90867 0.0191988 -0.035962 
0.0191988 9.93463 -0.0205753 
-0.035962 -0.0205753 9.85415 
9.92594 0.0118818 -0.00169731 
0.0118818 9.90686 -0.0156734 
-0.00169731 -0.0156734 9.86465 
9.89247 -0.0375262 0.0137685 
-0.0375262 9.89902 -0.164521 
0.0137685 -0.164521 9.7871 
9.89313 0.00965473 0.0246613 
0.00965473 9.86435 -0.11763 
0.0246613 -0.11763 9.82111 
9.88695 -0.0119979 0.0177757 
-0.0119979 9.88489 -0.102222 
0.0177757 -0.102222 9.80676 
9.88279 -0.00477024 0.0234815 
-0.00477024 9.80348 -0.135797 
0.0234815 -0.135797 9.89233 
10.038 0.060583 0.0188518 
0.060583 10.0134 0.0959217 
0.0188518 0.0959217 9.768 
9.97933 -0.0435243 -0.049854 
-0.0435243 9.9784 0.109459 
-0.049854 0.109459 9.8617 
9.9427 -0.0300511 -0.0559221 
-0.0300511 10.0444 0.0664743 
-0.0559221 0.0664743 9.83233 
9.95769 0.035025 -0.0198783 
0.035025 9.94646 0.0854273 
-0.0198783 0.0854273 9.91527 
9.93786 -0.0254784 0.019675 
-0.0254784 10.056 -0.0430673 
0.019675 -0.0430673 10.0604 
10.0952 0.0239473 0.0034947 
0.0239473 9.97976 -0.0128857 
0.0034947 -0.0128857 9.97932 
10.0468 -0.0113586 -0.0422748 
-0.0113586 9.98656 0.0144298 
-0.0422748 0.0144298 10.0209 
10.0318 0.0143946 -0.0422228 
0.0143946 10.018 -0.0132038 
-0.0422228 -0.0132038 10.0044 
9.95562 0.000777979 -0.0103067 
0.000777979 9.95637 0.079104 
-0.0103067 0.079104 9.95344 
9.95601 0.00292775 -0.0104731 
0.00292775 9.94452 0.0836902 
-0.0104731 0.0836902 9.9649 
9.95186 -0.00551752 -0.00877006 
-0.00551752 9.97373 0.0802544 
-0.00877006 0.0802544 9.93983 
9.95847 0.00183087 0.000473212 
0.00183087 9.94761 0.0679892 
0.000473212 0.0679892 9.95934 
9.93109 -0.0262825 -0.139467 
-0.0262825 9.91157 0.0199386 
-0.139467 0.0199386 10.0516 
9.94704 -0.00888589 -0.0671474 
-0.00888589 9.88995 0.0662892 
-0.0671474 0.0662892 10.0572 
9.89963 -0.0678234 -0.141785 
-0.0678234 9.93948 -0.00909798 
-0.141785 -0.00909798 10.0551 
9.99405 -0.0540819 -0.198694 
-0.0540819 10.013 -0.0335851 
-0.198694 -0.0335851 9.8872 
2.15903 -6.32638 0.630402 
-6.32638 10.4324 1.20551 
0.630402 1.20551 16.3189 
4.23013 -1.06917 0.0457004 
-1.06917 3.55229 2.63577 
0.0457004 2.63577 21.1279 
15.5667 -1.45538 0.343273 
-1.45538 6.78406 -1.86453 
0.343273 -1.86453 6.55949 
8.60976 1.87453 3.36621 
1.87453 9.64227 2.05199 
3.36621 2.05199 10.6582 
9.90816 -0.0427185 -0.00452931 
-0.0427185 9.83412 0.0965394 
-0.00452931 0.0965394 10.0426 
9.88745 -0.0665125 -0.0190868 
-0.0665125 9.88012 0.0830629 
-0.0190868 0.0830629 10.0173 
9.9203 -0.044116 -0.0274915 
-0.044116 9.83222 0.128405 
-0.0274915 0.128405 10.0323 
9.89754 -0.0559777 0.0347835 
-0.0559777 9.81131 0.0902797 
0.0347835 0.0902797 10.076 
9.50502 -0.357125 -0.961226 
-0.357125 9.70466 -0.448337 
-0.961226 -0.448337 10.5562 
9.90829 -0.798362 -0.29743 
-0.798362 9.83515 -0.0607125 
-0.29743 -0.0607125 10.0224 
10.0176 -0.441302 -0.38256 
-0.441302 10.4368 -0.197582 
-0.38256 -0.197582 9.31149 
9.86629 -0.127856 0.0747836 
-0.127856 9.20452 -0.109638 
0.0747836 -0.109638 10.695 
9.92541 0.00440564 -0.081397 
0.00440564 9.90472 0.0208669 
-0.081397 0.0208669 9.91435 
9.89357 0.00473427 -0.0899974 
0.00473427 9.92857 0.00598453 
-0.0899974 0.00598453 9.92234 
9.91974 0.00605251 -0.0867855 
0.00605251 9.917 0.0128396 
-0.0867855 0.0128396 9.90774 
9.91014 0.0171358 -0.0885308 
0.0171358 9.92629 0.0145768 
-0.0885308 0.0145768 9.90804 
9.98316 0.0122303 0.000226182 
0.0122303 9.93712 0.0356265 
0.000226182 0.0356265 10.1828 
9.97145 0.000269228 -0.0308689 
0.000269228 9.94734 0.0322369 
-0.0308689 0.0322369 10.1843 
9.96298 0.00893197 0.00410036 
0.00893197 9.96886 0.0240184 
0.00410036 0.0240184 10.1712 
10.0267 -0.00422909 0.00331485 
-0.00422909 9.90602 0.0286049 
0.00331485 0.0286049 10.1703 
10.5696 -0.0488089 0.0504312 
-0.0488089 9.79425 -0.31055 
0.0504312 -0.31055 11.1564 
10.5616 -0.356401 -0.112482 
-0.356401 10.3616 0.0285761 
-0.112482 0.0285761 10.5971 
10.5573 -0.0146117 -0.0522284 
-0.0146117 10.4954 -0.0990803 
-0.0522284 -0.0990803 10.4675 
10.7515 -0.15155 0.110393 
-0.15155 10.1111 0.162157 
0.110393 0.162157 10.6576 
9.91859 0.00516349 -0.0833254 
0.00516349 9.91373 0.035355 
-0.0833254 0.035355 9.9415 
9.93079 0.00839697 -0.0779403 
0.00839697 9.91789 0.0319235 
-0.0779403 0.0319235 9.92514 
9.93312 0.0117419 -0.0780663 
0.0117419 9.92862 0.021377 
-0.0780663 0.021377 9.91208 
9.92268 0.00554237 -0.0716402 
0.00554237 9.92998 0.0271559 
-0.0716402 0.0271559 9.92117 
10.0196 0.0334282 0.0380973 
0.0334282 9.81391 0.10302 
0.0380973 0.10302 10.3574 
10.13 -0.0123628 -0.0489977 
-0.0123628 9.91221 0.0112665 
-0.0489977 0.0112665 10.1487 
10.0206 0.325072 -0.107185 
0.325072 9.55815 -0.0596387 
-0.107185 -0.0596387 10.6122 
9.93111 0.0573923 -0.0322517 
0.0573923 9.99946 0.00747287 
-0.0322517 0.00747287 10.2603 
9.92434 -0.0897439 -0.0313244 
-0.0897439 10.1178 -0.0022462 
-0.0313244 -0.0022462 10.1728 
10.0496 -0.0027752 0.0528392 
-0.0027752 10.0738 0.0179721 
0.0528392 0.0179721 10.0915 
10.0636 0.0141787 0.0711955 
0.0141787 10.0321 -0.00160094 
0.0711955 -0.00160094 10.1192 
10.0689 0.0353658 0.0512906 
0.0353658 10.0145 0.0421234 
0.0512906 0.0421234 10.1314 
9.98301 -0.00190699 0.00328097 
-0.00190699 9.96544 -0.00958197 
0.00328097 -0.00958197 9.95053 
9.95656 -0.00651092 -0.0197677 
-0.00651092 9.9758 0.00395676 
-0.0197677 0.00395676 9.96663 
9.97436 -0.00127819 -0.0177675 
-0.00127819 9.9678 0.00553883 
-0.0177675 0.00553883 9.95681 
9.95918 0.000658718 -0.0231983 
0.000658718 9.95453 -0.003849 
-0.0231983 -0.003849 9.98527 
9.87762 -0.0100786 -0.0225617 
-0.0100786 9.92271 -0.0799313 
-0.0225617 -0.0799313 9.89019 
9.91309 -0.0156725 -0.0234157 
-0.0156725 9.87761 -0.0774055 
-0.0234157 -0.0774055 9.89981 
9.90311 -0.0209858 -0.0371009 
-0.0209858 9.88205 -0.0749849 
-0.0371009 -0.0749849 9.90535 
9.90705 -0.00796079 -0.0258567 
-0.00796079 9.87824 -0.092463 
-0.0258567 -0.092463 9.90523 
9.92321 0.00208039 0.0558045 
0.00208039 9.8611 -0.099487 
0.0558045 -0.099487 9.97375 
9.91022 -0.025023 0.0505229 
-0.025023 9.86967 -0.0766522 
0.0505229 -0.0766522 9.97818 
9.89368 -0.0132243 0.0456138 
-0.0132243 9.87688 -0.108861 
0.0456138 -0.108861 9.9875 
9.88866 0.00282391 0.0810422 
0.00282391 9.86435 -0.0668866 
0.0810422 -0.0668866 10.005 
9.86992 -0.0139119 -0.0550103 
-0.0139119 9.86885 0.00170402 
-0.0550103 0.00170402 9.6492 
9.80965 -0.0615261 -0.156637 
-0.0615261 9.83729 0.0301789 
-0.156637 0.0301789 9.74103 
9.88336 -0.0489252 -0.0525617 
-0.0489252 9.93665 -0.028131 
-0.0525617 -0.028131 9.56796 
9.81816 0.00762577 -0.0156304 
0.00762577 9.95513 -0.044307 
-0.0156304 -0.044307 9.61469 
9.94787 0.00387527 -0.0395917 
0.00387527 9.9465 0.063983 
-0.0395917 0.063983 9.95986 
9.94854 -0.00561335 -0.0448457 
-0.00561335 9.96474 0.0537493 
-0.0448457 0.0537493 9.94095 
9.9495 -0.00381172 -0.0447721 
-0.00381172 9.9486 0.056423 
-0.0447721 0.056423 9.95613 
9.94464 -0.000895524 -0.0434828 
-0.000895524 9.93864 0.0522318 
-0.0434828 0.0522318 9.97095 
9.91823 -0.00276689 0.000921834 
-0.00276689 9.80672 0.162296 
0.000921834 0.162296 9.979 
9.87103 0.0598551 -0.000644735 
0.0598551 9.79092 0.291022 
-0.000644735 0.291022 10.042 
9.93156 0.0195571 -0.00313386 
0.0195571 9.85621 0.162413 
-0.00313386 0.162413 9.91619 
9.9054 0.0140865 -0.0353464 
0.0140865 9.69623 0.041816 
-0.0353464 0.041816 10.1023 
9.94185 0.00692197 -0.0109477 
0.00692197 9.94248 0.0823927 
-0.0109477 0.0823927 9.95499 
9.95806 0.000403264 -0.0122622 
0.000403264 9.95563 0.0772111 
-0.0122622 0.0772111 9.92562 
9.9497 -0.000730146 -0.00655603 
-0.000730146 9.94007 0.0703906 
-0.00655603 0.0703906 9.94955 
9.95682 -0.0041693 -0.0108886 
-0.0041693 9.94229 0.0781326 
-0.0108886 0.0781326 9.9402 
9.96831 9.21369e-05 -0.0370178 
9.21369e-05 9.96897 0.0373271 
-0.0370178 0.0373271 9.97691 
9.97171 -0.00149739 -0.0397516 
-0.00149739 9.97033 0.0366083 
-0.0397516 0.0366083 9.97215 
9.97305 -0.00733093 -0.0345541 
-0.00733093 9.96561 0.0340434 
-0.0345541 0.0340434 9.97553 
9.97347 0.000403841 -0.0384041 
0.000403841 9.96781 0.0302546 
-0.0384041 0.0302546 9.9729 
9.99653 0.0161695 -0.0160149 
0.0161695 10.0396 0.0265764 
-0.0160149 0.0265764 9.68584 
9.99498 -0.0166155 -0.0406289 
-0.0166155 9.91897 0.0576272 
-0.0406289 0.0576272 9.808 
9.98039 -0.0260938 -0.0789674 
-0.0260938 9.93718 0.0517089 
-0.0789674 0.0517089 9.80438 
9.88385 0.0227347 -0.0271074 
0.0227347 9.95202 -0.00971935 
-0.0271074 -0.00971935 9.88607 
10.0624 -0.00798311 -0.0235563 
-0.00798311 10.1116 -0.0171697 
-0.0235563 -0.0171697 10.135 
10.0974 0.00412923 -0.011801 
0.00412923 10.0917 -0.0141545 
-0.011801 -0.0141545 10.1199 
10.134 0.00478672 0.0178636 
0.00478672 10.0128 0.0197683 
0.0178636 0.0197683 10.1623 
10.0319 0.0322895 -0.0039698 
0.0322895 10.1081 -0.100261 
-0.0039698 -0.100261 10.169 
9.94772 0.362466 -0.074176 
0.362466 9.57356 -0.248051 
-0.074176 -0.248051 10.2126 
9.88745 0.396152 0.159613 
0.396152 9.73706 -0.395426 
0.159613 -0.395426 10.1093 
9.81702 -0.0150617 0.256742 
-0.0150617 9.83775 -0.101627 
0.256742 -0.101627 10.0791 
9.94097 0.294516 0.0328248 
0.294516 9.72004 -0.291298 
0.0328248 -0.291298 10.0728 
9.9921 0.00164186 0.0533695 
0.00164186 9.99489 0.0172124 
0.0533695 0.0172124 9.98992 
9.9833 -0.00174896 0.0543245 
-0.00174896 9.98204 0.0173345 
0.0543245 0.0173345 10.0116 
9.99518 -0.000209759 0.0542005 
-0.000209759 9.99523 0.0163341 
0.0542005 0.0163341 9.9865 
9.99717 -0.000149474 0.0528745 
-0.000149474 9.99599 0.0262008 
0.0528745 0.0262008 9.98375 
10.5915 -0.0604976 0.0134558 
-0.0604976 10.5052 -0.0456989 
0.0134558 -0.0456989 10.0517 
10.3154 0.0269267 0.0826708 
0.0269267 10.1576 0.0835693 
0.0826708 0.0835693 10.6753 
10.3523 -0.122109 0.0216065 
-0.122109 10.4292 0.0236291 
0.0216065 0.0236291 10.3668 
10.2634 -0.00738333 -0.123458 
-0.00738333 10.4726 0.0732219 
-0.123458 0.0732219 10.4123 
9.92184 0.00836771 -0.0545306 
0.00836771 9.90504 0.0333007 
-0.0545306 0.0333007 9.95088 
9.92824 0.0441851 -0.0656682 
0.0441851 9.87614 0.0608681 
-0.0656682 0.0608681 9.97338 
9.92634 0.00864264 -0.0550847 
0.00864264 9.90226 0.0526603 
-0.0550847 0.0526603 9.94916 
9.92119 0.00342023 -0.0622868 
0.00342023 9.91362 0.0569678 
-0.0622868 0.0569678 9.94295 
9.81371 0.108692 0.179645 
0.108692 9.90446 -0.119518 
0.179645 -0.119518 9.95236 
9.92443 0.0449332 -0.0321027 
0.0449332 9.97503 -0.179304 
-0.0321027 -0.179304 9.77107 
9.94549 0.0618863 0.0760028 
0.0618863 9.86295 -0.166164 
0.0760028 -0.166164 9.86209 
10.0699 -0.0783356 0.194693 
-0.0783356 9.79003 -0.185447 
0.194693 -0.185447 9.81057 
10.1592 -0.0223325 0.0334397 
-0.0223325 10.1481 0.0169878 
0.0334397 0.0169878 10.2953 
10.1716 0.00421946 0.0569092 
0.00421946 10.1666 0.0119497 
0.0569092 0.0119497 10.2644 
10.2354 -0.00949935 -0.00488986 
-0.00949935 10.2695 0.0208506 
-0.00488986 0.0208506 10.0977 
10.2022 0.0244055 0.0755216 
0.0244055 10.197 0.0705844 
0.0755216 0.0705844 10.2034 
9.89496 0.0168928 -0.0592504 
0.0168928 9.88948 0.0107315 
-0.0592504 0.0107315 9.91811 
9.84839 0.0186262 -0.0416129 
0.0186262 9.91782 0.0279942 
-0.0416129 0.0279942 9.93634 
9.96204 0.0136877 -0.0463506 
0.0136877 9.85705 0.0202297 
-0.0463506 0.0202297 9.88346 
9.88868 0.0194122 -0.0779144 
0.0194122 9.88382 0.0276553 
-0.0779144 0.0276553 9.93006 
10.0536 0.00105124 0.00166777 
0.00105124 10.0978 0.0283053 
0.00166777 0.0283053 10.0213 
10.0242 0.0507511 0.100112 
0.0507511 9.94772 -0.0604038 
0.100112 -0.0604038 10.2008 
10.0921 -0.0822171 -0.027171 
-0.0822171 10.1467 -0.0122522 
-0.027171 -0.0122522 9.93389 
9.96767 0.012095 0.00538026 
0.012095 10.2442 0.111747 
0.00538026 0.111747 9.96079 
9.35868 -0.247597 -0.625346 
-0.247597 9.13029 -0.103635 
-0.625346 -0.103635 13.8059 
10.6362 0.685556 -0.230291 
0.685556 9.49968 -0.0446022 
-0.230291 -0.0446022 12.159 
11.6293 -0.342449 0.268459 
-0.342449 10.6869 0.477312 
0.268459 0.477312 9.97863 
10.4334 -0.148835 0.01989 
-0.148835 10.4184 -0.54257 
0.01989 -0.54257 11.4431 
10.5489 -0.262192 -0.387873 
-0.262192 9.05947 0.511516 
-0.387873 0.511516 10.5454 
10.1357 0.288463 0.158355 
0.288463 9.42028 0.496481 
0.158355 0.496481 10.5978 
10.9114 -0.714664 -0.294267 
-0.714664 9.43748 0.42965 
-0.294267 0.42965 9.80488 
9.94865 -0.148404 0.148458 
-0.148404 9.55052 0.852613 
0.148458 0.852613 10.6546 
11.4263 0.0281072 0.0900528 
0.0281072 10.4243 -0.0931519 
0.0900528 -0.0931519 10.1653 
10.6566 0.089036 -0.0228627 
0.089036 10.272 -0.151552 
-0.0228627 -0.151552 11.0873 
10.6577 0.199661 0.124776 
0.199661 10.2951 -0.291872 
0.124776 -0.291872 11.0632 
10.7678 0.0969725 0.437951 
0.0969725 10.3314 0.0119759 
0.437951 0.0119759 10.9167 
9.9937 0.0155699 -0.0392285 
0.0155699 9.99618 0.0169331 
-0.0392285 0.0169331 10.0267 
9.99919 -0.0163039 0.00944133 
-0.0163039 10.0014 -0.0141912 
0.00944133 -0.0141912 10.016 
10.0083 0.0137642 0.00252805 
0.0137642 9.99954 -0.0110842 
0.00252805 -0.0110842 10.0088 
10.0025 0.00340675 0.0107475 
0.00340675 9.9716 0.00301357 
0.0107475 0.00301357 10.0425 
8.75003 -0.398151 -0.412762 
-0.398151 10.4706 1.08443 
-0.412762 1.08443 10.7242 
9.449 -0.137286 -0.39423 
-0.137286 10.1303 0.505804 
-0.39423 0.505804 10.3656 
9.795 0.349716 -0.409437 
0.349716 9.779 0.34902 
-0.409437 0.34902 10.3709 
9.75422 -0.0368189 -0.754582 
-0.0368189 9.80763 0.0405094 
-0.754582 0.0405094 10.383 
9.9205 0.0159062 -0.185463 
0.0159062 9.91619 -0.125375 
-0.185463 -0.125375 9.79981 
10.01 -0.00386696 -0.144006 
-0.00386696 9.98368 -0.0978543 
-0.144006 -0.0978543 9.64277 
9.88502 -0.066756 -0.266339 
-0.066756 10.0692 -0.0123309 
-0.266339 -0.0123309 9.68226 
9.96598 0.0177415 -0.206969 
0.0177415 10.1046 -0.0926637 
-0.206969 -0.0926637 9.56594 
10.0367 0.00156464 -0.0429616 
0.00156464 10.0551 0.00618354 
-0.0429616 0.00618354 10.0601 
10.0143 0.014539 -0.0482606 
0.014539 10.0544 0.0414824 
-0.0482606 0.0414824 10.0832 
10.0021 0.101468 -0.0195437 
0.101468 10.0401 -0.00610365 
-0.0195437 -0.00610365 10.1097 
10.0291 0.0229396 -0.0402154 
0.0229396 10.0532 0.0147246 
-0.0402154 0.0147246 10.0696 
11.453 -0.223183 -0.141535 
-0.223183 10.3323 -0.120896 
-0.141535 -0.120896 11.4175 
10.8564 0.194146 0.152237 
0.194146 10.5634 -0.241863 
0.152237 -0.241863 11.7831 
10.9275 0.208761 0.373965 
0.208761 8.73068 -0.241696 
0.373965 -0.241696 13.5446 
11.8589 0.0493581 0.468275 
0.0493581 9.80986 -0.383077 
0.468275 -0.383077 11.534 
9.94898 -0.0338727 0.0249935 
-0.0338727 9.92138 -0.127504 
0.0249935 -0.127504 10.1804 
10.0427 -0.0134832 0.193858 
-0.0134832 9.77582 -0.22313 
0.193858 -0.22313 10.2323 
10.0231 -0.0734557 0.0247692 
-0.0734557 9.84674 -0.0705273 
0.0247692 -0.0705273 10.1809 
9.97033 0.241354 0.0651138 
0.241354 9.74143 -0.0835873 
0.0651138 -0.0835873 10.339 
9.92505 0.0394384 0.111856 
0.0394384 9.83228 -0.147948 
0.111856 -0.147948 9.86188 
9.91815 0.00874752 0.0895951 
0.00874752 9.81661 -0.114427 
0.0895951 -0.114427 9.88445 
9.82372 0.00847283 0.0981363 
0.00847283 9.91706 -0.0862444 
0.0981363 -0.0862444 9.87843 
9.93109 -0.00255402 0.070855 
-0.00255402 9.82022 -0.116908 
0.070855 -0.116908 9.8679 
9.85786 -0.036876 -0.0170827 
-0.036876 9.90606 -0.0564289 
-0.0170827 -0.0564289 9.96556 
9.85173 0.036599 0.00671819 
0.036599 9.84639 -0.124635 
0.00671819 -0.124635 10.0314 
9.96525 -0.0173679 0.0509406 
-0.0173679 9.84108 -0.0672472 
0.0509406 -0.0672472 9.92315 
9.94896 0.0398794 0.0383817 
0.0398794 9.92077 -0.169832 
0.0383817 -0.169832 9.85974 
9.97731 0.00588595 -0.052406 
0.00588595 9.98112 -0.0462445 
-0.052406 -0.0462445 9.99378 
9.98347 -0.00167445 -0.0529742 
-0.00167445 9.98341 -0.0511132 
-0.0529742 -0.0511132 9.98533 
9.98361 -0.00148142 -0.0542982 
-0.00148142 9.98257 -0.0527557 
-0.0542982 -0.0527557 9.98603 
9.98479 0.00340104 -0.0538974 
0.00340104 9.98638 -0.0510623 
-0.0538974 -0.0510623 9.98104 
9.88398 -0.0136429 0.110251 
-0.0136429 9.92634 -0.0156035 
0.110251 -0.0156035 10.2246 
9.91877 0.00615192 0.0718185 
0.00615192 9.9427 0.0119818 
0.0718185 0.0119818 10.1735 
9.87881 0.00622349 0.0750397 
0.00622349 9.93979 -0.0184185 
0.0750397 -0.0184185 10.2163 
9.79219 0.0629859 0.0289834 
0.0629859 9.96273 -0.0504 
0.0289834 -0.0504 10.28 
9.88223 -0.0222028 0.0270963 
-0.0222028 9.8955 -0.115772 
0.0270963 -0.115772 9.72904 
9.92215 -0.0156203 0.0473478 
-0.0156203 9.8777 -0.111732 
0.0473478 -0.111732 9.70692 
9.90227 -0.00923414 0.0383915 
-0.00923414 9.89487 -0.0857134 
0.0383915 -0.0857134 9.70963 
9.90624 -0.0265545 0.0368628 
-0.0265545 9.84846 -0.110434 
0.0368628 -0.110434 9.75207 
9.89272 -0.00066857 -0.0815051 
-0.00066857 9.89826 -0.0367751 
-0.0815051 -0.0367751 9.91779 
9.86043 -0.0170179 -0.0395677 
-0.0170179 9.90759 -0.0943051 
-0.0395677 -0.0943051 9.94076 
9.885 -0.0369377 -0.00578975 
-0.0369377 9.88013 -0.0464254 
-0.00578975 -0.0464254 9.94364 
9.89185 -0.0257392 -0.0563626 
-0.0257392 9.88326 -0.0633743 
-0.0563626 -0.0633743 9.93367 
9.94591 0.033314 0.0306571 
0.033314 9.9684 -0.00340859 
0.0306571 -0.00340859 9.94752 
9.94822 0.0206196 0.0126615 
0.0206196 9.96214 0.0104461 
0.0126615 0.0104461 9.95148 
9.95476 0.015308 0.0298533 
0.015308 9.97525 -0.0026531 
0.0298533 -0.0026531 9.93182 
9.96178 0.0243213 0.0250229 
0.0243213 9.97162 -0.00721637 
0.0250229 -0.00721637 9.92843 
9.91265 0.0464647 -0.0310471 
0.0464647 9.92838 -0.0187529 
-0.0310471 -0.0187529 9.96858 
9.93041 0.0317571 -0.0192831 
0.0317571 9.92046 -0.0319383 
-0.0192831 -0.0319383 9.95873 
9.93178 0.0556766 -0.0192091 
0.0556766 9.92365 -0.031561 
-0.0192091 -0.031561 9.95417 
9.93073 0.0755652 -0.0169682 
0.0755652 9.8931 -0.0382132 
-0.0169682 -0.0382132 9.98577 
9.96423 0.0015391 0.0535977 
0.0015391 9.96486 0.0519968 
0.0535977 0.0519968 9.96757 
9.95866 -0.00463407 0.0542832 
-0.00463407 9.94621 0.0539845 
0.0542832 0.0539845 9.9918 
9.96761 0.00696342 0.0479056 
0.00696342 9.98028 0.0583642 
0.0479056 0.0583642 9.94878 
9.96403 -0.00377551 0.0561276 
-0.00377551 9.96706 0.0376009 
0.0561276 0.0376009 9.96557 
9.99461 -0.00190653 0.0335704 
-0.00190653 9.97528 0.0211252 
0.0335704 0.0211252 10.1478 
10.0004 -0.034149 0.00359111 
-0.034149 9.99001 0.00779288 
0.00359111 0.00779288 10.1273 
10.0071 -0.0149397 -0.00937881 
-0.0149397 10.0062 -0.00671749 
-0.00937881 -0.00671749 10.1044 
10.009 -0.0146049 0.00896393 
-0.0146049 9.97416 0.0125838 
0.00896393 0.0125838 10.1345 
9.94447 -0.00289598 0.000736956 
-0.00289598 9.93439 -0.00558825 
0.000736956 -0.00558825 9.99838 
9.9411 0.00472145 0.00149394 
0.00472145 9.95191 0.00895724 
0.00149394 0.00895724 9.98422 
9.93866 -0.00880921 0.00738145 
-0.00880921 9.93758 -0.00440237 
0.00738145 -0.00440237 10.001 
9.92512 0.00423542 -0.000992117 
0.00423542 9.93648 0.00298308 
-0.000992117 0.00298308 10.0156 
10.1073 0.0199786 0.0125741 
0.0199786 10.0317 -0.00113886 
0.0125741 -0.00113886 10.0078 
10.0745 -0.0308559 0.00793986 
-0.0308559 10.0817 -0.0103288 
0.00793986 -0.0103288 9.99065 
10.1093 0.0240628 0.0263818 
0.0240628 9.98555 -0.0225754 
0.0263818 -0.0225754 10.052 
10.0256 0.0205127 0.00163598 
0.0205127 10.0685 0.0129808 
0.00163598 0.0129808 10.0526 
9.91933 -0.00831054 0.0841928 
-0.00831054 9.92691 -0.0594265 
0.0841928 -0.0594265 9.90658 
9.93388 -0.00795259 0.0716024 
-0.00795259 9.94643 -0.0733259 
0.0716024 -0.0733259 9.87251 
9.90726 -0.00548441 0.0824275 
-0.00548441 9.92503 -0.0514221 
0.0824275 -0.0514221 9.92054 
9.92091 -0.0024957 0.0832541 
-0.0024957 9.92021 -0.0647197 
0.0832541 -0.0647197 9.9117 
9.91671 -0.0545643 0.0315427 
-0.0545643 9.93148 0.039833 
0.0315427 0.039833 9.9458 
9.90737 -0.0569708 0.0211146 
-0.0569708 9.9247 0.0652928 
0.0211146 0.0652928 9.96192 
9.92507 -0.00457044 0.0184773 
-0.00457044 9.91669 0.0644175 
0.0184773 0.0644175 9.95222 
9.9149 -0.00401939 0.00873047 
-0.00401939 9.94924 0.0818879 
0.00873047 0.0818879 9.92984 
10.051 0.231548 0.0717088 
0.231548 9.91575 0.0404999 
0.0717088 0.0404999 10.164 
9.9919 0.147395 0.00584091 
0.147395 9.93785 -0.00586525 
0.00584091 -0.00586525 10.2009 
10.109 0.222846 0.00474325 
0.222846 9.97628 -0.109373 
0.00474325 -0.109373 10.0454 
9.99058 0.263077 0.00553054 
0.263077 10.0308 -0.0978637 
0.00553054 -0.0978637 10.1093 
9.76535 0.0365645 -0.111458 
0.0365645 10.0104 0.084856 
-0.111458 0.084856 9.60469 
9.80616 -0.0896779 -0.107524 
-0.0896779 9.959 -0.184679 
-0.107524 -0.184679 9.6153 
9.89886 0.0543774 -0.0299713 
0.0543774 9.92748 -0.191532 
-0.0299713 -0.191532 9.55412 
9.98018 -0.295986 -0.0531866 
-0.295986 9.97666 0.0107967 
-0.0531866 0.0107967 9.42364 
10.4356 -0.0492387 0.0414076 
-0.0492387 10.5304 0.0104482 
0.0414076 0.0104482 10.4455 
10.4772 0.103934 0.0485615 
0.103934 10.1751 -0.129534 
0.0485615 -0.129534 10.7592 
10.4848 -0.239033 0.0261675 
-0.239033 10.5772 0.0820894 
0.0261675 0.0820894 10.3495 
10.329 -0.0597781 0.150235 
-0.0597781 10.6781 -0.061655 
0.150235 -0.061655 10.4043 
9.46836 0.332163 -0.388138 
0.332163 9.94428 -0.0702663 
-0.388138 -0.0702663 10.0368 
9.48983 0.281055 -0.504079 
0.281055 9.85834 0.254862 
-0.504079 0.254862 10.1012 
9.72193 -0.0461767 -0.237364 
-0.0461767 10.1187 -0.130895 
-0.237364 -0.130895 9.60878 
9.72626 0.158293 -0.407681 
0.158293 9.87718 0.0278658 
-0.407681 0.0278658 9.84597 
10.2934 1.7841 0.483538 
1.7841 9.77548 -0.581461 
0.483538 -0.581461 9.57221 
8.37732 -1.1357 1.03896 
-1.1357 9.66224 0.0563511 
1.03896 0.0563511 11.6015 
9.63591 -2.15231 1.64478 
-2.15231 11.9255 0.152764 
1.64478 0.152764 8.07968 
10.3292 0.294663 1.90791 
0.294663 9.31127 -0.372384 
1.90791 -0.372384 10.0006 
11.3243 0.11447 0.087838 
0.11447 11.648 -0.0499644 
0.087838 -0.0499644 11.3212 
11.081 0.0773939 0.271944 
0.0773939 11.4063 0.0798741 
0.271944 0.0798741 11.8062 
10.7628 0.0950494 0.26723 
0.0950494 11.5825 -0.114226 
0.26723 -0.114226 11.9482 
11.488 0.0398012 0.251007 
0.0398012 11.5569 -0.0907909 
0.251007 -0.0907909 11.2486 
9.85128 -0.086167 0.0791336 
-0.086167 9.96528 0.103764 
0.0791336 0.103764 9.7001 
9.82353 -0.026219 0.00850321 
-0.026219 9.91151 0.108126 
0.00850321 0.108126 9.78162 
9.91049 -0.0858263 0.0298578 
-0.0858263 9.83426 0.138068 
0.0298578 0.138068 9.77191 
9.82269 0.188841 -0.0931557 
0.188841 9.92651 -0.0814724 
-0.0931557 -0.0814724 9.76746 
9.91647 -0.0051532 -0.02314 
-0.0051532 9.90238 0.0220065 
-0.02314 0.0220065 10.0516 
9.91086 -0.0136827 -0.013954 
-0.0136827 9.9233 0.0221566 
-0.013954 0.0221566 10.0363 
9.92623 0.00736163 -0.00316204 
0.00736163 9.91369 0.00761824 
-0.00316204 0.00761824 10.0305 
9.91022 -0.0190074 0.00502801 
-0.0190074 9.91582 0.0244745 
0.00502801 0.0244745 10.0444 
9.96506 -0.313421 0.0668345 
-0.313421 9.82533 0.222197 
0.0668345 0.222197 10.1347 
9.90079 -0.1986 0.175435 
-0.1986 9.8505 0.244262 
0.175435 0.244262 10.1738 
10.0605 -0.224095 0.0111172 
-0.224095 9.85417 0.0776124 
0.0111172 0.0776124 10.0105 
9.7103 -0.531598 0.0274805 
-0.531598 9.86967 0.133963 
0.0274805 0.133963 10.3451 
9.93201 0.00131661 0.0783078 
0.00131661 9.93532 -0.0189556 
0.0783078 -0.0189556 9.92866 
9.92253 0.00151073 0.0790229 
0.00151073 9.93589 -0.0124003 
0.0790229 -0.0124003 9.93757 
9.93335 0.00187549 0.0786421 
0.00187549 9.94738 -0.0207812 
0.0786421 -0.0207812 9.91526 
9.94 0.00294975 0.0806082 
0.00294975 9.92712 -0.0251174 
0.0806082 -0.0251174 9.92886 
9.9341 0.000865546 0.084293 
0.000865546 9.94205 -0.0072917 
0.084293 -0.0072917 9.92933 
9.93652 -0.00130029 0.0854128 
-0.00130029 9.93441 -0.00915745 
0.0854128 -0.00915745 9.93454 
9.94777 0.00598114 0.0777441 
0.00598114 9.94883 -0.0040108 
0.0777441 -0.0040108 9.90888 
9.92946 0.00432985 0.0734198 
0.00432985 9.92496 -0.0117493 
0.0734198 -0.0117493 9.95106 
9.95313 0.0334097 0.0204484 
0.0334097 10.0299 -0.0175001 
0.0204484 -0.0175001 9.48953 
9.86563 0.00621564 0.0134331 
0.00621564 9.88322 -0.00409145 
0.0134331 -0.00409145 9.7237 
9.85558 0.0143818 0.0447275 
0.0143818 9.90152 0.000676055 
0.0447275 0.000676055 9.71544 
9.84549 0.00992472 0.0110906 
0.00992472 9.92067 0.0575308 
0.0110906 0.0575308 9.70639 
10.0695 -0.00902077 0.0233089 
-0.00902077 10.118 -3.94906e-05 
0.0233089 -3.94906e-05 10.0939 
10.1171 -0.00172581 0.00629778 
-0.00172581 10.0152 -0.00113293 
0.00629778 -0.00113293 10.1492 
10.0446 -0.0191109 -0.000136684 
-0.0191109 10.1087 0.0418355 
-0.000136684 0.0418355 10.1282 
10.1218 0.0124983 -0.0697507 
0.0124983 10.0514 0.0178621 
-0.0697507 0.0178621 10.1083 
9.92235 0.00066456 -0.0882367 
0.00066456 9.94183 -0.00529707 
-0.0882367 -0.00529707 9.95055 
9.9274 -0.00414441 -0.0830861 
-0.00414441 9.94766 -0.0105786 
-0.0830861 -0.0105786 9.93967 
9.96847 -0.00117975 -0.0903515 
-0.00117975 9.93643 -0.00629616 
-0.0903515 -0.00629616 9.90983 
9.93721 0.00828217 -0.0654269 
0.00828217 9.94511 -0.0163315 
-0.0654269 -0.0163315 9.93241 
9.89259 -0.0544269 0.0210178 
-0.0544269 9.88314 -0.00101301 
0.0210178 -0.00101301 9.92165 
9.88924 -0.0298892 0.014076 
-0.0298892 9.88501 -0.0290116 
0.014076 -0.0290116 9.92313 
9.93942 -0.051907 0.0613915 
-0.051907 9.87221 0.0216449 
0.0613915 0.0216449 9.88574 
9.89135 -0.102436 0.0124505 
-0.102436 9.8808 0.00359261 
0.0124505 0.00359261 9.92523 
9.93126 -0.0186882 0.020987 
-0.0186882 9.94888 -0.0731081 
0.020987 -0.0731081 9.88198 
9.93941 0.00568156 0.0257485 
0.00568156 9.96879 -0.00951197 
0.0257485 -0.00951197 9.8539 
9.92876 0.0540384 -0.00707179 
0.0540384 9.94056 -0.0228425 
-0.00707179 -0.0228425 9.8928 
9.92302 -0.0324821 0.00800525 
-0.0324821 9.97817 -0.0203902 
0.00800525 -0.0203902 9.86093 
9.95782 -0.0136616 -0.0602068 
-0.0136616 9.86063 0.00455684 
-0.0602068 0.00455684 9.85667 
9.84527 0.0175959 -0.0696895 
0.0175959 9.92592 0.0127886 
-0.0696895 0.0127886 9.90393 
9.84341 0.0145669 -0.0935429 
0.0145669 9.90945 0.00971987 
-0.0935429 0.00971987 9.92226 
9.85121 -0.0254242 -0.083949 
-0.0254242 9.91557 0.000748885 
-0.083949 0.000748885 9.90834 
9.92088 0.0177739 0.0467771 
0.0177739 10.0095 -0.0181275 
0.0467771 -0.0181275 10.004 
10.0031 -0.00909763 0.0867687 
-0.00909763 9.91001 0.0258468 
0.0867687 0.0258468 10.0213 
9.88839 -0.0187398 -0.0726814 
-0.0187398 10.0673 0.0377812 
-0.0726814 0.0377812 9.97865 
9.87105 -0.0216184 0.0312558 
-0.0216184 9.98044 0.0267895 
0.0312558 0.0267895 10.0829 
9.94315 -0.000202223 0.0106619 
-0.000202223 9.95521 -0.0145411 
0.0106619 -0.0145411 9.98103 
9.96957 -0.00488362 0.00447154 
-0.00488362 9.96311 -0.00726081 
0.00447154 -0.00726081 9.9467 
9.97518 0.00728384 0.00213985 
0.00728384 9.96058 0.0300321 
0.00213985 0.0300321 9.94362 
9.9567 -0.0164843 0.00895259 
-0.0164843 9.96966 -0.00732978 
0.00895259 -0.00732978 9.95301 
9.89438 -0.00492456 -0.0353939 
-0.00492456 9.93259 0.0648413 
-0.0353939 0.0648413 9.90572 
9.90913 0.0176055 -0.0329491 
0.0176055 9.89975 0.0692862 
-0.0329491 0.0692862 9.9238 
9.90795 0.00993461 -0.0399189 
0.00993461 9.90435 0.064946 
-0.0399189 0.064946 9.92038 
9.91817 0.00342561 -0.0398172 
0.00342561 9.89895 0.0742071 
-0.0398172 0.0742071 9.91556 
9.94734 -0.0060779 0.023027 
-0.0060779 9.97006 -0.064113 
0.023027 -0.064113 9.92579 
9.95486 -0.00725775 0.0052243 
-0.00725775 9.95525 -0.0423632 
0.0052243 -0.0423632 9.93309 
9.9557 -0.00958861 0.00637986 
-0.00958861 9.96394 -0.0557313 
0.00637986 -0.0557313 9.92356 
9.95392 -0.0149754 0.0223898 
-0.0149754 9.95969 -0.0518278 
0.0223898 -0.0518278 9.92958 
9.94525 -0.00748775 -0.0120697 
-0.00748775 9.99617 -0.0760932 
-0.0120697 -0.0760932 9.92952 
9.95671 -0.00330314 -0.0183028 
-0.00330314 9.95692 -0.0782761 
-0.0183028 -0.0782761 9.95731 
9.9579 0.00184025 -0.0239215 
0.00184025 9.93125 -0.0883763 
-0.0239215 -0.0883763 9.9818 
9.97079 -0.00849394 -0.0372366 
-0.00849394 9.94009 -0.0560618 
-0.0372366 -0.0560618 9.96006 
9.95306 0.00533714 0.00681995 
0.00533714 9.96226 0.0159581 
0.00681995 0.0159581 9.98175 
9.95323 -0.00437657 -0.00364088 
-0.00437657 9.96289 0.0162002 
-0.00364088 0.0162002 9.98094 
9.95497 -0.0130205 -0.0140249 
-0.0130205 9.96853 -0.00517245 
-0.0140249 -0.00517245 9.97357 
9.94272 -0.0102727 -0.00250789 
-0.0102727 9.9614 0.00812057 
-0.00250789 0.00812057 9.99295 
9.86094 0.309323 -0.110694 
0.309323 9.83888 0.134875 
-0.110694 0.134875 10.6357 
10.065 0.181599 0.0264551 
0.181599 10.0274 -0.201394 
0.0264551 -0.201394 10.2432 
9.84492 -0.222352 -0.181654 
-0.222352 10.3012 0.0648154 
-0.181654 0.0648154 10.1894 
9.66954 -0.0264824 -0.090418 
-0.0264824 10.2198 -0.150681 
-0.090418 -0.150681 10.4462 
9.90983 0.0594391 0.116799 
0.0594391 9.95759 0.0174296 
0.116799 0.0174296 9.87148 
9.94252 0.0430624 -0.00800998 
0.0430624 9.80783 -0.138089 
-0.00800998 -0.138089 9.98855 
9.92814 -0.0456127 -0.0561948 
-0.0456127 9.94716 -0.0651283 
-0.0561948 -0.0651283 9.8636 
9.87586 0.0574123 0.124579 
0.0574123 9.89495 -0.0901073 
0.124579 -0.0901073 9.96809 
9.92558 -0.0697481 -0.0809559 
-0.0697481 9.9283 0.0201678 
-0.0809559 0.0201678 10.3843 
10.1698 -0.18723 -0.221093 
-0.18723 9.72527 -0.0690389 
-0.221093 -0.0690389 10.3431 
10.1732 -0.223079 -0.0635241 
-0.223079 9.82704 0.0400283 
-0.0635241 0.0400283 10.238 
9.76378 0.0514485 -0.295538 
0.0514485 10.3948 -0.426028 
-0.295538 -0.426028 10.0796 
12.0307 -0.849717 0.725992 
-0.849717 11.3575 0.985038 
0.725992 0.985038 8.54073 
9.52214 -0.676306 0.329458 
-0.676306 7.76119 0.227365 
0.329458 0.227365 14.6457 
11.035 -0.528552 -0.623584 
-0.528552 5.65729 0.529322 
-0.623584 0.529322 15.2367 
10.0028 0.487042 0.193798 
0.487042 9.80819 -2.26791 
0.193798 -2.26791 12.118 
9.99277 -0.00101959 0.0463413 
-0.00101959 9.99495 -0.0386609 
0.0463413 -0.0386609 9.99396 
9.98903 -0.000214361 0.0486336 
-0.000214361 9.99049 -0.0401012 
0.0486336 -0.0401012 10.0021 
9.9927 -0.00236986 0.04522 
-0.00236986 9.9954 -0.0390889 
0.04522 -0.0390889 9.99357 
9.99484 -0.000597276 0.044289 
-0.000597276 9.99593 -0.0380192 
0.044289 -0.0380192 9.9909 
10.1468 0.0182261 -0.0143276 
0.0182261 10.1446 -0.0351619 
-0.0143276 -0.0351619 10.134 
10.135 0.0135172 -0.0199203 
0.0135172 10.1658 -0.0354089 
-0.0199203 -0.0354089 10.1246 
10.1084 -0.000361729 0.00115406 
-0.000361729 10.1292 0.00214451 
0.00115406 0.00214451 10.1878 
10.1274 -0.0129693 -0.013478 
-0.0129693 10.1169 -0.0227874 
-0.013478 -0.0227874 10.1812 
9.94038 0.00212536 -0.0487732 
0.00212536 9.92727 -0.0502498 
-0.0487732 -0.0502498 9.9472 
9.93462 -0.00639754 -0.0572171 
-0.00639754 9.93414 -0.0407641 
-0.0572171 -0.0407641 9.94609 
9.93482 0.00290635 -0.0541652 
0.00290635 9.93415 -0.0448196 
-0.0541652 -0.0448196 9.94589 
9.93288 0.00218187 -0.0578376 
0.00218187 9.93639 -0.0481245 
-0.0578376 -0.0481245 9.94558 
9.94078 0.0072014 -0.00960974 
0.0072014 9.88556 0.0582889 
-0.00960974 0.0582889 10.05 
9.93881 -0.00301329 0.00892806 
-0.00301329 9.89225 0.0568262 
0.00892806 0.0568262 10.0453 
9.92816 0.00530758 0.0171966 
0.00530758 9.93255 0.0389898 
0.0171966 0.0389898 10.0156 
9.94972 -0.0061308 9.40825e-06 
-0.0061308 9.92009 0.0645899 
9.40825e-06 0.0645899 10.0065 
9.92447 0.011423 -0.0388065 
0.011423 9.90184 0.0604146 
-0.0388065 0.0604146 9.96876 
9.92063 -0.0087629 -0.0406 
-0.0087629 9.94726 0.0567144 
-0.0406 0.0567144 9.92719 
9.92683 -0.000823989 -0.0383031 
-0.000823989 9.95254 0.0600766 
-0.0383031 0.0600766 9.91571 
9.92051 0.00584537 -0.0478865 
0.00584537 9.9409 0.0376326 
-0.0478865 0.0376326 9.93367 
9.97236 -0.00100618 -0.00593294 
-0.00100618 9.97262 0.00917021 
-0.00593294 0.00917021 9.9886 
9.97704 -0.00380359 -0.00244625 
-0.00380359 9.97567 0.0089217 
-0.00244625 0.0089217 9.98087 
9.97405 -0.00620339 -0.00467776 
-0.00620339 9.97581 0.00536041 
-0.00467776 0.00536041 9.98372 
9.97504 -0.00399443 -0.00469681 
-0.00399443 9.97303 0.00740148 
-0.00469681 0.00740148 9.98551 
9.92616 0.00193445 0.0148204 
0.00193445 9.93052 0.0181984 
0.0148204 0.0181984 10.0348 
9.93529 0.00506505 0.0220069 
0.00506505 9.93721 0.00715587 
0.0220069 0.00715587 10.019 
9.93323 -0.00179154 0.00032384 
-0.00179154 9.93396 0.0156484 
0.00032384 0.0156484 10.0243 
9.93797 -0.00655171 -0.0133731 
-0.00655171 9.92693 0.0043799 
-0.0133731 0.0043799 10.0266 
9.92347 0.00335515 0.0290279 
0.00335515 9.9351 0.0547099 
0.0290279 0.0547099 9.90995 
9.93403 -0.00461154 0.0181018 
-0.00461154 9.91004 0.0636103 
0.0181018 0.0636103 9.92444 
9.92448 0.00297728 0.0284197 
0.00297728 9.93563 0.0590983 
0.0284197 0.0590983 9.9084 
9.93436 -0.00226658 0.0372918 
-0.00226658 9.93767 0.062919 
0.0372918 0.062919 9.89649 
9.99362 0.0117769 0.0274123 
0.0117769 9.94276 -0.00774173 
0.0274123 -0.00774173 9.98658 
9.83704 0.116037 -0.00694982 
0.116037 9.99191 0.0190276 
-0.00694982 0.0190276 10.094 
10.0739 -0.0915409 -0.00422625 
-0.0915409 9.94961 -0.0202075 
-0.00422625 -0.0202075 9.89941 
10.0197 0.0393303 0.134498 
0.0393303 9.86281 -0.0509404 
0.134498 -0.0509404 10.0405 
9.95906 0.00983303 -0.0157628 
0.00983303 9.98242 -0.019497 
-0.0157628 -0.019497 10.1791 
9.92744 0.0168131 -0.0489942 
0.0168131 9.97766 -0.0204517 
-0.0489942 -0.0204517 10.2155 
9.97727 0.0112289 0.0172511 
0.0112289 9.96758 0.0182616 
0.0172511 0.0182616 10.1758 
9.99789 0.0149538 -0.0119602 
0.0149538 9.97329 0.0209891 
-0.0119602 0.0209891 10.1494 
9.98037 0.00454446 -0.0103625 
0.00454446 9.97975 -0.0115967 
-0.0103625 -0.0115967 9.98455 
9.98068 0.00445619 -0.00956568 
0.00445619 9.97822 -0.00901943 
-0.00956568 -0.00901943 9.98578 
9.9817 0.00398605 -0.00846114 
0.00398605 9.98141 -0.0100454 
-0.00846114 -0.0100454 9.98157 
9.98416 0.00408021 -0.0112839 
0.00408021 9.98035 -0.0107959 
-0.0112839 -0.0107959 9.98017 
9.98606 -0.00560121 -0.00237937 
-0.00560121 9.92689 0.0325177 
-0.00237937 0.0325177 10.1932 
9.98862 -0.00431055 -0.000244498 
-0.00431055 9.93091 0.0384685 
-0.000244498 0.0384685 10.1867 
9.98434 -0.00439121 0.00501591 
-0.00439121 9.92439 0.0363143 
0.00501591 0.0363143 10.1975 
9.9787 -0.00442474 -0.000454081 
-0.00442474 9.92145 0.0397866 
-0.000454081 0.0397866 10.206 
9.94926 0.0339099 0.0133636 
0.0339099 9.93611 -0.0682723 
0.0133636 -0.0682723 9.93167 
9.9136 0.0134782 0.00347525 
0.0134782 9.9565 -0.0121614 
0.00347525 -0.0121614 9.94694 
9.89975 0.0501395 0.0325176 
0.0501395 9.99731 -0.0339746 
0.0325176 -0.0339746 9.91998 
9.94105 0.0284612 0.0213302 
0.0284612 9.93705 -0.00738334 
0.0213302 -0.00738334 9.93895 
9.91006 -0.00900886 0.0244878 
-0.00900886 9.91795 0.00341103 
0.0244878 0.00341103 10.164 
9.89646 0.00502955 0.0191947 
0.00502955 9.92998 -0.00795025 
0.0191947 -0.00795025 10.1655 
9.91035 0.0194421 0.0458738 
0.0194421 9.9412 0.000905492 
0.0458738 0.000905492 10.1404 
9.88849 0.0286388 0.0198058 
0.0286388 9.91529 -0.0194692 
0.0198058 -0.0194692 10.1882 
9.92767 0.014162 0.0256026 
0.014162 9.95714 0.00707143 
0.0256026 0.00707143 9.90901 
9.94367 0.00571289 0.0321361 
0.00571289 9.96812 0.00866015 
0.0321361 0.00866015 9.88203 
9.93551 0.0217459 0.0274255 
0.0217459 9.95829 0.0133145 
0.0274255 0.0133145 9.90002 
9.94411 0.020101 0.0102659 
0.020101 9.97095 0.0203381 
0.0102659 0.0203381 9.87876 
9.93284 -0.0179812 0.0168691 
-0.0179812 9.83492 0.0498492 
0.0168691 0.0498492 9.95303 
9.90752 -0.00798842 0.0125121 
-0.00798842 9.80524 0.0792684 
0.0125121 0.0792684 10.008 
9.93769 0.00687882 0.0208277 
0.00687882 9.82668 0.0559688 
0.0208277 0.0559688 9.95642 
9.96132 0.0271353 0.0247276 
0.0271353 9.79963 0.0386801 
0.0247276 0.0386801 9.95984 
10.0172 -0.00150846 0.013652 
-0.00150846 9.70493 -0.0396812 
0.013652 -0.0396812 10.1385 
9.87618 0.1003 0.00560799 
0.1003 10.0023 -0.146035 
0.00560799 -0.146035 9.98218 
10.0672 0.101161 -0.00641014 
0.101161 9.57395 -0.122096 
-0.00641014 -0.122096 10.2194 
10.0954 -0.12007 -0.0663012 
-0.12007 9.76787 -0.0624387 
-0.0663012 -0.0624387 9.99738 
9.91823 0.00213057 -0.0848361 
0.00213057 9.92994 -0.000232059 
-0.0848361 -0.000232059 9.92917 
9.9333 0.00286607 -0.0895053 
0.00286607 9.92136 -0.0235984 
-0.0895053 -0.0235984 9.92267 
9.91894 0.00347839 -0.0723931 
0.00347839 9.93222 -0.0229793 
-0.0723931 -0.0229793 9.92617 
9.92832 -0.00804236 -0.0701692 
-0.00804236 9.92221 0.00187547 
-0.0701692 0.00187547 9.92681 
9.96495 -0.00238003 0.019172 
-0.00238003 9.94124 0.00066541 
0.019172 0.00066541 9.90862 
9.96072 -0.00544315 0.018844 
-0.00544315 9.94305 -0.00557941 
0.018844 -0.00557941 9.91103 
9.95671 -0.00354545 0.0097164 
-0.00354545 9.95605 -0.000193082 
0.0097164 -0.000193082 9.90205 
9.96488 -0.00272928 0.0184703 
-0.00272928 9.94261 -0.00136905 
0.0184703 -0.00136905 9.90731 
10.0633 -0.040482 0.00399132 
-0.040482 9.99785 0.015993 
0.00399132 0.015993 9.70066 
9.99215 0.011692 -0.0070475 
0.011692 9.96194 -0.0426584 
-0.0070475 -0.0426584 9.80775 
9.99391 0.0219187 0.025295 
0.0219187 9.95066 -0.0517804 
0.025295 -0.0517804 9.81726 
9.95653 -0.0135158 -0.00479073 
-0.0135158 9.90902 0.0198259 
-0.00479073 0.0198259 9.89629 
9.8639 0.0163925 -0.122893 
0.0163925 9.89646 -0.0501281 
-0.122893 -0.0501281 9.96524 
9.7679 0.0354126 -0.112898 
0.0354126 9.95207 -0.0532826 
-0.112898 -0.0532826 10.0056 
9.85897 0.0393841 -0.157143 
0.0393841 9.89192 -0.0333241 
-0.157143 -0.0333241 9.97471 
9.87596 0.0429906 -0.106344 
0.0429906 9.90776 -0.0493803 
-0.106344 -0.0493803 9.94189 
9.89342 -0.0205786 0.0194161 
-0.0205786 9.87091 0.0729613 
0.0194161 0.0729613 9.90378 
9.86721 0.0153804 0.0178379 
0.0153804 9.91683 0.0819057 
0.0178379 0.0819057 9.88407 
9.89456 -0.0110409 0.0240206 
-0.0110409 9.87378 0.0712679 
0.0240206 0.0712679 9.89976 
9.89982 -0.00604406 0.0310926 
-0.00604406 9.87053 0.0804929 
0.0310926 0.0804929 9.89776 
9.93762 0.417412 0.279435 
0.417412 9.98802 -0.261604 
0.279435 -0.261604 9.95327 
9.53054 0.252616 0.301128 
0.252616 10.1666 -0.0852152 
0.301128 -0.0852152 10.1818 
10.381 -0.0988814 -0.111613 
-0.0988814 9.90554 -0.0292505 
-0.111613 -0.0292505 9.59237 
9.91255 0.250922 0.268069 
0.250922 9.83885 0.0107467 
0.268069 0.0107467 10.1275 
9.96986 -0.00135425 0.00297341 
-0.00135425 9.97117 0.000108705 
0.00297341 0.000108705 10.0012 
9.97665 0.000584297 -0.00562183 
0.000584297 9.97104 0.00512885 
-0.00562183 0.00512885 9.9945 
9.96878 0.00379115 0.000477436 
0.00379115 9.9718 0.00202653 
0.000477436 0.00202653 10.0016 
9.97052 0.000529664 -0.000566824 
0.000529664 9.97167 0.000949827 
-0.000566824 0.000949827 10 
10.367 0.356927 0.265124 
0.356927 11.1625 -0.220543 
0.265124 -0.220543 10.9007 
10.5901 0.146622 0.252002 
0.146622 10.8574 -0.0108473 
0.252002 -0.0108473 10.9826 
10.0704 -0.0321625 0.397765 
-0.0321625 11.1627 -0.106569 
0.397765 -0.106569 11.1971 
10.6773 0.244521 0.322712 
0.244521 11.0045 -0.308629 
0.322712 -0.308629 10.7484 
9.95921 -0.00194291 0.0706235 
-0.00194291 9.94026 -0.035405 
0.0706235 -0.035405 9.94748 
9.9438 0.00768168 0.0644656 
0.00768168 9.95378 -0.0353809 
0.0644656 -0.0353809 9.94937 
9.94109 0.00533997 0.0682772 
0.00533997 9.94803 -0.0368887 
0.0682772 -0.0368887 9.95783 
9.94979 -0.00675547 0.0661585 
-0.00675547 9.94492 -0.0375135 
0.0661585 -0.0375135 9.95223 
9.95788 -0.00295935 -0.0380828 
-0.00295935 9.97077 -0.0659373 
-0.0380828 -0.0659373 9.94375 
9.94982 -0.0044552 -0.0399607 
-0.0044552 9.96447 -0.0459022 
-0.0399607 -0.0459022 9.95811 
9.95006 0.00329542 -0.0461833 
0.00329542 9.94461 -0.0574827 
-0.0461833 -0.0574827 9.97772 
9.95074 -0.0060415 -0.0385651 
-0.0060415 9.96405 -0.0591205 
-0.0385651 -0.0591205 9.9576 
9.93612 0.0111231 0.048795 
0.0111231 9.93062 -0.0557398 
0.048795 -0.0557398 9.93885 
9.92804 -0.00783614 0.0339502 
-0.00783614 9.92642 -0.0571626 
0.0339502 -0.0571626 9.95113 
9.92186 0.00475414 0.0501281 
0.00475414 9.94036 -0.060496 
0.0501281 -0.060496 9.94338 
9.9261 0.00347954 0.0478392 
0.00347954 9.93458 -0.0613433 
0.0478392 -0.0613433 9.94492 
10.1127 -0.0661026 0.0227381 
-0.0661026 10.0495 0.0404869 
0.0227381 0.0404869 10.1798 
10.2331 -0.0770218 -0.0239363 
-0.0770218 9.56423 0.158353 
-0.0239363 0.158353 10.5446 
10.2226 -0.143948 -0.0314376 
-0.143948 9.7481 -0.100349 
-0.0314376 -0.100349 10.3712 
10.1432 -0.187244 0.108433 
-0.187244 9.86623 -0.0762392 
0.108433 -0.0762392 10.3325 
9.98107 -0.00377552 0.0623394 
-0.00377552 9.97725 0.0294687 
0.0623394 0.0294687 9.98562 
9.98331 -0.00443477 0.0507828 
-0.00443477 9.97907 0.0300182 
0.0507828 0.0300182 9.98155 
9.98478 -0.00691964 0.0487589 
-0.00691964 9.98227 0.0291413 
0.0487589 0.0291413 9.97688 
9.98136 0.000126448 0.0580845 
0.000126448 9.98203 0.0305242 
0.0580845 0.0305242 9.98054 
9.98831 -0.00479873 0.00498353 
-0.00479873 9.99185 -0.00811144 
0.00498353 -0.00811144 9.99515 
9.987 -0.0011929 0.00643962 
-0.0011929 9.98237 -0.00774028 
0.00643962 -0.00774028 10.0059 
9.99283 -0.00104927 0.00449609 
-0.00104927 9.99237 -0.0107873 
0.00449609 -0.0107873 9.9901 
9.99376 -0.00151417 0.00172693 
-0.00151417 9.99193 -0.010074 
0.00172693 -0.010074 9.98962 
10.4372 0.169363 -0.0541605 
0.169363 10.8453 0.366043 
-0.0541605 0.366043 9.58141 
9.78673 -0.227899 -0.0713861 
-0.227899 9.80115 -0.252352 
-0.0713861 -0.252352 11.276 
9.76045 0.0203909 -0.230441 
0.0203909 10.4337 -0.0585746 
-0.230441 -0.0585746 10.6697 
9.82023 0.259166 -0.69659 
0.259166 11.3449 -0.628952 
-0.69659 -0.628952 9.69879 
9.97822 0.0011298 -0.00040372 
0.0011298 9.98117 -0.00180986 
-0.00040372 -0.00180986 9.99926 
9.97985 -0.00170605 0.00483937 
-0.00170605 9.98397 0.00355457 
0.00483937 0.00355457 9.99483 
9.98025 -0.000239699 0.00277619 
-0.000239699 9.98055 0.00143492 
0.00277619 0.00143492 9.99786 
9.98212 -0.00115189 0.000869626 
-0.00115189 9.98076 0.000133781 
0.000869626 0.000133781 9.99577 
9.85171 0.0563833 0.0758145 
0.0563833 9.8833 -0.0658852 
0.0758145 -0.0658852 9.96799 
9.87917 -0.00550137 0.0799591 
-0.00550137 9.90599 -0.0485995 
0.0799591 -0.0485995 9.91784 
9.8662 0.0432165 0.0430182 
0.0432165 9.87376 -0.0504531 
0.0430182 -0.0504531 9.96303 
9.85689 0.013314 0.0756014 
0.013314 9.89791 -0.0373822 
0.0756014 -0.0373822 9.9482 
9.83755 -0.00575669 0.0877423 
-0.00575669 9.91226 -0.00412882 
0.0877423 -0.00412882 9.91775 
9.93995 -0.0350328 0.0515556 
-0.0350328 9.82815 0.0298698 
0.0515556 0.0298698 9.89946 
9.8408 -0.0166115 0.0805728 
-0.0166115 9.89748 0.00939872 
0.0805728 0.00939872 9.92927 
9.85756 -0.03123 0.0952689 
-0.03123 9.92131 0.024519 
0.0952689 0.024519 9.88868 
9.96231 -0.0156683 -0.0418719 
-0.0156683 9.965 0.0420061 
-0.0418719 0.0420061 9.96248 
9.95291 -0.00579813 -0.0314296 
-0.00579813 9.96817 0.0395059 
-0.0314296 0.0395059 9.9687 
9.96903 -0.00954415 -0.037669 
-0.00954415 9.96059 0.0153741 
-0.037669 0.0153741 9.96017 
9.96516 -0.00194179 -0.0469572 
-0.00194179 9.96397 0.0283558 
-0.0469572 0.0283558 9.96067 
9.89513 -0.0126306 0.0653853 
-0.0126306 9.90045 -0.0352183 
0.0653853 -0.0352183 9.81885 
9.90451 -0.0100202 0.0713177 
-0.0100202 9.90539 -0.0518682 
0.0713177 -0.0518682 9.80453 
9.8863 0.00443342 0.0702432 
0.00443342 9.9133 -0.0447224 
0.0702432 -0.0447224 9.81483 
9.88558 -0.00413962 0.0806383 
-0.00413962 9.92127 -0.059949 
0.0806383 -0.059949 9.80759 
9.99196 -0.0040129 0.0273851 
-0.0040129 9.99337 0.0539522 
0.0273851 0.0539522 9.99045 
9.98341 -2.18704e-05 0.0250102 
-2.18704e-05 9.98204 0.0541166 
0.0250102 0.0541166 10.0103 
9.99329 -0.00222946 0.0265942 
-0.00222946 9.98979 0.0550205 
0.0265942 0.0550205 9.99269 
9.99244 -0.00110357 0.0254172 
-0.00110357 9.9959 0.0572645 
0.0254172 0.0572645 9.98744 
9.95132 0.000103651 0.0647711 
0.000103651 9.95199 0.0415098 
0.0647711 0.0415098 9.97761 
9.96889 -1.75076e-05 0.0687717 
-1.75076e-05 9.96655 0.0338009 
0.0687717 0.0338009 9.94547 
9.96537 -0.00148325 0.0583705 
-0.00148325 9.95134 0.0336947 
0.0583705 0.0336947 9.96421 
9.96357 -0.00405564 0.059257 
-0.00405564 9.95785 0.0358537 
0.059257 0.0358537 9.9595 
10.479 -0.336369 -0.346706 
-0.336369 9.79422 0.489055 
-0.346706 0.489055 13.4635 
11.0775 -0.235694 -0.132179 
-0.235694 10.3792 0.0918228 
-0.132179 0.0918228 12.28 
11.41 -0.271504 0.165253 
-0.271504 10.6944 0.271633 
0.165253 0.271633 11.6323 
11.2221 -0.260783 0.204288 
-0.260783 10.5361 -0.120981 
0.204288 -0.120981 11.9784 
9.91242 -0.146807 0.0202333 
-0.146807 10.0279 0.0504138 
0.0202333 0.0504138 10.1135 
10.0964 -0.11665 -0.0595162 
-0.11665 9.70299 0.13543 
-0.0595162 0.13543 10.2543 
10.0012 -0.0447655 -0.0583298 
-0.0447655 9.76988 0.106313 
-0.0583298 0.106313 10.2826 
10.1176 0.0967147 -0.12575 
0.0967147 9.76864 0.0187791 
-0.12575 0.0187791 10.1675 
9.8212 -0.206251 -0.210293 
-0.206251 10.3031 0.0279971 
-0.210293 0.0279971 9.81929 
10.1572 0.0317686 -0.0844401 
0.0317686 9.62472 0.539925 
-0.0844401 0.539925 10.1617 
10.1131 0.237776 -0.0604479 
0.237776 9.45539 0.2557 
-0.0604479 0.2557 10.3751 
9.95278 0.0279628 -0.0435109 
0.0279628 9.47708 0.264145 
-0.0435109 0.264145 10.5138 
9.84041 -0.0947241 -0.165525 
-0.0947241 9.88628 -0.42512 
-0.165525 -0.42512 9.49714 
9.80562 -0.123886 -0.227954 
-0.123886 9.80754 -0.251567 
-0.227954 -0.251567 9.61066 
9.78267 -0.0655089 -0.178181 
-0.0655089 9.76689 -0.342969 
-0.178181 -0.342969 9.67427 
9.7804 -0.0464743 -0.20227 
-0.0464743 9.86354 -0.375169 
-0.20227 -0.375169 9.57989 
10.5179 0.142197 0.0806437 
0.142197 10.5891 0.0155241 
0.0806437 0.0155241 10.6576 
10.3781 0.00507216 0.0223371 
0.00507216 10.3348 0.0571041 
0.0223371 0.0571041 11.0517 
10.6674 -0.105608 0.029937 
-0.105608 10.9403 -0.164629 
0.029937 -0.164629 10.157 
10.7033 0.0819813 0.5214 
0.0819813 10.4868 -0.0728833 
0.5214 -0.0728833 10.5746 
10.4188 0.0158476 0.0138405 
0.0158476 10.6273 -0.0260579 
0.0138405 -0.0260579 10.6001 
10.4321 -0.0177582 0.0272805 
-0.0177582 10.5553 -0.0126466 
0.0272805 -0.0126466 10.6588 
10.4432 0.035893 -0.00293195 
0.035893 10.5318 -0.0617287 
-0.00293195 -0.0617287 10.6712 
10.4791 0.0621606 0.0463777 
0.0621606 10.5639 0.0582494 
0.0463777 0.0582494 10.6032 
9.93496 -0.00125917 0.0339149 
-0.00125917 9.93616 -0.071221 
0.0339149 -0.071221 9.983 
9.95671 0.00724344 0.028548 
0.00724344 9.96442 -0.0794514 
0.028548 -0.0794514 9.93299 
9.94419 -0.00317194 0.0297636 
-0.00317194 9.95805 -0.0678316 
0.0297636 -0.0678316 9.95187 
9.94713 0.00408114 0.0316879 
0.00408114 9.96242 -0.0611327 
0.0316879 -0.0611327 9.94457 
9.94403 0.0024341 0.0340427 
0.0024341 9.94428 0.0521345 
0.0340427 0.0521345 9.93922 
9.93389 0.0041635 0.0295003 
0.0041635 9.94046 0.0565773 
0.0295003 0.0565773 9.95318 
9.94252 0.00404591 0.0415763 
0.00404591 9.95131 0.0487156 
0.0415763 0.0487156 9.9337 
9.94627 -0.00111274 0.0332625 
-0.00111274 9.94415 0.0505042 
0.0332625 0.0505042 9.93712 
9.9564 0.00295098 -0.0355964 
0.00295098 9.92991 0.0316607 
-0.0355964 0.0316607 9.89781 
9.92282 -0.00656967 -0.0577905 
-0.00656967 9.92615 0.0341224 
-0.0577905 0.0341224 9.93514 
9.9572 -0.00886173 -0.0697443 
-0.00886173 9.96775 0.0309594 
-0.0697443 0.0309594 9.85917 
9.94864 0.00512367 -0.0387801 
0.00512367 9.94026 0.0223379 
-0.0387801 0.0223379 9.89522 
9.9584 0.078796 -0.0428112 
0.078796 10.1524 -0.150833 
-0.0428112 -0.150833 9.86192 
10.0893 -0.0858112 -0.0764362 
-0.0858112 9.85107 0.0265485 
-0.0764362 0.0265485 10.0324 
9.80534 0.110345 0.0933654 
0.110345 9.91701 0.15888 
0.0933654 0.15888 10.2504 
10.0368 -0.122234 -0.0820716 
-0.122234 9.81642 -0.0831825 
-0.0820716 -0.0831825 10.1195 
9.9883 -0.00168111 0.0100258 
-0.00168111 9.98951 -0.00698759 
0.0100258 -0.00698759 9.99333 
9.98524 6.62932e-05 0.00839417 
6.62932e-05 9.98703 -0.00807736 
0.00839417 -0.00807736 9.99888 
9.986 0.000584354 0.0112059 
0.000584354 9.98317 -0.0054404 
0.0112059 -0.0054404 10.002 
9.99004 -0.00287856 0.0102601 
-0.00287856 9.98996 -0.00812558 
0.0102601 -0.00812558 9.99114 
9.87298 -0.104473 0.0627915 
-0.104473 10.203 0.147726 
0.0627915 0.147726 10.7544 
9.79292 -0.15274 0.138679 
-0.15274 10.3921 0.148113 
0.138679 0.148113 10.6455 
9.95068 -0.154142 0.104989 
-0.154142 10.2381 0.111866 
0.104989 0.111866 10.6417 
10.6903 0.0234058 0.524826 
0.0234058 9.8519 0.265989 
0.524826 0.265989 10.2883 
9.94677 -0.0505235 -0.1517 
-0.0505235 9.84388 -0.0547857 
-0.1517 -0.0547857 9.65369 
9.94764 -0.0163262 -0.140564 
-0.0163262 9.92542 -0.056713 
-0.140564 -0.056713 9.57128 
9.83999 -0.0254695 -0.127368 
-0.0254695 9.8352 -0.0948792 
-0.127368 -0.0948792 9.76915 
9.83666 -0.049133 -0.156961 
-0.049133 9.87871 0.00763868 
-0.156961 0.00763868 9.72897 
9.61399 -0.0640722 -0.121962 
-0.0640722 9.86312 -0.310396 
-0.121962 -0.310396 8.63449 
9.73326 -0.0860081 0.175409 
-0.0860081 9.69631 -0.117445 
0.175409 -0.117445 8.68204 
9.29739 0.185125 -0.00450401 
0.185125 9.93359 -0.366195 
-0.00450401 -0.366195 8.88063 
9.5442 0.0474374 -0.0109804 
0.0474374 9.6408 -0.452869 
-0.0109804 -0.452869 8.9266 
9.98904 -0.000927221 -0.00755685 
-0.000927221 9.99213 0.00835408 
-0.00755685 0.00835408 9.99529 
9.98517 0.00175783 -0.0060581 
0.00175783 9.98945 0.0110905 
-0.0060581 0.0110905 10.0018 
9.9903 0.00173323 -0.00762843 
0.00173323 9.98839 0.00848779 
-0.00762843 0.00848779 9.99778 
9.99079 -0.0022319 -0.00801311 
-0.0022319 9.99263 0.00789874 
-0.00801311 0.00789874 9.99305 
9.97971 -0.00289153 0.0344425 
-0.00289153 9.97562 -0.0429237 
0.0344425 -0.0429237 9.9805 
9.98029 -0.00134581 0.0339886 
-0.00134581 9.97804 -0.0424753 
0.0339886 -0.0424753 9.9775 
9.97271 -0.00524605 0.0324662 
-0.00524605 9.97974 -0.043763 
0.0324662 -0.043763 9.98339 
9.97621 -0.00525547 0.0310651 
-0.00525547 9.98429 -0.0384057 
0.0310651 -0.0384057 9.97533 
9.91352 0.0399801 0.0303597 
0.0399801 9.89255 -0.0229648 
0.0303597 -0.0229648 10.0064 
9.92979 0.000675513 0.0187283 
0.000675513 9.88526 -0.0205941 
0.0187283 -0.0205941 9.99741 
9.90756 0.0201036 0.0191521 
0.0201036 9.917 -0.0152845 
0.0191521 -0.0152845 9.9879 
9.95404 -0.0211705 0.0321745 
-0.0211705 9.88175 -0.044415 
0.0321745 -0.044415 9.97667 
9.94192 0.000234932 -0.0116809 
0.000234932 9.9323 0.0850538 
-0.0116809 0.0850538 9.9224 
9.93714 0.00790989 -0.0168419 
0.00790989 9.94159 0.0787777 
-0.0168419 0.0787777 9.91789 
9.9449 -0.00180516 -0.0127482 
-0.00180516 9.92665 0.0808899 
-0.0127482 0.0808899 9.92507 
9.93484 0.00544248 -0.00574855 
0.00544248 9.93121 0.0779046 
-0.00574855 0.0779046 9.93057 
9.87277 -0.0290942 0.0608255 
-0.0290942 9.95219 0.0306292 
0.0608255 0.0306292 9.85148 
9.97863 0.0784477 0.0206965 
0.0784477 10.1814 0.128662 
0.0206965 0.128662 9.51641 
9.94875 0.0211231 0.00856281 
0.0211231 10.1433 0.0287015 
0.00856281 0.0287015 9.58442 
9.98023 0.0142305 -0.0379765 
0.0142305 10.2228 -0.0770297 
-0.0379765 -0.0770297 9.47342 
9.91264 2.77292e-05 -0.0427554 
2.77292e-05 9.90345 0.0595858 
-0.0427554 0.0595858 9.96168 
9.91322 -0.000355368 -0.0442704 
-0.000355368 9.90886 0.0508912 
-0.0442704 0.0508912 9.95568 
9.91749 0.00467828 -0.0486145 
0.00467828 9.90964 0.0491895 
-0.0486145 0.0491895 9.95064 
9.92554 -0.00315509 -0.0492507 
-0.00315509 9.89829 0.0419404 
-0.0492507 0.0419404 9.95394 
9.98478 0.0381449 -0.132769 
0.0381449 10.0683 0.112956 
-0.132769 0.112956 9.50368 
9.87956 0.0501367 0.00371904 
0.0501367 9.93237 0.11446 
0.00371904 0.11446 9.74486 
9.90614 0.0797496 -0.0392414 
0.0797496 9.93956 0.073739 
-0.0392414 0.073739 9.71109 
9.86028 -0.0688143 0.0673758 
-0.0688143 9.90088 -0.0886054 
0.0673758 -0.0886054 9.79563 
9.93273 -0.0184771 0.0433922 
-0.0184771 9.90413 0.0759973 
0.0433922 0.0759973 9.93731 
9.91666 0.000182574 0.0305246 
0.000182574 9.94307 0.0633888 
0.0305246 0.0633888 9.91445 
9.9162 0.00722207 0.0310061 
0.00722207 9.93755 0.060525 
0.0310061 0.060525 9.92042 
9.91302 -0.0129898 0.0392247 
-0.0129898 9.91646 0.0453133 
0.0392247 0.0453133 9.94469 
9.86229 -0.0331732 -0.0213022 
-0.0331732 9.88928 0.014861 
-0.0213022 0.014861 10.1629 
9.90416 0.0071793 -0.0208311 
0.0071793 9.89369 0.0316961 
-0.0208311 0.0316961 10.1167 
9.87355 -0.029677 -0.0328758 
-0.029677 9.86943 0.0371182 
-0.0328758 0.0371182 10.1715 
9.90768 -0.0260579 -0.00199576 
-0.0260579 9.90061 0.0215846 
-0.00199576 0.0215846 10.1062 
9.98469 -0.00115636 -0.0412654 
-0.00115636 9.98317 0.0599418 
-0.0412654 0.0599418 9.98967 
9.97931 -0.00297283 -0.036654 
-0.00297283 9.98306 0.0542233 
-0.036654 0.0542233 9.99515 
9.98491 0.00291684 -0.0366595 
0.00291684 9.98377 0.0584311 
-0.0366595 0.0584311 9.98884 
9.98516 0.000315795 -0.0438076 
0.000315795 9.98861 0.0631877 
-0.0438076 0.0631877 9.98375 
9.95919 0.00298859 -0.0808078 
0.00298859 9.95608 0.0118963 
-0.0808078 0.0118963 9.9662 
9.95938 0.00274316 -0.0797 
0.00274316 9.95932 0.0100147 
-0.0797 0.0100147 9.96277 
9.9702 0.00321199 -0.0818219 
0.00321199 9.95601 0.0105473 
-0.0818219 0.0105473 9.95526 
9.95862 0.00354599 -0.0749506 
0.00354599 9.95976 0.00949483 
-0.0749506 0.00949483 9.96308 
9.97343 -0.00182218 0.00588389 
-0.00182218 9.98365 -0.0098018 
0.00588389 -0.0098018 10.0017 
9.97786 0.0155813 0.0257191 
0.0155813 9.98445 -0.022063 
0.0257191 -0.022063 9.99647 
9.96152 -0.00368336 -0.00369873 
-0.00368336 9.95317 -0.0228943 
-0.00369873 -0.0228943 10.0441 
9.9869 -0.0120811 0.0174178 
-0.0120811 9.94238 -0.0268292 
0.0174178 -0.0268292 10.0295 
9.97558 -0.000155525 -0.0388633 
-0.000155525 9.97961 0.0335985 
-0.0388633 0.0335985 9.98305 
9.97955 -0.00450135 -0.0373589 
-0.00450135 9.98093 0.0288042 
-0.0373589 0.0288042 9.97774 
9.975 -0.00624466 -0.0383998 
-0.00624466 9.9785 0.0291483 
-0.0383998 0.0291483 9.98473 
9.98078 -0.0033919 -0.0400008 
-0.0033919 9.97892 0.0359269 
-0.0400008 0.0359269 9.97852 
9.92455 0.0113877 0.0522204 
0.0113877 9.93289 -0.0438739 
0.0522204 -0.0438739 9.94453 
9.92488 0.00590253 0.0570406 
0.00590253 9.9301 -0.0448656 
0.0570406 -0.0448656 9.94699 
9.94455 -0.0094818 0.0548808 
-0.0094818 9.92302 -0.044088 
0.0548808 -0.044088 9.9344 
9.91943 -0.00920844 0.0529321 
-0.00920844 9.93547 -0.0418579 
0.0529321 -0.0418579 9.94707 
9.84655 -0.110353 -0.0817529 
-0.110353 10.0707 -0.0590792 
-0.0817529 -0.0590792 10.291 
9.94767 0.0855875 -0.0176848 
0.0855875 10.051 -0.0239238 
-0.0176848 -0.0239238 10.2097 
10.1953 -0.117785 -0.00191764 
-0.117785 10.1977 -0.0310761 
-0.00191764 -0.0310761 9.8153 
9.97586 -0.129837 -0.228982 
-0.129837 10.0832 0.224066 
-0.228982 0.224066 10.1492 
9.90725 0.00743085 -0.0392797 
0.00743085 9.88906 0.0486674 
-0.0392797 0.0486674 9.94644 
9.90204 0.00781324 -0.0477518 
0.00781324 9.89678 0.0460929 
-0.0477518 0.0460929 9.94392 
9.9092 0.00765375 -0.0477148 
0.00765375 9.89199 0.0388154 
-0.0477148 0.0388154 9.94154 
9.89652 0.00628007 -0.044293 
0.00628007 9.89605 0.0412821 
-0.044293 0.0412821 9.95017 
10.0129 0.0388762 -0.0536127 
0.0388762 9.94748 0.0337456 
-0.0536127 0.0337456 9.86178 
9.89765 -0.0215724 -0.0355579 
-0.0215724 9.94634 0.0150825 
-0.0355579 0.0150825 9.97822 
9.9663 0.0260044 -0.0756106 
0.0260044 9.94298 0.00775542 
-0.0756106 0.00775542 9.91293 
10.0044 0.0044204 -0.140778 
0.0044204 9.95897 -0.0489226 
-0.140778 -0.0489226 9.85883 
9.1629 0.770401 -0.727176 
0.770401 10.1364 0.977018 
-0.727176 0.977018 10.7914 
10.0855 0.466534 -0.874373 
0.466534 10.5053 0.0607545 
-0.874373 0.0607545 9.49994 
10.3887 0.328927 -0.702109 
0.328927 9.43984 0.253425 
-0.702109 0.253425 10.2622 
9.06753 -0.493934 0.831339 
-0.493934 9.91148 0.227951 
0.831339 0.227951 11.1117 
10.1511 -0.00608831 0.0377631 
-0.00608831 10.1661 0.00688862 
0.0377631 0.00688862 10.1604 
10.106 -0.000186958 -0.000845071 
-0.000186958 10.1283 0.00385014 
-0.000845071 0.00385014 10.2434 
10.2263 -0.0240733 0.0469096 
-0.0240733 10.1589 0.0145142 
0.0469096 0.0145142 10.0925 
10.1028 -0.00953685 0.0813353 
-0.00953685 10.1809 -0.0205379 
0.0813353 -0.0205379 10.1939 
9.8306 0.00799192 0.176241 
0.00799192 10.0514 -0.04433 
0.176241 -0.04433 9.92602 
9.86172 -0.0600967 0.00827927 
-0.0600967 9.95033 0.0125881 
0.00827927 0.0125881 9.99602 
9.78935 -0.0571104 0.0233825 
-0.0571104 9.99659 0.00407394 
0.0233825 0.00407394 10.0221 
9.87079 -0.080266 0.0348359 
-0.080266 9.89632 0.0116286 
0.0348359 0.0116286 10.0409 
10.06 -0.00774902 0.0938375 
-0.00774902 10.6448 -0.235094 
0.0938375 -0.235094 11.3828 
8.75581 -0.204611 0.0239179 
-0.204611 11.0727 -0.460241 
0.0239179 -0.460241 12.2591 
10.6121 0.726305 0.757505 
0.726305 11.6224 0.452222 
0.757505 0.452222 9.85302 
9.9325 0.255884 0.122736 
0.255884 10.7527 0.319681 
0.122736 0.319681 11.4024 
11.3889 1.4719 -2.9273 
1.4719 14.2625 1.00763 
-2.9273 1.00763 8.08906 
1.55902 1.83033 4.25376 
1.83033 7.13959 -0.991729 
4.25376 -0.991729 25.0418 
6.8954 -0.129922 1.67378 
-0.129922 11.2947 -0.642219 
1.67378 -0.642219 15.5503 
13.7069 -0.81228 3.85978 
-0.81228 10.3816 -1.31361 
3.85978 -1.31361 9.65189 
9.98484 -0.00103702 0.0185293 
-0.00103702 9.96878 -0.0550489 
0.0185293 -0.0550489 9.98637 
9.99062 0.00303871 0.0335453 
0.00303871 9.97796 -0.0646139 
0.0335453 -0.0646139 9.97141 
9.98014 -0.000603737 0.0295984 
-0.000603737 9.98191 -0.0598854 
0.0295984 -0.0598854 9.97794 
9.97913 0.0011415 0.0267092 
0.0011415 9.98319 -0.0572445 
0.0267092 -0.0572445 9.97768 
10.1056 -0.0546251 0.0411993 
-0.0546251 10.0201 -0.0194498 
0.0411993 -0.0194498 10.2486 
10.0732 -0.0289811 0.00535345 
-0.0289811 10.047 -0.0449685 
0.00535345 -0.0449685 10.2541 
10.1413 -0.0561714 0.0155234 
-0.0561714 9.94759 0.0162279 
0.0155234 0.0162279 10.2854 
10.1167 -0.0608021 0.000199365 
-0.0608021 10.0315 -0.0344199 
0.000199365 -0.0344199 10.2261 
9.95188 -0.0034184 -0.00691052 
-0.0034184 9.95812 0.0356055 
-0.00691052 0.0356055 9.92765 
9.94509 -0.00165222 -0.00193361 
-0.00165222 9.96163 0.0398527 
-0.00193361 0.0398527 9.93093 
9.94826 -0.00183871 -0.0196045 
-0.00183871 9.96253 0.0325241 
-0.0196045 0.0325241 9.92685 
9.96718 0.0283743 -0.0068083 
0.0283743 9.95913 0.0401269 
-0.0068083 0.0401269 9.91133 
9.94442 -0.0100031 -0.00550093 
-0.0100031 9.92514 -0.0054805 
-0.00550093 -0.0054805 9.91261 
9.93265 -0.0119556 -0.0156089 
-0.0119556 9.93512 -0.0162581 
-0.0156089 -0.0162581 9.9144 
9.9267 -0.0105604 -0.0161611 
-0.0105604 9.93656 -0.0112709 
-0.0161611 -0.0112709 9.9189 
9.9457 -0.00985853 -0.01622 
-0.00985853 9.93196 -0.00487295 
-0.01622 -0.00487295 9.90451 
10.1664 0.251136 0.0605583 
0.251136 9.90269 0.0326577 
0.0605583 0.0326577 10.4819 
9.97899 0.200887 0.0796354 
0.200887 10.1093 0.0567714 
0.0796354 0.0567714 10.4627 
10.0699 0.221302 -0.0198803 
0.221302 10.0032 0.0785745 
-0.0198803 0.0785745 10.4779 
10.0828 0.268672 -0.0138732 
0.268672 10.0668 0.098968 
-0.0138732 0.098968 10.4014 
9.66147 0.0384202 0.0238103 
0.0384202 9.43223 -0.242614 
0.0238103 -0.242614 11.3691 
10.4307 0.036845 -0.101774 
0.036845 10.2471 0.126087 
-0.101774 0.126087 9.78504 
10.3317 -0.0195217 0.0243996 
-0.0195217 10.1999 0.150313 
0.0243996 0.150313 9.93121 
10.5104 0.130341 -0.0709314 
0.130341 9.62159 0.943785 
-0.0709314 0.943785 10.3308 
9.89318 0.0171441 -0.00845462 
0.0171441 9.90203 -0.0368684 
-0.00845462 -0.0368684 10.0392 
9.89747 0.00748838 -0.0234129 
0.00748838 9.89007 -0.0331773 
-0.0234129 -0.0331773 10.0469 
9.88617 0.00352092 -0.00326162 
0.00352092 9.91614 -0.00349495 
-0.00326162 -0.00349495 10.0321 
9.90426 0.0158411 -0.0174311 
0.0158411 9.89972 -0.00505018 
-0.0174311 -0.00505018 10.0304 
9.95099 0.00195408 -0.0177786 
0.00195408 9.97709 0.0417185 
-0.0177786 0.0417185 9.9288 
9.95948 -0.000460447 -0.0118255 
-0.000460447 9.94995 0.027798 
-0.0118255 0.027798 9.94745 
9.96303 -0.00306166 -0.00801187 
-0.00306166 9.95287 0.0434874 
-0.00801187 0.0434874 9.94099 
9.95491 -0.00797786 -0.00444907 
-0.00797786 9.94913 0.024648 
-0.00444907 0.024648 9.95284 
9.98213 0.000684658 -0.042914 
0.000684658 9.98491 0.00101148 
-0.042914 0.00101148 10.0115 
9.99177 0.00336572 -0.0470158 
0.00336572 9.99435 0.00477207 
-0.0470158 0.00477207 9.99241 
9.99703 0.00114685 -0.0519219 
0.00114685 9.99584 0.00480437 
-0.0519219 0.00480437 9.98566 
9.9999 -0.000243572 -0.0475384 
-0.000243572 9.99474 0.00651498 
-0.0475384 0.00651498 9.98389 
9.95287 0.0501792 -0.013802 
0.0501792 9.92451 -0.0881063 
-0.013802 -0.0881063 9.88571 
9.95451 0.0374136 -0.0582637 
0.0374136 9.91744 -0.0704057 
-0.0582637 -0.0704057 9.89113 
9.961 0.0441502 -0.0415943 
0.0441502 9.90722 -0.0682612 
-0.0415943 -0.0682612 9.89486 
9.94229 0.00281294 -0.0633307 
0.00281294 9.91451 -0.0554374 
-0.0633307 -0.0554374 9.90628 
9.81391 -0.0536642 -0.120087 
-0.0536642 9.88206 -0.0303296 
-0.120087 -0.0303296 9.88818 
9.79386 0.0248984 -0.17857 
0.0248984 9.90779 -0.101912 
-0.17857 -0.101912 9.88251 
9.80519 -0.0543078 -0.119341 
-0.0543078 9.86366 -0.0619023 
-0.119341 -0.0619023 9.91531 
9.82375 -0.0879136 -0.130456 
-0.0879136 9.8333 -0.0584582 
-0.130456 -0.0584582 9.92711 
10.2495 -0.265492 0.085498 
-0.265492 10.2803 -0.107655 
0.085498 -0.107655 11.0863 
11.1174 0.540292 0.141753 
0.540292 10.5402 -0.00019071 
0.141753 -0.00019071 9.95848 
10.875 -0.266119 0.0593674 
-0.266119 9.24276 -0.519305 
0.0593674 -0.519305 11.4983 
10.7651 0.215678 -1.0585 
0.215678 9.84725 -0.368075 
-1.0585 -0.368075 11.0038 
9.93564 -0.0055871 -0.0529077 
-0.0055871 9.93197 0.0447975 
-0.0529077 0.0447975 9.92561 
9.93728 -0.0025649 -0.0512737 
-0.0025649 9.92736 0.0381028 
-0.0512737 0.0381028 9.92859 
9.93326 0.00256726 -0.0487066 
0.00256726 9.91988 0.0445208 
-0.0487066 0.0445208 9.94008 
9.93631 -0.00155248 -0.0477979 
-0.00155248 9.92727 0.0437969 
-0.0477979 0.0437969 9.92964 
9.90071 -0.0287913 0.0303204 
-0.0287913 9.88122 0.0800184 
0.0303204 0.0800184 9.99037 
9.90759 -0.0421803 -0.0267738 
-0.0421803 9.88634 0.0232921 
-0.0267738 0.0232921 9.97836 
9.85013 -0.0745196 -0.0503238 
-0.0745196 9.93259 0.0288528 
-0.0503238 0.0288528 9.98957 
9.90752 -0.0311286 -0.0364718 
-0.0311286 9.88454 0.023414 
-0.0364718 0.023414 9.98024 
9.92346 0.0023625 0.014335 
0.0023625 9.90654 0.00549412 
0.014335 0.00549412 10.0461 
9.92325 -0.00110123 0.0074061 
-0.00110123 9.90423 0.0164401 
0.0074061 0.0164401 10.0486 
9.9018 -0.00398511 0.010664 
-0.00398511 9.90809 -0.000289294 
0.010664 -0.000289294 10.0662 
9.90887 -0.00743496 -0.0104169 
-0.00743496 9.94976 -0.00566047 
-0.0104169 -0.00566047 10.0175 
9.99844 0.000422233 -0.0406362 
0.000422233 9.9894 -0.0229377 
-0.0406362 -0.0229377 9.99182 
9.98525 -0.00150922 -0.0395665 
-0.00150922 9.98361 -0.017447 
-0.0395665 -0.017447 10.0108 
9.99732 0.0032901 -0.0422652 
0.0032901 9.99461 -0.0261906 
-0.0422652 -0.0261906 9.98773 
9.99672 0.00177301 -0.0380923 
0.00177301 9.99857 -0.0242195 
-0.0380923 -0.0242195 9.98436 
9.82255 -0.0453832 -0.191369 
-0.0453832 10.0084 -0.0606655 
-0.191369 -0.0606655 9.45662 
9.86563 -0.0136269 0.00445818 
-0.0136269 9.6087 -0.261414 
0.00445818 -0.261414 9.81328 
9.77491 -0.363846 -0.036318 
-0.363846 10.1794 -0.301953 
-0.036318 -0.301953 9.33333 
9.79344 -0.0175086 -0.123267 
-0.0175086 9.89439 -0.219185 
-0.123267 -0.219185 9.59978 
10.0502 -0.00348598 -0.0288383 
-0.00348598 10.0563 0.0567453 
-0.0288383 0.0567453 10.2194 
10.0681 -0.0107545 -0.0180188 
-0.0107545 10.0029 -0.0412043 
-0.0180188 -0.0412043 10.255 
10.0649 0.0231038 0.00111141 
0.0231038 10.0287 -0.00827928 
0.00111141 -0.00827928 10.2323 
10.0136 0.0245253 -0.0977276 
0.0245253 10.0303 -0.0240098 
-0.0977276 -0.0240098 10.2821 
9.92659 -0.0492552 -0.311391 
-0.0492552 9.65454 0.317823 
-0.311391 0.317823 9.28006 
10.0755 0.00780158 -0.240271 
0.00780158 9.79122 0.282879 
-0.240271 0.282879 8.99448 
9.61446 0.262353 0.186697 
0.262353 9.70851 0.428814 
0.186697 0.428814 9.53822 
9.94866 0.00882298 -0.243009 
0.00882298 9.63908 0.334183 
-0.243009 0.334183 9.27344 
9.67534 0.605048 -0.963561 
0.605048 8.27407 0.623546 
-0.963561 0.623546 9.36765 
11.047 0.199102 0.196959 
0.199102 8.78955 -0.0175137 
0.196959 -0.0175137 7.4805 
10.9212 0.30883 -0.777913 
0.30883 9.33468 -0.26171 
-0.777913 -0.26171 7.06113 
10.501 0.0106454 0.383448 
0.0106454 10.0746 -0.091698 
0.383448 -0.091698 6.74145 
9.74414 -0.296761 0.129844 
-0.296761 9.67946 0.196508 
0.129844 0.196508 9.73748 
9.92829 0.0174444 -0.1244 
0.0174444 9.78086 0.372743 
-0.1244 0.372743 9.45192 
9.84438 0.00401292 -0.164487 
0.00401292 9.70508 0.235982 
-0.164487 0.235982 9.61161 
9.87066 -0.0725981 -0.0911571 
-0.0725981 9.77272 0.297273 
-0.0911571 0.297273 9.51769 
9.9697 -0.00456534 0.0109003 
-0.00456534 9.95688 -0.0235185 
0.0109003 -0.0235185 9.92237 
9.95481 -0.00704129 0.0216094 
-0.00704129 9.95022 -0.0139109 
0.0216094 -0.0139109 9.94393 
9.95889 -0.00821216 0.0188429 
-0.00821216 9.94859 -0.00574021 
0.0188429 -0.00574021 9.94148 
9.94256 0.00289027 0.039098 
0.00289027 9.94149 -0.0225489 
0.039098 -0.0225489 9.96491 
10.1507 0.0582538 -0.381416 
0.0582538 10.1067 0.0936409 
-0.381416 0.0936409 9.6082 
10.0667 -0.0840213 -0.184722 
-0.0840213 10.1005 0.0765321 
-0.184722 0.0765321 9.69838 
10.0534 -0.127045 -0.133936 
-0.127045 9.94694 0.109099 
-0.133936 0.109099 9.86525 
10.2426 -0.174696 -0.140276 
-0.174696 10.0294 -0.00831585 
-0.140276 -0.00831585 9.59364 
9.97022 -7.92368e-05 -0.0306673 
-7.92368e-05 9.97242 -0.0671149 
-0.0306673 -0.0671149 9.97674 
9.9725 -0.00378176 -0.032881 
-0.00378176 9.97429 -0.0722047 
-0.032881 -0.0722047 9.9726 
9.97405 -0.00181692 -0.0299542 
-0.00181692 9.97699 -0.0655542 
-0.0299542 -0.0655542 9.96835 
9.97185 -0.00605641 -0.0357404 
-0.00605641 9.98212 -0.0672628 
-0.0357404 -0.0672628 9.96542 
10.0563 -0.0340465 -0.0164695 
-0.0340465 10.0449 0.00406068 
-0.0164695 0.00406068 10.2847 
10.0879 0.0485457 0.000958604 
0.0485457 10.1473 0.0203296 
0.000958604 0.0203296 10.1507 
10.1936 -0.0331333 0.0219961 
-0.0331333 10.0688 0.0244822 
0.0219961 0.0244822 10.1235 
10.1438 -0.0366014 0.0319342 
-0.0366014 10.1112 0.0772851 
0.0319342 0.0772851 10.1308 
8.86624 1.20693 1.17817 
1.20693 9.25341 -0.40867 
1.17817 -0.40867 5.03776 
10.1943 0.39955 1.35638 
0.39955 6.76154 0.407694 
1.35638 0.407694 6.20157 
9.29333 0.980371 0.779995 
0.980371 9.16538 -0.88688 
0.779995 -0.88688 4.6987 
9.96863 1.12683 0.120704 
1.12683 7.55926 -1.08005 
0.120704 -1.08005 5.62952 
10.1727 -0.135918 0.0342685 
-0.135918 9.61401 0.290275 
0.0342685 0.290275 10.3636 
9.96778 0.126533 0.189134 
0.126533 9.67426 0.130561 
0.189134 0.130561 10.5083 
9.99051 -0.0452809 -0.0191557 
-0.0452809 9.6226 0.0389695 
-0.0191557 0.0389695 10.5372 
9.7339 0.0799307 0.0364391 
0.0799307 10.4379 0.464629 
0.0364391 0.464629 9.97856 
9.99532 0.00309181 -0.05708 
0.00309181 9.99162 0.0259304 
-0.05708 0.0259304 9.9933 
9.98797 0.000526078 -0.0553117 
0.000526078 9.98796 0.0246884 
-0.0553117 0.0246884 10.0043 
9.99392 0.00182418 -0.0570535 
0.00182418 9.99303 0.0256933 
-0.0570535 0.0256933 9.99328 
9.99658 0.00109978 -0.0591836 
0.00109978 9.99354 0.0255855 
-0.0591836 0.0255855 9.99011 
9.93089 -0.00179168 0.0251316 
-0.00179168 9.92541 0.0773105 
0.0251316 0.0773105 9.9293 
9.92903 -0.00870129 0.0151863 
-0.00870129 9.9301 0.0797582 
0.0151863 0.0797582 9.92647 
9.93591 -7.23329e-05 0.00584236 
-7.23329e-05 9.92224 0.0769678 
0.00584236 0.0769678 9.92746 
9.93003 0.0108872 0.0391008 
0.0108872 9.93282 0.0755023 
0.0391008 0.0755023 9.92275 
9.91195 -0.00804004 0.0237141 
-0.00804004 9.91345 0.0771655 
0.0237141 0.0771655 9.90692 
9.90697 -0.0132842 0.0308442 
-0.0132842 9.90302 0.0780801 
0.0308442 0.0780801 9.92232 
9.90246 0.00275521 0.0271778 
0.00275521 9.92336 0.0764233 
0.0271778 0.0764233 9.90649 
9.90334 -0.00472343 0.0207272 
-0.00472343 9.90942 0.071255 
0.0207272 0.071255 9.91954 
10.1561 -0.0139312 0.079303 
-0.0139312 10.1509 -0.00831997 
0.079303 -0.00831997 10.4112 
10.2825 0.0262777 0.00230768 
0.0262777 10.1872 -0.0795851 
0.00230768 -0.0795851 10.2485 
10.3502 -0.0019979 -0.0376839 
-0.0019979 10.2766 -0.0889852 
-0.0376839 -0.0889852 10.0914 
10.2664 -0.0853712 0.0641065 
-0.0853712 10.0933 -0.219022 
0.0641065 -0.219022 10.3584 
9.94392 -4.57098e-05 -0.00224579 
-4.57098e-05 9.91946 0.0850262 
-0.00224579 0.0850262 9.95622 
9.9457 0.00328293 -0.00898138 
0.00328293 9.93399 0.0791025 
-0.00898138 0.0791025 9.93992 
9.93915 0.00120689 -0.00395168 
0.00120689 9.9645 0.0880553 
-0.00395168 0.0880553 9.91596 
9.94464 -0.00464664 -0.0134003 
-0.00464664 9.94178 0.0642558 
-0.0134003 0.0642558 9.93319 
9.95378 0.149546 0.0348707 
0.149546 9.46066 0.227258 
0.0348707 0.227258 10.1245 
10.1059 -0.00327221 0.0407901 
-0.00327221 9.84299 0.267351 
0.0407901 0.267351 9.59008 
9.92474 0.129618 -0.0874969 
0.129618 9.43159 0.327659 
-0.0874969 0.327659 10.1826 
9.88406 0.134089 0.092748 
0.134089 9.76252 0.309066 
0.092748 0.309066 9.8924 
9.85721 -0.0343921 -0.0906375 
-0.0343921 9.91224 -0.0183246 
-0.0906375 -0.0183246 10.0259 
9.91898 0.00611063 -0.0656122 
0.00611063 9.87681 0.00250339 
-0.0656122 0.00250339 9.99954 
9.88485 -0.0229041 -0.0721837 
-0.0229041 9.9279 -0.0134518 
-0.0721837 -0.0134518 9.98258 
9.94241 0.0582533 -0.145709 
0.0582533 9.87621 -0.0326173 
-0.145709 -0.0326173 9.97671 
6.58915 -0.207165 -1.37168 
-0.207165 10.4145 3.15914 
-1.37168 3.15914 9.6524 
11.3638 1.84216 -2.35159 
1.84216 7.84781 3.38751 
-2.35159 3.38751 7.44437 
10.9298 0.538647 -0.112664 
0.538647 6.81838 0.400715 
-0.112664 0.400715 8.90785 
7.74682 -0.233329 -0.566556 
-0.233329 12.0755 0.368364 
-0.566556 0.368364 6.83374 
9.95228 -0.00403667 -0.00079767 
-0.00403667 9.94222 0.0363814 
-0.00079767 0.0363814 9.96192 
9.92833 -0.00623867 -0.00550628 
-0.00623867 9.93127 0.0209323 
-0.00550628 0.0209323 9.99681 
9.93399 -0.00230435 0.00413477 
-0.00230435 9.94315 0.00559623 
0.00413477 0.00559623 9.97928 
9.9423 -0.0117006 -0.00205196 
-0.0117006 9.92779 0.0206065 
-0.00205196 0.0206065 9.98633 
9.86494 0.00477065 0.0310513 
0.00477065 9.91039 0.0107599 
0.0310513 0.0107599 9.9742 
9.86591 -0.00992805 0.0420085 
-0.00992805 9.86096 0.0285653 
0.0420085 0.0285653 10.0227 
9.88552 -0.0419253 0.00822033 
-0.0419253 9.9272 0.0130555 
0.00822033 0.0130555 9.9368 
9.94468 -0.0186401 0.0672732 
-0.0186401 9.91162 0.0550985 
0.0672732 0.0550985 9.89323 
9.96963 -0.000421821 0.0225523 
-0.000421821 9.96661 0.00412255 
0.0225523 0.00412255 9.95703 
9.97164 -0.000508574 0.0235014 
-0.000508574 9.96853 0.00450841 
0.0235014 0.00450841 9.95309 
9.97119 -0.000694267 0.0219974 
-0.000694267 9.96878 0.00211478 
0.0219974 0.00211478 9.9533 
9.97285 -0.000719795 0.0205398 
-0.000719795 9.97057 0.00352595 
0.0205398 0.00352595 9.94984 
9.96572 -0.000803071 -0.0372035 
-0.000803071 9.9763 0.0635883 
-0.0372035 0.0635883 9.9716 
9.96671 0.0006263 -0.0450413 
0.0006263 9.97393 0.0558013 
-0.0450413 0.0558013 9.97298 
9.9667 0.00152035 -0.0455664 
0.00152035 9.97352 0.0563312 
-0.0455664 0.0563312 9.9734 
9.96641 0.00365619 -0.0338357 
0.00365619 9.97239 0.0598632 
-0.0338357 0.0598632 9.97481 
9.95404 -9.34821e-05 -0.00937928 
-9.34821e-05 9.94919 0.00042953 
-0.00937928 0.00042953 9.99392 
9.95087 -0.00367831 -8.04378e-05 
-0.00367831 9.95072 0.00047962 
-8.04378e-05 0.00047962 9.99556 
9.95347 -0.00385749 -0.00269045 
-0.00385749 9.95103 0.00341775 
-0.00269045 0.00341775 9.99264 
9.95867 -0.00484462 -0.00243053 
-0.00484462 9.9513 0.00293616 
-0.00243053 0.00293616 9.98718 
9.99255 0.0023065 0.0493855 
0.0023065 9.99235 0.032332 
0.0493855 0.032332 9.996 
9.99511 0.00352097 0.049244 
0.00352097 9.99332 0.0291784 
0.049244 0.0291784 9.99247 
9.99026 0.00175173 0.0477128 
0.00175173 9.98722 0.0323262 
0.0477128 0.0323262 10.0034 
9.99704 0.00343748 0.0530139 
0.00343748 9.9918 0.029459 
0.0530139 0.029459 9.99206 
9.99938 -0.0124695 0.0108969 
-0.0124695 10.0192 0.00617076 
0.0108969 0.00617076 10.0121 
10.0041 0.00645302 0.0133172 
0.00645302 10.0035 -0.0080779 
0.0133172 -0.0080779 10.023 
10.0031 -0.0116086 -0.000467034 
-0.0116086 10.0145 0.0189919 
-0.000467034 0.0189919 10.0131 
10 -0.030645 0.0138042 
-0.030645 10.0361 -0.00650518 
0.0138042 -0.00650518 9.99449 
9.86719 -0.104214 -0.162529 
-0.104214 9.82074 -0.0510889 
-0.162529 -0.0510889 10.0716 
9.9589 -0.0856636 -0.112641 
-0.0856636 9.92774 -0.0198973 
-0.112641 -0.0198973 9.87288 
9.684 0.0399772 -0.224552 
0.0399772 10.0747 -0.200716 
-0.224552 -0.200716 10.0008 
9.89307 0.0846204 -0.0236672 
0.0846204 9.92779 -0.0936734 
-0.0236672 -0.0936734 9.93866 
9.91721 0.00282853 -0.00226106 
0.00282853 9.921 0.0903001 
-0.00226106 0.0903001 9.90831 
9.91486 -0.00531728 -0.00348486 
-0.00531728 9.93336 0.0803705 
-0.00348486 0.0803705 9.8983 
9.92658 -0.00322569 -0.00253106 
-0.00322569 9.90113 0.0851438 
-0.00253106 0.0851438 9.91882 
9.9297 -0.00104493 0.00122822 
-0.00104493 9.92381 0.0811955 
0.00122822 0.0811955 9.89302 
9.9805 0.00348189 -0.0448475 
0.00348189 9.97875 0.0190646 
-0.0448475 0.0190646 9.97404 
9.98802 -0.00670859 -0.0406291 
-0.00670859 9.96251 0.0177527 
-0.0406291 0.0177527 9.98277 
9.9855 -0.00182595 -0.0420912 
-0.00182595 9.97525 0.0178934 
-0.0420912 0.0178934 9.97255 
9.98708 -0.00219111 -0.0516891 
-0.00219111 9.97897 0.0161573 
-0.0516891 0.0161573 9.96725 
9.96433 0.00278348 -0.00639818 
0.00278348 9.96597 -0.00059117 
-0.00639818 -0.00059117 9.98257 
9.97044 0.00595529 -0.0015048 
0.00595529 9.96749 -0.0003736 
-0.0015048 -0.0003736 9.97494 
9.96806 -0.000935374 -0.011473 
-0.000935374 9.96918 -0.00260071 
-0.011473 -0.00260071 9.97563 
9.97004 0.00741072 0.00526344 
0.00741072 9.97247 -0.0113096 
0.00526344 -0.0113096 9.97037 
9.92946 -0.0133102 -0.124581 
-0.0133102 9.92994 -0.0228668 
-0.124581 -0.0228668 9.93772 
9.91265 -0.0297595 -0.125513 
-0.0297595 9.90158 -0.0382998 
-0.125513 -0.0382998 9.98288 
9.8847 -0.0527319 -0.0572867 
-0.0527319 9.94838 0.0291823 
-0.0572867 0.0291823 9.96404 
9.93214 -0.0147842 -0.12559 
-0.0147842 9.94546 -0.0406638 
-0.12559 -0.0406638 9.91952 
9.94267 -0.00107142 -0.0497218 
-0.00107142 9.93382 0.0493994 
-0.0497218 0.0493994 9.95221 
9.93472 0.00217679 -0.0583049 
0.00217679 9.9382 0.0414413 
-0.0583049 0.0414413 9.95578 
9.93784 -0.00196046 -0.0571273 
-0.00196046 9.93676 0.043133 
-0.0571273 0.043133 9.9541 
9.93959 -0.00363021 -0.0523707 
-0.00363021 9.93601 0.0404434 
-0.0523707 0.0404434 9.9531 
9.93556 -0.0027611 0.00493175 
-0.0027611 9.92539 0.0803789 
0.00493175 0.0803789 9.94082 
9.93243 -0.00389499 -0.0208016 
-0.00389499 9.93885 0.0862776 
-0.0208016 0.0862776 9.93049 
9.93663 -0.00400542 -0.014059 
-0.00400542 9.936 0.0699998 
-0.014059 0.0699998 9.92913 
9.9307 0.0028696 -0.00215312 
0.0028696 9.93773 0.0721341 
-0.00215312 0.0721341 9.93334 
9.98306 0.00195216 0.0116998 
0.00195216 9.97697 0.00199412 
0.0116998 0.00199412 9.99341 
9.97898 0.000755129 0.00901767 
0.000755129 9.98572 -0.00197314 
0.00901767 -0.00197314 9.98874 
9.98993 -0.00202327 0.00575235 
-0.00202327 9.97606 -0.00591277 
0.00575235 -0.00591277 9.98745 
9.97832 0.00101636 0.00633411 
0.00101636 9.98412 -0.0024727 
0.00633411 -0.0024727 9.991 
9.96898 -0.00639194 -0.00263749 
-0.00639194 9.90131 0.0473335 
-0.00263749 0.0473335 10.1747 
9.98087 0.0200392 0.0055125 
0.0200392 9.87776 0.0133138 
0.0055125 0.0133138 10.1864 
9.92504 0.0544365 -0.0305019 
0.0544365 9.91943 0.0348693 
-0.0305019 0.0348693 10.2005 
9.96218 0.0226057 -0.0232761 
0.0226057 9.90175 0.0216432 
-0.0232761 0.0216432 10.1811 
9.97955 0.00247434 -0.0471218 
0.00247434 9.97789 -0.029306 
-0.0471218 -0.029306 9.98317 
9.97847 -0.000729834 -0.0473419 
-0.000729834 9.98201 -0.0271168 
-0.0473419 -0.0271168 9.98014 
9.98791 0.00578832 -0.0418886 
0.00578832 9.97948 -0.0265743 
-0.0418886 -0.0265743 9.97322 
9.97836 -0.00180795 -0.045872 
-0.00180795 9.98242 -0.0286102 
-0.045872 -0.0286102 9.97983 
9.97764 0.0406358 0.0414747 
0.0406358 9.88338 -0.0841287 
0.0414747 -0.0841287 9.91661 
9.98272 0.00226897 -0.00698486 
0.00226897 9.85535 0.0533408 
-0.00698486 0.0533408 9.93956 
9.90992 0.034123 -0.0155762 
0.034123 9.90784 -0.0549264 
-0.0155762 -0.0549264 9.95987 
9.91471 0.0238466 -0.0191409 
0.0238466 9.82554 -0.0240835 
-0.0191409 -0.0240835 10.0374 
9.93348 -0.00100417 -0.0235406 
-0.00100417 9.94427 -0.0605434 
-0.0235406 -0.0605434 9.88853 
9.93483 -0.00619587 -0.0513021 
-0.00619587 9.93142 -0.051532 
-0.0513021 -0.051532 9.90003 
9.9395 -0.00411763 -0.0306235 
-0.00411763 9.95144 -0.0410468 
-0.0306235 -0.0410468 9.87535 
9.92189 -0.00548669 -0.0426382 
-0.00548669 9.95906 -0.0331988 
-0.0426382 -0.0331988 9.88534 
9.81356 -0.0253779 0.0239315 
-0.0253779 9.91456 0.0395428 
0.0239315 0.0395428 9.97271 
9.87276 0.0437615 0.00257551 
0.0437615 9.80625 0.10595 
0.00257551 0.10595 10.0218 
9.94945 -0.0201663 -0.0535133 
-0.0201663 9.83055 0.0616328 
-0.0535133 0.0616328 9.92083 
9.95638 0.0509966 -0.0256448 
0.0509966 9.87639 0.136633 
-0.0256448 0.136633 9.86806 
9.99421 -0.000475013 0.0305896 
-0.000475013 9.98968 -0.0364632 
0.0305896 -0.0364632 9.99198 
9.9913 -0.00131679 0.0337647 
-0.00131679 9.98797 -0.0371082 
0.0337647 -0.0371082 9.99659 
9.99 -0.00180303 0.0290742 
-0.00180303 9.98671 -0.0349508 
0.0290742 -0.0349508 9.99915 
9.9948 -0.00105243 0.0305602 
-0.00105243 9.99218 -0.038194 
0.0305602 -0.038194 9.98888 
9.91861 0.00394814 -0.0336591 
0.00394814 9.91953 0.0701966 
-0.0336591 0.0701966 9.92112 
9.92265 0.00352369 -0.0331125 
0.00352369 9.92277 0.0718246 
-0.0331125 0.0718246 9.91384 
9.91926 0.00244823 -0.0344365 
0.00244823 9.91984 0.0741995 
-0.0344365 0.0741995 9.92016 
9.91936 0.00977312 -0.0232942 
0.00977312 9.91491 0.0687023 
-0.0232942 0.0687023 9.92498 
9.79449 -0.0185166 -0.242923 
-0.0185166 10.2691 -0.00780721 
-0.242923 -0.00780721 9.16165 
9.99137 -0.125736 -0.407541 
-0.125736 10.5562 0.50157 
-0.407541 0.50157 8.67767 
9.66005 -0.0633354 0.189839 
-0.0633354 9.9425 0.241797 
0.189839 0.241797 9.62274 
9.9717 -0.171125 -0.297878 
-0.171125 10.1694 -0.289338 
-0.297878 -0.289338 9.08421 
9.87873 0.0201584 -0.161222 
0.0201584 9.8918 0.0686076 
-0.161222 0.0686076 9.64082 
9.85996 0.0510959 -0.153987 
0.0510959 9.84569 0.0625386 
-0.153987 0.0625386 9.70569 
9.84329 0.0153058 -0.113534 
0.0153058 9.83251 0.0902094 
-0.113534 0.0902094 9.73554 
9.78892 0.0235968 -0.129679 
0.0235968 9.84787 -0.0143343 
-0.129679 -0.0143343 9.77455 
9.73705 -0.0825344 0.00997254 
-0.0825344 9.71671 -0.536046 
0.00997254 -0.536046 9.67086 
9.72318 -0.0882525 -0.0835497 
-0.0882525 9.9375 -0.505689 
-0.0835497 -0.505689 9.46394 
9.69354 0.00320951 -0.020197 
0.00320951 9.79205 -0.455997 
-0.020197 -0.455997 9.63904 
9.64486 0.316999 0.0464524 
0.316999 9.86249 -0.0949292 
0.0464524 -0.0949292 9.61728 
9.98221 0.00355548 0.0660314 
0.00355548 9.97084 -0.00213896 
0.0660314 -0.00213896 9.99005 
9.9773 -0.001941 0.0739558 
-0.001941 9.98783 0.000229627 
0.0739558 0.000229627 9.97798 
9.97837 -0.00111662 0.0772242 
-0.00111662 9.98478 0.000818616 
0.0772242 0.000818616 9.97995 
9.99159 0.00532349 0.0802448 
0.00532349 9.98151 -0.00186147 
0.0802448 -0.00186147 9.97001 
9.81694 -0.10783 -0.0996406 
-0.10783 9.99807 0.110207 
-0.0996406 0.110207 9.13657 
9.83815 0.145589 0.0956775 
0.145589 9.8036 0.0248705 
0.0956775 0.0248705 9.30984 
9.60923 0.39823 -0.45308 
0.39823 10.2535 0.114147 
-0.45308 0.114147 9.08882 
9.82325 -0.189655 -0.469688 
-0.189655 9.79273 -0.205152 
-0.469688 -0.205152 9.33561 
9.95738 -0.00232 -0.0575975 
-0.00232 9.94744 0.0262547 
-0.0575975 0.0262547 9.87909 
9.93665 -0.00395578 -0.0614934 
-0.00395578 9.92421 0.0127132 
-0.0614934 0.0127132 9.92304 
9.93063 -0.00183453 -0.0568862 
-0.00183453 9.95291 0.00237684 
-0.0568862 0.00237684 9.90037 
9.94049 0.000739524 -0.0561973 
0.000739524 9.9448 0.0118057 
-0.0561973 0.0118057 9.89862 
10.0106 -0.00541899 -0.00334787 
-0.00541899 10.0001 0.00888446 
-0.00334787 0.00888446 10.0097 
10.0063 -0.000651996 0.0111194 
-0.000651996 9.99808 -0.00352559 
0.0111194 -0.00352559 10.0161 
10.0145 -0.000601476 7.25968e-05 
-0.000601476 9.99453 0.00184094 
7.25968e-05 0.00184094 10.0114 
10.0159 -0.00922201 0.006825 
-0.00922201 9.99861 0.00711522 
0.006825 0.00711522 10.006 
9.97782 -0.0272705 0.0336509 
-0.0272705 10.0406 -0.00666048 
0.0336509 -0.00666048 10.2595 
10.0086 0.0514794 -0.0149076 
0.0514794 10.0856 0.015366 
-0.0149076 0.015366 10.1838 
10.2752 0.0347626 0.0208075 
0.0347626 10.0736 0.0243422 
0.0208075 0.0243422 9.92919 
10.0425 0.0602722 -0.146572 
0.0602722 10.1228 -0.0776937 
-0.146572 -0.0776937 10.1126 
9.95609 -0.00134077 0.0110196 
-0.00134077 9.97943 0.0820307 
0.0110196 0.0820307 9.93929 
9.95988 0.00116393 0.0148932 
0.00116393 9.9437 0.0852406 
0.0148932 0.0852406 9.97123 
9.96115 -0.000642787 0.0060633 
-0.000642787 9.9587 0.0770749 
0.0060633 0.0770749 9.95496 
9.95842 0.00127212 0.00844234 
0.00127212 9.95756 0.0634849 
0.00844234 0.0634849 9.95883 
9.88124 -0.0137329 -0.0756635 
-0.0137329 9.92229 -0.0237189 
-0.0756635 -0.0237189 10.1586 
9.75431 -0.00975033 -0.0273606 
-0.00975033 9.9666 0.027019 
-0.0273606 0.027019 10.2412 
9.92145 0.0162247 -0.000153569 
0.0162247 9.87906 0.0081681 
-0.000153569 0.0081681 10.1616 
9.87919 0.0204277 -0.079292 
0.0204277 9.91164 -0.00343672 
-0.079292 -0.00343672 10.1713 
9.99335 0.0537146 -0.0313414 
0.0537146 9.93018 0.081739 
-0.0313414 0.081739 9.83131 
9.937 0.00388365 -0.0223158 
0.00388365 9.95004 0.0625401 
-0.0223158 0.0625401 9.8678 
9.91974 -0.00630819 0.0156441 
-0.00630819 9.95489 0.0925244 
0.0156441 0.0925244 9.8802 
9.92308 0.0553772 -0.0470201 
0.0553772 9.88678 0.0190981 
-0.0470201 0.0190981 9.94498 
10.0765 -0.00852881 0.00627471 
-0.00852881 10.0654 0.0148362 
0.00627471 0.0148362 10.1622 
10.076 0.00342639 -0.00932476 
0.00342639 10.0801 -0.0163158 
-0.00932476 -0.0163158 10.148 
10.0698 -0.00433048 0.000699642 
-0.00433048 10.0485 0.00315745 
0.000699642 0.00315745 10.1858 
10.0834 0.0050745 -0.0272189 
0.0050745 10.0751 -0.0097815 
-0.0272189 -0.0097815 10.1457 
10.1873 0.0596261 -0.0261716 
0.0596261 10.0365 -0.00358441 
-0.0261716 -0.00358441 10.0418 
10.0711 -0.0173752 0.0413625 
-0.0173752 10.0368 0.013927 
0.0413625 0.013927 10.1577 
10.1016 0.0306608 -0.0158873 
0.0306608 10.1171 -0.0080229 
-0.0158873 -0.0080229 10.0468 
10.057 0.0233061 -0.0388437 
0.0233061 10.0946 0.0302753 
-0.0388437 0.0302753 10.1139 
10.121 0.013375 -0.0288791 
0.013375 10.1579 0.0402158 
-0.0288791 0.0402158 10.2129 
10.0841 -0.00220039 -0.0348553 
-0.00220039 10.1119 0.00939616 
-0.0348553 0.00939616 10.2958 
10.2146 0.01126 -0.0300306 
0.01126 10.2226 0.0124006 
-0.0300306 0.0124006 10.0547 
10.1654 0.0179005 0.0575846 
0.0179005 10.1538 0.102204 
0.0575846 0.102204 10.1726 
9.92788 0.0103911 0.0210782 
0.0103911 9.90095 -0.02211 
0.0210782 -0.02211 9.98308 
9.73826 0.104245 0.00420762 
0.104245 10.0036 -0.0934874 
0.00420762 -0.0934874 10.0701 
9.93838 0.0414456 0.141186 
0.0414456 9.88214 -0.04649 
0.141186 -0.04649 9.99139 
9.89366 0.0109118 0.131803 
0.0109118 9.94212 -0.0445844 
0.131803 -0.0445844 9.97613 
9.95882 -0.0101749 0.000877993 
-0.0101749 9.95207 0.0026735 
0.000877993 0.0026735 9.96595 
9.94873 -0.0199436 -0.0118984 
-0.0199436 9.95899 0.00397037 
-0.0118984 0.00397037 9.96912 
9.95367 -0.0266329 -0.0102582 
-0.0266329 9.96823 0.00909409 
-0.0102582 0.00909409 9.95495 
9.95562 -0.00720976 -0.00465444 
-0.00720976 9.95094 0.00983568 
-0.00465444 0.00983568 9.97028 
9.98058 0.000273656 0.0390475 
0.000273656 9.98028 0.0557179 
0.0390475 0.0557179 9.99094 
9.97925 -0.000664562 0.0416454 
-0.000664562 9.98311 0.0548632 
0.0416454 0.0548632 9.98944 
9.98302 -0.000215086 0.041945 
-0.000215086 9.98335 0.0567103 
0.041945 0.0567103 9.98543 
9.98486 0.00307239 0.04315 
0.00307239 9.98522 0.0574002 
0.04315 0.0574002 9.98172 
9.93113 -0.0196335 -0.0777934 
-0.0196335 9.81975 -0.16822 
-0.0777934 -0.16822 9.89706 
9.93893 -0.0575798 -0.129927 
-0.0575798 9.86053 -0.23219 
-0.129927 -0.23219 9.84849 
9.95583 -0.0250392 -0.0622779 
-0.0250392 9.70973 -0.143063 
-0.0622779 -0.143063 9.98238 
9.76197 -0.0181461 -0.110911 
-0.0181461 9.98714 -0.0651326 
-0.110911 -0.0651326 9.89883 
9.96742 0.000957401 -0.0496813 
0.000957401 9.9693 -0.0510425 
-0.0496813 -0.0510425 9.97758 
9.97153 0.00323586 -0.0515751 
0.00323586 9.97569 -0.0529454 
-0.0515751 -0.0529454 9.96707 
9.96766 -0.00301944 -0.0500042 
-0.00301944 9.97386 -0.0500167 
-0.0500042 -0.0500167 9.97277 
9.97024 -0.000171726 -0.0489917 
-0.000171726 9.96983 -0.052454 
-0.0489917 -0.052454 9.97423 
9.9154 0.0182836 0.00266795 
0.0182836 9.91683 -0.0342621 
0.00266795 -0.0342621 9.89603 
9.92455 0.0137479 -0.0125713 
0.0137479 9.92355 -0.0297422 
-0.0125713 -0.0297422 9.88016 
9.96742 0.0118898 -0.00281286 
0.0118898 9.90537 -0.0198838 
-0.00281286 -0.0198838 9.85547 
9.90999 0.0337968 0.00418943 
0.0337968 9.92445 -0.0341837 
0.00418943 -0.0341837 9.89382 
10.6504 -0.213007 -0.0824025 
-0.213007 10.2379 -0.110774 
-0.0824025 -0.110774 9.64927 
9.47015 0.157558 -0.0823535 
0.157558 9.71796 0.0865425 
-0.0823535 0.0865425 11.3495 
10.4483 0.10594 0.07625 
0.10594 9.92924 -0.0814876 
0.07625 -0.0814876 10.1601 
10.443 0.264595 0.796525 
0.264595 9.78748 -0.779156 
0.796525 -0.779156 10.3071 
9.9724 0.000780408 -0.0044081 
0.000780408 9.98207 -0.004662 
-0.0044081 -0.004662 9.99973 
9.9831 9.22227e-05 0.00388602 
9.22227e-05 9.97663 3.19491e-05 
0.00388602 3.19491e-05 9.99447 
9.98625 0.00103931 7.97251e-05 
0.00103931 9.97503 0.00103645 
7.97251e-05 0.00103645 9.99292 
9.97953 0.000269082 -0.000372245 
0.000269082 9.98194 -0.00484339 
-0.000372245 -0.00484339 9.99273 
9.80452 0.0848238 0.42614 
0.0848238 10.0274 -0.0977838 
0.42614 -0.0977838 9.89202 
9.76283 0.116412 0.462193 
0.116412 9.97443 -0.167836 
0.462193 -0.167836 9.98669 
9.79532 0.00736169 0.27889 
0.00736169 10.0106 -0.0713251 
0.27889 -0.0713251 9.91801 
9.94463 0.0379525 0.355961 
0.0379525 10.0959 -0.255578 
0.355961 -0.255578 9.68345 
7.05365 -2.53165 -0.508105 
-2.53165 4.64325 -1.92119 
-0.508105 -1.92119 17.7921 
8.83861 -2.80035 -1.88768 
-2.80035 2.07989 -1.44151 
-1.88768 -1.44151 18.5705 
13.1007 -1.5712 2.06522 
-1.5712 12.3593 2.98993 
2.06522 2.98993 4.02898 
10.2584 2.56349 -2.26237 
2.56349 11.345 -5.06047 
-2.26237 -5.06047 7.88552 
10.0019 -0.0127195 -0.00673041 
-0.0127195 9.98503 -0.00170939 
-0.00673041 -0.00170939 10.0048 
10.0001 -0.00492501 0.00267886 
-0.00492501 9.9962 -0.00405695 
0.00267886 -0.00405695 9.99547 
9.99473 -0.00494949 0.0019348 
-0.00494949 9.99643 -0.00258855 
0.0019348 -0.00258855 10.0006 
10.0036 -0.0136494 0.000832287 
-0.0136494 9.99217 0.00494817 
0.000832287 0.00494817 9.99593 
9.9858 0.0011816 -0.00256678 
0.0011816 9.98654 0.000485581 
-0.00256678 0.000485581 9.99182 
9.98332 0.00129312 -0.000413696 
0.00129312 9.98181 -0.00231053 
-0.000413696 -0.00231053 9.99903 
9.98152 0.00101571 -0.00535657 
0.00101571 9.9818 -0.00127851 
-0.00535657 -0.00127851 10.0008 
9.98548 0.00196758 -0.00182253 
0.00196758 9.98757 0.00291756 
-0.00182253 0.00291756 9.99111 
9.95552 -0.00180205 -0.0186513 
-0.00180205 9.95914 0.046024 
-0.0186513 0.046024 9.94084 
9.95495 -0.00616593 -0.0141432 
-0.00616593 9.95463 0.0488104 
-0.0141432 0.0488104 9.94592 
9.95724 -0.00161959 -0.0188142 
-0.00161959 9.94145 0.0595567 
-0.0188142 0.0595567 9.95682 
9.9619 -0.000300446 -0.0296139 
-0.000300446 9.95711 0.046546 
-0.0296139 0.046546 9.93649 
9.95986 0.00642446 0.00586126 
0.00642446 9.96452 0.0468891 
0.00586126 0.0468891 9.93865 
9.95654 0.0092533 0.0134847 
0.0092533 9.9625 0.0503863 
0.0134847 0.0503863 9.94399 
9.95872 0.00750644 0.0142872 
0.00750644 9.96106 0.0457749 
0.0142872 0.0457749 9.94325 
9.95603 0.00376355 0.0168182 
0.00376355 9.95733 0.0514033 
0.0168182 0.0514033 9.94967 
9.95989 0.00157072 -0.0612964 
0.00157072 9.95668 0.037261 
-0.0612964 0.037261 9.95436 
9.96111 0.000878323 -0.0600971 
0.000878323 9.95653 0.0375673 
-0.0600971 0.0375673 9.95328 
9.961 0.000908408 -0.0597908 
0.000908408 9.95616 0.0369529 
-0.0597908 0.0369529 9.95377 
9.95879 0.00304405 -0.062295 
0.00304405 9.95815 0.0422758 
-0.062295 0.0422758 9.95399 
9.96654 0.00478758 0.0300592 
0.00478758 9.97035 -0.067869 
0.0300592 -0.067869 9.96355 
9.97456 0.00428072 0.0336943 
0.00428072 9.97223 -0.0703355 
0.0336943 -0.0703355 9.95364 
9.9654 0.000300433 0.0239991 
0.000300433 9.96401 -0.0686991 
0.0239991 -0.0686991 9.97102 
9.96182 0.00097639 0.0319726 
0.00097639 9.96883 -0.0702468 
0.0319726 -0.0702468 9.96978 
9.90382 0.0014836 -0.0317403 
0.0014836 9.92839 -0.0654345 
-0.0317403 -0.0654345 9.92379 
9.91173 -0.013397 -0.0343002 
-0.013397 9.91491 -0.0676746 
-0.0343002 -0.0676746 9.92937 
9.90632 -0.0183079 -0.0409952 
-0.0183079 9.9143 -0.0644585 
-0.0409952 -0.0644585 9.93539 
9.91751 -0.00830311 -0.0374452 
-0.00830311 9.91336 -0.0733343 
-0.0374452 -0.0733343 9.92514 
9.98485 -0.00238632 0.0549335 
-0.00238632 9.96381 0.0105288 
0.0549335 0.0105288 9.98606 
10.0015 -0.00269183 0.0427989 
-0.00269183 9.97096 0.0263613 
0.0427989 0.0263613 9.96227 
9.97989 0.00151631 0.0434592 
0.00151631 9.98255 0.0177069 
0.0434592 0.0177069 9.97228 
9.97607 0.00286012 0.0399059 
0.00286012 9.98443 0.0166264 
0.0399059 0.0166264 9.97422 
9.96339 0.00618985 -0.000811666 
0.00618985 9.95908 -0.00335651 
-0.000811666 -0.00335651 9.97301 
9.9609 0.00682384 -0.00139869 
0.00682384 9.95697 -0.00607556 
-0.00139869 -0.00607556 9.97761 
9.96048 0.00795129 0.00150447 
0.00795129 9.95778 -0.00545426 
0.00150447 -0.00545426 9.97722 
9.95318 0.00634384 -0.0101117 
0.00634384 9.96026 -0.0042934 
-0.0101117 -0.0042934 9.98204 
9.96549 -0.0106157 0.00481273 
-0.0106157 9.95878 -0.00422433 
0.00481273 -0.00422433 9.97123 
9.95372 -0.00638945 0.00389354 
-0.00638945 9.95748 -0.0130604 
0.00389354 -0.0130604 9.98431 
9.96298 -0.0101385 0.000428149 
-0.0101385 9.96394 0.0127978 
0.000428149 0.0127978 9.96858 
9.96386 -0.00840543 0.0131383 
-0.00840543 9.9693 0.000720741 
0.0131383 0.000720741 9.96235 
10.7068 0.022269 0.0804984 
0.022269 11.4073 -0.274153 
0.0804984 -0.274153 10.4896 
10.9583 0.179652 0.0497012 
0.179652 11.1882 -0.504087 
0.0497012 -0.504087 10.4573 
10.2825 0.0531681 0.103005 
0.0531681 9.90769 0.485553 
0.103005 0.485553 12.4135 
10.657 0.201129 0.0600233 
0.201129 11.2804 -0.0679791 
0.0600233 -0.0679791 10.6664 
10.1607 0.0805394 -0.105919 
0.0805394 9.67383 -0.14699 
-0.105919 -0.14699 9.71287 
9.654 -0.413945 -0.441151 
-0.413945 9.84344 -0.291787 
-0.441151 -0.291787 10.0499 
9.66934 -0.338048 -0.135473 
-0.338048 9.81736 -0.341469 
-0.135473 -0.341469 10.0607 
9.61637 -0.480266 -0.217515 
-0.480266 9.96326 -0.213631 
-0.217515 -0.213631 9.96774 
9.83575 0.177711 0.260614 
0.177711 10.2998 -0.0494107 
0.260614 -0.0494107 10.435 
10.2056 0.149397 0.483251 
0.149397 9.67416 -0.164435 
0.483251 -0.164435 10.6908 
10.2418 0.117208 0.137859 
0.117208 9.98613 -0.219693 
0.137859 -0.219693 10.3426 
10.3882 0.143092 0.405782 
0.143092 9.83841 -0.12743 
0.405782 -0.12743 10.344 
9.50975 0.377733 0.34294 
0.377733 9.6996 0.103392 
0.34294 0.103392 11.1521 
10.0526 -0.0154134 -0.256663 
-0.0154134 10.2072 -0.0513363 
-0.256663 -0.0513363 10.1017 
10.1768 0.0223121 -0.331231 
0.0223121 10.53 -0.0510583 
-0.331231 -0.0510583 9.65462 
9.26877 -0.0898684 -0.553324 
-0.0898684 10.3517 -0.121598 
-0.553324 -0.121598 10.7409 
9.89386 -0.0651814 -0.0262294 
-0.0651814 9.87887 0.0977722 
-0.0262294 0.0977722 10.0696 
9.84324 -0.0236299 0.0412582 
-0.0236299 9.88899 0.0284917 
0.0412582 0.0284917 10.1101 
9.94193 0.0908258 0.0603255 
0.0908258 9.73966 0.15099 
0.0603255 0.15099 10.1608 
9.97363 0.00501365 -0.0549139 
0.00501365 9.88167 0.110944 
-0.0549139 0.110944 9.98707 
9.91146 0.173459 -0.0712913 
0.173459 10.088 0.0286049 
-0.0712913 0.0286049 10.2754 
10.0457 0.036022 -0.00669784 
0.036022 10.0352 -0.0013664 
-0.00669784 -0.0013664 10.194 
10.0372 0.0485222 -0.0412822 
0.0485222 10.0436 0.0251841 
-0.0412822 0.0251841 10.1939 
10.0417 0.0050787 -0.0441588 
0.0050787 10.0368 -0.0268029 
-0.0441588 -0.0268029 10.1963 
10.0977 0.00285992 -0.0476795 
0.00285992 10.0818 0.01579 
-0.0476795 0.01579 10.271 
10.088 0.011799 -0.036026 
0.011799 10.0717 -0.00625073 
-0.036026 -0.00625073 10.2907 
10.0816 0.0663261 -0.0364845 
0.0663261 10.0936 -0.00832764 
-0.0364845 -0.00832764 10.2753 
10.1354 0.021576 -0.00707017 
0.021576 10.0832 -0.029401 
-0.00707017 -0.029401 10.2319 
9.97553 0.00077543 -0.0360031 
0.00077543 9.97279 0.0571063 
-0.0360031 0.0571063 9.98149 
9.97504 0.00299223 -0.0410013 
0.00299223 9.97834 0.0582014 
-0.0410013 0.0582014 9.97645 
9.97918 -0.000107307 -0.0417802 
-0.000107307 9.97966 0.0609998 
-0.0417802 0.0609998 9.97098 
9.97503 0.000728575 -0.0423296 
0.000728575 9.97535 0.0595968 
-0.0423296 0.0595968 9.97944 
9.96674 -0.00507529 -0.0340502 
-0.00507529 9.95624 0.0273466 
-0.0340502 0.0273466 9.93679 
9.9657 -0.00349326 -0.0397069 
-0.00349326 9.95961 0.0235579 
-0.0397069 0.0235579 9.93445 
9.97188 -0.00383183 -0.0321566 
-0.00383183 9.97028 0.0144637 
-0.0321566 0.0144637 9.91761 
9.93814 0.00748369 -0.0345616 
0.00748369 9.9583 0.00202218 
-0.0345616 0.00202218 9.96332 
9.96886 0.0130965 0.0065004 
0.0130965 9.98359 0.0182958 
0.0065004 0.0182958 10.1275 
10.0486 0.0233195 0.0171131 
0.0233195 9.89112 0.0830948 
0.0171131 0.0830948 10.1402 
10.0528 -0.00220795 0.0586826 
-0.00220795 9.88959 0.162503 
0.0586826 0.162503 10.1376 
10.0257 0.0952184 -0.0358276 
0.0952184 9.86097 0.0962103 
-0.0358276 0.0962103 10.1933 
10.1188 0.00101866 -0.00593103 
0.00101866 10.1163 -0.0155203 
-0.00593103 -0.0155203 10.0676 
10.0908 0.00168075 0.016635 
0.00168075 10.0791 0.00631711 
0.016635 0.00631711 10.1328 
10.0828 -0.0053329 0.00676998 
-0.0053329 10.078 0.0043843 
0.00676998 0.0043843 10.1419 
10.0981 -0.00677349 0.017325 
-0.00677349 10.0812 -0.0198075 
0.017325 -0.0198075 10.1234 
10.0968 -0.080039 0.0269143 
-0.080039 10.0953 -0.280333 
0.0269143 -0.280333 10.928 
10.6915 -0.14764 -0.0312899 
-0.14764 10.6713 0.0601486 
-0.0312899 0.0601486 9.75738 
10.3811 -0.137529 -0.189064 
-0.137529 10.3443 -0.0798634 
-0.189064 -0.0798634 10.3948 
10.3566 -0.0836 -0.456435 
-0.0836 10.3896 0.0978362 
-0.456435 0.0978362 10.374 
9.99064 0.000750078 -0.0355343 
0.000750078 9.99389 -0.043058 
-0.0355343 -0.043058 9.99382 
9.98907 -0.00174666 -0.0351885 
-0.00174666 9.99286 -0.042346 
-0.0351885 -0.042346 9.99643 
9.98599 -0.000375218 -0.0343343 
-0.000375218 9.99156 -0.0450804 
-0.0343343 -0.0450804 10.0008 
9.99314 0.000409199 -0.0342702 
0.000409199 9.99485 -0.0424613 
-0.0342702 -0.0424613 9.99036 
9.97025 -0.000869787 0.0104549 
-0.000869787 9.9751 -0.0822669 
0.0104549 -0.0822669 9.9717 
9.96732 -0.00207093 0.0182082 
-0.00207093 9.97377 -0.072693 
0.0182082 -0.072693 9.97596 
9.97499 0.000295949 0.00613446 
0.000295949 9.97429 -0.0771809 
0.00613446 -0.0771809 9.96776 
9.97646 -0.000582851 0.00142117 
-0.000582851 9.98226 -0.0816197 
0.00142117 -0.0816197 9.95832 
10.0297 -0.0120802 -0.0203963 
-0.0120802 10.0276 -0.00554691 
-0.0203963 -0.00554691 10.1419 
10.0505 -0.0259694 0.0148942 
-0.0259694 10.0485 -0.0284741 
0.0148942 -0.0284741 10.1003 
10.0401 -0.00776733 -0.0103774 
-0.00776733 10.0446 -0.000972429 
-0.0103774 -0.000972429 10.1146 
10.0419 -0.00692225 0.00484606 
-0.00692225 10.0449 -0.00148515 
0.00484606 -0.00148515 10.1124 
9.95835 0.00723979 0.017279 
0.00723979 9.99538 0.0107036 
0.017279 0.0107036 10.0159 
9.97745 -0.00492816 -0.00936403 
-0.00492816 10.0136 0.0227766 
-0.00936403 0.0227766 9.97851 
9.98105 0.0130577 0.0187935 
0.0130577 9.98568 -0.0265575 
0.0187935 -0.0265575 10.0029 
9.98175 -0.00327725 0.00821828 
-0.00327725 10.0003 0.00244429 
0.00821828 0.00244429 9.98759 
9.95765 0.00857779 -0.0311926 
0.00857779 9.95764 -0.0443017 
-0.0311926 -0.0443017 9.94554 
9.96326 -0.00154713 -0.0240388 
-0.00154713 9.94607 -0.0282166 
-0.0240388 -0.0282166 9.9515 
9.9507 0.0138703 -0.0319044 
0.0138703 9.95094 -0.0251382 
-0.0319044 -0.0251382 9.95919 
9.95407 0.0410217 -0.00818385 
0.0410217 9.96711 -0.0315447 
-0.00818385 -0.0315447 9.93965 
9.71908 0.0964613 0.082278 
0.0964613 10.0796 -0.0817815 
0.082278 -0.0817815 10.506 
9.46833 0.358964 -0.0818322 
0.358964 10.1151 0.105298 
-0.0818322 0.105298 10.7213 
9.71287 0.267957 0.297447 
0.267957 10.3262 -0.0499459 
0.297447 -0.0499459 10.2657 
10.489 -0.0655879 -0.418435 
-0.0655879 9.42437 0.231351 
-0.418435 0.231351 10.3914 
9.94223 0.00680483 -0.0351321 
0.00680483 9.95731 -0.0415596 
-0.0351321 -0.0415596 9.90837 
9.94622 -0.00507271 -0.0568488 
-0.00507271 9.96162 -0.0621284 
-0.0568488 -0.0621284 9.90008 
9.95265 0.00463225 -0.0283367 
0.00463225 9.95236 -0.0470417 
-0.0283367 -0.0470417 9.9029 
9.93193 -0.00290079 -0.0326327 
-0.00290079 9.92816 -0.0550338 
-0.0326327 -0.0550338 9.94782 
9.98207 0.0045056 -0.00501483 
0.0045056 9.97317 -0.0034887 
-0.00501483 -0.0034887 9.99216 
9.97447 0.00261467 -0.00622687 
0.00261467 9.98265 0.00101294 
-0.00622687 0.00101294 9.99029 
9.97969 0.00191816 -0.00745562 
0.00191816 9.97939 -0.000909104 
-0.00745562 -0.000909104 9.98833 
9.98881 0.00334588 0.00344303 
0.00334588 9.97319 0.000287329 
0.00344303 0.000287329 9.98541 
9.95347 -0.0121709 -0.00496398 
-0.0121709 9.96164 0.0101956 
-0.00496398 0.0101956 9.96937 
9.9584 -0.00989229 -0.00786869 
-0.00989229 9.95793 0.00753749 
-0.00786869 0.00753749 9.96815 
9.96177 -0.00400457 0.0016154 
-0.00400457 9.96001 -0.000927407 
0.0016154 -0.000927407 9.96269 
9.95314 -0.00713428 -0.00368847 
-0.00713428 9.9477 0.0129737 
-0.00368847 0.0129737 9.98364 
9.95906 -0.0134025 0.00316106 
-0.0134025 9.97094 0.0390972 
0.00316106 0.0390972 9.94918 
9.96596 -0.000756846 -0.00170444 
-0.000756846 9.96851 -0.00463159 
-0.00170444 -0.00463159 9.94471 
9.94868 -0.00101164 0.00206135 
-0.00101164 9.95325 -0.00762487 
0.00206135 -0.00762487 9.97725 
9.96062 0.0151773 0.000225882 
0.0151773 9.96064 -0.00379504 
0.000225882 -0.00379504 9.95792 
9.99423 0.00361671 -0.013063 
0.00361671 9.99384 -0.0152736 
-0.013063 -0.0152736 9.99322 
9.99097 0.0021689 -0.0169796 
0.0021689 9.99034 -0.012826 
-0.0169796 -0.012826 9.99998 
9.99168 -0.00010647 -0.0124093 
-0.00010647 9.99055 -0.0142028 
-0.0124093 -0.0142028 9.99905 
9.99298 0.00392694 -0.0131795 
0.00392694 9.99512 -0.0177587 
-0.0131795 -0.0177587 9.99319 
8.96004 -0.908279 -0.169793 
-0.908279 8.01947 -1.93192 
-0.169793 -1.93192 -0.378601 
6.65387 -0.198269 -0.825835 
-0.198269 5.01318 -0.195958 
-0.825835 -0.195958 4.93387 
8.66987 -1.69536 0.994894 
-1.69536 10.0373 -1.59612 
0.994894 -1.59612 -2.10628 
7.26854 0.974706 -0.0458781 
0.974706 5.28402 -2.76779 
-0.0458781 -2.76779 4.04835 
9.97685 -0.000670347 -0.0504707 
-0.000670347 9.97183 -0.0546752 
-0.0504707 -0.0546752 9.97544 
9.97727 0.000978452 -0.0540521 
0.000978452 9.96999 -0.0540378 
-0.0540521 -0.0540378 9.97686 
9.97938 -0.000653504 -0.0488674 
-0.000653504 9.97443 -0.0494078 
-0.0488674 -0.0494078 9.9703 
9.97875 0.00279787 -0.0495442 
0.00279787 9.97298 -0.0554156 
-0.0495442 -0.0554156 9.97239 
9.96038 0.00130577 0.0188867 
0.00130577 9.96711 0.0518447 
0.0188867 0.0518447 9.93446 
9.94926 -0.00413117 0.00371602 
-0.00413117 9.97284 0.0467313 
0.00371602 0.0467313 9.93985 
9.9624 0.000161936 0.00975175 
0.000161936 9.96365 0.0430089 
0.00975175 0.0430089 9.9359 
9.98107 0.00169161 0.00402057 
0.00169161 9.95381 0.0490553 
0.00402057 0.0490553 9.92708 
10.0392 0.00903277 -0.0219439 
0.00903277 9.97226 -0.00135596 
-0.0219439 -0.00135596 10.0412 
9.98652 -0.00522174 0.00375974 
-0.00522174 9.9634 0.00833394 
0.00375974 0.00833394 10.1028 
10.0368 -0.00152568 -0.0189345 
-0.00152568 10.0027 -0.00600363 
-0.0189345 -0.00600363 10.0132 
10.0136 -0.000203371 -0.0538226 
-0.000203371 10.0096 -0.00997804 
-0.0538226 -0.00997804 10.0295 
9.9047 0.0109307 0.00109524 
0.0109307 9.83171 0.0753313 
0.00109524 0.0753313 9.96508 
9.84804 0.00343333 -0.023126 
0.00343333 9.95467 0.0379234 
-0.023126 0.0379234 9.89878 
9.92931 0.000983042 0.00719014 
0.000983042 9.81111 0.0490151 
0.00719014 0.0490151 9.96107 
9.89564 0.0569146 -0.00462839 
0.0569146 9.84915 0.0679032 
-0.00462839 0.0679032 9.9567 
10.0286 0.00589201 -0.00794953 
0.00589201 10.0199 0.00290756 
-0.00794953 0.00290756 10.1644 
10.0314 0.0101931 0.00265131 
0.0101931 10.0187 0.00386822 
0.00265131 0.00386822 10.1628 
10.0301 0.00675863 -0.00372885 
0.00675863 10.0209 0.00397959 
-0.00372885 0.00397959 10.1619 
10.0328 -0.0014587 0.000302042 
-0.0014587 10.025 0.00415606 
0.000302042 0.00415606 10.1551 
9.745 0.0810371 -0.0720089 
0.0810371 9.87113 0.0865476 
-0.0720089 0.0865476 10.1883 
9.85432 0.0637804 -0.112802 
0.0637804 9.94496 0.151259 
-0.112802 0.151259 10.0052 
9.73122 0.193169 -0.15666 
0.193169 9.92773 -0.0611911 
-0.15666 -0.0611911 10.1455 
9.8765 0.140209 -0.118293 
0.140209 9.85944 0.236817 
-0.118293 0.236817 10.0685 
9.96533 0.00717997 -0.0393823 
0.00717997 9.95281 -0.0428034 
-0.0393823 -0.0428034 9.95207 
9.965 -0.000732688 -0.0337768 
-0.000732688 9.95722 -0.0446901 
-0.0337768 -0.0446901 9.94801 
9.96266 0.00263489 -0.034761 
0.00263489 9.96416 -0.0472225 
-0.034761 -0.0472225 9.9434 
9.95331 0.00371875 -0.0418922 
0.00371875 9.95803 -0.0416214 
-0.0418922 -0.0416214 9.95888 
9.94395 -0.0445509 -0.0144571 
-0.0445509 9.91411 0.0195712 
-0.0144571 0.0195712 9.99822 
9.8945 -0.0512541 0.0366629 
-0.0512541 9.95315 0.0717785 
0.0366629 0.0717785 10.0086 
9.91338 -0.0528899 0.00600614 
-0.0528899 9.91372 0.0637196 
0.00600614 0.0637196 10.0292 
9.91689 -0.101214 -0.065602 
-0.101214 9.87678 0.100948 
-0.065602 0.100948 10.0626 
9.94129 -0.0336989 -0.00156182 
-0.0336989 9.96129 -0.00480694 
-0.00156182 -0.00480694 9.96646 
9.93818 -0.0589914 -0.0209797 
-0.0589914 9.95897 -0.0240046 
-0.0209797 -0.0240046 9.97188 
9.93723 -0.0391396 -0.0629112 
-0.0391396 9.96752 0.0048792 
-0.0629112 0.0048792 9.96428 
9.94745 -0.000656561 -0.0408405 
-0.000656561 9.95561 -0.0334733 
-0.0408405 -0.0334733 9.96597 
9.95043 -0.00634569 -0.0534946 
-0.00634569 9.92466 0.043004 
-0.0534946 0.043004 9.94211 
9.92746 0.0115286 -0.0478416 
0.0115286 9.93915 0.0429087 
-0.0478416 0.0429087 9.95059 
9.93453 0.00237897 -0.0532613 
0.00237897 9.93462 0.0427754 
-0.0532613 0.0427754 9.94805 
9.93373 -0.00941585 -0.0529361 
-0.00941585 9.93282 0.0450946 
-0.0529361 0.0450946 9.95065 
9.9501 -0.00201797 -0.0142643 
-0.00201797 9.93931 -0.00373465 
-0.0142643 -0.00373465 9.9859 
9.9362 -0.00259569 0.00661192 
-0.00259569 9.9547 0.0184977 
0.00661192 0.0184977 9.98441 
9.92818 -0.00872218 -0.00679977 
-0.00872218 9.93527 0.0259454 
-0.00679977 0.0259454 10.0119 
9.93918 -0.00553321 -0.00555443 
-0.00553321 9.94395 0.013967 
-0.00555443 0.013967 9.99217 
9.98763 0.00051489 0.00565088 
0.00051489 9.99277 -0.00181534 
0.00565088 -0.00181534 9.99557 
9.98737 0.00132511 0.00787666 
0.00132511 9.99022 -0.000279368 
0.00787666 -0.000279368 9.99839 
9.98959 0.00173576 0.00618699 
0.00173576 9.98997 -0.00265501 
0.00618699 -0.00265501 9.99642 
9.99069 -0.000214326 0.00686098 
-0.000214326 9.99283 -0.00335549 
0.00686098 -0.00335549 9.99245 
9.93875 -0.0213337 0.0234415 
-0.0213337 9.91943 -0.00235688 
0.0234415 -0.00235688 9.99356 
9.98496 0.0144503 0.00681481 
0.0144503 9.91653 0.058408 
0.00681481 0.058408 9.95025 
9.95759 -0.0488549 -0.017735 
-0.0488549 9.9652 -0.105163 
-0.017735 -0.105163 9.92894 
9.9623 -0.0423245 0.0412204 
-0.0423245 9.8655 0.00426712 
0.0412204 0.00426712 10.0239 
9.9981 0.000392897 -0.0373661 
0.000392897 9.99604 0.0179752 
-0.0373661 0.0179752 9.98808 
9.99349 0.00562408 -0.0360884 
0.00562408 9.99269 0.0131248 
-0.0360884 0.0131248 9.99605 
9.98778 -0.000230296 -0.0325187 
-0.000230296 9.98696 0.0130118 
-0.0325187 0.0130118 10.0075 
9.9976 -0.00131365 -0.0379599 
-0.00131365 9.9989 0.0141346 
-0.0379599 0.0141346 9.98572 
10.1682 -0.008336 0.017518 
-0.008336 9.74461 -0.131466 
0.017518 -0.131466 10.2811 
10.0915 -0.0524551 0.0104885 
-0.0524551 9.65571 0.0885822 
0.0104885 0.0885822 10.4467 
9.91208 -0.101484 -0.00645172 
-0.101484 10.1288 0.0204538 
-0.00645172 0.0204538 10.1531 
10.1476 0.0579199 -0.168484 
0.0579199 9.85135 -0.0732952 
-0.168484 -0.0732952 10.195 
9.94988 0.0023583 0.00357123 
0.0023583 9.94794 0.0039049 
0.00357123 0.0039049 10.001 
9.95621 -0.0029897 -0.00705157 
-0.0029897 9.9478 0.00132545 
-0.00705157 0.00132545 9.9948 
9.94624 -0.00037298 -0.00119321 
-0.00037298 9.95091 0.0109676 
-0.00119321 0.0109676 10.0017 
9.95043 0.000164129 -0.00206791 
0.000164129 9.94953 0.00511285 
-0.00206791 0.00511285 9.99886 
9.95091 -0.0060439 0.00516743 
-0.0060439 9.95081 0.0146226 
0.00516743 0.0146226 9.97133 
9.94307 -0.00693243 0.00214988 
-0.00693243 9.95054 -0.00034204 
0.00214988 -0.00034204 9.97944 
9.96145 -0.0122616 0.00308093 
-0.0122616 9.94354 -0.00603704 
0.00308093 -0.00603704 9.96805 
9.95116 -0.0242329 -0.00215886 
-0.0242329 9.93925 0.0153488 
-0.00215886 0.0153488 9.98264 
9.83928 -0.0921995 -0.019957 
-0.0921995 9.97578 0.0310242 
-0.019957 0.0310242 10.0989 
9.91591 0.0148944 0.0815466 
0.0148944 10.014 -0.0264959 
0.0815466 -0.0264959 9.98405 
9.86189 -0.119419 0.0403041 
-0.119419 9.97256 0.0254892 
0.0403041 0.0254892 10.0795 
9.78717 0.00910908 0.0651245 
0.00910908 10.0336 0.00666831 
0.0651245 0.00666831 10.0932 
9.91051 -0.00349423 0.0503029 
-0.00349423 9.90854 -0.0549556 
0.0503029 -0.0549556 9.94809 
9.90676 0.00893128 0.0667181 
0.00893128 9.90942 -0.0548018 
0.0667181 -0.0548018 9.95096 
9.90359 -0.00383208 0.052126 
-0.00383208 9.91675 -0.0510819 
0.052126 -0.0510819 9.94679 
9.89794 -0.00671864 0.051508 
-0.00671864 9.91656 -0.0466749 
0.051508 -0.0466749 9.95265 
9.88891 -0.0341385 0.0722473 
-0.0341385 9.90906 0.0273207 
0.0722473 0.0273207 9.91383 
9.91959 0.0196255 0.066232 
0.0196255 9.87691 0.0288969 
0.066232 0.0288969 9.9153 
9.90035 -0.0175936 0.0516494 
-0.0175936 9.89855 0.0602707 
0.0516494 0.0602707 9.9129 
9.89552 -0.0136998 0.0784515 
-0.0136998 9.89946 0.0431374 
0.0784515 0.0431374 9.91681 
10.0694 0.0119435 0.187844 
0.0119435 10.0592 0.0636813 
0.187844 0.0636813 9.43539 
9.99235 0.106071 -0.00342547 
0.106071 10.014 -0.0484516 
-0.00342547 -0.0484516 9.55766 
10.0623 0.0728473 0.0960085 
0.0728473 9.96268 -0.0396118 
0.0960085 -0.0396118 9.53902 
9.94595 0.0251282 -0.153023 
0.0251282 9.82722 0.0504156 
-0.153023 0.0504156 9.79084 
9.94242 -0.00617658 -0.0510622 
-0.00617658 9.95501 0.0578805 
-0.0510622 0.0578805 9.9606 
9.95217 0.00539205 -0.039533 
0.00539205 9.94906 0.0581667 
-0.039533 0.0581667 9.9568 
9.95249 0.00137525 -0.0385773 
0.00137525 9.95723 0.056384 
-0.0385773 0.056384 9.94831 
9.94648 -0.00183149 -0.0494785 
-0.00183149 9.94521 0.0558426 
-0.0494785 0.0558426 9.96634 
10.1844 -0.0944866 0.146615 
-0.0944866 10.1998 0.0256137 
0.146615 0.0256137 10.4418 
10.1674 0.0718232 0.0868479 
0.0718232 10.2325 -0.0346372 
0.0868479 -0.0346372 10.4261 
10.1881 -0.0153769 0.048597 
-0.0153769 10.2247 0.0176329 
0.048597 0.0176329 10.4132 
10.2197 -0.0968742 0.13217 
-0.0968742 10.2783 -0.0265964 
0.13217 -0.0265964 10.328 
9.973 0.000285545 -0.0567461 
0.000285545 9.97109 0.0434902 
-0.0567461 0.0434902 9.97835 
9.9771 -0.001238 -0.0573392 
-0.001238 9.97254 0.042364 
-0.0573392 0.042364 9.9728 
9.975 0.000342816 -0.060536 
0.000342816 9.97327 0.0392237 
-0.060536 0.0392237 9.97417 
9.97227 -0.000667247 -0.0628142 
-0.000667247 9.97869 0.0414136 
-0.0628142 0.0414136 9.97148 
9.88387 -0.00224086 -0.0176701 
-0.00224086 9.90727 -0.0215579 
-0.0176701 -0.0215579 10.0091 
9.95809 0.00366789 -0.0473371 
0.00366789 9.95424 -0.0258235 
-0.0473371 -0.0258235 9.88787 
9.89586 -0.0094437 -0.0448542 
-0.0094437 9.91918 -0.0437316 
-0.0448542 -0.0437316 9.98515 
9.91587 -0.0103372 -0.039485 
-0.0103372 9.91413 -0.0404402 
-0.039485 -0.0404402 9.97019 
10.3242 0.0122232 -0.154091 
0.0122232 10.1912 0.0718307 
-0.154091 0.0718307 10.4963 
10.1654 -0.105171 0.00208834 
-0.105171 10.2968 0.0382624 
0.00208834 0.0382624 10.5495 
9.9365 -0.150798 -0.135094 
-0.150798 10.277 -0.0913976 
-0.135094 -0.0913976 10.7981 
10.182 -0.0460151 -0.0843273 
-0.0460151 10.2213 0.0161601 
-0.0843273 0.0161601 10.6084 
9.9829 0.00165385 0.0753192 
0.00165385 9.98705 -0.0145473 
0.0753192 -0.0145473 9.98306 
9.98027 0.000282964 0.0721299 
0.000282964 9.98865 -0.0140626 
0.0721299 -0.0140626 9.9841 
9.98454 -0.00102129 0.0689665 
-0.00102129 9.97733 -0.0139619 
0.0689665 -0.0139619 9.99114 
9.9914 -0.00123767 0.0747735 
-0.00123767 9.98352 -0.0149274 
0.0747735 -0.0149274 9.97809 
9.89917 0.0614614 0.119626 
0.0614614 10.083 0.0662366 
0.119626 0.0662366 10.0881 
9.90472 -0.00799435 0.0793756 
-0.00799435 10.0873 0.00883894 
0.0793756 0.00883894 10.0783 
9.91258 0.00653656 0.120318 
0.00653656 10.0023 0.0482226 
0.120318 0.0482226 10.1554 
9.8556 0.0863919 0.101863 
0.0863919 10.036 0.0576346 
0.101863 0.0576346 10.1787 
9.96892 -0.00433346 0.0134438 
-0.00433346 9.97007 -0.00637953 
0.0134438 -0.00637953 9.97671 
9.97586 -0.00710896 0.0133262 
-0.00710896 9.96804 -0.00929678 
0.0133262 -0.00929678 9.9718 
9.97511 -0.00382382 0.0104113 
-0.00382382 9.97292 -0.0141685 
0.0104113 -0.0141685 9.96766 
9.96765 -0.00723923 0.0164438 
-0.00723923 9.97075 -0.0101243 
0.0164438 -0.0101243 9.97729 
9.96984 0.00376613 0.014315 
0.00376613 9.97709 0.0454396 
0.014315 0.0454396 9.92162 
9.95908 -0.00969361 0.0110764 
-0.00969361 9.95909 0.0394113 
0.0110764 0.0394113 9.95038 
9.97626 0.00306386 0.0170118 
0.00306386 9.95984 0.0416205 
0.0170118 0.0416205 9.93245 
9.96622 -0.00545145 -5.16463e-05 
-0.00545145 9.97826 0.0536486 
-5.16463e-05 0.0536486 9.92406 
14.6858 0.0465142 0.449412 
0.0465142 10.2403 -2.928 
0.449412 -2.928 3.64232 
7.7984 -3.21924 -0.782903 
-3.21924 5.63299 1.37135 
-0.782903 1.37135 15.137 
7.41031 -1.23173 -0.24815 
-1.23173 4.17147 1.14428 
-0.24815 1.14428 16.9866 
7.3292 0.558224 2.96479 
0.558224 12.4405 4.68892 
2.96479 4.68892 8.79866 
9.95531 -0.016887 0.00201191 
-0.016887 9.95207 0.00581745 
0.00201191 0.00581745 9.96144 
9.97899 -0.0159127 -0.0041419 
-0.0159127 9.94605 0.0195581 
-0.0041419 0.0195581 9.94379 
9.97627 -0.0118195 0.00150551 
-0.0118195 9.93803 0.0209188 
0.00150551 0.0209188 9.95453 
9.94438 -0.00670679 -0.00396127 
-0.00670679 9.95525 0.00821273 
-0.00396127 0.00821273 9.9692 
9.88276 0.0483933 0.0551785 
0.0483933 9.87198 0.136228 
0.0551785 0.136228 9.98096 
10.2274 0.12869 0.0451396 
0.12869 10.1933 0.4177 
0.0451396 0.4177 9.31496 
9.91831 -0.0677944 -0.106415 
-0.0677944 9.90561 0.43872 
-0.106415 0.43872 9.91178 
10.1211 0.00990994 0.0219732 
0.00990994 9.80695 0.451023 
0.0219732 0.451023 9.80762 
9.97834 -0.00201971 -0.0318448 
-0.00201971 9.97918 -0.0657715 
-0.0318448 -0.0657715 9.98538 
9.98394 -0.00170721 -0.0303968 
-0.00170721 9.97946 -0.0716755 
-0.0303968 -0.0716755 9.9795 
9.98051 0.00110089 -0.029149 
0.00110089 9.97661 -0.0639494 
-0.029149 -0.0639494 9.98578 
9.97561 -0.00156773 -0.0321728 
-0.00156773 9.995 -0.066156 
-0.0321728 -0.066156 9.9723 
10.3611 0.116714 0.0505247 
0.116714 10.0869 -0.0445874 
0.0505247 -0.0445874 10.3906 
10.158 -0.150245 0.0767662 
-0.150245 10.0543 -0.0551859 
0.0767662 -0.0551859 10.6262 
10.2878 -0.0442032 0.059631 
-0.0442032 10.6364 0.178441 
0.059631 0.178441 9.91428 
10.2138 -0.0250206 -0.0817917 
-0.0250206 10.2219 0.0865548 
-0.0817917 0.0865548 10.4028 
7.91314 2.50921 1.33113 
2.50921 11.2098 2.62076 
1.33113 2.62076 6.14779 
9.56784 1.46974 1.11564 
1.46974 10.1523 -0.0565392 
1.11564 -0.0565392 5.5506 
11.3435 -4.38542 4.4062 
-4.38542 13.0726 3.57969 
4.4062 3.57969 0.854543 
6.46181 -4.56161 1.4584 
-4.56161 7.43595 -2.76268 
1.4584 -2.76268 11.3729 
9.89036 0.0127618 0.0571347 
0.0127618 9.87198 -0.0951088 
0.0571347 -0.0951088 9.92938 
9.87866 0.0204116 0.0581002 
0.0204116 9.89143 -0.0693351 
0.0581002 -0.0693351 9.92162 
9.88673 0.0330263 0.0637153 
0.0330263 9.89725 -0.0592397 
0.0637153 -0.0592397 9.90774 
9.85484 0.0193251 0.0416175 
0.0193251 9.90877 -0.0569791 
0.0416175 -0.0569791 9.92811 
10.2688 0.00229115 0.0115618 
0.00229115 10.2738 0.0138483 
0.0115618 0.0138483 10.1037 
10.2276 -0.00313605 0.0255066 
-0.00313605 10.2404 0.0317012 
0.0255066 0.0317012 10.1782 
10.0411 0.0155016 0.0168289 
0.0155016 10.0851 -0.0283545 
0.0168289 -0.0283545 10.52 
10.2501 0.0221719 0.0117823 
0.0221719 10.2061 0.223461 
0.0117823 0.223461 10.1901 
9.94208 -0.0115696 -0.025849 
-0.0115696 9.91542 -0.00988112 
-0.025849 -0.00988112 9.97998 
9.95916 -0.00742648 -0.014553 
-0.00742648 9.9068 -0.0306597 
-0.014553 -0.0306597 9.97153 
9.92188 -0.0322244 -0.0356352 
-0.0322244 9.93595 -0.0193253 
-0.0356352 -0.0193253 9.97966 
9.93095 -0.00857547 -0.0171065 
-0.00857547 9.92161 -0.00624596 
-0.0171065 -0.00624596 9.98492 
9.94805 -0.00247705 -0.00372258 
-0.00247705 9.94103 0.00760901 
-0.00372258 0.00760901 10.0036 
9.94673 -0.00344366 0.00395049 
-0.00344366 9.93881 0.0073648 
0.00395049 0.0073648 10.0071 
9.94702 0.00166209 0.00493989 
0.00166209 9.94776 -0.0014307 
0.00493989 -0.0014307 9.9979 
9.93502 0.00739841 -0.000338593 
0.00739841 9.93954 -0.0021653 
-0.000338593 -0.0021653 10.0181 
9.98429 -0.00190178 0.0298993 
-0.00190178 9.98009 0.071026 
0.0298993 0.071026 9.98182 
9.986 -0.00102811 0.0288727 
-0.00102811 9.97838 0.0662556 
0.0288727 0.0662556 9.98181 
9.96936 0.00289407 0.0254131 
0.00289407 9.98068 0.0611532 
0.0254131 0.0611532 9.99616 
9.9807 0.00264263 0.0265148 
0.00264263 9.99177 0.0662127 
0.0265148 0.0662127 9.97372 
9.91733 0.0503314 0.0295476 
0.0503314 9.94037 -0.0822513 
0.0295476 -0.0822513 9.92537 
9.92773 0.0164739 -0.019962 
0.0164739 9.93429 -0.0273775 
-0.019962 -0.0273775 9.92106 
9.90473 0.0481781 0.0248571 
0.0481781 9.93373 -0.0515774 
0.0248571 -0.0515774 9.94462 
9.89287 0.103731 -0.04327 
0.103731 9.86239 -0.105303 
-0.04327 -0.105303 10.0278 
9.99083 -0.0025905 -0.00868863 
-0.0025905 9.99484 0.0214627 
-0.00868863 0.0214627 9.99158 
9.98578 -0.000423176 -0.00957488 
-0.000423176 9.98287 0.0237931 
-0.00957488 0.0237931 10.0086 
9.99274 -0.00394946 -0.00932756 
-0.00394946 9.98993 0.0228428 
-0.00932756 0.0228428 9.99457 
9.99297 -0.000667032 -0.00994275 
-0.000667032 9.99608 0.024194 
-0.00994275 0.024194 9.98819 
9.9795 0.0186025 0.000100168 
0.0186025 9.98056 -0.00820567 
0.000100168 -0.00820567 10.0037 
9.98772 0.00169288 0.00103302 
0.00169288 9.96233 -0.00911263 
0.00103302 -0.00911263 10.0138 
9.98742 0.00685039 0.0119892 
0.00685039 9.96898 0.000507121 
0.0119892 0.000507121 10.0074 
9.99332 0.00487551 0.0154117 
0.00487551 9.96688 -0.00773927 
0.0154117 -0.00773927 10.0036 
9.80412 -0.062145 -0.133084 
-0.062145 9.98277 -0.0132332 
-0.133084 -0.0132332 9.78389 
9.87441 -0.0479763 -0.0694056 
-0.0479763 9.97109 -0.0782327 
-0.0694056 -0.0782327 9.72528 
9.90992 -0.0562859 -0.0657202 
-0.0562859 9.97304 -0.0880097 
-0.0657202 -0.0880097 9.68783 
9.87685 -0.0440649 -0.0557203 
-0.0440649 9.96117 -0.0967682 
-0.0557203 -0.0967682 9.73276 
9.94098 -0.00687865 -0.0429529 
-0.00687865 9.95294 0.0409221 
-0.0429529 0.0409221 9.94479 
9.94289 -0.00466238 -0.0327921 
-0.00466238 9.93116 0.0466946 
-0.0327921 0.0466946 9.96465 
9.94998 -0.004294 -0.0417392 
-0.004294 9.95521 0.053874 
-0.0417392 0.053874 9.93351 
9.94101 -0.00413954 -0.0414402 
-0.00413954 9.94983 0.0436322 
-0.0414402 0.0436322 9.94787 
10.0123 -0.0149717 0.0341003 
-0.0149717 9.93395 0.0084367 
0.0341003 0.0084367 10.0388 
9.98816 -0.0243128 -0.017805 
-0.0243128 9.99192 -0.00335412 
-0.017805 -0.00335412 10.005 
10 -0.00780436 0.00514375 
-0.00780436 9.93419 -0.0107401 
0.00514375 -0.0107401 10.0508 
9.98535 -0.0157452 -0.00356677 
-0.0157452 9.94911 0.024915 
-0.00356677 0.024915 10.0506 
9.94521 -0.000701901 -2.55575e-05 
-0.000701901 9.9436 -0.000729563 
-2.55575e-05 -0.000729563 9.90052 
9.94129 -0.000928304 0.016321 
-0.000928304 9.96356 0.00272019 
0.016321 0.00272019 9.88448 
9.9307 -0.00294011 -0.00343442 
-0.00294011 9.95931 0.0202657 
-0.00343442 0.0202657 9.89931 
9.93929 -0.0042702 0.00580663 
-0.0042702 9.96121 0.00370337 
0.00580663 0.00370337 9.88883 
9.83331 0.0259304 0.102001 
0.0259304 9.69522 -0.0696896 
0.102001 -0.0696896 9.93061 
9.94126 0.033846 -0.245465 
0.033846 9.77165 -0.270061 
-0.245465 -0.270061 9.74622 
10.3119 0.0119225 0.00568342 
0.0119225 9.87089 -0.652896 
0.00568342 -0.652896 9.27631 
9.97457 -0.0023302 -0.332448 
-0.0023302 9.57886 -0.27734 
-0.332448 -0.27734 9.90571 
9.97308 0.00414447 -0.00386273 
0.00414447 9.96984 -0.000214227 
-0.00386273 -0.000214227 9.99331 
9.97522 0.00263539 -0.00107739 
0.00263539 9.96913 -0.00162276 
-0.00107739 -0.00162276 9.99189 
9.97872 -0.000513108 0.00594734 
-0.000513108 9.97611 -0.00200672 
0.00594734 -0.00200672 9.9814 
9.97454 -0.00128133 0.000423489 
-0.00128133 9.97411 -0.00426045 
0.000423489 -0.00426045 9.98758 
9.84722 -0.059552 0.0256205 
-0.059552 10.0395 -0.0557283 
0.0256205 -0.0557283 9.85432 
9.91985 0.0648288 0.0182025 
0.0648288 9.82829 -0.0181336 
0.0182025 -0.0181336 9.99287 
9.89021 0.0111665 0.036621 
0.0111665 9.90986 -0.0636307 
0.036621 -0.0636307 9.94095 
9.90144 0.000830763 0.0756176 
0.000830763 9.8679 -0.119893 
0.0756176 -0.119893 9.97168 
9.11513 -0.259271 0.489491 
-0.259271 10.5514 -0.0418666 
0.489491 -0.0418666 10.366 
10.3559 0.307311 0.539089 
0.307311 9.87221 -0.585545 
0.539089 -0.585545 9.80435 
9.31874 -0.140414 0.150058 
-0.140414 9.83694 -0.0048374 
0.150058 -0.0048374 10.8768 
8.97845 -0.557114 1.16653 
-0.557114 10.5806 -0.111133 
1.16653 -0.111133 10.4734 
10.1762 -0.0261355 -0.0398555 
-0.0261355 10.3229 -0.0518478 
-0.0398555 -0.0518478 10.246 
10.362 0.00571052 -0.0193066 
0.00571052 10.0132 -0.00861032 
-0.0193066 -0.00861032 10.3698 
10.1494 -0.0564934 0.0662003 
-0.0564934 10.2375 -0.132943 
0.0662003 -0.132943 10.3581 
10.2935 0.0108305 0.040517 
0.0108305 10.1824 -0.0909425 
0.040517 -0.0909425 10.2691 
9.8772 0.0318682 -0.0435303 
0.0318682 9.87686 -0.027479 
-0.0435303 -0.027479 9.99387 
9.85091 0.023589 -0.0353491 
0.023589 9.88688 -0.0349696 
-0.0353491 -0.0349696 10.0101 
9.87307 0.0339483 -0.0653332 
0.0339483 9.86458 -0.0430068 
-0.0653332 -0.0430068 10.0103 
9.86487 0.0262721 -0.043358 
0.0262721 9.88674 -0.0351607 
-0.043358 -0.0351607 9.99633 
9.9996 -0.00957455 0.00456657 
-0.00957455 9.9817 -0.0148498 
0.00456657 -0.0148498 10.174 
9.92948 0.0266617 -0.0474057 
0.0266617 9.98836 0.0121844 
-0.0474057 0.0121844 10.2375 
9.9593 0.00870408 -0.0197366 
0.00870408 9.9712 0.0394635 
-0.0197366 0.0394635 10.2248 
10.0111 0.00893549 -0.0147797 
0.00893549 9.97023 0.0120363 
-0.0147797 0.0120363 10.174 
9.91857 0.00277836 -0.0370244 
0.00277836 9.92729 0.0667505 
-0.0370244 0.0667505 9.93151 
9.923 0.0129919 -0.0379701 
0.0129919 9.92325 0.0660851 
-0.0379701 0.0660851 9.93113 
9.91709 0.00341525 -0.0332468 
0.00341525 9.9314 0.0686582 
-0.0332468 0.0686582 9.92888 
9.92221 0.00324481 -0.0378526 
0.00324481 9.92278 0.0697406 
-0.0378526 0.0697406 9.93238 
10.0912 -0.00739619 -0.0291132 
-0.00739619 10.1159 0.0140269 
-0.0291132 0.0140269 10.2267 
10.1135 -0.00120753 -0.00640264 
-0.00120753 10.1148 0.000746107 
-0.00640264 0.000746107 10.2055 
10.1662 0.0051426 -0.0260538 
0.0051426 10.2006 0.0159067 
-0.0260538 0.0159067 10.067 
10.1249 0.0205329 0.0394781 
0.0205329 10.1562 0.0662176 
0.0394781 0.0662176 10.1527 
9.71017 0.0785094 0.0974101 
0.0785094 10.4359 -0.215966 
0.0974101 -0.215966 10.6524 
9.93972 -0.615364 0.467756 
-0.615364 10.4581 0.115399 
0.467756 0.115399 10.4006 
9.36312 -0.827178 0.558729 
-0.827178 9.51855 -0.211976 
0.558729 -0.211976 11.9168 
9.58773 -0.210455 -0.115576 
-0.210455 10.4322 0.136382 
-0.115576 0.136382 10.7786 
9.98249 -0.00155363 0.0352476 
-0.00155363 9.97917 0.00577516 
0.0352476 0.00577516 9.97936 
9.98361 0.00531762 0.0277546 
0.00531762 9.97929 0.0105938 
0.0277546 0.0105938 9.97813 
9.98119 -0.000674936 0.0328642 
-0.000674936 9.98154 0.00497713 
0.0328642 0.00497713 9.97829 
9.98408 -0.00665917 0.0301805 
-0.00665917 9.98648 0.00635902 
0.0301805 0.00635902 9.97047 
11.7391 0.780893 -0.0549241 
0.780893 10.5246 0.357722 
-0.0549241 0.357722 9.71255 
10.4976 -0.280613 -0.490935 
-0.280613 7.4487 -0.0514763 
-0.490935 -0.0514763 14.0299 
10.1513 -0.415839 -0.146675 
-0.415839 10.4852 0.0966302 
-0.146675 0.0966302 11.3397 
11.0252 0.109024 1.39075 
0.109024 9.60911 -0.446726 
1.39075 -0.446726 11.3419 
9.8861 0.0745578 0.0246412 
0.0745578 9.9173 0.0413963 
0.0246412 0.0413963 9.93424 
9.89251 0.0379251 0.0315963 
0.0379251 9.7829 -0.170437 
0.0315963 -0.170437 10.0622 
9.87664 -0.00186803 -0.0500316 
-0.00186803 9.85053 -0.0179912 
-0.0500316 -0.0179912 10.0105 
9.96053 0.0472761 0.20058 
0.0472761 9.90446 -0.0102759 
0.20058 -0.0102759 9.87265 
7.93282 -2.0873 -0.18612 
-2.0873 10.9967 -1.57198 
-0.18612 -1.57198 2.12659 
7.27277 1.63665 -0.958532 
1.63665 9.16335 -0.682969 
-0.958532 -0.682969 4.61996 
6.5537 -1.54951 1.18542 
-1.54951 9.4645 -0.337858 
1.18542 -0.337858 5.03789 
6.60085 -0.848799 0.0573157 
-0.848799 9.82805 -1.41581 
0.0573157 -1.41581 4.62719 
9.89609 -0.0216554 -0.00947231 
-0.0216554 9.88758 -0.0186024 
-0.00947231 -0.0186024 9.97692 
9.90967 -0.0312571 -0.00389805 
-0.0312571 9.89301 -0.0196755 
-0.00389805 -0.0196755 9.95792 
9.9007 -0.0185468 -0.0625716 
-0.0185468 9.92013 -0.0316145 
-0.0625716 -0.0316145 9.93977 
9.80394 -0.0405816 0.0276002 
-0.0405816 9.90159 -0.100682 
0.0276002 -0.100682 10.0551 
9.96708 -0.00316526 -0.0178434 
-0.00316526 9.96717 0.0238452 
-0.0178434 0.0238452 9.96689 
9.9666 -0.00358105 -0.0175939 
-0.00358105 9.96915 0.0216917 
-0.0175939 0.0216917 9.96539 
9.96928 -0.00803332 -0.0168205 
-0.00803332 9.96931 0.0215498 
-0.0168205 0.0215498 9.96255 
9.97176 -0.00464252 -0.0233861 
-0.00464252 9.96675 0.0185176 
-0.0233861 0.0185176 9.96263 
9.92402 0.0145844 -0.0493674 
0.0145844 9.9216 0.0358952 
-0.0493674 0.0358952 9.94328 
9.9313 -0.00709395 -0.0468679 
-0.00709395 9.91968 0.0421961 
-0.0468679 0.0421961 9.93792 
9.92626 0.00720447 -0.0501053 
0.00720447 9.91571 0.0413831 
-0.0501053 0.0413831 9.94693 
9.93574 0.00420582 -0.0494806 
0.00420582 9.90553 0.040892 
-0.0494806 0.040892 9.94763 
9.93528 0.00527111 -0.0366148 
0.00527111 9.92868 0.0717092 
-0.0366148 0.0717092 9.93019 
9.93809 0.00262736 -0.0353697 
0.00262736 9.92465 0.0670175 
-0.0353697 0.0670175 9.93141 
9.93022 0.00282072 -0.0415301 
0.00282072 9.9359 0.0621745 
-0.0415301 0.0621745 9.92803 
9.93596 0.0013578 -0.0378956 
0.0013578 9.9296 0.0758262 
-0.0378956 0.0758262 9.92859 
10.0802 -0.0717841 -0.0886442 
-0.0717841 10.0082 -0.020622 
-0.0886442 -0.020622 9.68372 
10.1563 -0.00810919 -0.063684 
-0.00810919 9.98334 0.0104145 
-0.063684 0.0104145 9.63254 
10.1077 0.0669995 -0.341616 
0.0669995 9.98433 0.0545548 
-0.341616 0.0545548 9.6801 
10.0276 0.0111684 -0.00854965 
0.0111684 9.87681 0.0259698 
-0.00854965 0.0259698 9.86777 
9.98485 0.00230349 -0.0567672 
0.00230349 9.97969 0.0428478 
-0.0567672 0.0428478 9.98763 
9.9843 0.000236103 -0.057246 
0.000236103 9.98176 0.0422141 
-0.057246 0.0422141 9.98611 
9.97881 -0.0017028 -0.0559118 
-0.0017028 9.97913 0.0384333 
-0.0559118 0.0384333 9.99423 
9.98566 -0.00303139 -0.0571835 
-0.00303139 9.98483 0.0444574 
-0.0571835 0.0444574 9.98167 
10.1364 0.0286366 -0.0122018 
0.0286366 10.2559 -0.0318074 
-0.0122018 -0.0318074 10.5829 
10.1879 -0.129142 0.0153745 
-0.129142 10.2107 -0.0785884 
0.0153745 -0.0785884 10.5766 
10.1137 0.00210174 0.00225933 
0.00210174 10.3054 -0.0708341 
0.00225933 -0.0708341 10.556 
10.1034 0.0925025 0.214647 
0.0925025 10.361 0.15477 
0.214647 0.15477 10.5108 
9.95747 -0.00353351 -0.0552506 
-0.00353351 9.96058 0.00342291 
-0.0552506 0.00342291 9.92881 
9.97057 0.00261158 -0.0383513 
0.00261158 9.96485 0.00918619 
-0.0383513 0.00918619 9.91144 
9.96164 -0.00213375 -0.0533242 
-0.00213375 9.95585 0.0116601 
-0.0533242 0.0116601 9.92935 
9.94905 0.0149254 -0.0320657 
0.0149254 9.93836 0.00679542 
-0.0320657 0.00679542 9.95944 
9.96507 -0.0176681 -0.0494491 
-0.0176681 9.98424 0.00236741 
-0.0494491 0.00236741 9.98747 
9.98255 0.00548173 -0.0534531 
0.00548173 9.98009 0.00811332 
-0.0534531 0.00811332 9.97414 
9.98013 -0.00147307 -0.0494657 
-0.00147307 9.98403 0.00861988 
-0.0494657 0.00861988 9.97262 
9.98447 -0.00435431 -0.0513751 
-0.00435431 9.98611 0.0194691 
-0.0513751 0.0194691 9.9662 
9.90467 -0.0284607 -0.0867444 
-0.0284607 9.96459 0.0308775 
-0.0867444 0.0308775 10.2145 
9.95679 -0.0105425 -0.0290596 
-0.0105425 9.93929 0.0217814 
-0.0290596 0.0217814 10.1877 
9.87544 -0.0869413 -0.012728 
-0.0869413 9.96098 0.0345535 
-0.012728 0.0345535 10.2474 
9.92354 -0.0384875 -0.0953328 
-0.0384875 9.92756 0.020291 
-0.0953328 0.020291 10.2327 
9.88067 -3.10895 0.464078 
-3.10895 5.49019 -1.78573 
0.464078 -1.78573 -1.97531 
6.92798 0.493243 -0.25384 
0.493243 5.32376 -0.999389 
-0.25384 -0.999389 1.1438 
8.43039 -0.424119 0.130031 
-0.424119 3.52732 -0.243979 
0.130031 -0.243979 1.43785 
7.78676 -0.468361 0.039087 
-0.468361 3.35778 -0.337647 
0.039087 -0.337647 2.25101 
9.35973 0.0441199 -1.22028 
0.0441199 9.10538 0.135748 
-1.22028 0.135748 9.29601 
10.0058 0.294444 -0.601417 
0.294444 9.47641 0.360611 
-0.601417 0.360611 8.27896 
9.66012 0.240583 -1.37173 
0.240583 9.4105 0.418465 
-1.37173 0.418465 8.6905 
10.15 0.495179 -0.521533 
0.495179 9.24839 0.545727 
-0.521533 0.545727 8.36276 
10.8182 -0.157914 0.0634527 
-0.157914 10.6062 -0.0118336 
0.0634527 -0.0118336 12.9892 
10.6123 -0.191175 -0.117972 
-0.191175 11.6214 -0.111846 
-0.117972 -0.111846 12.1799 
9.38209 -0.391594 -0.0223822 
-0.391594 10.1203 0.0499039 
-0.0223822 0.0499039 14.9112 
10.5052 -0.129975 0.0914937 
-0.129975 11.5291 0.0756556 
0.0914937 0.0756556 12.3793 
9.97444 -0.0315658 -0.016025 
-0.0315658 9.91424 0.000578305 
-0.016025 0.000578305 10.0774 
9.90631 -0.095835 -0.0406908 
-0.095835 10.0001 -0.00836192 
-0.0406908 -0.00836192 10.0596 
9.86041 0.05991 -0.00475328 
0.05991 10.1089 0.00342045 
-0.00475328 0.00342045 9.99672 
9.93312 -0.0504945 -0.0292816 
-0.0504945 10.0291 -0.0458294 
-0.0292816 -0.0458294 10.0039 
9.88183 0.0494969 -0.00620678 
0.0494969 9.92671 -0.00234945 
-0.00620678 -0.00234945 9.94061 
9.88942 0.031417 -0.0381545 
0.031417 9.86253 0.0444177 
-0.0381545 0.0444177 9.99719 
9.89489 -0.0105526 -0.0129994 
-0.0105526 9.85971 0.0292298 
-0.0129994 0.0292298 9.99454 
9.94049 0.0357735 -0.0780548 
0.0357735 9.89021 0.0123735 
-0.0780548 0.0123735 9.91844 
10.1188 0.0788162 -0.256767 
0.0788162 9.96704 0.132003 
-0.256767 0.132003 9.68018 
10.0052 0.0686994 -0.229296 
0.0686994 10.0599 0.135963 
-0.229296 0.135963 9.7009 
10.0454 -0.0728312 -0.176452 
-0.0728312 9.8861 0.0283871 
-0.176452 0.0283871 9.83451 
10.087 0.123635 -0.298433 
0.123635 9.86795 0.201343 
-0.298433 0.201343 9.81105 
9.90969 -0.0344335 -0.0162391 
-0.0344335 9.86671 -0.0386041 
-0.0162391 -0.0386041 9.99971 
9.91005 -0.0382775 -0.0150901 
-0.0382775 9.87014 -0.0468147 
-0.0150901 -0.0468147 9.99592 
9.92496 -0.0565717 -0.0161531 
-0.0565717 9.86977 -0.0320023 
-0.0161531 -0.0320023 9.98137 
9.90754 -0.0415614 -0.0163965 
-0.0415614 9.88236 -0.0421964 
-0.0163965 -0.0421964 9.98621 
9.90411 -0.000550835 -0.0523373 
-0.000550835 9.90728 0.0186232 
-0.0523373 0.0186232 9.93659 
9.90641 0.0195552 -0.0505859 
0.0195552 9.91321 0.0415913 
-0.0505859 0.0415913 9.92836 
9.92152 0.0181814 -0.0718445 
0.0181814 9.87137 0.042659 
-0.0718445 0.042659 9.95509 
9.92144 0.0149472 -0.0629403 
0.0149472 9.90472 0.0456763 
-0.0629403 0.0456763 9.92181 
9.96397 -0.00138096 0.0121073 
-0.00138096 9.97631 -0.013533 
0.0121073 -0.013533 9.98022 
9.97203 -0.00394562 0.0083683 
-0.00394562 9.96856 -0.00618879 
0.0083683 -0.00618879 9.9799 
9.97771 -0.00712082 0.00818816 
-0.00712082 9.96779 -0.0063575 
0.00818816 -0.0063575 9.97499 
9.97878 -0.00592086 0.0105223 
-0.00592086 9.9751 0.00390664 
0.0105223 0.00390664 9.96662 
10.6899 0.0116558 -0.109353 
0.0116558 10.7118 0.105844 
-0.109353 0.105844 10.1722 
9.64802 0.026462 0.24827 
0.026462 9.69554 -0.0765706 
0.24827 -0.0765706 12.2303 
10.9319 -0.205121 -0.145526 
-0.205121 10.8069 -0.117076 
-0.145526 -0.117076 9.83511 
10.0131 0.249146 -1.41835 
0.249146 10.8625 0.562823 
-1.41835 0.562823 10.6983 
9.93404 -0.00159596 -0.0279325 
-0.00159596 9.9303 0.0633419 
-0.0279325 0.0633419 9.91557 
9.93596 -0.00535062 -0.0272653 
-0.00535062 9.92996 0.0648569 
-0.0272653 0.0648569 9.91399 
9.93576 0.0125464 -0.027758 
0.0125464 9.9375 0.0655305 
-0.027758 0.0655305 9.90665 
9.93112 0.00444414 -0.0166842 
0.00444414 9.92195 0.0665497 
-0.0166842 0.0665497 9.92684 
9.89892 0.00489962 0.0493974 
0.00489962 9.91479 -0.0584104 
0.0493974 -0.0584104 9.93523 
9.90031 0.00174569 0.0475238 
0.00174569 9.90594 -0.0576257 
0.0475238 -0.0576257 9.94268 
9.8993 0.00368539 0.0434123 
0.00368539 9.9095 -0.0540413 
0.0434123 -0.0540413 9.94014 
9.89744 0.00599505 0.048172 
0.00599505 9.91754 -0.0499369 
0.048172 -0.0499369 9.93394 
9.9162 0.282136 -0.258564 
0.282136 9.74877 0.174998 
-0.258564 0.174998 10.247 
9.77859 0.270243 -0.287622 
0.270243 10.0018 0.255411 
-0.287622 0.255411 10.1315 
9.98075 -0.0811521 -0.0708668 
-0.0811521 10.2157 -0.165147 
-0.0708668 -0.165147 9.71547 
9.73476 0.220749 0.0247897 
0.220749 9.9067 0.245218 
0.0247897 0.245218 10.2705 
10.2054 0.131225 -0.00474355 
0.131225 10.0336 -0.0433886 
-0.00474355 -0.0433886 10.2621 
10.103 -0.0159551 0.0306641 
-0.0159551 9.98299 -0.0234244 
0.0306641 -0.0234244 10.4151 
10.1429 0.0228822 0.0783899 
0.0228822 10.0613 -0.0284477 
0.0783899 -0.0284477 10.2968 
10.1054 0.0333674 0.00651921 
0.0333674 10.1834 0.0049343 
0.00651921 0.0049343 10.2122 
9.98121 -0.00450444 -0.0230462 
-0.00450444 9.98115 0.0296512 
-0.0230462 0.0296512 9.98303 
9.98153 -0.00246815 -0.0239785 
-0.00246815 9.97931 0.031921 
-0.0239785 0.031921 9.98454 
9.98303 -0.00401624 -0.0241826 
-0.00401624 9.98268 0.0306159 
-0.0241826 0.0306159 9.97967 
9.98297 -0.0036012 -0.0268477 
-0.0036012 9.98168 0.0290677 
-0.0268477 0.0290677 9.98074 
9.91658 -0.135225 -0.0280979 
-0.135225 9.72603 -0.109772 
-0.0280979 -0.109772 9.93976 
9.6497 -0.02766 -0.0875114 
-0.02766 9.7581 -0.125641 
-0.0875114 -0.125641 10.1746 
9.76579 0.199873 0.0437483 
0.199873 9.87167 -0.410275 
0.0437483 -0.410275 9.94492 
10.0439 0.0284179 0.0395019 
0.0284179 9.79983 -0.0778057 
0.0395019 -0.0778057 9.73868 
9.79662 -0.0791545 0.186703 
-0.0791545 10.1409 0.0145629 
0.186703 0.0145629 9.73277 
9.81678 -0.0224301 0.0268742 
-0.0224301 9.98081 -0.0578737 
0.0268742 -0.0578737 9.87265 
9.98755 -0.0685967 0.173043 
-0.0685967 9.90248 0.24099 
0.173043 0.24099 9.78021 
9.99264 -0.0908718 0.117715 
-0.0908718 9.94121 0.00942585 
0.117715 0.00942585 9.73638 
9.91323 -0.0440739 0.0168949 
-0.0440739 9.87046 0.0345644 
0.0168949 0.0345644 9.97237 
9.89554 0.0238951 0.0118571 
0.0238951 9.94219 0.0476009 
0.0118571 0.0476009 9.91832 
9.92262 -0.0649499 0.0400287 
-0.0649499 9.85239 0.0624343 
0.0400287 0.0624343 9.98104 
9.83078 -0.0419334 0.0160483 
-0.0419334 9.95483 0.0251438 
0.0160483 0.0251438 9.97045 
9.97678 -0.00181531 0.034467 
-0.00181531 9.97086 -0.0706433 
0.034467 -0.0706433 9.97354 
9.97369 -0.000865609 0.029351 
-0.000865609 9.97472 -0.0679513 
0.029351 -0.0679513 9.97277 
9.97536 0.000961814 0.0319122 
0.000961814 9.97696 -0.0643923 
0.0319122 -0.0643923 9.96887 
9.97589 -0.00390277 0.0306808 
-0.00390277 9.97295 -0.0707518 
0.0306808 -0.0707518 9.97234 
9.76909 -0.0161757 0.0695189 
-0.0161757 9.98897 -0.0627526 
0.0695189 -0.0627526 10.2263 
9.8571 -0.0768259 -0.0401989 
-0.0768259 10.0033 0.0545249 
-0.0401989 0.0545249 10.1239 
9.95289 -0.233792 0.068508 
-0.233792 9.99843 0.0275614 
0.068508 0.0275614 10.033 
9.83047 -0.14181 0.019674 
-0.14181 10.0099 0.0431375 
0.019674 0.0431375 10.144 
9.97362 -0.00151856 -0.0162622 
-0.00151856 9.97645 0.000774816 
-0.0162622 0.000774816 9.97404 
9.9807 0.00234532 -0.0237505 
0.00234532 9.96722 0.00193061 
-0.0237505 0.00193061 9.97619 
9.97882 -0.00104259 -0.0114044 
-0.00104259 9.97788 0.00142382 
-0.0114044 0.00142382 9.96741 
9.97533 -0.000297024 -0.0169632 
-0.000297024 9.97477 0.00194372 
-0.0169632 0.00194372 9.97401 
9.88201 -0.0120808 0.0974998 
-0.0120808 9.92287 0.0259123 
0.0974998 0.0259123 9.92458 
9.91614 -0.003156 0.0781069 
-0.003156 9.90983 0.0236391 
0.0781069 0.0236391 9.9035 
9.93047 -0.00717112 0.0803584 
-0.00717112 9.9141 0.0146059 
0.0803584 0.0146059 9.8849 
9.89922 -0.014902 0.0677526 
-0.014902 9.9091 0.0297464 
0.0677526 0.0297464 9.92115 
10.06 0.0916578 -0.0334669 
0.0916578 9.88218 -0.226807 
-0.0334669 -0.226807 10.4034 
10.2394 0.146579 0.0975286 
0.146579 9.96099 0.00092751 
0.0975286 0.00092751 10.1452 
10.2202 -0.203612 -0.138974 
-0.203612 9.95504 -0.320731 
-0.138974 -0.320731 10.1704 
10.1452 0.02395 -0.0978221 
0.02395 9.9821 -0.0989365 
-0.0978221 -0.0989365 10.2183 
9.99549 -0.0545034 -0.0400006 
-0.0545034 9.83441 -0.32824 
-0.0400006 -0.32824 9.99055 
9.951 -0.103111 0.0360328 
-0.103111 9.84523 -0.202803 
0.0360328 -0.202803 10.0242 
10.0226 -0.0941658 -0.00578014 
-0.0941658 9.83723 -0.21168 
-0.00578014 -0.21168 9.96058 
10.0014 -0.101746 0.0309288 
-0.101746 9.92004 -0.322543 
0.0309288 -0.322543 9.89897 
10.0633 -0.0286959 0.0241048 
-0.0286959 10.1192 -0.0213432 
0.0241048 -0.0213432 10.0141 
10.0786 0.0179451 0.0264387 
0.0179451 10.0642 0.00538477 
0.0264387 0.00538477 10.0537 
10.026 0.0121817 -0.0015503 
0.0121817 10.0104 -0.0296667 
-0.0015503 -0.0296667 10.1601 
10.0743 0.00956847 0.00152543 
0.00956847 10.0434 0.0436474 
0.00152543 0.0436474 10.0788 
11.9694 0.339523 -1.0892 
0.339523 4.07596 1.1246 
-1.0892 1.1246 16.0703 
8.10529 1.33361 -0.658437 
1.33361 4.87832 1.38604 
-0.658437 1.38604 19.132 
11.8548 1.89334 0.888344 
1.89334 10.8952 -1.18635 
0.888344 -1.18635 9.36562 
10.1304 -0.603425 -0.595986 
-0.603425 10.5002 2.23945 
-0.595986 2.23945 11.4851 
9.99065 0.00191044 0.0357388 
0.00191044 9.991 0.0474478 
0.0357388 0.0474478 9.99537 
9.99117 0.00285381 0.0381012 
0.00285381 9.99003 0.0461905 
0.0381012 0.0461905 9.99582 
9.98897 0.00151157 0.0344601 
0.00151157 9.98848 0.04511 
0.0344601 0.04511 9.99957 
9.99365 0.00166897 0.0380362 
0.00166897 9.99255 0.0453491 
0.0380362 0.0453491 9.99082 
9.9412 -0.0110834 0.0184318 
-0.0110834 9.93172 0.0758769 
0.0184318 0.0758769 9.94458 
9.93652 -0.0058214 0.0212546 
-0.0058214 9.91976 0.0726213 
0.0212546 0.0726213 9.96123 
9.93549 -0.00146722 0.0227755 
-0.00146722 9.95478 0.089252 
0.0227755 0.089252 9.92724 
9.94038 -0.00547145 0.0233184 
-0.00547145 9.95009 0.0744899 
0.0233184 0.0744899 9.92705 
9.93025 -0.00990282 -0.081232 
-0.00990282 9.92228 -0.0282148 
-0.081232 -0.0282148 9.9386 
9.92954 -0.00142903 -0.0699995 
-0.00142903 9.92205 -0.0376816 
-0.0699995 -0.0376816 9.93954 
9.94483 0.00638433 -0.0707666 
0.00638433 9.92518 -0.0431636 
-0.0707666 -0.0431636 9.92112 
9.92589 -0.00191582 -0.0657158 
-0.00191582 9.92576 -0.0298418 
-0.0657158 -0.0298418 9.93948 
9.96632 -0.00807479 0.0212224 
-0.00807479 9.9659 -0.0205491 
0.0212224 -0.0205491 9.97039 
9.97121 -0.00642319 0.0223281 
-0.00642319 9.97234 -0.0131959 
0.0223281 -0.0131959 9.95907 
9.96828 -0.00336397 0.0230322 
-0.00336397 9.96567 -0.0251648 
0.0230322 -0.0251648 9.96867 
9.96289 -0.0045902 0.0276473 
-0.0045902 9.97826 -0.0110816 
0.0276473 -0.0110816 9.96147 
9.92448 0.0184541 -0.000136755 
0.0184541 9.8956 0.0039203 
-0.000136755 0.0039203 9.94037 
9.96123 0.0193004 0.0697994 
0.0193004 9.9611 -0.0555294 
0.0697994 -0.0555294 9.83812 
9.91883 -0.00930687 0.0899246 
-0.00930687 9.9455 -0.0298463 
0.0899246 -0.0298463 9.89612 
9.93481 -0.00401849 0.0833709 
-0.00401849 9.91774 -0.032601 
0.0833709 -0.032601 9.9079 
9.93277 -0.00213644 -0.000942628 
-0.00213644 9.94009 0.011059 
-0.000942628 0.011059 10.0171 
9.93045 9.11788e-05 0.00845921 
9.11788e-05 9.93599 0.0108944 
0.00845921 0.0108944 10.0235 
9.94138 0.0019542 -0.000264702 
0.0019542 9.93661 0.0106687 
-0.000264702 0.0106687 10.0119 
9.92444 0.00516044 0.0128958 
0.00516044 9.94032 0.015499 
0.0128958 0.015499 10.0252 
10.3112 -0.163739 -0.0932803 
-0.163739 9.96294 -0.0743445 
-0.0932803 -0.0743445 10.4324 
10.2903 -0.0984196 -0.0998298 
-0.0984196 9.92169 0.0045494 
-0.0998298 0.0045494 10.4946 
10.2205 -0.27653 -0.0952297 
-0.27653 9.97084 -0.130232 
-0.0952297 -0.130232 10.5152 
10.4375 -0.0239115 0.0411765 
-0.0239115 9.93031 -0.0069079 
0.0411765 -0.0069079 10.3388 
9.92912 0.00551032 -0.0538566 
0.00551032 9.92639 0.047747 
-0.0538566 0.047747 9.9253 
9.9228 0.00573803 -0.0599802 
0.00573803 9.91228 0.0390081 
-0.0599802 0.0390081 9.94573 
9.92761 0.0081686 -0.0594309 
0.0081686 9.91501 0.0456782 
-0.0594309 0.0456782 9.93819 
9.92962 0.00737559 -0.0608452 
0.00737559 9.90968 0.046996 
-0.0608452 0.046996 9.9415 
9.97261 0.0105028 0.0692453 
0.0105028 9.96304 0.036321 
0.0692453 0.036321 9.9391 
9.95764 -0.00640048 0.0725169 
-0.00640048 9.95727 0.0329407 
0.0725169 0.0329407 9.95984 
9.95243 -0.00223519 0.0731557 
-0.00223519 9.94818 0.0387784 
0.0731557 0.0387784 9.97413 
9.95813 -0.00785395 0.0664491 
-0.00785395 9.95535 0.0234596 
0.0664491 0.0234596 9.96127 
9.6769 -0.139969 0.0732975 
-0.139969 10.1862 0.278499 
0.0732975 0.278499 10.8721 
10.4669 0.0033818 -0.00928677 
0.0033818 10.5146 -0.182315 
-0.00928677 -0.182315 9.75368 
10.3829 -0.0212594 0.0273228 
-0.0212594 10.2384 -0.122082 
0.0273228 -0.122082 10.1139 
10.2287 0.218612 0.222303 
0.218612 10.1325 -0.186253 
0.222303 -0.186253 10.374 
9.89776 -0.032028 -0.0512363 
-0.032028 9.85996 -0.0522767 
-0.0512363 -0.0522767 9.95434 
9.84979 0.0100706 0.0167784 
0.0100706 9.88652 -0.0424247 
0.0167784 -0.0424247 9.97574 
9.87989 -0.0368961 -0.0532753 
-0.0368961 9.89758 -0.0537699 
-0.0532753 -0.0537699 9.93459 
9.85092 -0.062032 -0.0430233 
-0.062032 9.87755 -0.0681506 
-0.0430233 -0.0681506 9.98359 
9.96604 -0.00334237 0.029034 
-0.00334237 9.96751 -0.0223969 
0.029034 -0.0223969 9.97063 
9.97336 -0.00914891 0.0211736 
-0.00914891 9.96954 -0.01743 
0.0211736 -0.01743 9.96129 
9.96641 -0.00624202 0.0250384 
-0.00624202 9.96741 -0.0198948 
0.0250384 -0.0198948 9.97037 
9.97577 -0.00803058 0.0174728 
-0.00803058 9.96821 -0.0237939 
0.0174728 -0.0237939 9.96021 
9.96458 0.000473037 0.0240078 
0.000473037 9.95792 -0.00908443 
0.0240078 -0.00908443 9.94496 
9.9785 -0.00286831 0.00617839 
-0.00286831 9.94381 -0.0225248 
0.00617839 -0.0225248 9.94515 
9.96118 -0.00306245 0.0253706 
-0.00306245 9.96353 -0.0197822 
0.0253706 -0.0197822 9.94274 
9.97769 -0.00602358 0.0265743 
-0.00602358 9.96197 -0.0234459 
0.0265743 -0.0234459 9.9278 
9.95846 -0.00353603 -0.0426196 
-0.00353603 9.96436 0.0518892 
-0.0426196 0.0518892 9.9421 
9.93682 0.000579739 -0.0210271 
0.000579739 9.94317 0.0460917 
-0.0210271 0.0460917 9.98492 
9.9538 -0.00607528 -0.0356798 
-0.00607528 9.96315 0.0414298 
-0.0356798 0.0414298 9.94796 
9.95771 -0.0105062 -0.0333647 
-0.0105062 9.96485 0.0400499 
-0.0333647 0.0400499 9.94236 
10.0152 0.233887 -0.0545243 
0.233887 10.1737 0.336656 
-0.0545243 0.336656 10.8496 
10.3351 0.495169 0.046045 
0.495169 9.77018 -0.00147262 
0.046045 -0.00147262 10.9332 
10.4633 0.357764 -0.106853 
0.357764 9.96281 0.339414 
-0.106853 0.339414 10.6124 
10.0829 -0.376515 0.272315 
-0.376515 10.4005 -0.784334 
0.272315 -0.784334 10.5551 
9.93384 -0.00906078 0.0183963 
-0.00906078 9.9302 0.0785814 
0.0183963 0.0785814 9.92012 
9.91388 -0.00351089 0.0216495 
-0.00351089 9.93085 0.0663882 
0.0216495 0.0663882 9.93942 
9.93017 -0.00176813 0.0247784 
-0.00176813 9.92497 0.0777835 
0.0247784 0.0777835 9.92902 
9.93372 -0.0135356 0.0118136 
-0.0135356 9.95347 0.0785311 
0.0118136 0.0785311 9.89697 
10.1559 -0.0676448 0.0235266 
-0.0676448 9.9562 0.0270391 
0.0235266 0.0270391 10.2095 
10.2179 0.0492048 -0.0555819 
0.0492048 10.233 -0.0860085 
-0.0555819 -0.0860085 9.87071 
10.1912 0.261418 -0.036431 
0.261418 10.0561 -0.0934741 
-0.036431 -0.0934741 10.0743 
10.0294 0.0155429 -0.080825 
0.0155429 10.1138 -0.0171709 
-0.080825 -0.0171709 10.1785 
10.2532 0.0586268 0.0125262 
0.0586268 10.1255 -0.108112 
0.0125262 -0.108112 10.2133 
10.1936 0.0199659 -0.0354638 
0.0199659 10.1067 -0.0590755 
-0.0354638 -0.0590755 10.2917 
10.1628 -0.00726625 0.0176084 
-0.00726625 10.1421 -0.0354933 
0.0176084 -0.0354933 10.2871 
10.1923 0.0233376 -0.0147564 
0.0233376 10.1336 -0.0577435 
-0.0147564 -0.0577435 10.2661 
9.86393 0.0569163 -0.0595496 
0.0569163 9.86877 -0.0404064 
-0.0595496 -0.0404064 10.1823 
9.84604 0.0734387 -0.0350616 
0.0734387 9.85162 -0.0151543 
-0.0350616 -0.0151543 10.2173 
9.8495 0.075152 -0.0274785 
0.075152 9.86209 -0.0335762 
-0.0274785 -0.0335762 10.2034 
9.86164 0.0702395 -0.0247075 
0.0702395 9.86983 -0.031908 
-0.0247075 -0.031908 10.1835 
9.94548 0.00600916 -0.00390419 
0.00600916 9.9444 0.00555227 
-0.00390419 0.00555227 10.0054 
9.95483 -0.00722524 0.00373725 
-0.00722524 9.94602 0.0136558 
0.00373725 0.0136558 9.9944 
9.94523 0.00840326 0.00603361 
0.00840326 9.94175 0.00791035 
0.00603361 0.00791035 10.0083 
9.9443 -0.00551804 -0.0019386 
-0.00551804 9.93885 0.0200702 
-0.0019386 0.0200702 10.0121 
10.0898 0.000282704 -0.0254949 
0.000282704 10.1263 0.0147429 
-0.0254949 0.0147429 10.2511 
10.0844 -0.0229532 0.0055035 
-0.0229532 10.2124 0.00835629 
0.0055035 0.00835629 10.1704 
10.1577 -0.00272608 0.0311457 
-0.00272608 10.2341 0.0366249 
0.0311457 0.0366249 10.0754 
10.0853 0.0195108 0.0452296 
0.0195108 10.1823 -0.0033897 
0.0452296 -0.0033897 10.1996 
11.2779 0.142678 3.63132 
0.142678 11.6991 0.825822 
3.63132 0.825822 3.14272 
11.1872 0.274439 1.54885 
0.274439 8.66658 0.783434 
1.54885 0.783434 6.26593 
11.9423 0.277789 0.331048 
0.277789 8.60815 1.24288 
0.331048 1.24288 5.56923 
3.84645 -0.688558 0.710153 
-0.688558 10.7735 -0.936083 
0.710153 -0.936083 11.4998 
9.96896 -0.0103551 0.092062 
-0.0103551 9.90991 0.0987552 
0.092062 0.0987552 9.93074 
9.95344 0.00331059 0.077301 
0.00331059 9.94319 0.0789437 
0.077301 0.0789437 9.91298 
9.93958 -0.0147742 0.066595 
-0.0147742 9.94777 0.0670281 
0.066595 0.0670281 9.92226 
9.96444 0.0364295 0.0690205 
0.0364295 9.98573 0.0930105 
0.0690205 0.0930105 9.85943 
9.97109 -0.0047574 -0.0117778 
-0.0047574 9.9713 0.00885807 
-0.0117778 0.00885807 9.98246 
9.97377 -0.0034071 -0.00906461 
-0.0034071 9.97053 0.0101911 
-0.00906461 0.0101911 9.98055 
9.97417 -0.00262367 -0.00692833 
-0.00262367 9.97292 0.0126432 
-0.00692833 0.0126432 9.97776 
9.97384 -0.00277992 -0.00571874 
-0.00277992 9.9737 0.00818579 
-0.00571874 0.00818579 9.97732 
9.89731 0.00427605 0.0545456 
0.00427605 9.84398 -0.108025 
0.0545456 -0.108025 9.94451 
9.89552 0.0132722 0.0557759 
0.0132722 9.87441 -0.0873166 
0.0557759 -0.0873166 9.91586 
9.88152 0.00911105 0.0587171 
0.00911105 9.8669 -0.0866223 
0.0587171 -0.0866223 9.93738 
9.87326 0.00951165 0.0692965 
0.00951165 9.84802 -0.0655643 
0.0692965 -0.0655643 9.96452 
9.95862 -0.0107804 -0.0357715 
-0.0107804 9.95815 0.037145 
-0.0357715 0.037145 9.96072 
9.96554 -0.0133564 -0.0442647 
-0.0133564 9.95355 0.0459365 
-0.0442647 0.0459365 9.9584 
9.96765 -0.0185685 -0.0221737 
-0.0185685 9.96466 0.0318655 
-0.0221737 0.0318655 9.94518 
9.94715 -0.000639242 -0.0492279 
-0.000639242 9.95129 0.0186952 
-0.0492279 0.0186952 9.97905 
9.91028 -0.00250414 0.0427403 
-0.00250414 9.90807 0.0519968 
0.0427403 0.0519968 9.93376 
9.90426 -0.0180149 0.0577224 
-0.0180149 9.91934 0.0542847 
0.0577224 0.0542847 9.92851 
9.89725 -0.0119206 0.0454112 
-0.0119206 9.91678 0.0493246 
0.0454112 0.0493246 9.93808 
9.89626 -0.00748649 0.0451359 
-0.00748649 9.91737 0.0475939 
0.0451359 0.0475939 9.93848 
9.98291 -0.00294244 0.0164608 
-0.00294244 9.97767 -0.0179286 
0.0164608 -0.0179286 9.98795 
9.98276 -0.00235297 0.0240139 
-0.00235297 9.97971 -0.0137843 
0.0240139 -0.0137843 9.98607 
9.98134 -0.00561883 0.0206944 
-0.00561883 9.98254 -0.0119131 
0.0206944 -0.0119131 9.98465 
9.98971 -0.00590932 0.0150013 
-0.00590932 9.97653 -0.021358 
0.0150013 -0.021358 9.98228 
9.98702 0.010417 -0.00667473 
0.010417 9.96586 -0.0401327 
-0.00667473 -0.0401327 9.98626 
9.97833 0.000883688 -0.0099153 
0.000883688 9.98928 -0.0398789 
-0.0099153 -0.0398789 9.97152 
9.97748 -0.00299542 -0.0083502 
-0.00299542 9.9883 -0.0461616 
-0.0083502 -0.0461616 9.97335 
9.98627 0.00294977 -0.00502523 
0.00294977 9.98268 -0.0404081 
-0.00502523 -0.0404081 9.97018 
10.0468 -0.00390085 0.0155168 
-0.00390085 10.0662 0.0842912 
0.0155168 0.0842912 9.32614 
10.0659 -0.101607 0.0258624 
-0.101607 10.0092 0.184423 
0.0258624 0.184423 9.3641 
10.1968 0.107858 0.0856136 
0.107858 9.71436 0.142377 
0.0856136 0.142377 9.52802 
10.1829 0.062192 0.184387 
0.062192 9.98642 -0.00127533 
0.184387 -0.00127533 9.26992 
9.99516 -0.00273302 0.00679198 
-0.00273302 9.98895 0.03908 
0.00679198 0.03908 9.9993 
9.99983 0.000550039 0.00580725 
0.000550039 9.9971 0.0451035 
0.00580725 0.0451035 9.98647 
9.99455 0.000671917 0.0011808 
0.000671917 9.9868 0.0394229 
0.0011808 0.0394229 10.0021 
9.99759 0.0012748 0.00558346 
0.0012748 10.0011 0.0419096 
0.00558346 0.0419096 9.98469 
10.1255 0.000183493 -0.0212219 
0.000183493 10.1223 -0.00183785 
-0.0212219 -0.00183785 10.1571 
10.0885 -0.0117898 0.00476399 
-0.0117898 10.104 -0.0138885 
0.00476399 -0.0138885 10.2124 
10.1541 -0.00589804 -0.026154 
-0.00589804 10.1545 0.00164696 
-0.026154 0.00164696 10.0963 
10.0939 0.0167199 -0.0485334 
0.0167199 10.1289 0.0209456 
-0.0485334 0.0209456 10.1821 
9.95485 0.0141961 -0.0442007 
0.0141961 9.94733 0.0679596 
-0.0442007 0.0679596 9.99015 
9.96293 0.00268885 -0.0434694 
0.00268885 9.96597 0.057848 
-0.0434694 0.057848 9.96343 
9.96605 -0.0149361 -0.0415421 
-0.0149361 9.97986 0.0687315 
-0.0415421 0.0687315 9.94642 
9.95795 0.00285273 -0.0305663 
0.00285273 9.9705 0.0411919 
-0.0305663 0.0411919 9.96389 
9.91785 -0.0113417 0.0266809 
-0.0113417 9.95018 0.043122 
0.0266809 0.043122 9.91969 
9.92828 0.00485438 0.0202582 
0.00485438 9.92498 0.0710884 
0.0202582 0.0710884 9.93446 
9.95103 -0.00177281 0.0310274 
-0.00177281 9.95085 0.0655716 
0.0310274 0.0655716 9.88583 
9.94447 -0.0161613 0.023974 
-0.0161613 9.9397 0.0537816 
0.023974 0.0537816 9.90355 
9.894 0.0020809 0.0355841 
0.0020809 9.91805 -0.00495728 
0.0355841 -0.00495728 10.1554 
9.88716 0.00753722 0.0443663 
0.00753722 9.9262 -0.00443416 
0.0443663 -0.00443416 10.1541 
9.89398 0.00812453 0.0301738 
0.00812453 9.90362 -0.00273421 
0.0301738 -0.00273421 10.1698 
9.93804 0.0138238 0.0237246 
0.0138238 9.92703 0.0127563 
0.0237246 0.0127563 10.1023 
10.0066 -0.0107969 0.00285214 
-0.0107969 9.9656 0.0121425 
0.00285214 0.0121425 10.0329 
10.0004 0.00330685 -0.0139517 
0.00330685 10.0024 0.031905 
-0.0139517 0.031905 10.0024 
10.0125 -0.00721855 0.0194617 
-0.00721855 9.98585 -0.0179656 
0.0194617 -0.0179656 10.0068 
10.0001 -0.000115997 0.00355994 
-0.000115997 9.96704 0.0141989 
0.00355994 0.0141989 10.038 
9.98281 -0.000394078 0.0188226 
-0.000394078 9.98622 -0.0109608 
0.0188226 -0.0109608 10.0024 
9.98616 2.50536e-05 0.0145318 
2.50536e-05 9.98242 -0.0152602 
0.0145318 -0.0152602 10.0028 
9.99164 -0.00314504 0.0176703 
-0.00314504 9.99198 -0.0132653 
0.0176703 -0.0132653 9.98776 
9.99115 -0.00587461 0.0136206 
-0.00587461 9.99124 -0.0090434 
0.0136206 -0.0090434 9.989 
9.96983 0.0166377 -0.0235039 
0.0166377 9.93493 -0.0235055 
-0.0235039 -0.0235055 10.0045 
9.97333 -0.00178572 0.0614753 
-0.00178572 9.97409 0.0560332 
0.0614753 0.0560332 9.96185 
9.9631 -0.00241845 -0.00189206 
-0.00241845 9.93858 -0.0198584 
-0.00189206 -0.0198584 10.0076 
9.92036 -0.0562464 -0.0109879 
-0.0562464 9.97725 -0.00825734 
-0.0109879 -0.00825734 10.0116 
10.0089 0.00562934 -0.00639629 
0.00562934 9.95841 -0.0203839 
-0.00639629 -0.0203839 10.1983 
9.96167 0.0252951 0.00585325 
0.0252951 9.97526 0.00228706 
0.00585325 0.00228706 10.2286 
9.94886 0.00761638 -0.0232897 
0.00761638 9.97381 0.0365252 
-0.0232897 0.0365252 10.2429 
9.96889 0.017589 2.99831e-05 
0.017589 9.97319 0.00650982 
2.99831e-05 0.00650982 10.2234 
10.2384 0.0887315 -0.0373816 
0.0887315 9.72088 -0.0841136 
-0.0373816 -0.0841136 10.2776 
9.92067 0.00285945 -0.0422504 
0.00285945 9.93895 0.123738 
-0.0422504 0.123738 10.3772 
10.0975 -0.0464259 0.0465113 
-0.0464259 9.84362 0.0772899 
0.0465113 0.0772899 10.2957 
10.0419 0.0134653 -0.0439355 
0.0134653 9.99377 0.0329936 
-0.0439355 0.0329936 10.2012 
13.6836 -0.488018 -0.4219 
-0.488018 10.8278 -2.04033 
-0.4219 -2.04033 8.54044 
10.6297 -1.4654 -0.0397102 
-1.4654 1.15957 1.81095 
-0.0397102 1.81095 21.2626 
10.8976 0.123183 0.489648 
0.123183 7.68057 0.72679 
0.489648 0.72679 14.4736 
10.4586 0.537358 1.0801 
0.537358 12.0398 3.40505 
1.0801 3.40505 10.5534 
9.94476 -0.010199 -0.046402 
-0.010199 10.0516 0.0815391 
-0.046402 0.0815391 9.67401 
9.96344 -0.00751942 0.0244027 
-0.00751942 9.90698 0.080249 
0.0244027 0.080249 9.79998 
9.92075 -0.00184591 0.0292378 
-0.00184591 9.90106 -0.0541963 
0.0292378 -0.0541963 9.84859 
9.9553 0.0208801 0.0445181 
0.0208801 9.92267 0.0324425 
0.0445181 0.0324425 9.79243 
9.96509 -0.0166956 0.0226492 
-0.0166956 9.95722 -0.0183688 
0.0226492 -0.0183688 9.9572 
9.9586 -0.0114928 0.0200631 
-0.0114928 9.96371 -0.0195564 
0.0200631 -0.0195564 9.95719 
9.96399 -0.00609234 0.0213898 
-0.00609234 9.95117 -0.0182838 
0.0213898 -0.0182838 9.96434 
9.95034 -0.0092188 0.021666 
-0.0092188 9.96706 -0.0224669 
0.021666 -0.0224669 9.9621 
10.9477 -0.31228 -0.012334 
-0.31228 10.3075 0.171494 
-0.012334 0.171494 12.82 
9.75554 -0.244683 -0.180859 
-0.244683 8.01924 0.654876 
-0.180859 0.654876 16.3004 
10.7177 0.195142 -0.168994 
0.195142 10.5426 0.0763359 
-0.168994 0.0763359 12.8149 
11.7052 -0.239832 -0.379677 
-0.239832 10.0875 0.436367 
-0.379677 0.436367 12.2824 
9.92833 0.136229 0.794188 
0.136229 9.65293 -0.019188 
0.794188 -0.019188 9.4393 
10.0454 -0.0767857 0.499697 
-0.0767857 9.71938 -0.00575638 
0.499697 -0.00575638 9.25582 
9.72175 -0.210612 0.0764335 
-0.210612 9.8177 0.092699 
0.0764335 0.092699 9.48111 
10.6258 0.0403177 0.429197 
0.0403177 9.77504 -0.101359 
0.429197 -0.101359 8.61975 
9.89455 -0.00516682 -0.00227007 
-0.00516682 9.91868 -0.0369609 
-0.00227007 -0.0369609 9.97346 
9.90164 0.00509848 0.03295 
0.00509848 9.89909 -0.0247365 
0.03295 -0.0247365 9.98595 
9.95895 0.0391473 0.0103841 
0.0391473 9.8375 -0.0153248 
0.0103841 -0.0153248 9.99023 
9.89753 0.0239166 0.0161262 
0.0239166 9.91146 -0.0671427 
0.0161262 -0.0671427 9.97769 
9.92261 0.0143208 -0.0353525 
0.0143208 9.92084 0.0405736 
-0.0353525 0.0405736 9.9416 
9.92122 -0.00796203 -0.0461447 
-0.00796203 9.93436 0.0463792 
-0.0461447 0.0463792 9.92947 
9.92686 -0.0117066 -0.0534404 
-0.0117066 9.92904 0.0455252 
-0.0534404 0.0455252 9.92916 
9.9108 0.00253213 -0.0428563 
0.00253213 9.92845 0.0524314 
-0.0428563 0.0524314 9.9458 
9.92337 0.000191529 0.322222 
0.000191529 9.80333 0.210552 
0.322222 0.210552 9.81648 
10.0081 0.0565051 0.200992 
0.0565051 9.85471 0.0403628 
0.200992 0.0403628 9.68038 
9.95313 -0.00310891 0.136005 
-0.00310891 9.93223 0.192643 
0.136005 0.192643 9.65781 
9.80947 0.098644 0.266195 
0.098644 9.96081 -0.0120764 
0.266195 -0.0120764 9.7729 
9.94679 0.0166444 0.0018906 
0.0166444 9.77896 -0.0473769 
0.0018906 -0.0473769 9.9805 
9.96222 0.0145659 0.0197312 
0.0145659 9.77448 -0.102987 
0.0197312 -0.102987 9.96955 
9.82164 -0.0160679 -0.0255185 
-0.0160679 10.0204 -0.0371733 
-0.0255185 -0.0371733 9.8642 
9.87318 0.105402 0.0266398 
0.105402 9.85927 -0.0579362 
0.0266398 -0.0579362 9.9738 
10.2002 0.061141 -0.00777042 
0.061141 10.1939 -0.103217 
-0.00777042 -0.103217 10.362 
10.2157 0.11506 -0.00925293 
0.11506 10.0977 -0.0426287 
-0.00925293 -0.0426287 10.4428 
10.2594 0.072579 0.0289887 
0.072579 10.1738 -0.162915 
0.0289887 -0.162915 10.323 
10.1763 -0.0974387 -0.0550604 
-0.0974387 10.2755 0.0446235 
-0.0550604 0.0446235 10.3044 
9.88604 0.0545355 -0.0485298 
0.0545355 9.93099 -0.0393982 
-0.0485298 -0.0393982 9.92083 
9.85633 0.0413643 -0.0791722 
0.0413643 9.90432 0.0527392 
-0.0791722 0.0527392 9.97722 
9.84666 0.0523845 -0.028377 
0.0523845 9.91992 -0.0238895 
-0.028377 -0.0238895 9.97129 
9.86752 0.0420306 -0.0405935 
0.0420306 9.90421 0.00188612 
-0.0405935 0.00188612 9.96614 
9.59815 -0.168786 0.189643 
-0.168786 10.4742 -0.454553 
0.189643 -0.454553 10.7763 
9.41031 -0.157065 -0.305384 
-0.157065 10.2629 -0.243327 
-0.305384 -0.243327 11.1754 
9.43553 -0.331116 -0.152981 
-0.331116 10.4005 -0.106553 
-0.152981 -0.106553 11.0126 
9.67219 -0.50124 -0.268554 
-0.50124 10.4442 -0.0681636 
-0.268554 -0.0681636 10.7323 
9.99684 0.109985 0.0440793 
0.109985 9.97776 -0.0414529 
0.0440793 -0.0414529 10.094 
10.0286 -0.00791685 -0.137209 
-0.00791685 9.8573 -0.205896 
-0.137209 -0.205896 10.1826 
9.97561 0.000477835 -0.0199893 
0.000477835 9.89445 -0.145826 
-0.0199893 -0.145826 10.1985 
9.95691 -0.0634658 -0.0552196 
-0.0634658 9.77996 -0.162311 
-0.0552196 -0.162311 10.3317 
9.97791 -0.00538403 0.00995462 
-0.00538403 9.94502 -0.0121353 
0.00995462 -0.0121353 10.0036 
9.99052 0.021193 -0.00148197 
0.021193 9.97126 0.0375761 
-0.00148197 0.0375761 9.9647 
9.98581 -0.0253117 -0.00880444 
-0.0253117 9.96301 -0.026299 
-0.00880444 -0.026299 9.97766 
9.98972 0.00122249 0.00553756 
0.00122249 9.95058 -0.00489642 
0.00553756 -0.00489642 9.98617 
9.87664 0.00151468 0.0197163 
0.00151468 9.90933 -0.0408114 
0.0197163 -0.0408114 9.95699 
9.89389 0.0292441 0.0296242 
0.0292441 9.90025 -0.0232303 
0.0296242 -0.0232303 9.94882 
9.89489 0.0154798 0.024862 
0.0154798 9.89494 -0.0279361 
0.024862 -0.0279361 9.95312 
9.90516 0.0105024 0.0332564 
0.0105024 9.8876 -0.0303509 
0.0332564 -0.0303509 9.9502 
9.93346 -0.00156592 -0.0421154 
-0.00156592 9.87294 0.0401712 
-0.0421154 0.0401712 10.0592 
9.90536 -0.0146751 -0.0275178 
-0.0146751 9.90173 0.0581595 
-0.0275178 0.0581595 10.0585 
9.92265 0.0219475 -0.0309826 
0.0219475 9.9042 0.0529964 
-0.0309826 0.0529964 10.0387 
9.92311 -0.00564496 -0.0326601 
-0.00564496 9.89638 0.0470942 
-0.0326601 0.0470942 10.0461 
9.83893 0.095451 -0.0301886 
0.095451 9.84368 -0.0415828 
-0.0301886 -0.0415828 10.0046 
9.87897 0.106431 -0.0479052 
0.106431 9.83306 -0.0611254 
-0.0479052 -0.0611254 9.97523 
9.88329 0.0923095 -0.067543 
0.0923095 9.83455 -0.0615451 
-0.067543 -0.0615451 9.96942 
9.87652 0.0514981 -0.0561971 
0.0514981 9.84421 -0.0406723 
-0.0561971 -0.0406723 9.96652 
9.903 0.00256145 -0.0230726 
0.00256145 9.94494 0.0190631 
-0.0230726 0.0190631 10.0121 
9.89731 -0.0165455 -0.0307345 
-0.0165455 9.95175 0.0128514 
-0.0307345 0.0128514 10.011 
9.90481 0.0159045 -0.0167662 
0.0159045 9.96562 0.0223007 
-0.0167662 0.0223007 9.98963 
9.94209 -0.00753771 0.00632767 
-0.00753771 9.92705 0.0427562 
0.00632767 0.0427562 9.99092 
9.95296 -0.013842 0.0104744 
-0.013842 9.95577 -0.00395866 
0.0104744 -0.00395866 9.95769 
9.94849 -0.0115681 0.00772541 
-0.0115681 9.95744 0.00382424 
0.00772541 0.00382424 9.9605 
9.97763 -0.0223022 0.00775255 
-0.0223022 9.94849 -0.0021135 
0.00775255 -0.0021135 9.94031 
9.94472 -0.00512172 0.0180408 
-0.00512172 9.96435 -0.0012022 
0.0180408 -0.0012022 9.95735 
9.91916 0.0131833 -0.0638468 
0.0131833 9.89488 0.0528228 
-0.0638468 0.0528228 9.92166 
9.91198 0.0113984 -0.0645922 
0.0113984 9.90244 0.053618 
-0.0645922 0.053618 9.92128 
9.91649 0.0202733 -0.0754902 
0.0202733 9.89783 0.063328 
-0.0754902 0.063328 9.92138 
9.89571 -0.00194461 -0.0720585 
-0.00194461 9.91742 0.0446951 
-0.0720585 0.0446951 9.92257 
10.1691 -0.128257 0.0034716 
-0.128257 10.1368 -0.0197988 
0.0034716 -0.0197988 10.0077 
10.0336 0.013138 -0.0133085 
0.013138 10.1898 0.000630813 
-0.0133085 0.000630813 10.0902 
9.99488 0.0149434 0.00428771 
0.0149434 9.885 -0.0141133 
0.00428771 -0.0141133 10.4338 
10.1496 -0.0433308 -0.168434 
-0.0433308 10.1063 -0.193956 
-0.168434 -0.193956 10.0577 
9.8432 0.0643097 -0.000619324 
0.0643097 9.80829 0.0269119 
-0.000619324 0.0269119 10.0842 
9.9079 0.042286 -0.0390277 
0.042286 9.84717 0.0831633 
-0.0390277 0.0831633 9.98057 
9.97291 0.0617701 -0.0242725 
0.0617701 9.917 0.0104854 
-0.0242725 0.0104854 9.84575 
9.94529 0.0452249 -0.0170215 
0.0452249 9.82411 0.0894418 
-0.0170215 0.0894418 9.96625 
9.9058 0.000931491 -0.0543948 
0.000931491 9.90432 -0.037449 
-0.0543948 -0.037449 9.94328 
9.9145 -0.00837398 -0.0739784 
-0.00837398 9.9094 -0.048902 
-0.0739784 -0.048902 9.9295 
9.90814 -0.0129494 -0.0641071 
-0.0129494 9.91586 -0.0341294 
-0.0641071 -0.0341294 9.92941 
9.91537 -0.00709054 -0.0741931 
-0.00709054 9.91327 -0.0388229 
-0.0741931 -0.0388229 9.92477 
9.86193 0.0192318 -0.027375 
0.0192318 9.84486 -0.0966946 
-0.027375 -0.0966946 9.97106 
9.83452 0.053527 0.0847551 
0.053527 9.83717 -0.0395024 
0.0847551 -0.0395024 10.0062 
9.90989 -0.0511017 0.0672684 
-0.0511017 9.98387 0.0352998 
0.0672684 0.0352998 9.7841 
9.78215 0.0550254 0.105966 
0.0550254 9.95523 0.00404389 
0.105966 0.00404389 9.94047 
9.99355 -0.000654019 0.0415575 
-0.000654019 9.9929 -0.00044986 
0.0415575 -0.00044986 9.99728 
9.99271 0.000173051 0.0395735 
0.000173051 9.99079 -0.00357184 
0.0395735 -0.00357184 10.0002 
9.99372 -0.000916591 0.0389051 
-0.000916591 9.99499 1.83628e-05 
0.0389051 1.83628e-05 9.99502 
9.99695 -0.00140671 0.0394757 
-0.00140671 9.99529 0.000760322 
0.0394757 0.000760322 9.9915 
10.0101 0.0114008 0.00332885 
0.0114008 10.0193 -0.0128298 
0.00332885 -0.0128298 10.0574 
10.0485 -0.0356193 -0.00381232 
-0.0356193 10.0195 0.00112312 
-0.00381232 0.00112312 10.0187 
10.0087 -0.0214345 -0.00587183 
-0.0214345 10.0349 0.00152258 
-0.00587183 0.00152258 10.0433 
10.0319 -0.0277974 0.0231012 
-0.0277974 10.0053 0.0183536 
0.0231012 0.0183536 10.0496 
10.3537 -0.0507135 -0.105151 
-0.0507135 10.1977 0.159028 
-0.105151 0.159028 10.3086 
10.2344 -0.263435 -0.106869 
-0.263435 10.6058 0.262524 
-0.106869 0.262524 10.0198 
10.0362 0.0455226 -0.022323 
0.0455226 10.0636 -0.132275 
-0.022323 -0.132275 10.7603 
10.3566 0.0381586 -0.235239 
0.0381586 9.97278 0.306704 
-0.235239 0.306704 10.5307 
9.97851 0.00695626 -0.0226312 
0.00695626 9.98487 -0.00552093 
-0.0226312 -0.00552093 9.98569 
9.98304 0.00977417 -0.0222862 
0.00977417 9.98647 -0.000998822 
-0.0222862 -0.000998822 9.97956 
9.97823 0.000433377 -0.0220963 
0.000433377 9.98672 -0.0118596 
-0.0220963 -0.0118596 9.98412 
9.98495 -0.000996188 -0.0212763 
-0.000996188 9.98414 -0.00971415 
-0.0212763 -0.00971415 9.97998 
9.95321 -0.00788462 -0.0109689 
-0.00788462 9.94965 0.0154851 
-0.0109689 0.0154851 9.96681 
9.94693 -0.000918828 -0.00620364 
-0.000918828 9.94293 0.0106418 
-0.00620364 0.0106418 9.9798 
9.94361 -0.00283523 -0.00935365 
-0.00283523 9.94586 0.00590223 
-0.00935365 0.00590223 9.98019 
9.9467 -0.00612211 -0.00869922 
-0.00612211 9.95027 0.0133164 
-0.00869922 0.0133164 9.97269 
9.95486 -0.014093 0.024462 
-0.014093 9.95961 -0.0126665 
0.024462 -0.0126665 9.9413 
9.95253 -0.00969874 0.0210207 
-0.00969874 9.96 -0.0106293 
0.0210207 -0.0106293 9.94324 
9.978 -0.0078197 0.022119 
-0.0078197 9.94689 -0.0126331 
0.022119 -0.0126331 9.93088 
9.96119 -0.0091185 0.0222458 
-0.0091185 9.94777 -0.00967095 
0.0222458 -0.00967095 9.94682 
9.9925 0.00266425 0.0290212 
0.00266425 9.99638 0.0171288 
0.0290212 0.0171288 9.99464 
9.9956 0.00341585 0.0278394 
0.00341585 9.99639 0.0188454 
0.0278394 0.0188454 9.99153 
9.98848 0.00103006 0.0310625 
0.00103006 9.99026 0.0188315 
0.0310625 0.0188315 10.0048 
9.9965 0.00319274 0.0256273 
0.00319274 9.9964 0.0171092 
0.0256273 0.0171092 9.99063 
10.0029 0.00261194 -0.0299893 
0.00261194 10.0108 0.0309192 
-0.0299893 0.0309192 10.0235 
9.9541 -0.00867123 -0.00471873 
-0.00867123 10.0342 -0.00276664 
-0.00471873 -0.00276664 10.0489 
10.0314 0.0297268 -0.0157611 
0.0297268 9.99599 -0.00135057 
-0.0157611 -0.00135057 10.0098 
9.99297 -0.0109955 -0.0129608 
-0.0109955 10.0081 0.0053076 
-0.0129608 0.0053076 10.0361 
10.4017 1.56077 -0.505799 
1.56077 9.32627 0.409884 
-0.505799 0.409884 10.5209 
5.44453 -2.24005 0.89885 
-2.24005 11.2674 1.03095 
0.89885 1.03095 13.537 
8.64339 -0.880012 1.96245 
-0.880012 11.7793 -0.80973 
1.96245 -0.80973 9.82624 
10.5862 0.107555 2.37285 
0.107555 8.66513 0.00546219 
2.37285 0.00546219 10.9976 
9.8226 0.0570129 0.219345 
0.0570129 9.82443 -0.0506716 
0.219345 -0.0506716 9.77373 
9.75667 0.0450054 0.269321 
0.0450054 9.82413 -0.0709682 
0.269321 -0.0709682 9.83996 
9.72786 0.0954424 0.31387 
0.0954424 9.86826 -0.119681 
0.31387 -0.119681 9.82464 
9.60575 -0.0432412 0.201437 
-0.0432412 9.96718 0.0142906 
0.201437 0.0142906 9.84782 
9.97362 0.000172372 0.0413403 
0.000172372 9.97604 0.058976 
0.0413403 0.058976 9.97346 
9.9735 0.00013297 0.039417 
0.00013297 9.97488 0.0607059 
0.039417 0.0607059 9.97475 
9.96981 8.70309e-05 0.0415735 
8.70309e-05 9.97356 0.0568681 
0.0415735 0.0568681 9.97975 
9.97783 0.000450135 0.04053 
0.000450135 9.97507 0.0632352 
0.04053 0.0632352 9.97023 
10.6634 0.0609418 0.197895 
0.0609418 10.6131 -0.284971 
0.197895 -0.284971 9.9634 
10.5053 0.0870747 0.0909429 
0.0870747 10.2909 -0.276139 
0.0909429 -0.276139 10.4438 
9.69118 0.176515 -0.159735 
0.176515 9.73873 0.499766 
-0.159735 0.499766 11.81 
10.5041 0.65788 0.594299 
0.65788 9.66318 -0.631156 
0.594299 -0.631156 11.0726 
9.94603 0.00599777 -0.0298625 
0.00599777 9.95181 -0.0448609 
-0.0298625 -0.0448609 9.93543 
9.94595 0.00949475 -0.0257673 
0.00949475 9.95251 -0.0482258 
-0.0257673 -0.0482258 9.93482 
9.94462 0.0101696 -0.0318213 
0.0101696 9.94946 -0.0549049 
-0.0318213 -0.0549049 9.93919 
9.94147 -0.0115979 -0.0185433 
-0.0115979 9.94319 -0.047677 
-0.0185433 -0.047677 9.94861 
9.96826 0.00213048 -0.0502301 
0.00213048 9.96721 0.0591753 
-0.0502301 0.0591753 9.95594 
9.96319 -0.000974878 -0.0409779 
-0.000974878 9.96454 0.0603643 
-0.0409779 0.0603643 9.96369 
9.96081 -0.00124374 -0.035374 
-0.00124374 9.95284 0.0704447 
-0.035374 0.0704447 9.97777 
9.96012 -0.00271939 -0.0362177 
-0.00271939 9.9666 0.0590054 
-0.0362177 0.0590054 9.96469 
9.99056 -0.000249967 0.0208034 
-0.000249967 9.99611 0.051944 
0.0208034 0.051944 9.99051 
9.99192 0.00196315 0.0210121 
0.00196315 9.99513 0.0519087 
0.0210121 0.0519087 9.99013 
9.98257 0.00173978 0.0187884 
0.00173978 9.98249 0.0508277 
0.0187884 0.0508277 10.0121 
9.99594 0.000384681 0.0223326 
0.000384681 9.99557 0.0559964 
0.0223326 0.0559964 9.98567 
10.5627 0.0544432 0.049901 
0.0544432 10.4169 0.0109209 
0.049901 0.0109209 9.65002 
10.3367 -0.00233552 0.106428 
-0.00233552 10.1738 0.0726587 
0.106428 0.0726587 10.1191 
9.92775 0.0977943 -0.212105 
0.0977943 9.58294 -0.0233439 
-0.212105 -0.0233439 11.1189 
10.2298 -0.10687 0.49121 
-0.10687 10.065 0.43892 
0.49121 0.43892 10.3348 
9.90938 0.0155098 0.0948223 
0.0155098 9.90153 -0.0539052 
0.0948223 -0.0539052 9.913 
9.84877 0.0470074 0.128994 
0.0470074 9.90357 -0.0647304 
0.128994 -0.0647304 9.97158 
9.9142 0.0274078 0.159905 
0.0274078 9.94311 -0.0907147 
0.159905 -0.0907147 9.86661 
9.84092 0.0265332 0.138776 
0.0265332 9.9156 -0.0438287 
0.138776 -0.0438287 9.9674 
9.93879 -0.00113597 0.0579015 
-0.00113597 9.94051 0.0426057 
0.0579015 0.0426057 9.94832 
9.93785 0.00100817 0.0565375 
0.00100817 9.93863 0.044054 
0.0565375 0.044054 9.95113 
9.93806 0.00192243 0.057939 
0.00192243 9.93644 0.0443991 
0.057939 0.0443991 9.95312 
9.94267 0.00288088 0.0582497 
0.00288088 9.94419 0.0422382 
0.0582497 0.0422382 9.94075 
9.94145 0.00171753 0.0575535 
0.00171753 9.95206 0.0463032 
0.0575535 0.0463032 9.9666 
9.9526 -0.00383289 0.054364 
-0.00383289 9.9512 0.0505121 
0.054364 0.0505121 9.95631 
9.94244 -0.00122956 0.056163 
-0.00122956 9.94867 0.051476 
0.056163 0.051476 9.969 
9.95584 -0.00312454 0.0530139 
-0.00312454 9.95252 0.0476253 
0.0530139 0.0476253 9.95175 
9.94732 0.00563109 -0.0709664 
0.00563109 9.94912 0.032212 
-0.0709664 0.032212 9.94436 
9.94805 0.00432547 -0.0691632 
0.00432547 9.9464 0.0328578 
-0.0691632 0.0328578 9.94635 
9.94721 0.00460292 -0.0711692 
0.00460292 9.9493 0.0337891 
-0.0711692 0.0337891 9.94429 
9.95099 0.0050894 -0.0718724 
0.0050894 9.94723 0.041154 
-0.0718724 0.041154 9.94259 
9.97842 0.00203553 -0.0399414 
0.00203553 9.97643 0.0585637 
-0.0399414 0.0585637 9.97782 
9.97528 0.00168138 -0.0405859 
0.00168138 9.97478 0.0612139 
-0.0405859 0.0612139 9.98261 
9.97465 -0.00365708 -0.0414638 
-0.00365708 9.9727 0.0561923 
-0.0414638 0.0561923 9.98533 
9.97817 0.00275691 -0.0429494 
0.00275691 9.97956 0.0627383 
-0.0429494 0.0627383 9.97494 
10.2335 0.00654708 0.0131859 
0.00654708 10.1916 0.0214727 
0.0131859 0.0214727 10.2246 
10.2595 0.0175657 0.0120989 
0.0175657 10.2829 0.0350058 
0.0120989 0.0350058 10.1073 
10.1231 0.0180517 0.0693768 
0.0180517 10.1735 0.0373448 
0.0693768 0.0373448 10.3531 
10.1451 -0.00141081 -0.0435144 
-0.00141081 10.2628 -0.0243807 
-0.0435144 -0.0243807 10.2418 
10 0.0442507 -0.284757 
0.0442507 9.67178 -0.198667 
-0.284757 -0.198667 9.82424 
9.78289 -0.0904474 -0.198544 
-0.0904474 9.83843 -0.0729908 
-0.198544 -0.0729908 9.87473 
9.85453 0.0565887 -0.170658 
0.0565887 9.82647 -0.0136827 
-0.170658 -0.0136827 9.81505 
9.8392 -0.125262 -0.166771 
-0.125262 9.95645 -0.0119888 
-0.166771 -0.0119888 9.7004 
9.90861 0.0254266 -0.0686638 
0.0254266 9.91837 0.0405953 
-0.0686638 0.0405953 9.91131 
9.92707 0.00718869 -0.0767358 
0.00718869 9.91021 0.0138135 
-0.0767358 0.0138135 9.901 
9.90239 0.0142027 -0.0853058 
0.0142027 9.92006 0.0269455 
-0.0853058 0.0269455 9.91584 
9.90947 0.0173595 -0.0858336 
0.0173595 9.90932 0.0338365 
-0.0858336 0.0338365 9.91949 
9.97334 0.00775032 -0.0914678 
0.00775032 10.0579 0.0288726 
-0.0914678 0.0288726 10.2901 
10.0601 -0.00596765 0.120226 
-0.00596765 10.172 -0.0204342 
0.120226 -0.0204342 10.0891 
9.94079 0.00150741 -0.0348306 
0.00150741 10.0089 0.01498 
-0.0348306 0.01498 10.3716 
9.9952 -0.0489381 -0.00492998 
-0.0489381 10.0874 -0.0519807 
-0.00492998 -0.0519807 10.2387 
9.9652 0.00215582 -0.0101507 
0.00215582 9.96636 -0.0181803 
-0.0101507 -0.0181803 9.96418 
9.9747 0.00396907 -0.0097797 
0.00396907 9.97669 -0.0221814 
-0.0097797 -0.0221814 9.94435 
9.96724 0.00106834 -0.0102741 
0.00106834 9.96838 -0.0206543 
-0.0102741 -0.0206543 9.96011 
9.97407 0.00272601 -0.00889819 
0.00272601 9.9648 -0.0204709 
-0.00889819 -0.0204709 9.95687 
9.91972 0.00591193 0.0479945 
0.00591193 9.93558 0.0476233 
0.0479945 0.0476233 9.94502 
9.92361 0.00583881 0.0491483 
0.00583881 9.92938 0.0473559 
0.0491483 0.0473559 9.94733 
9.92585 0.00811275 0.047816 
0.00811275 9.92964 0.0467853 
0.047816 0.0467853 9.94482 
9.92208 0.005426 0.0423131 
0.005426 9.93354 0.0494864 
0.0423131 0.0494864 9.94469 
9.92274 0.0194735 -0.0824826 
0.0194735 9.91617 0.0286016 
-0.0824826 0.0286016 9.71392 
9.94573 -0.00735533 -0.032363 
-0.00735533 9.87584 -0.000814274 
-0.032363 -0.000814274 9.73124 
9.91822 -0.0112198 0.0562891 
-0.0112198 10.0891 -0.0354929 
0.0562891 -0.0354929 9.54546 
9.86862 -0.0134458 -0.031614 
-0.0134458 9.94429 0.0738265 
-0.031614 0.0738265 9.73992 
9.84527 -0.00325616 -0.0548881 
-0.00325616 9.90833 -0.0594292 
-0.0548881 -0.0594292 9.91999 
9.83069 0.00849465 -0.110883 
0.00849465 9.92855 0.0312248 
-0.110883 0.0312248 9.91436 
9.88689 0.0031128 -0.0727306 
0.0031128 9.8923 0.0220534 
-0.0727306 0.0220534 9.8944 
9.87347 -0.0176604 -0.115979 
-0.0176604 9.87373 -0.0316975 
-0.115979 -0.0316975 9.92639 
10.0182 0.0169945 -0.00260725 
0.0169945 10.0212 0.00201013 
-0.00260725 0.00201013 10.0528 
10.0128 0.0166674 -0.0261442 
0.0166674 10.0406 0.0213811 
-0.0261442 0.0213811 10.0388 
10.0215 0.0133632 -0.0217761 
0.0133632 10.0173 0.0160824 
-0.0217761 0.0160824 10.0534 
9.99344 0.0284729 -0.0034534 
0.0284729 10.0385 0.00970432 
-0.0034534 0.00970432 10.0603 
9.9122 -0.0061785 0.0451845 
-0.0061785 9.92195 0.0571149 
0.0451845 0.0571149 9.93612 
9.91125 -0.0069521 0.0492948 
-0.0069521 9.92424 0.0445397 
0.0492948 0.0445397 9.93478 
9.91705 -0.00357829 0.0402081 
-0.00357829 9.91541 0.0448174 
0.0402081 0.0448174 9.93781 
9.91239 0.00432292 0.0378496 
0.00432292 9.90863 0.0575146 
0.0378496 0.0575146 9.94926 
5.48094 -0.99111 0.336996 
-0.99111 3.35281 -1.74254 
0.336996 -1.74254 6.05682 
7.72377 0.780443 1.55104 
0.780443 6.97838 0.507849 
1.55104 0.507849 0.188402 
12.6025 3.63464 1.94717 
3.63464 7.08021 -0.668698 
1.94717 -0.668698 -4.79216 
5.66057 -0.444825 5.3321 
-0.444825 5.48582 1.74897 
5.3321 1.74897 3.74416 
9.97568 -0.00273794 0.0189964 
-0.00273794 9.98399 -0.0150131 
0.0189964 -0.0150131 9.98901 
9.98411 -0.0073241 0.0148001 
-0.0073241 9.97957 -0.0150495 
0.0148001 -0.0150495 9.98501 
9.98388 -0.00390687 0.0166627 
-0.00390687 9.98112 -0.0189071 
0.0166627 -0.0189071 9.98369 
9.97546 -0.00170486 0.0220472 
-0.00170486 9.99105 -0.00845417 
0.0220472 -0.00845417 9.98217 
9.98315 -0.00160055 0.0320508 
-0.00160055 9.98559 -0.0539713 
0.0320508 -0.0539713 10.0097 
9.99335 -0.000513399 0.0319648 
-0.000513399 9.994 -0.0576237 
0.0319648 -0.0576237 9.9911 
9.99458 -0.00262964 0.0313595 
-0.00262964 9.993 -0.057168 
0.0313595 -0.057168 9.99088 
9.99459 -0.000200955 0.0354027 
-0.000200955 9.99579 -0.0601589 
0.0354027 -0.0601589 9.98807 
10.4648 0.523953 -1.54262 
0.523953 9.46847 0.0301584 
-1.54262 0.0301584 7.95046 
9.62407 0.0724713 -0.522443 
0.0724713 9.35862 -0.631383 
-0.522443 -0.631383 8.90107 
9.19907 -0.450358 -0.930404 
-0.450358 9.30121 0.0877676 
-0.930404 0.0877676 9.38348 
10.5269 0.546872 0.282914 
0.546872 10.7582 1.50645 
0.282914 1.50645 6.59863 
9.94094 -0.00267096 0.0149061 
-0.00267096 9.94047 0.0622061 
0.0149061 0.0622061 9.91925 
9.94503 -0.00347934 0.0120659 
-0.00347934 9.93958 0.0606733 
0.0120659 0.0606733 9.91605 
9.94354 -0.00293855 0.0113743 
-0.00293855 9.93989 0.0601329 
0.0113743 0.0601329 9.91723 
9.94078 -0.00164873 0.014612 
-0.00164873 9.94447 0.0674675 
0.014612 0.0674675 9.91542 
9.95619 -0.00180336 -0.0411891 
-0.00180336 9.96012 -0.0622676 
-0.0411891 -0.0622676 9.96067 
9.95747 -0.00624741 -0.0469511 
-0.00624741 9.94149 -0.0632982 
-0.0469511 -0.0632982 9.97803 
9.95359 0.00858548 -0.0375752 
0.00858548 9.97858 -0.0676228 
-0.0375752 -0.0676228 9.94481 
9.9591 -0.00628007 -0.0421132 
-0.00628007 9.96247 -0.0423873 
-0.0421132 -0.0423873 9.95542 
9.78032 0.0190867 -0.0526252 
0.0190867 9.94144 -0.0132068 
-0.0526252 -0.0132068 9.93471 
9.80955 0.0185651 -0.0678698 
0.0185651 9.87879 0.0149846 
-0.0678698 0.0149846 9.96814 
9.85886 -0.00746841 -0.126453 
-0.00746841 9.8996 -0.0309558 
-0.126453 -0.0309558 9.89801 
9.73772 -0.0367848 -0.148339 
-0.0367848 9.88229 0.127759 
-0.148339 0.127759 10.0365 
9.99561 -0.00105942 0.0793434 
-0.00105942 9.94159 0.0160351 
0.0793434 0.0160351 9.92579 
9.93102 -0.000362807 0.087544 
-0.000362807 9.95946 0.0233754 
0.087544 0.0233754 9.97251 
9.95225 -0.00365722 0.0794331 
-0.00365722 9.9563 0.0193044 
0.0794331 0.0193044 9.95444 
9.94336 -0.00516714 0.0531716 
-0.00516714 9.96204 0.0316393 
0.0531716 0.0316393 9.95759 
9.81842 0.11585 0.0789202 
0.11585 9.77931 0.0966491 
0.0789202 0.0966491 9.94525 
9.79663 0.16302 0.0362555 
0.16302 9.84297 0.0428913 
0.0362555 0.0428913 9.90338 
9.85128 0.190582 -0.0381499 
0.190582 9.80928 0.158335 
-0.0381499 0.158335 9.88242 
9.90748 0.124228 -0.0833671 
0.124228 9.79335 0.0100631 
-0.0833671 0.0100631 9.84215 
9.92434 0.00737467 0.0834216 
0.00737467 9.92908 -0.017609 
0.0834216 -0.017609 9.9067 
9.91315 0.00318862 0.0824708 
0.00318862 9.92022 -0.0202209 
0.0824708 -0.0202209 9.92675 
9.91582 0.0099588 0.081176 
0.0099588 9.92551 -0.0211797 
0.081176 -0.0211797 9.91879 
9.91948 0.0119591 0.0768757 
0.0119591 9.91629 -0.0250913 
0.0768757 -0.0250913 9.92434 
9.92411 -0.000110724 0.0312248 
-0.000110724 9.82508 0.0211854 
0.0312248 0.0211854 10.098 
9.93634 0.0381514 -0.071481 
0.0381514 9.85297 0.0423799 
-0.071481 0.0423799 10.0579 
9.95807 0.00981323 -0.0773749 
0.00981323 9.84377 0.0047716 
-0.0773749 0.0047716 10.0453 
9.826 -0.00946759 -0.0111776 
-0.00946759 9.88484 0.00775698 
-0.0111776 0.00775698 10.1363 
9.89356 0.0197726 -0.0612072 
0.0197726 9.89559 0.0482927 
-0.0612072 0.0482927 9.91287 
9.89054 0.0254596 -0.0677674 
0.0254596 9.89842 0.053605 
-0.0677674 0.053605 9.91305 
9.89044 0.0356519 -0.0553976 
0.0356519 9.89236 0.032342 
-0.0553976 0.032342 9.91922 
9.89315 0.00534732 -0.0727273 
0.00534732 9.90261 0.0336441 
-0.0727273 0.0336441 9.90625 
9.91428 -0.00517052 0.0605262 
-0.00517052 9.89755 -0.0897931 
0.0605262 -0.0897931 10.0879 
9.88989 0.035106 0.0206486 
0.035106 9.9118 -0.0607798 
0.0206486 -0.0607798 10.098 
9.94695 0.0163419 0.0617095 
0.0163419 9.88626 -0.0843563 
0.0617095 -0.0843563 10.0665 
9.93716 0.00759536 0.0474859 
0.00759536 9.90798 -0.0449189 
0.0474859 -0.0449189 10.0546 
9.89931 0.0287274 0.0450801 
0.0287274 9.9095 0.0568831 
0.0450801 0.0568831 9.96032 
9.92436 0.0477208 0.0461305 
0.0477208 9.90429 0.065918 
0.0461305 0.065918 9.94048 
9.92269 0.0166394 0.0394892 
0.0166394 9.88771 0.0507553 
0.0394892 0.0507553 9.95873 
9.92208 0.0282055 0.0543208 
0.0282055 9.9338 0.0611539 
0.0543208 0.0611539 9.91325 
9.89541 0.0112101 0.0497393 
0.0112101 9.92063 0.0457749 
0.0497393 0.0457749 9.93458 
9.90385 0.0200007 0.0465199 
0.0200007 9.9011 0.0444133 
0.0465199 0.0444133 9.94567 
9.90123 0.00813901 0.0497379 
0.00813901 9.91115 0.0423068 
0.0497379 0.0423068 9.93824 
9.89784 0.00243516 0.0499911 
0.00243516 9.90965 0.0467904 
0.0499911 0.0467904 9.94313 
9.78976 -0.0128024 -0.259869 
-0.0128024 10.0102 0.0612504 
-0.259869 0.0612504 9.88439 
9.73572 0.035217 -0.16945 
0.035217 9.92553 0.102305 
-0.16945 0.102305 10.0231 
9.92668 -0.0633292 -0.0198056 
-0.0633292 9.9232 0.0303038 
-0.0198056 0.0303038 9.83446 
9.7688 0.103947 -0.168029 
0.103947 9.91602 0.137785 
-0.168029 0.137785 9.99952 
10.0845 -0.0235764 -0.0278062 
-0.0235764 10.1402 -0.0108629 
-0.0278062 -0.0108629 10.1338 
10.0981 0.000743794 -0.0180812 
0.000743794 10.1037 0.00916114 
-0.0180812 0.00916114 10.1568 
10.1122 0.032012 -0.0176031 
0.032012 10.0794 -0.0224673 
-0.0176031 -0.0224673 10.167 
10.1107 0.00154911 -0.00879389 
0.00154911 10.0938 0.0131994 
-0.00879389 0.0131994 10.154 
10.0023 -0.0111328 0.0158509 
-0.0111328 10.0205 0.0316595 
0.0158509 0.0316595 10.0247 
9.98649 0.00592445 -0.000215306 
0.00592445 10.0358 0.00339044 
-0.000215306 0.00339044 10.0252 
9.97633 0.0101968 -0.00897807 
0.0101968 10.0272 -0.0105983 
-0.00897807 -0.0105983 10.044 
9.98337 0.0318681 -0.00500791 
0.0318681 10.0582 0.0058717 
-0.00500791 0.0058717 10.006 
9.94031 0.00820877 0.0355271 
0.00820877 9.94392 0.0274155 
0.0355271 0.0274155 9.95865 
9.94536 0.00931087 0.0294612 
0.00931087 9.9581 0.0419891 
0.0294612 0.0419891 9.93941 
9.94534 0.0111301 0.0400554 
0.0111301 9.95137 0.0394968 
0.0400554 0.0394968 9.94616 
9.94654 0.0101073 0.0372415 
0.0101073 9.95428 0.0532934 
0.0372415 0.0532934 9.94206 
9.9387 0.00138328 0.0279165 
0.00138328 9.91374 0.0218723 
0.0279165 0.0218723 10.0048 
9.93132 -0.00948023 0.00820649 
-0.00948023 9.93756 0.0158647 
0.00820649 0.0158647 9.98836 
9.94907 0.000897383 0.0125486 
0.000897383 9.92971 0.0181279 
0.0125486 0.0181279 9.97846 
9.94509 -0.0020942 0.0129672 
-0.0020942 9.93027 0.0190662 
0.0129672 0.0190662 9.98188 
10.2245 -0.0113343 0.0366502 
-0.0113343 10.2355 0.0125151 
0.0366502 0.0125151 10.2355 
10.2155 0.00541458 0.0391018 
0.00541458 10.251 0.0122948 
0.0391018 0.0122948 10.2289 
10.1493 -0.020704 0.0235541 
-0.020704 10.2003 -0.00955716 
0.0235541 -0.00955716 10.3458 
10.2247 -0.0079198 0.10922 
-0.0079198 10.2751 -0.00868281 
0.10922 -0.00868281 10.1957 
9.9602 -0.0168125 -0.0324685 
-0.0168125 9.8775 0.0105081 
-0.0324685 0.0105081 9.72843 
9.93574 0.0692915 0.0524836 
0.0692915 9.8539 0.0296086 
0.0524836 0.0296086 9.77649 
10.0123 -0.0595929 -0.0553846 
-0.0595929 9.88634 -0.0219388 
-0.0553846 -0.0219388 9.66745 
9.89684 -0.0464376 -0.069902 
-0.0464376 9.90478 0.0155506 
-0.069902 0.0155506 9.76452 
9.93042 -0.00977529 0.156342 
-0.00977529 9.92968 -0.0668209 
0.156342 -0.0668209 9.90569 
9.92145 0.0125798 0.0738296 
0.0125798 9.91826 -0.0410464 
0.0738296 -0.0410464 9.92607 
9.90129 0.0349868 0.0747869 
0.0349868 9.92431 -0.0801122 
0.0747869 -0.0801122 9.94018 
9.87436 0.0977837 0.0978092 
0.0977837 9.88932 -0.0707212 
0.0978092 -0.0707212 10.0021 
10.892 0.343212 -1.60898 
0.343212 13.5489 0.375956 
-1.60898 0.375956 8.94523 
5.00476 -0.131861 0.332984 
-0.131861 9.77051 0.00598728 
0.332984 0.00598728 18.6108 
8.47142 -0.664813 0.474863 
-0.664813 10.7889 -0.441821 
0.474863 -0.441821 14.1258 
10.8501 0.0966283 2.45128 
0.0966283 10.5817 0.0898405 
2.45128 0.0898405 11.9543 
9.93832 -0.00218462 -0.0437927 
-0.00218462 9.95278 0.0554877 
-0.0437927 0.0554877 9.94604 
9.94074 0.00178711 -0.0446415 
0.00178711 9.94374 0.0591694 
-0.0446415 0.0591694 9.95266 
9.94581 0.00122043 -0.0453074 
0.00122043 9.94941 0.0567239 
-0.0453074 0.0567239 9.94191 
9.94151 6.64181e-05 -0.0407185 
6.64181e-05 9.94397 0.0565693 
-0.0407185 0.0565693 9.95165 
9.96082 0.0031122 0.0185237 
0.0031122 9.93978 0.0149169 
0.0185237 0.0149169 9.98902 
9.94395 -0.00913927 0.0110519 
-0.00913927 9.93835 0.000717971 
0.0110519 0.000717971 10.0073 
9.94568 0.000131589 0.0139808 
0.000131589 9.94522 0.00115281 
0.0139808 0.00115281 9.99871 
9.92958 0.00574133 0.0077515 
0.00574133 9.95859 -0.00956857 
0.0077515 -0.00956857 10.0014 
9.9748 0.004408 -0.0674729 
0.004408 9.96232 -0.0236068 
-0.0674729 -0.0236068 9.98045 
9.9677 -0.00127404 -0.0755765 
-0.00127404 9.98113 -0.0213355 
-0.0755765 -0.0213355 9.96874 
9.97099 -0.000296908 -0.0763369 
-0.000296908 9.97062 -0.0200146 
-0.0763369 -0.0200146 9.97597 
9.98012 0.000504465 -0.0823603 
0.000504465 9.97971 -0.0219548 
-0.0823603 -0.0219548 9.95775 
10.5228 0.0379153 -0.0472287 
0.0379153 10.538 0.00781199 
-0.0472287 0.00781199 9.73669 
9.74096 -0.193715 0.175858 
-0.193715 9.81276 -0.133504 
0.175858 -0.133504 11.2438 
10.2661 0.20157 -0.127753 
0.20157 10.5439 0.0432158 
-0.127753 0.0432158 9.98751 
10.5291 0.164819 -0.0315084 
0.164819 10.0449 0.69853 
-0.0315084 0.69853 10.2235 
9.99165 0.00282979 0.0547317 
0.00282979 9.99871 -0.00144593 
0.0547317 -0.00144593 9.99083 
9.98385 0.00550898 0.0618895 
0.00550898 9.98263 -0.000767592 
0.0618895 -0.000767592 10.0147 
9.99477 0.000195081 0.0535208 
0.000195081 9.99937 0.000263398 
0.0535208 0.000263398 9.98704 
9.99858 -0.00164685 0.0523034 
-0.00164685 9.99945 -0.00523767 
0.0523034 -0.00523767 9.98315 
10.7278 -0.0803592 -0.153275 
-0.0803592 9.36965 -0.102819 
-0.153275 -0.102819 10.5223 
10.083 -0.191109 -0.195534 
-0.191109 9.80108 0.349421 
-0.195534 0.349421 10.7357 
9.85151 0.0958116 0.15157 
0.0958116 10.5069 -0.705439 
0.15157 -0.705439 10.2614 
10.417 -0.0389822 -0.21347 
-0.0389822 9.51764 -0.0612013 
-0.21347 -0.0612013 10.6852 
9.89425 -0.0820348 -0.0107486 
-0.0820348 9.97861 -0.0619785 
-0.0107486 -0.0619785 10.5385 
9.84156 -0.0546488 0.160022 
-0.0546488 10.0698 0.0639211 
0.160022 0.0639211 10.5001 
10.4526 -0.154081 -0.151952 
-0.154081 10.4723 -0.0777853 
-0.151952 -0.0777853 9.48648 
9.81816 -0.161509 -0.300477 
-0.161509 10.3432 0.396849 
-0.300477 0.396849 10.25 
9.91805 -0.00959872 0.00904784 
-0.00959872 9.93716 0.0184046 
0.00904784 0.0184046 10.0134 
9.93721 -0.00591759 0.0199325 
-0.00591759 9.94566 0.0176147 
0.0199325 0.0176147 9.98577 
9.93325 -0.0144521 0.0289401 
-0.0144521 9.95378 0.0153806 
0.0289401 0.0153806 9.98161 
9.92957 -0.00502403 0.018979 
-0.00502403 9.94938 0.0138064 
0.018979 0.0138064 9.9897 
9.94628 0.00492981 0.0448634 
0.00492981 9.94587 0.0438621 
0.0448634 0.0438621 9.95695 
9.95066 0.0038771 0.041668 
0.0038771 9.94323 0.0439384 
0.041668 0.0439384 9.95522 
9.94825 0.00801431 0.0455335 
0.00801431 9.94355 0.0514342 
0.0455335 0.0514342 9.95731 
9.94885 0.00231181 0.0416784 
0.00231181 9.94163 0.0460976 
0.0416784 0.0460976 9.95863 
9.91224 -0.0680971 -0.00393313 
-0.0680971 9.94278 -0.0660563 
-0.00393313 -0.0660563 9.92763 
9.9558 -0.0635276 -0.00970529 
-0.0635276 9.96832 -0.0433479 
-0.00970529 -0.0433479 9.85853 
9.92383 -0.0788775 -0.0324268 
-0.0788775 9.93783 -0.0554541 
-0.0324268 -0.0554541 9.92099 
9.88146 -0.0604643 -0.0614525 
-0.0604643 9.9912 -0.132673 
-0.0614525 -0.132673 9.90999 
9.90831 -0.0255493 0.092819 
-0.0255493 9.97944 0.0501878 
0.092819 0.0501878 10.129 
9.82528 -0.0145132 0.0311303 
-0.0145132 9.92707 -0.0294774 
0.0311303 -0.0294774 10.2644 
9.94688 0.0338786 -0.000776634 
0.0338786 9.89165 -0.00161522 
-0.000776634 -0.00161522 10.1783 
9.89767 0.0463501 0.0542325 
0.0463501 9.92635 0.049597 
0.0542325 0.049597 10.1928 
9.9099 0.0169558 -0.0209606 
0.0169558 9.95348 -0.0246141 
-0.0209606 -0.0246141 9.94395 
9.92866 0.0279281 -0.0241778 
0.0279281 9.94312 0.000166837 
-0.0241778 0.000166837 9.93555 
9.93436 0.028035 -0.0179514 
0.028035 9.93237 0.000148285 
-0.0179514 0.000148285 9.9406 
9.93081 0.0361533 -0.0324156 
0.0361533 9.9473 0.00892205 
-0.0324156 0.00892205 9.92922 
9.92643 0.00625305 0.0492861 
0.00625305 9.92883 -0.0465455 
0.0492861 -0.0465455 9.94691 
9.92686 -0.0156509 0.0521793 
-0.0156509 9.94051 -0.0459134 
0.0521793 -0.0459134 9.9348 
9.92447 0.0116424 0.0513127 
0.0116424 9.92935 -0.0523953 
0.0513127 -0.0523953 9.94835 
9.93764 -0.00356499 0.0462513 
-0.00356499 9.91567 -0.0479344 
0.0462513 -0.0479344 9.94886 
9.96336 -0.00360033 -0.0301213 
-0.00360033 9.9689 0.0413099 
-0.0301213 0.0413099 9.96911 
9.96784 -0.00395668 -0.0304463 
-0.00395668 9.97088 0.0413385 
-0.0304463 0.0413385 9.96265 
9.97023 -0.00622029 -0.0344077 
-0.00622029 9.97289 0.0346528 
-0.0344077 0.0346528 9.95826 
9.9665 -0.00316622 -0.0291637 
-0.00316622 9.96717 0.040098 
-0.0291637 0.040098 9.9677 
9.30353 0.520257 1.53697 
0.520257 7.44568 -0.215777 
1.53697 -0.215777 2.73926 
8.0654 1.0116 1.97514 
1.0116 8.1584 0.264474 
1.97514 0.264474 3.26467 
9.14128 0.179509 2.26886 
0.179509 5.63081 1.05021 
2.26886 1.05021 4.71638 
8.95292 0.759765 1.23289 
0.759765 6.91377 -0.421013 
1.23289 -0.421013 3.62178 
10.0112 -0.0227377 0.120171 
-0.0227377 9.98594 -0.130868 
0.120171 -0.130868 9.55217 
9.98254 -0.0739088 -0.011689 
-0.0739088 10.0299 -0.12414 
-0.011689 -0.12414 9.53688 
10.1207 -0.0246037 -0.0375995 
-0.0246037 9.79913 -0.409858 
-0.0375995 -0.409858 9.62941 
9.89847 -0.0763424 0.0107618 
-0.0763424 9.74742 -0.182252 
0.0107618 -0.182252 9.9034 
9.92061 0.0168743 -0.0296214 
0.0168743 10.0909 -0.0299349 
-0.0296214 -0.0299349 10.3578 
10.0893 0.0430617 0.11148 
0.0430617 10.0775 0.0543478 
0.11148 0.0543478 10.2025 
9.95161 0.0119524 -0.0742828 
0.0119524 10.123 -0.041948 
-0.0742828 -0.041948 10.2946 
10.0178 0.0274759 0.00520897 
0.0274759 10.0844 0.0923278 
0.00520897 0.0923278 10.267 
10.0401 0.0580191 0.00735489 
0.0580191 9.93341 0.158352 
0.00735489 0.158352 9.86951 
10.0108 0.020055 0.0163466 
0.020055 9.76767 -0.0246326 
0.0163466 -0.0246326 10.0645 
9.89994 -0.019652 0.0475373 
-0.019652 9.89642 -0.113318 
0.0475373 -0.113318 10.0467 
9.91536 -0.0238638 -0.0276583 
-0.0238638 9.83257 -0.0382289 
-0.0276583 -0.0382289 10.0951 
9.97327 0.0087384 -0.00441742 
0.0087384 9.93942 -0.0178867 
-0.00441742 -0.0178867 10.0151 
10.0303 -0.00610385 0.00147215 
-0.00610385 9.92005 -0.0642084 
0.00147215 -0.0642084 9.97744 
9.92735 -0.011248 0.0036333 
-0.011248 10.0103 0.0859458 
0.0036333 0.0859458 9.99018 
10.0095 0.0143939 0.0279098 
0.0143939 9.86705 0.000123822 
0.0279098 0.000123822 10.0512 
9.87751 0.0149447 0.0321655 
0.0149447 9.93678 -0.0721676 
0.0321655 -0.0721676 9.88614 
9.90079 0.0224074 0.0423535 
0.0224074 9.87859 -0.0723495 
0.0423535 -0.0723495 9.92106 
9.92008 0.015696 0.0282766 
0.015696 9.86734 -0.0732078 
0.0282766 -0.0732078 9.91301 
9.90564 0.0163939 0.0243183 
0.0163939 9.87928 -0.0982363 
0.0243183 -0.0982363 9.91551 
9.98772 0.00105491 0.0278008 
0.00105491 9.99472 0.0308485 
0.0278008 0.0308485 9.99562 
9.9909 0.00445893 0.0275426 
0.00445893 9.99399 0.0333651 
0.0275426 0.0333651 9.99316 
9.98363 -0.00217624 0.02539 
-0.00217624 9.98923 0.0339834 
0.02539 0.0339834 10.0052 
9.99449 0.000329395 0.0283832 
0.000329395 9.99506 0.0306598 
0.0283832 0.0306598 9.98851 
10.0775 -0.277887 -0.279553 
-0.277887 9.65362 0.578243 
-0.279553 0.578243 8.91667 
10.0378 0.274836 -0.356893 
0.274836 9.57427 -0.13623 
-0.356893 -0.13623 9.03572 
9.84765 0.069094 0.0814948 
0.069094 9.74681 -0.141096 
0.0814948 -0.141096 9.05329 
10.3634 0.144386 -0.107507 
0.144386 9.6199 0.531139 
-0.107507 0.531139 8.66442 
10.3703 0.0761452 0.0719099 
0.0761452 10.4253 0.0590052 
0.0719099 0.0590052 10.2925 
10.4133 0.0853145 0.0813028 
0.0853145 10.2599 -0.0112382 
0.0813028 -0.0112382 10.4149 
10.2224 0.137458 0.0285456 
0.137458 10.1779 -0.223839 
0.0285456 -0.223839 10.6878 
10.4769 0.0414339 -0.00462766 
0.0414339 10.0449 0.0468571 
-0.00462766 0.0468571 10.5663 
10.1615 0.0941941 0.00172151 
0.0941941 9.92898 -0.120102 
0.00172151 -0.120102 10.1974 
10.009 -0.0940739 -0.0199252 
-0.0940739 10.0058 -0.0463209 
-0.0199252 -0.0463209 10.2731 
10.1353 0.0101204 0.0792271 
0.0101204 10.0696 -0.0450735 
0.0792271 -0.0450735 10.0831 
10.2356 0.150625 -0.140152 
0.150625 9.93722 -0.189551 
-0.140152 -0.189551 10.115 
9.98213 -0.00482042 0.0229921 
-0.00482042 9.97944 0.00530279 
0.0229921 0.00530279 9.97603 
9.98381 -0.000147009 0.0215118 
-0.000147009 9.97746 0.00570215 
0.0215118 0.00570215 9.97633 
9.98439 0.00718781 0.0266271 
0.00718781 9.96914 0.0039733 
0.0266271 0.0039733 9.98406 
9.98708 0.00781369 0.0123146 
0.00781369 9.97903 0.00613578 
0.0123146 0.00613578 9.97148 
9.9399 -0.0145448 -0.017255 
-0.0145448 9.93532 -0.00713889 
-0.017255 -0.00713889 9.95742 
9.96113 -0.00576783 -0.0190122 
-0.00576783 9.92818 0.00941011 
-0.0190122 0.00941011 9.94332 
9.94247 -0.014377 -0.0123931 
-0.014377 9.93993 -0.0102204 
-0.0123931 -0.0102204 9.95023 
9.9381 -0.00360113 -0.00952366 
-0.00360113 9.93985 0.00257659 
-0.00952366 0.00257659 9.95468 
9.93452 0.00576083 -0.0299287 
0.00576083 9.94616 -0.0460205 
-0.0299287 -0.0460205 9.92395 
9.93825 0.0045532 -0.030546 
0.0045532 9.94505 -0.0444653 
-0.030546 -0.0444653 9.92133 
9.94112 0.00835191 -0.0303279 
0.00835191 9.9533 -0.0447517 
-0.0303279 -0.0447517 9.91021 
9.93402 0.0119757 -0.0153815 
0.0119757 9.95374 -0.0410244 
-0.0153815 -0.0410244 9.91687 
9.84203 -0.00586397 0.0951343 
-0.00586397 9.926 0.0535282 
0.0951343 0.0535282 9.71207 
9.86706 -0.0102866 0.1604 
-0.0102866 9.86519 0.0792567 
0.1604 0.0792567 9.74785 
9.87625 -0.021247 0.168687 
-0.021247 9.89121 0.0655879 
0.168687 0.0655879 9.71263 
9.82078 -0.0110383 0.163736 
-0.0110383 9.84974 0.0550945 
0.163736 0.0550945 9.80958 
9.93857 -0.00347002 -0.0491855 
-0.00347002 9.93771 -0.0505054 
-0.0491855 -0.0505054 9.9456 
9.93762 -0.00228024 -0.0489714 
-0.00228024 9.93675 -0.051958 
-0.0489714 -0.051958 9.9475 
9.93858 -0.00245698 -0.0521459 
-0.00245698 9.93549 -0.053108 
-0.0521459 -0.053108 9.94781 
9.93838 -0.00247359 -0.0511624 
-0.00247359 9.93826 -0.0533077 
-0.0511624 -0.0533077 9.94524 
9.90304 -0.024836 -0.0471869 
-0.024836 9.88944 0.0515009 
-0.0471869 0.0515009 10.0046 
9.85979 -0.0265178 -0.0522626 
-0.0265178 9.91463 0.0417031 
-0.0522626 0.0417031 10.0226 
9.9018 -0.0121016 -0.0540497 
-0.0121016 9.87648 0.0489595 
-0.0540497 0.0489595 10.0188 
9.90208 -0.00150756 -0.0652584 
-0.00150756 9.88129 0.0573143 
-0.0652584 0.0573143 10.0137 
9.98775 0.225111 0.208134 
0.225111 10.1944 0.0647434 
0.208134 0.0647434 10.5073 
10.1765 0.225144 0.218579 
0.225144 10.0374 0.00685852 
0.218579 0.00685852 10.4756 
9.96223 0.194155 0.185378 
0.194155 10.2069 -0.0194792 
0.185378 -0.0194792 10.5204 
9.99302 0.18276 0.175758 
0.18276 10.3059 -0.0692709 
0.175758 -0.0692709 10.3905 
9.99167 0.00130535 -0.00400136 
0.00130535 9.99051 -0.00957533 
-0.00400136 -0.00957533 9.9961 
9.99155 0.00157258 -0.00132527 
0.00157258 9.99243 -0.010696 
-0.00132527 -0.010696 9.99431 
9.9894 0.00218768 -0.00454703 
0.00218768 9.98894 -0.0136138 
-0.00454703 -0.0136138 9.99993 
9.9933 0.00108737 -0.000466905 
0.00108737 9.99336 -0.010076 
-0.000466905 -0.010076 9.99163 
9.4016 -0.309864 -0.18462 
-0.309864 9.91499 0.300278 
-0.18462 0.300278 11.6667 
10.1464 -0.0235043 -0.0457037 
-0.0235043 10.3992 0.00714595 
-0.0457037 0.00714595 10.4378 
10.9159 -0.254242 0.250718 
-0.254242 10.818 0.21832 
0.250718 0.21832 9.24941 
10.0899 -0.18236 0.200455 
-0.18236 10.4292 -0.719073 
0.200455 -0.719073 10.4642 
9.94179 0.0128357 -0.0221692 
0.0128357 9.91035 0.018877 
-0.0221692 0.018877 9.98335 
9.92721 0.0291903 -0.0166069 
0.0291903 9.93369 -0.00299621 
-0.0166069 -0.00299621 9.97459 
9.97959 -0.00909671 0.00336305 
-0.00909671 9.92635 0.0190122 
0.00336305 0.0190122 9.92956 
9.96648 0.0239009 -0.0298999 
0.0239009 9.90371 0.0220483 
-0.0298999 0.0220483 9.9653 
9.97742 -0.278771 -0.155403 
-0.278771 10.1238 0.0601925 
-0.155403 0.0601925 10.4374 
9.90131 -0.320033 0.13808 
-0.320033 10.3764 -0.0860508 
0.13808 -0.0860508 10.2609 
9.83821 -0.316653 0.0702677 
-0.316653 10.2741 -0.0614931 
0.0702677 -0.0614931 10.4263 
9.85214 0.0743702 0.0463167 
0.0743702 10.2866 -0.241282 
0.0463167 -0.241282 10.3999 
9.9463 -0.0576248 -0.0265266 
-0.0576248 9.94012 0.0120351 
-0.0265266 0.0120351 10.0476 
9.93126 0.000408951 0.00513552 
0.000408951 9.98858 -0.00401669 
0.00513552 -0.00401669 10.0142 
9.9034 0.003649 -0.00499628 
0.003649 9.98206 0.0206165 
-0.00499628 0.0206165 10.0486 
9.96032 -0.0701758 0.0390666 
-0.0701758 9.97621 0.0101529 
0.0390666 0.0101529 9.99753 
10.0071 -0.0167378 -0.0288143 
-0.0167378 10.0006 -0.0116713 
-0.0288143 -0.0116713 10.0741 
10.0297 -0.00217543 -0.000499841 
-0.00217543 10.0433 0.0083705 
-0.000499841 0.0083705 10.0088 
10.0359 0.0120621 0.00246071 
0.0120621 10.035 0.00201972 
0.00246071 0.00201972 10.0109 
9.98041 -0.0148368 0.0212754 
-0.0148368 10.0394 -0.00420889 
0.0212754 -0.00420889 10.062 
9.99304 0.0167566 -0.0192841 
0.0167566 9.98326 -0.0205037 
-0.0192841 -0.0205037 10.0156 
10.0069 0.00739419 -0.010268 
0.00739419 9.97349 -0.0176909 
-0.010268 -0.0176909 10.0114 
9.97413 0.0336705 -0.0194864 
0.0336705 9.98876 -0.017168 
-0.0194864 -0.017168 10.029 
10.0039 0.01455 -0.0169627 
0.01455 9.96037 -0.00906786 
-0.0169627 -0.00906786 10.0276 
10.0175 0.0168128 0.00250754 
0.0168128 10.0032 -0.0120089 
0.00250754 -0.0120089 10.0173 
10.0204 0.00247662 0.0139248 
0.00247662 10.0081 0.00508243 
0.0139248 0.00508243 10.0094 
10.0185 0.0157962 0.0135831 
0.0157962 10.0155 -0.0008274 
0.0135831 -0.0008274 10.004 
10.0109 0.0253385 0.0137325 
0.0253385 10.0226 -0.0107471 
0.0137325 -0.0107471 10.0045 
9.98045 0.000209033 0.0577419 
0.000209033 9.98283 -0.0385294 
0.0577419 -0.0385294 9.99192 
9.98607 0.00219123 0.0571479 
0.00219123 9.98085 -0.0422079 
0.0571479 -0.0422079 9.98828 
9.98592 0.00157131 0.060829 
0.00157131 9.98382 -0.0441076 
0.060829 -0.0441076 9.98546 
9.98584 -0.00317881 0.0616859 
-0.00317881 9.9888 -0.0455939 
0.0616859 -0.0455939 9.98055 
9.88399 0.0563511 0.0466163 
0.0563511 9.88772 -0.0494656 
0.0466163 -0.0494656 9.87588 
9.89003 0.0186561 0.0208316 
0.0186561 9.89238 -0.00129644 
0.0208316 -0.00129644 9.86518 
9.83788 0.0474159 0.0684478 
0.0474159 9.93082 -0.0615972 
0.0684478 -0.0615972 9.8789 
9.80144 0.144679 0.0214359 
0.144679 9.82336 -0.0518725 
0.0214359 -0.0518725 10.0228 
9.96462 0.000661028 -0.00767847 
0.000661028 9.98862 -0.0251242 
-0.00767847 -0.0251242 9.97713 
9.97088 -0.0044503 0.00163723 
-0.0044503 9.9917 -0.00601584 
0.00163723 -0.00601584 9.9678 
9.97838 0.00304324 -0.00311928 
0.00304324 9.97967 -0.016943 
-0.00311928 -0.016943 9.97232 
9.97785 0.00273247 -0.00397704 
0.00273247 9.98006 -0.0167669 
-0.00397704 -0.0167669 9.97246 
9.96524 -0.0183117 0.042308 
-0.0183117 9.97209 0.0290695 
0.042308 0.0290695 9.97235 
9.91907 -0.0361214 0.00504442 
-0.0361214 9.95551 0.00631868 
0.00504442 0.00631868 10.0351 
9.92724 0.00400363 -0.0269355 
0.00400363 9.9715 -0.0246545 
-0.0269355 -0.0246545 10.0109 
9.92775 -0.0201659 -0.00133511 
-0.0201659 9.96307 0.00818585 
-0.00133511 0.00818585 10.0189 
9.93336 0.0067159 0.0195497 
0.0067159 9.92161 0.00392392 
0.0195497 0.00392392 9.95569 
9.94044 0.00920312 0.0152785 
0.00920312 9.92426 0.00895262 
0.0152785 0.00895262 9.94596 
9.92394 -0.0202763 0.0230435 
-0.0202763 9.92595 0.0250368 
0.0230435 0.0250368 9.96076 
9.92796 -0.0072463 0.00694447 
-0.0072463 9.912 0.0157555 
0.00694447 0.0157555 9.9707 
10.2441 -0.322585 -0.5512 
-0.322585 11.7892 -0.101921 
-0.5512 -0.101921 11.0977 
9.94881 -0.00482163 0.0342283 
-0.00482163 10.7124 0.166768 
0.0342283 0.166768 12.4698 
8.15893 -0.974264 0.0645412 
-0.974264 10.0353 0.796797 
0.0645412 0.796797 14.9367 
10.0147 0.279214 0.134555 
0.279214 11.7694 -0.133893 
0.134555 -0.133893 11.3468 
9.95551 -0.00151522 0.0454277 
-0.00151522 9.9614 0.0605436 
0.0454277 0.0605436 9.9439 
9.95276 0.00156208 0.0318524 
0.00156208 9.95149 0.058226 
0.0318524 0.058226 9.95655 
9.95018 -0.001054 0.0242657 
-0.001054 9.94323 0.0757804 
0.0242657 0.0757804 9.96739 
9.95271 0.00225498 0.0318963 
0.00225498 9.9512 0.0650121 
0.0318963 0.0650121 9.9569 
10.0044 0.0199497 0.0340635 
0.0199497 9.8846 0.102524 
0.0340635 0.102524 9.92306 
9.98478 0.059437 0.0242468 
0.059437 9.91639 0.0925289 
0.0242468 0.0925289 9.91094 
9.84191 0.00290501 0.0401757 
0.00290501 9.96549 0.0128121 
0.0401757 0.0128121 10.0047 
9.96407 0.153068 -0.0176488 
0.153068 9.80778 0.148697 
-0.0176488 0.148697 10.0402 
9.93126 0.0316513 0.00204577 
0.0316513 9.97145 0.0202105 
0.00204577 0.0202105 9.93951 
9.91092 -0.0580668 0.00622784 
-0.0580668 9.9193 0.00944161 
0.00622784 0.00944161 10.012 
9.92902 -0.00232465 0.0198168 
-0.00232465 9.93914 0.0198512 
0.0198168 0.0198512 9.97405 
9.96074 0.00740037 0.0401038 
0.00740037 9.90139 0.0409069 
0.0401038 0.0409069 9.98009 
10.0676 0.0336009 0.0034956 
0.0336009 9.98761 -0.0399587 
0.0034956 -0.0399587 10.2702 
10.1224 0.0119823 -0.0201379 
0.0119823 10.0296 -0.0252271 
-0.0201379 -0.0252271 10.1734 
10.0864 0.0249613 0.0374195 
0.0249613 10.0305 -0.0565985 
0.0374195 -0.0565985 10.2085 
10.1294 0.0217218 -0.0286953 
0.0217218 10.0153 -0.059525 
-0.0286953 -0.059525 10.1807 
9.87151 -0.0139654 0.00174981 
-0.0139654 9.95144 -0.0283288 
0.00174981 -0.0283288 10.2704 
9.91996 0.0277393 -0.0154278 
0.0277393 9.91849 -0.000799019 
-0.0154278 -0.000799019 10.2549 
9.98124 -0.0041826 0.0313971 
-0.0041826 9.94286 0.0183643 
0.0313971 0.0183643 10.1693 
9.9563 0.0588886 -0.048724 
0.0588886 9.94208 -0.0271987 
-0.048724 -0.0271987 10.195 
9.91158 0.0380005 0.11882 
0.0380005 9.8603 -0.117127 
0.11882 -0.117127 9.94548 
9.8813 0.00370754 0.116774 
0.00370754 9.92473 -0.0517041 
0.116774 -0.0517041 9.91134 
9.89171 0.0477722 0.115946 
0.0477722 9.85792 -0.0834624 
0.115946 -0.0834624 9.96772 
9.88634 0.0654583 0.118183 
0.0654583 9.85823 -0.0840348 
0.118183 -0.0840348 9.97278 
9.88751 0.00254023 0.10213 
0.00254023 9.95552 -0.0283703 
0.10213 -0.0283703 9.89032 
9.91673 0.0100836 0.0789411 
0.0100836 9.91369 -0.0490451 
0.0789411 -0.0490451 9.90293 
9.9303 0.0359439 0.126896 
0.0359439 9.91972 -0.0630743 
0.126896 -0.0630743 9.88333 
9.84594 -0.0126514 0.122164 
-0.0126514 9.95444 -0.0272783 
0.122164 -0.0272783 9.93297 
9.92078 0.00384051 0.0848671 
0.00384051 9.9195 -0.0101572 
0.0848671 -0.0101572 9.92033 
9.92247 0.00219245 0.0850057 
0.00219245 9.92419 -0.0126945 
0.0850057 -0.0126945 9.91394 
9.9144 0.00401207 0.0865409 
0.00401207 9.9216 -0.0129157 
0.0865409 -0.0129157 9.92461 
9.91502 0.00228451 0.083378 
0.00228451 9.92158 -0.00981707 
0.083378 -0.00981707 9.92401 
9.9246 0.0108104 -0.00360431 
0.0108104 9.90009 -0.0350552 
-0.00360431 -0.0350552 9.95103 
9.90209 -0.0613605 0.0104096 
-0.0613605 9.91883 0.0143239 
0.0104096 0.0143239 9.95479 
9.96177 0.061457 -0.0283568 
0.061457 9.91661 -0.0352367 
-0.0283568 -0.0352367 9.89733 
9.91282 -0.020498 -0.0377654 
-0.020498 9.87764 -0.00467949 
-0.0377654 -0.00467949 9.98526 
9.94876 -0.00595813 0.040461 
-0.00595813 9.97134 -0.005426 
0.040461 -0.005426 9.92592 
9.97046 -0.020552 0.00769638 
-0.020552 9.963 0.00406412 
0.00769638 0.00406412 9.91257 
9.95267 -0.0169749 0.0199057 
-0.0169749 9.94452 -0.0257238 
0.0199057 -0.0257238 9.94884 
9.95969 -0.00908835 0.0345319 
-0.00908835 9.94397 -0.0176496 
0.0345319 -0.0176496 9.94236 
9.86075 -0.109433 0.142263 
-0.109433 9.91841 0.116657 
0.142263 0.116657 9.85767 
9.84893 -0.0383811 0.0639347 
-0.0383811 9.93001 0.0121653 
0.0639347 0.0121653 9.85789 
9.86016 -0.0581487 -0.00210034 
-0.0581487 9.85092 0.0429847 
-0.00210034 0.0429847 9.92575 
9.88208 -0.0206197 0.0417964 
-0.0206197 9.93268 0.00296809 
0.0417964 0.00296809 9.82207 
9.94962 0.0351894 -0.0132188 
0.0351894 9.9809 0.0290756 
-0.0132188 0.0290756 10.0179 
9.89628 0.010269 0.0185258 
0.010269 10.0172 0.0216214 
0.0185258 0.0216214 10.0349 
9.96209 0.0267007 0.0255061 
0.0267007 9.96377 0.0149556 
0.0255061 0.0149556 10.0225 
9.9518 0.0394283 0.00566716 
0.0394283 9.99445 0.020715 
0.00566716 0.020715 10.0022 
9.88927 -0.0135719 -0.0753757 
-0.0135719 9.91877 -0.044021 
-0.0753757 -0.044021 9.93337 
9.92403 -0.0051376 -0.0626897 
-0.0051376 9.90101 -0.0349968 
-0.0626897 -0.0349968 9.91638 
9.9458 -0.00127016 -0.0640619 
-0.00127016 9.89394 -0.0303183 
-0.0640619 -0.0303183 9.90168 
9.90719 -0.0212423 -0.0432066 
-0.0212423 9.90738 -0.0454565 
-0.0432066 -0.0454565 9.92684 
9.90486 -0.0210726 -0.0568111 
-0.0210726 9.86375 -0.0796538 
-0.0568111 -0.0796538 9.97542 
9.95653 0.0131035 -0.0681859 
0.0131035 9.86853 -0.0715817 
-0.0681859 -0.0715817 9.91898 
9.91581 -0.0374259 -0.0348013 
-0.0374259 9.86079 -0.039107 
-0.0348013 -0.039107 9.96743 
9.89965 -0.02408 -0.0579555 
-0.02408 9.87578 -0.0491301 
-0.0579555 -0.0491301 9.96861 
10.0158 0.0273585 -0.0596372 
0.0273585 10.0537 0.0436065 
-0.0596372 0.0436065 10.0101 
10.0134 0.0081917 0.0115134 
0.0081917 10.0006 -0.000389194 
0.0115134 -0.000389194 10.0656 
10.0096 0.0196352 0.00952416 
0.0196352 10.0098 0.0120671 
0.00952416 0.0120671 10.0602 
9.9823 0.0171528 0.013063 
0.0171528 9.97583 0.0127695 
0.013063 0.0127695 10.1214 
9.84194 0.254384 0.0415753 
0.254384 9.65395 0.342004 
0.0415753 0.342004 9.70288 
10.0282 0.271318 -0.161404 
0.271318 9.74485 0.459013 
-0.161404 0.459013 9.42576 
9.8784 0.0747088 0.0397822 
0.0747088 9.70606 0.437248 
0.0397822 0.437248 9.61431 
9.93561 0.156919 -0.253024 
0.156919 9.68833 -0.370635 
-0.253024 -0.370635 9.57482 
14.3314 1.12036 1.28558 
1.12036 8.63791 -1.32332 
1.28558 -1.32332 7.32312 
9.78218 -2.60262 -0.890117 
-2.60262 7.00564 0.291503 
-0.890117 0.291503 13.5046 
8.39938 -0.733814 -1.10451 
-0.733814 5.5824 0.253372 
-1.10451 0.253372 16.3107 
9.03333 -0.816254 0.266037 
-0.816254 9.8484 1.73078 
0.266037 1.73078 11.4107 
9.22633 -0.01476 0.361931 
-0.01476 9.73005 0.0584206 
0.361931 0.0584206 10.0094 
9.26414 -0.00838023 0.60632 
-0.00838023 9.75151 0.0747625 
0.60632 0.0747625 9.95013 
9.75243 0.00271302 0.201859 
0.00271302 10.21 -0.215371 
0.201859 -0.215371 9.00338 
9.31898 -0.0399675 0.586183 
-0.0399675 9.66196 0.0161422 
0.586183 0.0161422 9.98485 
9.90689 -0.0142529 0.0397971 
-0.0142529 9.92111 0.0110017 
0.0397971 0.0110017 10.1289 
9.91532 0.00232767 0.0346016 
0.00232767 9.9172 -0.000135145 
0.0346016 -0.000135145 10.1244 
9.89977 0.00664596 0.0416957 
0.00664596 9.93513 0.0109617 
0.0416957 0.0109617 10.122 
9.93102 0.0106159 0.0375256 
0.0106159 9.89772 -0.00522454 
0.0375256 -0.00522454 10.1282 
9.89683 0.0132414 -0.0404513 
0.0132414 9.90012 0.0424629 
-0.0404513 0.0424629 9.96236 
9.92219 0.00185113 -0.0402173 
0.00185113 9.89086 0.0533296 
-0.0402173 0.0533296 9.94627 
9.89185 0.0370832 -0.0729552 
0.0370832 9.88201 0.0651423 
-0.0729552 0.0651423 9.98545 
9.91619 0.0134481 -0.03831 
0.0134481 9.88645 0.0481908 
-0.03831 0.0481908 9.95667 
9.92513 0.00854744 -0.00794104 
0.00854744 9.93497 0.0811271 
-0.00794104 0.0811271 9.93197 
9.94649 0.0102302 -0.0146 
0.0102302 9.9278 0.0726549 
-0.0146 0.0726549 9.91778 
9.93641 0.00232413 -0.00432092 
0.00232413 9.93705 0.083814 
-0.00432092 0.083814 9.91861 
9.92437 0.0127774 -0.00930761 
0.0127774 9.92177 0.0800054 
-0.00930761 0.0800054 9.94593 
9.82064 0.0445454 -0.0509762 
0.0445454 9.88846 -0.0207619 
-0.0509762 -0.0207619 9.975 
9.84324 0.0404606 -0.0384754 
0.0404606 9.83593 -0.0373059 
-0.0384754 -0.0373059 10.0049 
9.86862 0.0337424 -0.0507629 
0.0337424 9.85709 -0.0267256 
-0.0507629 -0.0267256 9.95839 
9.84507 0.0914173 -0.023025 
0.0914173 9.83256 -0.0600432 
-0.023025 -0.0600432 10.0065 
9.97371 -0.00884902 -0.0183938 
-0.00884902 9.96792 0.0199694 
-0.0183938 0.0199694 9.97032 
9.96885 -0.00889614 -0.0175464 
-0.00889614 9.96994 0.0202803 
-0.0175464 0.0202803 9.97317 
9.96843 -0.00318326 -0.0234864 
-0.00318326 9.97175 0.0191878 
-0.0234864 0.0191878 9.97178 
9.97767 -0.00835055 -0.0140836 
-0.00835055 9.97539 0.0327616 
-0.0140836 0.0327616 9.9589 
9.93723 -0.00986696 0.000495034 
-0.00986696 9.94575 0.000781848 
0.000495034 0.000781848 9.95065 
9.9391 -0.0190717 -0.00672848 
-0.0190717 9.94611 -0.00932421 
-0.00672848 -0.00932421 9.94843 
9.9446 -0.0134739 0.00752694 
-0.0134739 9.93622 -0.00131711 
0.00752694 -0.00131711 9.95282 
9.93306 -0.0112323 0.000738171 
-0.0112323 9.94557 -0.000115687 
0.000738171 -0.000115687 9.95501 
9.93978 0.00300371 0.0802852 
0.00300371 9.95158 -0.00744793 
0.0802852 -0.00744793 9.94903 
9.92661 -0.00285777 0.0819373 
-0.00285777 9.94709 -0.000518521 
0.0819373 -0.000518521 9.96669 
9.9608 0.00215788 0.090569 
0.00215788 9.94839 -0.00316047 
0.090569 -0.00316047 9.93121 
9.95242 -0.000566913 0.0768266 
-0.000566913 9.94787 -0.0116154 
0.0768266 -0.0116154 9.94011 
9.89571 0.00461549 -0.020977 
0.00461549 9.92211 -0.0473742 
-0.020977 -0.0473742 9.92948 
9.88194 -0.0445754 -0.00829029 
-0.0445754 9.89882 -0.00586691 
-0.00829029 -0.00586691 9.96654 
9.93385 0.0503979 -0.0231044 
0.0503979 9.94593 -0.0511615 
-0.0231044 -0.0511615 9.86751 
9.88302 -0.0189663 -0.0504654 
-0.0189663 9.90058 -0.0405351 
-0.0504654 -0.0405351 9.9637 
10.0531 0.017186 -0.012859 
0.017186 10.0645 -0.0404627 
-0.012859 -0.0404627 10.0247 
9.93524 -0.00422622 0.021994 
-0.00422622 9.92183 0.0456441 
0.021994 0.0456441 10.2853 
10.0639 -0.00314455 -0.00683386 
-0.00314455 10.0417 -0.0469797 
-0.00683386 -0.0469797 10.0367 
10.0591 -0.0660553 -0.0952341 
-0.0660553 9.98562 -0.152404 
-0.0952341 -0.152404 10.0976 
9.9783 0.00225925 0.0724705 
0.00225925 9.97477 -0.0117086 
0.0724705 -0.0117086 9.97915 
9.97784 0.00419183 0.0772099 
0.00419183 9.97988 -0.0199487 
0.0772099 -0.0199487 9.97451 
9.98179 0.00105613 0.07378 
0.00105613 9.97625 -0.0147175 
0.07378 -0.0147175 9.97419 
9.98589 0.00586747 0.0743095 
0.00586747 9.97455 -0.0205338 
0.0743095 -0.0205338 9.97179 
9.94125 -0.015198 -0.00299514 
-0.015198 9.9531 0.00372122 
-0.00299514 0.00372122 9.98304 
9.95859 -0.00863132 -0.00418103 
-0.00863132 9.94687 0.0142964 
-0.00418103 0.0142964 9.97193 
9.94164 -0.0124156 -0.00237106 
-0.0124156 9.9528 0.0114156 
-0.00237106 0.0114156 9.98295 
9.95254 -0.0120959 -0.0136659 
-0.0120959 9.9378 0.0172177 
-0.0136659 0.0172177 9.98705 
9.98967 0.000181946 -0.0317711 
0.000181946 9.98828 -0.0565556 
-0.0317711 -0.0565556 9.99952 
9.99018 0.000103646 -0.0290422 
0.000103646 9.99153 -0.056818 
-0.0290422 -0.056818 9.99577 
9.99125 -3.87564e-05 -0.0294944 
-3.87564e-05 9.99027 -0.0582202 
-0.0294944 -0.0582202 9.99596 
9.99319 -0.000231041 -0.0305233 
-0.000231041 9.99247 -0.0576314 
-0.0305233 -0.0576314 9.99181 
9.92418 -0.0101415 0.0251559 
-0.0101415 9.86642 0.0283372 
0.0251559 0.0283372 9.90396 
9.8677 -0.0467825 0.0717932 
-0.0467825 9.88797 0.0328783 
0.0717932 0.0328783 9.9389 
9.93949 0.00833935 0.0217946 
0.00833935 9.88536 0.0172191 
0.0217946 0.0172191 9.86972 
9.88076 -0.0306176 0.0272505 
-0.0306176 9.86287 0.0178979 
0.0272505 0.0178979 9.95094 
10.1409 -0.00798916 0.00798747 
-0.00798916 10.1097 -0.0517421 
0.00798747 -0.0517421 10.1266 
10.1573 -0.0219838 0.0212136 
-0.0219838 10.0902 -0.0484353 
0.0212136 -0.0484353 10.1295 
10.0599 -0.00939672 0.0215425 
-0.00939672 9.98496 -0.0944959 
0.0215425 -0.0944959 10.3322 
10.1759 -0.00572275 0.0011726 
-0.00572275 10.0382 0.0400391 
0.0011726 0.0400391 10.163 
9.7882 0.204214 -0.0981081 
0.204214 9.98325 0.154118 
-0.0981081 0.154118 10.0711 
9.81512 0.108336 -0.24188 
0.108336 10.1025 0.0490213 
-0.24188 0.0490213 9.92494 
9.76116 0.135854 -0.0817168 
0.135854 10.0225 0.0802511 
-0.0817168 0.0802511 10.0589 
9.76568 0.065072 -0.0454678 
0.065072 9.98384 0.0381672 
-0.0454678 0.0381672 10.093 
9.83689 -0.00144786 -0.0110694 
-0.00144786 9.8874 0.0144917 
-0.0110694 0.0144917 10.0672 
9.89657 0.0715557 0.0663951 
0.0715557 9.91797 -0.0311208 
0.0663951 -0.0311208 9.9769 
9.9539 0.0376835 -0.00119137 
0.0376835 10.0317 -0.0449012 
-0.00119137 -0.0449012 9.80582 
9.89346 0.0365811 0.0269661 
0.0365811 9.90482 -0.0233663 
0.0269661 -0.0233663 9.99315 
9.99243 0.00119562 -0.00492499 
0.00119562 9.99477 -0.00805122 
-0.00492499 -0.00805122 9.99174 
9.98642 0.00191401 -0.00252766 
0.00191401 9.99072 -0.0118907 
-0.00252766 -0.0118907 10.0018 
9.99015 0.00125105 -0.00683151 
0.00125105 9.99092 -0.00965325 
-0.00683151 -0.00965325 9.99787 
9.99173 0.00307627 -0.0053666 
0.00307627 9.99316 -0.00538349 
-0.0053666 -0.00538349 9.99405 
9.99168 -9.88504e-05 0.00518643 
-9.88504e-05 9.98422 -0.0382075 
0.00518643 -0.0382075 10.0048 
9.99306 -0.00261826 -0.000531082 
-0.00261826 9.99276 -0.0402375 
-0.000531082 -0.0402375 9.99488 
9.9948 -0.00252833 0.000623982 
-0.00252833 9.99988 -0.0455243 
0.000623982 -0.0455243 9.98603 
9.99575 0.00182255 -0.00123445 
0.00182255 10.0014 -0.0414181 
-0.00123445 -0.0414181 9.98358 
9.75312 -0.0877128 0.122724 
-0.0877128 9.77989 0.125394 
0.122724 0.125394 9.68817 
9.81414 -0.138227 0.225601 
-0.138227 9.77742 0.110426 
0.225601 0.110426 9.62962 
9.87207 -0.0502799 0.130821 
-0.0502799 9.6997 0.0493068 
0.130821 0.0493068 9.6494 
9.76389 -0.0697633 0.103091 
-0.0697633 9.72646 0.122702 
0.103091 0.122702 9.73083 
9.89385 -0.0374145 -0.0437064 
-0.0374145 9.89198 0.0157727 
-0.0437064 0.0157727 10.0904 
9.88615 -0.0287252 0.00291659 
-0.0287252 9.90374 0.00678853 
0.00291659 0.00678853 10.0863 
9.86641 -0.0557834 -0.0493482 
-0.0557834 9.85759 0.0473992 
-0.0493482 0.0473992 10.1522 
9.90018 -0.0369109 -0.0471448 
-0.0369109 9.88193 0.0265915 
-0.0471448 0.0265915 10.0941 
10.0003 0.00217826 -0.0538136 
0.00217826 9.96136 0.0496734 
-0.0538136 0.0496734 9.28241 
10.0556 -0.0638092 0.254755 
-0.0638092 9.74207 0.0175164 
0.254755 0.0175164 9.44644 
9.98154 0.0602301 0.223625 
0.0602301 9.84497 0.0482363 
0.223625 0.0482363 9.41761 
10.4511 -0.125957 0.267751 
-0.125957 9.56557 -0.118469 
0.267751 -0.118469 9.22743 
9.89907 0.0725935 0.0177598 
0.0725935 9.89545 0.0172409 
0.0177598 0.0172409 9.93664 
9.89186 0.0675981 0.0227824 
0.0675981 9.89702 0.023479 
0.0227824 0.023479 9.94227 
9.8835 0.0717372 0.0121534 
0.0717372 9.89047 0.0214036 
0.0121534 0.0214036 9.95718 
9.90602 0.0677678 0.0164223 
0.0677678 9.89699 0.0223892 
0.0164223 0.0223892 9.92814 
9.99099 0.0015607 0.0458273 
0.0015607 9.99076 0.0411768 
0.0458273 0.0411768 10.0022 
9.99688 0.00297828 0.0465877 
0.00297828 9.99263 0.0437466 
0.0465877 0.0437466 9.99443 
9.99535 0.00114376 0.0473844 
0.00114376 9.9932 0.0424003 
0.0473844 0.0424003 9.99538 
9.99642 0.00189322 0.0473278 
0.00189322 9.99568 0.0453454 
0.0473278 0.0453454 9.99184 
9.92487 -0.0237612 0.091499 
-0.0237612 9.96808 0.0365454 
0.091499 0.0365454 10.1721 
9.89852 -0.00951853 0.0160327 
-0.00951853 9.97425 -0.00357582 
0.0160327 -0.00357582 10.1923 
9.91818 0.0423011 -0.0167558 
0.0423011 9.95039 -0.00489037 
-0.0167558 -0.00489037 10.1965 
9.80193 0.0199479 0.0182608 
0.0199479 9.92361 -0.0354962 
0.0182608 -0.0354962 10.3396 
9.91147 -0.00352405 -0.0867084 
-0.00352405 9.91639 -0.0153163 
-0.0867084 -0.0153163 9.92284 
9.92861 -0.00476047 -0.0886986 
-0.00476047 9.91174 -0.0113781 
-0.0886986 -0.0113781 9.91034 
9.9116 -0.000166236 -0.0836178 
-0.000166236 9.92161 -0.0137454 
-0.0836178 -0.0137454 9.91749 
9.91786 -0.00473225 -0.0826372 
-0.00473225 9.91899 -0.0110885 
-0.0826372 -0.0110885 9.91385 
9.97853 0.00382039 -0.0256252 
0.00382039 9.98048 -0.0542218 
-0.0256252 -0.0542218 9.98153 
9.98028 0.000784136 -0.0285059 
0.000784136 9.98057 -0.0522104 
-0.0285059 -0.0522104 9.97969 
9.9828 0.00644508 -0.0290261 
0.00644508 9.98544 -0.0520538 
-0.0290261 -0.0520538 9.9723 
9.98137 -0.00155489 -0.0257603 
-0.00155489 9.98224 -0.0494477 
-0.0257603 -0.0494477 9.97693 
9.95166 0.00276292 0.0311399 
0.00276292 9.93244 -0.0728071 
0.0311399 -0.0728071 9.97314 
9.95252 0.00489294 0.031783 
0.00489294 9.95068 -0.0730586 
0.031783 -0.0730586 9.95404 
9.95104 -0.000482014 0.0333354 
-0.000482014 9.97392 -0.0848128 
0.0333354 -0.0848128 9.93228 
9.94989 -0.00186337 0.0426202 
-0.00186337 9.96311 -0.0659431 
0.0426202 -0.0659431 9.94425 
10.0155 -0.0070332 0.00714087 
-0.0070332 10.0168 -0.0117682 
0.00714087 -0.0117682 9.98485 
9.99594 -0.00545042 0.00962165 
-0.00545042 9.99967 0.00219861 
0.00962165 0.00219861 10.0215 
10.0074 -0.0046341 0.00181724 
-0.0046341 10.005 0.00090818 
0.00181724 0.00090818 10.0048 
10.0074 -0.00832151 -0.00502715 
-0.00832151 10.0071 0.00071279 
-0.00502715 0.00071279 10.0027 
9.90733 -0.0213164 0.0462766 
-0.0213164 9.96558 0.000211377 
0.0462766 0.000211377 9.95341 
9.92771 -0.0107113 0.0396231 
-0.0107113 9.92405 0.0119408 
0.0396231 0.0119408 9.97457 
9.92119 -0.0315069 0.0036566 
-0.0315069 9.94385 0.00991617 
0.0036566 0.00991617 9.96128 
9.91662 -0.0279638 0.0146694 
-0.0279638 9.94199 0.000461548 
0.0146694 0.000461548 9.96772 
9.98698 -0.000287937 0.000323428 
-0.000287937 9.98932 0.00638851 
0.000323428 0.00638851 9.99589 
9.98797 0.000176707 0.00189279 
0.000176707 9.98803 0.00578677 
0.00189279 0.00578677 9.99619 
9.98624 -0.000506325 0.000177481 
-0.000506325 9.986 0.00179301 
0.000177481 0.00179301 9.99994 
9.98936 -0.000745758 0.00133369 
-0.000745758 9.98706 0.00677407 
0.00133369 0.00677407 9.99577 
9.91419 -0.00246216 -0.0266377 
-0.00246216 9.92679 0.0415117 
-0.0266377 0.0415117 9.96815 
9.91738 -0.0159716 0.00266791 
-0.0159716 9.89904 0.0216443 
0.00266791 0.0216443 9.99271 
9.92194 -0.0225989 -0.0095085 
-0.0225989 9.92398 0.021891 
-0.0095085 0.021891 9.96321 
9.92477 -0.0183776 -0.00677066 
-0.0183776 9.91518 0.0267585 
-0.00677066 0.0267585 9.96918 
9.90859 -0.0123917 -0.069373 
-0.0123917 9.89389 -0.0383038 
-0.069373 -0.0383038 9.93903 
9.91206 -0.00451802 -0.0597041 
-0.00451802 9.91129 -0.0411681 
-0.0597041 -0.0411681 9.91816 
9.92849 -0.0265087 -0.0742523 
-0.0265087 9.91727 -0.0460693 
-0.0742523 -0.0460693 9.89574 
9.91272 -0.0024563 -0.0653384 
-0.0024563 9.90609 -0.0394346 
-0.0653384 -0.0394346 9.92271 
9.99957 0.000227772 -0.0636921 
0.000227772 9.99626 -0.0207773 
-0.0636921 -0.0207773 9.99013 
9.99775 0.00360703 -0.0639475 
0.00360703 9.99109 -0.0230693 
-0.0639475 -0.0230693 9.99712 
9.99173 4.78469e-05 -0.058866 
4.78469e-05 9.99141 -0.0226874 
-0.058866 -0.0226874 10.0028 
9.99858 -0.000867908 -0.0642742 
-0.000867908 9.99922 -0.0225342 
-0.0642742 -0.0225342 9.98815 
9.91112 -0.00233385 0.0491955 
-0.00233385 9.88588 0.0551115 
0.0491955 0.0551115 9.96907 
9.91752 -0.000491487 0.0579244 
-0.000491487 9.88715 0.0355401 
0.0579244 0.0355401 9.9614 
9.91372 0.00938217 0.0564951 
0.00938217 9.90125 0.0198886 
0.0564951 0.0198886 9.9511 
9.9288 -0.0159917 0.0543882 
-0.0159917 9.87456 0.0344404 
0.0543882 0.0344404 9.96272 
10.2353 -0.0494851 -0.0195452 
-0.0494851 10.2872 -0.0509817 
-0.0195452 -0.0509817 10.5718 
10.2686 0.156902 -0.0677455 
0.156902 10.3287 0.0522699 
-0.0677455 0.0522699 10.497 
10.471 0.00916699 0.0560388 
0.00916699 10.3577 0.0526739 
0.0560388 0.0526739 10.2656 
10.4231 0.0896518 -0.0263937 
0.0896518 10.3853 -0.00766494 
-0.0263937 -0.00766494 10.2859 
9.55483 0.376873 0.42438 
0.376873 9.50481 -0.43395 
0.42438 -0.43395 12.0286 
10.781 -0.149109 -0.465499 
-0.149109 11.0207 0.115486 
-0.465499 0.115486 9.28663 
10.1784 0.0840039 -0.220866 
0.0840039 10.5258 0.15623 
-0.220866 0.15623 10.3841 
9.01444 0.870444 -1.3372 
0.870444 10.4102 0.680644 
-1.3372 0.680644 11.6636 
9.98564 -0.00157657 0.0186005 
-0.00157657 9.97755 -0.00808827 
0.0186005 -0.00808827 9.98001 
9.97894 -0.00869015 0.0207925 
-0.00869015 9.97911 -0.00511844 
0.0207925 -0.00511844 9.98516 
9.98449 -0.00737914 0.0199849 
-0.00737914 9.98395 -0.00928604 
0.0199849 -0.00928604 9.97476 
9.98455 -0.00177837 0.0174293 
-0.00177837 9.97999 -0.00792937 
0.0174293 -0.00792937 9.97867 
9.99504 -0.000412473 -0.0517944 
-0.000412473 9.86341 0.024117 
-0.0517944 0.024117 9.76477 
9.90306 0.00530351 0.00692114 
0.00530351 9.91969 -0.0090931 
0.00692114 -0.0090931 9.80047 
9.9117 -0.0138152 0.0353801 
-0.0138152 9.89662 0.00464544 
0.0353801 0.00464544 9.8149 
9.89114 -0.00671198 -0.0285238 
-0.00671198 9.91133 0.00518107 
-0.0285238 0.00518107 9.82075 
10.3059 0.0214483 -0.631109 
0.0214483 9.39347 0.0395255 
-0.631109 0.0395255 9.33878 
9.9272 -0.0370796 0.140335 
-0.0370796 9.89381 -0.0116914 
0.140335 -0.0116914 9.21717 
10.4131 -0.0987783 -0.00276433 
-0.0987783 9.6111 -0.00752128 
-0.00276433 -0.00752128 9.01401 
10.3173 0.0415525 -0.0553304 
0.0415525 9.67763 0.0328426 
-0.0553304 0.0328426 9.04331 
9.84901 -0.0527025 0.0160131 
-0.0527025 9.80671 0.120552 
0.0160131 0.120552 9.97294 
9.85146 -0.0317878 0.0462285 
-0.0317878 9.81583 0.154238 
0.0462285 0.154238 9.96136 
9.86458 -0.038966 0.0149147 
-0.038966 9.80908 0.145367 
0.0149147 0.145367 9.95498 
9.87863 0.0108491 0.0258953 
0.0108491 9.86398 0.0828236 
0.0258953 0.0828236 9.88604 
9.94525 0.00854531 0.0300897 
0.00854531 9.94884 0.0479957 
0.0300897 0.0479957 9.95804 
9.95028 0.0124082 0.0392397 
0.0124082 9.95772 0.0366651 
0.0392397 0.0366651 9.94413 
9.94097 0.00120551 0.0343062 
0.00120551 9.95159 0.0338477 
0.0343062 0.0338477 9.95957 
9.94591 0.0147373 0.0440698 
0.0147373 9.95509 0.0445568 
0.0440698 0.0445568 9.95113 
10.1512 -0.058291 -0.00235665 
-0.058291 10.1765 0.00498171 
-0.00235665 0.00498171 10.2161 
10.1011 -0.00227068 0.00183466 
-0.00227068 10.0365 0.044203 
0.00183466 0.044203 10.4063 
10.2412 -0.0104987 0.00462745 
-0.0104987 10.159 0.00931079 
0.00462745 0.00931079 10.1436 
10.2371 -0.0138386 0.0434791 
-0.0138386 10.094 -0.117684 
0.0434791 -0.117684 10.2127 
9.94171 0.00215477 0.00713999 
0.00215477 9.93092 0.00110181 
0.00713999 0.00110181 9.99176 
9.9448 -0.000826002 -0.00339346 
-0.000826002 9.93815 0.00644751 
-0.00339346 0.00644751 9.98143 
9.94477 0.00162401 -0.00483529 
0.00162401 9.94497 0.00349159 
-0.00483529 0.00349159 9.97465 
9.94169 0.0138022 -0.00960937 
0.0138022 9.94776 0.0151312 
-0.00960937 0.0151312 9.97493 
9.91964 0.0116063 0.00284553 
0.0116063 9.95432 0.0177298 
0.00284553 0.0177298 9.9582 
9.91535 -0.0160339 0.0151995 
-0.0160339 9.93742 0.00441907 
0.0151995 0.00441907 9.9794 
9.92383 -0.0220509 -0.0028221 
-0.0220509 9.9224 0.00446017 
-0.0028221 0.00446017 9.98593 
9.90104 -0.0127697 -0.0063589 
-0.0127697 9.95824 0.0147642 
-0.0063589 0.0147642 9.97289 
9.96879 -0.000896863 0.0189432 
-0.000896863 9.9621 0.0207316 
0.0189432 0.0207316 9.93178 
9.95096 -0.00313041 0.0199185 
-0.00313041 9.94715 0.00928756 
0.0199185 0.00928756 9.96456 
9.9623 0.00407302 0.0223375 
0.00407302 9.96345 0.00780048 
0.0223375 0.00780048 9.93692 
9.96722 0.00485587 0.0296639 
0.00485587 9.9655 0.00147034 
0.0296639 0.00147034 9.92995 
10.3017 0.217949 -0.106538 
0.217949 10.2357 -0.0423588 
-0.106538 -0.0423588 10.274 
10.2156 0.00781791 -0.0394652 
0.00781791 10.2057 0.00812317 
-0.0394652 0.00812317 10.3901 
10.1042 0.0167711 0.050468 
0.0167711 10.2005 0.0558926 
0.050468 0.0558926 10.5067 
10.1415 -0.0414769 -0.0676689 
-0.0414769 10.1762 -0.0186785 
-0.0676689 -0.0186785 10.4936 
9.95777 -0.00518511 -0.0480379 
-0.00518511 9.92111 -0.0336065 
-0.0480379 -0.0336065 9.86788 
9.93533 -0.0223759 -0.028425 
-0.0223759 9.9308 -0.0135395 
-0.028425 -0.0135395 9.88062 
9.9372 -0.0271233 -0.0340781 
-0.0271233 9.91535 -0.0253827 
-0.0340781 -0.0253827 9.8942 
9.9562 -0.0215243 -0.00345116 
-0.0215243 9.93417 0.0259654 
-0.00345116 0.0259654 9.85639 
9.97219 0.00125187 0.0696828 
0.00125187 9.96944 -0.00953506 
0.0696828 -0.00953506 9.97889 
9.97315 -2.75636e-05 0.0805151 
-2.75636e-05 9.97543 -0.00710634 
0.0805151 -0.00710634 9.97193 
9.9744 -0.000273072 0.0792524 
-0.000273072 9.9742 -0.00744225 
0.0792524 -0.00744225 9.97191 
9.97972 0.00286356 0.081253 
0.00286356 9.98211 -0.00335177 
0.081253 -0.00335177 9.95869 
9.98832 -0.00254711 0.0180584 
-0.00254711 9.98515 -0.000228824 
0.0180584 -0.000228824 10.0072 
9.9948 0.00101002 0.0140141 
0.00101002 9.99087 0.000655292 
0.0140141 0.000655292 9.99502 
9.99582 -0.00105693 0.0146602 
-0.00105693 9.99525 0.0029469 
0.0146602 0.0029469 9.98961 
9.99467 -0.00115075 0.0100406 
-0.00115075 9.99417 0.00356395 
0.0100406 0.00356395 9.99184 
9.96953 -0.00445095 -0.0334119 
-0.00445095 9.96833 0.0445324 
-0.0334119 0.0445324 9.96601 
9.96669 -0.00283596 -0.0328233 
-0.00283596 9.96724 0.0443408 
-0.0328233 0.0443408 9.96994 
9.96653 -0.0041587 -0.033986 
-0.0041587 9.97377 0.0384722 
-0.033986 0.0384722 9.96357 
9.96762 -0.00184847 -0.0356777 
-0.00184847 9.9653 0.0460522 
-0.0356777 0.0460522 9.97095 
9.89331 -0.0671871 0.0817495 
-0.0671871 9.6649 0.00807415 
0.0817495 0.00807415 10.0144 
9.85299 0.00217593 0.0597961 
0.00217593 9.7687 0.122279 
0.0597961 0.122279 9.95089 
9.84869 -0.037156 -0.124602 
-0.037156 9.81448 0.0791582 
-0.124602 0.0791582 9.90941 
9.89851 -0.0901432 -0.0360727 
-0.0901432 9.74426 0.164136 
-0.0360727 0.164136 9.92982 
10.3177 -0.032394 0.0437328 
-0.032394 10.1961 -0.085736 
0.0437328 -0.085736 9.81216 
9.91963 -0.0834017 -0.19556 
-0.0834017 9.62084 0.105539 
-0.19556 0.105539 10.7855 
10.0788 -0.00589612 0.0708467 
-0.00589612 10.3047 -0.0872289 
0.0708467 -0.0872289 9.94244 
10.3299 0.162986 0.0449791 
0.162986 9.87285 -0.453158 
0.0449791 -0.453158 10.1232 
9.96275 0.0210284 0.0819073 
0.0210284 9.91489 0.0673334 
0.0819073 0.0673334 10.0429 
9.95258 -0.0428694 -0.0069086 
-0.0428694 9.97689 -0.0234756 
-0.0069086 -0.0234756 9.99111 
9.9466 0.0302161 -0.0191822 
0.0302161 9.96566 -0.0418588 
-0.0191822 -0.0418588 10.0083 
9.92659 -0.0610376 -0.0225056 
-0.0610376 9.96206 -0.0222409 
-0.0225056 -0.0222409 10.0319 
11.1873 -0.416339 0.0763332 
-0.416339 9.5775 -0.429488 
0.0763332 -0.429488 11.5389 
7.57247 -0.520814 -0.147988 
-0.520814 11.1414 -0.589233 
-0.147988 -0.589233 13.5899 
10.9032 0.742207 0.537478 
0.742207 12.1278 0.209342 
0.537478 0.209342 9.27273 
9.8654 0.109836 -0.501831 
0.109836 10.8964 1.12599 
-0.501831 1.12599 11.5419 
9.8761 0.0263803 0.0436965 
0.0263803 9.90657 -0.0332329 
0.0436965 -0.0332329 9.91811 
9.85364 0.0280325 0.0763699 
0.0280325 9.90172 -0.0395962 
0.0763699 -0.0395962 9.94542 
9.88772 0.0140111 0.0816447 
0.0140111 9.88455 -0.0428322 
0.0816447 -0.0428322 9.92851 
9.87345 0.0245058 0.0670386 
0.0245058 9.89434 -0.0420568 
0.0670386 -0.0420568 9.93299 
9.88825 -0.000907541 0.0840223 
-0.000907541 9.90855 0.00802224 
0.0840223 0.00802224 9.90222 
9.91517 0.00554883 0.0833304 
0.00554883 9.8841 0.00572056 
0.0833304 0.00572056 9.89975 
9.88459 -0.00661461 0.0840317 
-0.00661461 9.906 0.00938013 
0.0840317 0.00938013 9.90844 
9.88971 0.00473022 0.0886171 
0.00473022 9.90771 0.0111104 
0.0886171 0.0111104 9.9016 
9.97813 0.0428243 0.0013354 
0.0428243 9.91794 -0.00262532 
0.0013354 -0.00262532 9.99867 
9.96317 0.052434 0.00973734 
0.052434 9.90041 -0.0362175 
0.00973734 -0.0362175 10.0312 
9.88663 -0.0671157 0.00917814 
-0.0671157 10.0845 -0.0154707 
0.00917814 -0.0154707 9.92362 
9.90384 0.0786457 -0.0102504 
0.0786457 9.96591 0.0149235 
-0.0102504 0.0149235 10.025 
9.91229 0.0180162 0.0523557 
0.0180162 9.90409 -0.0713864 
0.0523557 -0.0713864 9.93618 
9.90741 -0.00167199 0.0385388 
-0.00167199 9.92623 -0.0549879 
0.0385388 -0.0549879 9.91891 
9.90818 -0.0038486 0.0350152 
-0.0038486 9.9419 -0.0563748 
0.0350152 -0.0563748 9.90248 
9.90018 0.0107582 0.0463607 
0.0107582 9.91887 -0.0478795 
0.0463607 -0.0478795 9.93351 
10.821 -0.0188319 -2.10325 
-0.0188319 7.89951 1.47767 
-2.10325 1.47767 8.2713 
11.5247 -0.969371 -0.585336 
-0.969371 8.40827 0.981525 
-0.585336 0.981525 7.05882 
10.0554 0.0820255 -2.66881 
0.0820255 9.36065 1.88798 
-2.66881 1.88798 7.5758 
6.32994 3.10204 1.17923 
3.10204 10.4111 -0.0364056 
1.17923 -0.0364056 10.2508 
9.98163 0.00144149 0.00132955 
0.00144149 9.9793 0.0016933 
0.00132955 0.0016933 9.99867 
9.97839 -0.00026281 -3.00234e-05 
-0.00026281 9.98371 -0.0020308 
-3.00234e-05 -0.0020308 9.99749 
9.97906 -0.000970913 0.00285922 
-0.000970913 9.98504 -0.000730024 
0.00285922 -0.000730024 9.99549 
9.98706 5.98829e-06 -0.00200179 
5.98829e-06 9.97831 -0.00372391 
-0.00200179 -0.00372391 9.99422 
9.9806 0.0045049 -0.0202453 
0.0045049 9.98346 -0.0159057 
-0.0202453 -0.0159057 9.98253 
9.98698 0.00359373 -0.0208312 
0.00359373 9.98144 -0.0177291 
-0.0208312 -0.0177291 9.97818 
9.98266 0.00415156 -0.0187442 
0.00415156 9.97798 -0.0134651 
-0.0187442 -0.0134651 9.98595 
9.98272 0.00406619 -0.0180822 
0.00406619 9.98278 -0.015753 
-0.0180822 -0.015753 9.98109 
11.9767 -0.242042 2.75785 
-0.242042 5.71706 -1.81379 
2.75785 -1.81379 7.66562 
6.32765 1.38871 5.1267 
1.38871 15.5144 -2.69602 
5.1267 -2.69602 3.5173 
10.6629 0.510278 1.07339 
0.510278 8.98262 -0.346927 
1.07339 -0.346927 5.71381 
4.96983 0.122637 -0.497352 
0.122637 12.1619 1.80311 
-0.497352 1.80311 8.22758 
9.8502 -0.22444 0.180316 
-0.22444 9.87885 0.13973 
0.180316 0.13973 11.9002 
7.77769 0.87957 0.173462 
0.87957 10.5001 0.209073 
0.173462 0.209073 13.3515 
11.4555 1.05797 -0.402067 
1.05797 11.0194 0.204815 
-0.402067 0.204815 9.15437 
9.29067 0.493206 -0.43154 
0.493206 10.822 -1.74533 
-0.43154 -1.74533 11.5167 
9.25189 -0.0162598 -0.102581 
-0.0162598 10.3944 0.0176996 
-0.102581 0.0176996 10.4539 
9.17159 0.111587 -0.471577 
0.111587 10.3365 -0.102662 
-0.471577 -0.102662 10.592 
9.39778 0.081255 -0.150533 
0.081255 10.1404 0.0327145 
-0.150533 0.0327145 10.562 
10.8886 0.0261748 -0.728536 
0.0261748 9.46813 -0.0882993 
-0.728536 -0.0882993 9.74344 
9.9222 -0.000702705 0.0464085 
-0.000702705 9.9151 0.0461026 
0.0464085 0.0461026 9.9596 
9.90943 -0.00298529 0.0460579 
-0.00298529 9.91241 0.0462629 
0.0460579 0.0462629 9.97506 
9.91834 -0.00344911 0.048903 
-0.00344911 9.91411 0.0475668 
0.048903 0.0475668 9.96445 
9.92248 0.00365475 0.0577151 
0.00365475 9.91205 0.0478755 
0.0577151 0.0478755 9.96237 
9.9512 -0.0211492 0.00757145 
-0.0211492 9.94379 -0.0263034 
0.00757145 -0.0263034 9.94565 
9.97275 -0.0234166 0.0116923 
-0.0234166 9.93219 0.02666 
0.0116923 0.02666 9.93571 
9.93475 -0.00407219 0.0088957 
-0.00407219 9.9412 0.0164537 
0.0088957 0.0164537 9.9647 
9.91944 -0.0249528 -0.0020375 
-0.0249528 9.92796 0.0123545 
-0.0020375 0.0123545 9.99325 
9.70654 0.275182 0.038274 
0.275182 9.82029 -0.0445675 
0.038274 -0.0445675 10.1764 
9.78565 0.14244 0.0589653 
0.14244 9.95216 -0.10317 
0.0589653 -0.10317 9.9654 
9.73179 0.272197 0.00477689 
0.272197 9.88542 -0.0517602 
0.00477689 -0.0517602 10.086 
9.7365 0.290707 0.0681772 
0.290707 9.79071 -0.0462534 
0.0681772 -0.0462534 10.176 
9.98422 -0.00483795 0.0100514 
-0.00483795 9.99136 -0.030377 
0.0100514 -0.030377 9.9809 
9.99641 0.00390633 0.0107367 
0.00390633 9.98555 -0.0295723 
0.0107367 -0.0295723 9.97452 
9.98693 0.00176168 0.00885929 
0.00176168 9.9818 -0.0316399 
0.00885929 -0.0316399 9.98774 
9.98419 -0.00323128 0.011699 
-0.00323128 9.99056 -0.0287839 
0.011699 -0.0287839 9.98173 
9.95967 -0.0114423 0.056793 
-0.0114423 9.96471 0.013672 
0.056793 0.013672 9.97512 
9.91912 -0.00437911 0.0152412 
-0.00437911 9.97583 0.019215 
0.0152412 0.019215 10.0045 
9.92276 0.00391875 -0.0234441 
0.00391875 9.97997 0.0228726 
-0.0234441 0.0228726 9.99677 
9.90478 0.0187523 0.019036 
0.0187523 9.96533 0.00853861 
0.019036 0.00853861 10.0294 
9.97258 -0.00246866 -0.0014215 
-0.00246866 9.97111 0.00469284 
-0.0014215 0.00469284 9.99911 
9.97122 0.000298916 0.000202511 
0.000298916 9.9708 0.00192492 
0.000202511 0.00192492 10.0008 
9.97096 0.00244238 -0.000354931 
0.00244238 9.96965 0.003618 
-0.000354931 0.003618 10.0022 
9.9706 0.0011674 0.00532152 
0.0011674 9.97739 -0.00736054 
0.00532152 -0.00736054 9.99481 
9.9469 0.00605028 -0.0254158 
0.00605028 9.94704 -0.017125 
-0.0254158 -0.017125 9.93856 
9.93768 0.0166126 -0.00995671 
0.0166126 9.94489 -0.00453914 
-0.00995671 -0.00453914 9.94992 
9.94366 0.00613095 -0.0160676 
0.00613095 9.94411 -0.00208525 
-0.0160676 -0.00208525 9.94473 
9.93957 0.0281802 -0.0122092 
0.0281802 9.96335 0.0029425 
-0.0122092 0.0029425 9.92957 
9.9245 -0.0699872 0.00114338 
-0.0699872 9.79419 0.0511664 
0.00114338 0.0511664 10.0367 
9.87016 0.0260173 0.0160494 
0.0260173 9.99615 0.0270277 
0.0160494 0.0270277 9.88903 
9.92731 -0.0327425 0.0274761 
-0.0327425 9.84895 0.0749539 
0.0274761 0.0749539 9.97909 
9.89324 -0.0484897 0.0697807 
-0.0484897 9.91701 0.120123 
0.0697807 0.120123 9.94509 
9.95152 -0.0210918 0.0177877 
-0.0210918 9.87245 0.0525149 
0.0177877 0.0525149 10.1686 
9.92175 -0.00184086 0.0257662 
-0.00184086 9.93715 0.0112824 
0.0257662 0.0112824 10.1337 
9.93814 0.00364553 -0.0556407 
0.00364553 9.87238 0.026802 
-0.0556407 0.026802 10.1821 
9.9042 0.0134959 -0.0260451 
0.0134959 9.89556 0.0821655 
-0.0260451 0.0821655 10.1928 
9.97521 -0.0102979 0.00309144 
-0.0102979 9.9477 -0.00631763 
0.00309144 -0.00631763 9.98079 
9.97825 0.000675363 0.0106485 
0.000675363 9.94975 0.00376849 
0.0106485 0.00376849 9.97569 
9.93469 0.0257952 0.0102609 
0.0257952 9.96051 -0.00230377 
0.0102609 -0.00230377 10.0085 
9.96797 -0.00613556 0.0175114 
-0.00613556 9.9523 -0.0124593 
0.0175114 -0.0124593 9.98342 
9.98399 0.00110018 0.0369095 
0.00110018 9.99334 0.0128653 
0.0369095 0.0128653 10.0013 
9.997 -0.000867282 0.0427269 
-0.000867282 9.99608 0.0175645 
0.0427269 0.0175645 9.98558 
9.98895 -0.00248058 0.0369673 
-0.00248058 9.9913 0.0178024 
0.0369673 0.0178024 9.99841 
10.0004 0.00237957 0.0387697 
0.00237957 9.99481 0.0178009 
0.0387697 0.0178009 9.98341 
9.87914 -0.00497068 -0.0182375 
-0.00497068 9.88654 -0.0185154 
-0.0182375 -0.0185154 10.057 
9.90078 0.00288797 -0.00861333 
0.00288797 9.89517 -0.0445925 
-0.00861333 -0.0445925 10.0267 
9.88239 0.00288511 -0.00753304 
0.00288511 9.89629 -0.0371238 
-0.00753304 -0.0371238 10.044 
9.90591 0.0263893 -0.0133611 
0.0263893 9.84951 -0.05431 
-0.0133611 -0.05431 10.0673 
12.0778 -0.116658 0.125845 
-0.116658 11.5185 -0.709547 
0.125845 -0.709547 13.2894 
12.5294 0.288695 0.405227 
0.288695 11.8914 -0.388707 
0.405227 -0.388707 12.465 
11.5272 0.65048 0.577774 
0.65048 11.4703 -0.996806 
0.577774 -0.996806 13.8883 
11.9218 0.625893 -0.116602 
0.625893 12.2674 -0.670332 
-0.116602 -0.670332 12.6966 
9.94022 -0.0136126 -0.0647041 
-0.0136126 9.89949 0.0958684 
-0.0647041 0.0958684 9.97071 
9.91185 0.00173015 -0.0501166 
0.00173015 9.93193 0.0496865 
-0.0501166 0.0496865 9.96664 
9.92822 -0.00411916 -0.0571807 
-0.00411916 9.9054 0.0622367 
-0.0571807 0.0622367 9.9768 
9.92529 0.00273293 -0.0524489 
0.00273293 9.89327 0.0426678 
-0.0524489 0.0426678 9.99186 
9.97823 0.00178607 0.0599198 
0.00178607 9.97701 -0.0412075 
0.0599198 -0.0412075 9.97079 
9.97501 -0.00141889 0.061117 
-0.00141889 9.97579 -0.0403119 
0.061117 -0.0403119 9.97525 
9.97369 0.00175176 0.0621082 
0.00175176 9.97332 -0.0439059 
0.0621082 -0.0439059 9.97902 
9.97231 0.00198166 0.0639625 
0.00198166 9.97757 -0.0441222 
0.0639625 -0.0441222 9.97615 
9.98721 0.000546217 -0.0295069 
0.000546217 9.99371 0.0278281 
-0.0295069 0.0278281 10.0041 
9.99573 -0.00364977 -0.033129 
-0.00364977 9.99648 0.0270015 
-0.033129 0.0270015 9.99281 
9.99515 -7.19369e-05 -0.0324155 
-7.19369e-05 9.99482 0.0244715 
-0.0324155 0.0244715 9.99505 
9.9982 -0.000772552 -0.0331079 
-0.000772552 9.99689 0.0247584 
-0.0331079 0.0247584 9.98993 
9.9323 0.0621102 0.00938655 
0.0621102 9.99009 0.0062402 
0.00938655 0.0062402 9.9524 
9.95113 -0.0096922 0.00528178 
-0.0096922 9.91431 0.00358109 
0.00528178 0.00358109 10.0094 
9.83283 0.0206843 -0.00584346 
0.0206843 9.8821 0.0690512 
-0.00584346 0.0690512 10.1599 
9.94837 0.0971383 0.178951 
0.0971383 10.0032 -0.151377 
0.178951 -0.151377 9.92323 
9.9367 -0.0553184 0.001076 
-0.0553184 9.93226 -0.00353899 
0.001076 -0.00353899 9.95071 
9.95098 -0.028851 0.0386937 
-0.028851 9.92738 0.0185166 
0.0386937 0.0185166 9.94131 
9.93285 -0.00284634 0.00843384 
-0.00284634 9.94186 -0.0160431 
0.00843384 -0.0160431 9.94496 
9.92042 -0.0205501 -0.0231952 
-0.0205501 9.93039 0.0105873 
-0.0231952 0.0105873 9.96886 
9.99253 0.000978955 -0.044848 
0.000978955 9.99505 -0.0625128 
-0.044848 -0.0625128 9.991 
9.9873 0.00086628 -0.0478115 
0.00086628 9.98921 -0.0592277 
-0.0478115 -0.0592277 10.0021 
9.99216 0.00322952 -0.0463337 
0.00322952 9.99256 -0.0608039 
-0.0463337 -0.0608039 9.99386 
9.99054 0.00173333 -0.0460374 
0.00173333 9.99382 -0.0622931 
-0.0460374 -0.0622931 9.99421 
9.93236 0.0077137 0.0540864 
0.0077137 9.94561 0.0431157 
0.0540864 0.0431157 9.92148 
9.91572 -0.00179933 0.0412419 
-0.00179933 9.93835 0.0514295 
0.0412419 0.0514295 9.94538 
9.93106 0.00888061 0.0458283 
0.00888061 9.93784 0.0387853 
0.0458283 0.0387853 9.93055 
9.93179 0.0122473 0.0472168 
0.0122473 9.93347 0.0337959 
0.0472168 0.0337959 9.93419 
10.1229 -0.00533664 0.0115535 
-0.00533664 10.0836 -0.0201806 
0.0115535 -0.0201806 10.2329 
10.2392 0.010343 -0.0425785 
0.010343 10.1606 0.00360397 
-0.0425785 0.00360397 10.0396 
10.1306 0.000286205 0.0201797 
0.000286205 10.1099 -0.044388 
0.0201797 -0.044388 10.1988 
10.1203 0.00476756 -0.0197478 
0.00476756 10.1372 -0.0743807 
-0.0197478 -0.0743807 10.1819 
9.98329 0.00235364 -0.0111645 
0.00235364 9.98233 -0.00936015 
-0.0111645 -0.00936015 9.98723 
9.98032 0.00313844 -0.0131521 
0.00313844 9.98374 -0.00703395 
-0.0131521 -0.00703395 9.98879 
9.98474 0.00290949 -0.0115244 
0.00290949 9.98218 -0.00679802 
-0.0115244 -0.00679802 9.98592 
9.98226 0.00445192 -0.00869605 
0.00445192 9.9848 -0.00900856 
-0.00869605 -0.00900856 9.98579 
9.9953 -0.00415415 0.0191493 
-0.00415415 10.0099 0.0188735 
0.0191493 0.0188735 9.99825 
9.99757 -0.00534082 0.00511024 
-0.00534082 9.99708 0.00880495 
0.00511024 0.00880495 10.0088 
9.99903 0.0276455 -0.0138489 
0.0276455 10.0046 -0.0171055 
-0.0138489 -0.0171055 9.99976 
10.0125 -0.00245244 4.45755e-05 
-0.00245244 9.97239 0.0243795 
4.45755e-05 0.0243795 10.0186 
9.83171 -0.0264641 -0.54564 
-0.0264641 10.6497 0.2317 
-0.54564 0.2317 11.8471 
10.9856 0.333578 -0.180565 
0.333578 10.1192 0.531594 
-0.180565 0.531594 11.2237 
11.5766 0.0751323 0.90275 
0.0751323 10.871 0.149166 
0.90275 0.149166 9.88096 
12.2275 0.283675 -0.201714 
0.283675 10.1597 0.025519 
-0.201714 0.025519 9.94138 
9.94394 0.0415476 -0.00842949 
0.0415476 9.92378 -0.0390027 
-0.00842949 -0.0390027 10.0239 
9.92303 0.00237069 0.0342249 
0.00237069 9.95715 -0.0231349 
0.0342249 -0.0231349 10.0114 
9.9593 0.0184453 0.0316657 
0.0184453 9.96372 -0.00964277 
0.0316657 -0.00964277 9.96855 
9.92988 0.0181971 0.0365016 
0.0181971 9.9731 -0.0302775 
0.0365016 -0.0302775 9.98858 
9.91545 0.0647871 0.040397 
0.0647871 9.90263 0.0428393 
0.040397 0.0428393 9.92045 
9.92693 0.0533032 0.0420104 
0.0533032 9.90316 0.0492335 
0.0420104 0.0492335 9.90843 
9.89174 0.0529876 0.0297091 
0.0529876 9.90439 0.0272711 
0.0297091 0.0272711 9.94239 
9.91309 0.0536741 -0.0177862 
0.0536741 9.89197 0.0356638 
-0.0177862 0.0356638 9.93347 
10.0225 -0.0204926 -0.0405186 
-0.0204926 9.94288 -0.0683153 
-0.0405186 -0.0683153 9.93802 
9.94415 -0.0595833 -0.00048607 
-0.0595833 9.89163 -0.00405802 
-0.00048607 -0.00405802 10.0676 
9.92864 -0.0333236 0.0347127 
-0.0333236 9.9358 0.0454855 
0.0347127 0.0454855 10.039 
9.94515 -0.0470729 0.012743 
-0.0470729 9.90388 -0.00520545 
0.012743 -0.00520545 10.0544 
9.72764 -0.366413 0.608016 
-0.366413 10.5672 -0.347887 
0.608016 -0.347887 13.0281 
10.475 -0.278689 0.358997 
-0.278689 11.3712 0.226624 
0.358997 0.226624 11.4768 
10.2166 -0.203764 0.254421 
-0.203764 11.1307 -0.0359614 
0.254421 -0.0359614 11.9757 
10.2885 -0.263207 -0.146374 
-0.263207 11.2627 0.170897 
-0.146374 0.170897 11.7718 
9.91687 0.00716013 -0.00142572 
0.00716013 9.91569 -0.003363 
-0.00142572 -0.003363 10.0151 
9.91699 -0.00560425 -0.00684073 
-0.00560425 9.89854 0.00220635 
-0.00684073 0.00220635 10.0321 
9.89733 -0.00249845 0.0110302 
-0.00249845 9.91206 0.0210508 
0.0110302 0.0210508 10.0382 
9.9135 -0.000224866 -0.00377571 
-0.000224866 9.91629 0.00119876 
-0.00377571 0.00119876 10.0178 
10.7594 -0.105428 -0.101055 
-0.105428 10.862 -0.107685 
-0.101055 -0.107685 10.9461 
10.7755 -0.141555 -0.0902655 
-0.141555 10.6337 -0.16294 
-0.0902655 -0.16294 11.1583 
11.1932 -0.0547498 0.175945 
-0.0547498 10.7787 -0.0546697 
0.175945 -0.0546697 10.5956 
10.9342 -0.0403886 -0.252238 
-0.0403886 10.7662 0.0302344 
-0.252238 0.0302344 10.8672 
9.98413 0.000690236 0.0410175 
0.000690236 9.98054 -0.0614552 
0.0410175 -0.0614552 9.98682 
9.9842 0.0019031 0.0439466 
0.0019031 9.98326 -0.0649261 
0.0439466 -0.0649261 9.98404 
9.97846 -0.000141898 0.042012 
-0.000141898 9.98284 -0.0594012 
0.042012 -0.0594012 9.99021 
9.98035 -0.00361078 0.0444963 
-0.00361078 9.99212 -0.0626198 
0.0444963 -0.0626198 9.97903 
9.94392 -0.0147654 0.0797022 
-0.0147654 9.92578 -0.0411443 
0.0797022 -0.0411443 9.81475 
9.95121 -0.0344845 0.0659353 
-0.0344845 9.92897 -0.0327886 
0.0659353 -0.0327886 9.80427 
9.95496 -0.0260478 0.0845237 
-0.0260478 9.92275 -0.0168211 
0.0845237 -0.0168211 9.80673 
9.98191 -0.00664029 0.0549191 
-0.00664029 9.90919 0.00190799 
0.0549191 0.00190799 9.79335 
9.98452 0.0251532 0.139566 
0.0251532 9.95245 0.0327179 
0.139566 0.0327179 10.035 
9.89584 -0.0305195 -0.0284154 
-0.0305195 10.0665 -0.0414133 
-0.0284154 -0.0414133 10.0096 
9.91481 0.0213931 -0.0401557 
0.0213931 10.0287 -0.0357238 
-0.0401557 -0.0357238 10.0284 
9.81782 -0.034988 0.0109981 
-0.034988 10.0665 -0.00545128 
0.0109981 -0.00545128 10.0876 
9.89062 -0.00573289 0.112091 
-0.00573289 9.93873 0.0584855 
0.112091 0.0584855 10.2935 
9.88449 0.0703613 -0.0320193 
0.0703613 9.95118 0.0634879 
-0.0320193 0.0634879 10.2872 
9.94773 0.0592821 0.00745008 
0.0592821 9.96981 0.0253576 
0.00745008 0.0253576 10.2054 
9.88422 0.0185843 -0.00430877 
0.0185843 9.90938 -0.00307962 
-0.00430877 -0.00307962 10.3293 
10.0134 0.0486454 -0.268259 
0.0486454 9.83325 0.02301 
-0.268259 0.02301 9.92049 
10.0115 0.267187 -0.150437 
0.267187 9.9161 0.145503 
-0.150437 0.145503 9.83955 
10.1895 0.265592 -0.144164 
0.265592 9.85876 0.0492943 
-0.144164 0.0492943 9.71887 
9.81886 0.275502 0.0121167 
0.275502 9.99229 0.170077 
0.0121167 0.170077 9.95596 
9.82268 -0.0198237 -0.0905429 
-0.0198237 9.90008 -0.0113836 
-0.0905429 -0.0113836 9.93074 
9.8376 0.000672176 -0.092459 
0.000672176 9.88575 -0.0307804 
-0.092459 -0.0307804 9.93016 
9.845 -0.0187057 -0.103995 
-0.0187057 9.89842 -0.0166655 
-0.103995 -0.0166655 9.91008 
9.79381 -0.00901609 -0.108535 
-0.00901609 9.92221 -0.0122302 
-0.108535 -0.0122302 9.93748 
9.96979 -0.00334628 -0.0772762 
-0.00334628 9.95953 0.0284804 
-0.0772762 0.0284804 9.95 
9.96174 0.00627916 -0.0710268 
0.00627916 9.95923 0.0325676 
-0.0710268 0.0325676 9.95835 
9.95631 0.0026416 -0.0742398 
0.0026416 9.95341 0.0329835 
-0.0742398 0.0329835 9.9696 
9.96242 0.00540873 -0.0646196 
0.00540873 9.95942 0.0266952 
-0.0646196 0.0266952 9.95748 
9.79804 -0.0145738 -0.0507046 
-0.0145738 9.95007 0.0436701 
-0.0507046 0.0436701 9.93097 
9.86354 -0.0350013 -0.101887 
-0.0350013 9.8941 0.0218563 
-0.101887 0.0218563 9.92143 
9.87588 0.0099857 -0.0599506 
0.0099857 9.84929 -0.0609978 
-0.0599506 -0.0609978 9.9539 
9.81136 -0.0112691 -0.111599 
-0.0112691 9.90056 -0.0539646 
-0.111599 -0.0539646 9.96716 
9.96216 0.00190436 0.043371 
0.00190436 9.95897 0.0175013 
0.043371 0.0175013 9.92832 
9.94762 -0.000945988 0.03295 
-0.000945988 9.94729 0.0140599 
0.03295 0.0140599 9.95454 
9.96934 0.00798461 0.0284804 
0.00798461 9.95869 0.0191305 
0.0284804 0.0191305 9.92141 
9.96307 -0.00488956 0.0423601 
-0.00488956 9.95444 0.0114258 
0.0423601 0.0114258 9.93194 
9.98607 0.000123606 -0.017347 
0.000123606 9.9893 -5.28806e-05 
-0.017347 -5.28806e-05 10.0047 
9.99476 -0.00149461 -0.0218771 
-0.00149461 9.99421 -0.00289335 
-0.0218771 -0.00289335 9.99106 
9.99006 -0.00329225 -0.0194436 
-0.00329225 9.99514 -0.00324956 
-0.0194436 -0.00324956 9.99482 
9.99711 0.00026466 -0.0209979 
0.00026466 9.99531 -0.00514724 
-0.0209979 -0.00514724 9.9876 
9.96498 0.0229967 0.00825889 
0.0229967 9.95984 -0.00799764 
0.00825889 -0.00799764 10.0054 
9.95164 0.0254062 0.0159447 
0.0254062 9.9563 -0.0183501 
0.0159447 -0.0183501 10.0223 
9.95274 -0.0016639 0.00590822 
-0.0016639 9.97033 -0.0110466 
0.00590822 -0.0110466 10.0072 
9.94562 -0.000128872 0.00104654 
-0.000128872 9.97158 -0.00668661 
0.00104654 -0.00668661 10.0131 
9.87089 0.0373152 0.199322 
0.0373152 9.83929 -0.228358 
0.199322 -0.228358 9.82067 
9.93248 0.178725 0.36256 
0.178725 9.83555 -0.15177 
0.36256 -0.15177 9.76282 
9.87926 0.157276 0.163394 
0.157276 9.82216 -0.178713 
0.163394 -0.178713 9.82943 
9.71204 0.151764 0.275832 
0.151764 9.94353 -0.162417 
0.275832 -0.162417 9.87528 
9.96682 0.00332035 -0.00326594 
0.00332035 9.95324 0.0316043 
-0.00326594 0.0316043 9.98845 
9.99953 0.0027998 -0.00779489 
0.0027998 9.95346 0.0512612 
-0.00779489 0.0512612 9.95551 
9.98905 0.0188472 0.0286146 
0.0188472 9.93022 -0.0204061 
0.0286146 -0.0204061 9.98923 
9.9665 0.0175951 -0.00781876 
0.0175951 9.92688 0.0224806 
-0.00781876 0.0224806 10.0151 
10.01 -0.0314885 0.113849 
-0.0314885 9.79198 0.0153713 
0.113849 0.0153713 9.78046 
9.79557 0.0229604 0.0440354 
0.0229604 9.88281 -0.000257602 
0.0440354 -0.000257602 9.90404 
9.7591 0.0258965 -0.0147318 
0.0258965 9.86518 0.037034 
-0.0147318 0.037034 9.95815 
9.78118 0.0117216 0.0695111 
0.0117216 9.85767 -0.012818 
0.0695111 -0.012818 9.94358 
11.0811 0.171019 -0.00213309 
0.171019 10.7808 -0.00775866 
-0.00213309 -0.00775866 10.1765 
10.107 0.0339491 0.0317131 
0.0339491 10.1554 0.270199 
0.0317131 0.270199 11.776 
10.6859 0.206062 -0.180951 
0.206062 10.6806 -0.0122942 
-0.180951 -0.0122942 10.6719 
10.686 0.041136 -0.988489 
0.041136 10.8005 -0.0759759 
-0.988489 -0.0759759 10.5518 
9.89731 0.0322403 0.0505554 
0.0322403 9.99705 0.0149012 
0.0505554 0.0149012 10.0632 
9.97743 -0.09133 -0.00314976 
-0.09133 10.0062 0.0142487 
-0.00314976 0.0142487 9.9739 
9.74654 0.0508284 0.00815512 
0.0508284 10.1129 -0.00688099 
0.00815512 -0.00688099 10.0981 
9.94625 0.0743579 0.0375766 
0.0743579 9.92006 0.0173062 
0.0375766 0.0173062 10.0913 
9.91186 0.0188701 -0.028815 
0.0188701 9.8901 0.0373173 
-0.028815 0.0373173 9.97821 
9.92053 0.0227285 -0.0349189 
0.0227285 9.88691 0.0292162 
-0.0349189 0.0292162 9.97273 
9.91299 0.027995 -0.0273374 
0.027995 9.88432 0.0415254 
-0.0273374 0.0415254 9.98286 
9.92981 0.00556998 -0.0363102 
0.00556998 9.86622 0.0302385 
-0.0363102 0.0302385 9.98414 
9.94562 -0.00942105 -0.0444015 
-0.00942105 9.94077 -0.0599353 
-0.0444015 -0.0599353 9.96186 
9.93987 0.0111918 -0.0445453 
0.0111918 9.96124 -0.0622409 
-0.0445453 -0.0622409 9.94715 
9.94985 -0.00771248 -0.0446698 
-0.00771248 9.94611 -0.0548869 
-0.0446698 -0.0548869 9.9523 
9.95217 0.0105341 -0.0461964 
0.0105341 9.93792 -0.0557218 
-0.0461964 -0.0557218 9.95817 
7.79418 0.810597 -0.0124391 
0.810597 6.55048 -0.308277 
-0.0124391 -0.308277 -0.843246 
9.1029 0.311097 0.344329 
0.311097 6.36102 0.940585 
0.344329 0.940585 -1.96251 
6.80156 -0.558384 -0.630655 
-0.558384 4.03138 0.277184 
-0.630655 0.277184 2.66846 
8.2846 0.490881 -2.98253 
0.490881 5.42625 -0.38291 
-2.98253 -0.38291 -0.209444 
9.92612 -0.0408653 0.00389917 
-0.0408653 9.93707 0.000185065 
0.00389917 0.000185065 9.94718 
9.93908 -0.0128494 0.00652127 
-0.0128494 9.92758 -0.00684683 
0.00652127 -0.00684683 9.94371 
9.92026 -0.0278247 -0.0163726 
-0.0278247 9.9401 -0.0266403 
-0.0163726 -0.0266403 9.95002 
9.93053 -0.0166906 -0.00852908 
-0.0166906 9.92067 0.0232746 
-0.00852908 0.0232746 9.95917 
10.0239 -0.0835394 0.437007 
-0.0835394 10.0742 0.167704 
0.437007 0.167704 9.69196 
10.0539 -0.100889 0.242894 
-0.100889 10.0718 0.157803 
0.242894 0.157803 9.6644 
10.0614 -0.0534584 0.155813 
-0.0534584 9.93953 -0.0503406 
0.155813 -0.0503406 9.78914 
10.4522 -0.20135 0.239251 
-0.20135 9.71257 0.389113 
0.239251 0.389113 9.62532 
9.89513 -0.00063219 -0.0293115 
-0.00063219 9.92143 -0.0738299 
-0.0293115 -0.0738299 9.90404 
9.90255 -0.0115715 -0.0179218 
-0.0115715 9.90792 -0.0820556 
-0.0179218 -0.0820556 9.91014 
9.91801 -0.0313234 -0.0289612 
-0.0313234 9.88 -0.071285 
-0.0289612 -0.071285 9.92259 
9.90499 -0.0076258 -0.0392448 
-0.0076258 9.90726 -0.0932636 
-0.0392448 -0.0932636 9.90836 
9.91668 0.00262994 -0.0461119 
0.00262994 9.91666 -0.0498752 
-0.0461119 -0.0498752 9.90797 
9.92622 0.0105485 -0.0389214 
0.0105485 9.89925 -0.0583485 
-0.0389214 -0.0583485 9.91584 
9.92693 0.00739129 -0.0432833 
0.00739129 9.91542 -0.0738208 
-0.0432833 -0.0738208 9.89896 
9.92403 0.015212 -0.0312216 
0.015212 9.8991 -0.0570826 
-0.0312216 -0.0570826 9.91817 
9.8956 -0.0230919 1.2757e-05 
-0.0230919 9.90092 -0.00144331 
1.2757e-05 -0.00144331 10.0291 
9.89672 0.00820229 -0.00939141 
0.00820229 9.91487 -0.00589684 
-0.00939141 -0.00589684 10.014 
9.90259 0.00996997 -0.0258149 
0.00996997 9.8904 -0.0290945 
-0.0258149 -0.0290945 10.0326 
9.90508 0.00165893 -0.0116418 
0.00165893 9.90889 -0.00640398 
-0.0116418 -0.00640398 10.0116 
9.97749 -0.873171 0.21596 
-0.873171 10.3827 -0.124126 
0.21596 -0.124126 11.3192 
6.90599 -0.954576 0.0282255 
-0.954576 8.63359 0.761147 
0.0282255 0.761147 16.1398 
9.42306 0.372366 -0.21782 
0.372366 10.3334 -0.0723298 
-0.21782 -0.0723298 11.9229 
10.03 -0.777087 0.590124 
-0.777087 11.5757 0.674894 
0.590124 0.674894 10.0737 
7.81055 1.44804 0.843777 
1.44804 8.62209 -0.190116 
0.843777 -0.190116 -0.941886 
7.30419 -0.502587 0.121617 
-0.502587 5.78931 0.352162 
0.121617 0.352162 2.39725 
9.44082 -0.600248 0.520289 
-0.600248 7.32582 0.120525 
0.520289 0.120525 -1.27589 
7.89094 -1.85227 0.118398 
-1.85227 6.11925 2.08962 
0.118398 2.08962 1.48056 
9.87184 0.0968584 -0.05336 
0.0968584 10.1085 -0.0752426 
-0.05336 -0.0752426 10.0884 
9.94006 0.125769 -0.056095 
0.125769 9.96379 -0.0347719 
-0.056095 -0.0347719 10.1648 
9.99432 0.16624 -0.0153032 
0.16624 10.0403 -0.130991 
-0.0153032 -0.130991 10.0341 
9.98372 0.243437 -0.0538262 
0.243437 10.061 -0.100644 
-0.0538262 -0.100644 10.024 
9.94747 0.00657539 -0.0460694 
0.00657539 9.94464 0.0381281 
-0.0460694 0.0381281 9.9394 
9.9459 0.00504047 -0.0497486 
0.00504047 9.94633 0.0376449 
-0.0497486 0.0376449 9.93927 
9.94713 -0.00216242 -0.0515722 
-0.00216242 9.942 0.0311466 
-0.0515722 0.0311466 9.94238 
9.95352 -0.00306936 -0.0441756 
-0.00306936 9.94431 0.0441976 
-0.0441756 0.0441976 9.93367 
9.96605 0.0653289 0.104408 
0.0653289 9.89392 -0.0132725 
0.104408 -0.0132725 9.91318 
9.83958 -0.0408079 -0.0469206 
-0.0408079 9.95255 -0.10176 
-0.0469206 -0.10176 9.98102 
9.81221 0.103908 -0.110599 
0.103908 9.88985 -0.00583737 
-0.110599 -0.00583737 10.0711 
9.87804 0.0343635 0.0337257 
0.0343635 9.90137 0.151463 
0.0337257 0.151463 9.99374 
10.1878 -0.0801433 -0.0825653 
-0.0801433 10.2149 -0.0891699 
-0.0825653 -0.0891699 10.4094 
10.2108 -0.00394937 -0.0365499 
-0.00394937 10.3065 -0.0576091 
-0.0365499 -0.0576091 10.2947 
10.2974 -0.00205044 0.0362354 
-0.00205044 10.2664 -0.0525166 
0.0362354 -0.0525166 10.2484 
10.2532 -0.0508822 -0.00358111 
-0.0508822 10.2585 0.0159783 
-0.00358111 0.0159783 10.3004 
9.87989 0.00801884 -0.0184029 
0.00801884 9.88272 0.052576 
-0.0184029 0.052576 9.96489 
9.95711 0.00793655 -0.0167599 
0.00793655 9.93143 0.00814512 
-0.0167599 0.00814512 9.83897 
9.97446 -0.0036018 -0.0142082 
-0.0036018 9.89377 0.00548568 
-0.0142082 0.00548568 9.85928 
9.95159 -0.00728218 -0.082672 
-0.00728218 9.94751 -0.0373409 
-0.082672 -0.0373409 9.8284 
9.9671 0.00867235 -0.0713667 
0.00867235 9.93363 0.036184 
-0.0713667 0.036184 9.90778 
9.92805 -4.85887e-05 -0.060505 
-4.85887e-05 9.94179 0.0322653 
-0.060505 0.0322653 9.93868 
9.9504 -0.00286113 -0.0482603 
-0.00286113 9.93809 0.0476173 
-0.0482603 0.0476173 9.92002 
9.93725 0.00557528 -0.0533298 
0.00557528 9.94357 0.0408544 
-0.0533298 0.0408544 9.92769 
10.0386 -0.0758285 -0.0174194 
-0.0758285 10.0161 -0.0136164 
-0.0174194 -0.0136164 10.1405 
10.0682 0.0305145 -0.00939488 
0.0305145 10.0725 0.0251105 
-0.00939488 0.0251105 10.0545 
10.0357 0.06313 0.0165395 
0.06313 10.0306 0.0565158 
0.0165395 0.0565158 10.1288 
10.0434 -0.0370848 0.0562425 
-0.0370848 10.0737 -0.0174234 
0.0562425 -0.0174234 10.0781 
9.95083 0.0626145 -0.0243407 
0.0626145 9.81269 0.0168224 
-0.0243407 0.0168224 10.016 
9.87235 -0.035818 -0.00904376 
-0.035818 10.0046 0.0154252 
-0.00904376 0.0154252 9.90256 
9.92767 0.0146118 -0.0272204 
0.0146118 9.87196 0.0496966 
-0.0272204 0.0496966 9.97992 
9.94855 -0.0364428 -0.0314581 
-0.0364428 9.85005 0.0729169 
-0.0314581 0.0729169 9.98094 
9.93431 0.00576933 -0.0128228 
0.00576933 9.9669 0.0259118 
-0.0128228 0.0259118 9.94325 
9.94248 0.00437491 -0.0101809 
0.00437491 9.92988 0.0111584 
-0.0101809 0.0111584 9.9721 
9.93638 0.00925888 0.00226578 
0.00925888 9.9465 0.0317861 
0.00226578 0.0317861 9.96159 
9.94644 0.0129232 -0.0083486 
0.0129232 9.97074 0.0234927 
-0.0083486 0.0234927 9.92727 
9.94552 -0.000296052 -0.0542093 
-0.000296052 9.9408 -0.0471856 
-0.0542093 -0.0471856 9.96461 
9.95121 0.00918652 -0.0451066 
0.00918652 9.94961 -0.0509537 
-0.0451066 -0.0509537 9.95011 
9.95223 0.00124205 -0.0517512 
0.00124205 9.94382 -0.0511345 
-0.0517512 -0.0511345 9.95488 
9.94953 0.00271006 -0.0503335 
0.00271006 9.94427 -0.0517714 
-0.0503335 -0.0517714 9.95713 
9.91378 -0.0313503 0.0572636 
-0.0313503 9.90864 0.0098696 
0.0572636 0.0098696 9.89088 
9.91514 -0.0159331 0.0353476 
-0.0159331 9.88828 -0.0377964 
0.0353476 -0.0377964 9.90988 
9.86788 0.0448119 0.0173868 
0.0448119 9.83631 -0.0288836 
0.0173868 -0.0288836 10.0091 
9.86777 0.0308062 0.0356259 
0.0308062 9.91478 -0.0618319 
0.0356259 -0.0618319 9.93074 
10.2327 -0.0536261 -0.0792936 
-0.0536261 10.4692 -0.102217 
-0.0792936 -0.102217 10.0697 
9.70506 -0.157661 -0.252165 
-0.157661 9.94897 -0.176043 
-0.252165 -0.176043 11.1177 
10.3591 -0.119019 -0.11569 
-0.119019 10.4868 0.0130225 
-0.11569 0.0130225 9.92578 
9.98449 -0.224984 0.420425 
-0.224984 10.5322 -0.0399032 
0.420425 -0.0399032 10.255 
9.932 -0.00696689 -0.0518967 
-0.00696689 9.91623 -0.0531638 
-0.0518967 -0.0531638 9.93763 
9.92712 -0.00581807 -0.0418081 
-0.00581807 9.91801 -0.048073 
-0.0418081 -0.048073 9.94073 
9.93033 0.000784063 -0.0376463 
0.000784063 9.91469 -0.0501124 
-0.0376463 -0.0501124 9.94084 
9.92372 -0.00283811 -0.0575463 
-0.00283811 9.92056 -0.0408425 
-0.0575463 -0.0408425 9.94157 
9.94492 -0.0276694 0.00593009 
-0.0276694 9.92199 -0.0123079 
0.00593009 -0.0123079 9.9519 
9.93284 -0.0280803 0.0087687 
-0.0280803 9.93478 -0.00638762 
0.0087687 -0.00638762 9.9512 
9.93517 -0.0297103 0.0106118 
-0.0297103 9.93624 -0.00934308 
0.0106118 -0.00934308 9.9474 
9.93259 -0.0241598 0.000588149 
-0.0241598 9.92794 0.00320677 
0.000588149 0.00320677 9.95828 
9.99761 -0.00243241 0.0139285 
-0.00243241 9.99315 0.0641024 
0.0139285 0.0641024 9.98755 
9.98449 0.00168704 0.0131941 
0.00168704 9.9823 0.0619151 
0.0131941 0.0619151 10.0115 
9.9934 -0.000459104 0.0159539 
-0.000459104 9.99376 0.0631577 
0.0159539 0.0631577 9.99116 
9.9947 -0.00156056 0.0196665 
-0.00156056 9.99696 0.0610309 
0.0196665 0.0610309 9.98665 
9.961 -0.0119772 -0.0219584 
-0.0119772 9.96282 0.0140513 
-0.0219584 0.0140513 9.9534 
9.95289 -0.0146559 -0.0196828 
-0.0146559 9.96893 0.0248428 
-0.0196828 0.0248428 9.95541 
9.94636 -0.00230157 -0.00667064 
-0.00230157 9.96672 0.0214508 
-0.00667064 0.0214508 9.96415 
9.96165 -0.00677522 -0.0273354 
-0.00677522 9.96052 0.0184589 
-0.0273354 0.0184589 9.95505 
9.92936 0.0629482 0.037845 
0.0629482 9.93901 0.0141417 
0.037845 0.0141417 9.91978 
9.92168 0.0392302 0.0315824 
0.0392302 9.91223 0.0584903 
0.0315824 0.0584903 9.95423 
9.92084 0.070627 0.0627635 
0.070627 9.91738 0.0295487 
0.0627635 0.0295487 9.94993 
9.91555 0.00485259 0.0497333 
0.00485259 9.9339 0.0256857 
0.0497333 0.0256857 9.9387 
9.88888 0.00800755 -0.0318018 
0.00800755 9.89033 0.077392 
-0.0318018 0.077392 9.91516 
9.90358 0.00880439 -0.0301036 
0.00880439 9.90447 0.0777047 
-0.0301036 0.0777047 9.88632 
9.90036 0.0105136 -0.00923178 
0.0105136 9.89391 0.0836158 
-0.00923178 0.0836158 9.90011 
9.89699 0.00793727 -0.0261626 
0.00793727 9.89815 0.0805221 
-0.0261626 0.0805221 9.89922 
9.95564 -0.000769978 -0.0521366 
-0.000769978 9.95284 0.0531662 
-0.0521366 0.0531662 9.98459 
9.96323 -0.00491931 -0.0490714 
-0.00491931 9.95837 0.0443613 
-0.0490714 0.0443613 9.97147 
9.96947 -0.00204199 -0.0583446 
-0.00204199 9.96947 0.0454901 
-0.0583446 0.0454901 9.95412 
9.96372 0.00313422 -0.0500347 
0.00313422 9.96419 0.043518 
-0.0500347 0.043518 9.96515 
9.98949 0.00355634 0.0110404 
0.00355634 9.99473 -0.0588436 
0.0110404 -0.0588436 9.99893 
9.99667 -0.00167324 0.0065625 
-0.00167324 9.99987 -0.0589689 
0.0065625 -0.0589689 9.9866 
9.98709 -5.85669e-05 0.0105585 
-5.85669e-05 9.99413 -0.0647093 
0.0105585 -0.0647093 10.0019 
10.0012 -0.00044904 0.00984056 
-0.00044904 9.99731 -0.0596075 
0.00984056 -0.0596075 9.98466 
9.90905 0.0180888 -0.0704981 
0.0180888 9.91489 0.039186 
-0.0704981 0.039186 9.90669 
9.91832 -0.00427445 -0.0769778 
-0.00427445 9.88682 0.0215637 
-0.0769778 0.0215637 9.92549 
9.90387 0.00420678 -0.0793761 
0.00420678 9.92485 0.0181703 
-0.0793761 0.0181703 9.90191 
9.91318 0.0111435 -0.0770247 
0.0111435 9.90711 0.0299948 
-0.0770247 0.0299948 9.91034 
9.98061 -0.00101561 -0.0640765 
-0.00101561 9.97631 0.0119475 
-0.0640765 0.0119475 9.99605 
9.97993 0.00214882 -0.0704378 
0.00214882 9.98985 0.0154621 
-0.0704378 0.0154621 9.98319 
9.98244 0.0019765 -0.0744724 
0.0019765 9.98845 0.014699 
-0.0744724 0.014699 9.98208 
9.99518 0.00164259 -0.0727301 
0.00164259 9.98364 0.0210369 
-0.0727301 0.0210369 9.97414 
7.63949 0.927001 -0.101617 
0.927001 9.19051 0.157461 
-0.101617 0.157461 16.2851 
7.16287 0.784424 -0.343426 
0.784424 11.4347 -0.739398 
-0.343426 -0.739398 14.5175 
12.4791 1.8073 -1.00654 
1.8073 12.0851 1.00964 
-1.00654 1.00964 8.55093 
10.0987 -0.371727 1.9398 
-0.371727 10.7647 -1.2794 
1.9398 -1.2794 12.2518 
9.88471 0.0135936 -0.0198629 
0.0135936 9.8724 0.0798907 
-0.0198629 0.0798907 9.90128 
9.89743 0.0156393 -0.0138918 
0.0156393 9.8556 0.0712085 
-0.0138918 0.0712085 9.90537 
9.86658 -0.0158781 -0.0237939 
-0.0158781 9.93481 0.0825617 
-0.0237939 0.0825617 9.857 
9.88813 0.0106268 -0.0193504 
0.0106268 9.86369 0.097224 
-0.0193504 0.097224 9.90657 
9.83046 -0.00516316 -0.0699857 
-0.00516316 9.90746 -0.018583 
-0.0699857 -0.018583 9.89353 
9.85984 -0.00517313 -0.0818673 
-0.00517313 9.88652 -0.00630977 
-0.0818673 -0.00630977 9.88509 
9.93349 -0.0203575 -0.0727485 
-0.0203575 9.83051 -0.0159294 
-0.0727485 -0.0159294 9.86744 
9.86288 -0.0154816 -0.0993738 
-0.0154816 9.88203 -0.0128149 
-0.0993738 -0.0128149 9.88653 
10.0539 -0.182698 -0.000683923 
-0.182698 9.95297 0.0654492 
-0.000683923 0.0654492 10.22 
10.0615 -0.164571 0.0983591 
-0.164571 9.87987 0.115179 
0.0983591 0.115179 10.2855 
9.98261 -0.168501 0.0350783 
-0.168501 9.99821 0.0673043 
0.0350783 0.0673043 10.2461 
9.93566 -0.26009 -0.0115011 
-0.26009 9.87087 0.0779799 
-0.0115011 0.0779799 10.4204 
9.84868 0.00568436 -0.0224629 
0.00568436 9.81539 -0.00832108 
-0.0224629 -0.00832108 9.97995 
9.83454 -0.0114968 -0.123339 
-0.0114968 9.92967 -0.0616958 
-0.123339 -0.0616958 9.8798 
9.80132 -0.0453585 -0.0629339 
-0.0453585 9.92606 -0.0167435 
-0.0629339 -0.0167435 9.91663 
9.77523 -0.00288703 -0.122749 
-0.00288703 9.88942 -0.0173601 
-0.122749 -0.0173601 9.97936 
9.89749 0.0121646 0.0353772 
0.0121646 9.90075 -0.0707352 
0.0353772 -0.0707352 9.90099 
9.88848 0.0133869 0.0387864 
0.0133869 9.88908 -0.0729283 
0.0387864 -0.0729283 9.92168 
9.89441 0.0214862 0.0498542 
0.0214862 9.89166 -0.0610355 
0.0498542 -0.0610355 9.91316 
9.89524 0.0119207 0.0400226 
0.0119207 9.89491 -0.0683004 
0.0400226 -0.0683004 9.90908 
9.93018 -0.00615298 -0.0692985 
-0.00615298 9.91854 0.0341475 
-0.0692985 0.0341475 9.90686 
9.92875 -0.000988246 -0.0683009 
-0.000988246 9.90781 0.0352147 
-0.0683009 0.0352147 9.91902 
9.91565 0.0157492 -0.0556495 
0.0157492 9.90478 0.0288997 
-0.0556495 0.0288997 9.93515 
9.91635 0.00845961 -0.064056 
0.00845961 9.90697 0.0419241 
-0.064056 0.0419241 9.93226 
9.95564 -0.0804369 0.00129861 
-0.0804369 9.93503 -0.0343362 
0.00129861 -0.0343362 9.9888 
9.92599 -0.0945472 -0.0501466 
-0.0945472 9.97575 -0.0511579 
-0.0501466 -0.0511579 9.97773 
9.93875 -0.0615325 -0.00922076 
-0.0615325 9.97363 -0.0958666 
-0.00922076 -0.0958666 9.96709 
9.92093 -0.127099 0.054148 
-0.127099 9.97701 -0.0827683 
0.054148 -0.0827683 9.98154 
9.87223 0.0460909 -0.0265385 
0.0460909 9.88051 0.0179783 
-0.0265385 0.0179783 9.96063 
9.87827 0.0530743 -0.0367312 
0.0530743 9.87 0.0440311 
-0.0367312 0.0440311 9.9651 
9.92231 0.0129951 -0.0517606 
0.0129951 9.85915 0.0350133 
-0.0517606 0.0350133 9.93191 
9.87254 0.0865092 -0.0505055 
0.0865092 9.87196 0.0499996 
-0.0505055 0.0499996 9.96888 
9.9864 -0.0020945 0.0147602 
-0.0020945 9.98216 0.0728384 
0.0147602 0.0728384 9.98292 
9.98481 -0.00406852 0.0121067 
-0.00406852 9.98337 0.0719599 
0.0121067 0.0719599 9.9833 
9.973 0.00248548 0.00660466 
0.00248548 9.98059 0.0640968 
0.00660466 0.0640968 9.99789 
9.98281 0.000397507 0.0223195 
0.000397507 9.99277 0.0732396 
0.0223195 0.0732396 9.9759 
10.0484 -0.00149698 -0.00465119 
-0.00149698 10.0038 0.00495201 
-0.00465119 0.00495201 10.0155 
10.0221 -0.0365822 0.0138457 
-0.0365822 10.0223 0.00161087 
0.0138457 0.00161087 10.0232 
10.0041 0.00284834 0.0103892 
0.00284834 10.0329 -0.00466842 
0.0103892 -0.00466842 10.0307 
10.0274 -0.0113184 -0.000935862 
-0.0113184 10.0221 0.00331008 
-0.000935862 0.00331008 10.0181 
9.89728 0.00742701 0.0406815 
0.00742701 9.90806 -0.048582 
0.0406815 -0.048582 9.93941 
9.91487 -0.000342858 0.0733589 
-0.000342858 9.88008 -0.0405085 
0.0733589 -0.0405085 9.94979 
9.90278 0.0241291 0.0378669 
0.0241291 9.8865 -0.0172903 
0.0378669 -0.0172903 9.95548 
9.89636 0.0135643 0.0391147 
0.0135643 9.89527 -0.0346167 
0.0391147 -0.0346167 9.95312 
9.94574 0.0132748 -0.0177742 
0.0132748 9.88964 0.0273468 
-0.0177742 0.0273468 9.98914 
9.924 -0.027746 0.00832755 
-0.027746 9.89033 0.0429545 
0.00832755 0.0429545 10.0102 
9.92787 -0.0288688 -0.00595002 
-0.0288688 9.94231 -0.0305547 
-0.00595002 -0.0305547 9.95434 
9.95185 -0.0160785 0.0985157 
-0.0160785 9.89973 -0.0164754 
0.0985157 -0.0164754 9.97294 
9.99718 0.000342582 0.0124481 
0.000342582 9.99688 -0.0324051 
0.0124481 -0.0324051 9.98945 
9.99813 -0.000707606 0.0143632 
-0.000707606 9.98963 -0.029463 
0.0143632 -0.029463 9.99574 
9.98854 -0.00294777 0.0118686 
-0.00294777 9.98601 -0.0263558 
0.0118686 -0.0263558 10.009 
9.99577 0.000894293 0.015794 
0.000894293 10.0005 -0.0298402 
0.015794 -0.0298402 9.98723 
10.7463 -1.4717 0.689366 
-1.4717 10.5598 0.241813 
0.689366 0.241813 10.5334 
10.4341 0.141654 0.547831 
0.141654 9.68488 -1.57925 
0.547831 -1.57925 11.7204 
10.9525 0.977981 0.046793 
0.977981 8.49354 -0.103857 
0.046793 -0.103857 12.3934 
11.7143 0.156292 -0.479047 
0.156292 8.83928 -1.40299 
-0.479047 -1.40299 11.2859 
9.9969 0.00357286 -0.0253905 
0.00357286 9.99729 -0.0182065 
-0.0253905 -0.0182065 9.99358 
9.99582 0.00180312 -0.026828 
0.00180312 9.99665 -0.0177822 
-0.026828 -0.0177822 9.99531 
9.99061 0.00135804 -0.0252997 
0.00135804 9.99231 -0.0151166 
-0.0252997 -0.0151166 10.0049 
9.99679 0.00152243 -0.0274254 
0.00152243 9.99878 -0.0203637 
-0.0274254 -0.0203637 9.99221 
9.88525 0.00853083 0.0119041 
0.00853083 9.87639 -0.05353 
0.0119041 -0.05353 10.0054 
9.86438 -0.0277764 -0.00383187 
-0.0277764 9.89327 -0.0512678 
-0.00383187 -0.0512678 10.0094 
9.88831 -0.00366364 0.00708492 
-0.00366364 9.86811 -0.0835516 
0.00708492 -0.0835516 10.0106 
9.88154 0.0238917 -0.00522888 
0.0238917 9.86001 -0.0563551 
-0.00522888 -0.0563551 10.0255 
9.80852 0.0262115 0.0411467 
0.0262115 9.92324 -0.0222529 
0.0411467 -0.0222529 10.004 
9.7784 0.0183247 0.000970039 
0.0183247 9.951 0.0192334 
0.000970039 0.0192334 10.0064 
9.83897 0.0358958 -0.023564 
0.0358958 9.95864 0.032933 
-0.023564 0.032933 9.93817 
9.78514 0.00400972 -0.0275864 
0.00400972 9.84737 0.00351417 
-0.0275864 0.00351417 10.1033 
9.96153 -0.0136811 -0.0299485 
-0.0136811 9.97016 -0.00569312 
-0.0299485 -0.00569312 9.99412 
9.97921 -0.00355486 0.0165895 
-0.00355486 9.95778 -0.0112202 
0.0165895 -0.0112202 9.98882 
9.98773 0.00428247 0.0160518 
0.00428247 9.96454 0.00250001 
0.0160518 0.00250001 9.97355 
9.97402 -0.00258592 0.00886915 
-0.00258592 9.9539 -0.0101472 
0.00886915 -0.0101472 9.99789 
10.2584 0.00630138 0.055325 
0.00630138 9.52356 -0.0994419 
0.055325 -0.0994419 10.4342 
9.99477 0.0147535 0.0273081 
0.0147535 10.057 -0.115734 
0.0273081 -0.115734 10.1645 
9.92643 0.00011674 -0.0022611 
0.00011674 10.0034 0.0286067 
-0.0022611 0.0286067 10.2863 
10.1612 -0.0395348 0.0910944 
-0.0395348 9.8507 -0.00249145 
0.0910944 -0.00249145 10.2043 
9.93655 -0.00832966 0.0195139 
-0.00832966 9.85574 -0.0253765 
0.0195139 -0.0253765 10.048 
9.94457 -0.0527699 -0.0627581 
-0.0527699 9.92709 0.00398024 
-0.0627581 0.00398024 9.96867 
9.9752 -0.0203026 -0.0632498 
-0.0203026 9.93475 0.019184 
-0.0632498 0.019184 9.93037 
9.93968 0.000729952 -0.0146075 
0.000729952 9.89023 -0.0336492 
-0.0146075 -0.0336492 10.0104 
9.97224 -0.00278574 -0.0246317 
-0.00278574 9.97099 0.0173339 
-0.0246317 0.0173339 9.97578 
9.97572 -0.00373063 -0.0238636 
-0.00373063 9.9689 0.0123998 
-0.0238636 0.0123998 9.97439 
9.98109 -0.00701287 -0.0228112 
-0.00701287 9.97075 0.0151725 
-0.0228112 0.0151725 9.96717 
9.98071 -0.00727858 -0.0262673 
-0.00727858 9.97934 0.0103515 
-0.0262673 0.0103515 9.95897 
10.0362 -0.334893 0.937628 
-0.334893 12.7142 -0.0632951 
0.937628 -0.0632951 10.5843 
7.88825 0.740147 -0.616977 
0.740147 9.95734 0.797542 
-0.616977 0.797542 15.489 
10.8304 0.35743 -0.477985 
0.35743 8.24188 0.894431 
-0.477985 0.894431 14.2623 
9.15565 1.70806 -0.788554 
1.70806 11.3068 -1.75045 
-0.788554 -1.75045 12.8722 
10.0383 0.0170999 -0.0566679 
0.0170999 10.0517 0.0141633 
-0.0566679 0.0141633 10.1723 
10.1461 -0.0304155 0.000281255 
-0.0304155 10.0321 -0.0102034 
0.000281255 -0.0102034 10.0842 
10.1204 0.00677324 0.0018915 
0.00677324 10.1363 -0.0309725 
0.0018915 -0.0309725 10.0057 
10.0384 0.0195414 0.0365164 
0.0195414 10.128 0.0488829 
0.0365164 0.0488829 10.096 
9.97173 0.00126611 -0.0102005 
0.00126611 9.96524 -0.0123449 
-0.0102005 -0.0123449 9.94923 
9.97454 -0.00312747 -0.0127673 
-0.00312747 9.96244 -0.0021509 
-0.0127673 -0.0021509 9.94922 
9.96931 -0.0177188 -0.0313551 
-0.0177188 9.98706 -0.00161848 
-0.0313551 -0.00161848 9.92983 
9.95387 -0.0100458 -0.0190411 
-0.0100458 9.95649 0.00518845 
-0.0190411 0.00518845 9.97584 
9.86271 0.0348982 0.0897005 
0.0348982 10.005 -0.07941 
0.0897005 -0.07941 10.852 
10.3062 -0.1222 -0.0802254 
-0.1222 10.2651 -0.0215029 
-0.0802254 -0.0215029 10.1484 
10.1114 -0.0725671 -0.0929015 
-0.0725671 10.3504 0.0250276 
-0.0929015 0.0250276 10.258 
9.9796 0.00313904 -0.438579 
0.00313904 10.3758 0.0839138 
-0.438579 0.0839138 10.3643 
9.94387 -0.00671635 -0.00675313 
-0.00671635 9.94926 0.0244306 
-0.00675313 0.0244306 9.96133 
9.94751 0.00613505 -0.00704386 
0.00613505 9.93883 0.0111009 
-0.00704386 0.0111009 9.96812 
9.93329 -0.00726189 -0.00430965 
-0.00726189 9.94375 0.00931086 
-0.00430965 0.00931086 9.97743 
9.94557 0.0117012 -0.00528738 
0.0117012 9.9344 0.0165762 
-0.00528738 0.0165762 9.9745 
10.1676 0.0847168 0.0458684 
0.0847168 10.1566 -0.00418081 
0.0458684 -0.00418081 10.1937 
10.2223 -0.0317271 0.0428503 
-0.0317271 10.2845 0.0146371 
0.0428503 0.0146371 10.0111 
10.1136 -0.0347879 -0.0445552 
-0.0347879 10.1008 -0.0702494 
-0.0445552 -0.0702494 10.3035 
10.1569 -0.0845361 -0.0211056 
-0.0845361 10.1717 0.0907338 
-0.0211056 0.0907338 10.1894 
9.89345 -0.018672 0.0668418 
-0.018672 9.52191 0.434511 
0.0668418 0.434511 9.39841 
10.1186 0.309567 -0.494341 
0.309567 9.63442 0.396548 
-0.494341 0.396548 9.06078 
9.63064 -0.115761 0.072963 
-0.115761 9.79673 -0.0687636 
0.072963 -0.0687636 9.3864 
10.0903 -0.00650295 -0.391638 
-0.00650295 9.64573 0.285822 
-0.391638 0.285822 9.07772 
9.94234 -0.0129503 -0.0257768 
-0.0129503 9.94347 0.0337546 
-0.0257768 0.0337546 9.95179 
9.94747 -0.0146585 -0.0194264 
-0.0146585 9.94289 0.0277953 
-0.0194264 0.0277953 9.94724 
9.94232 -0.0187924 -0.0222885 
-0.0187924 9.95274 0.0246331 
-0.0222885 0.0246331 9.94254 
9.95478 -0.0113097 -0.0221976 
-0.0113097 9.92693 0.0183413 
-0.0221976 0.0183413 9.95589 
9.96177 0.0543171 0.199492 
0.0543171 9.8538 0.000159372 
0.199492 0.000159372 9.92141 
9.93996 0.0011822 0.351041 
0.0011822 10.0678 -0.116401 
0.351041 -0.116401 9.7292 
9.89432 -0.00382564 0.482878 
-0.00382564 10.0665 -0.0657415 
0.482878 -0.0657415 9.77617 
10.1445 0.194233 0.361436 
0.194233 9.88268 -0.238886 
0.361436 -0.238886 9.70979 
9.96003 -0.0221097 -0.00286911 
-0.0221097 9.98629 -0.0269313 
-0.00286911 -0.0269313 9.98057 
9.95404 0.00310211 0.021929 
0.00310211 9.9879 0.055411 
0.021929 0.055411 9.98495 
9.97664 -0.0122755 0.00227116 
-0.0122755 9.95108 0.00037784 
0.00227116 0.00037784 9.99917 
9.99979 -0.023973 0.0198755 
-0.023973 9.91441 0.0140308 
0.0198755 0.0140308 10.0127 
9.94427 -0.00653268 -0.0486047 
-0.00653268 9.94332 -0.0559255 
-0.0486047 -0.0559255 9.96464 
9.95325 -0.00209365 -0.0492513 
-0.00209365 9.95363 -0.0571373 
-0.0492513 -0.0571373 9.94536 
9.95171 0.00615155 -0.0526017 
0.00615155 9.94914 -0.0518576 
-0.0526017 -0.0518576 9.95139 
9.94589 0.00277344 -0.047388 
0.00277344 9.95265 -0.0493337 
-0.047388 -0.0493337 9.9537 
7.26602 1.76759 -0.00596382 
1.76759 9.63579 0.783502 
-0.00596382 0.783502 3.69933 
10.1891 0.270813 2.04268 
0.270813 5.19397 1.094 
2.04268 1.094 5.21805 
12.2203 0.180676 -0.349864 
0.180676 6.97268 -0.342764 
-0.349864 -0.342764 1.40817 
9.54101 0.772582 0.624417 
0.772582 7.42409 0.141793 
0.624417 0.141793 3.63604 
9.95308 -0.00538447 0.0562719 
-0.00538447 9.94828 -0.0154634 
0.0562719 -0.0154634 9.91535 
9.93554 0.00177771 0.0623309 
0.00177771 9.93618 -0.00766408 
0.0623309 -0.00766408 9.94499 
9.95854 -0.00293984 0.0676385 
-0.00293984 9.95303 -0.0191566 
0.0676385 -0.0191566 9.90515 
9.96086 -0.00884458 0.0498604 
-0.00884458 9.94034 -0.0115794 
0.0498604 -0.0115794 9.91551 
10.0265 -0.0382565 0.0414959 
-0.0382565 9.79628 0.171163 
0.0414959 0.171163 9.86846 
9.93769 0.0632647 0.0677303 
0.0632647 9.90565 0.122687 
0.0677303 0.122687 9.84791 
9.91368 0.0166259 0.07163 
0.0166259 9.90459 0.108076 
0.07163 0.108076 9.87297 
9.89022 0.0950439 0.0137962 
0.0950439 9.88352 0.14828 
0.0137962 0.14828 9.91751 
9.80619 -0.00794503 0.0485272 
-0.00794503 10.1152 0.118888 
0.0485272 0.118888 10.5925 
10.4375 0.211453 -0.209013 
0.211453 9.97135 -0.200177 
-0.209013 -0.200177 10.1051 
9.69222 -0.287653 0.0276112 
-0.287653 10.4625 0.0674133 
0.0276112 0.0674133 10.3592 
9.57281 -0.200741 -0.101243 
-0.200741 10.3508 -0.125894 
-0.101243 -0.125894 10.5903 
9.9262 0.0767405 -0.060395 
0.0767405 9.91881 0.0243924 
-0.060395 0.0243924 9.88594 
9.92553 0.0750042 -0.0243306 
0.0750042 9.91657 0.029954 
-0.0243306 0.029954 9.88885 
9.91449 0.0647757 -0.0539222 
0.0647757 9.88118 0.0393903 
-0.0539222 0.0393903 9.93529 
9.9196 0.0898744 -0.0582093 
0.0898744 9.92581 0.0338801 
-0.0582093 0.0338801 9.88555 
9.91361 -0.00452395 0.0392118 
-0.00452395 9.90965 0.0421306 
0.0392118 0.0421306 9.93622 
9.90999 0.00185704 0.0372079 
0.00185704 9.9074 0.0430581 
0.0372079 0.0430581 9.9421 
9.89822 -0.00431472 0.0378857 
-0.00431472 9.90866 0.0534473 
0.0378857 0.0534473 9.95261 
9.91128 -0.00230609 0.0627871 
-0.00230609 9.91623 0.0419147 
0.0627871 0.0419147 9.93197 
9.99277 -0.0151094 -0.0256377 
-0.0151094 10.0098 -0.000784911 
-0.0256377 -0.000784911 10.0103 
10.0013 -0.00149038 0.0188068 
-0.00149038 10.0223 0.0202437 
0.0188068 0.0202437 9.9892 
10.0109 -0.000423979 -0.00420326 
-0.000423979 9.99494 -0.00068693 
-0.00420326 -0.00068693 10.007 
10.0072 0.00150378 -0.0116572 
0.00150378 10.0048 0.0113614 
-0.0116572 0.0113614 10.0009 
9.97264 -0.00320511 0.039042 
-0.00320511 9.96937 -0.0323361 
0.039042 -0.0323361 9.97937 
9.97685 -0.00245263 0.0343329 
-0.00245263 9.97388 -0.0322866 
0.0343329 -0.0322866 9.97065 
9.97217 -0.00294224 0.0391939 
-0.00294224 9.97613 -0.03146 
0.0391939 -0.03146 9.97307 
9.97464 -0.00603943 0.0389832 
-0.00603943 9.96927 -0.0321311 
0.0389832 -0.0321311 9.97747 
9.90625 0.00664824 -0.0229776 
0.00664824 9.90134 0.0128389 
-0.0229776 0.0128389 9.95738 
9.91662 -0.000441205 -0.0289401 
-0.000441205 9.92648 0.0231845 
-0.0289401 0.0231845 9.92187 
9.91179 -0.0207203 -0.0315124 
-0.0207203 9.93155 0.0217427 
-0.0315124 0.0217427 9.92163 
9.9031 0.00172842 -0.0214956 
0.00172842 9.92098 0.0298274 
-0.0214956 0.0298274 9.9409 
9.87766 -0.0498863 -0.0215483 
-0.0498863 9.89239 0.0503092 
-0.0215483 0.0503092 9.91864 
9.91148 0.00475554 0.00910259 
0.00475554 9.9331 0.00739169 
0.00910259 0.00739169 9.8441 
9.91107 0.00318622 0.0303476 
0.00318622 9.95297 0.0465179 
0.0303476 0.0465179 9.82465 
9.89303 -0.0171158 0.00231995 
-0.0171158 9.93451 0.0256079 
0.00231995 0.0256079 9.86115 
9.84281 0.144063 -0.0890689 
0.144063 9.79786 -0.0322574 
-0.0890689 -0.0322574 9.85182 
9.82631 0.150946 -0.0409016 
0.150946 9.73124 -0.0445455 
-0.0409016 -0.0445455 9.93494 
9.77184 0.0666697 -0.0552432 
0.0666697 9.82594 -0.0260227 
-0.0552432 -0.0260227 9.89471 
9.75668 0.127869 -0.00159049 
0.127869 9.9083 0.0316525 
-0.00159049 0.0316525 9.82751 
10.2287 -0.0385973 -0.0771767 
-0.0385973 10.1424 -0.0914672 
-0.0771767 -0.0914672 10.6786 
10.4442 -0.0408541 0.0305589 
-0.0408541 10.4414 0.0578698 
0.0305589 0.0578698 10.164 
10.3745 0.172296 0.059845 
0.172296 10.4843 0.0272919 
0.059845 0.0272919 10.1909 
10.3133 -0.147189 0.223057 
-0.147189 10.3233 0.0872749 
0.223057 0.0872749 10.4131 
9.8361 0.0924406 0.0857923 
0.0924406 9.82234 0.0494031 
0.0857923 0.0494031 10.0928 
9.75882 0.0760651 0.113141 
0.0760651 9.80702 -0.0131405 
0.113141 -0.0131405 10.1854 
9.90938 0.0550952 0.103427 
0.0550952 9.86476 -0.00353039 
0.103427 -0.00353039 9.97705 
9.78637 0.0711025 0.0721511 
0.0711025 9.82892 0.0471536 
0.0721511 0.0471536 10.1359 
9.98318 -0.0184896 0.00627182 
-0.0184896 9.99271 0.0175675 
0.00627182 0.0175675 9.98593 
9.98127 -0.00164293 -0.00420711 
-0.00164293 9.97959 -0.0150847 
-0.00420711 -0.0150847 10.001 
10.0098 3.79039e-05 0.000359375 
3.79039e-05 9.96466 -0.00897137 
0.000359375 -0.00897137 9.98731 
10.0011 0.000556223 0.00156231 
0.000556223 9.96145 0.00188348 
0.00156231 0.00188348 9.9993 
10.3281 0.0713082 -0.00442084 
0.0713082 10.3051 -0.0265473 
-0.00442084 -0.0265473 10.041 
10.1795 0.0820055 0.102695 
0.0820055 10.16 -0.0949076 
0.102695 -0.0949076 10.3347 
10.2448 0.0201958 0.0225055 
0.0201958 10.1971 -0.0505336 
0.0225055 -0.0505336 10.2323 
10.1666 0.0925692 -0.0198909 
0.0925692 10.2315 -0.0992161 
-0.0198909 -0.0992161 10.2761 
9.9644 -0.0124723 0.0439025 
-0.0124723 9.90344 -0.039729 
0.0439025 -0.039729 9.86831 
9.85918 0.0232881 -0.0127191 
0.0232881 9.87692 -0.0341062 
-0.0127191 -0.0341062 10.0001 
9.9133 -0.00869653 0.0350547 
-0.00869653 9.89612 -0.034289 
0.0350547 -0.034289 9.92673 
9.87933 0.0257921 0.0685485 
0.0257921 9.88516 -0.0109119 
0.0685485 -0.0109119 9.97166 
9.98389 0.00345011 -0.0130008 
0.00345011 9.97508 -0.0303388 
-0.0130008 -0.0303388 9.98238 
9.98126 -0.00138973 -0.00660057 
-0.00138973 9.98454 -0.0292156 
-0.00660057 -0.0292156 9.97556 
9.98154 0.00189334 -0.00931565 
0.00189334 9.98363 -0.0281402 
-0.00931565 -0.0281402 9.97618 
9.98609 0.00295277 -0.00435917 
0.00295277 9.98406 -0.0316074 
-0.00435917 -0.0316074 9.97121 
10.6174 0.399912 -1.28756 
0.399912 9.69353 1.38437 
-1.28756 1.38437 8.23331 
10.4771 0.21716 -0.871777 
0.21716 9.84907 0.797886 
-0.871777 0.797886 8.21811 
10.7444 -0.702917 -0.794107 
-0.702917 10.0136 0.680114 
-0.794107 0.680114 7.78629 
8.23656 0.0981724 -0.483161 
0.0981724 10.1414 -0.37233 
-0.483161 -0.37233 10.1664 
9.92011 0.013445 0.0532119 
0.013445 9.91513 -0.0429319 
0.0532119 -0.0429319 9.94311 
9.92221 0.0145559 0.0530231 
0.0145559 9.91794 -0.0348777 
0.0530231 -0.0348777 9.9382 
9.92318 -0.00925396 0.050436 
-0.00925396 9.92102 -0.0363703 
0.050436 -0.0363703 9.93414 
9.92927 0.000617259 0.0486282 
0.000617259 9.90439 -0.0390738 
0.0486282 -0.0390738 9.94468 
9.89562 -0.0160026 0.0396765 
-0.0160026 9.9056 0.0543955 
0.0396765 0.0543955 9.91948 
9.8971 -0.0135111 0.0187897 
-0.0135111 9.89688 0.0683445 
0.0187897 0.0683445 9.92672 
9.90076 -0.00598498 0.0422538 
-0.00598498 9.92701 0.0657604 
0.0422538 0.0657604 9.89293 
9.90425 0.000255514 0.0377077 
0.000255514 9.9105 0.0452032 
0.0377077 0.0452032 9.90594 
9.98611 0.00252248 -0.0127834 
0.00252248 9.9919 -0.0156292 
-0.0127834 -0.0156292 10.0021 
9.99312 0.000963529 -0.0161346 
0.000963529 9.99245 -0.0128744 
-0.0161346 -0.0128744 9.9945 
9.99162 0.00193398 -0.0148061 
0.00193398 9.99348 -0.0114292 
-0.0148061 -0.0114292 9.99498 
9.9935 0.003926 -0.0165653 
0.003926 9.99389 -0.00998324 
-0.0165653 -0.00998324 9.99268 
7.40534 -1.12344 0.580165 
-1.12344 9.31697 -0.561431 
0.580165 -0.561431 4.07731 
7.52034 0.940251 0.427419 
0.940251 10.6457 -1.02628 
0.427419 -1.02628 2.63355 
6.5246 1.37683 -1.0152 
1.37683 9.65464 -0.00686706 
-1.0152 -0.00686706 4.62037 
6.98141 0.485604 0.137012 
0.485604 9.80895 -0.738728 
0.137012 -0.738728 4.00926 
9.98535 -0.000261151 0.000209161 
-0.000261151 9.98599 0.0018478 
0.000209161 0.0018478 9.99867 
9.98492 0.0002809 0.00331538 
0.0002809 9.98673 0.000619907 
0.00331538 0.000619907 9.99836 
9.98654 -0.000329044 0.00217348 
-0.000329044 9.98781 -0.00128941 
0.00217348 -0.00128941 9.99566 
9.98721 2.86717e-06 0.00250925 
2.86717e-06 9.98842 -0.00159424 
0.00250925 -0.00159424 9.99438 
9.94277 0.0617606 0.0035125 
0.0617606 9.88479 0.0113388 
0.0035125 0.0113388 9.90022 
9.90769 0.0800195 -0.0288497 
0.0800195 9.91922 0.0189263 
-0.0288497 0.0189263 9.90088 
9.88359 0.0300933 -0.0225606 
0.0300933 9.90838 0.0268858 
-0.0225606 0.0268858 9.93582 
9.91296 0.061329 -0.0104296 
0.061329 9.87546 0.00240079 
-0.0104296 0.00240079 9.93937 
10.1449 -0.0396466 -0.00609497 
-0.0396466 10.1928 0.0134308 
-0.00609497 0.0134308 10.0931 
10.1014 -0.0191717 0.0434352 
-0.0191717 10.0347 -0.0521527 
0.0434352 -0.0521527 10.2947 
10.0849 -0.05015 -0.0167997 
-0.05015 10.2632 0.00738781 
-0.0167997 0.00738781 10.0828 
10.0923 0.0497617 -0.0164232 
0.0497617 10.153 0.0470766 
-0.0164232 0.0470766 10.1856 
10.1283 -0.0142366 0.0576854 
-0.0142366 10.1149 -0.00308631 
0.0576854 -0.00308631 10.1157 
10.0843 0.0396715 0.0362582 
0.0396715 10.1102 -0.0294848 
0.0362582 -0.0294848 10.1644 
10.1364 -0.0362006 -0.025189 
-0.0362006 10.0122 -0.0560767 
-0.025189 -0.0560767 10.2103 
10.0684 0.0551691 -0.0082453 
0.0551691 10.167 -0.0917123 
-0.0082453 -0.0917123 10.1235 
9.70955 -0.0491467 0.0390472 
-0.0491467 9.84706 0.0138165 
0.0390472 0.0138165 10.0832 
9.73633 -0.0114408 0.149832 
-0.0114408 9.93635 0.0292027 
0.149832 0.0292027 9.96712 
9.873 -0.0412772 0.0819509 
-0.0412772 10.0254 -0.0154356 
0.0819509 -0.0154356 9.74142 
9.74009 0.00320222 0.119141 
0.00320222 9.94185 -0.00419501 
0.119141 -0.00419501 9.95786 
9.92953 0.013031 0.0050376 
0.013031 9.94555 -0.0136876 
0.0050376 -0.0136876 9.97224 
9.94274 0.0263369 0.0132781 
0.0263369 9.94447 -0.0156568 
0.0132781 -0.0156568 9.9601 
9.93348 -0.0178288 -0.0216829 
-0.0178288 9.95936 -0.0137361 
-0.0216829 -0.0137361 9.95448 
9.91984 0.0143296 0.00848888 
0.0143296 9.94924 -0.00481996 
0.00848888 -0.00481996 9.97823 
9.8815 -0.00648955 -0.00326172 
-0.00648955 9.86437 0.0769039 
-0.00326172 0.0769039 9.90678 
9.87024 0.00994145 0.00247978 
0.00994145 9.92196 0.0887995 
0.00247978 0.0887995 9.86047 
9.89634 -0.00707134 0.015416 
-0.00707134 9.856 0.0796463 
0.015416 0.0796463 9.90033 
9.88803 -0.0137797 0.00765865 
-0.0137797 9.86737 0.0928147 
0.00765865 0.0928147 9.89727 
11.6579 -0.0236102 0.381426 
-0.0236102 9.2983 0.218069 
0.381426 0.218069 10.2547 
9.72436 -0.206118 -0.745327 
-0.206118 10.4727 -0.327112 
-0.745327 -0.327112 11.0139 
8.28938 0.604903 0.934027 
0.604903 11.4573 1.10504 
0.934027 1.10504 11.4642 
10.1108 0.26865 -0.0915526 
0.26865 9.85409 -0.501905 
-0.0915526 -0.501905 11.246 
9.93071 -0.00998381 0.186079 
-0.00998381 9.97521 0.0509918 
0.186079 0.0509918 10.0518 
9.93305 -0.00397197 0.0628462 
-0.00397197 9.93897 -0.0124463 
0.0628462 -0.0124463 10.0857 
9.93088 0.0234184 0.121315 
0.0234184 9.94623 0.0343198 
0.121315 0.0343198 10.0806 
9.88753 0.0252344 0.0488634 
0.0252344 9.94501 -0.0874444 
0.0488634 -0.0874444 10.1251 
9.97105 -0.00256913 -0.0487445 
-0.00256913 9.97695 0.0494564 
-0.0487445 0.0494564 9.98595 
9.9773 0.00163361 -0.0541474 
0.00163361 9.97495 0.0529096 
-0.0541474 0.0529096 9.9817 
9.97979 0.00377124 -0.0503422 
0.00377124 9.9781 0.0525606 
-0.0503422 0.0525606 9.97606 
9.98353 0.00157391 -0.0527529 
0.00157391 9.97832 0.0576293 
-0.0527529 0.0576293 9.97211 
9.90446 -0.0353979 0.0381972 
-0.0353979 9.93492 0.0158774 
0.0381972 0.0158774 9.88219 
9.94951 -0.0593407 0.00901305 
-0.0593407 9.88912 -0.0365973 
0.00901305 -0.0365973 9.88295 
9.89842 -0.0377178 0.0420535 
-0.0377178 9.92112 0.0243571 
0.0420535 0.0243571 9.90204 
9.91824 -0.0431998 0.0493407 
-0.0431998 9.92898 0.0131477 
0.0493407 0.0131477 9.87436 
9.94191 0.0136126 -0.0435674 
0.0136126 9.89537 0.0327868 
-0.0435674 0.0327868 9.91231 
9.89871 0.0193492 -0.0395562 
0.0193492 9.91162 0.024501 
-0.0395562 0.024501 9.93925 
9.91876 0.0177065 -0.0429482 
0.0177065 9.89918 0.0400261 
-0.0429482 0.0400261 9.93165 
9.90954 0.0182578 -0.0593257 
0.0182578 9.90696 0.0212533 
-0.0593257 0.0212533 9.93309 
2.39455 0.393388 0.392689 
0.393388 7.59114 0.779097 
0.392689 0.779097 4.59305 
7.43174 2.97065 -2.318 
2.97065 10.6691 -0.823512 
-2.318 -0.823512 -3.52213 
8.5442 -3.33008 -1.35823 
-3.33008 5.52004 1.27738 
-1.35823 1.27738 0.514509 
5.10035 1.36439 1.02794 
1.36439 7.21317 -1.20263 
1.02794 -1.20263 2.26522 
9.95032 -0.0048907 -0.0591576 
-0.0048907 9.95669 -0.0490311 
-0.0591576 -0.0490311 9.96978 
9.95349 0.00167632 -0.049899 
0.00167632 9.96099 -0.047428 
-0.049899 -0.047428 9.9623 
9.96167 0.00213765 -0.0467885 
0.00213765 9.95789 -0.0550866 
-0.0467885 -0.0550866 9.95722 
9.95589 -0.000429698 -0.0506325 
-0.000429698 9.95694 -0.0535492 
-0.0506325 -0.0535492 9.96395 
9.98662 0.000179556 0.0132869 
0.000179556 9.98453 0.0548691 
0.0132869 0.0548691 10.0094 
9.99452 0.00280803 0.0149894 
0.00280803 9.99568 0.0556017 
0.0149894 0.0556017 9.99033 
9.99427 0.00170586 0.0160094 
0.00170586 9.99314 0.0559234 
0.0160094 0.0559234 9.99313 
9.99424 0.00062259 0.0179195 
0.00062259 9.99817 0.0583205 
0.0179195 0.0583205 9.98813 
10.0001 -0.0219469 0.00708663 
-0.0219469 10.0118 -0.0314089 
0.00708663 -0.0314089 10.006 
10.0098 -0.00590284 -0.000714732 
-0.00590284 9.98369 -0.0267593 
-0.000714732 -0.0267593 10.0245 
9.96683 -0.0164514 -0.00370802 
-0.0164514 10.0271 -0.0258849 
-0.00370802 -0.0258849 10.024 
10.0052 -0.0132262 0.0107466 
-0.0132262 9.9873 -0.00290407 
0.0107466 -0.00290407 10.0255 
9.9236 0.0109481 -0.0726659 
0.0109481 9.90359 -0.00679613 
-0.0726659 -0.00679613 9.9592 
9.96278 0.00476697 -0.0670832 
0.00476697 9.90981 -0.0101456 
-0.0670832 -0.0101456 9.91378 
9.90304 0.0227914 -0.0642602 
0.0227914 9.91201 -0.0266647 
-0.0642602 -0.0266647 9.97134 
9.89366 0.00504342 -0.0903018 
0.00504342 9.89748 -0.00432155 
-0.0903018 -0.00432155 9.99524 
10.4134 0.256659 -0.120105 
0.256659 10.3097 0.0164739 
-0.120105 0.0164739 10.0126 
10.4985 -0.0387949 -0.0392885 
-0.0387949 10.2764 0.00835532 
-0.0392885 0.00835532 9.96075 
9.75198 -0.0524918 0.0989861 
-0.0524918 9.97727 -0.0273321 
0.0989861 -0.0273321 11.0064 
10.5324 0.0295394 0.294871 
0.0295394 10.2411 0.56711 
0.294871 0.56711 9.96224 
10.2103 -0.0149272 -0.013631 
-0.0149272 10.1941 0.00404037 
-0.013631 0.00404037 10.1848 
10.0629 0.00288096 -0.0435767 
0.00288096 10.0893 -0.0277671 
-0.0435767 -0.0277671 10.4371 
10.1986 -0.0242139 -0.0131039 
-0.0242139 10.219 0.0170939 
-0.0131039 0.0170939 10.1717 
10.159 -0.038275 0.12003 
-0.038275 10.2532 0.00845737 
0.12003 0.00845737 10.1771 
9.91864 0.0354973 -0.0153021 
0.0354973 9.8832 0.0622798 
-0.0153021 0.0622798 9.87011 
9.86353 -0.00922109 0.0256674 
-0.00922109 9.80147 0.119355 
0.0256674 0.119355 10.007 
9.89847 0.0474386 0.000593974 
0.0474386 9.80184 0.153416 
0.000593974 0.153416 9.97165 
9.85814 0.024225 0.0399423 
0.024225 9.77285 0.0971193 
0.0399423 0.0971193 10.041 
9.95955 0.0771218 0.886135 
0.0771218 9.57365 0.0297757 
0.886135 0.0297757 9.61576 
10.0314 -0.00398882 0.428154 
-0.00398882 9.92813 0.0289452 
0.428154 0.0289452 9.18944 
9.73236 -0.0619166 0.286698 
-0.0619166 9.95157 -0.032465 
0.286698 -0.032465 9.46502 
10.1255 -0.0661588 0.419266 
-0.0661588 9.80839 -0.0494287 
0.419266 -0.0494287 9.21507 
9.97318 -1.06594e-05 0.0433164 
-1.06594e-05 9.97555 -0.0629357 
0.0433164 -0.0629357 9.97968 
9.97615 0.00167163 0.042737 
0.00167163 9.98088 -0.0610471 
0.042737 -0.0610471 9.97138 
9.9733 0.00226727 0.0461261 
0.00226727 9.97969 -0.0634728 
0.0461261 -0.0634728 9.97542 
9.97284 0.00167804 0.048441 
0.00167804 9.98566 -0.0614141 
0.048441 -0.0614141 9.96992 
9.87384 0.00405012 0.0811498 
0.00405012 9.89257 -0.0142237 
0.0811498 -0.0142237 9.91294 
9.8738 0.00428369 0.0953157 
0.00428369 9.91328 -0.0051425 
0.0953157 -0.0051425 9.89227 
9.85602 0.000929359 0.0931244 
0.000929359 9.92524 0.00418939 
0.0931244 0.00418939 9.89809 
9.86629 0.0226849 0.11372 
0.0226849 9.90786 -0.0319402 
0.11372 -0.0319402 9.90521 
9.98875 0.000898803 0.0390123 
0.000898803 9.99169 -0.0678654 
0.0390123 -0.0678654 10.0029 
9.9959 0.000274313 0.0327956 
0.000274313 9.99819 -0.0735863 
0.0327956 -0.0735863 9.98921 
9.99254 -0.00129472 0.0347462 
-0.00129472 9.99789 -0.0697968 
0.0347462 -0.0697968 9.99286 
9.99336 0.00104403 0.0340636 
0.00104403 9.99757 -0.0707204 
0.0340636 -0.0707204 9.99236 
9.85709 0.0180409 0.0946691 
0.0180409 9.99589 -0.000947946 
0.0946691 -0.000947946 10.207 
9.85857 0.00490388 0.0833072 
0.00490388 9.98461 0.0126351 
0.0833072 0.0126351 10.2168 
9.85217 0.00111028 0.0649706 
0.00111028 9.99101 0.00245428 
0.0649706 0.00245428 10.2168 
9.83764 -0.00878111 0.0677315 
-0.00878111 9.97888 0.00590411 
0.0677315 0.00590411 10.2434 
9.94661 0.00206039 0.0727945 
0.00206039 9.94554 -0.0259907 
0.0727945 -0.0259907 9.90296 
9.92228 -0.0060332 0.0623249 
-0.0060332 9.93336 -0.0103106 
0.0623249 -0.0103106 9.93946 
9.94155 -0.00237787 0.0667364 
-0.00237787 9.9333 -0.0280142 
0.0667364 -0.0280142 9.92026 
9.93471 0.00282603 0.0616238 
0.00282603 9.93339 -0.0316179 
0.0616238 -0.0316179 9.92702 
10.0022 0.0312789 -0.00269748 
0.0312789 9.96931 0.015292 
-0.00269748 0.015292 10.1035 
9.9683 0.0248401 -0.0748663 
0.0248401 10.0523 0.0376455 
-0.0748663 0.0376455 10.0544 
10.0437 0.00219743 0.0348018 
0.00219743 9.99048 0.00728897 
0.0348018 0.00728897 10.0408 
9.99813 0.0303607 -0.00649209 
0.0303607 9.9937 0.019602 
-0.00649209 0.019602 10.0831 
9.99743 0.0174072 0.00351607 
0.0174072 9.9801 -0.00874091 
0.00351607 -0.00874091 9.99698 
9.98117 -0.00189125 -0.00708923 
-0.00189125 9.988 -0.00435175 
-0.00708923 -0.00435175 10.0054 
9.99147 0.00549549 0.0126341 
0.00549549 9.9925 0.00394849 
0.0126341 0.00394849 9.99055 
10.0135 0.0316777 -0.0120682 
0.0316777 9.98165 -0.00736589 
-0.0120682 -0.00736589 9.97938 
9.87323 -0.0259158 0.00537026 
-0.0259158 9.86238 0.161938 
0.00537026 0.161938 9.98378 
9.94567 0.081198 -0.0830024 
0.081198 9.87248 0.108533 
-0.0830024 0.108533 9.90125 
9.83363 0.106321 -0.0856582 
0.106321 9.78507 0.197794 
-0.0856582 0.197794 10.1007 
9.92263 -0.0439804 0.0469485 
-0.0439804 9.78193 0.116616 
0.0469485 0.116616 10.0148 
9.85323 0.0616246 -0.0238275 
0.0616246 9.8986 0.017135 
-0.0238275 0.017135 9.93466 
9.86904 0.0256361 -0.0513886 
0.0256361 9.90951 0.0334231 
-0.0513886 0.0334231 9.90794 
9.86921 0.0410798 -0.0222421 
0.0410798 9.85847 0.0392519 
-0.0222421 0.0392519 9.95881 
9.83506 0.0197437 -0.0536459 
0.0197437 9.86554 0.0404188 
-0.0536459 0.0404188 9.98589 
9.99754 3.83293e-05 -0.149485 
3.83293e-05 9.75843 -0.123422 
-0.149485 -0.123422 9.9922 
9.90775 -0.0786838 0.259812 
-0.0786838 9.92205 -0.0406327 
0.259812 -0.0406327 9.91836 
9.84464 0.000102261 -0.185504 
0.000102261 9.84458 0.187076 
-0.185504 0.187076 10.059 
10.0452 0.0314957 0.224748 
0.0314957 9.65494 0.238226 
0.224748 0.238226 10.048 
9.85744 0.0686844 0.00188832 
0.0686844 9.91244 0.0445892 
0.00188832 0.0445892 9.84059 
9.85156 0.0614112 0.00152833 
0.0614112 9.92106 0.027672 
0.00152833 0.027672 9.83785 
9.85573 0.0743131 0.00761388 
0.0743131 9.90897 0.0458447 
0.00761388 0.0458447 9.84577 
9.86717 0.0844834 0.0072151 
0.0844834 9.9122 0.0393566 
0.0072151 0.0393566 9.8311 
9.99378 0.0014966 -0.0553196 
0.0014966 9.99459 -0.0520216 
-0.0553196 -0.0520216 9.99308 
9.99141 0.000550029 -0.0570949 
0.000550029 9.99333 -0.0541957 
-0.0570949 -0.0541957 9.99672 
9.99601 0.000263829 -0.0547695 
0.000263829 9.99514 -0.0541895 
-0.0547695 -0.0541895 9.99031 
9.98868 0.000183476 -0.0575052 
0.000183476 9.99278 -0.0501525 
-0.0575052 -0.0501525 9.99999 
9.84636 0.0482739 0.032387 
0.0482739 9.90174 0.0702542 
0.032387 0.0702542 10.4049 
9.89527 0.134344 -0.0637665 
0.134344 10.0027 -0.0208502 
-0.0637665 -0.0208502 10.2551 
10.0929 0.0344133 -0.126589 
0.0344133 10.2159 -0.0131307 
-0.126589 -0.0131307 9.84422 
9.96941 -0.0878372 -0.0452896 
-0.0878372 9.98821 -0.215796 
-0.0452896 -0.215796 10.1954 
10.0398 0.0166771 -0.033156 
0.0166771 9.95764 0.0147302 
-0.033156 0.0147302 9.96947 
10.0593 0.0110206 0.05303 
0.0110206 9.90774 -0.109284 
0.05303 -0.109284 9.99988 
9.89499 -0.0456512 -0.0313116 
-0.0456512 10.0925 0.0758825 
-0.0313116 0.0758825 9.97944 
9.97071 -0.0400889 -0.0110507 
-0.0400889 9.9335 0.0109519 
-0.0110507 0.0109519 10.0627 
9.97921 -0.00572951 0.0443357 
-0.00572951 9.98045 -0.0287705 
0.0443357 -0.0287705 9.98593 
9.98064 0.00130012 0.0436666 
0.00130012 9.98133 -0.0324822 
0.0436666 -0.0324822 9.98363 
9.98476 -0.00854913 0.0425951 
-0.00854913 9.98543 -0.0276127 
0.0425951 -0.0276127 9.97541 
9.98427 0.00121879 0.0414034 
0.00121879 9.97996 -0.0310865 
0.0414034 -0.0310865 9.98137 
9.91786 0.019102 0.0511455 
0.019102 9.91315 0.048648 
0.0511455 0.048648 9.96142 
9.91356 -0.000480976 0.067225 
-0.000480976 9.91935 0.0592885 
0.067225 0.0592885 9.95952 
9.90635 0.0251173 0.0630671 
0.0251173 9.92641 0.0474844 
0.0630671 0.0474844 9.95966 
9.92137 0.00803824 0.0630549 
0.00803824 9.91589 0.0471008 
0.0630549 0.0471008 9.95517 
9.67997 0.118419 -0.345042 
0.118419 10.1516 0.220708 
-0.345042 0.220708 9.81676 
9.85298 -0.0403859 -0.456701 
-0.0403859 10.0592 -0.027461 
-0.456701 -0.027461 9.73618 
9.92236 0.028462 -0.194087 
0.028462 9.93608 0.0342371 
-0.194087 0.0342371 9.7899 
9.64429 0.0628068 -0.375364 
0.0628068 10.1011 0.129859 
-0.375364 0.129859 9.90295 
9.94627 -0.00326071 0.0131804 
-0.00326071 9.95337 -0.0136095 
0.0131804 -0.0136095 9.93209 
9.96222 -0.0327573 0.0182924 
-0.0327573 9.97417 0.00298787 
0.0182924 0.00298787 9.89533 
9.93322 0.00531736 0.0056169 
0.00531736 9.96896 -0.00088417 
0.0056169 -0.00088417 9.92955 
9.93859 -0.0208843 0.025224 
-0.0208843 9.94557 -0.0120846 
0.025224 -0.0120846 9.94757 
9.91853 0.0162836 0.0305877 
0.0162836 9.91631 0.0433053 
0.0305877 0.0433053 9.92656 
9.92304 0.00195633 0.042848 
0.00195633 9.89836 0.0575569 
0.042848 0.0575569 9.94002 
9.94018 0.0398408 0.0529364 
0.0398408 9.91462 0.0666486 
0.0529364 0.0666486 9.90661 
9.91896 0.0160527 0.0396562 
0.0160527 9.9178 0.0510534 
0.0396562 0.0510534 9.92466 
9.8341 -0.00348521 0.0734012 
-0.00348521 9.94723 0.0093549 
0.0734012 0.0093549 9.96248 
9.92434 0.00819457 0.0515656 
0.00819457 9.89283 -0.0169638 
0.0515656 -0.0169638 9.92665 
9.80028 -0.00217549 0.0390264 
-0.00217549 9.9485 0.00572565 
0.0390264 0.00572565 9.99503 
9.89012 -0.0384791 0.0558733 
-0.0384791 9.8949 0.00773233 
0.0558733 0.00773233 9.9588 
9.95182 -0.00153641 -0.0518579 
-0.00153641 9.94854 0.0482896 
-0.0518579 0.0482896 9.9619 
9.95847 -0.00694629 -0.0508731 
-0.00694629 9.94896 0.0455374 
-0.0508731 0.0455374 9.95483 
9.95171 -0.000592031 -0.0577604 
-0.000592031 9.94945 0.0466505 
-0.0577604 0.0466505 9.9611 
9.94746 0.000853533 -0.0523372 
0.000853533 9.94884 0.0453206 
-0.0523372 0.0453206 9.96597 
11.1865 1.85548 -1.74397 
1.85548 8.68988 -2.81882 
-1.74397 -2.81882 -4.48468 
7.13676 0.199096 0.481209 
0.199096 3.48913 -0.233636 
0.481209 -0.233636 4.76579 
5.36987 -4.10417 0.564216 
-4.10417 9.81498 -1.45834 
0.564216 -1.45834 0.206826 
7.08187 1.32978 -1.73702 
1.32978 5.65677 0.70537 
-1.73702 0.70537 2.65303 
9.98743 -0.00886509 -0.00300451 
-0.00886509 9.99138 0.00933947 
-0.00300451 0.00933947 10.0041 
9.9962 0.00742077 0.0257143 
0.00742077 9.98812 -0.0031698 
0.0257143 -0.0031698 9.99859 
9.98411 -0.0123573 0.0033953 
-0.0123573 9.9915 0.0131077 
0.0033953 0.0131077 10.0073 
9.98459 -0.00543883 0.0047554 
-0.00543883 9.98573 0.0112179 
0.0047554 0.0112179 10.0126 
10.0328 -0.0157557 0.0236073 
-0.0157557 9.96487 0.11187 
0.0236073 0.11187 10.7637 
10.4141 -0.0100719 -0.023917 
-0.0100719 10.4036 -0.00700671 
-0.023917 -0.00700671 9.94373 
10.3756 0.0794287 0.0386765 
0.0794287 10.2012 -0.0180902 
0.0386765 -0.0180902 10.1847 
10.3562 0.00717622 0.354573 
0.00717622 10.3083 -0.0276945 
0.354573 -0.0276945 10.0968 
9.95536 -0.00216244 0.0627914 
-0.00216244 9.95076 -0.0448023 
0.0627914 -0.0448023 9.95282 
9.94363 0.0068838 0.063147 
0.0068838 9.94878 -0.0432532 
0.063147 -0.0432532 9.96654 
9.9569 0.000864832 0.0661781 
0.000864832 9.95373 -0.0426542 
0.0661781 -0.0426542 9.94832 
9.9574 -0.000140555 0.0590052 
-0.000140555 9.94872 -0.0441062 
0.0590052 -0.0441062 9.95282 
9.73423 0.0372706 -0.0809235 
0.0372706 9.91336 0.0474016 
-0.0809235 0.0474016 9.96168 
9.56743 -0.0741756 -0.169495 
-0.0741756 9.94212 0.0327658 
-0.169495 0.0327658 10.0997 
9.7437 -0.0475921 -0.134095 
-0.0475921 9.91347 -0.0672477 
-0.134095 -0.0672477 9.9521 
9.81858 -0.0892545 -0.0870455 
-0.0892545 9.9017 0.0345023 
-0.0870455 0.0345023 9.88899 
9.94029 0.0224648 -0.17069 
0.0224648 9.87513 -0.0930935 
-0.17069 -0.0930935 9.80839 
9.88592 -0.0067033 -0.193151 
-0.0067033 9.89048 -0.0361355 
-0.193151 -0.0361355 9.8474 
9.81166 -0.0984021 -0.225681 
-0.0984021 9.99051 -0.114878 
-0.225681 -0.114878 9.82163 
9.83493 -0.0674975 -0.0372534 
-0.0674975 9.9023 -0.0644705 
-0.0372534 -0.0644705 9.88657 
9.90969 -0.0191513 0.0267832 
-0.0191513 9.836 -0.00368125 
0.0267832 -0.00368125 9.70426 
9.92096 -0.0352945 0.0179587 
-0.0352945 9.86021 -0.0371868 
0.0179587 -0.0371868 9.66878 
9.90677 -0.0233313 0.0248754 
-0.0233313 9.83183 -0.005093 
0.0248754 -0.005093 9.71136 
9.92364 -0.0406458 0.0332417 
-0.0406458 9.82505 -0.0356883 
0.0332417 -0.0356883 9.70126 
9.9671 -0.0075015 0.0765453 
-0.0075015 9.95508 0.0114961 
0.0765453 0.0114961 9.86298 
9.97895 -0.00752868 0.0887992 
-0.00752868 9.95375 0.0277636 
0.0887992 0.0277636 9.85248 
9.97367 -0.00614608 0.0703054 
-0.00614608 9.94744 0.0142196 
0.0703054 0.0142196 9.86407 
9.96978 0.0118584 0.0695127 
0.0118584 9.97453 0.0128983 
0.0695127 0.0128983 9.84086 
9.93882 0.000417411 0.0365798 
0.000417411 9.9585 0.0664906 
0.0365798 0.0664906 9.94885 
9.94842 -0.0034319 0.0373314 
-0.0034319 9.94991 0.0656095 
0.0373314 0.0656095 9.94783 
9.94784 -0.00776205 0.0369345 
-0.00776205 9.93933 0.0679588 
0.0369345 0.0679588 9.95901 
9.94283 0.00358905 0.0352991 
0.00358905 9.95012 0.0622116 
0.0352991 0.0622116 9.95323 
9.91445 0.0419593 0.0126274 
0.0419593 9.88509 -0.0422027 
0.0126274 -0.0422027 9.92239 
9.90715 0.0521656 -0.0153512 
0.0521656 9.90087 -0.0297868 
-0.0153512 -0.0297868 9.91392 
9.91134 0.0702982 0.0161007 
0.0702982 9.88694 -0.0492666 
0.0161007 -0.0492666 9.92366 
9.94172 0.0275645 0.00810934 
0.0275645 9.87958 -0.0540166 
0.00810934 -0.0540166 9.90064 
9.92456 0.0210199 0.0304251 
0.0210199 9.93262 0.0199626 
0.0304251 0.0199626 9.92299 
9.92371 0.0153141 0.0214353 
0.0153141 9.92891 0.0222206 
0.0214353 0.0222206 9.92755 
9.93937 0.0379818 0.0336069 
0.0379818 9.94446 0.0260286 
0.0336069 0.0260286 9.89633 
9.92635 0.00769243 0.0310955 
0.00769243 9.92101 0.0347962 
0.0310955 0.0347962 9.93281 
9.93662 0.0186385 0.0208564 
0.0186385 9.94372 0.0118915 
0.0208564 0.0118915 9.93143 
9.94714 0.0185253 0.0254284 
0.0185253 9.94733 0.0116265 
0.0254284 0.0116265 9.9173 
9.92951 0.0146369 0.0226691 
0.0146369 9.94342 0.0137997 
0.0226691 0.0137997 9.93884 
9.93345 0.0173304 0.0136454 
0.0173304 9.94507 0.0148081 
0.0136454 0.0148081 9.93325 
9.88355 0.0096744 0.0467407 
0.0096744 9.90602 -0.0432356 
0.0467407 -0.0432356 9.98065 
9.9004 0.0170239 0.0718138 
0.0170239 9.92696 -0.0512444 
0.0718138 -0.0512444 9.94286 
9.91689 0.00323573 0.0478263 
0.00323573 9.91309 -0.0400093 
0.0478263 -0.0400093 9.94024 
9.8972 0.00779971 0.0548122 
0.00779971 9.91993 -0.0456732 
0.0548122 -0.0456732 9.95309 
9.94625 0.00148122 -0.0828726 
0.00148122 9.93303 0.0258978 
-0.0828726 0.0258978 9.94093 
9.94186 0.00413153 -0.0742645 
0.00413153 9.94264 0.0211989 
-0.0742645 0.0211989 9.93572 
9.93495 -0.00736249 -0.0660628 
-0.00736249 9.92957 0.0355715 
-0.0660628 0.0355715 9.95569 
9.95173 0.00414169 -0.0715674 
0.00414169 9.94511 0.0158175 
-0.0715674 0.0158175 9.92337 
9.9085 0.00137301 0.00147161 
0.00137301 9.88859 0.08467 
0.00147161 0.08467 9.91015 
9.90466 -5.69624e-05 0.000397143 
-5.69624e-05 9.88914 0.087416 
0.000397143 0.087416 9.91343 
9.91834 -0.00424085 -0.000178425 
-0.00424085 9.89907 0.0782154 
-0.000178425 0.0782154 9.88983 
9.90442 0.00210223 0.0027242 
0.00210223 9.88948 0.0867346 
0.0027242 0.0867346 9.91333 
10.2107 0.0193414 0.0171202 
0.0193414 10.2461 -0.0102217 
0.0171202 -0.0102217 10.2242 
10.1921 -0.0196785 -0.00112225 
-0.0196785 10.2086 -0.041293 
-0.00112225 -0.041293 10.2802 
10.2217 -0.00130515 -0.000289533 
-0.00130515 10.164 -0.0471298 
-0.000289533 -0.0471298 10.2953 
10.21 0.0260486 0.0259714 
0.0260486 10.2341 -0.0412044 
0.0259714 -0.0412044 10.2369 
9.9815 0.00253008 -0.0425578 
0.00253008 9.98421 -0.0651553 
-0.0425578 -0.0651553 9.98452 
9.98176 -0.00268843 -0.045976 
-0.00268843 9.98589 -0.0637388 
-0.045976 -0.0637388 9.98258 
9.97731 -0.00820897 -0.0435916 
-0.00820897 9.98215 -0.0642671 
-0.0435916 -0.0642671 9.99077 
9.9825 0.00101774 -0.0436702 
0.00101774 9.98412 -0.0661754 
-0.0436702 -0.0661754 9.98362 
9.98944 -0.00172692 0.0382436 
-0.00172692 9.99387 -0.0252266 
0.0382436 -0.0252266 9.99593 
9.98523 0.00124004 0.035817 
0.00124004 9.98942 -0.0284536 
0.035817 -0.0284536 10.0046 
9.99434 -0.00285781 0.0405487 
-0.00285781 9.99426 -0.0279341 
0.0405487 -0.0279341 9.99064 
9.99774 -0.000783159 0.0399961 
-0.000783159 9.99445 -0.025729 
0.0399961 -0.025729 9.98704 
9.84683 0.139628 0.0212538 
0.139628 9.89809 0.00286741 
0.0212538 0.00286741 9.90047 
9.87399 0.102773 0.0248814 
0.102773 9.87466 0.0393253 
0.0248814 0.0393253 9.89673 
9.87436 0.113099 0.0117893 
0.113099 9.83441 0.0258449 
0.0117893 0.0258449 9.93661 
9.92612 0.144947 -0.0148954 
0.144947 9.72334 0.0427093 
-0.0148954 0.0427093 9.99593 
9.90323 0.00923074 0.0308426 
0.00923074 9.92752 0.0429297 
0.0308426 0.0429297 9.91283 
9.90219 -0.0157617 0.0462592 
-0.0157617 9.89036 0.0652843 
0.0462592 0.0652843 9.95103 
9.90865 0.00274015 0.028394 
0.00274015 9.94364 0.0452616 
0.028394 0.0452616 9.89128 
9.89736 -0.0105974 0.0438973 
-0.0105974 9.91383 0.0309829 
0.0438973 0.0309829 9.9324 
9.93814 0.00126521 0.0514592 
0.00126521 9.93263 -0.00591447 
0.0514592 -0.00591447 9.86371 
9.95291 0.00403094 0.053116 
0.00403094 9.91529 0.00133649 
0.053116 0.00133649 9.86628 
9.93399 -0.00263284 0.0508811 
-0.00263284 9.92629 0.0010006 
0.0508811 0.0010006 9.87421 
9.92419 -0.000915415 0.031419 
-0.000915415 9.93883 0.00170599 
0.031419 0.00170599 9.87147 
9.79928 0.0218305 0.0653043 
0.0218305 9.89518 -0.0372091 
0.0653043 -0.0372091 10.0262 
9.86697 0.0142495 0.0747549 
0.0142495 9.95733 0.0232192 
0.0747549 0.0232192 9.89637 
9.83495 -0.00980325 0.0915012 
-0.00980325 9.95594 0.0252826 
0.0915012 0.0252826 9.92979 
9.85732 0.00272501 0.112913 
0.00272501 9.89677 0.00135727 
0.112913 0.00135727 9.96658 
9.93302 0.00349652 -0.00391761 
0.00349652 9.97182 0.0525781 
-0.00391761 0.0525781 9.87777 
9.94678 -0.00290899 -0.0152612 
-0.00290899 9.94871 0.0245476 
-0.0152612 0.0245476 9.88712 
9.93307 -0.00618562 -0.00119558 
-0.00618562 9.90062 0.0398417 
-0.00119558 0.0398417 9.94892 
9.95278 0.00894258 0.0136522 
0.00894258 9.89976 0.0348393 
0.0136522 0.0348393 9.93008 
9.95392 0.00310987 -0.053464 
0.00310987 9.95285 0.0521617 
-0.053464 0.0521617 9.9596 
9.95413 -0.00436682 -0.0488956 
-0.00436682 9.9468 0.0561668 
-0.0488956 0.0561668 9.96545 
9.96129 0.002094 -0.0499854 
0.002094 9.95588 0.045698 
-0.0499854 0.045698 9.9492 
9.94925 0.000990353 -0.048072 
0.000990353 9.94134 0.05597 
-0.048072 0.05597 9.97578 
10.2764 -0.647636 0.303104 
-0.647636 9.70941 0.242507 
0.303104 0.242507 11.5308 
10.4388 0.218783 0.674849 
0.218783 11.5812 -0.457181 
0.674849 -0.457181 9.4967 
9.42207 0.322014 0.130225 
0.322014 9.72551 0.393165 
0.130225 0.393165 12.3691 
10.2649 0.492129 -0.350868 
0.492129 9.86288 -0.633135 
-0.350868 -0.633135 11.3889 
9.90879 0.00200425 -0.0834431 
0.00200425 9.924 0.0297558 
-0.0834431 0.0297558 9.94733 
9.95309 0.00937687 -0.078631 
0.00937687 9.9192 0.0184184 
-0.078631 0.0184184 9.90784 
9.93173 0.00702815 -0.0786378 
0.00702815 9.91767 0.0187662 
-0.0786378 0.0187662 9.93072 
9.92329 0.0127914 -0.0709551 
0.0127914 9.93126 0.0339106 
-0.0709551 0.0339106 9.92556 
6.21172 0.695945 -0.649759 
0.695945 4.43076 0.326489 
-0.649759 0.326489 2.32607 
8.49948 -1.42946 0.0585265 
-1.42946 5.90409 -1.51152 
0.0585265 -1.51152 -1.43502 
6.89155 -0.753665 0.261901 
-0.753665 6.83591 0.260585 
0.261901 0.260585 -0.758908 
5.6242 -1.23369 -2.42649 
-1.23369 6.1928 0.830552 
-2.42649 0.830552 1.15156 
9.89577 -0.00574207 -0.0440866 
-0.00574207 9.88644 0.00329175 
-0.0440866 0.00329175 9.96469 
9.90599 -0.0387695 -0.0546195 
-0.0387695 9.85127 -0.0128282 
-0.0546195 -0.0128282 9.98963 
9.89332 -0.0308093 -0.0427946 
-0.0308093 9.89383 -0.0564042 
-0.0427946 -0.0564042 9.95974 
9.93357 -0.002013 -0.0394493 
-0.002013 9.87939 -0.0786232 
-0.0394493 -0.0786232 9.93394 
9.99553 0.00263722 0.000228841 
0.00263722 9.99282 -0.0265068 
0.000228841 -0.0265068 9.99627 
9.99869 0.000456844 -0.00313507 
0.000456844 9.99768 -0.0259315 
-0.00313507 -0.0259315 9.98825 
9.98723 0.00164711 -0.00233944 
0.00164711 9.98847 -0.0307444 
-0.00233944 -0.0307444 10.0089 
9.99847 -0.00180388 0.00173322 
-0.00180388 9.99789 -0.027289 
0.00173322 -0.027289 9.98826 
10.8782 0.172391 -0.219942 
0.172391 11.1593 -0.484703 
-0.219942 -0.484703 10.1742 
10.3951 -0.0113754 0.270435 
-0.0113754 10.0682 0.254523 
0.270435 0.254523 11.7484 
10.3784 0.146873 0.256433 
0.146873 10.9289 -0.0208325 
0.256433 -0.0208325 10.9044 
10.509 0.404355 0.0727018 
0.404355 11.3201 0.151236 
0.0727018 0.151236 10.3825 
9.964 -0.0129104 -0.00580355 
-0.0129104 9.9657 0.00787291 
-0.00580355 0.00787291 9.94513 
9.96129 -0.00978515 0.00351047 
-0.00978515 9.95428 0.00497084 
0.00351047 0.00497084 9.95926 
9.94136 0.0103241 0.00037126 
0.0103241 9.94313 -6.16815e-05 
0.00037126 -6.16815e-05 9.99033 
9.95845 -0.0126318 0.0065961 
-0.0126318 9.97768 -0.010007 
0.0065961 -0.010007 9.93869 
9.6932 0.948266 1.26327 
0.948266 9.67599 -1.29709 
1.26327 -1.29709 10.0487 
9.29978 0.257506 0.661243 
0.257506 10.6264 -0.70123 
0.661243 -0.70123 9.49168 
9.91282 0.334542 0.484331 
0.334542 10.3465 -0.811293 
0.484331 -0.811293 9.15849 
9.47137 -0.29696 -0.212205 
-0.29696 8.61657 0.509274 
-0.212205 0.509274 11.3299 
9.73977 -0.0542705 -0.0110664 
-0.0542705 10.0561 0.021642 
-0.0110664 0.021642 9.99123 
10.0582 0.0148267 0.0649708 
0.0148267 9.84168 -0.0405604 
0.0649708 -0.0405604 9.88728 
9.85399 0.00534267 0.0404351 
0.00534267 9.94762 0.00339797 
0.0404351 0.00339797 9.98553 
9.81665 0.106578 0.0975545 
0.106578 9.95258 0.0563465 
0.0975545 0.0563465 10.0179 
9.91178 0.00632097 0.0570327 
0.00632097 9.90397 -0.0403263 
0.0570327 -0.0403263 9.93145 
9.91133 0.0184669 0.059468 
0.0184669 9.90734 -0.0290989 
0.059468 -0.0290989 9.92852 
9.90284 0.0112157 0.0649745 
0.0112157 9.91197 -0.0531293 
0.0649745 -0.0531293 9.93238 
9.91342 0.0015147 0.0814127 
0.0015147 9.9137 -0.0331793 
0.0814127 -0.0331793 9.92006 
9.95721 -0.00800864 0.0342995 
-0.00800864 9.95063 0.075493 
0.0342995 0.075493 9.97072 
9.95987 0.0082956 0.0290253 
0.0082956 9.97512 0.0778804 
0.0290253 0.0778804 9.94357 
9.95977 -0.00634139 0.0324973 
-0.00634139 9.9625 0.0698455 
0.0324973 0.0698455 9.95629 
9.95916 -0.00604083 0.0258951 
-0.00604083 9.96417 0.060151 
0.0258951 0.060151 9.95523 
10.023 -0.00458445 0.00384557 
-0.00458445 10.0175 0.00839509 
0.00384557 0.00839509 10.009 
10.013 -0.00396306 0.00224917 
-0.00396306 10.0164 0.00580383 
0.00224917 0.00580383 10.0201 
10.0203 0.00263289 -0.00580401 
0.00263289 10.024 0.00358165 
-0.00580401 0.00358165 10.0052 
9.99666 -0.00540638 0.00617812 
-0.00540638 10.0157 -0.00356966 
0.00617812 -0.00356966 10.0372 
10.2072 -0.194095 -0.046113 
-0.194095 10.2286 0.136853 
-0.046113 0.136853 9.95704 
9.87934 0.0700775 0.0434004 
0.0700775 10.0549 -0.166351 
0.0434004 -0.166351 10.4586 
10.2507 -0.048437 -0.0681763 
-0.048437 10.3055 0.137657 
-0.0681763 0.137657 9.83664 
10.2022 0.0908051 -0.114675 
0.0908051 9.89366 0.12936 
-0.114675 0.12936 10.2969 
9.97653 -0.0055856 0.0233185 
-0.0055856 9.95839 -0.0163116 
0.0233185 -0.0163116 9.91763 
9.97834 -0.00905314 0.022644 
-0.00905314 9.96044 -0.00927563 
0.022644 -0.00927563 9.91377 
9.97046 -0.00228657 0.0249461 
-0.00228657 9.96065 -0.0160193 
0.0249461 -0.0160193 9.92145 
9.97127 -0.00571001 0.021757 
-0.00571001 9.95479 -0.0178041 
0.021757 -0.0178041 9.92649 
9.98586 0.00147477 -0.0478111 
0.00147477 9.99187 -0.0382775 
-0.0478111 -0.0382775 10.004 
9.99237 0.00195645 -0.0480186 
0.00195645 9.99398 -0.0415515 
-0.0480186 -0.0415515 9.9954 
9.99421 0.00245058 -0.0484443 
0.00245058 9.99411 -0.0404163 
-0.0484443 -0.0404163 9.99343 
9.99634 0.000883214 -0.0484561 
0.000883214 9.99517 -0.0423882 
-0.0484561 -0.0423882 9.99024 
9.97305 0.00216579 -0.0500275 
0.00216579 9.97258 0.0450198 
-0.0500275 0.0450198 9.9815 
9.97475 -0.00319073 -0.052106 
-0.00319073 9.97458 0.0472264 
-0.052106 0.0472264 9.97779 
9.97439 -0.00075603 -0.0515605 
-0.00075603 9.9733 0.046122 
-0.0515605 0.046122 9.97944 
9.97495 0.000150148 -0.0549389 
0.000150148 9.97559 0.0438903 
-0.0549389 0.0438903 9.97659 
9.9374 0.052645 -0.0220538 
0.052645 9.82633 -0.0654713 
-0.0220538 -0.0654713 10.0214 
10.1857 0.143842 -0.0343282 
0.143842 9.74206 -0.170091 
-0.0343282 -0.170091 9.85732 
9.77936 0.0912315 -0.0443128 
0.0912315 9.89179 -0.168786 
-0.0443128 -0.168786 10.114 
9.98888 -0.113669 -0.06085 
-0.113669 9.78054 -0.199725 
-0.06085 -0.199725 10.0157 
6.10448 -1.56623 0.514661 
-1.56623 2.72907 -1.18157 
0.514661 -1.18157 5.03075 
8.24871 -0.26089 0.64883 
-0.26089 5.55439 1.64973 
0.64883 1.64973 0.0612078 
10.1353 0.0475552 0.0340781 
0.0475552 5.31434 -0.492906 
0.0340781 -0.492906 -1.58535 
7.04965 -1.4077 4.05842 
-1.4077 4.56092 0.523986 
4.05842 0.523986 2.25373 
10.5095 0.166681 0.136539 
0.166681 10.5307 -0.0837322 
0.136539 -0.0837322 10.3331 
10.6098 0.0609362 0.0743037 
0.0609362 10.4326 -0.0904301 
0.0743037 -0.0904301 10.3309 
10.0688 0.0327937 -0.0351231 
0.0327937 10.2557 0.0270362 
-0.0351231 0.0270362 11.0487 
10.5235 0.0956059 0.0301355 
0.0956059 10.4316 -0.349757 
0.0301355 -0.349757 10.4181 
9.9292 -0.00552585 0.0629713 
-0.00552585 9.94966 -0.0135886 
0.0629713 -0.0135886 9.89434 
9.97538 0.00282235 0.0633845 
0.00282235 9.92873 -0.00811794 
0.0633845 -0.00811794 9.86909 
9.93571 -0.0113072 0.0463186 
-0.0113072 9.94561 -0.015547 
0.0463186 -0.015547 9.89188 
9.93977 -0.000778952 0.0397802 
-0.000778952 9.93342 -0.0169515 
0.0397802 -0.0169515 9.90001 
9.98791 -6.46433e-05 0.0336585 
-6.46433e-05 9.98927 0.0502866 
0.0336585 0.0502866 10.0006 
9.99257 0.00101354 0.0372088 
0.00101354 9.99212 0.0508905 
0.0372088 0.0508905 9.99308 
9.9898 0.000471497 0.0369005 
0.000471497 9.98983 0.048172 
0.0369005 0.048172 9.99814 
9.99274 0.00174753 0.0386447 
0.00174753 9.99394 0.0514263 
0.0386447 0.0514263 9.99108 
9.9329 0.0235292 0.0715688 
0.0235292 9.96832 0.13666 
0.0715688 0.13666 10.2917 
10.0547 0.0851747 -0.0315967 
0.0851747 9.89726 0.0847496 
-0.0315967 0.0847496 10.2409 
10.0172 0.0897784 0.0219696 
0.0897784 9.82805 -0.0541675 
0.0219696 -0.0541675 10.3477 
9.93393 -0.090257 -0.0377966 
-0.090257 10.0342 0.0391031 
-0.0377966 0.0391031 10.2247 
9.89207 0.00886424 0.047873 
0.00886424 9.88827 -0.0118356 
0.047873 -0.0118356 9.93504 
9.89605 0.0115095 0.0745088 
0.0115095 9.89158 -0.0410547 
0.0745088 -0.0410547 9.92774 
9.89046 0.0117289 0.0813059 
0.0117289 9.9082 -0.0512797 
0.0813059 -0.0512797 9.91672 
9.85074 0.0513626 0.0946939 
0.0513626 9.91658 -0.0470306 
0.0946939 -0.0470306 9.94806 
9.50078 0.503771 1.84646 
0.503771 7.34058 0.861184 
1.84646 0.861184 3.04559 
8.89812 0.690412 1.28997 
0.690412 7.62242 0.256073 
1.28997 0.256073 3.36641 
9.20189 0.299822 0.728191 
0.299822 7.55233 -0.132816 
0.728191 -0.132816 3.13274 
9.60311 -2.35667 0.0882855 
-2.35667 5.30585 -1.78459 
0.0882855 -1.78459 4.97799 
9.94204 0.00385516 -0.0517665 
0.00385516 9.92181 -0.0460793 
-0.0517665 -0.0460793 9.93581 
9.92563 -0.0105294 -0.0578563 
-0.0105294 9.93048 -0.0466991 
-0.0578563 -0.0466991 9.94355 
9.92975 -0.00505325 -0.0520054 
-0.00505325 9.92968 -0.0454208 
-0.0520054 -0.0454208 9.94023 
9.9306 0.00278241 -0.0519613 
0.00278241 9.9278 -0.0429599 
-0.0519613 -0.0429599 9.94127 
9.90343 -0.0119636 -0.0659536 
-0.0119636 9.90543 -0.0424029 
-0.0659536 -0.0424029 9.91598 
9.91194 -0.00760261 -0.0749478 
-0.00760261 9.89888 -0.0467681 
-0.0749478 -0.0467681 9.91403 
9.91747 -0.0128186 -0.0667203 
-0.0128186 9.89381 -0.0514101 
-0.0667203 -0.0514101 9.91356 
9.90907 -0.0347649 -0.0726253 
-0.0347649 9.90339 -0.0473142 
-0.0726253 -0.0473142 9.91239 
9.92139 0.028845 -0.0215379 
0.028845 9.91623 0.0143891 
-0.0215379 0.0143891 9.97985 
9.91092 0.0265243 -0.0117179 
0.0265243 9.92046 0.0174425 
-0.0117179 0.0174425 9.98609 
9.93431 0.0295345 -0.0255653 
0.0295345 9.91083 0.0157984 
-0.0255653 0.0157984 9.97232 
9.93484 0.0482516 -0.0210106 
0.0482516 9.91442 0.00566608 
-0.0210106 0.00566608 9.96821 
9.98335 0.000475462 -0.0493277 
0.000475462 9.98425 0.0511067 
-0.0493277 0.0511067 9.99099 
9.98282 0.00369975 -0.0537164 
0.00369975 9.98733 0.0494055 
-0.0537164 0.0494055 9.98845 
9.98021 0.000178675 -0.0487555 
0.000178675 9.98611 0.0470991 
-0.0487555 0.0470991 9.99227 
9.99261 -0.00329636 -0.0539891 
-0.00329636 9.98407 0.0538919 
-0.0539891 0.0538919 9.98192 
9.98237 0.00897726 -0.0327643 
0.00897726 10.0228 0.00372428 
-0.0327643 0.00372428 10.027 
10.0258 -0.00755728 0.0133822 
-0.00755728 10.0448 0.0226928 
0.0133822 0.0226928 9.96158 
10.0113 0.0100431 -0.00263445 
0.0100431 10.0179 0.0140879 
-0.00263445 0.0140879 10.003 
9.97496 -0.00462826 -0.00510114 
-0.00462826 10.0417 -0.00417059 
-0.00510114 -0.00417059 10.0155 
10.2398 0.0462008 -0.0355207 
0.0462008 10.2921 0.0346534 
-0.0355207 0.0346534 10.3079 
10.2435 0.0432116 -0.0636543 
0.0432116 10.2436 0.0529435 
-0.0636543 0.0529435 10.3528 
10.3014 0.0649153 -0.0743077 
0.0649153 10.3183 0.0268867 
-0.0743077 0.0268867 10.2202 
10.2702 0.0301468 -0.0506877 
0.0301468 10.2814 0.00277573 
-0.0506877 0.00277573 10.2883 
9.98318 -0.0146692 -0.0204696 
-0.0146692 10.0091 -0.01585 
-0.0204696 -0.01585 9.9802 
9.96308 -0.000988069 0.0321533 
-0.000988069 9.99504 0.00175937 
0.0321533 0.00175937 10.0143 
10.0087 0.0032883 0.0159057 
0.0032883 9.98434 0.00617752 
0.0159057 0.00617752 9.97946 
9.98507 -0.00483503 0.0135606 
-0.00483503 9.99371 -0.00573042 
0.0135606 -0.00573042 9.99368 
9.97611 0.00341022 -0.0194441 
0.00341022 9.97127 -0.0110829 
-0.0194441 -0.0110829 9.97655 
9.97264 0.00428623 -0.0155786 
0.00428623 9.97587 -0.00912936 
-0.0155786 -0.00912936 9.97541 
9.97733 0.000397572 -0.0122114 
0.000397572 9.97648 -0.010388 
-0.0122114 -0.010388 9.97012 
9.97752 0.00493085 -0.0166713 
0.00493085 9.97121 -0.00991248 
-0.0166713 -0.00991248 9.9752 
9.93407 -0.0093245 -0.0626141 
-0.0093245 9.86168 0.00812374 
-0.0626141 0.00812374 9.86495 
9.80268 0.00200342 -0.0487852 
0.00200342 9.91592 0.00164197 
-0.0487852 0.00164197 9.9421 
9.86676 -0.00386671 -0.0755784 
-0.00386671 9.88488 0.00658476 
-0.0755784 0.00658476 9.90905 
9.85753 -0.00301807 -0.107994 
-0.00301807 9.88312 -0.00176951 
-0.107994 -0.00176951 9.92004 
9.91054 0.00146857 0.0107438 
0.00146857 9.90626 -0.0896907 
0.0107438 -0.0896907 9.91316 
9.90982 0.00467269 0.00975035 
0.00467269 9.90281 -0.0934389 
0.00975035 -0.0934389 9.91733 
9.90875 -0.00184069 0.00992507 
-0.00184069 9.9182 -0.0874414 
0.00992507 -0.0874414 9.90301 
9.9096 0.00265188 0.00612092 
0.00265188 9.90603 -0.087941 
0.00612092 -0.087941 9.91433 
10.0551 -0.00372924 0.000439889 
-0.00372924 10.0394 3.47321e-05 
0.000439889 3.47321e-05 10.0379 
10.0763 -0.00298935 -0.00541767 
-0.00298935 10.0551 -0.00333012 
-0.00541767 -0.00333012 10.0011 
10.0057 -0.000196849 -0.0261562 
-0.000196849 9.99872 0.0194964 
-0.0261562 0.0194964 10.128 
10.0485 0.0181645 0.0510155 
0.0181645 10.0305 -0.0156908 
0.0510155 -0.0156908 10.0534 
9.69888 -0.062566 -0.30441 
-0.062566 9.97522 -0.169234 
-0.30441 -0.169234 9.93191 
9.92015 0.0410681 -0.0970376 
0.0410681 9.82756 -0.105884 
-0.0970376 -0.105884 9.8583 
9.67512 -0.05303 -0.1711 
-0.05303 9.85628 -0.0544365 
-0.1711 -0.0544365 10.0746 
9.65829 -0.156673 -0.153446 
-0.156673 9.92189 -0.0820137 
-0.153446 -0.0820137 10.0258 
10.618 -0.115026 0.497551 
-0.115026 9.90203 -0.319574 
0.497551 -0.319574 11.107 
10.3949 -0.249467 -0.294438 
-0.249467 10.8539 -0.281646 
-0.294438 -0.281646 10.3782 
10.5961 0.227757 -0.0930983 
0.227757 10.0121 0.203552 
-0.0930983 0.203552 11.0189 
10.6254 0.0444926 0.209691 
0.0444926 10.239 -0.227939 
0.209691 -0.227939 10.7627 
9.91365 -0.0183106 0.0553698 
-0.0183106 9.94873 -0.0151595 
0.0553698 -0.0151595 9.8747 
9.93718 -0.0201845 0.0369513 
-0.0201845 9.91821 -0.0264843 
0.0369513 -0.0264843 9.88169 
9.93451 -0.0273004 0.0439655 
-0.0273004 9.9358 -0.0247643 
0.0439655 -0.0247643 9.86677 
9.91974 -0.0327522 0.0490126 
-0.0327522 9.94045 -0.00145839 
0.0490126 -0.00145839 9.87689 
9.95034 -0.00470699 -0.0686979 
-0.00470699 9.96061 -0.0385463 
-0.0686979 -0.0385463 9.97034 
9.9596 -0.00333472 -0.0673153 
-0.00333472 9.96068 -0.0381302 
-0.0673153 -0.0381302 9.96101 
9.97476 0.00245013 -0.0689772 
0.00245013 9.95288 -0.0443299 
-0.0689772 -0.0443299 9.95365 
9.96411 0.00539662 -0.0581603 
0.00539662 9.95474 -0.0441921 
-0.0581603 -0.0441921 9.96244 
9.96501 0.00551959 0.0791711 
0.00551959 9.94673 0.0333062 
0.0791711 0.0333062 9.93056 
9.9427 -0.00546146 0.0749353 
-0.00546146 9.94397 0.0328351 
0.0749353 0.0328351 9.95563 
9.94753 -0.01116 0.0705509 
-0.01116 9.94557 0.0330582 
0.0705509 0.0330582 9.9492 
9.94681 -0.00151289 0.0612323 
-0.00151289 9.95488 0.0321546 
0.0612323 0.0321546 9.94061 
9.92572 -0.00379487 -0.0634906 
-0.00379487 9.87488 -0.00832471 
-0.0634906 -0.00832471 9.86805 
9.87828 -0.00168084 -0.0753756 
-0.00168084 9.8841 6.89207e-05 
-0.0753756 6.89207e-05 9.90627 
9.80916 -0.00717181 -0.0459601 
-0.00717181 9.91297 -0.000467698 
-0.0459601 -0.000467698 9.94653 
9.86558 -0.0132492 -0.104092 
-0.0132492 9.88141 0.00929258 
-0.104092 0.00929258 9.92166 
6.71273 1.0832 0.80527 
1.0832 8.42407 -0.744924 
0.80527 -0.744924 15.8002 
11.6095 -2.00578 -3.79615 
-2.00578 17.184 0.698893 
-3.79615 0.698893 2.14351 
3.90278 4.29503 2.48636 
4.29503 7.05617 1.30121 
2.48636 1.30121 19.978 
16.0732 -0.858742 7.54268 
-0.858742 7.20729 -4.59995 
7.54268 -4.59995 7.65651 
9.97374 -0.00295234 0.00488459 
-0.00295234 9.9807 0.00778969 
0.00488459 0.00778969 9.98307 
9.96788 -0.00569135 0.00499279 
-0.00569135 9.98354 -0.00495086 
0.00499279 -0.00495086 9.98608 
9.96065 0.00664263 0.000346829 
0.00664263 9.98919 0.00420985 
0.000346829 0.00420985 9.98766 
9.96456 0.00841253 0.00189208 
0.00841253 9.99489 -0.00228887 
0.00189208 -0.00228887 9.97806 
9.99864 -0.00136342 -0.0225608 
-0.00136342 9.99055 0.0325218 
-0.0225608 0.0325218 9.99113 
9.9836 0.00105344 -0.0213132 
0.00105344 9.98598 0.0332642 
-0.0213132 0.0332642 10.0107 
9.99417 -0.00030116 -0.0198442 
-0.00030116 9.99206 0.0326101 
-0.0198442 0.0326101 9.99409 
9.99639 -0.00240768 -0.01715 
-0.00240768 9.99492 0.0317054 
-0.01715 0.0317054 9.989 
9.91716 -0.00567494 0.051908 
-0.00567494 9.90763 0.0397989 
0.051908 0.0397989 9.92672 
9.90893 -0.0293507 0.0441902 
-0.0293507 9.90397 0.0382727 
0.0441902 0.0382727 9.93862 
9.93588 0.0109282 0.046813 
0.0109282 9.90052 0.039075 
0.046813 0.039075 9.91512 
9.90688 0.00446638 0.0545605 
0.00446638 9.91587 0.0437049 
0.0545605 0.0437049 9.92877 
9.90951 -0.022092 0.0313039 
-0.022092 9.90863 0.0589866 
0.0313039 0.0589866 9.93122 
9.90952 -0.00539944 0.034207 
-0.00539944 9.91828 0.0640705 
0.034207 0.0640705 9.92157 
9.90415 0.00356543 0.0325117 
0.00356543 9.93393 0.0628843 
0.0325117 0.0628843 9.91129 
9.91592 -0.001121 0.0378296 
-0.001121 9.90931 0.0682181 
0.0378296 0.0682181 9.92414 
9.90407 0.0019923 0.0860159 
0.0019923 9.89295 -0.00525451 
0.0860159 -0.00525451 9.90846 
9.89956 0.00151195 0.0887635 
0.00151195 9.90392 -0.0087915 
0.0887635 -0.0087915 9.90199 
9.88653 0.00642987 0.0864763 
0.00642987 9.90955 -0.00777921 
0.0864763 -0.00777921 9.90939 
9.8948 -0.00157306 0.0877894 
-0.00157306 9.90755 -0.00889305 
0.0877894 -0.00889305 9.90312 
9.95555 0.00101397 -0.064274 
0.00101397 9.94638 0.0387279 
-0.064274 0.0387279 9.94927 
9.95307 0.00497726 -0.0627139 
0.00497726 9.9443 0.0377592 
-0.0627139 0.0377592 9.95383 
9.94408 0.00110516 -0.0600248 
0.00110516 9.94455 0.0456407 
-0.0600248 0.0456407 9.96257 
9.95184 0.000170575 -0.0609684 
0.000170575 9.94541 0.0434233 
-0.0609684 0.0434233 9.95395 
10.0419 0.0643326 -0.0231573 
0.0643326 9.89998 -0.0316326 
-0.0231573 -0.0316326 10.2448 
10.141 0.0648593 -0.00288756 
0.0648593 9.85779 0.0133671 
-0.00288756 0.0133671 10.188 
10.0094 -0.0263616 0.0439451 
-0.0263616 10.0284 0.0664542 
0.0439451 0.0664542 10.1489 
10.1215 0.0749412 -0.00501288 
0.0749412 9.82846 0.0741077 
-0.00501288 0.0741077 10.2368 
9.90453 0.0228166 0.0274273 
0.0228166 9.87748 -0.0759817 
0.0274273 -0.0759817 9.91186 
9.90115 0.0131888 0.0186071 
0.0131888 9.88245 -0.083235 
0.0186071 -0.083235 9.91026 
9.88156 0.00224131 0.0303446 
0.00224131 9.90584 -0.074671 
0.0303446 -0.074671 9.90647 
9.89452 0.0137058 0.03327 
0.0137058 9.89758 -0.0897455 
0.03327 -0.0897455 9.90177 
9.9613 -0.00719125 0.0196984 
-0.00719125 9.93696 -0.0352545 
0.0196984 -0.0352545 9.93575 
9.94542 -0.0143105 0.0210024 
-0.0143105 9.97807 -0.0194518 
0.0210024 -0.0194518 9.91052 
9.94769 -0.00519466 0.0134854 
-0.00519466 9.9513 -0.0213001 
0.0134854 -0.0213001 9.93501 
9.92197 -0.0141146 0.019768 
-0.0141146 9.95574 -0.00690715 
0.019768 -0.00690715 9.9563 
10.0026 0.00597856 -0.00360675 
0.00597856 9.98156 0.00361938 
-0.00360675 0.00361938 9.99698 
9.9957 -0.00399532 -0.00113933 
-0.00399532 9.99767 0.00397721 
-0.00113933 0.00397721 9.98779 
10.0071 0.00530513 -0.0112549 
0.00530513 9.99545 0.00371379 
-0.0112549 0.00371379 9.97859 
9.98699 -0.0119077 -0.00545546 
-0.0119077 10.0031 0.00810303 
-0.00545546 0.00810303 9.99106 
9.99828 -0.0105809 0.057581 
-0.0105809 9.94691 0.0034515 
0.057581 0.0034515 9.86788 
9.97705 0.0154686 0.0852154 
0.0154686 9.98512 0.00952488 
0.0852154 0.00952488 9.85089 
9.98171 -0.00755825 0.0460527 
-0.00755825 9.95742 0.00919307 
0.0460527 0.00919307 9.87394 
9.99829 -0.0078119 0.0453277 
-0.0078119 9.97519 -0.0176135 
0.0453277 -0.0176135 9.83959 
9.97646 0.00236555 -0.0742688 
0.00236555 9.97788 0.0202891 
-0.0742688 0.0202891 9.97314 
9.97642 0.00259878 -0.0759834 
0.00259878 9.97719 0.0195539 
-0.0759834 0.0195539 9.97387 
9.97117 -4.22912e-05 -0.0654087 
-4.22912e-05 9.97012 0.0142987 
-0.0654087 0.0142987 9.98619 
9.98499 0.00360594 -0.0734464 
0.00360594 9.98346 0.0229722 
-0.0734464 0.0229722 9.95903 
9.98398 -0.00271946 -0.0670873 
-0.00271946 9.98213 -0.0388053 
-0.0670873 -0.0388053 9.98675 
9.99088 -0.00103552 -0.0603204 
-0.00103552 9.98037 -0.0466316 
-0.0603204 -0.0466316 9.98162 
9.98452 -0.00217635 -0.0621588 
-0.00217635 9.98196 -0.0441874 
-0.0621588 -0.0441874 9.9864 
9.98409 0.00122053 -0.0648575 
0.00122053 9.98482 -0.0386083 
-0.0648575 -0.0386083 9.98397 
10.0192 0.143119 0.351995 
0.143119 9.83242 -0.124959 
0.351995 -0.124959 11.7914 
10.9372 -0.0545726 0.0396817 
-0.0545726 10.7867 -0.0186311 
0.0396817 -0.0186311 9.91917 
10.5921 -0.0362305 -0.101269 
-0.0362305 10.7559 -0.0786787 
-0.101269 -0.0786787 10.2951 
10.7612 -0.238055 -0.245531 
-0.238055 10.6597 -0.891393 
-0.245531 -0.891393 10.2221 
10.1102 0.0174453 -0.0939418 
0.0174453 9.91888 0.0497649 
-0.0939418 0.0497649 10.5601 
10.3155 -0.087496 0.0159907 
-0.087496 10.2929 -0.0541037 
0.0159907 -0.0541037 9.98079 
10.1134 0.0597653 -0.00624417 
0.0597653 10.3177 -0.0199569 
-0.00624417 -0.0199569 10.1581 
10.1935 -0.0412084 0.198805 
-0.0412084 10.2268 0.130226 
0.198805 0.130226 10.1689 
9.99956 0.0281764 0.0130707 
0.0281764 9.99024 -0.0147663 
0.0130707 -0.0147663 10.0662 
10.0242 0.00194627 -0.0161881 
0.00194627 10.0101 -0.0262435 
-0.0161881 -0.0262435 10.0216 
10.0447 0.00484875 -0.0128459 
0.00484875 10.0254 0.00578322 
-0.0128459 0.00578322 9.98592 
10.0254 0.000680555 -0.0129291 
0.000680555 10.015 -0.00584987 
-0.0129291 -0.00584987 10.0156 
9.99534 -0.00414791 0.0238652 
-0.00414791 9.99669 -0.0114905 
0.0238652 -0.0114905 9.99316 
9.99461 -0.00126622 0.0218404 
-0.00126622 9.98656 -0.0130159 
0.0218404 -0.0130159 10.004 
9.99709 -0.00183311 0.0260302 
-0.00183311 9.99352 -0.0118768 
0.0260302 -0.0118768 9.99458 
9.99825 -0.000590405 0.026769 
-0.000590405 9.99776 -0.0119343 
0.026769 -0.0119343 9.98918 
9.99815 0.00887281 0.0128571 
0.00887281 10.0068 -0.0137234 
0.0128571 -0.0137234 10.0324 
9.99588 0.00163603 0.00410101 
0.00163603 10.0269 -0.00459727 
0.00410101 -0.00459727 10.0146 
9.99612 0.0159033 0.0130754 
0.0159033 10.0226 -0.00709682 
0.0130754 -0.00709682 10.0187 
10.0297 -0.00304349 -0.0133946 
-0.00304349 10.0282 -0.0151034 
-0.0133946 -0.0151034 9.9794 
9.95115 0.00201677 -0.0333047 
0.00201677 9.95819 0.0650984 
-0.0333047 0.0650984 9.95485 
9.95109 0.00476566 -0.0292094 
0.00476566 9.95738 0.0718961 
-0.0292094 0.0718961 9.95572 
9.94827 0.00293371 -0.036371 
0.00293371 9.96256 0.0680567 
-0.036371 0.0680567 9.95336 
9.95978 -0.00124094 -0.0393675 
-0.00124094 9.95695 0.0660729 
-0.0393675 0.0660729 9.94746 
9.932 -0.000286842 0.0384082 
-0.000286842 9.89783 0.0475402 
0.0384082 0.0475402 9.97161 
9.92664 0.0074977 0.0513246 
0.0074977 9.91926 0.0476773 
0.0513246 0.0476773 9.95553 
9.95131 -0.000787612 0.0537502 
-0.000787612 9.91429 0.0299111 
0.0537502 0.0299111 9.93583 
9.91613 0.00366524 0.0581387 
0.00366524 9.92948 0.037847 
0.0581387 0.037847 9.95583 
9.94627 -0.00323708 0.0794222 
-0.00323708 9.94422 0.0251687 
0.0794222 0.0251687 9.93142 
9.94517 -0.00255058 0.0786517 
-0.00255058 9.93968 0.0227894 
0.0786517 0.0227894 9.93705 
9.93283 -0.00664925 0.0811004 
-0.00664925 9.9415 0.0281624 
0.0811004 0.0281624 9.94758 
9.94429 -0.000251996 0.0752088 
-0.000251996 9.93965 0.0214411 
0.0752088 0.0214411 9.93796 
9.28996 1.65933 -0.0579975 
1.65933 7.17866 0.705065 
-0.0579975 0.705065 3.80256 
10.4699 -1.31884 0.296559 
-1.31884 7.72849 0.932234 
0.296559 0.932234 2.07275 
9.14178 -0.631185 0.614143 
-0.631185 7.43188 -0.108474 
0.614143 -0.108474 3.69751 
9.53417 -1.4081 1.05152 
-1.4081 6.6239 0.913242 
1.05152 0.913242 4.1131 
2.39412 0.627332 -1.1699 
0.627332 4.69647 1.49118 
-1.1699 1.49118 9.30682 
6.79107 -0.9179 1.33066 
-0.9179 9.64049 -3.03337 
1.33066 -3.03337 -0.0341347 
7.96325 -4.42162 -0.344178 
-4.42162 14.1939 -5.49409 
-0.344178 -5.49409 -5.75978 
6.8543 0.909546 2.57146 
0.909546 1.86989 -5.84425 
2.57146 -5.84425 7.67322 
9.21453 -1.11166 1.65201 
-1.11166 7.04453 0.236837 
1.65201 0.236837 -1.79993 
5.90762 1.90783 -0.0333084 
1.90783 2.44594 0.477015 
-0.0333084 0.477015 6.10557 
11.9545 -4.04081 2.55315 
-4.04081 5.28977 2.01804 
2.55315 2.01804 -2.78512 
4.0348 -1.1997 4.10905 
-1.1997 6.68051 -0.718706 
4.10905 -0.718706 3.74381 
9.98087 -0.000933701 0.0106153 
-0.000933701 9.98206 -0.0696484 
0.0106153 -0.0696484 9.99085 
9.99006 0.0021201 0.0144397 
0.0021201 9.98246 -0.0788169 
0.0144397 -0.0788169 9.98127 
9.98779 0.0024946 0.0150321 
0.0024946 9.98261 -0.0730793 
0.0150321 -0.0730793 9.98339 
9.98181 0.000527913 0.0190771 
0.000527913 9.99877 -0.0749236 
0.0190771 -0.0749236 9.97321 
9.97805 -0.00430743 -0.0229944 
-0.00430743 9.98188 0.0464236 
-0.0229944 0.0464236 9.98172 
9.98219 -0.00737767 -0.0252306 
-0.00737767 9.98745 0.0422057 
-0.0252306 0.0422057 9.97201 
9.98176 0.000707039 -0.0269519 
0.000707039 9.98119 0.045277 
-0.0269519 0.045277 9.9787 
9.98103 0.00189934 -0.0259538 
0.00189934 9.98207 0.0426796 
-0.0259538 0.0426796 9.97856 
9.98854 -0.00719729 -0.00748233 
-0.00719729 9.96576 0.00730951 
-0.00748233 0.00730951 9.96422 
9.98944 -0.00266553 -0.010242 
-0.00266553 9.95852 0.00185961 
-0.010242 0.00185961 9.97055 
9.9659 0.0186127 0.00746931 
0.0186127 9.9601 -0.00668432 
0.00746931 -0.00668432 9.99251 
9.97587 0.00399851 -0.0128802 
0.00399851 9.95187 0.00655182 
-0.0128802 0.00655182 9.99077 
10.4196 -0.146777 0.181043 
-0.146777 10.5221 -0.0502694 
0.181043 -0.0502694 11.0365 
10.5721 0.0363893 0.0396681 
0.0363893 10.7514 -0.0914474 
0.0396681 -0.0914474 10.6547 
10.7105 -0.00327868 0.0736228 
-0.00327868 10.7986 -0.143368 
0.0736228 -0.143368 10.469 
10.5761 -0.014381 -0.0484749 
-0.014381 10.7512 0.150716 
-0.0484749 0.150716 10.6509 
9.9073 0.0133736 0.0631212 
0.0133736 9.90399 -0.0339293 
0.0631212 -0.0339293 9.91537 
9.89683 0.0116315 0.0656846 
0.0116315 9.91052 -0.0405869 
0.0656846 -0.0405869 9.91931 
9.90932 0.0128488 0.059314 
0.0128488 9.90096 -0.0376468 
0.059314 -0.0376468 9.91638 
9.89913 -0.00394473 0.0761677 
-0.00394473 9.90289 -0.0260614 
0.0761677 -0.0260614 9.92463 
9.99135 -0.000532794 0.000796925 
-0.000532794 9.99071 0.000938648 
0.000796925 0.000938648 9.99246 
9.98969 -0.000214332 0.00229111 
-0.000214332 9.98746 -0.0011663 
0.00229111 -0.0011663 9.99737 
9.98554 0.00156088 -0.00164561 
0.00156088 9.98658 -0.00161187 
-0.00164561 -0.00161187 10.0024 
9.99039 -0.000554941 0.00235274 
-0.000554941 9.99026 0.00232862 
0.00235274 0.00232862 9.99386 
9.92719 -0.0139829 0.00356707 
-0.0139829 9.89696 0.0321927 
0.00356707 0.0321927 9.94813 
9.897 -0.00600499 -0.0226367 
-0.00600499 9.9367 0.0208385 
-0.0226367 0.0208385 9.93859 
9.96041 -0.00496678 0.018307 
-0.00496678 9.84034 0.0695286 
0.018307 0.0695286 9.97152 
9.91456 -0.029581 0.0288686 
-0.029581 9.87278 0.021899 
0.0288686 0.021899 9.98495 
10.0166 -0.00267098 -0.0121505 
-0.00267098 9.98488 -0.0124607 
-0.0121505 -0.0124607 9.99592 
9.99114 -0.00517103 0.00816984 
-0.00517103 10.0169 0.0280848 
0.00816984 0.0280848 9.98938 
10.0003 0.00762964 -0.00788673 
0.00762964 9.97479 0.0275585 
-0.00788673 0.0275585 10.0223 
9.99642 -0.00357283 -0.0118383 
-0.00357283 9.98102 0.0225034 
-0.0118383 0.0225034 10.0199 
9.52347 -0.840284 0.773692 
-0.840284 10.1808 0.68248 
0.773692 0.68248 11.1771 
10.4641 -0.53343 0.906628 
-0.53343 11.4109 -0.137735 
0.906628 -0.137735 9.00635 
8.8806 -0.912542 1.22574 
-0.912542 10.3655 0.638064 
1.22574 0.638064 11.6353 
9.63302 -0.65669 0.372393 
-0.65669 9.83327 0.315496 
0.372393 0.315496 11.4151 
9.88573 0.0106722 0.0327913 
0.0106722 9.90897 0.0144122 
0.0327913 0.0144122 10.102 
9.89586 0.00850198 0.0433852 
0.00850198 9.93082 0.0253244 
0.0433852 0.0253244 10.07 
9.91245 0.0234208 0.041437 
0.0234208 9.89688 0.0318138 
0.041437 0.0318138 10.0874 
9.92309 0.0114782 0.0302549 
0.0114782 9.88807 0.0124045 
0.0302549 0.0124045 10.0855 
2.83444 -0.338916 -0.527152 
-0.338916 5.97591 0.708297 
-0.527152 0.708297 4.4987 
5.28607 -0.314083 0.390595 
-0.314083 9.26185 1.02053 
0.390595 1.02053 -1.23885 
5.25901 -0.953947 2.04395 
-0.953947 9.16303 1.24276 
2.04395 1.24276 -1.11298 
5.72887 -1.87997 -0.15274 
-1.87997 6.04469 4.30515 
-0.15274 4.30515 1.5355 
10.0935 -0.00663471 0.0204724 
-0.00663471 10.0577 -0.00679707 
0.0204724 -0.00679707 10.1288 
10.0756 0.00600995 0.0132703 
0.00600995 10.0909 -0.00573299 
0.0132703 -0.00573299 10.1135 
10.0573 0.0204771 -0.00624738 
0.0204771 10.0858 -0.0116033 
-0.00624738 -0.0116033 10.137 
10.1005 -0.0214735 -0.0248955 
-0.0214735 10.069 -0.00556514 
-0.0248955 -0.00556514 10.1106 
9.99753 0.00711846 -0.000306531 
0.00711846 9.989 0.00120087 
-0.000306531 0.00120087 9.99214 
9.99239 0.0049182 0.00125049 
0.0049182 9.98843 -0.00497933 
0.00125049 -0.00497933 9.99785 
9.98816 -0.00399554 -0.00361718 
-0.00399554 10.0192 0.0143669 
-0.00361718 0.0143669 9.97134 
9.99802 0.00472172 0.000777255 
0.00472172 9.98611 0.00372477 
0.000777255 0.00372477 9.99454 
9.90006 -0.00127171 0.0343618 
-0.00127171 9.92933 0.0434263 
0.0343618 0.0434263 9.89917 
9.89735 -0.0318108 0.0213705 
-0.0318108 9.87741 0.0161401 
0.0213705 0.0161401 9.95379 
9.89977 0.0213557 0.0465011 
0.0213557 9.92591 0.0441714 
0.0465011 0.0441714 9.90288 
9.87208 -0.025473 0.0248817 
-0.025473 9.902 0.0672921 
0.0248817 0.0672921 9.95448 
9.9311 3.71336e-05 -0.0720721 
3.71336e-05 9.9064 0.0222803 
-0.0720721 0.0222803 9.9054 
9.9139 -0.00324173 -0.075659 
-0.00324173 9.89597 -0.0727233 
-0.075659 -0.0727233 9.93302 
9.89793 -0.0282105 -0.0149229 
-0.0282105 9.90619 -0.0625345 
-0.0149229 -0.0625345 9.93877 
9.91543 -0.0283006 -0.0877779 
-0.0283006 9.90394 -0.0408986 
-0.0877779 -0.0408986 9.92352 
9.86979 -0.0259489 0.0753651 
-0.0259489 9.89037 0.0234006 
0.0753651 0.0234006 9.92835 
9.89727 -0.010258 0.083966 
-0.010258 9.88492 0.0279522 
0.083966 0.0279522 9.90633 
9.91688 0.000748115 0.0772533 
0.000748115 9.89251 0.0172987 
0.0772533 0.0172987 9.87913 
9.88909 -0.00960602 0.0953569 
-0.00960602 9.88809 0.0411218 
0.0953569 0.0411218 9.91133 
9.89685 -0.00119167 -0.0102122 
-0.00119167 9.89559 0.0286284 
-0.0102122 0.0286284 9.99821 
9.89467 -0.0134084 -0.00722426 
-0.0134084 9.90389 0.0322665 
-0.00722426 0.0322665 9.9921 
9.89837 -0.0317103 -0.0342064 
-0.0317103 9.90191 0.0405154 
-0.0342064 0.0405154 9.99036 
9.89954 -0.020075 -0.000737407 
-0.020075 9.94014 0.0147815 
-0.000737407 0.0147815 9.95097 
9.35925 0.253218 0.963876 
0.253218 10.1499 0.283574 
0.963876 0.283574 10.9363 
10.4498 0.347325 0.682709 
0.347325 9.96887 -0.562647 
0.682709 -0.562647 10.0267 
9.57892 0.268019 0.42646 
0.268019 10.3638 -0.105813 
0.42646 -0.105813 10.5026 
9.58642 -0.0651625 0.754762 
-0.0651625 10.1971 0.439023 
0.754762 0.439023 10.6618 
9.99411 -0.00221099 0.0195897 
-0.00221099 9.99736 -0.0589998 
0.0195897 -0.0589998 9.99409 
9.9949 0.000307971 0.0196568 
0.000307971 10.0016 -0.056478 
0.0196568 -0.056478 9.9891 
9.98935 -0.00240154 0.0149658 
-0.00240154 9.9871 -0.0567368 
0.0149658 -0.0567368 10.0091 
9.99976 0.0015245 0.0194518 
0.0015245 9.99856 -0.0620994 
0.0194518 -0.0620994 9.98724 
9.99614 -0.00260141 -0.0562266 
-0.00260141 9.99188 0.0215467 
-0.0562266 0.0215467 9.995 
9.98855 0.000202389 -0.0528043 
0.000202389 9.98785 0.0182438 
-0.0528043 0.0182438 10.0066 
9.99758 -8.17938e-05 -0.0549892 
-8.17938e-05 9.99419 0.020643 
-0.0549892 0.020643 9.99125 
9.99645 0.000293641 -0.0585672 
0.000293641 9.99749 0.0206418 
-0.0585672 0.0206418 9.98909 
9.83494 -0.0217686 0.0800339 
-0.0217686 9.91603 0.0442773 
0.0800339 0.0442773 9.91685 
9.89415 -0.0361109 0.0832291 
-0.0361109 9.88976 0.0453971 
0.0832291 0.0453971 9.88391 
9.85961 0.0088757 0.0839162 
0.0088757 9.86447 -0.00418308 
0.0839162 -0.00418308 9.94375 
9.87845 -0.0643736 0.13967 
-0.0643736 9.8085 0.0453163 
0.13967 0.0453163 9.98087 
9.89825 0.0221547 0.0687875 
0.0221547 9.90885 -0.0370828 
0.0687875 -0.0370828 9.91107 
9.89725 0.00783429 0.0799182 
0.00783429 9.90648 -0.0297794 
0.0799182 -0.0297794 9.91444 
9.90796 0.00342419 0.0718709 
0.00342419 9.89753 -0.010302 
0.0718709 -0.010302 9.91268 
9.896 0.0107409 0.0848218 
0.0107409 9.91258 -0.0264215 
0.0848218 -0.0264215 9.90958 
9.94758 -0.00718538 0.00456089 
-0.00718538 9.94833 -0.0103348 
0.00456089 -0.0103348 9.99803 
9.95119 0.00421697 0.00297038 
0.00421697 9.94028 -0.00103389 
0.00297038 -0.00103389 10.0025 
9.94507 -0.00328622 0.00180387 
-0.00328622 9.94614 -0.00100423 
0.00180387 -0.00100423 10.0027 
9.94601 -0.000149817 0.00415549 
-0.000149817 9.94768 0.00424162 
0.00415549 0.00424162 10.0002 
9.90441 -0.0493487 0.0170973 
-0.0493487 9.86564 0.021631 
0.0170973 0.021631 9.93018 
9.88632 0.016838 0.0260052 
0.016838 9.82918 0.0394236 
0.0260052 0.0394236 9.98473 
9.87746 -0.0123639 0.0433125 
-0.0123639 9.92249 0.0651794 
0.0433125 0.0651794 9.90029 
9.84741 -0.00727134 0.0624075 
-0.00727134 9.85777 0.0557488 
0.0624075 0.0557488 9.99506 
9.9896 -0.00250958 -0.0257392 
-0.00250958 9.98837 0.0553032 
-0.0257392 0.0553032 10.0036 
9.9946 -0.000720317 -0.0283668 
-0.000720317 9.9945 0.0577155 
-0.0283668 0.0577155 9.99246 
9.995 -0.000982111 -0.0291871 
-0.000982111 9.99052 0.0580691 
-0.0291871 0.0580691 9.99604 
9.99532 0.000332888 -0.029911 
0.000332888 9.99626 0.0580174 
-0.029911 0.0580174 9.98998 
10.1849 -0.0504586 0.0163472 
-0.0504586 10.1473 -0.0300756 
0.0163472 -0.0300756 10.1363 
10.1156 -0.00468896 0.0149223 
-0.00468896 10.3095 -0.0535101 
0.0149223 -0.0535101 10.0434 
10.0926 0.0608137 0.0136963 
0.0608137 10.0927 0.0165506 
0.0136963 0.0165506 10.2832 
10.1163 -0.00456708 -0.0464748 
-0.00456708 10.1874 -0.0301994 
-0.0464748 -0.0301994 10.1647 
9.99346 -0.00046565 -0.0649926 
-0.00046565 9.99257 -0.0322293 
-0.0649926 -0.0322293 9.99744 
9.98643 -0.00216435 -0.0652948 
-0.00216435 9.99304 -0.0279152 
-0.0652948 -0.0279152 10.004 
9.99712 -0.00117983 -0.0671684 
-0.00117983 9.99441 -0.0312902 
-0.0671684 -0.0312902 9.99194 
9.99798 0.00101372 -0.0652742 
0.00101372 9.99492 -0.0321703 
-0.0652742 -0.0321703 9.99057 
9.93597 -0.00227768 0.040689 
-0.00227768 9.93468 0.0576009 
0.040689 0.0576009 9.94988 
9.93798 0.00329791 0.0436342 
0.00329791 9.93545 0.0576137 
0.0436342 0.0576137 9.9471 
9.93522 0.00154678 0.0497167 
0.00154678 9.93898 0.0517355 
0.0497167 0.0517355 9.94632 
9.93612 0.00254575 0.0420652 
0.00254575 9.93686 0.0546485 
0.0420652 0.0546485 9.94755 
9.98079 -0.00669787 -0.0220345 
-0.00669787 9.95028 0.0256729 
-0.0220345 0.0256729 9.94297 
9.96517 -0.00237951 -0.0235088 
-0.00237951 9.97608 0.00996927 
-0.0235088 0.00996927 9.93279 
9.97327 0.00130406 -0.0185064 
0.00130406 9.956 0.00982016 
-0.0185064 0.00982016 9.94477 
9.94989 -0.00250377 -0.0193158 
-0.00250377 9.96498 0.00636507 
-0.0193158 0.00636507 9.95916 
9.94619 0.00807105 -0.0464052 
0.00807105 9.94526 -0.0451396 
-0.0464052 -0.0451396 9.95744 
9.94783 0.0050459 -0.0476813 
0.0050459 9.94512 -0.0425434 
-0.0476813 -0.0425434 9.95595 
9.94167 0.00565096 -0.0515097 
0.00565096 9.94791 -0.0420753 
-0.0515097 -0.0420753 9.9593 
9.94849 0.00181352 -0.0491515 
0.00181352 9.94076 -0.0464419 
-0.0491515 -0.0464419 9.95964 
9.98268 0.00320014 -0.0536868 
0.00320014 9.98453 -0.0561128 
-0.0536868 -0.0561128 9.98562 
9.98614 0.00158207 -0.054936 
0.00158207 9.98349 -0.0572068 
-0.054936 -0.0572068 9.9832 
9.98343 -0.0026892 -0.0548918 
-0.0026892 9.98645 -0.0534969 
-0.0548918 -0.0534969 9.98295 
9.97637 -0.0075482 -0.0540647 
-0.0075482 9.98472 -0.0550052 
-0.0540647 -0.0550052 9.99174 
9.99175 0.000183918 -0.0010852 
0.000183918 9.99706 -0.0806706 
-0.0010852 -0.0806706 9.99015 
9.99678 -0.00111953 -0.00023867 
-0.00111953 9.99711 -0.085164 
-0.00023867 -0.085164 9.98506 
9.9812 0.000709549 -0.00126437 
0.000709549 9.98189 -0.0810662 
-0.00126437 -0.0810662 10.0159 
9.99293 -0.00214804 -0.00202881 
-0.00214804 9.99753 -0.0797421 
-0.00202881 -0.0797421 9.9885 
10.1493 1.33291 0.990121 
1.33291 9.29381 0.0608468 
0.990121 0.0608468 10.9456 
10.423 0.710837 0.642873 
0.710837 9.24273 -1.21448 
0.642873 -1.21448 10.7229 
9.44639 0.483834 0.512901 
0.483834 10.6047 -0.493432 
0.512901 -0.493432 10.3376 
9.8721 0.909559 0.742689 
0.909559 9.83908 -0.450998 
0.742689 -0.450998 10.6775 
9.9895 0.00190383 0.0058272 
0.00190383 9.99166 -0.00423379 
0.0058272 -0.00423379 9.99459 
9.98798 0.000947635 0.0026055 
0.000947635 9.98487 -0.00753129 
0.0026055 -0.00753129 10.0029 
9.9911 -0.000856617 0.00444788 
-0.000856617 9.98981 -0.00340701 
0.00444788 -0.00340701 9.99484 
9.99296 -0.00212385 0.00621357 
-0.00212385 9.99063 -0.00205313 
0.00621357 -0.00205313 9.99215 
9.9831 -0.00101319 -0.000633055 
-0.00101319 9.98324 0.0782967 
-0.000633055 0.0782967 10.0135 
9.99623 0.000436416 -0.00153138 
0.000436416 9.99687 0.082002 
-0.00153138 0.082002 9.98672 
9.99203 -0.00244956 -0.000181354 
-0.00244956 9.99663 0.0776283 
-0.000181354 0.0776283 9.99116 
9.99163 0.000468214 -0.00108759 
0.000468214 9.99782 0.0772935 
-0.00108759 0.0772935 9.99038 
9.97997 0.000602524 -0.0785503 
0.000602524 9.98065 -0.000142657 
-0.0785503 -0.000142657 10.018 
9.99683 0.000675343 -0.083088 
0.000675343 9.99748 -0.000191617 
-0.083088 -0.000191617 9.98429 
9.99589 0.000655076 -0.0772498 
0.000655076 9.99426 0.000330683 
-0.0772498 0.000330683 9.98845 
9.99725 -0.00209096 -0.0774303 
-0.00209096 9.99095 -0.000795025 
-0.0774303 -0.000795025 9.99039 
10.8004 -0.00195172 0.0297582 
-0.00195172 10.837 -0.124179 
0.0297582 -0.124179 10.2963 
9.90912 -0.063595 -0.10827 
-0.063595 10.1447 0.170128 
-0.10827 0.170128 11.8798 
10.8861 -0.142581 0.0421569 
-0.142581 10.9111 0.053113 
0.0421569 0.053113 10.1364 
10.5513 0.185591 0.792043 
0.185591 10.9093 -0.329468 
0.792043 -0.329468 10.4731 
9.92303 -0.0431578 -0.0118237 
-0.0431578 9.85621 -0.0353882 
-0.0118237 -0.0353882 9.98881 
9.92301 -0.0330199 -0.0195469 
-0.0330199 9.87732 -0.0583278 
-0.0195469 -0.0583278 9.96773 
9.87723 0.0157961 -0.0343373 
0.0157961 9.96285 -0.0131243 
-0.0343373 -0.0131243 9.92797 
9.92787 0.00868039 -0.0034366 
0.00868039 9.86971 -0.0470928 
-0.0034366 -0.0470928 9.97047 
9.98113 -0.00095181 -0.0256251 
-0.00095181 9.98433 0.00917908 
-0.0256251 0.00917908 9.97998 
9.98357 -0.00243946 -0.0235611 
-0.00243946 9.98333 0.00692102 
-0.0235611 0.00692102 9.97854 
9.98477 0.000356107 -0.0216475 
0.000356107 9.97446 0.0112655 
-0.0216475 0.0112655 9.98621 
9.98769 -0.00146171 -0.0199776 
-0.00146171 9.97896 0.0116761 
-0.0199776 0.0116761 9.97879 
10.0999 0.0137925 0.0283946 
0.0137925 10.0942 0.0389162 
0.0283946 0.0389162 9.99566 
10.0221 -0.053072 -0.00737533 
-0.053072 10.0498 -0.0078332 
-0.00737533 -0.0078332 10.1178 
10.0252 0.0105911 -0.024587 
0.0105911 10.0292 0.0122265 
-0.024587 0.0122265 10.1355 
10.0718 0.0510064 -0.023024 
0.0510064 10.1021 -0.0261139 
-0.023024 -0.0261139 10.0159 
10.1948 0.000568931 -0.000166612 
0.000568931 10.4094 -0.0186884 
-0.000166612 -0.0186884 10.1434 
10.1844 0.0617637 0.00536963 
0.0617637 10.2214 -0.0572697 
0.00536963 -0.0572697 10.3419 
10.2779 -0.0312426 -0.00386916 
-0.0312426 10.2657 -0.00696161 
-0.00386916 -0.00696161 10.2041 
10.1944 0.00633081 0.0514328 
0.00633081 10.2957 -0.0336574 
0.0514328 -0.0336574 10.2576 
10.0303 0.0577505 0.0384951 
0.0577505 9.86729 -0.0270711 
0.0384951 -0.0270711 9.88827 
9.86294 -0.0206946 -0.0513728 
-0.0206946 9.93413 -0.0382826 
-0.0513728 -0.0382826 9.9888 
9.80991 -0.0948942 -0.01004 
-0.0948942 9.9711 -0.0576671 
-0.01004 -0.0576671 10.0049 
9.84834 0.0157639 -0.0706154 
0.0157639 9.97025 -0.0376915 
-0.0706154 -0.0376915 9.96728 
9.91566 0.0128966 0.0143074 
0.0128966 9.88003 -0.0833092 
0.0143074 -0.0833092 9.88771 
9.89052 0.000113026 -0.00424837 
0.000113026 9.90826 -0.0964455 
-0.00424837 -0.0964455 9.88462 
9.89132 -0.00241727 0.010426 
-0.00241727 9.89281 -0.0869797 
0.010426 -0.0869797 9.89928 
9.90084 -0.00258571 0.0113283 
-0.00258571 9.88278 -0.0897452 
0.0113283 -0.0897452 9.89979 
9.91258 -0.00150419 -0.12649 
-0.00150419 9.90423 -0.12234 
-0.12649 -0.12234 9.9689 
9.91732 -0.0144485 -0.090146 
-0.0144485 9.91272 -0.0669148 
-0.090146 -0.0669148 9.95567 
9.95302 -0.00617682 -0.114951 
-0.00617682 9.98819 -0.0808988 
-0.114951 -0.0808988 9.8445 
9.91129 -0.029183 -0.0820413 
-0.029183 9.93674 -0.0754504 
-0.0820413 -0.0754504 9.93768 
11.4246 0.167389 -0.206394 
0.167389 10.7381 0.26688 
-0.206394 0.26688 11.57 
11.0278 0.259706 0.204508 
0.259706 10.2133 0.0528743 
0.204508 0.0528743 12.4916 
10.8849 0.185601 -0.0390217 
0.185601 10.2394 0.486613 
-0.0390217 0.486613 12.6083 
11.1295 0.284181 -0.501738 
0.284181 10.7227 -0.0311617 
-0.501738 -0.0311617 11.8805 
9.99589 -0.00193337 0.0806173 
-0.00193337 9.99503 8.89359e-05 
0.0806173 8.89359e-05 9.9876 
9.99399 0.00120386 0.0789748 
0.00120386 9.99028 0.00128511 
0.0789748 0.00128511 9.99425 
9.98408 0.000108054 0.0778785 
0.000108054 9.98378 0.000627164 
0.0778785 0.000627164 10.0107 
9.997 -0.000836252 0.0762782 
-0.000836252 9.9917 0.00131537 
0.0762782 0.00131537 9.98982 
9.98699 0.0275236 4.5165e-05 
0.0275236 10.0203 0.000152883 
4.5165e-05 0.000152883 10.024 
10.0194 0.00059911 0.00281863 
0.00059911 10.0113 0.0020253 
0.00281863 0.0020253 10.0005 
10.0166 0.00515618 -0.00497628 
0.00515618 10.018 -0.00370392 
-0.00497628 -0.00370392 9.9967 
10.0302 -0.00733884 -0.00791717 
-0.00733884 9.99878 0.00393636 
-0.00791717 0.00393636 10.0023 
9.95724 -0.00193043 0.0552179 
-0.00193043 9.94191 0.0507329 
0.0552179 0.0507329 9.94735 
9.94945 -0.00255927 0.0559598 
-0.00255927 9.94185 0.0524197 
0.0559598 0.0524197 9.9552 
9.94536 0.000136971 0.0580863 
0.000136971 9.94427 0.0466424 
0.0580863 0.0466424 9.95687 
9.94571 0.00102208 0.0568485 
0.00102208 9.9465 0.0469512 
0.0568485 0.0469512 9.95429 
9.88903 0.000613313 -0.059465 
0.000613313 9.87319 -0.0839564 
-0.059465 -0.0839564 9.9509 
9.90531 -0.00554122 -0.050372 
-0.00554122 9.86104 -0.0855407 
-0.050372 -0.0855407 9.94678 
9.90278 -0.0046822 -0.0534961 
-0.0046822 9.8548 -0.0942677 
-0.0534961 -0.0942677 9.95554 
9.88231 -0.0111471 -0.0728055 
-0.0111471 9.85852 -0.0505904 
-0.0728055 -0.0505904 9.97229 
9.91012 -0.0024206 0.0186416 
-0.0024206 9.9056 0.0896045 
0.0186416 0.0896045 9.92688 
9.91942 -0.00429064 0.00355131 
-0.00429064 9.90789 0.085106 
0.00355131 0.085106 9.9153 
9.91825 0.0010123 0.00982613 
0.0010123 9.93286 0.0839243 
0.00982613 0.0839243 9.8915 
9.91776 -0.00789423 0.00509573 
-0.00789423 9.90928 0.0790397 
0.00509573 0.0790397 9.91556 
9.95173 -0.0102312 -0.037152 
-0.0102312 9.94087 0.0471354 
-0.037152 0.0471354 9.95847 
9.94628 -0.00572404 -0.0365129 
-0.00572404 9.95274 0.0432212 
-0.0365129 0.0432212 9.95205 
9.95248 -0.0017886 -0.0377436 
-0.0017886 9.94794 0.0436274 
-0.0377436 0.0436274 9.95065 
9.9462 -0.00519838 -0.0395026 
-0.00519838 9.94288 0.0466029 
-0.0395026 0.0466029 9.96198 
9.99314 0.00399456 -0.0223602 
0.00399456 9.99968 -0.0475847 
-0.0223602 -0.0475847 9.99428 
9.98801 -0.000453425 -0.0187501 
-0.000453425 9.99432 -0.0488824 
-0.0187501 -0.0488824 10.0048 
9.99123 0.00128307 -0.0234109 
0.00128307 10.0033 -0.0470843 
-0.0234109 -0.0470843 9.99254 
9.99417 -0.00056772 -0.0252692 
-0.00056772 10.0018 -0.0445844 
-0.0252692 -0.0445844 9.99108 
9.98561 -0.00337812 0.0317276 
-0.00337812 9.98198 -0.0297353 
0.0317276 -0.0297353 9.988 
9.98374 -0.00374521 0.0356863 
-0.00374521 9.98687 -0.027139 
0.0356863 -0.027139 9.98496 
9.98189 -0.00223819 0.0346185 
-0.00223819 9.98496 -0.0250929 
0.0346185 -0.0250929 9.98873 
9.98455 -0.00454921 0.0307462 
-0.00454921 9.98637 -0.0289373 
0.0307462 -0.0289373 9.98467 
9.93312 0.00835234 -0.0564717 
0.00835234 9.92729 -0.0701017 
-0.0564717 -0.0701017 9.8977 
9.93748 -0.012749 -0.0589242 
-0.012749 9.90447 -0.0525674 
-0.0589242 -0.0525674 9.91617 
9.92542 0.000419715 -0.0529956 
0.000419715 9.92197 -0.0351786 
-0.0529956 -0.0351786 9.91073 
9.93879 -0.00844758 -0.0647084 
-0.00844758 9.91133 -0.0457645 
-0.0647084 -0.0457645 9.90799 
4.69885 -0.189675 0.361718 
-0.189675 7.32289 -0.128524 
0.361718 -0.128524 1.64775 
4.93509 0.259056 -0.343603 
0.259056 7.2216 -0.122001 
-0.343603 -0.122001 1.5128 
5.55826 -0.120343 0.0743116 
-0.120343 8.56962 -0.781012 
0.0743116 -0.781012 -0.458384 
3.76204 -0.0750617 0.0172923 
-0.0750617 6.93826 0.150989 
0.0172923 0.150989 2.96919 
9.93559 -0.0209505 -0.0132881 
-0.0209505 9.92646 -0.012669 
-0.0132881 -0.012669 9.9829 
9.92069 -0.0414246 -0.0294328 
-0.0414246 9.93368 -0.0381526 
-0.0294328 -0.0381526 9.99058 
9.96068 0.0196744 -0.0186097 
0.0196744 9.92423 0.00473183 
-0.0186097 0.00473183 9.96004 
9.95334 -0.0139165 0.00400426 
-0.0139165 9.89279 -0.0174348 
0.00400426 -0.0174348 9.99882 
9.89525 -9.32953e-05 -0.0249864 
-9.32953e-05 9.94576 -0.0446019 
-0.0249864 -0.0446019 9.90617 
9.88398 -0.0088229 -0.0409416 
-0.0088229 9.93093 -0.053149 
-0.0409416 -0.053149 9.93228 
9.9074 -0.0297652 -0.0340343 
-0.0297652 9.88489 -0.0418374 
-0.0340343 -0.0418374 9.95489 
9.88922 -0.00358723 -0.0467408 
-0.00358723 9.91765 -0.0710423 
-0.0467408 -0.0710423 9.94032 
9.96618 -0.00261473 -0.0527659 
-0.00261473 9.96527 0.0526032 
-0.0527659 0.0526032 9.96801 
9.95168 0.00870602 -0.0541109 
0.00870602 9.96128 0.0538875 
-0.0541109 0.0538875 9.9865 
9.97496 -0.00592132 -0.0583486 
-0.00592132 9.96741 0.0522099 
-0.0583486 0.0522099 9.9571 
9.97214 0.00140218 -0.0403583 
0.00140218 9.96112 0.0512972 
-0.0403583 0.0512972 9.9662 
9.9525 0.00513874 -0.0387987 
0.00513874 9.94961 0.0718377 
-0.0387987 0.0718377 9.98582 
9.96474 -0.00495499 -0.0367493 
-0.00495499 9.97418 0.0714053 
-0.0367493 0.0714053 9.949 
9.96182 0.00196505 -0.0289885 
0.00196505 9.96347 0.0701998 
-0.0289885 0.0701998 9.96264 
9.9635 -0.00100021 -0.0227051 
-0.00100021 9.96027 0.0593944 
-0.0227051 0.0593944 9.96415 
9.94188 -0.026024 0.0112141 
-0.026024 9.94849 0.0529515 
0.0112141 0.0529515 9.98669 
9.93969 0.00744278 0.00743516 
0.00744278 9.92383 0.03677 
0.00743516 0.03677 10.0135 
9.93872 -0.0230063 0.0172259 
-0.0230063 9.93162 0.0590155 
0.0172259 0.0590155 10.0067 
9.94585 7.59956e-05 -0.00241189 
7.59956e-05 9.92907 0.0621442 
-0.00241189 0.0621442 10.0021 
10.0231 -0.0172838 -0.00259063 
-0.0172838 10.0197 0.00918217 
-0.00259063 0.00918217 9.9946 
10.0122 -0.0126401 0.0109028 
-0.0126401 10.0314 -0.00976362 
0.0109028 -0.00976362 9.99375 
9.99204 0.0620212 0.0108229 
0.0620212 9.99992 0.0140668 
0.0108229 0.0140668 10.0454 
10.0225 -0.0156897 0.00814485 
-0.0156897 10.0188 -0.00882885 
0.00814485 -0.00882885 9.9961 
9.9844 -0.00270042 -0.0533267 
-0.00270042 9.98572 0.0566466 
-0.0533267 0.0566466 9.98876 
9.97912 0.00533 -0.053653 
0.00533 9.98711 0.0543778 
-0.053653 0.0543778 9.99264 
9.98421 0.00399726 -0.0534411 
0.00399726 9.98823 0.0526178 
-0.0534411 0.0526178 9.98643 
9.98811 -0.00131431 -0.0542871 
-0.00131431 9.98461 0.0573388 
-0.0542871 0.0573388 9.98616 
9.9236 0.0150107 0.0281033 
0.0150107 9.94476 0.033826 
0.0281033 0.033826 9.92898 
9.93217 0.0227716 0.025765 
0.0227716 9.95737 0.0381246 
0.025765 0.0381246 9.90779 
9.9239 0.0180354 0.0321236 
0.0180354 9.9332 0.0173159 
0.0321236 0.0173159 9.94024 
9.92778 0.0188 0.0407689 
0.0188 9.93014 0.03015 
0.0407689 0.03015 9.93941 
10.0199 0.00779146 -0.00212108 
0.00779146 10.0318 0.00285289 
-0.00212108 0.00285289 10.0395 
10.053 -0.0384158 0.0568365 
-0.0384158 9.97106 -0.0361124 
0.0568365 -0.0361124 10.0671 
10.0056 -0.00825805 -0.00210674 
-0.00825805 10.0379 -0.0284348 
-0.00210674 -0.0284348 10.0476 
10.0002 -0.00738114 -0.00266938 
-0.00738114 10.0305 -0.017619 
-0.00266938 -0.017619 10.0605 
9.99514 -0.000743544 -0.0594044 
-0.000743544 9.99192 -0.0415053 
-0.0594044 -0.0415053 9.99332 
9.99193 -0.00134445 -0.0584584 
-0.00134445 9.99144 -0.0431102 
-0.0584584 -0.0431102 9.99702 
9.98706 -0.00141412 -0.0597914 
-0.00141412 9.99012 -0.0398082 
-0.0597914 -0.0398082 10.0032 
9.99534 0.000713084 -0.0583864 
0.000713084 9.99411 -0.0422632 
-0.0583864 -0.0422632 9.99093 
9.99155 -0.00089013 -0.00189485 
-0.00089013 9.97885 -0.00373511 
-0.00189485 -0.00373511 9.98933 
9.97715 -0.0275043 0.0140416 
-0.0275043 9.98848 -0.00409842 
0.0140416 -0.00409842 9.9941 
10.0034 0.0033461 -0.00602037 
0.0033461 9.98469 0.00136759 
-0.00602037 0.00136759 9.97164 
9.97204 -0.00950456 -0.00220686 
-0.00950456 9.99867 -0.0246352 
-0.00220686 -0.0246352 9.98902 
9.98214 -0.000204275 -0.00540639 
-0.000204275 9.98007 0.00713334 
-0.00540639 0.00713334 9.98953 
9.9881 -0.00264192 -0.00382329 
-0.00264192 9.97945 0.0101558 
-0.00382329 0.0101558 9.98419 
9.98384 0.00192265 -0.0124431 
0.00192265 9.97763 0.00214317 
-0.0124431 0.00214317 9.99027 
9.97838 -0.0017537 -0.00615907 
-0.0017537 9.9852 0.00319271 
-0.00615907 0.00319271 9.98816 
9.92557 0.0243447 0.0265742 
0.0243447 9.93325 0.0482668 
0.0265742 0.0482668 9.93551 
9.92874 0.0253883 0.0320374 
0.0253883 9.92805 0.0383942 
0.0320374 0.0383942 9.93753 
9.92877 0.0210399 0.027504 
0.0210399 9.9222 0.0346865 
0.027504 0.0346865 9.94335 
9.93159 0.0342303 0.037925 
0.0342303 9.93352 0.0341642 
0.037925 0.0341642 9.92921 
9.93364 -0.0319233 -0.0155216 
-0.0319233 9.92641 0.00277772 
-0.0155216 0.00277772 9.95232 
9.94999 -0.0283748 -0.0130786 
-0.0283748 9.90993 -0.030458 
-0.0130786 -0.030458 9.95244 
9.92702 -0.0476754 -0.0312503 
-0.0476754 9.92673 0.00424067 
-0.0312503 0.00424067 9.95861 
9.92652 -0.0145323 -0.00298448 
-0.0145323 9.9372 0.0256909 
-0.00298448 0.0256909 9.94864 
10.1741 -0.0504874 -0.00844045 
-0.0504874 10.0658 0.0207576 
-0.00844045 0.0207576 10.0705 
9.9744 0.0303636 0.048264 
0.0303636 10.0111 -0.0379296 
0.048264 -0.0379296 10.325 
10.1962 0.072457 -0.0132338 
0.072457 10.1583 0.0113608 
-0.0132338 0.0113608 9.95597 
10.0858 0.081884 -0.0461132 
0.081884 10.1079 0.19157 
-0.0461132 0.19157 10.1167 
9.99251 -0.00298237 0.0151815 
-0.00298237 9.98874 0.0190205 
0.0151815 0.0190205 9.99935 
9.99314 0.0022034 0.0158866 
0.0022034 9.99166 0.0196763 
0.0158866 0.0196763 9.9958 
9.99233 0.000677984 0.0180892 
0.000677984 9.98702 0.0182629 
0.0180892 0.0182629 10.0013 
9.99317 0.00135283 0.0156355 
0.00135283 9.9949 0.0193432 
0.0156355 0.0193432 9.99254 
9.99181 -0.00119266 -0.0332684 
-0.00119266 9.99842 0.0680912 
-0.0332684 0.0680912 9.99473 
9.99579 -0.000524845 -0.0314482 
-0.000524845 9.99803 0.0699993 
-0.0314482 0.0699993 9.99114 
9.99065 -0.000546372 -0.0359998 
-0.000546372 9.99247 0.0658214 
-0.0359998 0.0658214 10.0018 
9.9939 -0.00219931 -0.0327465 
-0.00219931 9.9971 0.0675178 
-0.0327465 0.0675178 9.99396 
9.91472 0.0250094 -0.00357099 
0.0250094 9.96353 0.0199158 
-0.00357099 0.0199158 9.9786 
9.95578 -0.00844658 -0.0236729 
-0.00844658 9.92292 0.0219617 
-0.0236729 0.0219617 9.97815 
9.96804 -0.0246845 0.00189727 
-0.0246845 9.8908 0.0250779 
0.00189727 0.0250779 9.99801 
9.95391 -0.00272726 -0.011491 
-0.00272726 9.91225 -0.000255635 
-0.011491 -0.000255635 9.99069 
10.0927 -0.00267779 -0.00249794 
-0.00267779 10.1073 0.00158846 
-0.00249794 0.00158846 10.1034 
10.1076 -0.00159747 0.00287245 
-0.00159747 10.1111 0.00764377 
0.00287245 0.00764377 10.0847 
10.0918 -0.00230274 0.002542 
-0.00230274 10.0894 -0.0112134 
0.002542 -0.0112134 10.1221 
10.0966 0.00426686 -0.00577299 
0.00426686 10.0922 0.00140303 
-0.00577299 0.00140303 10.1146 
9.92347 0.00932844 0.049316 
0.00932844 9.89777 0.0385581 
0.049316 0.0385581 9.91708 
9.89884 -0.0168683 0.033799 
-0.0168683 9.89105 0.0391154 
0.033799 0.0391154 9.94843 
9.92223 -0.00701284 0.0426665 
-0.00701284 9.89948 0.0431396 
0.0426665 0.0431396 9.91661 
9.92189 -0.0126252 0.0567769 
-0.0126252 9.88123 0.0397774 
0.0567769 0.0397774 9.93519 
9.9373 0.00140024 -0.0156084 
0.00140024 9.9804 -0.011285 
-0.0156084 -0.011285 9.90519 
9.9313 0.0361668 -0.0116332 
0.0361668 9.93166 0.0244342 
-0.0116332 0.0244342 9.95993 
9.95381 -0.0207209 0.000502899 
-0.0207209 9.95732 -0.000777507 
0.000502899 -0.000777507 9.91176 
9.91782 0.000743567 0.0266285 
0.000743567 9.88814 -0.0188661 
0.0266285 -0.0188661 10.0169 
9.99429 0.0131677 -0.00667897 
0.0131677 10.0101 0.00260888 
-0.00667897 0.00260888 10.0948 
10.0431 0.0216849 -0.0102269 
0.0216849 10.0258 -0.0101209 
-0.0102269 -0.0101209 10.0303 
10.0716 -0.0200408 -0.0175962 
-0.0200408 9.99652 -0.00214331 
-0.0175962 -0.00214331 10.031 
10.0456 0.0220472 0.0101209 
0.0220472 10.0197 -0.0200119 
0.0101209 -0.0200119 10.0339 
9.95965 0.00474408 0.079494 
0.00474408 9.96463 -0.0168213 
0.079494 -0.0168213 9.96225 
9.95388 0.00219807 0.0827381 
0.00219807 9.95927 -0.0177409 
0.0827381 -0.0177409 9.97338 
9.97688 -0.00406934 0.0827565 
-0.00406934 9.95818 -0.0160676 
0.0827565 -0.0160676 9.95147 
9.96218 0.00425933 0.0699176 
0.00425933 9.96418 -0.0152918 
0.0699176 -0.0152918 9.96017 
9.98388 -0.00503619 -0.0438602 
-0.00503619 9.98206 0.0395015 
-0.0438602 0.0395015 9.9852 
9.98399 -0.00196177 -0.0451497 
-0.00196177 9.98324 0.0408872 
-0.0451497 0.0408872 9.9839 
9.97982 0.00488373 -0.0422531 
0.00488373 9.97965 0.0384217 
-0.0422531 0.0384217 9.99167 
9.98261 -0.000628166 -0.0475526 
-0.000628166 9.98418 0.0377528 
-0.0475526 0.0377528 9.98436 
9.94449 -0.00439674 -0.0478569 
-0.00439674 9.95209 0.0517835 
-0.0478569 0.0517835 9.93962 
9.94034 0.00724568 -0.0544562 
0.00724568 9.94034 0.0551632 
-0.0544562 0.0551632 9.95553 
9.94651 -0.00787671 -0.0450634 
-0.00787671 9.94588 0.0514673 
-0.0450634 0.0514673 9.94382 
9.93741 0.000378229 -0.0499047 
0.000378229 9.94608 0.0471527 
-0.0499047 0.0471527 9.95272 
9.99582 -0.000916648 0.0660146 
-0.000916648 9.98938 -0.00510606 
0.0660146 -0.00510606 10.0002 
9.99712 0.00115772 0.0636611 
0.00115772 9.99559 -0.0063468 
0.0636611 -0.0063468 9.99268 
9.99282 0.000272862 0.0611926 
0.000272862 9.99247 -0.00572473 
0.0611926 -0.00572473 10.0001 
9.99648 0.000506528 0.0637744 
0.000506528 9.99834 -0.00746236 
0.0637744 -0.00746236 9.99058 
9.98582 -0.00260356 -0.012711 
-0.00260356 9.98419 0.0177128 
-0.012711 0.0177128 9.9912 
9.9854 -0.00213838 -0.018881 
-0.00213838 9.98423 0.0141345 
-0.018881 0.0141345 9.99158 
9.98517 -0.00553897 -0.0133483 
-0.00553897 9.98496 0.0127661 
-0.0133483 0.0127661 9.99108 
9.99329 -0.00315152 -0.0113727 
-0.00315152 9.98264 0.0208825 
-0.0113727 0.0208825 9.98528 
9.98447 0.00727109 -0.0651639 
0.00727109 9.97981 0.0421396 
-0.0651639 0.0421396 9.9915 
9.98553 -0.00105184 -0.0654292 
-0.00105184 9.98551 0.0430313 
-0.0654292 0.0430313 9.98473 
9.98643 -0.00184914 -0.0651589 
-0.00184914 9.98261 0.0429115 
-0.0651589 0.0429115 9.98673 
9.98797 0.00332358 -0.0637422 
0.00332358 9.98483 0.0440844 
-0.0637422 0.0440844 9.98298 
9.94668 0.00366649 0.0136212 
0.00366649 9.85641 0.0498631 
0.0136212 0.0498631 9.98434 
9.79918 -0.0224196 -0.00453735 
-0.0224196 10.1307 0.00418897 
-0.00453735 0.00418897 9.85755 
10.0043 0.0310023 0.0111452 
0.0310023 9.70981 -0.000584214 
0.0111452 -0.000584214 10.0733 
9.93511 0.00318639 -0.0344618 
0.00318639 9.86815 0.186293 
-0.0344618 0.186293 9.98417 
13.0761 -0.0160141 -0.170947 
-0.0160141 11.6757 -1.39808 
-0.170947 -1.39808 10.0262 
10.8982 -0.589211 -0.457686 
-0.589211 8.38391 -0.429458 
-0.457686 -0.429458 15.4959 
10.7862 0.255743 0.629519 
0.255743 8.39232 -0.43575 
0.629519 -0.43575 15.5994 
10.5714 -0.0314128 0.19895 
-0.0314128 10.6936 1.64303 
0.19895 1.64303 13.513 
9.89294 0.00393207 0.00762365 
0.00393207 9.89101 -0.0434549 
0.00762365 -0.0434549 9.9379 
9.95824 0.0422553 0.00707514 
0.0422553 9.7666 -0.0107799 
0.00707514 -0.0107799 9.99702 
9.88147 0.00918534 -0.0159461 
0.00918534 9.90473 -0.0486943 
-0.0159461 -0.0486943 9.93565 
9.89816 -0.0293689 0.0401175 
-0.0293689 9.8567 -0.102442 
0.0401175 -0.102442 9.967 
9.93282 0.0265563 0.0451516 
0.0265563 10.0079 0.00086991 
0.0451516 0.00086991 10.0054 
10.0084 0.00736485 -0.0277631 
0.00736485 9.9407 -0.00973936 
-0.0277631 -0.00973936 9.99698 
9.95086 0.0210427 -0.00910922 
0.0210427 9.971 -0.0133313 
-0.00910922 -0.0133313 10.0242 
9.95221 0.0213337 -0.00188964 
0.0213337 9.96455 -0.00518311 
-0.00188964 -0.00518311 10.0293 
9.99631 0.00170096 0.0644099 
0.00170096 9.99223 -0.0124021 
0.0644099 -0.0124021 9.99656 
9.99255 0.000414933 0.0603913 
0.000414933 9.99006 -0.0127644 
0.0603913 -0.0127644 10.0025 
9.99672 0.000184095 0.0630847 
0.000184095 9.99448 -0.011613 
0.0630847 -0.011613 9.9939 
9.99711 -5.94556e-05 0.0643665 
-5.94556e-05 9.99671 -0.0111581 
0.0643665 -0.0111581 9.99129 
9.98217 0.00933393 0.0301001 
0.00933393 9.9787 -0.0759292 
0.0301001 -0.0759292 9.9923 
9.9839 -0.000115274 0.0315094 
-0.000115274 9.98565 -0.0753534 
0.0315094 -0.0753534 9.98363 
9.9847 0.00193619 0.0340511 
0.00193619 9.98721 -0.0752922 
0.0340511 -0.0752922 9.98127 
9.98178 -0.00173252 0.0318181 
-0.00173252 9.98688 -0.0735207 
0.0318181 -0.0735207 9.98452 
9.90823 0.0145345 0.0666227 
0.0145345 9.93377 0.0545164 
0.0666227 0.0545164 9.93615 
9.90555 0.00260406 0.069378 
0.00260406 9.92452 0.0606131 
0.069378 0.0606131 9.94808 
9.90283 0.0116639 0.0639829 
0.0116639 9.92581 0.0576659 
0.0639829 0.0576659 9.9495 
9.89207 0.013841 0.0524622 
0.013841 9.91988 0.0448802 
0.0524622 0.0448802 9.96619 
9.94255 0.00793345 0.0246367 
0.00793345 9.93616 -0.0819803 
0.0246367 -0.0819803 9.95276 
9.94304 0.000762177 0.0220989 
0.000762177 9.94687 -0.0846113 
0.0220989 -0.0846113 9.94156 
9.94258 0.00383443 0.0268598 
0.00383443 9.94627 -0.0822886 
0.0268598 -0.0822886 9.94262 
9.94301 0.00106902 0.0207475 
0.00106902 9.94438 -0.0817472 
0.0207475 -0.0817472 9.94408 
10.9377 0.299848 0.0436061 
0.299848 10.7078 -0.0874669 
0.0436061 -0.0874669 10.8361 
10.859 0.153356 0.102473 
0.153356 11.0323 0.108539 
0.102473 0.108539 10.5903 
10.4865 0.256374 0.310996 
0.256374 10.938 -0.129929 
0.310996 -0.129929 11.057 
10.7406 0.284547 0.185535 
0.284547 10.8072 0.103084 
0.185535 0.103084 10.9337 
10.0996 0.114119 0.032701 
0.114119 10.092 -0.00406305 
0.032701 -0.00406305 10.2726 
10.1078 -0.0786274 -0.091479 
-0.0786274 10.1088 -0.0189395 
-0.091479 -0.0189395 10.2475 
10.1303 -0.057334 -0.0239058 
-0.057334 10.1653 -0.0235422 
-0.0239058 -0.0235422 10.1687 
10.1057 0.00717317 -0.078193 
0.00717317 10.1708 0.00446148 
-0.078193 0.00446148 10.1877 
9.9562 -0.00031328 0.0106683 
-0.00031328 9.97384 -0.0886585 
0.0106683 -0.0886585 9.93883 
9.96168 -0.00109489 0.00337072 
-0.00109489 9.95341 -0.0816577 
0.00337072 -0.0816577 9.95379 
9.95012 -9.60774e-05 0.0162348 
-9.60774e-05 9.94394 -0.088186 
0.0162348 -0.088186 9.97481 
9.95861 -0.000509498 0.00591155 
-0.000509498 9.9576 -0.0717322 
0.00591155 -0.0717322 9.95266 
10.178 -0.0434399 0.033832 
-0.0434399 10.1301 0.0129246 
0.033832 0.0129246 10.2829 
10.1545 0.0382763 -0.0400448 
0.0382763 10.2067 0.0279673 
-0.0400448 0.0279673 10.23 
10.1134 0.10043 -0.0624396 
0.10043 10.2008 0.0272889 
-0.0624396 0.0272889 10.2768 
10.1896 -0.0396307 -0.114927 
-0.0396307 10.2137 0.0419463 
-0.114927 0.0419463 10.1878 
10.05 0.0190783 0.0141499 
0.0190783 9.94257 0.003159 
0.0141499 0.003159 10.0284 
10.0025 -0.00335472 -0.00768714 
-0.00335472 10.0308 -0.00673248 
-0.00768714 -0.00673248 9.98773 
10.0195 0.00863007 -0.0281636 
0.00863007 10.028 0.0154072 
-0.0281636 0.0154072 9.97349 
9.99216 -0.00685533 -0.0145527 
-0.00685533 10.0271 0.00539276 
-0.0145527 0.00539276 10.0018 
9.95139 0.0154864 -0.0167416 
0.0154864 9.95341 -0.0142062 
-0.0167416 -0.0142062 9.94662 
9.95442 0.0116047 -0.0133833 
0.0116047 9.9477 -0.0211431 
-0.0133833 -0.0211431 9.9493 
9.95855 0.014574 -0.00727752 
0.014574 9.94741 -0.012875 
-0.00727752 -0.012875 9.94546 
9.95691 0.0160699 -0.0156279 
0.0160699 9.95601 -0.0157176 
-0.0156279 -0.0157176 9.9385 
9.9274 0.0580257 -0.0635232 
0.0580257 9.87759 -0.020788 
-0.0635232 -0.020788 9.87921 
9.8933 -0.0369964 -0.060995 
-0.0369964 9.87266 -0.0384528 
-0.060995 -0.0384528 9.91824 
9.87463 -0.0373699 -0.05505 
-0.0373699 9.89034 -0.0293294 
-0.05505 -0.0293294 9.91924 
9.87923 -0.0257595 -0.0949163 
-0.0257595 9.89577 -0.0580139 
-0.0949163 -0.0580139 9.9092 
9.93452 0.0258701 -0.0275486 
0.0258701 9.91554 0.0640172 
-0.0275486 0.0640172 9.97664 
9.95529 0.0069953 0.0200574 
0.0069953 9.9163 0.0946837 
0.0200574 0.0946837 9.95512 
9.91588 -0.00578234 0.0298925 
-0.00578234 9.91816 0.03288 
0.0298925 0.03288 9.99266 
9.92958 0.0182818 -0.0278058 
0.0182818 9.94067 0.056155 
-0.0278058 0.056155 9.95645 
9.75287 -0.103646 0.392745 
-0.103646 9.74486 -0.271888 
0.392745 -0.271888 9.98983 
9.3671 -0.301119 0.28773 
-0.301119 9.94841 0.125365 
0.28773 0.125365 10.1721 
9.41451 -0.377375 0.0582932 
-0.377375 9.79783 0.104298 
0.0582932 0.104298 10.2752 
9.47648 -0.326593 0.245523 
-0.326593 9.87546 0.0758379 
0.245523 0.0758379 10.1356 
9.96806 -0.0106162 0.0156914 
-0.0106162 9.96209 -0.00955741 
0.0156914 -0.00955741 9.96832 
9.96255 -0.0141133 0.00821788 
-0.0141133 9.96897 -0.0143958 
0.00821788 -0.0143958 9.96696 
9.9698 -0.00718617 0.0111545 
-0.00718617 9.96461 -0.0111167 
0.0111545 -0.0111167 9.96408 
9.96977 -0.0105472 0.0107015 
-0.0105472 9.96357 -0.0107803 
0.0107015 -0.0107803 9.96514 
9.98026 -0.000810349 -0.0212978 
-0.000810349 9.98722 0.00783596 
-0.0212978 0.00783596 9.98912 
9.9867 -0.00517731 -0.0124906 
-0.00517731 9.98501 0.0135423 
-0.0124906 0.0135423 9.98489 
9.98697 -0.0016103 -0.0158696 
-0.0016103 9.98242 0.0166069 
-0.0158696 0.0166069 9.98721 
9.98322 -0.00415515 -0.0221626 
-0.00415515 9.99178 0.00818271 
-0.0221626 0.00818271 9.9816 
9.97204 -0.0124417 0.00678008 
-0.0124417 9.96649 0.0201596 
0.00678008 0.0201596 10.0024 
10.0099 0.0183109 -0.000930703 
0.0183109 10.0027 0.00206817 
-0.000930703 0.00206817 9.92825 
9.97078 -0.0101685 -0.000799245 
-0.0101685 9.97874 0.0018666 
-0.000799245 0.0018666 9.99137 
9.97514 -0.0125872 -0.0111585 
-0.0125872 9.95322 -0.012704 
-0.0111585 -0.012704 10.0125 
9.97215 0.0145641 -0.047946 
0.0145641 9.91406 0.0661451 
-0.047946 0.0661451 10.0397 
10.0497 0.099516 -0.0793203 
0.099516 9.81764 0.0599958 
-0.0793203 0.0599958 10.0586 
9.97968 0.072556 -0.0725922 
0.072556 9.89051 0.05489 
-0.0725922 0.05489 10.0557 
9.90236 0.13115 -0.0612186 
0.13115 9.96512 0.0635124 
-0.0612186 0.0635124 10.0584 
10.0361 -0.00271387 0.001398 
-0.00271387 10.0096 -0.00882742 
0.001398 -0.00882742 10.0213 
10.0413 -0.00867919 -0.00665045 
-0.00867919 10.0083 0.00271114 
-0.00665045 0.00271114 10.0174 
10.0133 -0.00891325 0.00913576 
-0.00891325 9.9863 -0.0208939 
0.00913576 -0.0208939 10.0674 
10.0507 -0.004054 0.0200857 
-0.004054 10.0227 -0.00328317 
0.0200857 -0.00328317 9.9936 
9.97739 -0.00217486 0.0196126 
-0.00217486 9.97578 0.0747093 
0.0196126 0.0747093 9.97292 
9.97699 -0.00198044 0.0188698 
-0.00198044 9.97623 0.0741146 
0.0188698 0.0741146 9.97287 
9.97001 0.000245373 0.0155486 
0.000245373 9.96918 0.0669107 
0.0155486 0.0669107 9.98689 
9.98493 -0.00316635 0.0221773 
-0.00316635 9.98526 0.0704057 
0.0221773 0.0704057 9.95589 
9.96508 -0.00189814 -0.0532182 
-0.00189814 9.95879 -0.0536146 
-0.0532182 -0.0536146 9.96329 
9.96441 0.00236458 -0.0576129 
0.00236458 9.96402 -0.05416 
-0.0576129 -0.05416 9.95873 
9.95852 -0.00277572 -0.055733 
-0.00277572 9.95552 -0.0550983 
-0.055733 -0.0550983 9.97312 
9.96469 -0.000152401 -0.0520771 
-0.000152401 9.96077 -0.0510677 
-0.0520771 -0.0510677 9.96169 
9.91073 0.00116471 0.0099062 
0.00116471 9.87105 0.0144318 
0.0099062 0.0144318 10.1736 
9.92975 0.0100361 0.00342354 
0.0100361 9.86814 0.0405496 
0.00342354 0.0405496 10.1575 
9.91584 0.0082826 0.00218578 
0.0082826 9.87874 0.0362487 
0.00218578 0.0362487 10.1608 
9.91093 0.0194004 0.00475783 
0.0194004 9.91915 0.0306448 
0.00475783 0.0306448 10.1253 
9.82199 0.0238279 0.34502 
0.0238279 9.88476 -0.136543 
0.34502 -0.136543 9.7784 
9.88967 -0.0579019 0.186833 
-0.0579019 9.86854 -0.0405979 
0.186833 -0.0405979 9.72693 
9.78413 -0.0456491 0.255168 
-0.0456491 9.91828 -0.0899995 
0.255168 -0.0899995 9.78273 
9.75171 -0.0281917 0.173479 
-0.0281917 9.872 0.0688135 
0.173479 0.0688135 9.86143 
9.90935 -0.0326297 0.0046674 
-0.0326297 9.91919 -0.0207633 
0.0046674 -0.0207633 9.9431 
9.87621 0.0111611 -0.00199805 
0.0111611 9.96446 -0.000418613 
-0.00199805 -0.000418613 9.93095 
9.90051 -0.0379107 -0.0150961 
-0.0379107 9.88755 -0.0502452 
-0.0150961 -0.0502452 9.98357 
9.87049 -0.0533289 -0.0214741 
-0.0533289 9.91824 -0.0190182 
-0.0214741 -0.0190182 9.9829 
10.0342 0.00811961 0.00454753 
0.00811961 9.99268 0.0133275 
0.00454753 0.0133275 10.0004 
9.91635 -0.0183667 0.00273473 
-0.0183667 10.0735 -0.0443669 
0.00273473 -0.0443669 10.0375 
10.0439 -0.0102014 0.0228106 
-0.0102014 10.0228 0.0403298 
0.0228106 0.0403298 9.9606 
10.0343 0.00952273 -0.00118065 
0.00952273 10.0064 0.0133766 
-0.00118065 0.0133766 9.98664 
9.98663 -0.00447475 0.0536134 
-0.00447475 9.98014 0.0542593 
0.0536134 0.0542593 9.99138 
9.98654 -0.00171483 0.0532752 
-0.00171483 9.98493 0.0535475 
0.0532752 0.0535475 9.98667 
9.98569 0.00228224 0.0564746 
0.00228224 9.98432 0.0538122 
0.0564746 0.0538122 9.98813 
9.98595 3.05369e-05 0.0576797 
3.05369e-05 9.98674 0.0534501 
0.0576797 0.0534501 9.98545 
9.91224 -0.00993804 0.0422257 
-0.00993804 9.89589 -0.0407259 
0.0422257 -0.0407259 9.94311 
9.92935 -0.00446984 0.0579667 
-0.00446984 9.90095 -0.0818752 
0.0579667 -0.0818752 9.92095 
9.90412 0.000372268 0.0652781 
0.000372268 9.90026 -0.0686293 
0.0652781 -0.0686293 9.94686 
9.90297 -0.00464547 0.0727054 
-0.00464547 9.88262 -0.0706976 
0.0727054 -0.0706976 9.96566 
9.9858 -0.00116756 -0.051735 
-0.00116756 9.98791 0.0329974 
-0.051735 0.0329974 10.0035 
9.99064 -0.000224194 -0.0518169 
-0.000224194 9.99164 0.0378811 
-0.0518169 0.0378811 9.9949 
9.99161 0.000605364 -0.0509063 
0.000605364 9.99243 0.0365566 
-0.0509063 0.0365566 9.99314 
9.99392 -0.000791122 -0.0506755 
-0.000791122 9.99295 0.0385521 
-0.0506755 0.0385521 9.9903 
9.92616 0.0873067 0.0375505 
0.0873067 11.0628 0.0555573 
0.0375505 0.0555573 9.98401 
10.678 -0.00443938 0.15241 
-0.00443938 10.7174 0.0663803 
0.15241 0.0663803 9.57754 
10.0121 -0.416457 -0.426301 
-0.416457 9.69099 -0.00221811 
-0.426301 -0.00221811 11.2699 
10.5225 0.200984 0.0835833 
0.200984 10.3512 -0.37318 
0.0835833 -0.37318 10.0993 
9.99106 -0.00166232 0.0149728 
-0.00166232 9.99069 0.000974091 
0.0149728 0.000974091 10.0011 
9.99033 -0.000542289 0.0163219 
-0.000542289 9.99097 -0.00396233 
0.0163219 -0.00396233 10.0015 
9.9972 -0.0013612 0.0145848 
-0.0013612 9.99467 -0.00236881 
0.0145848 -0.00236881 9.99094 
9.99655 -0.000113351 0.010481 
-0.000113351 9.99255 -0.00288809 
0.010481 -0.00288809 9.99372 
9.90172 0.037698 0.0880028 
0.037698 9.98454 0.107238 
0.0880028 0.107238 9.97614 
9.91115 0.0130891 -0.109048 
0.0130891 9.93989 -0.0592034 
-0.109048 -0.0592034 10.0114 
9.84156 0.0590999 0.0466915 
0.0590999 9.97403 -0.122877 
0.0466915 -0.122877 10.0468 
9.86358 0.0173693 -0.0966757 
0.0173693 10.0303 0.0798033 
-0.0966757 0.0798033 9.9685 
6.84218 -0.17909 0.663367 
-0.17909 4.99492 -1.1127 
0.663367 -1.1127 1.44257 
6.27264 0.232514 0.704732 
0.232514 5.13134 -0.994512 
0.704732 -0.994512 1.87569 
8.63475 0.396138 0.578891 
0.396138 8.42136 0.205607 
0.578891 0.205607 -3.77644 
5.54459 -0.713647 2.82557 
-0.713647 5.91849 -3.58767 
2.82557 -3.58767 1.81658 
9.94809 -0.00523694 -0.0239198 
-0.00523694 9.94091 -0.0757968 
-0.0239198 -0.0757968 9.94593 
9.9513 -0.00584595 -0.0203131 
-0.00584595 9.93346 -0.0815875 
-0.0203131 -0.0815875 9.95017 
9.93783 -0.00389819 -0.0297151 
-0.00389819 9.95909 -0.0786011 
-0.0297151 -0.0786011 9.93801 
9.93915 0.00402727 -0.0252177 
0.00402727 9.9477 -0.0740247 
-0.0252177 -0.0740247 9.94809 
9.94921 -0.00906721 0.00123037 
-0.00906721 9.95213 0.00965883 
0.00123037 0.00965883 9.89928 
9.93009 0.00651693 -0.00322107 
0.00651693 9.94868 0.0392052 
-0.00322107 0.0392052 9.92185 
9.9333 -0.000493522 0.00193916 
-0.000493522 9.95069 -0.000658423 
0.00193916 -0.000658423 9.91662 
9.95357 -0.000986143 0.00299087 
-0.000986143 9.97086 0.0115371 
0.00299087 0.0115371 9.87619 
10.6582 -0.46651 0.261544 
-0.46651 8.64307 -0.576046 
0.261544 -0.576046 12.0247 
10.8812 -0.379269 -0.732236 
-0.379269 9.69501 -1.34113 
-0.732236 -1.34113 10.7497 
10.6152 1.15075 -0.173302 
1.15075 10.1233 -0.104537 
-0.173302 -0.104537 10.5874 
11.2416 0.205183 0.0569143 
0.205183 8.99325 -1.10994 
0.0569143 -1.10994 11.0911 
10.2119 -0.0588813 0.00868662 
-0.0588813 10.101 -0.00952267 
0.00868662 -0.00952267 10.2774 
10.195 -0.0539821 -0.0621144 
-0.0539821 10.164 -0.0408431 
-0.0621144 -0.0408431 10.2314 
10.1663 -0.0183997 -0.0369495 
-0.0183997 10.2037 -0.0124462 
-0.0369495 -0.0124462 10.2205 
10.1123 0.0142796 -0.100896 
0.0142796 10.2033 0.000979084 
-0.100896 0.000979084 10.2747 
10.0971 0.00521779 0.0125808 
0.00521779 10.0668 -0.0134519 
0.0125808 -0.0134519 10.1203 
10.0809 -0.0145435 0.00169613 
-0.0145435 10.0896 -0.0165454 
0.00169613 -0.0165454 10.1138 
10.0824 0.00925988 0.0125707 
0.00925988 10.0846 -0.021965 
0.0125707 -0.021965 10.1172 
10.0944 0.00635738 0.00840597 
0.00635738 10.0869 -0.0103584 
0.00840597 -0.0103584 10.1029 
9.99432 0.0033394 0.0491469 
0.0033394 9.99628 0.053943 
0.0491469 0.053943 9.99548 
9.99768 0.00246079 0.0496359 
0.00246079 9.99471 0.052879 
0.0496359 0.052879 9.9937 
9.99273 0.000979854 0.0466607 
0.000979854 9.9883 0.0573867 
0.0466607 0.0573867 10.0051 
9.99827 0.0012332 0.0537343 
0.0012332 9.99639 0.0533437 
0.0537343 0.0533437 9.99142 
10.0023 -0.010813 0.0104622 
-0.010813 10.017 0.00601734 
0.0104622 0.00601734 10.0211 
9.99142 -0.000289762 -0.00498887 
-0.000289762 10.0334 -0.000645974 
-0.00498887 -0.000645974 10.0155 
10.0145 -0.012278 0.00263596 
-0.012278 10.0054 0.0114198 
0.00263596 0.0114198 10.0205 
10.0114 -0.00636296 -0.00168188 
-0.00636296 10.0407 0.0198552 
-0.00168188 0.0198552 9.98831 
9.91916 -0.00231318 0.00432397 
-0.00231318 9.92261 0.0629262 
0.00432397 0.0629262 9.90046 
9.92411 0.000330057 0.00326941 
0.000330057 9.91459 0.0693782 
0.00326941 0.0693782 9.90353 
9.93055 -0.0044232 0.00268153 
-0.0044232 9.90444 0.0692614 
0.00268153 0.0692614 9.90724 
9.93301 0.00519612 -0.00161407 
0.00519612 9.91855 0.0852438 
-0.00161407 0.0852438 9.89068 
9.91239 0.0051756 0.0325004 
0.0051756 9.92605 -0.0367379 
0.0325004 -0.0367379 9.92292 
9.90627 0.012854 0.0473042 
0.012854 9.90757 -0.0483441 
0.0473042 -0.0483441 9.94752 
9.91314 -0.0216238 0.0234508 
-0.0216238 9.93064 -0.0344624 
0.0234508 -0.0344624 9.91757 
9.89406 0.00697941 0.0441996 
0.00697941 9.92935 -0.0345099 
0.0441996 -0.0345099 9.93795 
9.86951 -0.0425893 0.0244262 
-0.0425893 9.98187 0.0212233 
0.0244262 0.0212233 9.74449 
9.91683 0.0195501 0.164732 
0.0195501 9.88353 -0.0250904 
0.164732 -0.0250904 9.7955 
9.90568 0.0103798 0.191405 
0.0103798 9.95464 -0.0593673 
0.191405 -0.0593673 9.73555 
9.82445 -0.0237691 0.180785 
-0.0237691 9.84941 -0.0311355 
0.180785 -0.0311355 9.92201 
9.94449 -0.00294327 0.0470504 
-0.00294327 9.95331 -0.0650205 
0.0470504 -0.0650205 9.94844 
9.94069 0.00543534 0.0478792 
0.00543534 9.94747 -0.062492 
0.0478792 -0.062492 9.95807 
9.947 0.00335244 0.0482927 
0.00335244 9.95289 -0.062553 
0.0482927 -0.062553 9.94634 
9.94564 0.000272513 0.046151 
0.000272513 9.94946 -0.0635915 
0.046151 -0.0635915 9.95113 
9.96261 -0.00250614 -0.0740724 
-0.00250614 9.9465 -0.0301058 
-0.0740724 -0.0301058 9.95448 
9.94819 -0.00126798 -0.0756548 
-0.00126798 9.94936 -0.0232496 
-0.0756548 -0.0232496 9.96605 
9.95891 -0.00501235 -0.0709566 
-0.00501235 9.95092 -0.033077 
-0.0709566 -0.033077 9.95377 
9.9616 -0.000358275 -0.0676743 
-0.000358275 9.95385 -0.0354469 
-0.0676743 -0.0354469 9.94814 
9.98905 0.00125295 -0.0404005 
0.00125295 9.9917 -0.0458942 
-0.0404005 -0.0458942 9.99651 
9.98998 0.00131238 -0.0379515 
0.00131238 9.99034 -0.0454693 
-0.0379515 -0.0454693 9.99694 
9.98887 0.00235134 -0.0390117 
0.00235134 9.99092 -0.0483666 
-0.0390117 -0.0483666 9.99746 
9.99205 0.00161335 -0.0386125 
0.00161335 9.99403 -0.0469739 
-0.0386125 -0.0469739 9.99118 
9.995 3.70847e-06 0.0458594 
3.70847e-06 9.9962 -0.0651546 
0.0458594 -0.0651546 9.98883 
9.98946 -0.000950969 0.0386324 
-0.000950969 9.98734 -0.0679266 
0.0386324 -0.0679266 10.0032 
9.99235 -0.00161297 0.0427627 
-0.00161297 9.99523 -0.064554 
0.0427627 -0.064554 9.99244 
9.99242 -0.00407148 0.0425635 
-0.00407148 9.99226 -0.0667809 
0.0425635 -0.0667809 9.99534 
9.90293 0.0426572 -0.0387495 
0.0426572 9.88243 0.0668225 
-0.0387495 0.0668225 9.96184 
9.91777 -0.0217898 -0.0118595 
-0.0217898 9.95379 0.0224534 
-0.0118595 0.0224534 9.87564 
9.90438 0.0117193 -0.0188757 
0.0117193 9.91254 0.0330829 
-0.0188757 0.0330829 9.93028 
9.88192 0.0324648 -0.00464663 
0.0324648 9.90873 0.0203416 
-0.00464663 0.0203416 9.95654 
9.91252 0.00380607 -0.0125729 
0.00380607 9.91302 0.0855187 
-0.0125729 0.0855187 9.92027 
9.91251 5.4782e-05 -0.00908988 
5.4782e-05 9.93458 0.0822415 
-0.00908988 0.0822415 9.89873 
9.92518 0.0026661 -0.00553579 
0.0026661 9.90332 0.086094 
-0.00553579 0.086094 9.91732 
9.92148 0.00992117 -0.00786629 
0.00992117 9.91166 0.0800039 
-0.00786629 0.0800039 9.91268 
9.95845 0.000958585 -0.0637357 
0.000958585 9.95038 0.0433275 
-0.0637357 0.0433275 9.94645 
9.95536 -0.00103096 -0.0608615 
-0.00103096 9.94812 0.0439107 
-0.0608615 0.0439107 9.95179 
9.94453 0.00783877 -0.0616545 
0.00783877 9.94633 0.0447586 
-0.0616545 0.0447586 9.96441 
9.95703 0.00135929 -0.0554271 
0.00135929 9.94616 0.0444426 
-0.0554271 0.0444426 9.95208 
9.42308 0.267528 -0.0936477 
0.267528 9.06218 0.444901 
-0.0936477 0.444901 12.114 
10.7352 -0.0939332 0.170655 
-0.0939332 10.0891 -0.375829 
0.170655 -0.375829 9.77499 
10.5878 -0.427883 -0.0647172 
-0.427883 10.5564 -0.460661 
-0.0647172 -0.460661 9.45506 
10.8394 0.131686 0.479277 
0.131686 9.00039 -1.42019 
0.479277 -1.42019 10.7595 
9.9904 -0.000927808 -0.0113983 
-0.000927808 9.98872 0.0176247 
-0.0113983 0.0176247 10.0001 
9.9938 -0.00245269 -0.013008 
-0.00245269 9.99252 0.0136333 
-0.013008 0.0136333 9.99292 
9.98844 0.000156831 -0.0149844 
0.000156831 9.99161 0.0139967 
-0.0149844 0.0139967 9.9992 
9.99408 -0.00370327 -0.0114865 
-0.00370327 9.99281 0.0119044 
-0.0114865 0.0119044 9.99237 
0.199474 1.587 -2.30405 
1.587 12.4566 -1.14369 
-2.30405 -1.14369 20.4452 
6.39842 -0.296037 -1.12032 
-0.296037 9.58047 0.744332 
-1.12032 0.744332 17.1224 
10.1952 -1.14673 1.43845 
-1.14673 12.1812 0.255237 
1.43845 0.255237 10.7249 
12.5399 0.29816 -3.22781 
0.29816 9.40299 0.0705255 
-3.22781 0.0705255 11.1584 
9.94246 0.00208708 -0.035884 
0.00208708 9.93703 0.0238388 
-0.035884 0.0238388 9.92672 
9.93673 0.0267368 -0.0511439 
0.0267368 9.9164 0.0491899 
-0.0511439 0.0491899 9.95308 
9.9115 0.011205 -0.0156229 
0.011205 9.88864 0.0464983 
-0.0156229 0.0464983 10.0061 
9.93511 0.00835133 -0.0484101 
0.00835133 9.9063 0.0448814 
-0.0484101 0.0448814 9.9648 
9.99046 -0.000309111 -0.0560771 
-0.000309111 9.98927 0.0478216 
-0.0560771 0.0478216 10.004 
9.99837 -0.000550703 -0.0634066 
-0.000550703 9.9953 0.0433436 
-0.0634066 0.0433436 9.99009 
9.99828 -0.00250948 -0.0579707 
-0.00250948 9.99231 0.0438471 
-0.0579707 0.0438471 9.99316 
9.9948 -0.00314966 -0.0585785 
-0.00314966 9.99441 0.0443903 
-0.0585785 0.0443903 9.99454 
9.99495 -0.00121208 -0.060365 
-0.00121208 9.99578 0.0173027 
-0.060365 0.0173027 9.99289 
9.99427 0.000106095 -0.0596333 
0.000106095 9.99882 0.016345 
-0.0596333 0.016345 9.99054 
9.98788 -0.000386415 -0.0571237 
-0.000386415 9.98623 0.0139153 
-0.0571237 0.0139153 10.0095 
9.99831 0.00145577 -0.0602368 
0.00145577 9.99651 0.0215563 
-0.0602368 0.0215563 9.9888 
9.97799 -0.00754033 0.0252093 
-0.00754033 9.98051 -0.0255519 
0.0252093 -0.0255519 9.97894 
9.97728 -0.00538318 0.0242172 
-0.00538318 9.98266 -0.028133 
0.0242172 -0.028133 9.97751 
9.97781 -0.00442908 0.024079 
-0.00442908 9.98429 -0.0267796 
0.024079 -0.0267796 9.97536 
9.98321 -0.00834636 0.0276962 
-0.00834636 9.98163 -0.0302558 
0.0276962 -0.0302558 9.9726 
9.8765 0.000722352 0.0683905 
0.000722352 9.90784 -0.0227378 
0.0683905 -0.0227378 9.93289 
9.91744 0.0240447 0.091556 
0.0240447 9.90097 -0.0201443 
0.091556 -0.0201443 9.89883 
9.90205 0.0126047 0.0895904 
0.0126047 9.92621 -0.013566 
0.0895904 -0.013566 9.88898 
9.86287 0.0126199 0.110012 
0.0126199 9.93441 -0.0370263 
0.110012 -0.0370263 9.91996 
9.97525 -0.0101448 -0.0195256 
-0.0101448 9.96437 0.0187823 
-0.0195256 0.0187823 9.94744 
9.96105 -0.00206157 -0.0226336 
-0.00206157 9.96645 0.0174977 
-0.0226336 0.0174977 9.95956 
9.97324 -0.00407921 -0.0176696 
-0.00407921 9.96296 0.0133113 
-0.0176696 0.0133113 9.95086 
9.96664 -0.00308409 -0.0287795 
-0.00308409 9.9554 0.0118106 
-0.0287795 0.0118106 9.96501 
9.98566 -0.000155743 -0.0465513 
-0.000155743 9.98725 0.0321953 
-0.0465513 0.0321953 10.0035 
9.99225 -0.00179065 -0.0473107 
-0.00179065 9.99196 0.0359028 
-0.0473107 0.0359028 9.99217 
9.99043 -0.00132763 -0.0466353 
-0.00132763 9.99034 0.0374797 
-0.0466353 0.0374797 9.99562 
9.99464 -0.000946389 -0.048256 
-0.000946389 9.99196 0.0376147 
-0.048256 0.0376147 9.98978 
9.94656 -0.0124931 -0.0089238 
-0.0124931 9.96289 0.0101951 
-0.0089238 0.0101951 9.95464 
9.95561 -0.01269 -0.0123829 
-0.01269 9.95369 0.0132336 
-0.0123829 0.0132336 9.95479 
9.95699 -0.0169523 -0.00937001 
-0.0169523 9.95583 0.0209936 
-0.00937001 0.0209936 9.95127 
9.96509 -0.00237663 -0.0239185 
-0.00237663 9.93705 0.0112314 
-0.0239185 0.0112314 9.96195 
9.99766 0.00140652 0.0055237 
0.00140652 9.99886 0.0288315 
0.0055237 0.0288315 9.99447 
9.99303 0.00176856 0.00714826 
0.00176856 9.99402 0.0314597 
0.00714826 0.0314597 10.0039 
9.99833 0.00413252 0.00556296 
0.00413252 9.99624 0.028607 
0.00556296 0.028607 9.99642 
9.99915 0.000295685 0.00440867 
0.000295685 9.99958 0.0280673 
0.00440867 0.0280673 9.99226 
9.95112 0.000816479 -0.0725021 
0.000816479 9.95246 -0.0319873 
-0.0725021 -0.0319873 9.98718 
9.97643 -0.00124364 -0.0667741 
-0.00124364 9.96948 -0.0464072 
-0.0667741 -0.0464072 9.94484 
9.96578 0.000504311 -0.059712 
0.000504311 9.9633 -0.0345253 
-0.059712 -0.0345253 9.96168 
9.96883 0.00194167 -0.0555343 
0.00194167 9.95774 -0.037123 
-0.0555343 -0.037123 9.96419 
9.92302 -0.0123493 -0.0559798 
-0.0123493 9.90887 -0.0378546 
-0.0559798 -0.0378546 9.92046 
9.91425 -0.0130994 -0.0568093 
-0.0130994 9.90072 -0.0436067 
-0.0568093 -0.0436067 9.93738 
9.91954 0.00222347 -0.0477328 
0.00222347 9.90753 -0.0448828 
-0.0477328 -0.0448828 9.92529 
9.92338 -0.00552152 -0.0507485 
-0.00552152 9.89706 -0.0414137 
-0.0507485 -0.0414137 9.93191 
9.98054 0.0236096 -0.0160335 
0.0236096 10.031 0.0302117 
-0.0160335 0.0302117 9.98554 
10.0117 0.015032 -0.00172408 
0.015032 9.94098 -0.0125228 
-0.00172408 -0.0125228 10.0444 
9.98364 -0.0129826 0.073092 
-0.0129826 10.0154 -0.00466979 
0.073092 -0.00466979 9.99797 
9.97718 0.00395475 -0.0112346 
0.00395475 9.95855 -0.0148272 
-0.0112346 -0.0148272 10.0613 
9.97103 0.00662086 -0.0105336 
0.00662086 9.99115 -0.00106478 
-0.0105336 -0.00106478 9.97903 
9.98973 -0.0149488 0.00342537 
-0.0149488 9.96447 4.92931e-05 
0.00342537 4.92931e-05 9.98701 
9.98052 -0.00316231 -0.00443257 
-0.00316231 9.98418 0.00132446 
-0.00443257 0.00132446 9.9765 
9.98202 -0.00547105 -0.00940426 
-0.00547105 9.98848 -0.000888141 
-0.00940426 -0.000888141 9.9707 
9.95351 0.00341162 0.0621428 
0.00341162 9.9518 -0.0503605 
0.0621428 -0.0503605 9.98419 
9.96215 0.00112129 0.0635683 
0.00112129 9.96103 -0.0431747 
0.0635683 -0.0431747 9.96631 
9.9689 -0.00575308 0.0634397 
-0.00575308 9.96785 -0.0488108 
0.0634397 -0.0488108 9.95275 
9.96093 0.000247926 0.0579119 
0.000247926 9.96256 -0.034873 
0.0579119 -0.034873 9.966 
9.99173 0.00203621 0.0384114 
0.00203621 9.99247 -0.0524404 
0.0384114 -0.0524404 9.99731 
9.98852 -8.98742e-05 0.0406424 
-8.98742e-05 9.99081 -0.0506423 
0.0406424 -0.0506423 10.0022 
9.99223 0.000308066 0.0404518 
0.000308066 9.9951 -0.0535142 
0.0404518 -0.0535142 9.99419 
9.9929 -0.000353059 0.0409711 
-0.000353059 9.99661 -0.0542621 
0.0409711 -0.0542621 9.992 
9.86542 -0.0171511 -0.054297 
-0.0171511 9.95078 0.00683482 
-0.054297 0.00683482 9.88242 
9.98058 -0.00657918 -0.0509759 
-0.00657918 9.88719 0.0130108 
-0.0509759 0.0130108 9.83086 
9.9441 -0.0018386 -0.0936493 
-0.0018386 9.91779 0.0120322 
-0.0936493 0.0120322 9.83672 
9.95134 -0.0136882 -0.0828703 
-0.0136882 9.907 0.00820718 
-0.0828703 0.00820718 9.84028 
9.88549 0.0355195 0.0379984 
0.0355195 9.8895 -0.031117 
0.0379984 -0.031117 9.92563 
9.88475 0.00785443 0.0564488 
0.00785443 9.90259 -0.049999 
0.0564488 -0.049999 9.91328 
9.90079 0.0182878 0.0583512 
0.0182878 9.86193 -0.0322752 
0.0583512 -0.0322752 9.93791 
9.89315 0.0298836 0.0501121 
0.0298836 9.87171 -0.0384879 
0.0501121 -0.0384879 9.93576 
9.87885 0.0726032 -0.0103387 
0.0726032 9.90189 0.00638431 
-0.0103387 0.00638431 9.96682 
9.99532 -0.087427 0.0641289 
-0.087427 9.89767 -0.00634191 
0.0641289 -0.00634191 9.85456 
9.89569 0.010472 0.0323369 
0.010472 9.90078 0.00219848 
0.0323369 0.00219848 9.95109 
9.87467 0.0421327 0.0448099 
0.0421327 9.89542 -0.0393696 
0.0448099 -0.0393696 9.97746 
9.97327 -0.0197261 0.0285099 
-0.0197261 9.95176 0.0402165 
0.0285099 0.0402165 9.9864 
9.99268 -0.0124043 -0.0047624 
-0.0124043 9.95246 -0.0306643 
-0.0047624 -0.0306643 9.9663 
9.94483 0.00369398 0.00175042 
0.00369398 9.97377 -0.0367928 
0.00175042 -0.0367928 9.99285 
9.95145 -0.00820324 -0.0166523 
-0.00820324 9.92271 0.00635804 
-0.0166523 0.00635804 10.0373 
10.1468 0.0185619 -0.0340738 
0.0185619 10.1277 0.0271421 
-0.0340738 0.0271421 10.2165 
10.2141 -0.00292691 -0.00655693 
-0.00292691 10.1293 0.0086955 
-0.00655693 0.0086955 10.1476 
10.125 -0.0153243 -0.014776 
-0.0153243 10.1277 0.00777047 
-0.014776 0.00777047 10.2384 
10.1888 0.0127542 -0.0593323 
0.0127542 10.1342 -0.0123861 
-0.0593323 -0.0123861 10.1681 
10.1282 -0.0774262 0.190359 
-0.0774262 10.0286 0.0323921 
0.190359 0.0323921 10.082 
9.91388 0.103444 -0.0646192 
0.103444 10.1692 -0.0620943 
-0.0646192 -0.0620943 10.1556 
9.65767 0.369248 0.21346 
0.369248 10.1873 0.0492235 
0.21346 0.0492235 10.3938 
10.0064 0.112625 -0.0789226 
0.112625 9.98814 -0.0682124 
-0.0789226 -0.0682124 10.2442 
9.89392 -0.0219372 -0.0412538 
-0.0219372 9.87442 -0.02642 
-0.0412538 -0.02642 9.94192 
9.90452 -0.00800345 -0.0612696 
-0.00800345 9.86585 -0.0437505 
-0.0612696 -0.0437505 9.9399 
9.88841 -0.00427757 -0.052148 
-0.00427757 9.89075 -0.0507815 
-0.052148 -0.0507815 9.9311 
9.89262 -0.00899374 -0.046404 
-0.00899374 9.87494 -0.0293325 
-0.046404 -0.0293325 9.9427 
9.94097 0.049206 -0.0134318 
0.049206 9.95497 0.0650297 
-0.0134318 0.0650297 9.94037 
9.92226 0.029841 -0.00173615 
0.029841 9.95256 0.0323302 
-0.00173615 0.0323302 9.9615 
9.91172 0.0391857 -0.0163184 
0.0391857 9.97783 0.0370795 
-0.0163184 0.0370795 9.94676 
9.95665 0.0400391 -0.0132819 
0.0400391 9.93103 0.0277467 
-0.0132819 0.0277467 9.94864 
9.98784 -0.000661575 -0.0573922 
-0.000661575 9.99014 0.0464967 
-0.0573922 0.0464967 10.0052 
9.99587 -0.00306383 -0.0533649 
-0.00306383 9.99305 0.0497423 
-0.0533649 0.0497423 9.99428 
9.99347 -0.00358074 -0.0530262 
-0.00358074 9.99661 0.049247 
-0.0530262 0.049247 9.99311 
9.99603 -0.000961335 -0.0535174 
-0.000961335 9.99758 0.0548583 
-0.0535174 0.0548583 9.98958 
9.99706 -0.0104141 -0.000438538 
-0.0104141 9.95752 0.0834822 
-0.000438538 0.0834822 9.90089 
9.98 0.00203987 -0.00682216 
0.00203987 9.96725 0.0944376 
-0.00682216 0.0944376 9.90822 
9.97651 -0.00329055 -2.02419e-05 
-0.00329055 9.96797 0.0830086 
-2.02419e-05 0.0830086 9.91099 
9.97433 0.00474316 -0.000459583 
0.00474316 9.96686 0.0845708 
-0.000459583 0.0845708 9.91428 
9.98375 -0.0169158 -0.00461434 
-0.0169158 9.98203 0.00435079 
-0.00461434 0.00435079 10.0984 
10.0087 0.0273504 0.00646486 
0.0273504 10.0706 -0.00410246 
0.00646486 -0.00410246 9.9849 
10.0539 0.0206657 -0.00261893 
0.0206657 9.97482 -0.0289287 
-0.00261893 -0.0289287 10.0354 
10.0332 0.0119723 -0.0143315 
0.0119723 10.0112 -0.0342 
-0.0143315 -0.0342 10.0197 
9.98254 -0.000943586 0.0586466 
-0.000943586 9.983 0.0496518 
0.0586466 0.0496518 9.98537 
9.97791 0.00042485 0.0609221 
0.00042485 9.98546 0.0411211 
0.0609221 0.0411211 9.98755 
9.98394 0.00158372 0.0624198 
0.00158372 9.98404 0.0449289 
0.0624198 0.0449289 9.98293 
9.98501 0.00144425 0.0582621 
0.00144425 9.98547 0.0515058 
0.0582621 0.0515058 9.98043 
10.8161 0.346034 0.321997 
0.346034 9.672 0.705026 
0.321997 0.705026 10.5306 
9.61123 0.00656011 1.01931 
0.00656011 9.91253 -0.39639 
1.01931 -0.39639 11.4949 
9.4039 0.616841 -0.0527827 
0.616841 10.4534 -0.498251 
-0.0527827 -0.498251 11.1614 
9.70929 0.50205 0.201613 
0.50205 10.5839 -0.469883 
0.201613 -0.469883 10.7255 
9.987 -0.00254376 -0.0689275 
-0.00254376 9.98513 -0.0385989 
-0.0689275 -0.0385989 9.98742 
9.97882 0.00265404 -0.0693687 
0.00265404 9.98808 -0.0264444 
-0.0693687 -0.0264444 9.99265 
9.98753 0.00243217 -0.0703251 
0.00243217 9.98591 -0.030827 
-0.0703251 -0.030827 9.98611 
9.99064 0.000811151 -0.0652979 
0.000811151 9.98481 -0.0387948 
-0.0652979 -0.0387948 9.9841 
9.9999 -0.0178956 -0.0550259 
-0.0178956 9.99361 0.067572 
-0.0550259 0.067572 10.0721 
9.99446 0.0769208 -0.0194331 
0.0769208 10.0366 0.0315101 
-0.0194331 0.0315101 10.0346 
10.0316 0.0378881 -0.00440078 
0.0378881 9.97324 -0.0220031 
-0.00440078 -0.0220031 10.0608 
9.95813 0.0790101 0.00642846 
0.0790101 10.0118 0.00488963 
0.00642846 0.00488963 10.0957 
9.9372 0.0059773 0.0208769 
0.0059773 9.95113 0.0179881 
0.0208769 0.0179881 9.91081 
9.93751 0.00837566 0.0236234 
0.00837566 9.94476 0.00958945 
0.0236234 0.00958945 9.91687 
9.93073 0.00231467 0.00526259 
0.00231467 9.94003 0.0406051 
0.00526259 0.0406051 9.92838 
9.94792 0.000796712 0.0103402 
0.000796712 9.97601 0.0146198 
0.0103402 0.0146198 9.8752 
9.9235 0.0275935 0.0368934 
0.0275935 9.91694 0.0167062 
0.0368934 0.0167062 10.0987 
9.914 0.0131309 0.0255027 
0.0131309 9.92239 0.0362053 
0.0255027 0.0362053 10.1028 
9.88023 0.0308398 0.0464934 
0.0308398 9.89898 0.0373242 
0.0464934 0.0373242 10.1599 
9.90267 0.0198304 0.0366425 
0.0198304 9.92226 0.0253545 
0.0366425 0.0253545 10.1142 
9.87976 0.0641774 0.126476 
0.0641774 9.85935 -0.115774 
0.126476 -0.115774 9.85297 
9.8806 0.102427 0.123945 
0.102427 9.80578 -0.110328 
0.123945 -0.110328 9.9057 
9.8285 0.0661914 0.259801 
0.0661914 9.81065 -0.172477 
0.259801 -0.172477 9.95292 
9.77501 0.0646058 0.142502 
0.0646058 9.81851 -0.0405638 
0.142502 -0.0405638 9.99856 
9.96573 -0.0016902 -0.00143331 
-0.0016902 9.97568 -0.0106095 
-0.00143331 -0.0106095 9.97901 
9.96846 0.0123078 0.00815635 
0.0123078 9.9644 -0.00254137 
0.00815635 -0.00254137 9.98756 
9.97149 0.00116811 0.00327233 
0.00116811 9.96797 0.00278328 
0.00327233 0.00278328 9.98096 
9.96289 0.00191361 0.00618878 
0.00191361 9.97378 -0.00184818 
0.00618878 -0.00184818 9.98374 
9.98127 0.000167113 -0.00230781 
0.000167113 9.98262 0.000323218 
-0.00230781 0.000323218 9.99735 
9.97969 -0.00178183 0.000366631 
-0.00178183 9.98376 -0.00103835 
0.000366631 -0.00103835 9.99779 
9.98267 0.000153909 0.00035426 
0.000153909 9.97888 0.00355307 
0.00035426 0.00355307 9.99968 
9.98627 -0.000753097 0.00301381 
-0.000753097 9.98073 0.00291762 
0.00301381 0.00291762 9.99424 
9.8007 -0.0724757 -0.245497 
-0.0724757 9.94879 -0.0630421 
-0.245497 -0.0630421 9.86343 
9.90955 -0.0714482 -0.102362 
-0.0714482 9.80224 -0.0463427 
-0.102362 -0.0463427 9.90112 
9.79703 -0.0192963 -0.181769 
-0.0192963 9.93447 -0.0344788 
-0.181769 -0.0344788 9.88141 
9.75781 -0.00786271 -0.169485 
-0.00786271 9.95291 -0.0627844 
-0.169485 -0.0627844 9.90219 
9.97621 0.00298449 0.0198778 
0.00298449 9.97595 -0.0781642 
0.0198778 -0.0781642 9.96969 
9.97567 0.0029031 0.0204606 
0.0029031 9.97501 -0.079991 
0.0204606 -0.079991 9.97118 
9.97096 -0.000473913 0.0147682 
-0.000473913 9.97107 -0.0721269 
0.0147682 -0.0721269 9.97983 
9.98164 0.00244468 0.0269325 
0.00244468 9.98601 -0.0768261 
0.0269325 -0.0768261 9.95421 
10.0634 0.00712213 0.00388827 
0.00712213 10.0856 -0.00209886 
0.00388827 -0.00209886 10.1181 
10.0871 0.00502866 0.00789757 
0.00502866 10.068 -0.0150477 
0.00789757 -0.0150477 10.1121 
10.0858 -0.00904643 0.0102322 
-0.00904643 10.0928 -0.0123537 
0.0102322 -0.0123537 10.0885 
10.088 0.00317348 0.0156232 
0.00317348 10.0842 -0.0163646 
0.0156232 -0.0163646 10.0948 
9.97088 0.00461383 -0.0789852 
0.00461383 9.98822 -0.00112072 
-0.0789852 -0.00112072 9.99634 
9.98845 0.000520871 -0.0847478 
0.000520871 9.98916 -0.0039406 
-0.0847478 -0.0039406 9.97782 
9.98831 -0.000434259 -0.0816777 
-0.000434259 9.98372 -0.00649122 
-0.0816777 -0.00649122 9.98341 
9.98831 -0.000682227 -0.0820657 
-0.000682227 9.98335 -0.00638736 
-0.0820657 -0.00638736 9.98377 
9.99033 0.0038262 0.0431673 
0.0038262 9.98345 -0.0649797 
0.0431673 -0.0649797 9.98504 
9.98952 0.00490872 0.0443665 
0.00490872 9.97574 -0.0656698 
0.0443665 -0.0656698 9.99355 
9.98385 -0.0031312 0.0474227 
-0.0031312 9.98705 -0.0652032 
0.0474227 -0.0652032 9.98791 
9.9829 -0.000979883 0.0482783 
-0.000979883 9.99048 -0.0672514 
0.0482783 -0.0672514 9.98544 
9.94384 0.0140366 -0.026064 
0.0140366 9.97502 -0.0183865 
-0.026064 -0.0183865 9.93809 
9.96491 0.00571335 -0.0226536 
0.00571335 9.96827 -0.0270781 
-0.0226536 -0.0270781 9.92377 
9.94786 0.00907799 -0.016628 
0.00907799 9.97419 -0.0162214 
-0.016628 -0.0162214 9.93489 
9.95758 0.00603696 -0.0128848 
0.00603696 9.95249 -0.0169156 
-0.0128848 -0.0169156 9.94688 
9.89897 0.000589477 -0.00456237 
0.000589477 9.8874 -0.0910839 
-0.00456237 -0.0910839 9.89351 
9.90107 -0.00632887 -0.00816087 
-0.00632887 9.87866 -0.0895364 
-0.00816087 -0.0895364 9.90016 
9.88207 0.00447563 -5.31204e-09 
0.00447563 9.89908 -0.0883851 
-5.31204e-09 -0.0883851 9.89873 
9.90416 0.00390363 -0.00511044 
0.00390363 9.88247 -0.0941088 
-0.00511044 -0.0941088 9.89326 
9.98977 -0.00121302 0.0288451 
-0.00121302 9.98266 0.0714049 
0.0288451 0.0714049 9.98417 
9.99205 -0.00277312 0.0300164 
-0.00277312 9.96983 0.0706866 
0.0300164 0.0706866 9.99471 
9.98278 -0.00062204 0.0336084 
-0.00062204 9.98966 0.0734582 
0.0336084 0.0734582 9.98416 
9.98237 0.00227846 0.0326208 
0.00227846 9.98715 0.0707849 
0.0326208 0.0707849 9.98707 
9.91121 0.0128559 -0.0333731 
0.0128559 9.95536 0.00867307 
-0.0333731 0.00867307 10.0031 
9.95946 -0.0177303 -0.0145546 
-0.0177303 9.92335 -0.00397202 
-0.0145546 -0.00397202 9.98688 
9.88225 0.0147816 -0.0278529 
0.0147816 9.96072 0.0128442 
-0.0278529 0.0128442 10.0267 
9.91924 0.00133851 -0.0496563 
0.00133851 9.9647 0.0155007 
-0.0496563 0.0155007 9.98577 
9.9731 -0.00215823 -0.0686158 
-0.00215823 9.97351 -0.0454467 
-0.0686158 -0.0454467 9.97859 
9.97832 0.00174733 -0.0654751 
0.00174733 9.97559 -0.043122 
-0.0654751 -0.043122 9.97128 
9.98317 0.00351741 -0.0619108 
0.00351741 9.97429 -0.0463498 
-0.0619108 -0.0463498 9.96774 
9.97293 0.000502044 -0.0647016 
0.000502044 9.97327 -0.0449209 
-0.0647016 -0.0449209 9.97899 
9.97319 -0.000849077 -0.0072172 
-0.000849077 9.97097 -0.00092507 
-0.0072172 -0.00092507 9.98389 
9.97673 0.000825038 -0.00260852 
0.000825038 9.97273 0.00218414 
-0.00260852 0.00218414 9.97859 
9.97342 0.00037284 -0.00291389 
0.00037284 9.97302 -0.0019275 
-0.00291389 -0.0019275 9.98161 
9.97197 6.43685e-05 -0.00320102 
6.43685e-05 9.96775 -0.000585018 
-0.00320102 -0.000585018 9.98833 
9.90992 0.0146999 0.0535544 
0.0146999 9.90496 -0.0385767 
0.0535544 -0.0385767 9.93194 
9.90414 0.0129592 0.0628164 
0.0129592 9.90403 -0.023022 
0.0628164 -0.023022 9.93865 
9.93239 0.00742587 0.0593062 
0.00742587 9.9055 -0.0413135 
0.0593062 -0.0413135 9.90893 
9.91463 0.00370111 0.045338 
0.00370111 9.90599 -0.038449 
0.045338 -0.038449 9.92621 
9.90371 -0.00596954 -0.0470212 
-0.00596954 9.89427 -0.05528 
-0.0470212 -0.05528 9.95156 
9.90403 0.000676109 -0.0494571 
0.000676109 9.89529 -0.050456 
-0.0494571 -0.050456 9.95023 
9.90296 -0.000934112 -0.0531266 
-0.000934112 9.90255 -0.0512418 
-0.0531266 -0.0512418 9.94404 
9.91335 0.0118987 -0.0452434 
0.0118987 9.89247 -0.0433302 
-0.0452434 -0.0433302 9.94372 
9.91875 -0.0017808 -0.0226393 
-0.0017808 9.92046 0.0839183 
-0.0226393 0.0839183 9.92991 
9.92377 0.00772604 -0.0137036 
0.00772604 9.92624 0.0809425 
-0.0137036 0.0809425 9.91911 
9.91859 -0.00110968 -0.0231808 
-0.00110968 9.93194 0.0833214 
-0.0231808 0.0833214 9.91858 
9.92468 0.00375519 -0.0116352 
0.00375519 9.92513 0.0818318 
-0.0116352 0.0818318 9.91931 
9.90352 0.0665458 -0.0769713 
0.0665458 9.86212 -0.0689094 
-0.0769713 -0.0689094 9.96689 
9.84256 0.0277754 -0.0885511 
0.0277754 9.88715 -0.0785768 
-0.0885511 -0.0785768 10.0028 
9.84398 0.0391371 -0.0684834 
0.0391371 9.90899 -0.0788178 
-0.0684834 -0.0788178 9.97954 
9.87729 -0.0352082 -0.0525183 
-0.0352082 9.83296 -0.0359658 
-0.0525183 -0.0359658 10.0223 
10.0968 0.0920529 0.0876041 
0.0920529 10.2658 0.0566972 
0.0876041 0.0566972 9.88424 
10.0385 0.0243923 0.00396589 
0.0243923 10.0598 -0.0146687 
0.00396589 -0.0146687 10.1486 
10.0711 0.139761 0.065826 
0.139761 10.0929 0.0294038 
0.065826 0.0294038 10.0829 
10.1021 0.0116809 0.0012437 
0.0116809 10.0193 0.0751796 
0.0012437 0.0751796 10.1256 
9.91215 0.0284055 -0.0619025 
0.0284055 9.88972 -0.060855 
-0.0619025 -0.060855 9.98271 
9.89156 0.0195713 -0.0584634 
0.0195713 9.9238 -0.0529575 
-0.0584634 -0.0529575 9.96923 
9.90837 0.0037546 -0.0436786 
0.0037546 9.90301 -0.0623225 
-0.0436786 -0.0623225 9.9732 
9.89699 -0.0157293 -0.0544869 
-0.0157293 9.87941 -0.0535426 
-0.0544869 -0.0535426 10.0082 
10.0759 0.146376 0.193781 
0.146376 9.98507 -0.196037 
0.193781 -0.196037 10.1255 
9.71228 -0.199258 0.0982317 
-0.199258 10.0674 -0.0422444 
0.0982317 -0.0422444 10.4068 
9.78194 -0.0951523 -0.238157 
-0.0951523 10.299 0.22487 
-0.238157 0.22487 10.1056 
10.1762 0.0550338 -0.343417 
0.0550338 9.57029 0.124151 
-0.343417 0.124151 10.4401 
10.1546 0.0677227 0.335624 
0.0677227 10.073 0.128263 
0.335624 0.128263 9.56303 
9.9174 0.00664455 0.175579 
0.00664455 10.1584 0.123368 
0.175579 0.123368 9.71489 
9.99692 -0.139773 0.186103 
-0.139773 9.90065 0.0599938 
0.186103 0.0599938 9.89308 
10.0005 -0.0198414 0.380432 
-0.0198414 9.93989 -0.0638174 
0.380432 -0.0638174 9.85026 
9.94796 0.0274985 0.00170573 
0.0274985 9.97352 -0.0156372 
0.00170573 -0.0156372 9.98356 
9.96705 -0.0294699 -0.00835988 
-0.0294699 9.96499 -0.0221917 
-0.00835988 -0.0221917 9.973 
9.97249 0.00559254 -0.00442027 
0.00559254 9.98283 -0.00742033 
-0.00442027 -0.00742033 9.94972 
9.97563 -0.0341043 0.0111003 
-0.0341043 9.97272 -0.0146813 
0.0111003 -0.0146813 9.95669 
9.57571 0.451187 1.73621 
0.451187 9.74702 -0.65434 
1.73621 -0.65434 9.36698 
10.732 -0.238667 1.0002 
-0.238667 9.51854 -0.598139 
1.0002 -0.598139 8.43911 
8.53707 -0.381829 0.15862 
-0.381829 9.47555 -0.252726 
0.15862 -0.252726 10.6771 
10.0794 0.0623001 1.17876 
0.0623001 9.88735 -0.269982 
1.17876 -0.269982 8.72293 
9.96485 0.00568056 -0.00814534 
0.00568056 9.97837 -0.0201362 
-0.00814534 -0.0201362 9.94758 
9.96671 -0.000549313 -0.0122344 
-0.000549313 9.97737 -0.0235768 
-0.0122344 -0.0235768 9.94672 
9.96674 -0.000697407 -0.00944242 
-0.000697407 9.9779 -0.0207532 
-0.00944242 -0.0207532 9.94616 
9.96958 0.00171696 -0.00832697 
0.00171696 9.96798 -0.0204018 
-0.00832697 -0.0204018 9.95325 
9.99018 0.00333089 -0.027132 
0.00333089 9.9972 -0.0685513 
-0.027132 -0.0685513 9.9905 
9.98871 0.000189648 -0.027754 
0.000189648 9.99694 -0.0696031 
-0.027754 -0.0696031 9.99223 
9.9953 0.0016458 -0.0327034 
0.0016458 9.99615 -0.0726591 
-0.0327034 -0.0726591 9.98644 
9.98459 0.00177027 -0.0220755 
0.00177027 9.9842 -0.07305 
-0.0220755 -0.07305 10.0091 
9.97898 0.127954 -0.0633266 
0.127954 9.93403 -0.00545382 
-0.0633266 -0.00545382 10.133 
10.0831 0.134411 -0.0757111 
0.134411 9.83552 0.0795552 
-0.0757111 0.0795552 10.1274 
10.0621 -0.0304952 -0.00420919 
-0.0304952 10.0359 -0.00522891 
-0.00420919 -0.00522891 9.94802 
9.94539 0.133798 -0.0837285 
0.133798 9.96367 0.0307019 
-0.0837285 0.0307019 10.137 
9.91989 0.03103 -0.0169635 
0.03103 9.94234 0.0845638 
-0.0169635 0.0845638 9.94759 
9.9839 0.0480452 -0.0210142 
0.0480452 9.92143 0.0772752 
-0.0210142 0.0772752 9.90448 
9.92241 0.00975746 0.0121984 
0.00975746 9.93876 0.0930219 
0.0121984 0.0930219 9.94865 
9.92617 0.0349602 -0.0276084 
0.0349602 9.91477 0.0579043 
-0.0276084 0.0579043 9.96888 
9.99094 -0.000823233 0.0296349 
-0.000823233 9.99305 -0.0309494 
0.0296349 -0.0309494 9.99759 
9.99204 -0.000416848 0.0325031 
-0.000416848 9.99498 -0.0327931 
0.0325031 -0.0327931 9.99455 
9.98922 -0.00216122 0.0310104 
-0.00216122 9.9932 -0.0355584 
0.0310104 -0.0355584 9.99916 
9.99465 -0.00056258 0.0310216 
-0.00056258 9.99645 -0.0332475 
0.0310216 -0.0332475 9.99047 
9.93621 0.00929806 0.0486043 
0.00929806 9.91374 0.0657155 
0.0486043 0.0657155 9.955 
9.93593 0.0154959 0.0464606 
0.0154959 9.91865 0.0478987 
0.0464606 0.0478987 9.95036 
9.9339 0.00966756 0.0379426 
0.00966756 9.92513 0.057925 
0.0379426 0.057925 9.94591 
9.91543 -0.000187279 0.057539 
-0.000187279 9.92094 0.0277444 
0.057539 0.0277444 9.96858 
9.99399 -0.00381275 -0.0212262 
-0.00381275 9.99399 0.039867 
-0.0212262 0.039867 9.99284 
9.99281 -0.00166257 -0.0219078 
-0.00166257 9.99704 0.0400688 
-0.0219078 0.0400688 9.99097 
9.98571 -0.000654952 -0.022531 
-0.000654952 9.98683 0.0411691 
-0.022531 0.0411691 10.0083 
9.99525 -0.000293692 -0.0200746 
-0.000293692 9.99754 0.036779 
-0.0200746 0.036779 9.98803 
9.88668 0.0147297 0.0232825 
0.0147297 9.90472 0.00941916 
0.0232825 0.00941916 10.1803 
9.87691 -0.00396705 0.0520523 
-0.00396705 9.92194 0.0219137 
0.0520523 0.0219137 10.1728 
9.8854 0.0265787 0.029649 
0.0265787 9.91032 0.0122589 
0.029649 0.0122589 10.176 
9.9732 0.0105911 0.0126495 
0.0105911 9.90183 0.0162341 
0.0126495 0.0162341 10.0967 
9.99338 -0.00178448 0.0226317 
-0.00178448 9.9889 0.0277898 
0.0226317 0.0277898 9.99633 
9.99424 0.00102278 0.0209396 
0.00102278 9.99523 0.0282966 
0.0209396 0.0282966 9.98914 
9.98721 0.00153148 0.0172511 
0.00153148 9.98318 0.0301315 
0.0172511 0.0301315 10.0082 
9.99362 0.00326438 0.0229193 
0.00326438 9.99642 0.0238785 
0.0229193 0.0238785 9.98857 
9.94981 -0.00654608 0.000468791 
-0.00654608 9.95445 0.0064482 
0.000468791 0.0064482 9.93346 
9.95403 -0.00109044 -0.00963015 
-0.00109044 9.9503 -0.00763666 
-0.00963015 -0.00763666 9.93339 
9.94737 0.00195546 -0.00256198 
0.00195546 9.95818 -0.00550747 
-0.00256198 -0.00550747 9.93216 
9.95535 0.0176218 0.00595134 
0.0176218 9.96751 0.0024647 
0.00595134 0.0024647 9.91485 
9.99631 0.000999694 0.0285254 
0.000999694 9.99438 0.00884961 
0.0285254 0.00884961 9.99118 
9.98802 0.000491794 0.0326483 
0.000491794 9.98725 0.00819865 
0.0326483 0.00819865 10.0066 
9.99597 -0.00248884 0.0279774 
-0.00248884 9.99089 0.00906428 
0.0279774 0.00906428 9.99502 
9.99599 0.00129463 0.0264668 
0.00129463 9.9966 0.0108088 
0.0264668 0.0108088 9.98929 
9.98963 0.00521335 -0.00165062 
0.00521335 9.98549 -0.0025914 
-0.00165062 -0.0025914 10.0031 
9.99359 0.00160333 0.00443666 
0.00160333 9.98176 -0.00386611 
0.00443666 -0.00386611 10.0029 
9.99336 0.00701363 0.00567906 
0.00701363 9.99958 -0.00390446 
0.00567906 -0.00390446 9.98532 
9.99917 0.00434462 0.00462119 
0.00434462 9.99499 0.00506098 
0.00462119 0.00506098 9.98411 
5.612 0.861002 -2.07904 
0.861002 9.38082 1.30061 
-2.07904 1.30061 -1.5833 
5.2504 0.284185 -0.225165 
0.284185 9.09658 1.13706 
-0.225165 1.13706 -0.937459 
2.93117 0.0212656 0.422876 
0.0212656 6.00979 0.799882 
0.422876 0.799882 4.46855 
5.89268 1.71972 0.386866 
1.71972 6.10077 4.40793 
0.386866 4.40793 1.41607 
10.612 -0.0344351 -0.0443726 
-0.0344351 10.4575 -0.103429 
-0.0443726 -0.103429 10.4118 
9.6905 0.0880837 -0.113167 
0.0880837 10.4739 0.24738 
-0.113167 0.24738 11.3169 
11.3387 0.299885 0.198072 
0.299885 10.1654 -0.0793095 
0.198072 -0.0793095 9.97727 
10.8552 -0.35991 -0.414535 
-0.35991 10.4892 -0.0814834 
-0.414535 -0.0814834 10.137 
9.91854 -0.00619886 0.00702867 
-0.00619886 9.91987 0.0330455 
0.00702867 0.0330455 9.9751 
9.96227 0.0188431 0.00888238 
0.0188431 9.89516 0.0795163 
0.00888238 0.0795163 9.95608 
9.93131 0.000896488 -0.00202152 
0.000896488 9.95158 0.046115 
-0.00202152 0.046115 9.93061 
9.92112 0.0136487 -0.0196013 
0.0136487 9.96181 0.0382876 
-0.0196013 0.0382876 9.93058 
10.9173 -0.202233 0.24021 
-0.202233 9.59467 0.990666 
0.24021 0.990666 14.6879 
11.3921 1.01036 -0.81335 
1.01036 8.98006 0.82173 
-0.81335 0.82173 14.8277 
13.3705 -1.4484 0.588504 
-1.4484 11.8456 0.87782 
0.588504 0.87782 9.98374 
11.0763 -0.144708 -0.216096 
-0.144708 10.7779 -1.80705 
-0.216096 -1.80705 13.3456 
9.90153 -0.00141142 0.0114082 
-0.00141142 9.90275 0.0844103 
0.0114082 0.0844103 9.90093 
9.90344 -0.0022881 0.00436955 
-0.0022881 9.88878 0.0866569 
0.00436955 0.0866569 9.91299 
9.91134 -0.00247556 0.0011834 
-0.00247556 9.89786 0.0857776 
0.0011834 0.0857776 9.89601 
9.9036 -0.00418546 0.00636335 
-0.00418546 9.89645 0.0843954 
0.00636335 0.0843954 9.90515 
9.95323 0.0351209 0.0109914 
0.0351209 9.91977 -0.0153391 
0.0109914 -0.0153391 9.99727 
9.94154 0.0427549 -0.00979753 
0.0427549 9.90648 -0.010423 
-0.00979753 -0.010423 10.0222 
9.93295 0.0419611 -0.0184902 
0.0419611 9.95306 0.00565273 
-0.0184902 0.00565273 9.98426 
9.94516 0.0755896 -0.0109674 
0.0755896 9.92004 -0.0102386 
-0.0109674 -0.0102386 10.0051 
9.98239 0.00147342 -0.0332829 
0.00147342 9.98742 -0.0724844 
-0.0332829 -0.0724844 9.98528 
9.99168 -0.00207464 -0.0296756 
-0.00207464 9.9812 -0.0728166 
-0.0296756 -0.0728166 9.98221 
9.98123 -0.000291824 -0.0326893 
-0.000291824 9.98962 -0.0750004 
-0.0326893 -0.0750004 9.98425 
9.99105 -0.00268352 -0.0307273 
-0.00268352 9.97209 -0.072652 
-0.0307273 -0.072652 9.99195 
9.99671 -0.000688083 0.016081 
-0.000688083 9.99398 -0.061203 
0.016081 -0.061203 9.99624 
9.99569 -0.00133146 0.0153537 
-0.00133146 9.99805 -0.0626995 
0.0153537 -0.0626995 9.99319 
9.99072 0.000902031 0.0119976 
0.000902031 9.99125 -0.060935 
0.0119976 -0.060935 10.005 
9.99507 -0.000776851 0.0178179 
-0.000776851 10.0004 -0.0638922 
0.0178179 -0.0638922 9.99151 
9.99732 -0.00400441 -0.0221216 
-0.00400441 10.0027 -0.0795183 
-0.0221216 -0.0795183 9.98096 
9.99325 0.00493505 -0.0149632 
0.00493505 9.9953 -0.0734811 
-0.0149632 -0.0734811 9.99248 
9.9933 0.00189053 -0.0179809 
0.00189053 9.99963 -0.0686154 
-0.0179809 -0.0686154 9.98809 
9.98464 0.00421095 -0.0107548 
0.00421095 9.97933 -0.0765532 
-0.0107548 -0.0765532 10.017 
9.95335 0.00351014 -0.0628084 
0.00351014 9.95047 0.049455 
-0.0628084 0.049455 9.97985 
9.96408 -0.000732252 -0.0620012 
-0.000732252 9.95694 0.0423163 
-0.0620012 0.0423163 9.96265 
9.96754 -0.00407448 -0.0610229 
-0.00407448 9.96487 0.0468591 
-0.0610229 0.0468591 9.95125 
9.95716 0.00186557 -0.0581379 
0.00186557 9.95935 0.0348787 
-0.0581379 0.0348787 9.96716 
9.99154 -0.00163512 0.0383392 
-0.00163512 9.99428 -0.0515546 
0.0383392 -0.0515546 9.99651 
9.99037 -0.000620022 0.0360871 
-0.000620022 9.99523 -0.0532666 
0.0360871 -0.0532666 9.99672 
9.99029 -0.000410637 0.0365018 
-0.000410637 9.99216 -0.0496554 
0.0365018 -0.0496554 9.99987 
9.99393 0.000107095 0.0364268 
0.000107095 9.99665 -0.0518923 
0.0364268 -0.0518923 9.99175 
9.97869 -0.000831745 -0.0541855 
-0.000831745 9.98621 -0.0326301 
-0.0541855 -0.0326301 9.98858 
9.98557 -0.00113128 -0.0567386 
-0.00113128 9.98574 -0.0385824 
-0.0567386 -0.0385824 9.98216 
9.98655 0.00160478 -0.0554994 
0.00160478 9.9819 -0.0365351 
-0.0554994 -0.0365351 9.98502 
9.98516 -0.000354939 -0.0549469 
-0.000354939 9.98534 -0.0341835 
-0.0549469 -0.0341835 9.98298 
9.98629 0.00329695 -0.0325523 
0.00329695 9.98794 0.0723582 
-0.0325523 0.0723582 9.98218 
9.98285 0.00774144 -0.0290198 
0.00774144 9.9818 0.0734854 
-0.0290198 0.0734854 9.99176 
9.98538 0.000182958 -0.0299183 
0.000182958 9.98667 0.0732506 
-0.0299183 0.0732506 9.98438 
9.98268 -0.00136771 -0.0305199 
-0.00136771 9.9877 0.072128 
-0.0305199 0.072128 9.98603 
9.94275 -0.00499073 -0.0765351 
-0.00499073 9.93995 -0.0318563 
-0.0765351 -0.0318563 9.94183 
9.94352 -0.00677854 -0.0775593 
-0.00677854 9.93881 -0.029824 
-0.0775593 -0.029824 9.94221 
9.95189 0.00145198 -0.0772633 
0.00145198 9.93928 -0.0296048 
-0.0772633 -0.0296048 9.93336 
9.94231 -0.00407144 -0.0754984 
-0.00407144 9.94255 -0.0304738 
-0.0754984 -0.0304738 9.93968 
10.1077 0.000291331 0.00291972 
0.000291331 10.0832 0.0160519 
0.00291972 0.0160519 10.1278 
10.1273 -0.00618442 0.00309576 
-0.00618442 10.119 -0.0105161 
0.00309576 -0.0105161 10.0724 
10.0892 0.00582012 0.00863589 
0.00582012 10.0933 0.000195471 
0.00863589 0.000195471 10.1362 
10.1064 -0.00827054 -0.0179602 
-0.00827054 10.0931 0.0103317 
-0.0179602 0.0103317 10.1192 
9.88039 -0.00256549 -0.00616575 
-0.00256549 9.91493 0.0862609 
-0.00616575 0.0862609 9.87131 
9.89792 0.00870911 -0.0105049 
0.00870911 9.86933 0.0785944 
-0.0105049 0.0785944 9.89939 
9.89476 0.00326467 -0.0102346 
0.00326467 9.872 0.0829231 
-0.0102346 0.0829231 9.89989 
9.89082 0.00808869 -0.0120243 
0.00808869 9.87534 0.0910481 
-0.0120243 0.0910481 9.90048 
10.7213 -0.0559477 -0.0177642 
-0.0559477 10.7179 0.251595 
-0.0177642 0.251595 11.004 
11.545 0.28346 -0.680382 
0.28346 10.5229 0.0600858 
-0.680382 0.0600858 10.3753 
10.6045 -0.124305 0.370269 
-0.124305 9.77904 0.632851 
0.370269 0.632851 12.0597 
11.9421 -0.28753 0.116355 
-0.28753 9.99027 -0.398771 
0.116355 -0.398771 10.5108 
9.92984 0.00515201 0.0665976 
0.00515201 9.92555 -0.036524 
0.0665976 -0.036524 9.93048 
9.93026 0.000636324 0.0682946 
0.000636324 9.9213 -0.0345833 
0.0682946 -0.0345833 9.93432 
9.93363 0.00509578 0.0729908 
0.00509578 9.93006 -0.0306346 
0.0729908 -0.0306346 9.92218 
9.92808 0.00660899 0.0656596 
0.00660899 9.9277 -0.0328756 
0.0656596 -0.0328756 9.93009 
9.99696 0.0080175 -0.0118635 
0.0080175 9.9 0.0327281 
-0.0118635 0.0327281 9.94667 
9.90315 0.00057592 -0.0196725 
0.00057592 9.94977 0.00383789 
-0.0196725 0.00383789 9.99072 
9.85038 0.0212358 -0.0585972 
0.0212358 9.98516 -0.00703937 
-0.0585972 -0.00703937 10.0081 
9.91407 -0.0441896 -0.0156195 
-0.0441896 9.9164 -0.0168117 
-0.0156195 -0.0168117 10.0132 
9.92742 0.0639774 -0.004841 
0.0639774 9.88141 -0.00352587 
-0.004841 -0.00352587 9.99964 
9.92515 -0.103272 0.00450252 
-0.103272 9.98146 0.0218768 
0.00450252 0.0218768 9.90186 
9.89855 0.0378878 -0.0214971 
0.0378878 9.92434 0.0102662 
-0.0214971 0.0102662 9.98558 
9.91307 0.0381906 -0.0496022 
0.0381906 9.91828 0.0641952 
-0.0496022 0.0641952 9.97712 
10.036 0.00325028 0.0119919 
0.00325028 10.0206 0.0070374 
0.0119919 0.0070374 10.0328 
10.0238 0.00816111 -0.000126549 
0.00816111 10.0348 0.00606161 
-0.000126549 0.00606161 10.0308 
10.0378 -0.00354041 0.00969135 
-0.00354041 10.0272 0.00326651 
0.00969135 0.00326651 10.0244 
10.0429 0.00284746 0.00788893 
0.00284746 10.0112 0.0105946 
0.00788893 0.0105946 10.0353 
9.99422 -0.000974834 -0.0172976 
-0.000974834 9.99379 0.00973247 
-0.0172976 0.00973247 9.99081 
9.98723 0.00203262 -0.0195368 
0.00203262 9.99029 0.00703107 
-0.0195368 0.00703107 10.0013 
9.99034 0.0012304 -0.0154164 
0.0012304 9.98738 0.0111543 
-0.0154164 0.0111543 10.0011 
9.99442 -0.00300722 -0.0154786 
-0.00300722 9.99482 0.00796427 
-0.0154786 0.00796427 9.98958 
10.9593 -0.0380588 -0.149179 
-0.0380588 11.4152 -0.117916 
-0.149179 -0.117916 11.1365 
10.9385 0.249021 -0.195544 
0.249021 11.3089 -0.00187603 
-0.195544 -0.00187603 11.2636 
10.8654 -0.0884188 -0.181106 
-0.0884188 10.6321 0.290233 
-0.181106 0.290233 12.0136 
11.1271 -0.0402236 -0.285756 
-0.0402236 11.2771 -0.163187 
-0.285756 -0.163187 11.1069 
9.991 0.000392449 -0.0130445 
0.000392449 9.98951 0.00276181 
-0.0130445 0.00276181 9.99969 
9.99349 0.000462708 -0.0126227 
0.000462708 9.98993 0.00612976 
-0.0126227 0.00612976 9.99677 
9.99166 0.00191361 -0.010616 
0.00191361 9.99174 0.0052287 
-0.010616 0.0052287 9.99679 
9.99447 0.000155766 -0.0108433 
0.000155766 9.99245 0.00555858 
-0.0108433 0.00555858 9.99327 
9.99346 0.0046716 -0.0177109 
0.0046716 9.99936 0.00621632 
-0.0177109 0.00621632 10.0352 
10.0038 0.0121691 -0.00727143 
0.0121691 10.0126 0.00523553 
-0.00727143 0.00523553 10.0116 
10.0163 0.00975845 0.00353923 
0.00975845 10.0062 0.00264237 
0.00353923 0.00264237 10.0055 
10.0304 -0.00252944 -0.00820524 
-0.00252944 10.0249 -0.0212198 
-0.00820524 -0.0212198 9.97262 
9.91432 0.0316609 -0.0526069 
0.0316609 9.81339 -0.0664716 
-0.0526069 -0.0664716 9.97028 
9.92668 0.00307274 -0.0387045 
0.00307274 9.79118 -0.121743 
-0.0387045 -0.121743 9.98012 
9.87168 0.0362882 -0.0379131 
0.0362882 9.81295 -0.120084 
-0.0379131 -0.120084 10.0134 
9.87348 -0.048122 -0.0805653 
-0.048122 9.81594 -0.016948 
-0.0805653 -0.016948 10.0086 
9.98338 0.000326669 -0.0146711 
0.000326669 9.98443 0.0412843 
-0.0146711 0.0412843 10.0137 
9.9921 -0.000814513 -0.014073 
-0.000814513 10.0006 0.0410314 
-0.014073 0.0410314 9.98877 
9.99222 0.00104188 -0.0143978 
0.00104188 9.99722 0.0390362 
-0.0143978 0.0390362 9.99205 
9.99606 -0.001488 -0.0135326 
-0.001488 9.99895 0.0345938 
-0.0135326 0.0345938 9.98648 
9.97379 -0.00100233 -0.0617568 
-0.00100233 9.9734 -0.0348983 
-0.0617568 -0.0348983 9.97855 
9.97715 -0.000181507 -0.0617294 
-0.000181507 9.97289 -0.0368484 
-0.0617294 -0.0368484 9.97571 
9.97928 -0.000231216 -0.0622729 
-0.000231216 9.97608 -0.0404209 
-0.0622729 -0.0404209 9.97038 
9.9784 0.000957457 -0.0636576 
0.000957457 9.97147 -0.0371213 
-0.0636576 -0.0371213 9.97587 
9.92867 0.0160109 -0.0168104 
0.0160109 9.91852 0.0772831 
-0.0168104 0.0772831 9.90493 
9.92404 0.00873948 -0.0237604 
0.00873948 9.93175 0.0778133 
-0.0237604 0.0778133 9.89632 
9.91318 -0.000293969 -0.024714 
-0.000293969 9.91458 0.0802177 
-0.024714 0.0802177 9.92435 
9.91461 0.00172951 -0.0222791 
0.00172951 9.91394 0.0745746 
-0.0222791 0.0745746 9.92356 
9.90952 0.00915195 -0.0589375 
0.00915195 9.89685 -0.0793727 
-0.0589375 -0.0793727 9.94654 
9.90751 0.0174767 -0.0415485 
0.0174767 9.89366 -0.0616132 
-0.0415485 -0.0616132 9.95173 
9.91478 0.00379166 -0.0512087 
0.00379166 9.88788 -0.0595745 
-0.0512087 -0.0595745 9.95025 
9.88337 -0.0236855 -0.0575245 
-0.0236855 9.88521 -0.0612381 
-0.0575245 -0.0612381 9.98433 
9.98945 -0.00177529 0.0780183 
-0.00177529 9.98223 0.00614262 
0.0780183 0.00614262 9.98407 
9.96823 0.00370021 0.0780273 
0.00370021 9.99013 0.00241649 
0.0780273 0.00241649 9.99737 
9.98974 -0.000837928 0.0820656 
-0.000837928 9.98561 0.00410079 
0.0820656 0.00410079 9.9804 
9.98931 0.000471908 0.0809188 
0.000471908 9.98318 0.0031639 
0.0809188 0.0031639 9.98325 
9.88036 -0.0286749 -0.0949069 
-0.0286749 9.92324 -0.0311556 
-0.0949069 -0.0311556 9.86427 
9.82309 0.0212759 0.0407415 
0.0212759 9.94098 0.00813456 
0.0407415 0.00813456 9.9038 
9.83405 -0.0077536 -0.0232757 
-0.0077536 9.91021 0.0189376 
-0.0232757 0.0189376 9.92362 
9.76736 -0.0163293 -0.0274846 
-0.0163293 9.88548 0.0543242 
-0.0274846 0.0543242 10.015 
9.98878 0.00170446 -0.0806578 
0.00170446 9.98655 0.00782758 
-0.0806578 0.00782758 9.98577 
9.97256 -0.00189856 -0.0795853 
-0.00189856 9.99046 0.00238876 
-0.0795853 0.00238876 9.99808 
9.99159 0.000813415 -0.0851835 
0.000813415 9.99065 0.00512377 
-0.0851835 0.00512377 9.97886 
9.99163 0.000998057 -0.0801236 
0.000998057 9.98608 0.00870717 
-0.0801236 0.00870717 9.98339 
9.99067 -0.00080345 0.00105821 
-0.00080345 9.99112 -0.0371064 
0.00105821 -0.0371064 10.0069 
9.99858 -0.00105417 0.00237193 
-0.00105417 9.99904 -0.0345891 
0.00237193 -0.0345891 9.99105 
9.99366 0.00279059 0.00355478 
0.00279059 9.99778 -0.0336335 
0.00355478 -0.0336335 9.99723 
9.99853 -0.00244583 0.00166962 
-0.00244583 9.99901 -0.0305309 
0.00166962 -0.0305309 9.99113 
10.0072 0.00882253 -0.00275323 
0.00882253 9.99671 -0.06255 
-0.00275323 -0.06255 9.99867 
9.99617 -0.00886332 0.0196473 
-0.00886332 10.0019 0.0134007 
0.0196473 0.0134007 10.0045 
9.96199 -0.00402474 -0.00258575 
-0.00402474 10.0168 0.00910032 
-0.00258575 0.00910032 10.0237 
9.95039 0.00472717 -0.00603931 
0.00472717 9.97793 0.00587365 
-0.00603931 0.00587365 10.0742 
9.90741 -0.000520019 -0.0420597 
-0.000520019 9.90649 -0.0366129 
-0.0420597 -0.0366129 9.95936 
9.90133 0.0116027 -0.0467405 
0.0116027 9.92191 -0.0555856 
-0.0467405 -0.0555856 9.95003 
9.90591 -0.00640327 -0.047424 
-0.00640327 9.90467 -0.0391298 
-0.047424 -0.0391298 9.96269 
9.89792 -0.000332219 -0.0425939 
-0.000332219 9.89641 -0.0435875 
-0.0425939 -0.0435875 9.97893 
9.96044 -0.0122356 0.0250872 
-0.0122356 9.96222 -0.0138552 
0.0250872 -0.0138552 9.95864 
9.95563 -0.0124887 0.0195868 
-0.0124887 9.96034 -0.0209555 
0.0195868 -0.0209555 9.96534 
9.96436 -0.0150666 0.0205682 
-0.0150666 9.95627 -0.0092464 
0.0205682 -0.0092464 9.96069 
9.95319 -0.0105751 0.0217766 
-0.0105751 9.96512 -0.0135311 
0.0217766 -0.0135311 9.963 
9.97106 0.0229817 0.0124384 
0.0229817 10.0145 0.0189224 
0.0124384 0.0189224 9.97914 
9.98057 -0.0415606 0.000659653 
-0.0415606 9.97744 -0.000692792 
0.000659653 -0.000692792 10.0067 
9.99298 -0.0135716 -0.00683739 
-0.0135716 9.99758 0.00772682 
-0.00683739 0.00772682 9.97417 
9.98794 0.00250586 0.00372186 
0.00250586 9.99911 -0.0105847 
0.00372186 -0.0105847 9.97767 
9.9517 -0.0104181 0.0332134 
-0.0104181 9.94679 -0.0267475 
0.0332134 -0.0267475 9.94406 
9.95325 -0.0116672 0.0389643 
-0.0116672 9.94702 -0.0264684 
0.0389643 -0.0264684 9.94228 
9.9501 -0.0120244 0.0267164 
-0.0120244 9.96207 -0.0246468 
0.0267164 -0.0246468 9.93037 
9.93124 -0.0104534 0.0336088 
-0.0104534 9.95349 -0.0185575 
0.0336088 -0.0185575 9.95781 
10.204 0.0100326 0.0366364 
0.0100326 10.1807 0.0227316 
0.0366364 0.0227316 10.2433 
10.0726 -0.0251417 0.0200723 
-0.0251417 10.1963 -0.0136425 
0.0200723 -0.0136425 10.3592 
10.2748 0.0471603 0.0147782 
0.0471603 10.2342 0.00915744 
0.0147782 0.00915744 10.1191 
10.2792 0.000557484 0.118194 
0.000557484 10.1693 0.028296 
0.118194 0.028296 10.1796 
9.94194 0.00714949 0.000403499 
0.00714949 9.93914 0.0142025 
0.000403499 0.0142025 10.0033 
9.94965 -0.00294498 0.000198621 
-0.00294498 9.94503 0.0022704 
0.000198621 0.0022704 9.98968 
9.94955 -0.00500307 -0.000339918 
-0.00500307 9.93978 -0.000677961 
-0.000339918 -0.000677961 9.99502 
9.93678 -0.00360367 0.00245779 
-0.00360367 9.95469 0.00120332 
0.00245779 0.00120332 9.99288 
9.91603 -0.00279238 0.0438818 
-0.00279238 9.91515 0.0412522 
0.0438818 0.0412522 9.93433 
9.92526 0.0041586 0.047175 
0.0041586 9.91669 0.0476597 
0.047175 0.0476597 9.92357 
9.92018 0.00699524 0.0497421 
0.00699524 9.91785 0.0470405 
0.0497421 0.0470405 9.92748 
9.92052 0.00099802 0.0498984 
0.00099802 9.91163 0.0441392 
0.0498984 0.0441392 9.93336 
9.98022 -0.00360548 -0.0747082 
-0.00360548 9.9794 -0.0259854 
-0.0747082 -0.0259854 9.98279 
9.98551 -0.00341992 -0.0726079 
-0.00341992 9.97877 -0.0323074 
-0.0726079 -0.0323074 9.97814 
9.98072 -0.00377959 -0.072534 
-0.00377959 9.97942 -0.030013 
-0.072534 -0.030013 9.98228 
9.98443 -0.00288878 -0.0770682 
-0.00288878 9.98029 -0.0256723 
-0.0770682 -0.0256723 9.9777 
9.90476 -0.000297612 0.0107181 
-0.000297612 9.9078 -0.00381188 
0.0107181 -0.00381188 10.0732 
9.92043 -0.00068986 0.0136642 
-0.00068986 9.91089 -0.0204468 
0.0136642 -0.0204468 10.0545 
9.92022 -0.00164851 0.0154245 
-0.00164851 9.9104 -0.00953187 
0.0154245 -0.00953187 10.0552 
9.91903 0.000309287 -0.00777584 
0.000309287 9.92492 -0.00458996 
-0.00777584 -0.00458996 10.0418 
9.98875 0.00371502 -0.0421937 
0.00371502 9.97907 0.0639198 
-0.0421937 0.0639198 9.99265 
9.9886 0.00246826 -0.0416048 
0.00246826 9.98481 0.0630214 
-0.0416048 0.0630214 9.98707 
9.98571 -4.66927e-06 -0.0462302 
-4.66927e-06 9.98854 0.0643498 
-0.0462302 0.0643498 9.98623 
9.98516 -0.00243085 -0.0446555 
-0.00243085 9.98682 0.0633517 
-0.0446555 0.0633517 9.98851 
9.98397 -0.000827484 -0.05936 
-0.000827484 9.98491 -0.0495494 
-0.05936 -0.0495494 9.98562 
9.97869 0.00147169 -0.0621501 
0.00147169 9.9862 -0.0408104 
-0.0621501 -0.0408104 9.98961 
9.9853 0.00177939 -0.0621826 
0.00177939 9.985 -0.0443819 
-0.0621826 -0.0443819 9.9842 
9.98694 0.00145585 -0.0576936 
0.00145585 9.98658 -0.0500221 
-0.0576936 -0.0500221 9.98098 
9.92531 0.00249863 -0.0139031 
0.00249863 9.93872 0.00159035 
-0.0139031 0.00159035 9.92041 
9.9373 0.0114434 -0.0241522 
0.0114434 9.94158 0.0188708 
-0.0241522 0.0188708 9.90556 
9.93457 0.0193813 -0.0350314 
0.0193813 9.93082 -0.0132453 
-0.0350314 -0.0132453 9.91905 
9.94705 0.0254323 -0.0122655 
0.0254323 9.94015 0.00911304 
-0.0122655 0.00911304 9.89724 
9.89 -0.0216279 -0.00133434 
-0.0216279 9.91041 -0.028918 
-0.00133434 -0.028918 9.9381 
9.87778 -0.0385432 0.00520922 
-0.0385432 9.92679 -0.0363244 
0.00520922 -0.0363244 9.93395 
9.95672 -0.0256378 0.00230211 
-0.0256378 9.76748 -0.00149631 
0.00230211 -0.00149631 10.0143 
9.86881 0.0127251 -0.0115575 
0.0127251 9.90767 -0.0862119 
-0.0115575 -0.0862119 9.96204 
9.92941 -0.00641972 0.0185734 
-0.00641972 9.92413 -0.00581172 
0.0185734 -0.00581172 10.0208 
9.91927 -0.00745789 0.0233848 
-0.00745789 9.9225 -0.0200942 
0.0233848 -0.0200942 10.0325 
9.92391 -0.0015984 0.0160795 
-0.0015984 9.92457 -0.0124767 
0.0160795 -0.0124767 10.0258 
9.92093 0.00473302 0.00805836 
0.00473302 9.92323 -0.0085375 
0.00805836 -0.0085375 10.0301 
9.94173 0.00304166 -0.0856173 
0.00304166 9.96085 0.0198535 
-0.0856173 0.0198535 9.98155 
9.9855 0.00181093 -0.0812468 
0.00181093 9.95514 0.0106968 
-0.0812468 0.0106968 9.94347 
9.96649 0.00102102 -0.0756337 
0.00102102 9.96059 0.0178812 
-0.0756337 0.0178812 9.95704 
9.95773 0.0126515 -0.0635891 
0.0126515 9.96332 0.0237088 
-0.0635891 0.0237088 9.96307 
5.74815 0.775174 -1.15527 
0.775174 10.7163 2.95226 
-1.15527 2.95226 -1.46548 
6.1751 -0.998773 1.27596 
-0.998773 12.055 3.15759 
1.27596 3.15759 -3.2311 
2.02566 0.671453 0.190105 
0.671453 5.2513 -0.165724 
0.190105 -0.165724 7.72201 
6.11165 0.116289 -0.418996 
0.116289 3.83481 6.21744 
-0.418996 6.21744 5.0525 
9.96678 0.00689056 0.0463512 
0.00689056 9.96734 0.0605905 
0.0463512 0.0605905 9.94776 
9.95058 -0.00335889 0.0501514 
-0.00335889 9.95211 0.064128 
0.0501514 0.064128 9.97919 
9.95754 0.000633447 0.0426339 
0.000633447 9.96255 0.061873 
0.0426339 0.061873 9.96178 
9.95879 -0.00273681 0.034067 
-0.00273681 9.95591 0.0589215 
0.034067 0.0589215 9.96718 
9.99279 -0.00217009 0.0355078 
-0.00217009 9.99174 -0.0350278 
0.0355078 -0.0350278 9.99583 
9.98997 -0.00172231 0.0321242 
-0.00172231 9.99182 -0.0345667 
0.0321242 -0.0345667 9.99857 
9.9904 -0.00237156 0.0343881 
-0.00237156 9.99155 -0.0314836 
0.0343881 -0.0314836 9.9984 
9.99278 -0.00292154 0.0368529 
-0.00292154 9.99506 -0.0339576 
0.0368529 -0.0339576 9.99252 
9.97462 0.0137148 0.00199059 
0.0137148 9.96584 -0.00129186 
0.00199059 -0.00129186 9.96107 
9.97895 0.00544888 -0.0133148 
0.00544888 9.96826 -0.0170196 
-0.0133148 -0.0170196 9.95432 
9.96506 0.011436 -0.0139832 
0.011436 9.96966 -0.00752929 
-0.0139832 -0.00752929 9.96682 
9.96016 0.00588426 -0.018394 
0.00588426 9.96024 -0.00570085 
-0.018394 -0.00570085 9.98113 
9.98057 0.000968459 -0.0141497 
0.000968459 9.98714 -0.00247113 
-0.0141497 -0.00247113 9.99167 
9.98497 0.000561437 -0.00963135 
0.000561437 9.98342 0.00291896 
-0.00963135 0.00291896 9.99099 
9.98607 -0.00116188 -0.0134028 
-0.00116188 9.98625 -0.00144599 
-0.0134028 -0.00144599 9.98707 
9.98386 -0.00215096 -0.00870199 
-0.00215096 9.98813 0.00326392 
-0.00870199 0.00326392 9.9874 
10.0052 0.0178683 0.0213484 
0.0178683 9.99933 -0.0107791 
0.0213484 -0.0107791 10.0579 
10.0164 0.0103279 0.00287312 
0.0103279 10.0167 0.00843228 
0.00287312 0.00843228 10.0294 
10.0466 0.0181816 -0.00273739 
0.0181816 10.0516 0.0232183 
-0.00273739 0.0232183 9.9643 
9.99367 0.0338035 -0.0367611 
0.0338035 10.0224 -0.0193014 
-0.0367611 -0.0193014 10.0464 
10.2838 -0.00448156 0.0308416 
-0.00448156 10.2382 -0.0326005 
0.0308416 -0.0326005 10.3498 
10.3199 -0.0418738 0.0222015 
-0.0418738 10.3508 0.020095 
0.0222015 0.020095 10.2011 
10.2287 0.0727006 0.0197928 
0.0727006 10.2708 0.00796665 
0.0197928 0.00796665 10.3723 
10.291 -0.0186777 0.104126 
-0.0186777 10.2536 -0.0588364 
0.104126 -0.0588364 10.3271 
9.9219 -0.00421265 -0.00829322 
-0.00421265 9.93091 0.0296782 
-0.00829322 0.0296782 9.9561 
9.93083 0.015573 -0.00713482 
0.015573 9.88214 0.0118142 
-0.00713482 0.0118142 9.99593 
9.95681 0.0244434 -0.0230624 
0.0244434 9.86835 0.0289915 
-0.0230624 0.0289915 9.98375 
9.90671 0.0300176 -0.000783743 
0.0300176 9.92429 0.0273663 
-0.000783743 0.0273663 9.9779 
10.1965 -0.185331 -0.420833 
-0.185331 11.005 -0.182605 
-0.420833 -0.182605 11.1384 
10.4509 0.332284 -0.0875053 
0.332284 9.68298 0.0638035 
-0.0875053 0.0638035 12.206 
8.70517 -0.598361 -0.204252 
-0.598361 9.28647 0.257513 
-0.204252 0.257513 14.3482 
10.3333 0.0266695 0.597864 
0.0266695 11.1982 -0.333637 
0.597864 -0.333637 10.8083 
9.99225 -0.0015103 -0.0353353 
-0.0015103 9.98871 0.0660213 
-0.0353353 0.0660213 10.0045 
9.9971 -0.000771461 -0.0424388 
-0.000771461 9.99749 0.0631244 
-0.0424388 0.0631244 9.99087 
9.99586 -0.00293759 -0.0392082 
-0.00293759 9.9951 0.063017 
-0.0392082 0.063017 9.9945 
9.99366 -0.00249868 -0.0386729 
-0.00249868 9.99744 0.0624793 
-0.0386729 0.0624793 9.99436 
9.93956 0.00626073 -0.000517793 
0.00626073 9.92723 0.0139644 
-0.000517793 0.0139644 9.93532 
9.94204 0.0123814 -0.0135313 
0.0123814 9.93966 0.0188784 
-0.0135313 0.0188784 9.9204 
9.9294 0.00443406 -0.0138337 
0.00443406 9.94905 0.00529977 
-0.0138337 0.00529977 9.92366 
9.93955 0.00772768 -0.0113747 
0.00772768 9.9407 0.0149072 
-0.0113747 0.0149072 9.92185 
9.96017 -0.000232685 0.0369985 
-0.000232685 9.96951 -0.0751085 
0.0369985 -0.0751085 9.95721 
9.95971 0.00244968 0.0321246 
0.00244968 9.96218 -0.0735582 
0.0321246 -0.0735582 9.96501 
9.95257 0.000312244 0.0371475 
0.000312244 9.96102 -0.0737906 
0.0371475 -0.0737906 9.9733 
9.95888 0.00199171 0.0316625 
0.00199171 9.96311 -0.0691887 
0.0316625 -0.0691887 9.9649 
9.90251 0.00919935 0.0405398 
0.00919935 9.91144 -0.0575639 
0.0405398 -0.0575639 9.91829 
9.89216 0.0321731 0.0377039 
0.0321731 9.90186 -0.0475125 
0.0377039 -0.0475125 9.93822 
9.89233 -0.0128181 0.0409964 
-0.0128181 9.93255 -0.0535484 
0.0409964 -0.0535484 9.90737 
9.90987 -0.000212327 0.0516077 
-0.000212327 9.89716 -0.0602167 
0.0516077 -0.0602167 9.92521 
9.90778 -0.0202176 0.02929 
-0.0202176 9.92005 0.0346503 
0.02929 0.0346503 9.95405 
9.92655 0.0114123 0.0379886 
0.0114123 9.91566 0.0368985 
0.0379886 0.0368985 9.93967 
9.91598 0.000158069 0.0367912 
0.000158069 9.92385 0.035523 
0.0367912 0.035523 9.94205 
9.90694 0.0064217 0.0408631 
0.0064217 9.92557 0.0445059 
0.0408631 0.0445059 9.94937 
9.98899 -0.00337918 -0.00175526 
-0.00337918 9.97216 0.0780361 
-0.00175526 0.0780361 9.99653 
9.98888 -0.000187447 -0.00428777 
-0.000187447 9.98929 0.082697 
-0.00428777 0.082697 9.97951 
9.98453 -1.71838e-05 -0.00665181 
-1.71838e-05 9.98898 0.0798547 
-0.00665181 0.0798547 9.98417 
9.98477 0.000455779 -0.0058343 
0.000455779 9.98809 0.0798251 
-0.0058343 0.0798251 9.98482 
10.14 -0.0459963 -0.00946309 
-0.0459963 10.0176 0.0310466 
-0.00946309 0.0310466 10.2615 
10.1114 -0.0494936 0.0266085 
-0.0494936 10.2656 -0.0320315 
0.0266085 -0.0320315 10.042 
10.1287 0.108025 -0.0101803 
0.108025 10.1646 0.00729686 
-0.0101803 0.00729686 10.1257 
10.1108 0.00103489 0.0350519 
0.00103489 10.1571 -0.00130416 
0.0350519 -0.00130416 10.1511 
8.70657 1.51195 -0.611544 
1.51195 7.77963 0.200326 
-0.611544 0.200326 13.2449 
11.95 1.02781 -0.644854 
1.02781 11.3744 1.06021 
-0.644854 1.06021 6.40669 
9.20676 1.45225 0.11365 
1.45225 6.50295 0.755174 
0.11365 0.755174 14.0214 
9.46063 0.195859 0.941777 
0.195859 9.15168 -2.43794 
0.941777 -2.43794 11.1188 
10.2722 0.106543 0.0259388 
0.106543 10.8549 -0.0479414 
0.0259388 -0.0479414 10.631 
10.8951 -0.0738731 -0.0840941 
-0.0738731 10.7956 -0.206063 
-0.0840941 -0.206063 10.0674 
10.2032 -0.0832185 0.15633 
-0.0832185 10.3303 -0.0484254 
0.15633 -0.0484254 11.2246 
10.5217 -0.179089 -0.175474 
-0.179089 10.7521 0.161883 
-0.175474 0.161883 10.4843 
11.5091 0.789387 0.216997 
0.789387 11.1599 -0.173864 
0.216997 -0.173864 10.6101 
10.7873 0.0518225 0.469295 
0.0518225 8.2835 -0.276771 
0.469295 -0.276771 14.2083 
10.8931 0.01539 0.0752986 
0.01539 11.0908 -0.268048 
0.0752986 -0.268048 11.2952 
11.2484 0.616555 -0.94868 
0.616555 10.5989 0.752241 
-0.94868 0.752241 11.4317 
9.99831 -0.00387072 0.058837 
-0.00387072 9.99217 -0.0445632 
0.058837 -0.0445632 9.99247 
9.98925 -0.000900058 0.0574803 
-0.000900058 9.98933 -0.048824 
0.0574803 -0.048824 10.0044 
9.99746 -0.000905185 0.0639058 
-0.000905185 9.99455 -0.0442754 
0.0639058 -0.0442754 9.99094 
9.99441 -0.00270073 0.0607244 
-0.00270073 9.99431 -0.0454637 
0.0607244 -0.0454637 9.99423 
10.1144 -0.0694308 0.0302907 
-0.0694308 9.97166 0.04517 
0.0302907 0.04517 10.2138 
10.0698 -0.00131823 -0.0433748 
-0.00131823 10.1216 0.00065405 
-0.0433748 0.00065405 10.1085 
10.2042 -0.0301203 0.0233706 
-0.0301203 10.2803 0.0294789 
0.0233706 0.0294789 9.81542 
10.0619 -0.0140686 -0.0430399 
-0.0140686 10.1962 -0.147343 
-0.0430399 -0.147343 10.0417 
9.99968 -0.00102774 0.0717055 
-0.00102774 9.99204 -0.0295522 
0.0717055 -0.0295522 9.99297 
9.988 -0.00207946 0.0751104 
-0.00207946 9.989 -0.0239579 
0.0751104 -0.0239579 10.0077 
9.99823 -0.000721069 0.073563 
-0.000721069 9.99687 -0.0326922 
0.073563 -0.0326922 9.98959 
9.99776 -0.00350071 0.071863 
-0.00350071 9.99455 -0.0293762 
0.071863 -0.0293762 9.99238 
9.97167 0.00310689 -0.0722168 
0.00310689 9.99041 0.031509 
-0.0722168 0.031509 9.99434 
9.987 -0.00183215 -0.0721512 
-0.00183215 9.98231 0.0322687 
-0.0721512 0.0322687 9.98711 
9.98848 0.000390241 -0.0743352 
0.000390241 9.98292 0.0333 
-0.0743352 0.0333 9.98502 
9.98288 0.00138524 -0.0733055 
0.00138524 9.98977 0.0290824 
-0.0733055 0.0290824 9.98378 
9.86283 0.0746485 0.137416 
0.0746485 9.91647 -0.0733792 
0.137416 -0.0733792 9.82771 
9.77241 0.0373152 0.132758 
0.0373152 9.81856 -0.0170531 
0.132758 -0.0170531 10.016 
9.84355 0.0878288 0.23945 
0.0878288 9.83347 -0.147959 
0.23945 -0.147959 9.92998 
9.78697 0.0575835 0.160496 
0.0575835 9.91018 -0.0760364 
0.160496 -0.0760364 9.90985 
9.95331 0.00125081 0.0835959 
0.00125081 9.95539 -0.0126859 
0.0835959 -0.0126859 9.9698 
9.95295 0.000245117 0.0818522 
0.000245117 9.96371 -0.00756835 
0.0818522 -0.00756835 9.96183 
9.9746 -0.00253943 0.0854085 
-0.00253943 9.95607 -0.00861484 
0.0854085 -0.00861484 9.94782 
9.95838 0.00358806 0.0745755 
0.00358806 9.96133 -0.00414859 
0.0745755 -0.00414859 9.95879 
10.3263 -0.201149 0.103675 
-0.201149 10.8628 0.114355 
0.103675 0.114355 10.5393 
9.84482 0.209271 0.458296 
0.209271 10.9292 -0.01281 
0.458296 -0.01281 10.9544 
10.8526 0.220614 0.0200497 
0.220614 10.5367 -0.0488014 
0.0200497 -0.0488014 10.3391 
10.1331 -0.050721 0.116678 
-0.050721 10.8243 -0.14463 
0.116678 -0.14463 10.771 
9.92225 -0.00738486 0.0298391 
-0.00738486 9.90656 0.0237965 
0.0298391 0.0237965 9.95039 
9.91749 -0.0359957 0.0213925 
-0.0359957 9.88395 0.0137554 
0.0213925 0.0137554 9.97776 
9.9497 0.0302511 0.0258962 
0.0302511 9.90828 0.00321951 
0.0258962 0.00321951 9.92122 
9.90796 -0.00113322 0.0305141 
-0.00113322 9.91721 0.0282004 
0.0305141 0.0282004 9.95403 
9.94595 0.00537657 0.0512975 
0.00537657 9.94696 0.0457469 
0.0512975 0.0457469 9.94142 
9.95247 0.000707505 0.0525815 
0.000707505 9.9478 0.0458482 
0.0525815 0.0458482 9.93406 
9.94183 -0.00311149 0.0558531 
-0.00311149 9.94129 0.0523613 
0.0558531 0.0523613 9.95122 
9.94635 -0.00127019 0.0511754 
-0.00127019 9.94094 0.0510999 
0.0511754 0.0510999 9.94704 
9.94671 -0.00659475 0.0435201 
-0.00659475 9.94452 0.0637544 
0.0435201 0.0637544 9.96373 
9.95393 -0.00306429 0.0395827 
-0.00306429 9.95689 0.0654512 
0.0395827 0.0654512 9.94414 
9.95027 0.00414065 0.0449802 
0.00414065 9.95577 0.0599969 
0.0449802 0.0599969 9.94892 
9.94542 -0.00146607 0.0430043 
-0.00146607 9.957 0.0575399 
0.0430043 0.0575399 9.95255 
9.95504 0.000442435 -0.0202075 
0.000442435 9.95026 0.0848042 
-0.0202075 0.0848042 9.95923 
9.95404 0.0012726 -0.017682 
0.0012726 9.95697 0.0795806 
-0.017682 0.0795806 9.95351 
9.94904 0.00196345 -0.0142798 
0.00196345 9.97519 0.0762784 
-0.0142798 0.0762784 9.9403 
9.95636 0.00256677 -0.0222704 
0.00256677 9.95162 0.0776752 
-0.0222704 0.0776752 9.95655 
9.94773 -0.006238 0.0616783 
-0.006238 9.94376 0.0459405 
0.0616783 0.0459405 9.96124 
9.9524 -0.00240087 0.059011 
-0.00240087 9.94858 0.0466377 
0.059011 0.0466377 9.95174 
9.95565 0.00573017 0.0628437 
0.00573017 9.94504 0.0476663 
0.0628437 0.0476663 9.95204 
9.94873 0.00407046 0.0607233 
0.00407046 9.94848 0.0457736 
0.0607233 0.0457736 9.95551 
10.9386 -0.372429 -0.108481 
-0.372429 10.9166 0.229101 
-0.108481 0.229101 12.7145 
11.9399 -0.244516 -0.012642 
-0.244516 10.8306 0.405342 
-0.012642 0.405342 11.7992 
11.1087 -0.375176 -0.279429 
-0.375176 9.75901 0.48704 
-0.279429 0.48704 13.7019 
11.6949 -0.457578 0.932889 
-0.457578 10.1943 0.00763155 
0.932889 0.00763155 12.6804 
8.43891 -0.314726 -0.695037 
-0.314726 10.8543 0.0201831 
-0.695037 0.0201831 13.4486 
10.5102 0.424114 -0.156737 
0.424114 11.5953 0.304808 
-0.156737 0.304808 10.6364 
11.3407 -0.293158 -0.381863 
-0.293158 10.5422 -0.00562274 
-0.381863 -0.00562274 10.859 
9.97168 0.117989 0.653021 
0.117989 11.6357 -0.497494 
0.653021 -0.497494 11.1344 
9.99643 0.000387598 0.0288881 
0.000387598 9.99075 0.0162577 
0.0288881 0.0162577 9.99705 
9.99156 -0.000257028 0.0338315 
-0.000257028 9.98899 0.0151547 
0.0338315 0.0151547 10.0037 
9.99709 0.00053787 0.0305727 
0.00053787 9.99518 0.0150047 
0.0305727 0.0150047 9.99197 
9.99683 0.00091021 0.0290207 
0.00091021 9.99717 0.0139408 
0.0290207 0.0139408 9.99023 
9.93339 -0.00391278 0.0437717 
-0.00391278 9.9327 0.0557593 
0.0437717 0.0557593 9.94535 
9.92608 0.00319999 0.0457418 
0.00319999 9.94418 0.0535004 
0.0457418 0.0535004 9.94117 
9.93504 -0.00608656 0.0445505 
-0.00608656 9.93213 0.0517958 
0.0445505 0.0517958 9.94426 
9.93082 0.00301874 0.0447256 
0.00301874 9.93535 0.0545748 
0.0447256 0.0545748 9.94526 
9.98704 -0.00108683 -0.0376899 
-0.00108683 9.98043 0.0525891 
-0.0376899 0.0525891 9.98685 
9.98435 -0.00227604 -0.0321774 
-0.00227604 9.98323 0.0489488 
-0.0321774 0.0489488 9.98674 
9.9882 0.0002162 -0.0370766 
0.0002162 9.98495 0.0527876 
-0.0370766 0.0527876 9.98117 
9.98443 -0.000322234 -0.0324314 
-0.000322234 9.98726 0.048642 
-0.0324314 0.048642 9.98264 
9.94562 -0.00315106 -0.0433844 
-0.00315106 9.94432 0.0358596 
-0.0433844 0.0358596 9.95901 
9.95025 -0.00902146 -0.0463106 
-0.00902146 9.94442 0.0384092 
-0.0463106 0.0384092 9.95428 
9.94735 -0.00408232 -0.041902 
-0.00408232 9.94227 0.0414022 
-0.041902 0.0414022 9.95933 
9.94546 0.000217405 -0.0454898 
0.000217405 9.94353 0.0381675 
-0.0454898 0.0381675 9.95996 
9.90192 -0.0195368 0.0527752 
-0.0195368 9.92426 -0.0536993 
0.0527752 -0.0536993 9.9043 
9.90084 0.0398609 0.0298578 
0.0398609 9.88267 -0.0328005 
0.0298578 -0.0328005 9.94697 
9.8939 0.00358397 0.0434959 
0.00358397 9.93203 -0.0473163 
0.0434959 -0.0473163 9.90455 
9.86779 0.0256191 0.0391481 
0.0256191 9.91762 -0.0742398 
0.0391481 -0.0742398 9.94507 
9.91791 -0.0138003 -0.0327753 
-0.0138003 9.93339 0.0201677 
-0.0327753 0.0201677 9.93022 
9.92321 0.0301441 -0.0323537 
0.0301441 9.91231 0.044469 
-0.0323537 0.044469 9.94599 
9.92937 -0.00433664 -0.0305619 
-0.00433664 9.92461 0.026602 
-0.0305619 0.026602 9.92753 
9.92292 -0.0032751 -0.0198651 
-0.0032751 9.91215 0.0244052 
-0.0198651 0.0244052 9.94644 
9.97946 0.0653808 0.0151128 
0.0653808 9.98114 0.0167515 
0.0151128 0.0167515 10.0121 
9.97468 -0.0399476 -0.000366037 
-0.0399476 10.0129 -0.0345349 
-0.000366037 -0.0345349 9.98514 
10.0055 0.00886809 0.00370087 
0.00886809 10.0048 -0.0181716 
0.00370087 -0.0181716 9.96248 
9.99613 -0.00982968 -0.00151709 
-0.00982968 10.0046 0.00304893 
-0.00151709 0.00304893 9.97203 
9.92559 0.0034417 0.0584725 
0.0034417 9.91491 -0.0333543 
0.0584725 -0.0333543 9.93453 
9.93733 -0.000369754 0.0564361 
-0.000369754 9.90791 -0.0339735 
0.0564361 -0.0339735 9.92979 
9.91134 0.0210343 0.056491 
0.0210343 9.91754 -0.0337364 
0.056491 -0.0337364 9.94615 
9.91859 -0.000109481 0.0637234 
-0.000109481 9.91804 -0.0354938 
0.0637234 -0.0354938 9.9384 
9.87249 0.07552 -0.0332309 
0.07552 9.92406 0.170526 
-0.0332309 0.170526 9.82142 
9.98399 0.150273 -0.253112 
0.150273 9.75538 0.212932 
-0.253112 0.212932 9.8786 
9.9373 0.130229 -0.22052 
0.130229 9.71098 0.254648 
-0.22052 0.254648 9.96969 
9.63038 0.135347 -0.266519 
0.135347 9.77467 -0.074572 
-0.266519 -0.074572 10.2129 
9.93554 -0.0109591 0.00804643 
-0.0109591 9.9322 0.00329162 
0.00804643 0.00329162 9.96904 
9.94269 0.0202544 0.00567598 
0.0202544 9.94634 0.00293918 
0.00567598 0.00293918 9.94775 
9.93229 -0.00877228 0.0143547 
-0.00877228 9.93655 0.00931253 
0.0143547 0.00931253 9.96794 
9.91926 -0.00177891 0.0082552 
-0.00177891 9.94967 0.00101735 
0.0082552 0.00101735 9.96786 
9.87466 -0.00940657 -0.0484322 
-0.00940657 9.96717 0.0227953 
-0.0484322 0.0227953 9.95581 
9.95776 0.0301075 -0.0176732 
0.0301075 9.89256 0.00996388 
-0.0176732 0.00996388 9.94732 
9.9315 0.0297378 -0.00269662 
0.0297378 9.90276 0.0236412 
-0.00269662 0.0236412 9.96338 
9.91711 0.0462939 -0.00287811 
0.0462939 9.927 0.0104925 
-0.00287811 0.0104925 9.95353 
9.99808 0.00771833 -0.00474 
0.00771833 9.98045 -0.00898287 
-0.00474 -0.00898287 9.97504 
9.99053 0.00681422 -0.00294626 
0.00681422 9.98657 -0.00532823 
-0.00294626 -0.00532823 9.97647 
9.97467 -0.029775 0.00307706 
-0.029775 9.97606 -0.00388241 
0.00307706 -0.00388241 10.0028 
9.99208 0.0108071 0.00477869 
0.0108071 9.98505 -0.000593893 
0.00477869 -0.000593893 9.97644 
10.0086 0.0402018 -0.0130983 
0.0402018 9.94404 -0.0022768 
-0.0130983 -0.0022768 9.95577 
9.96105 -0.0159876 -0.0142981 
-0.0159876 9.9585 -0.00506897 
-0.0142981 -0.00506897 9.9889 
9.94872 -0.0673677 0.00858958 
-0.0673677 9.9424 0.00271161 
0.00858958 0.00271161 10.0173 
9.913 0.00922252 -0.0198722 
0.00922252 9.99185 -0.0289315 
-0.0198722 -0.0289315 10.0036 
10.149 -0.048893 0.0484745 
-0.048893 10.1311 -0.0031986 
0.0484745 -0.0031986 10.0581 
10.0824 -0.19012 0.0581389 
-0.19012 10.1729 -0.0116336 
0.0581389 -0.0116336 10.0829 
10.0436 0.0191846 -0.000890311 
0.0191846 10.1659 -0.00476539 
-0.000890311 -0.00476539 10.1287 
10.1126 -0.0264956 0.0169027 
-0.0264956 10.0759 -0.0402422 
0.0169027 -0.0402422 10.1497 
9.90799 -0.0174246 -0.0107191 
-0.0174246 9.89671 -0.0175717 
-0.0107191 -0.0175717 9.94052 
9.91642 0.0262861 -0.0384359 
0.0262861 9.92055 -0.0214111 
-0.0384359 -0.0214111 9.90826 
9.9046 -0.00416275 -0.0219342 
-0.00416275 9.91285 -0.0269998 
-0.0219342 -0.0269998 9.92778 
9.89617 -0.00606193 -0.0187871 
-0.00606193 9.91264 -0.0334869 
-0.0187871 -0.0334869 9.93642 
9.9984 -0.000534561 0.0743548 
-0.000534561 9.99251 -0.0158561 
0.0743548 -0.0158561 9.99028 
9.98645 -0.00137223 0.0775681 
-0.00137223 9.9858 -0.00967754 
0.0775681 -0.00967754 10.0089 
9.99869 0.00118951 0.0792617 
0.00118951 9.99625 -0.0172986 
0.0792617 -0.0172986 9.98625 
9.99674 -0.00360847 0.0764161 
-0.00360847 9.99147 -0.0138751 
0.0764161 -0.0138751 9.99299 
9.98769 0.00838399 0.0101045 
0.00838399 9.99013 -0.00585651 
0.0101045 -0.00585651 9.97724 
9.9828 0.00565594 -0.00183047 
0.00565594 9.99661 -0.0075471 
-0.00183047 -0.0075471 9.97564 
9.98381 -0.00864671 -0.00294546 
-0.00864671 9.9501 0.0167079 
-0.00294546 0.0167079 10.0211 
9.98988 0.0154815 -0.00606539 
0.0154815 9.9911 -0.0140297 
-0.00606539 -0.0140297 9.97407 
9.72587 -0.0252073 -0.317255 
-0.0252073 9.9639 0.0759249 
-0.317255 0.0759249 10.8894 
10.217 0.210636 0.202778 
0.210636 10.1592 -0.0878887 
0.202778 -0.0878887 10.2029 
10.7987 -0.00622841 0.31341 
-0.00622841 10.0163 -0.246782 
0.31341 -0.246782 9.76418 
10.0647 0.201135 0.323086 
0.201135 10.1341 0.0060248 
0.323086 0.0060248 10.3804 
10.6308 0.0857387 -0.037708 
0.0857387 10.7577 -0.281469 
-0.037708 -0.281469 10.0361 
10.4232 -0.219054 -0.0548181 
-0.219054 10.221 -0.00928364 
-0.0548181 -0.00928364 10.7803 
10.298 0.0201505 0.0586476 
0.0201505 10.3963 -0.0813735 
0.0586476 -0.0813735 10.7303 
10.3331 0.0956516 0.188321 
0.0956516 10.826 0.128987 
0.188321 0.128987 10.2655 
10.0081 -0.0154854 0.00477217 
-0.0154854 9.96188 0.00177005 
0.00477217 0.00177005 9.99973 
9.99158 0.00523362 -0.00500201 
0.00523362 10.0009 -0.000895595 
-0.00500201 -0.000895595 9.97728 
9.98693 0.0199857 0.00985382 
0.0199857 10.004 0.0166571 
0.00985382 0.0166571 9.97879 
10.0079 -0.00744661 0.015887 
-0.00744661 9.99052 0.00037418 
0.015887 0.00037418 9.97132 
9.99145 0.00338284 0.0272864 
0.00338284 9.99556 0.0692328 
0.0272864 0.0692328 9.99193 
9.99537 0.000468872 0.0321933 
0.000468872 9.99659 0.0715515 
0.0321933 0.0715515 9.98697 
9.98631 0.00122176 0.0220648 
0.00122176 9.98578 0.0721553 
0.0220648 0.0721553 10.0068 
9.9897 0.000782754 0.0277367 
0.000782754 9.99734 0.0685576 
0.0277367 0.0685576 9.99189 
9.98567 -0.00267961 0.0435282 
-0.00267961 9.98743 0.0629451 
0.0435282 0.0629451 9.98415 
9.98582 0.000816731 0.0426032 
0.000816731 9.98593 0.0647403 
0.0426032 0.0647403 9.98549 
9.9815 -0.00629109 0.0418479 
-0.00629109 9.98403 0.0644423 
0.0418479 0.0644423 9.99172 
9.98323 0.00161651 0.0424888 
0.00161651 9.98679 0.0643777 
0.0424888 0.0643777 9.98723 
9.99226 0.000430653 0.00496972 
0.000430653 9.9913 0.00594539 
0.00496972 0.00594539 9.993 
9.98933 -0.00107271 0.00858787 
-0.00107271 9.98554 0.00450669 
0.00858787 0.00450669 10.0017 
9.992 0.00140118 0.00501851 
0.00140118 9.98878 0.00339877 
0.00501851 0.00339877 9.99578 
9.99242 0.00040572 0.00331265 
0.00040572 9.99183 0.00585743 
0.00331265 0.00585743 9.99231 
9.99249 -0.000293102 0.0496795 
-0.000293102 9.98815 0.034614 
0.0496795 0.034614 9.99937 
9.99105 -0.00306075 0.0442892 
-0.00306075 9.98831 0.037073 
0.0442892 0.037073 10.0006 
9.99631 0.00110863 0.045281 
0.00110863 9.99247 0.0349366 
0.045281 0.0349366 9.99122 
9.99527 0.00127268 0.0464576 
0.00127268 9.99604 0.0354501 
0.0464576 0.0354501 9.98869 
10.0006 0.00480496 0.00162893 
0.00480496 9.99189 0.00733389 
0.00162893 0.00733389 9.98317 
9.99426 0.0083923 0.00295754 
0.0083923 9.99472 0.00217813 
0.00295754 0.00217813 9.98666 
9.98681 -0.021624 -0.00282436 
-0.021624 9.97966 0.00222897 
-0.00282436 0.00222897 10.0092 
9.99708 0.0147039 -0.00889752 
0.0147039 9.9927 -0.000955471 
-0.00889752 -0.000955471 9.98587 
9.82005 0.0224382 0.102891 
0.0224382 9.87479 -0.0334332 
0.102891 -0.0334332 9.90935 
9.82876 0.0313396 0.0544045 
0.0313396 9.86283 -0.0388927 
0.0544045 -0.0388927 9.9126 
9.83403 0.0224087 0.0584961 
0.0224087 9.85621 -0.0454215 
0.0584961 -0.0454215 9.91395 
9.8428 0.0176889 0.0861106 
0.0176889 9.84796 -0.0418493 
0.0861106 -0.0418493 9.91342 
9.99307 0.00135368 0.0436022 
0.00135368 9.99824 0.0590106 
0.0436022 0.0590106 9.99343 
9.98839 -2.30166e-06 0.0480974 
-2.30166e-06 9.99191 0.0564367 
0.0480974 0.0564367 10.0044 
9.99552 0.000487161 0.0429921 
0.000487161 9.99851 0.0633084 
0.0429921 0.0633084 9.99072 
9.99405 0.00297957 0.0445306 
0.00297957 9.99589 0.0587149 
0.0445306 0.0587149 9.99479 
9.93622 0.00717352 0.0409358 
0.00717352 9.93497 0.0487142 
0.0409358 0.0487142 9.95705 
9.9357 0.0090177 0.0462038 
0.0090177 9.9368 0.0417646 
0.0462038 0.0417646 9.95574 
9.93501 0.00659821 0.0450301 
0.00659821 9.94001 0.0465339 
0.0450301 0.0465339 9.95323 
9.93527 0.00891594 0.0424734 
0.00891594 9.93876 0.0470216 
0.0424734 0.0470216 9.95421 
9.91197 0.00396228 0.0493373 
0.00396228 9.91413 0.0470126 
0.0493373 0.0470126 9.95162 
9.91258 0.011151 0.0490612 
0.011151 9.91135 0.050377 
0.0490612 0.050377 9.9538 
9.92045 0.00850454 0.0542273 
0.00850454 9.90721 0.0515145 
0.0542273 0.0515145 9.95006 
9.90427 0.00157293 0.0502009 
0.00157293 9.91357 0.0496792 
0.0502009 0.0496792 9.95988 
10.1367 -0.00145313 -0.0212137 
-0.00145313 10.1168 0.00689247 
-0.0212137 0.00689247 10.1682 
10.0965 -0.0160747 -0.0251106 
-0.0160747 10.0781 -0.0404394 
-0.0251106 -0.0404394 10.2472 
10.1525 -2.65361e-05 -0.0267496 
-2.65361e-05 10.2026 0.00597148 
-0.0267496 0.00597148 10.0667 
10.1466 -0.00246256 -0.00315153 
-0.00246256 10.0922 0.0459198 
-0.00315153 0.0459198 10.1829 
8.85854 -1.25626 -0.55736 
-1.25626 9.77778 -0.101406 
-0.55736 -0.101406 13.15 
9.71868 0.112901 -0.342483 
0.112901 10.5811 -0.0492389 
-0.342483 -0.0492389 11.4865 
10.7929 -0.684168 0.0658882 
-0.684168 10.2741 -0.233965 
0.0658882 -0.233965 10.7192 
10.3105 -0.948408 -0.18634 
-0.948408 10.6579 0.349537 
-0.18634 0.349537 10.8179 
9.98762 0.0054771 0.0650305 
0.0054771 9.98404 -0.0448442 
0.0650305 -0.0448442 9.9832 
9.9846 5.06447e-06 0.0677624 
5.06447e-06 9.98498 -0.0437774 
0.0677624 -0.0437774 9.98528 
9.98395 0.00527666 0.0675787 
0.00527666 9.98 -0.04288 
0.0675787 -0.04288 9.9909 
9.98525 -0.0012798 0.0670267 
-0.0012798 9.98205 -0.0438529 
0.0670267 -0.0438529 9.98756 
9.89182 0.00126548 -0.0492181 
0.00126548 9.90339 -0.0314764 
-0.0492181 -0.0314764 9.94093 
9.89449 -0.00841478 -0.0386161 
-0.00841478 9.90055 -0.0412916 
-0.0386161 -0.0412916 9.9411 
9.91126 -0.000109179 -0.0454665 
-0.000109179 9.90227 -0.0557699 
-0.0454665 -0.0557699 9.92261 
9.90155 0.000362822 -0.0562794 
0.000362822 9.87613 -0.041655 
-0.0562794 -0.041655 9.95847 
9.99386 0.00579121 0.0132713 
0.00579121 9.99486 0.0759461 
0.0132713 0.0759461 9.99607 
9.99598 0.00166972 0.0154174 
0.00166972 9.9979 0.0722037 
0.0154174 0.0722037 9.99092 
9.99711 -0.00199701 0.0173143 
-0.00199701 10.0006 0.0777515 
0.0173143 0.0777515 9.98709 
9.98989 0.00212342 0.0102349 
0.00212342 9.98797 0.0760737 
0.0102349 0.0760737 10.0069 
9.9614 -0.0150215 -0.0202024 
-0.0150215 9.95156 0.0239398 
-0.0202024 0.0239398 9.95727 
9.9506 -0.0166887 -0.0118392 
-0.0166887 9.9639 0.0187654 
-0.0118392 0.0187654 9.95573 
9.95374 -0.00822963 -0.0197408 
-0.00822963 9.95045 0.015219 
-0.0197408 0.015219 9.96604 
9.95084 -0.0141719 -0.0166131 
-0.0141719 9.95669 0.0202461 
-0.0166131 0.0202461 9.96271 
2.78554 -1.51273 1.09244 
-1.51273 5.50374 0.456701 
1.09244 0.456701 7.53374 
7.1298 4.39508 1.50422 
4.39508 13.4857 -3.92541 
1.50422 -3.92541 -4.79245 
6.60765 1.10468 -0.431657 
1.10468 8.63949 -2.22035 
-0.431657 -2.22035 0.575881 
6.89819 0.273603 -2.04962 
0.273603 3.52291 -5.15323 
-2.04962 -5.15323 5.40193 
9.99311 -0.00115768 -0.0143713 
-0.00115768 9.9687 -0.076364 
-0.0143713 -0.076364 9.99588 
9.98134 0.00528484 -0.0247713 
0.00528484 9.99362 -0.0724778 
-0.0247713 -0.0724778 9.98273 
9.98699 -0.00189321 -0.0251269 
-0.00189321 9.99553 -0.0826556 
-0.0251269 -0.0826556 9.97517 
9.98585 -0.00130074 -0.0197294 
-0.00130074 9.9852 -0.0753938 
-0.0197294 -0.0753938 9.98663 
9.98791 0.00113505 0.0757271 
0.00113505 9.98591 -0.0363072 
0.0757271 -0.0363072 9.98575 
9.98271 0.00227229 0.0715005 
0.00227229 9.98963 -0.0310125 
0.0715005 -0.0310125 9.98722 
9.97783 0.000974295 0.0734523 
0.000974295 9.98988 -0.0293774 
0.0734523 -0.0293774 9.99185 
9.98534 -0.00129681 0.0751559 
-0.00129681 9.98502 -0.0357329 
0.0751559 -0.0357329 9.9892 
9.97313 -0.00130643 0.0666061 
-0.00130643 9.97287 0.0457998 
0.0666061 0.0457998 9.97997 
9.9779 0.00150871 0.0661636 
0.00150871 9.97548 0.0427209 
0.0661636 0.0427209 9.9726 
9.98187 0.00339513 0.0630686 
0.00339513 9.97231 0.0456245 
0.0630686 0.0456245 9.97179 
9.97181 0.000664212 0.0650354 
0.000664212 9.97317 0.0431778 
0.0650354 0.0431778 9.98098 
9.9411 0.0015251 -0.038701 
0.0015251 9.95404 -0.0703042 
-0.038701 -0.0703042 9.94255 
9.94371 -0.00341088 -0.0350932 
-0.00341088 9.94813 -0.0694703 
-0.0350932 -0.0694703 9.94586 
9.942 -0.00978438 -0.0354727 
-0.00978438 9.94219 -0.0726677 
-0.0354727 -0.0726677 9.95351 
9.94178 2.04935e-05 -0.03493 
2.04935e-05 9.94662 -0.0653605 
-0.03493 -0.0653605 9.94929 
10.2286 -0.00634961 -0.00219871 
-0.00634961 10.041 -0.0051209 
-0.00219871 -0.0051209 10.1726 
10.1755 0.0111846 -0.00874653 
0.0111846 10.2623 -0.0402445 
-0.00874653 -0.0402445 10.0044 
10.0353 0.000623319 -0.0705848 
0.000623319 10.0564 0.0118532 
-0.0705848 0.0118532 10.3506 
10.0818 0.063772 0.102988 
0.063772 10.234 0.116219 
0.102988 0.116219 10.1264 
9.9846 0.000275358 0.00665561 
0.000275358 9.98918 -0.0838947 
0.00665561 -0.0838947 9.98403 
9.98993 -0.000355586 0.00459898 
-0.000355586 9.98938 -0.0867474 
0.00459898 -0.0867474 9.9785 
9.98976 -0.00381342 0.00167571 
-0.00381342 9.97053 -0.0813558 
0.00167571 -0.0813558 9.99752 
9.9843 0.00134071 0.00720853 
0.00134071 9.99039 -0.0822718 
0.00720853 -0.0822718 9.98313 
10.0221 0.00709819 -0.0253383 
0.00709819 10.0102 -0.0537098 
-0.0253383 -0.0537098 10.6351 
10.3102 -0.0160314 -0.0390171 
-0.0160314 10.2521 -0.00882704 
-0.0390171 -0.00882704 10.1051 
10.1825 0.0527723 -0.00109694 
0.0527723 10.3408 -0.0388602 
-0.00109694 -0.0388602 10.1441 
10.3051 0.0071613 0.0672602 
0.0071613 10.207 0.127397 
0.0672602 0.127397 10.1553 
9.9158 -0.00594448 -0.0767446 
-0.00594448 9.90607 -0.0334136 
-0.0767446 -0.0334136 9.9194 
9.89804 -0.00502277 -0.081233 
-0.00502277 9.91426 -0.0245683 
-0.081233 -0.0245683 9.92897 
9.91412 -0.00774249 -0.0729664 
-0.00774249 9.90844 -0.036934 
-0.0729664 -0.036934 9.9187 
9.90929 -0.00522287 -0.0689287 
-0.00522287 9.91779 -0.03828 
-0.0689287 -0.03828 9.91419 
10.1767 -0.0285386 0.0850721 
-0.0285386 9.99674 -0.0077704 
0.0850721 -0.0077704 10.6467 
10.4987 -0.0826055 0.00837034 
-0.0826055 10.4046 -0.0262757 
0.00837034 -0.0262757 9.9168 
10.2 0.0733083 -0.0170653 
0.0733083 10.3707 -0.0659193 
-0.0170653 -0.0659193 10.2494 
10.3596 -0.0762253 -0.189199 
-0.0762253 10.225 -0.137994 
-0.189199 -0.137994 10.2356 
10.0228 -0.0106457 -0.00371616 
-0.0106457 10.0169 0.0027301 
-0.00371616 0.0027301 9.98031 
10.0042 -0.00212342 0.0152486 
-0.00212342 9.98933 -0.00869807 
0.0152486 -0.00869807 10.0265 
10.0045 -0.0048922 0.00758945 
-0.0048922 10.0043 -0.0109344 
0.00758945 -0.0109344 10.0113 
10.0186 -0.0210938 0.00927502 
-0.0210938 10.0131 -0.0160069 
0.00927502 -0.0160069 9.98834 
9.98889 0.000472167 -0.000904098 
0.000472167 9.98782 -0.000361517 
-0.000904098 -0.000361517 9.99884 
9.98983 0.000259085 -0.00164698 
0.000259085 9.98668 0.00299365 
-0.00164698 0.00299365 9.99905 
9.99025 0.00107045 0.000425319 
0.00107045 9.99035 0.000829414 
0.000425319 0.000829414 9.99496 
9.99091 9.62739e-05 0.000912371 
9.62739e-05 9.98978 0.00144356 
0.000912371 0.00144356 9.99487 
9.97641 0.00926004 -0.00724139 
0.00926004 9.94539 0.00128231 
-0.00724139 0.00128231 9.97605 
9.96118 0.0219522 -0.013354 
0.0219522 9.94666 0.00619063 
-0.013354 0.00619063 9.99001 
9.97548 0.0061914 -0.00474992 
0.0061914 9.9491 0.00595995 
-0.00474992 0.00595995 9.97327 
9.97824 0.00305124 0.00152475 
0.00305124 9.94 -0.00240622 
0.00152475 -0.00240622 9.97961 
9.84538 -0.032907 -0.00675966 
-0.032907 9.89171 0.0616204 
-0.00675966 0.0616204 10.0238 
9.91365 -0.00304487 0.00529062 
-0.00304487 10.0037 -0.0438406 
0.00529062 -0.0438406 9.84353 
9.91351 -0.0150796 0.0777633 
-0.0150796 9.83397 0.0752455 
0.0777633 0.0752455 10.0134 
9.88411 -0.105339 0.0885773 
-0.105339 9.9469 0.0572162 
0.0885773 0.0572162 9.92984 
9.67109 -0.173078 -0.135903 
-0.173078 10.2509 0.0312928 
-0.135903 0.0312928 11.263 
10.8732 0.0501365 -0.0322174 
0.0501365 10.3069 0.229454 
-0.0322174 0.229454 10.0048 
10.6269 -0.261149 0.0687711 
-0.261149 9.97208 0.242786 
0.0687711 0.242786 10.586 
10.6571 -0.280023 0.534158 
-0.280023 10.0836 0.408342 
0.534158 0.408342 10.4443 
9.94683 0.00427314 -0.0688028 
0.00427314 9.9382 0.0362372 
-0.0688028 0.0362372 9.93899 
9.94262 0.00368614 -0.0702811 
0.00368614 9.93478 0.0389394 
-0.0702811 0.0389394 9.94662 
9.94893 0.00108451 -0.0675195 
0.00108451 9.93528 0.0377162 
-0.0675195 0.0377162 9.93981 
9.94446 0.00296067 -0.0702328 
0.00296067 9.9369 0.0366306 
-0.0702328 0.0366306 9.94266 
10.0813 0.00474459 0.0166766 
0.00474459 10.0731 -0.0124625 
0.0166766 -0.0124625 10.0083 
10.0436 -0.000821952 0.0170863 
-0.000821952 10.0177 -0.00270215 
0.0170863 -0.00270215 10.1015 
10.0472 -0.0144735 0.00888408 
-0.0144735 10.0464 -6.04874e-05 
0.00888408 -6.04874e-05 10.0691 
10.0618 2.56111e-05 -0.0118887 
2.56111e-05 10.0429 -0.00221515 
-0.0118887 -0.00221515 10.0581 
9.92341 0.00368091 -0.0478677 
0.00368091 9.89169 0.0247709 
-0.0478677 0.0247709 9.91305 
9.88172 0.0273739 -0.0746124 
0.0273739 9.90399 0.0389245 
-0.0746124 0.0389245 9.94244 
9.93269 0.00832281 -0.0429538 
0.00832281 9.89432 0.0306159 
-0.0429538 0.0306159 9.90115 
9.89849 0.017816 -0.0353449 
0.017816 9.87878 0.0300349 
-0.0353449 0.0300349 9.95089 
9.8906 -0.0155337 -0.0755364 
-0.0155337 9.90118 -0.0586236 
-0.0755364 -0.0586236 9.89643 
9.91067 0.00690374 -0.0635065 
0.00690374 9.89435 -0.0462791 
-0.0635065 -0.0462791 9.88319 
9.89584 -0.0138132 -0.0946993 
-0.0138132 9.90266 -0.0604849 
-0.0946993 -0.0604849 9.88972 
9.88959 -0.015517 -0.0776756 
-0.015517 9.90852 -0.0563203 
-0.0776756 -0.0563203 9.8901 
8.29594 1.475 -0.77031 
1.475 10.0002 0.00477242 
-0.77031 0.00477242 12.3729 
10.7257 0.994676 -0.194837 
0.994676 10.2158 0.750119 
-0.194837 0.750119 9.72759 
9.2126 1.07533 -0.449132 
1.07533 9.38901 0.273637 
-0.449132 0.273637 12.0674 
9.2344 0.433803 0.294556 
0.433803 9.87211 0.22321 
0.294556 0.22321 11.5625 
10.8948 1.86453 0.338149 
1.86453 8.10977 -1.2598 
0.338149 -1.2598 2.09743 
9.03639 1.51527 -0.0741693 
1.51527 7.77699 -0.761486 
-0.0741693 -0.761486 4.28867 
10.163 0.292648 -0.621286 
0.292648 6.95198 0.149453 
-0.621286 0.149453 3.98707 
7.98657 3.17901 -0.499052 
3.17901 7.51153 2.05798 
-0.499052 2.05798 5.60395 
9.91826 0.000700604 -0.0473376 
0.000700604 9.9234 -0.0454646 
-0.0473376 -0.0454646 9.93001 
9.91731 -0.00613858 -0.0417006 
-0.00613858 9.91506 -0.042341 
-0.0417006 -0.042341 9.93931 
9.92337 0.0112937 -0.0471789 
0.0112937 9.92112 -0.0501536 
-0.0471789 -0.0501536 9.92718 
9.91143 -0.000678665 -0.0448937 
-0.000678665 9.92281 -0.0503022 
-0.0448937 -0.0503022 9.93744 
9.29902 -0.411823 0.484453 
-0.411823 10.9444 -0.239796 
0.484453 -0.239796 12.7901 
12.1378 0.411184 0.314091 
0.411184 11.1705 -0.359824 
0.314091 -0.359824 9.72522 
11.4667 -0.153917 0.0474711 
-0.153917 9.61655 -0.692132 
0.0474711 -0.692132 11.9502 
11.4032 -0.158485 -1.14804 
-0.158485 10.3802 -1.24141 
-1.14804 -1.24141 11.2501 
10.6465 0.0819563 0.134725 
0.0819563 10.1894 0.824821 
0.134725 0.824821 13.7711 
11.942 0.379747 0.0758736 
0.379747 11.3998 0.544527 
0.0758736 0.544527 11.2653 
11.1527 0.202969 -0.112869 
0.202969 10.4511 0.0734858 
-0.112869 0.0734858 13.0032 
12.2041 0.331765 -1.63528 
0.331765 10.302 0.238693 
-1.63528 0.238693 12.101 
9.93173 0.00765358 -0.0476593 
0.00765358 9.93491 0.044616 
-0.0476593 0.044616 9.94109 
9.93544 -0.0135431 -0.0478517 
-0.0135431 9.94018 0.0500976 
-0.0478517 0.0500976 9.93211 
9.9276 0.00642775 -0.0507783 
0.00642775 9.9304 0.0495888 
-0.0507783 0.0495888 9.94973 
9.93921 0.000268148 -0.0486454 
0.000268148 9.92507 0.0486862 
-0.0486454 0.0486862 9.94346 
9.98735 8.74831e-05 0.0823119 
8.74831e-05 9.98583 -0.00597601 
0.0823119 -0.00597601 9.98411 
9.97737 -0.00273414 0.0797273 
-0.00273414 9.98683 -0.00155393 
0.0797273 -0.00155393 9.9931 
9.98758 0.00092035 0.0819516 
0.00092035 9.98505 -0.00749523 
0.0819516 -0.00749523 9.98467 
9.98683 -0.00156102 0.0844685 
-0.00156102 9.9917 -0.00355607 
0.0844685 -0.00355607 9.97876 
4.48223 -2.24453 1.496 
-2.24453 2.01722 0.478721 
1.496 0.478721 8.47205 
9.45049 1.01792 -2.81868 
1.01792 7.72088 -1.6603 
-2.81868 -1.6603 -2.19987 
13.9132 5.57149 -4.9553 
5.57149 6.37217 0.675997 
-4.9553 0.675997 -5.31384 
1.1646 0.0260453 -5.50852 
0.0260453 7.59587 -2.56292 
-5.50852 -2.56292 6.21102 
9.99407 0.000989829 -0.0140592 
0.000989829 10.0004 -0.0510297 
-0.0140592 -0.0510297 9.98889 
9.99211 0.00574204 -0.0163659 
0.00574204 10.0029 -0.0520964 
-0.0163659 -0.0520964 9.98834 
9.98371 0.000460039 -0.0210195 
0.000460039 9.98619 -0.0503954 
-0.0210195 -0.0503954 10.0134 
9.99875 0.0015776 -0.0125696 
0.0015776 9.99944 -0.0466186 
-0.0125696 -0.0466186 9.98515 
10.1294 -0.0912907 0.0375761 
-0.0912907 10.2485 -0.0210201 
0.0375761 -0.0210201 10.3273 
10.2355 -0.0176277 -0.0277019 
-0.0176277 10.1835 0.00202488 
-0.0277019 0.00202488 10.2861 
10.3428 0.0238054 -0.0106123 
0.0238054 10.276 -0.0388301 
-0.0106123 -0.0388301 10.0863 
10.262 0.0357908 -0.0952706 
0.0357908 10.2282 -0.0670525 
-0.0952706 -0.0670525 10.215 
9.9517 0.00221172 -0.076643 
0.00221172 9.94621 0.0240971 
-0.076643 0.0240971 9.94811 
9.93951 0.00971925 -0.080616 
0.00971925 9.95063 0.0213829 
-0.080616 0.0213829 9.95588 
9.95878 0.00226027 -0.0770164 
0.00226027 9.94339 0.0288245 
-0.0770164 0.0288245 9.94385 
9.94994 -0.000701527 -0.0704917 
-0.000701527 9.94369 0.0221051 
-0.0704917 0.0221051 9.95239 
9.97704 0.000456496 -0.0748562 
0.000456496 9.97413 -0.0305432 
-0.0748562 -0.0305432 9.9703 
9.98336 0.00120766 -0.0737113 
0.00120766 9.97331 -0.0341323 
-0.0737113 -0.0341323 9.9648 
9.9719 -0.00238742 -0.0761084 
-0.00238742 9.97318 -0.0336295 
-0.0761084 -0.0336295 9.97639 
9.97437 -0.00113233 -0.0733155 
-0.00113233 9.9715 -0.0330965 
-0.0733155 -0.0330965 9.97559 
9.98791 0.000376976 -0.00147009 
0.000376976 9.9899 0.00335978 
-0.00147009 0.00335978 9.99379 
9.98577 -0.000617849 0.000514902 
-0.000617849 9.98717 0.0063827 
0.000514902 0.0063827 9.99866 
9.98602 -0.000376449 0.00167361 
-0.000376449 9.98738 0.00143438 
0.00167361 0.00143438 9.9982 
9.9898 -0.000259555 -0.00177932 
-0.000259555 9.98988 0.0028621 
-0.00177932 0.0028621 9.99192 
9.99361 -0.0025481 -0.0312555 
-0.0025481 9.99357 0.0512149 
-0.0312555 0.0512149 9.99678 
9.99367 -0.000641954 -0.0284522 
-0.000641954 9.99212 0.0537584 
-0.0284522 0.0537584 9.99817 
9.99216 -0.000777345 -0.0285541 
-0.000777345 9.99417 0.0500488 
-0.0285541 0.0500488 9.99762 
9.9956 -0.00131561 -0.0299404 
-0.00131561 9.99587 0.0511668 
-0.0299404 0.0511668 9.99249 
9.95451 0.0003169 0.0135876 
0.0003169 9.98704 0.0804256 
0.0135876 0.0804256 9.94605 
9.96587 -0.00364897 0.0195408 
-0.00364897 9.95755 0.0781225 
0.0195408 0.0781225 9.96417 
9.95913 -0.000381859 0.020045 
-0.000381859 9.95277 0.0816693 
0.020045 0.0816693 9.97571 
9.96605 -0.00340646 0.0214618 
-0.00340646 9.95859 0.0672088 
0.0214618 0.0672088 9.96296 
10.103 -0.00014722 -0.00487655 
-0.00014722 10.1029 0.00231459 
-0.00487655 0.00231459 10.122 
10.0991 -0.00293689 -0.00462159 
-0.00293689 10.0968 -0.00416389 
-0.00462159 -0.00416389 10.1319 
10.1032 -0.00245074 -0.00162584 
-0.00245074 10.1106 -0.000708379 
-0.00162584 -0.000708379 10.1141 
10.1036 -0.000771609 -0.000187219 
-0.000771609 10.1061 0.00434762 
-0.000187219 0.00434762 10.118 
9.9571 -2.66479e-05 -0.0140906 
-2.66479e-05 9.95843 -0.0355381 
-0.0140906 -0.0355381 9.93551 
9.95174 -0.00407785 -0.00719927 
-0.00407785 9.98227 -0.0334361 
-0.00719927 -0.0334361 9.91703 
9.96521 0.000654648 -0.00453244 
0.000654648 9.95828 -0.0457454 
-0.00453244 -0.0457454 9.92756 
9.95909 0.00483232 -0.00956944 
0.00483232 9.95907 -0.0341983 
-0.00956944 -0.0341983 9.93289 
9.93134 0.00507704 -0.0386513 
0.00507704 9.90423 0.0315758 
-0.0386513 0.0315758 9.93288 
9.90862 0.0414736 -0.0209331 
0.0414736 9.88502 0.0223766 
-0.0209331 0.0223766 9.97481 
9.94426 -0.0185446 -0.0422296 
-0.0185446 9.91291 0.00946317 
-0.0422296 0.00946317 9.91129 
9.90699 0.0144509 -0.0438531 
0.0144509 9.92208 0.0513541 
-0.0438531 0.0513541 9.93939 
9.99662 -0.000375927 -0.0725904 
-0.000375927 9.99475 0.0318306 
-0.0725904 0.0318306 9.98761 
9.99701 -0.00118821 -0.0704451 
-0.00118821 9.99052 0.0283305 
-0.0704451 0.0283305 9.99145 
9.98662 -0.00141232 -0.0735805 
-0.00141232 9.98675 0.0229268 
-0.0735805 0.0229268 10.0056 
9.99495 -0.00315434 -0.0719509 
-0.00315434 9.99114 0.028347 
-0.0719509 0.028347 9.99289 
9.97428 0.00140385 0.00114755 
0.00140385 9.97346 -0.000796507 
0.00114755 -0.000796507 9.98379 
9.96708 0.00659481 -0.00363058 
0.00659481 9.96987 -0.00654236 
-0.00363058 -0.00654236 9.99459 
9.97972 0.00046997 -0.00137625 
0.00046997 9.9857 0.0131023 
-0.00137625 0.0131023 9.96612 
9.97025 -0.00080666 0.00426475 
-0.00080666 9.99271 0.00153911 
0.00426475 0.00153911 9.96856 
9.92042 0.000856508 0.00372029 
0.000856508 9.90129 0.0852336 
0.00372029 0.0852336 9.88501 
9.89889 0.00289968 0.0033895 
0.00289968 9.89004 0.0869514 
0.0033895 0.0869514 9.91779 
9.90503 0.00114577 -0.0175171 
0.00114577 9.90324 0.083256 
-0.0175171 0.083256 9.89846 
9.90787 0.00320906 -0.00413513 
0.00320906 9.89776 0.085184 
-0.00413513 0.085184 9.9011 
10.2947 0.0140394 -0.00270009 
0.0140394 10.3562 -0.0294078 
-0.00270009 -0.0294078 10.1959 
10.1522 0.000630598 -0.010959 
0.000630598 10.2965 -0.0578838 
-0.010959 -0.0578838 10.3982 
10.2569 0.050949 -0.0169982 
0.050949 10.4598 -0.0773097 
-0.0169982 -0.0773097 10.1302 
10.1994 -0.00178949 -0.0801489 
-0.00178949 10.3659 0.0158884 
-0.0801489 0.0158884 10.2816 
10.0027 -0.00180211 -0.0128369 
-0.00180211 9.98704 0.00514816 
-0.0128369 0.00514816 9.98079 
9.97373 -0.00372482 0.000344504 
-0.00372482 10.0082 0.00403361 
0.000344504 0.00403361 9.98854 
10.0148 -0.00176809 -0.00457723 
-0.00176809 9.98531 0.00858077 
-0.00457723 0.00858077 9.97042 
9.9903 -0.000940291 -0.0122313 
-0.000940291 10.0074 0.0108649 
-0.0122313 0.0108649 9.97279 
9.99369 -0.00210622 -0.0349786 
-0.00210622 9.9959 -0.0177665 
-0.0349786 -0.0177665 9.99707 
9.98471 0.00029045 -0.0354238 
0.00029045 9.99334 -0.0116282 
-0.0354238 -0.0116282 10.0086 
9.9996 -0.000813241 -0.0383087 
-0.000813241 9.99849 -0.0162366 
-0.0383087 -0.0162366 9.98857 
10.0017 0.00154454 -0.0331943 
0.00154454 9.99672 -0.0177672 
-0.0331943 -0.0177672 9.98823 
10.0003 0.000231833 -0.0313914 
0.000231833 9.99719 0.00955473 
-0.0313914 0.00955473 9.99296 
9.99971 -0.00162314 -0.0327911 
-0.00162314 9.99532 0.00930155 
-0.0327911 0.00930155 9.99545 
9.99253 -0.00251236 -0.0291471 
-0.00251236 9.9915 0.00708009 
-0.0291471 0.00708009 10.0064 
9.99887 -0.000905857 -0.0355525 
-0.000905857 10.0008 0.00913177 
-0.0355525 0.00913177 9.99084 
9.98871 0.0017212 -0.0558559 
0.0017212 9.99266 -0.0258896 
-0.0558559 -0.0258896 10.0042 
9.99383 0.00284987 -0.0573124 
0.00284987 9.99416 -0.0314286 
-0.0573124 -0.0314286 9.99755 
9.99937 0.00195243 -0.0552455 
0.00195243 9.99511 -0.0298883 
-0.0552455 -0.0298883 9.99105 
9.99871 -0.000810983 -0.0580715 
-0.000810983 9.99709 -0.0303897 
-0.0580715 -0.0303897 9.98973 
10.0741 0.0293543 -0.0588101 
0.0293543 10.1082 0.0236898 
-0.0588101 0.0236898 10.3255 
10.2388 -0.0726357 0.0547363 
-0.0726357 10.2188 0.0140721 
0.0547363 0.0140721 10.0503 
10.149 0.0188202 0.0422895 
0.0188202 10.212 -0.00396632 
0.0422895 -0.00396632 10.1469 
10.1111 0.0292515 0.0535859 
0.0292515 10.2142 -0.0805744 
0.0535859 -0.0805744 10.1825 
9.99481 -0.00417085 -0.0408719 
-0.00417085 9.99182 0.0518723 
-0.0408719 0.0518723 9.99899 
9.99255 -0.000973854 -0.0372172 
-0.000973854 9.99371 0.0490733 
-0.0372172 0.0490733 9.99936 
9.99489 -0.00198749 -0.0393622 
-0.00198749 9.99741 0.051291 
-0.0393622 0.051291 9.99333 
9.99629 -0.000606775 -0.0386059 
-0.000606775 9.99848 0.051233 
-0.0386059 0.051233 9.99085 
9.83418 -0.0212102 -0.00220705 
-0.0212102 9.97139 0.00831321 
-0.00220705 0.00831321 9.95182 
9.92652 -0.0315461 0.0315577 
-0.0315461 9.90729 0.0231624 
0.0315577 0.0231624 9.92357 
9.95956 -0.0115216 0.0539767 
-0.0115216 9.87218 0.0420183 
0.0539767 0.0420183 9.92566 
9.87177 -0.0622374 0.0383205 
-0.0622374 9.92064 -0.0202751 
0.0383205 -0.0202751 9.96498 
11.2251 -0.0165024 -0.389506 
-0.0165024 10.7537 -0.0187533 
-0.389506 -0.0187533 10.2497 
10.4458 -0.0149885 -0.221521 
-0.0149885 10.9923 -0.130272 
-0.221521 -0.130272 10.7904 
9.40647 0.000534357 -0.510075 
0.000534357 9.97016 0.0314902 
-0.510075 0.0314902 12.8519 
10.2142 -0.01286 0.557949 
-0.01286 10.9961 -0.122958 
0.557949 -0.122958 11.0182 
9.83428 0.0106196 0.0496605 
0.0106196 9.87884 0.00335586 
0.0496605 0.00335586 9.90159 
9.88764 0.0162267 0.0682408 
0.0162267 9.85044 -0.0272563 
0.0682408 -0.0272563 9.87662 
9.85956 0.0163513 0.0673595 
0.0163513 9.87867 -0.00924242 
0.0673595 -0.00924242 9.87648 
9.84765 0.0206792 0.0730842 
0.0206792 9.8628 0.00954813 
0.0730842 0.00954813 9.90425 
9.99297 -0.00062369 0.0162611 
-0.00062369 9.99377 -0.0198646 
0.0162611 -0.0198646 10.0016 
9.99444 -0.00218583 0.0174433 
-0.00218583 9.9982 -0.0234735 
0.0174433 -0.0234735 9.99569 
9.99503 -0.00137225 0.0163638 
-0.00137225 9.99872 -0.0224824 
0.0163638 -0.0224824 9.99459 
9.99681 -0.00227842 0.0173816 
-0.00227842 9.99915 -0.023724 
0.0173816 -0.023724 9.99237 
10.9611 0.194611 -0.479721 
0.194611 8.66578 0.638852 
-0.479721 0.638852 14.8983 
13.9058 1.08808 -0.413473 
1.08808 11.8391 1.41034 
-0.413473 1.41034 8.78033 
11.0589 -1.33953 0.744949 
-1.33953 7.73402 0.415764 
0.744949 0.415764 15.7323 
10.4924 0.348835 -0.319231 
0.348835 10.8556 -2.88038 
-0.319231 -2.88038 13.1772 
9.99247 0.000598161 0.0537262 
0.000598161 9.99508 -0.0376336 
0.0537262 -0.0376336 9.99675 
9.99557 0.000131151 0.0540661 
0.000131151 9.9968 -0.0361812 
0.0540661 -0.0361812 9.99193 
9.98737 -0.00152272 0.0535943 
-0.00152272 9.99335 -0.0322221 
0.0535943 -0.0322221 10.0036 
9.99782 -0.000419569 0.0525824 
-0.000419569 9.9962 -0.0374143 
0.0525824 -0.0374143 9.99028 
9.98688 0.000908083 -0.00712164 
0.000908083 9.98869 0.00417435 
-0.00712164 0.00417435 9.99905 
9.98949 0.00134703 -0.00389464 
0.00134703 9.98677 0.00737458 
-0.00389464 0.00737458 9.99836 
9.98953 -0.000830394 -0.00400869 
-0.000830394 9.99116 0.00527881 
-0.00400869 0.00527881 9.99393 
9.99163 -0.00229455 -0.00373064 
-0.00229455 9.99183 0.00490095 
-0.00373064 0.00490095 9.99116 
10.0082 0.0339859 0.00680096 
0.0339859 10.0195 0.00873103 
0.00680096 0.00873103 9.997 
10.0381 0.00586179 0.00849769 
0.00586179 10.015 0.00903509 
0.00849769 0.00903509 9.97167 
9.98005 -0.0163626 -0.0140765 
-0.0163626 9.99206 0.00791206 
-0.0140765 0.00791206 10.0527 
10.0231 0.00919459 0.000630846 
0.00919459 9.99401 -0.0192145 
0.000630846 -0.0192145 10.0077 
9.88801 -0.0391839 -0.0532936 
-0.0391839 9.90776 -0.0350614 
-0.0532936 -0.0350614 9.94987 
9.93844 0.0010467 -0.0638254 
0.0010467 9.88893 -0.0376028 
-0.0638254 -0.0376028 9.91827 
9.93193 0.0068991 -0.0557599 
0.0068991 9.89834 -0.033465 
-0.0557599 -0.033465 9.91537 
9.9087 0.00753431 -0.0755071 
0.00753431 9.90773 -0.0510439 
-0.0755071 -0.0510439 9.92921 
9.95329 -0.00293612 -0.0300587 
-0.00293612 9.9583 -0.0734601 
-0.0300587 -0.0734601 9.95863 
9.95328 -0.00413559 -0.0335369 
-0.00413559 9.94958 -0.076307 
-0.0335369 -0.076307 9.96735 
9.95146 0.00236344 -0.029022 
0.00236344 9.9686 -0.0773179 
-0.029022 -0.0773179 9.95015 
9.95285 -0.00561693 -0.0317 
-0.00561693 9.96009 -0.0697373 
-0.0317 -0.0697373 9.95728 
10.1396 -0.0729867 -0.0104595 
-0.0729867 10.4627 0.0125071 
-0.0104595 0.0125071 10.133 
10.4479 0.0926371 0.0446221 
0.0926371 10.3092 0.0385777 
0.0446221 0.0385777 9.97827 
10.0146 -0.0325185 0.0877513 
-0.0325185 9.85308 -0.139313 
0.0877513 -0.139313 10.8677 
10.3765 0.0631442 -0.163283 
0.0631442 10.1447 0.251007 
-0.163283 0.251007 10.2142 
9.9917 0.0165447 0.0125109 
0.0165447 9.93396 -0.00332408 
0.0125109 -0.00332408 9.96091 
9.9256 -0.012122 -0.00809794 
-0.012122 9.97088 0.0123801 
-0.00809794 0.0123801 9.99008 
9.93969 -0.00269669 -0.0163958 
-0.00269669 9.98552 0.0314303 
-0.0163958 0.0314303 9.96135 
9.99267 0.0178831 -0.0126447 
0.0178831 9.9483 -0.00699628 
-0.0126447 -0.00699628 9.9456 
9.98989 -0.00172422 0.00348749 
-0.00172422 9.99008 0.00333812 
0.00348749 0.00333812 9.99769 
9.98968 -0.00071466 0.00560865 
-0.00071466 9.98622 -0.000882748 
0.00560865 -0.000882748 10.0018 
9.99335 -6.33467e-05 0.00275982 
-6.33467e-05 9.99307 0.000420067 
0.00275982 0.000420067 9.99124 
9.99297 -7.68371e-05 1.48893e-05 
-7.68371e-05 9.99146 0.00106003 
1.48893e-05 0.00106003 9.99324 
9.97214 0.0075754 -0.000777539 
0.0075754 9.98606 -0.00422823 
-0.000777539 -0.00422823 9.97373 
9.97574 0.00745777 0.00197715 
0.00745777 9.98446 0.00176882 
0.00197715 0.00176882 9.97173 
9.97756 -0.0174185 5.78143e-06 
-0.0174185 9.9659 -1.05562e-05 
5.78143e-06 -1.05562e-05 9.98846 
9.98356 -0.00185065 -0.00211571 
-0.00185065 9.98152 -0.00540658 
-0.00211571 -0.00540658 9.96685 
9.89119 0.0115077 0.036135 
0.0115077 9.92968 0.0431813 
0.036135 0.0431813 9.90965 
9.89688 -0.0305973 0.0320173 
-0.0305973 9.90085 0.0308477 
0.0320173 0.0308477 9.93279 
9.90429 -0.0130555 0.0343521 
-0.0130555 9.90986 0.0465916 
0.0343521 0.0465916 9.91636 
9.90407 0.00179326 0.0447476 
0.00179326 9.90399 0.0456114 
0.0447476 0.0456114 9.92245 
9.98055 0.0224623 -0.0101969 
0.0224623 10.0104 0.00195905 
-0.0101969 0.00195905 9.95775 
9.99077 0.0139449 -0.0253918 
0.0139449 10.0166 -0.0345843 
-0.0253918 -0.0345843 9.94134 
9.95567 -0.0313224 0.00866677 
-0.0313224 9.94246 0.00742949 
0.00866677 0.00742949 10.0506 
9.9535 0.0037704 -0.0109435 
0.0037704 9.99342 0.00618546 
-0.0109435 0.00618546 10.0018 
9.73968 0.0172837 0.275769 
0.0172837 10.9704 0.0336798 
0.275769 0.0336798 11.8209 
10.1554 0.434985 -0.441621 
0.434985 9.31689 0.461064 
-0.441621 0.461064 13.0588 
10.6349 -0.431062 0.56853 
-0.431062 11.6161 0.0775454 
0.56853 0.0775454 10.2801 
9.2837 0.53382 0.808564 
0.53382 11.3554 -1.18003 
0.808564 -1.18003 11.892 
9.82144 -0.0553669 0.0455598 
-0.0553669 9.90618 -0.0107634 
0.0455598 -0.0107634 9.93761 
9.80188 -0.0252503 0.0753103 
-0.0252503 9.96125 -0.00838573 
0.0753103 -0.00838573 9.9021 
9.94888 0.0111014 -0.12684 
0.0111014 9.81172 0.0120153 
-0.12684 0.0120153 9.90464 
9.6711 -0.0514203 -0.00566322 
-0.0514203 9.97531 0.00298764 
-0.00566322 0.00298764 10.0188 
9.99755 0.0164482 0.00133094 
0.0164482 9.99923 0.0011722 
0.00133094 0.0011722 10.0153 
10.0107 -0.00180325 -0.000600859 
-0.00180325 10.0042 0.00534747 
-0.000600859 0.00534747 9.99718 
10.0085 -0.00988246 0.00503059 
-0.00988246 10.0054 -0.00265822 
0.00503059 -0.00265822 9.99817 
10.0065 -0.00667864 -0.0020332 
-0.00667864 10.0056 0.00251381 
-0.0020332 0.00251381 9.99999 
9.91061 -0.0182699 -0.0260617 
-0.0182699 9.92283 -0.0405946 
-0.0260617 -0.0405946 9.92702 
9.90787 0.0188324 -0.0360857 
0.0188324 9.93746 -0.0389197 
-0.0360857 -0.0389197 9.91513 
9.90718 -0.0312711 -0.0367996 
-0.0312711 9.89873 -0.052461 
-0.0367996 -0.052461 9.95456 
9.88295 -0.0120382 -0.0299121 
-0.0120382 9.94023 -0.0367842 
-0.0299121 -0.0367842 9.93728 
9.90382 -0.0285374 -0.0147278 
-0.0285374 9.98395 -0.068837 
-0.0147278 -0.068837 9.86849 
9.90295 -0.0541103 -0.0352447 
-0.0541103 9.98388 -0.0839008 
-0.0352447 -0.0839008 9.86944 
9.8984 -0.0592259 -0.033673 
-0.0592259 9.99346 -0.0795594 
-0.033673 -0.0795594 9.8644 
9.92956 -0.0654232 -0.0425945 
-0.0654232 9.955 -0.125751 
-0.0425945 -0.125751 9.8717 
9.99747 -0.000974247 -0.0721137 
-0.000974247 9.99339 0.0154357 
-0.0721137 0.0154357 9.99111 
9.98446 -0.00154392 -0.0754599 
-0.00154392 9.98543 0.00876102 
-0.0754599 0.00876102 10.0121 
9.99939 0.000109913 -0.0786345 
0.000109913 9.99889 0.0190689 
-0.0786345 0.0190689 9.98368 
9.99792 -0.00461901 -0.072018 
-0.00461901 9.99222 0.0124257 
-0.072018 0.0124257 9.99181 
9.79111 0.21474 0.267157 
0.21474 9.84407 -0.0916195 
0.267157 -0.0916195 9.43328 
9.76923 0.0630576 0.515737 
0.0630576 9.83893 -0.223823 
0.515737 -0.223823 9.4603 
9.82935 0.0410973 0.498336 
0.0410973 9.65365 -0.305921 
0.498336 -0.305921 9.58546 
9.77267 0.107773 0.529956 
0.107773 9.78918 -0.247843 
0.529956 -0.247843 9.50661 
9.99409 -0.00137259 0.0146513 
-0.00137259 9.99761 -0.0764464 
0.0146513 -0.0764464 9.99059 
9.99826 -0.000191498 0.0174424 
-0.000191498 9.99914 -0.0817648 
0.0174424 -0.0817648 9.98488 
9.98585 -0.0012605 0.00891019 
-0.0012605 9.98572 -0.0788551 
0.00891019 -0.0788551 10.0107 
9.99285 -0.00464726 0.0125596 
-0.00464726 9.99756 -0.0768985 
0.0125596 -0.0768985 9.99187 
9.98499 -0.000200361 -0.00755339 
-0.000200361 9.98911 -0.0838127 
-0.00755339 -0.0838127 9.98367 
9.98875 -0.000172375 -0.00548837 
-0.000172375 9.98954 -0.0867637 
-0.00548837 -0.0867637 9.97947 
9.9885 0.00375898 -0.00193481 
0.00375898 9.97304 -0.0807396 
-0.00193481 -0.0807396 9.99623 
9.98649 -0.000931123 -0.0055712 
-0.000931123 9.98656 -0.0824 
-0.0055712 -0.0824 9.98471 
9.96861 0.0102065 -0.0315642 
0.0102065 9.95017 -0.0049491 
-0.0315642 -0.0049491 9.95497 
9.92097 -0.0114992 0.00304053 
-0.0114992 9.98122 0.000810202 
0.00304053 0.000810202 9.97156 
9.96463 0.0107648 -0.0012309 
0.0107648 9.94111 4.84702e-06 
-0.0012309 4.84702e-06 9.96802 
9.942 -0.00864511 0.00210435 
-0.00864511 9.98248 -0.00926444 
0.00210435 -0.00926444 9.94927 
9.90656 0.0144632 -0.0323943 
0.0144632 9.90244 0.022641 
-0.0323943 0.022641 9.95442 
9.9129 0.0228225 -0.0295238 
0.0228225 9.92025 0.0046769 
-0.0295238 0.0046769 9.93026 
9.94671 -0.029366 -0.0249478 
-0.029366 9.90611 0.0321304 
-0.0249478 0.0321304 9.9106 
9.93868 0.0127947 -0.034337 
0.0127947 9.88296 0.0215222 
-0.034337 0.0215222 9.94177 
9.96513 0.000881574 0.00132805 
0.000881574 10.0061 -0.013067 
0.00132805 -0.013067 9.96683 
9.99049 0.011814 0.0129732 
0.011814 9.94307 0.00832964 
0.0129732 0.00832964 10.0045 
9.969 -0.0208554 0.00235739 
-0.0208554 10.0002 0.0154535 
0.00235739 0.0154535 9.96889 
9.98798 -0.00178562 0.00901223 
-0.00178562 9.98943 -0.00747835 
0.00901223 -0.00747835 9.96068 
9.95147 -0.0194257 -0.00164807 
-0.0194257 9.96477 -0.0148678 
-0.00164807 -0.0148678 10.0134 
9.96879 -0.0336631 0.00518648 
-0.0336631 9.96521 0.000325795 
0.00518648 0.000325795 9.99566 
9.96237 0.00745972 -0.00143319 
0.00745972 9.97742 -0.00310851 
-0.00143319 -0.00310851 9.98987 
9.94449 -0.00226987 0.00531937 
-0.00226987 9.98337 0.00427924 
0.00531937 0.00427924 10.0018 
9.90509 -0.0423636 0.0342237 
-0.0423636 9.90829 0.00503963 
0.0342237 0.00503963 9.95342 
9.90145 -0.016453 0.0365204 
-0.016453 9.90262 0.00139924 
0.0365204 0.00139924 9.96272 
9.9414 0.0104953 0.0342728 
0.0104953 9.90742 0.00501606 
0.0342728 0.00501606 9.91798 
9.90013 -0.0301443 0.0544024 
-0.0301443 9.92429 0.019836 
0.0544024 0.019836 9.94238 
9.89595 -0.0238725 0.0506303 
-0.0238725 9.88862 0.0158866 
0.0506303 0.0158866 9.91128 
9.86365 -0.0237641 0.0766141 
-0.0237641 9.89496 0.0274729 
0.0766141 0.0274729 9.93724 
9.93364 -0.00269608 0.0466751 
-0.00269608 9.86546 0.00289521 
0.0466751 0.00289521 9.89675 
9.89676 -0.0409017 0.0481964 
-0.0409017 9.86092 0.0272915 
0.0481964 0.0272915 9.93818 
9.9957 0.00209304 0.00182979 
0.00209304 9.99854 0.0333808 
0.00182979 0.0333808 9.99642 
9.99299 1.71561e-05 0.00421828 
1.71561e-05 9.99472 0.0369615 
0.00421828 0.0369615 10.003 
9.99874 0.000855393 0.00332784 
0.000855393 9.99782 0.033362 
0.00332784 0.033362 9.9941 
9.99909 0.000208538 0.00314262 
0.000208538 9.99912 0.0321058 
0.00314262 0.0321058 9.99246 
9.90133 0.0196238 0.027121 
0.0196238 9.91669 -0.0350546 
0.027121 -0.0350546 9.93523 
9.90167 0.0224731 0.0429759 
0.0224731 9.92002 -0.0316055 
0.0429759 -0.0316055 9.93155 
9.92578 -0.00753217 0.0343955 
-0.00753217 9.9008 -0.0355397 
0.0343955 -0.0355397 9.92666 
9.9073 -0.00207115 0.0372772 
-0.00207115 9.91159 -0.0392206 
0.0372772 -0.0392206 9.93435 
10.5183 0.122458 -0.056298 
0.122458 10.3463 -0.00591482 
-0.056298 -0.00591482 10.0951 
10.2467 -0.114566 0.000962861 
-0.114566 10.3285 -0.0165785 
0.000962861 -0.0165785 10.3845 
10.0141 0.112679 -0.00634271 
0.112679 10.19 0.0793021 
-0.00634271 0.0793021 10.7556 
10.292 0.0909345 -0.0526967 
0.0909345 10.3396 -0.217856 
-0.0526967 -0.217856 10.3281 
9.92727 0.00468596 -0.0759065 
0.00468596 9.91215 0.0290821 
-0.0759065 0.0290821 9.9245 
9.9291 0.00496503 -0.0774627 
0.00496503 9.90831 0.0241322 
-0.0774627 0.0241322 9.9265 
9.91152 0.0160181 -0.073636 
0.0160181 9.92857 0.0220475 
-0.073636 0.0220475 9.92382 
9.92514 0.00524029 -0.0804497 
0.00524029 9.91521 0.0278481 
-0.0804497 0.0278481 9.92356 
9.9377 0.00318874 -0.0323348 
0.00318874 9.94104 0.0752632 
-0.0323348 0.0752632 9.94467 
9.94037 0.00476117 -0.0327724 
0.00476117 9.94469 0.0701224 
-0.0327724 0.0701224 9.93835 
9.94497 -0.00142995 -0.0296969 
-0.00142995 9.95332 0.0777001 
-0.0296969 0.0777001 9.92511 
9.9423 0.00419266 -0.0320051 
0.00419266 9.9436 0.0693417 
-0.0320051 0.0693417 9.93751 
9.94257 -0.00962624 -0.0260007 
-0.00962624 9.91473 0.0305535 
-0.0260007 0.0305535 9.93059 
9.92685 0.00713456 -0.0305406 
0.00713456 9.92192 0.0267674 
-0.0305406 0.0267674 9.93912 
9.92212 0.0142881 -0.0415801 
0.0142881 9.91906 0.0314532 
-0.0415801 0.0314532 9.94671 
9.92468 -0.000540178 -0.0306985 
-0.000540178 9.92084 0.0229495 
-0.0306985 0.0229495 9.94238 
9.95035 0.0121192 -0.00501773 
0.0121192 9.98343 0.0126206 
-0.00501773 0.0126206 9.91991 
9.98685 0.000596308 0.00848308 
0.000596308 9.91298 -0.00911966 
0.00848308 -0.00911966 9.95386 
9.98144 -0.0307374 -0.00020568 
-0.0307374 9.91861 0.03091 
-0.00020568 0.03091 9.95364 
9.94994 0.00202221 -0.0069379 
0.00202221 9.94466 0.00581951 
-0.0069379 0.00581951 9.95909 
10.5968 0.103634 -0.538431 
0.103634 11.4923 0.182469 
-0.538431 0.182469 12.0819 
10.8823 0.324879 -0.309932 
0.324879 11.5717 0.0436566 
-0.309932 0.0436566 11.717 
11.0594 0.242393 -0.235465 
0.242393 11.6944 0.0135751 
-0.235465 0.0135751 11.4171 
10.8219 0.43434 -0.0446372 
0.43434 11.6893 -0.00545595 
-0.0446372 -0.00545595 11.6597 
10.0044 -0.00466247 0.00246532 
-0.00466247 10.0077 -0.000564406 
0.00246532 -0.000564406 9.999 
10.0081 -0.00459943 0.00271158 
-0.00459943 10.0057 -0.00573567 
0.00271158 -0.00573567 9.99741 
10.0009 -0.000294221 0.00355554 
-0.000294221 9.99202 0.00482861 
0.00355554 0.00482861 10.0182 
10.005 -0.0036353 0.000716143 
-0.0036353 10.0037 -0.00156092 
0.000716143 -0.00156092 10.0025 
10.5133 -0.189462 0.0318753 
-0.189462 10.269 -0.0961232 
0.0318753 -0.0961232 10.1737 
10.0818 0.112274 -0.00691625 
0.112274 10.1319 -0.00741537 
-0.00691625 -0.00741537 10.7423 
10.4989 0.127365 0.0744225 
0.127365 10.2295 -0.108592 
0.0744225 -0.108592 10.2276 
10.437 0.143296 0.200867 
0.143296 10.2322 -0.292015 
0.200867 -0.292015 10.2869 
9.8614 0.0313049 0.0670698 
0.0313049 9.88344 -0.0382781 
0.0670698 -0.0382781 9.90211 
9.88201 0.00108952 0.0750476 
0.00108952 9.87194 -0.0165515 
0.0750476 -0.0165515 9.893 
9.88195 0.00657887 0.0736382 
0.00657887 9.88531 -0.0260789 
0.0736382 -0.0260789 9.87969 
9.87427 0.00662254 0.0854944 
0.00662254 9.89551 -0.0287177 
0.0854944 -0.0287177 9.87718 
9.82221 0.0799745 -0.0230311 
0.0799745 10.0191 -0.0764815 
-0.0230311 -0.0764815 10.1139 
9.77618 0.0393077 -0.0133539 
0.0393077 10.0456 -0.0497046 
-0.0133539 -0.0497046 10.1334 
9.86293 0.162334 0.0288719 
0.162334 9.90543 0.0403745 
0.0288719 0.0403745 10.1868 
9.88287 0.10408 -0.00910452 
0.10408 9.9892 -0.0494593 
-0.00910452 -0.0494593 10.0831 
9.95537 -0.00436347 -0.0166595 
-0.00436347 10.0007 0.00846299 
-0.0166595 0.00846299 10.0291 
10.0023 -3.73572e-05 -0.0129664 
-3.73572e-05 10.0083 0.00301471 
-0.0129664 0.00301471 9.97466 
9.98974 -0.0130448 0.0018883 
-0.0130448 10.0022 0.000738242 
0.0018883 0.000738242 9.99325 
9.97825 -0.0119417 0.0151975 
-0.0119417 10.0032 0.0154921 
0.0151975 0.0154921 10.0038 
9.99096 4.5687e-05 -0.0543252 
4.5687e-05 9.99039 -0.0379681 
-0.0543252 -0.0379681 10.0003 
9.9911 0.000394372 -0.0522863 
0.000394372 9.99179 -0.0414299 
-0.0522863 -0.0414299 9.99877 
9.99297 0.00104546 -0.0545507 
0.00104546 9.99443 -0.0400246 
-0.0545507 -0.0400246 9.99426 
9.99494 0.0015348 -0.0556278 
0.0015348 9.99444 -0.0408357 
-0.0556278 -0.0408357 9.99228 
9.94099 -0.00218724 -0.0811368 
-0.00218724 9.93343 -0.0252326 
-0.0811368 -0.0252326 9.93918 
9.94022 -0.00565853 -0.0814159 
-0.00565853 9.93948 -0.0241077 
-0.0814159 -0.0241077 9.9339 
9.94034 -0.00350244 -0.0817632 
-0.00350244 9.93618 -0.0248953 
-0.0817632 -0.0248953 9.93707 
9.94076 -0.00487349 -0.0823095 
-0.00487349 9.9359 -0.0233267 
-0.0823095 -0.0233267 9.93695 
9.44297 -0.181955 -0.0906854 
-0.181955 9.37754 0.14223 
-0.0906854 0.14223 11.0019 
9.97159 0.076704 0.106778 
0.076704 10.216 -0.00501399 
0.106778 -0.00501399 9.63481 
10.0113 0.0973585 0.107193 
0.0973585 10.1331 -0.137933 
0.107193 -0.137933 9.67804 
9.827 0.0750252 0.395081 
0.0750252 10.0953 -0.0621132 
0.395081 -0.0621132 9.90013 
9.99136 0.000449078 0.00487831 
0.000449078 9.98976 0.0848378 
0.00487831 0.0848378 9.98059 
9.9861 -0.00123557 0.00767104 
-0.00123557 9.98987 0.0817315 
0.00767104 0.0817315 9.98573 
9.98917 0.00401786 0.00166433 
0.00401786 9.97526 0.0782197 
0.00166433 0.0782197 9.99727 
9.9859 -0.00299751 0.00705879 
-0.00299751 9.99107 0.080134 
0.00705879 0.080134 9.98473 
9.99698 0.000985254 -0.00898492 
0.000985254 9.99444 -0.00341301 
-0.00898492 -0.00341301 9.99366 
9.99285 0.000610599 -0.0105402 
0.000610599 9.99339 -0.00509477 
-0.0105402 -0.00509477 9.99885 
9.99382 0.00212672 -0.0108589 
0.00212672 9.993 -0.00163572 
-0.0108589 -0.00163572 9.99827 
9.99594 0.00270866 -0.00733074 
0.00270866 9.99396 -0.00277465 
-0.00733074 -0.00277465 9.99519 
9.99191 0.000785943 0.0300423 
0.000785943 9.98821 -0.0250329 
0.0300423 -0.0250329 10.002 
9.99878 -0.00148813 0.0339702 
-0.00148813 9.99411 -0.0254623 
0.0339702 -0.0254623 9.98922 
9.98773 0.00319306 0.034234 
0.00319306 9.99171 -0.020892 
0.034234 -0.020892 10.0027 
9.99536 -0.00391134 0.0305627 
-0.00391134 9.99702 -0.0217582 
0.0305627 -0.0217582 9.98973 
9.8992 0.00397525 0.0104145 
0.00397525 9.89192 -0.0891532 
0.0104145 -0.0891532 9.90233 
9.90473 0.00157947 0.00626959 
0.00157947 9.89233 -0.0891069 
0.00626959 -0.0891069 9.89639 
9.89369 0.00213934 0.00651866 
0.00213934 9.8932 -0.0908852 
0.00651866 -0.0908852 9.90656 
9.89654 0.00377401 0.00869643 
0.00377401 9.89558 -0.0913077 
0.00869643 -0.0913077 9.90132 
9.99251 -0.000153615 0.0149791 
-0.000153615 9.97293 0.0762315 
0.0149791 0.0762315 9.99308 
9.98322 0.00323425 0.0207771 
0.00323425 9.99115 0.0739544 
0.0207771 0.0739544 9.98414 
9.98672 -0.00101518 0.0211737 
-0.00101518 9.99187 0.07999 
0.0211737 0.07999 9.97993 
9.98782 -0.000570408 0.0172467 
-0.000570408 9.98477 0.075518 
0.0172467 0.075518 9.98593 
9.90061 -0.10462 0.117531 
-0.10462 9.93433 0.06968 
0.117531 0.06968 10.1435 
9.42869 0.153019 0.0420226 
0.153019 9.89031 -0.224822 
0.0420226 -0.224822 10.6595 
10.5209 -0.0950453 -0.10583 
-0.0950453 9.82123 0.151126 
-0.10583 0.151126 9.63632 
10.0539 -0.362335 0.279406 
-0.362335 10.2181 -0.0925054 
0.279406 -0.0925054 9.70647 
10.0054 -0.00802289 0.00939396 
-0.00802289 9.99755 0.0112452 
0.00939396 0.0112452 9.98722 
9.99158 0.00113279 -0.0159529 
0.00113279 10.0048 0.000558753 
-0.0159529 0.000558753 9.99376 
10.0118 0.00407629 0.00538249 
0.00407629 9.98057 0.00880706 
0.00538249 0.00880706 9.99773 
10.021 0.00218095 -0.0118974 
0.00218095 9.98727 0.00409467 
-0.0118974 0.00409467 9.98187 
10.2074 -0.0133472 -0.0238549 
-0.0133472 10.2955 0.0301138 
-0.0238549 0.0301138 10.0757 
10.0313 0.109404 -0.0251804 
0.109404 9.91967 -0.133459 
-0.0251804 -0.133459 10.6277 
10.2461 -0.165358 -0.0498868 
-0.165358 10.2672 0.104269 
-0.0498868 0.104269 10.0653 
10.123 -0.0407252 0.0643366 
-0.0407252 10.3619 -0.0485762 
0.0643366 -0.0485762 10.0938 
9.9852 -0.000509406 0.0784762 
-0.000509406 9.98947 -0.015573 
0.0784762 -0.015573 9.98427 
9.99188 -0.00159453 0.076944 
-0.00159453 9.98177 -0.0194212 
0.076944 -0.0194212 9.9853 
9.97143 -0.00188744 0.0778552 
-0.00188744 9.9932 -0.0157786 
0.0778552 -0.0157786 9.99432 
9.99172 0.00106499 0.0816023 
0.00106499 9.98499 -0.0197175 
0.0816023 -0.0197175 9.98224 
9.98389 0.00219825 -0.0772678 
0.00219825 9.9827 -0.00843002 
-0.0772678 -0.00843002 10.0156 
10 0.00098861 -0.0799327 
0.00098861 9.99777 -0.0182544 
-0.0799327 -0.0182544 9.98437 
10.0003 0.00327122 -0.0730425 
0.00327122 9.99323 -0.0138436 
-0.0730425 -0.0138436 9.98867 
10.0004 -0.000304653 -0.0742913 
-0.000304653 9.99084 -0.0154625 
-0.0742913 -0.0154625 9.99097 
9.98742 0.00361741 -0.00918476 
0.00361741 9.98907 0.0033614 
-0.00918476 0.0033614 10.0036 
10.0081 0.0076202 -0.00924108 
0.0076202 9.99118 -0.00215309 
-0.00924108 -0.00215309 9.98075 
10.0057 -0.0109133 0.00248687 
-0.0109133 9.97949 0.00841286 
0.00248687 0.00841286 9.99483 
10.0029 0.00350469 0.000880104 
0.00350469 9.98455 0.000426418 
0.000880104 0.000426418 9.99257 
9.99602 -0.000949884 0.00366707 
-0.000949884 9.96352 0.00121493 
0.00366707 0.00121493 9.97303 
9.98057 -0.00365635 -0.00154113 
-0.00365635 9.97245 -0.00178789 
-0.00154113 -0.00178789 9.97954 
9.98863 -0.005249 0.00543627 
-0.005249 9.98292 -0.00124921 
0.00543627 -0.00124921 9.96102 
9.96527 0.00855215 -0.000875127 
0.00855215 9.97279 0.00700966 
-0.000875127 0.00700966 9.99451 
10.0139 -0.00715403 -0.00112632 
-0.00715403 10.0016 0.00529015 
-0.00112632 0.00529015 9.99621 
9.99624 -0.0054205 -0.00250226 
-0.0054205 9.99983 0.00120296 
-0.00250226 0.00120296 10.0156 
9.9813 0.0148397 -0.0115132 
0.0148397 10.0063 -0.00359582 
-0.0115132 -0.00359582 10.0241 
10.0093 -0.0122912 0.00998419 
-0.0122912 10.0132 -0.00605727 
0.00998419 -0.00605727 9.98921 
9.90799 -0.00183463 -0.0058466 
-0.00183463 10.0132 0.0123458 
-0.0058466 0.0123458 9.95344 
9.99949 -0.0243844 0.00288577 
-0.0243844 9.87733 0.00203601 
0.00288577 0.00203601 9.9978 
9.96113 -0.0115466 -0.0105574 
-0.0115466 9.90549 0.0356712 
-0.0105574 0.0356712 10.008 
9.93852 0.0527362 -0.0148675 
0.0527362 9.93057 0.0248391 
-0.0148675 0.0248391 10.0055 
9.95206 -0.00290218 0.0218267 
-0.00290218 9.95445 0.078904 
0.0218267 0.078904 9.95006 
9.94881 -0.00128266 0.0232685 
-0.00128266 9.95493 0.0775508 
0.0232685 0.0775508 9.95282 
9.95191 -0.00287333 0.0244034 
-0.00287333 9.95294 0.0779134 
0.0244034 0.0779134 9.95172 
9.94944 -0.00271485 0.0217172 
-0.00271485 9.95423 0.0780779 
0.0217172 0.0780779 9.9529 
10.5264 0.0459539 0.0402769 
0.0459539 10.7082 0.0705331 
0.0402769 0.0705331 9.69795 
10.3267 -0.0679504 -0.108589 
-0.0679504 10.6604 0.0122914 
-0.108589 0.0122914 9.9454 
9.751 0.119522 0.108174 
0.119522 9.80615 0.228401 
0.108174 0.228401 11.3754 
10.5091 -0.00413268 -0.0770031 
-0.00413268 10.2957 -0.499615 
-0.0770031 -0.499615 10.1277 
9.97186 -9.99914e-06 -0.0767498 
-9.99914e-06 9.99293 0.0157853 
-0.0767498 0.0157853 9.99412 
9.99243 0.00180175 -0.0810153 
0.00180175 9.98565 0.0212763 
-0.0810153 0.0212763 9.98084 
9.98461 0.00095225 -0.0762772 
0.00095225 9.98843 0.0170944 
-0.0762772 0.0170944 9.98588 
9.99144 -0.00232232 -0.0753504 
-0.00232232 9.9825 0.0212084 
-0.0753504 0.0212084 9.98498 
9.8868 -0.4037 0.345765 
-0.4037 11.0165 0.369017 
0.345765 0.369017 13.8262 
11.4387 -0.573681 0.602201 
-0.573681 11.6342 0.230798 
0.602201 0.230798 11.6566 
8.07934 -0.751848 0.900116 
-0.751848 12.1932 -0.321988 
0.900116 -0.321988 14.457 
11.2247 0.600856 -1.40526 
0.600856 11.0507 -1.16455 
-1.40526 -1.16455 12.4541 
9.89204 -0.0218148 0.000963846 
-0.0218148 9.92296 0.0350894 
0.000963846 0.0350894 9.96871 
9.87243 -0.0386625 0.00102485 
-0.0386625 9.94207 -0.00484407 
0.00102485 -0.00484407 9.96921 
9.93785 -0.00374567 -0.0700279 
-0.00374567 9.9486 -0.0191353 
-0.0700279 -0.0191353 9.89727 
9.9419 -0.0571205 -0.0501752 
-0.0571205 9.89585 -0.00276877 
-0.0501752 -0.00276877 9.94597 
10.257 0.0136671 0.0299367 
0.0136671 10.2485 -0.0155412 
0.0299367 -0.0155412 10.2153 
10.097 0.0104469 -0.00690746 
0.0104469 10.1947 0.0137698 
-0.00690746 0.0137698 10.4291 
10.235 0.0540279 0.03504 
0.0540279 10.356 0.0188469 
0.03504 0.0188469 10.1299 
10.1715 0.0305814 0.118354 
0.0305814 10.3111 -0.0603284 
0.118354 -0.0603284 10.2382 
9.98654 0.00132681 0.0229963 
0.00132681 9.98923 -0.085124 
0.0229963 -0.085124 9.97776 
9.99244 -0.000398313 0.0157082 
-0.000398313 9.96832 -0.0801828 
0.0157082 -0.0801828 9.99277 
9.98668 0.000145726 0.0176062 
0.000145726 9.98395 -0.0805194 
0.0176062 -0.0805194 9.98291 
9.98181 -0.00268054 0.0212401 
-0.00268054 9.98873 -0.0796511 
0.0212401 -0.0796511 9.98299 
9.90876 -0.0179566 -0.0371763 
-0.0179566 9.90231 -0.0325235 
-0.0371763 -0.0325235 9.9455 
9.92268 -0.000467939 -0.038229 
-0.000467939 9.89541 -0.0362408 
-0.038229 -0.0362408 9.93848 
9.9231 -0.000587898 -0.0371558 
-0.000587898 9.90373 -0.0251338 
-0.0371558 -0.0251338 9.92974 
9.91884 -0.00401365 -0.0453133 
-0.00401365 9.89891 -0.0364873 
-0.0453133 -0.0364873 9.93882 
10.3495 -0.0307948 -0.0692376 
-0.0307948 10.4515 0.103529 
-0.0692376 0.103529 10.2522 
10.3758 -0.133169 -0.0508553 
-0.133169 10.4928 0.129495 
-0.0508553 0.129495 10.1846 
10.2055 0.0598824 0.00593416 
0.0598824 10.2735 -0.0965396 
0.00593416 -0.0965396 10.5741 
10.4056 -0.00213483 -0.0732334 
-0.00213483 10.2022 0.129874 
-0.0732334 0.129874 10.4454 
9.8652 -0.0608192 0.0154665 
-0.0608192 9.91328 0.00116425 
0.0154665 0.00116425 9.98421 
9.93293 -0.0204822 0.036926 
-0.0204822 9.88176 0.0210383 
0.036926 0.0210383 9.948 
9.98863 0.0258357 0.00689564 
0.0258357 9.90059 0.0212034 
0.00689564 0.0212034 9.87348 
9.94329 -0.0455462 0.0589251 
-0.0455462 9.86916 0.0380077 
0.0589251 0.0380077 9.95024 
9.92044 -0.00892277 -0.081137 
-0.00892277 9.92598 -0.0231972 
-0.081137 -0.0231972 9.92196 
9.93359 -0.0040649 -0.0875458 
-0.0040649 9.92493 -0.0179148 
-0.0875458 -0.0179148 9.90985 
9.9116 -0.00450374 -0.0852078 
-0.00450374 9.91995 -0.0187734 
-0.0852078 -0.0187734 9.93683 
9.92562 -0.00360577 -0.0811081 
-0.00360577 9.9249 -0.0224991 
-0.0811081 -0.0224991 9.91785 
9.99345 -0.000515239 0.048698 
-0.000515239 9.99402 -0.0340576 
0.048698 -0.0340576 9.99705 
9.99437 0.00106788 0.0500244 
0.00106788 9.99453 -0.036237 
0.0500244 -0.036237 9.99562 
9.99099 -0.000592136 0.0479612 
-0.000592136 9.99301 -0.0383251 
0.0479612 -0.0383251 10.0005 
9.99603 -0.000627632 0.0498275 
-0.000627632 9.9963 -0.035359 
0.0498275 -0.035359 9.99219 
10.251 -0.095642 0.0888526 
-0.095642 10.0618 -0.107927 
0.0888526 -0.107927 11.344 
10.7149 0.0772173 0.0202363 
0.0772173 10.6881 0.070489 
0.0202363 0.070489 10.2538 
10.8122 0.0896757 0.00868046 
0.0896757 10.4249 0.0846324 
0.00868046 0.0846324 10.4197 
10.6352 0.0763905 -0.468284 
0.0763905 10.5404 0.268674 
-0.468284 0.268674 10.4812 
9.99717 0.00114205 -0.0409582 
0.00114205 10.0026 -0.000567422 
-0.0409582 -0.000567422 9.98917 
9.9899 -0.00296696 -0.0358885 
-0.00296696 9.99154 -0.000356936 
-0.0358885 -0.000356936 10.0075 
9.99368 -0.000863276 -0.0393485 
-0.000863276 9.99928 0.00348573 
-0.0393485 0.00348573 9.99595 
10.0016 0.000921491 -0.0378131 
0.000921491 9.99947 0.00522104 
-0.0378131 0.00522104 9.98789 
9.89753 0.00737134 0.00470943 
0.00737134 9.89702 0.000211894 
0.00470943 0.000211894 9.90116 
9.91899 -0.00728471 0.00253495 
-0.00728471 9.89832 0.0064621 
0.00253495 0.0064621 9.8784 
9.87087 0.0109003 -0.021176 
0.0109003 9.91131 -0.00591112 
-0.021176 -0.00591112 9.91353 
9.86481 0.0208952 0.00609144 
0.0208952 9.91233 -0.0130353 
0.00609144 -0.0130353 9.91858 
9.99726 -0.00186511 -0.0193095 
-0.00186511 9.9961 0.0177335 
-0.0193095 0.0177335 9.99308 
9.99285 0.00112983 -0.0189808 
0.00112983 9.99454 0.0187994 
-0.0189808 0.0187994 9.99904 
9.99357 0.000375312 -0.0219554 
0.000375312 9.98931 0.0155991 
-0.0219554 0.0155991 10.0036 
9.99767 -0.00385239 -0.020801 
-0.00385239 9.99528 0.0208422 
-0.020801 0.0208422 9.99349 
9.99698 -0.0018528 0.0247662 
-0.0018528 9.99676 -0.01705 
0.0247662 -0.01705 9.99167 
9.99184 0.00128185 0.023533 
0.00128185 9.99372 -0.0181623 
0.023533 -0.0181623 9.99986 
9.99434 0.000751062 0.0272863 
0.000751062 9.98938 -0.0144781 
0.0272863 -0.0144781 10.0017 
9.99746 -0.00412884 0.0270774 
-0.00412884 9.99567 -0.0201308 
0.0270774 -0.0201308 9.99228 
9.98526 -0.00159304 -0.00922423 
-0.00159304 9.98585 0.0762969 
-0.00922423 0.0762969 10.011 
9.99162 -0.00329631 -0.0126342 
-0.00329631 9.99938 0.0730595 
-0.0126342 0.0730595 9.9911 
9.99222 -2.03324e-05 -0.0145665 
-2.03324e-05 9.99808 0.0741488 
-0.0145665 0.0741488 9.9918 
9.99731 -0.000742351 -0.0167856 
-0.000742351 9.99854 0.0785769 
-0.0167856 0.0785769 9.98626 
9.89952 -0.00434182 -0.0858157 
-0.00434182 9.91017 -0.0295386 
-0.0858157 -0.0295386 9.90538 
9.90013 -0.0100189 -0.0792297 
-0.0100189 9.90112 -0.0361795 
-0.0792297 -0.0361795 9.91383 
9.90164 -0.0138142 -0.0786905 
-0.0138142 9.90675 -0.0287793 
-0.0786905 -0.0287793 9.90669 
9.91274 -0.017975 -0.0764705 
-0.017975 9.9077 -0.0305174 
-0.0764705 -0.0305174 9.89463 
6.12529 0.674961 -0.250086 
0.674961 11.257 0.278695 
-0.250086 0.278695 16.514 
8.20326 -0.30327 -0.089564 
-0.30327 10.9807 -0.698386 
-0.089564 -0.698386 14.7123 
9.78788 -0.453435 -0.466164 
-0.453435 11.3 0.01266 
-0.466164 0.01266 12.8084 
10.7665 0.217181 1.23444 
0.217181 10.7389 -0.419862 
1.23444 -0.419862 12.3908 
9.89639 0.0149665 0.0525628 
0.0149665 9.88823 -0.0171553 
0.0525628 -0.0171553 9.91307 
9.8974 0.0237761 0.0510601 
0.0237761 9.88734 -0.0274387 
0.0510601 -0.0274387 9.91294 
9.89983 0.0110064 0.0471673 
0.0110064 9.88662 -0.0259475 
0.0471673 -0.0259475 9.91124 
9.89627 0.0138992 0.0467018 
0.0138992 9.89068 -0.0202719 
0.0467018 -0.0202719 9.91073 
10.399 0.033789 -0.0459733 
0.033789 10.3881 0.0226074 
-0.0459733 0.0226074 10.217 
10.3623 0.0472531 -0.047272 
0.0472531 10.3205 0.0570518 
-0.047272 0.0570518 10.3213 
10.1375 0.0773188 -0.0131737 
0.0773188 10.1722 -0.0784998 
-0.0131737 -0.0784998 10.6944 
10.4056 0.0756599 -0.106078 
0.0756599 10.306 0.119593 
-0.106078 0.119593 10.2926 
10.2155 -0.0395259 -0.0556039 
-0.0395259 10.324 -0.0645459 
-0.0556039 -0.0645459 10.3997 
10.4877 -0.127908 -0.0160635 
-0.127908 10.4227 0.0239667 
-0.0160635 0.0239667 10.0288 
10.1795 -0.135326 -0.024758 
-0.135326 10.1635 0.0238334 
-0.024758 0.0238334 10.5963 
10.2745 -0.177069 0.0987273 
-0.177069 10.3169 -0.176682 
0.0987273 -0.176682 10.3479 
10.0005 0.853392 0.307755 
0.853392 10.1887 -0.195576 
0.307755 -0.195576 10.5792 
8.51962 -0.0474159 0.688674 
-0.0474159 10.5647 -0.961226 
0.688674 -0.961226 11.6839 
9.37375 0.131985 0.561575 
0.131985 10.4174 -0.268846 
0.561575 -0.268846 10.9771 
9.36527 -0.394705 0.98127 
-0.394705 10.8719 0.455743 
0.98127 0.455743 10.5311 
9.99373 0.000900794 -0.0271311 
0.000900794 9.9953 -0.0162819 
-0.0271311 -0.0162819 10.0002 
9.99601 0.00196269 -0.0292561 
0.00196269 9.99792 -0.0138986 
-0.0292561 -0.0138986 9.9953 
9.99444 -0.000335977 -0.0284276 
-0.000335977 9.99635 -0.0125335 
-0.0284276 -0.0125335 9.99844 
9.99791 0.00142902 -0.0297499 
0.00142902 9.99759 -0.0139828 
-0.0297499 -0.0139828 9.99373 
9.95651 -0.0202585 0.00412756 
-0.0202585 9.96154 -0.0115534 
0.00412756 -0.0115534 9.97983 
9.94147 -0.00860839 -0.00819458 
-0.00860839 9.98486 -0.00457936 
-0.00819458 -0.00457936 9.97154 
9.94762 -0.0323787 0.0119568 
-0.0323787 9.93096 0.00368907 
0.0119568 0.00368907 10.0193 
9.94912 0.00148759 -0.00148221 
0.00148759 9.96266 -0.0112777 
-0.00148221 -0.0112777 9.98609 
9.98907 0.000780635 -0.0798659 
0.000780635 9.9803 -0.0222974 
-0.0798659 -0.0222974 9.98224 
9.96422 0.00324641 -0.0777284 
0.00324641 9.99371 -0.0118174 
-0.0777284 -0.0118174 9.99368 
9.98722 -0.00182403 -0.0876941 
-0.00182403 9.9889 -0.0276366 
-0.0876941 -0.0276366 9.97549 
9.98382 -0.000293466 -0.0800101 
-0.000293466 9.98476 -0.0197647 
-0.0800101 -0.0197647 9.98303 
9.99153 0.00270029 -0.0152314 
0.00270029 9.99268 -0.00355176 
-0.0152314 -0.00355176 10.0017 
9.9963 0.00126685 -0.0125914 
0.00126685 9.99424 -0.000726111 
-0.0125914 -0.000726111 9.99538 
9.99704 0.000580648 -0.0124496 
0.000580648 9.99412 -0.00212976 
-0.0124496 -0.00212976 9.99476 
9.99695 -0.000792038 -0.0111395 
-0.000792038 9.99649 -0.00100374 
-0.0111395 -0.00100374 9.99249 
9.99458 -5.03566e-05 -0.0183722 
-5.03566e-05 9.98604 -0.0333106 
-0.0183722 -0.0333106 10.0045 
9.99212 -0.00408872 -0.012684 
-0.00408872 9.99083 -0.0347413 
-0.012684 -0.0347413 10.0021 
9.99669 8.34155e-05 -0.0155229 
8.34155e-05 9.99956 -0.0308499 
-0.0155229 -0.0308499 9.98884 
9.99362 0.00140673 -0.016453 
0.00140673 10.0026 -0.0359436 
-0.016453 -0.0359436 9.98888 
9.85741 0.000877374 -0.0446588 
0.000877374 9.92363 -0.00112786 
-0.0446588 -0.00112786 9.93602 
9.89034 -0.0048119 -0.0388634 
-0.0048119 9.90691 -0.00706485 
-0.0388634 -0.00706485 9.91982 
9.84079 -0.011057 -0.0361852 
-0.011057 9.92205 -0.000388923 
-0.0361852 -0.000388923 9.95423 
9.8818 -0.0148193 -0.0546576 
-0.0148193 9.91753 -0.0129915 
-0.0546576 -0.0129915 9.91773 
9.96248 -0.00187917 0.0415017 
-0.00187917 9.97304 -0.0728679 
0.0415017 -0.0728679 9.94967 
9.95337 0.00546008 0.0455066 
0.00546008 9.95315 -0.0718308 
0.0455066 -0.0718308 9.97866 
9.96128 0.00116439 0.0457024 
0.00116439 9.9646 -0.0644819 
0.0457024 -0.0644819 9.95931 
9.95637 0.00401061 0.0424934 
0.00401061 9.96658 -0.0597236 
0.0424934 -0.0597236 9.96223 
9.91942 0.0151807 -0.0518992 
0.0151807 9.90561 0.0254876 
-0.0518992 0.0254876 9.92501 
9.89284 0.0363172 -0.0438544 
0.0363172 9.91095 0.0153436 
-0.0438544 0.0153436 9.94624 
9.93183 0.00857165 -0.0462231 
0.00857165 9.90295 0.027325 
-0.0462231 0.027325 9.91525 
9.93431 0.0149397 -0.0617866 
0.0149397 9.89094 0.0370447 
-0.0617866 0.0370447 9.92478 
9.95963 -0.00187406 -0.0622554 
-0.00187406 9.95618 -0.0465906 
-0.0622554 -0.0465906 9.95943 
9.95918 -0.000410067 -0.0622328 
-0.000410067 9.95604 -0.0475866 
-0.0622328 -0.0475866 9.96002 
9.95852 0.00155822 -0.0607858 
0.00155822 9.95565 -0.0482282 
-0.0607858 -0.0482282 9.96106 
9.95894 -0.000378307 -0.0632539 
-0.000378307 9.95573 -0.0477063 
-0.0632539 -0.0477063 9.96057 
9.8498 0.0327508 0.0291851 
0.0327508 9.91149 -0.0197799 
0.0291851 -0.0197799 9.96849 
9.95257 0.011352 0.0307519 
0.011352 9.86942 -0.00885731 
0.0307519 -0.00885731 9.90779 
9.91107 0.0263612 0.0522968 
0.0263612 9.87566 -0.0103449 
0.0522968 -0.0103449 9.94305 
9.89632 0.0311655 0.0743375 
0.0311655 9.88126 -0.0275665 
0.0743375 -0.0275665 9.95221 
9.99477 -0.00139894 0.0124921 
-0.00139894 9.99655 -0.0195088 
0.0124921 -0.0195088 9.99903 
9.99733 -0.00260178 0.0146784 
-0.00260178 9.99615 -0.020221 
0.0146784 -0.020221 9.99686 
9.99574 -0.00215317 0.0132418 
-0.00215317 9.99696 -0.0222514 
0.0132418 -0.0222514 9.99764 
9.99843 -0.00118115 0.0137523 
-0.00118115 9.99823 -0.0209199 
0.0137523 -0.0209199 9.99368 
10.0038 -0.00873838 0.0056994 
-0.00873838 9.9897 -0.00139597 
0.0056994 -0.00139597 9.99045 
9.98073 0.0214842 0.000599355 
0.0214842 9.99505 -0.00092612 
0.000599355 -0.00092612 10.0081 
9.99882 0.000845916 0.00905225 
0.000845916 10.0039 -0.00517377 
0.00905225 -0.00517377 9.98114 
10.006 -0.0118689 -0.00223315 
-0.0118689 9.99329 0.00535666 
-0.00223315 0.00535666 9.98463 
9.79475 -0.12024 0.102334 
-0.12024 9.79241 0.0407221 
0.102334 0.0407221 10.0987 
9.7617 -0.0378325 0.0545928 
-0.0378325 10.1061 0.0214379 
0.0545928 0.0214379 9.81808 
9.87693 -0.00542702 0.0578283 
-0.00542702 9.89002 0.0249662 
0.0578283 0.0249662 9.91889 
9.84577 -0.0692431 0.00470518 
-0.0692431 9.93759 0.0584037 
0.00470518 0.0584037 9.90249 
6.36449 1.99361 1.03226 
1.99361 10.2177 -0.394129 
1.03226 -0.394129 14.1689 
11.4823 0.890148 0.932196 
0.890148 11.1894 -0.326707 
0.932196 -0.326707 8.07947 
8.92227 0.575768 0.220522 
0.575768 10.3218 -0.330341 
0.220522 -0.330341 11.507 
8.97311 0.641111 -1.85888 
0.641111 10.6939 -0.23016 
-1.85888 -0.23016 11.0842 
9.99451 -0.000331999 0.0519062 
-0.000331999 9.99481 0.0396924 
0.0519062 0.0396924 9.99445 
9.9924 -0.000875563 0.0504184 
-0.000875563 9.99435 0.0381122 
0.0504184 0.0381122 9.99702 
9.99045 4.4027e-05 0.0486731 
4.4027e-05 9.99226 0.0420615 
0.0486731 0.0420615 10.0011 
9.99633 0.000639764 0.0519765 
0.000639764 9.99574 0.0385953 
0.0519765 0.0385953 9.9917 
9.90444 0.0163752 0.0667552 
0.0163752 9.90746 -0.0322021 
0.0667552 -0.0322021 9.91281 
9.91155 0.00124874 0.075578 
0.00124874 9.89854 -0.0258656 
0.075578 -0.0258656 9.91463 
9.9149 0.00589608 0.0783983 
0.00589608 9.90543 -0.0233021 
0.0783983 -0.0233021 9.90438 
9.90781 0.0107253 0.0777815 
0.0107253 9.89993 -0.0301985 
0.0777815 -0.0301985 9.91697 
9.97644 0.0164757 0.00312922 
0.0164757 9.9851 -0.00375354 
0.00312922 -0.00375354 9.99718 
9.9972 0.00616635 0.000879747 
0.00616635 9.9704 -0.00856828 
0.000879747 -0.00856828 9.99112 
9.98954 -0.0265101 -0.00606419 
-0.0265101 10.0045 0.00826234 
-0.00606419 0.00826234 9.9647 
9.98881 0.00458825 0.00142648 
0.00458825 9.97888 0.00143251 
0.00142648 0.00143251 9.99103 
10.0193 -0.0122494 -0.00680753 
-0.0122494 9.99862 0.00708783 
-0.00680753 0.00708783 10.0071 
10.0158 0.0171857 -0.00798605 
0.0171857 9.98986 0.00578731 
-0.00798605 0.00578731 10.0194 
10.0118 -0.00629607 -0.00127031 
-0.00629607 10.0029 0.000197288 
-0.00127031 0.000197288 10.0104 
10.0041 -0.00608483 0.000720833 
-0.00608483 10.0119 0.00137782 
0.000720833 0.00137782 10.0091 
10.001 -0.00215914 -0.0338758 
-0.00215914 9.99709 0.00415211 
-0.0338758 0.00415211 9.99484 
9.99959 -0.00191065 -0.0335394 
-0.00191065 9.99871 0.00446079 
-0.0335394 0.00446079 9.99459 
9.99426 -0.00049838 -0.0309425 
-0.00049838 9.99339 0.00231566 
-0.0309425 0.00231566 10.0052 
10.0015 0.000777187 -0.0369095 
0.000777187 9.99943 0.006891 
-0.0369095 0.006891 9.99198 
9.97971 0.00856393 -0.0126471 
0.00856393 9.9786 0.00168854 
-0.0126471 0.00168854 9.98939 
9.97809 -0.0109913 -0.00358605 
-0.0109913 9.98867 0.00249684 
-0.00358605 0.00249684 9.98094 
9.9854 -0.000985748 0.00142105 
-0.000985748 9.98663 0.00586012 
0.00142105 0.00586012 9.97567 
9.97948 -0.00118281 -0.00409303 
-0.00118281 9.98765 0.00458881 
-0.00409303 0.00458881 9.98056 
9.97033 -0.00377705 -0.0169407 
-0.00377705 10.0074 0.0104844 
-0.0169407 0.0104844 10.0574 
10.0198 0.0150629 -0.000755284 
0.0150629 10.0645 0.0263068 
-0.000755284 0.0263068 9.95094 
10.0142 -0.00705032 0.00426509 
-0.00705032 9.98685 0.0123 
0.00426509 0.0123 10.0341 
9.98149 -0.00285333 0.00728159 
-0.00285333 10.0407 -0.0316553 
0.00728159 -0.0316553 10.0129 
10.3116 0.0116853 -0.0272379 
0.0116853 10.1996 0.058027 
-0.0272379 0.058027 10.5704 
10.3281 -0.0661694 -0.0141384 
-0.0661694 10.3077 -0.0342047 
-0.0141384 -0.0342047 10.4458 
10.4944 -0.0421904 -0.0557591 
-0.0421904 10.3583 -0.0032458 
-0.0557591 -0.0032458 10.2289 
10.5189 0.0110093 0.135156 
0.0110093 10.2562 0.00742262 
0.135156 0.00742262 10.3065 
10.0506 -0.0344737 0.022729 
-0.0344737 10.0376 -0.0318309 
0.022729 -0.0318309 10.5591 
10.1778 0.0294386 0.083264 
0.0294386 10.2466 0.0573579 
0.083264 0.0573579 10.2228 
10.1683 -0.0191626 0.0819616 
-0.0191626 10.2993 0.0571501 
0.0819616 0.0571501 10.1796 
10.1478 -0.00288233 0.177004 
-0.00288233 10.2912 0.132949 
0.177004 0.132949 10.2083 
10.0014 0.00298345 0.0712996 
0.00298345 9.99228 0.0128325 
0.0712996 0.0128325 9.98916 
9.99984 -0.000556252 0.0730716 
-0.000556252 9.99225 0.0155569 
0.0730716 0.0155569 9.99074 
9.98337 0.00150147 0.0765764 
0.00150147 9.98273 0.00815249 
0.0765764 0.00815249 10.0167 
10.0006 0.00130478 0.0802289 
0.00130478 9.99938 0.0186652 
0.0802289 0.0186652 9.98286 
9.99764 0.000511321 -0.0164617 
0.000511321 9.99062 -0.0450866 
-0.0164617 -0.0450866 9.99857 
9.9933 -0.00117175 -0.0221067 
-0.00117175 9.98939 -0.0438551 
-0.0221067 -0.0438551 10.0041 
9.9996 0.00122029 -0.019511 
0.00122029 9.9977 -0.0451572 
-0.019511 -0.0451572 9.98952 
9.99717 0.00203821 -0.017092 
0.00203821 9.9994 -0.0414361 
-0.017092 -0.0414361 9.99025 
11.1961 0.352169 -0.0935289 
0.352169 11.0581 -0.119503 
-0.0935289 -0.119503 10.1478 
10.9297 0.227654 -0.238919 
0.227654 10.0612 0.473311 
-0.238919 0.473311 11.4111 
10.8798 -0.0623775 0.0270962 
-0.0623775 10.8049 0.0796231 
0.0270962 0.0796231 10.7173 
10.8074 0.438505 0.313431 
0.438505 10.4834 0.201948 
0.313431 0.201948 11.1112 
9.97482 0.00336401 -0.0758253 
0.00336401 9.96389 -0.0390973 
-0.0758253 -0.0390973 9.95241 
9.96098 -0.00378317 -0.073895 
-0.00378317 9.96577 -0.0337966 
-0.073895 -0.0337966 9.96437 
9.96007 -0.00644654 -0.0756357 
-0.00644654 9.95803 -0.0334574 
-0.0756357 -0.0334574 9.97303 
9.96993 -0.00263067 -0.0685577 
-0.00263067 9.9641 -0.0277495 
-0.0685577 -0.0277495 9.95708 
9.9957 7.91541e-05 -0.0506284 
7.91541e-05 9.99571 -0.0611853 
-0.0506284 -0.0611853 9.99217 
9.99364 -0.000844705 -0.050837 
-0.000844705 9.99273 -0.0599967 
-0.050837 -0.0599967 9.99722 
9.99483 -0.000608224 -0.0503665 
-0.000608224 9.99412 -0.0618634 
-0.0503665 -0.0618634 9.99464 
9.99087 -0.00217045 -0.0476091 
-0.00217045 9.99139 -0.0627551 
-0.0476091 -0.0627551 10.0013 
9.95238 -0.00680446 -0.00357101 
-0.00680446 9.95548 0.000405489 
-0.00357101 0.000405489 9.96386 
9.9499 0.00804191 0.00598038 
0.00804191 9.94694 -0.000767808 
0.00598038 -0.000767808 9.97488 
9.95134 0.00645673 -0.000746453 
0.00645673 9.95065 0.00219948 
-0.000746453 0.00219948 9.96973 
9.95205 0.00255469 -0.0079372 
0.00255469 9.94497 0.00368497 
-0.0079372 0.00368497 9.9747 
10.0016 0.00490748 0.00770239 
0.00490748 9.99642 0.0107967 
0.00770239 0.0107967 9.97377 
9.99813 -0.0287596 -0.00436256 
-0.0287596 9.97386 0.010906 
-0.00436256 0.010906 9.99983 
9.99259 0.0157073 -0.0026155 
0.0157073 10.0124 -0.00402185 
-0.0026155 -0.00402185 9.96682 
9.99638 0.00344987 0.0135167 
0.00344987 10.0069 0.0116248 
0.0135167 0.0116248 9.9685 
11.259 -0.539758 0.149522 
-0.539758 11.0469 0.0950917 
0.149522 0.0950917 10.431 
10.797 0.39299 0.0733935 
0.39299 10.6481 0.202693 
0.0733935 0.202693 11.2918 
11.5752 -0.275256 0.144665 
-0.275256 9.34439 0.727345 
0.144665 0.727345 11.8174 
11.1099 -0.32754 -0.381833 
-0.32754 10.3393 0.448701 
-0.381833 0.448701 11.2878 
9.98339 -0.00251322 0.00378433 
-0.00251322 9.9873 0.0044628 
0.00378433 0.0044628 10.0055 
10.0082 -0.00032546 -0.000447598 
-0.00032546 9.98846 0.00223286 
-0.000447598 0.00223286 9.97955 
9.98684 -0.00709107 0.0041966 
-0.00709107 9.98676 -0.00226016 
0.0041966 -0.00226016 10.0026 
10.0004 -0.00322945 -0.0125107 
-0.00322945 9.99682 -0.000768495 
-0.0125107 -0.000768495 9.97902 
9.93123 0.00737087 -0.0491526 
0.00737087 9.93312 -0.0463369 
-0.0491526 -0.0463369 9.93496 
9.93468 -0.000851928 -0.0499505 
-0.000851928 9.93025 -0.0474078 
-0.0499505 -0.0474078 9.93439 
9.92579 -0.00848754 -0.052976 
-0.00848754 9.92549 -0.0524558 
-0.052976 -0.0524558 9.94804 
9.93559 0.000340802 -0.0441282 
0.000340802 9.92145 -0.0484851 
-0.0441282 -0.0484851 9.94227 
9.99904 -0.00364646 -0.0397854 
-0.00364646 9.99445 0.0411517 
-0.0397854 0.0411517 9.9909 
9.99675 0.00232984 -0.0380903 
0.00232984 9.98783 0.0433799 
-0.0380903 0.0433799 9.99981 
9.99324 -0.00135097 -0.0443822 
-0.00135097 9.99152 0.0419474 
-0.0443822 0.0419474 9.99963 
9.99734 -0.00210306 -0.0402567 
-0.00210306 9.99777 0.0425773 
-0.0402567 0.0425773 9.98928 
10.0194 -0.00303224 0.00712141 
-0.00303224 10.0138 -0.0207956 
0.00712141 -0.0207956 10.0771 
10.0431 0.00391061 0.00741866 
0.00391061 10.0437 -0.00801215 
0.00741866 -0.00801215 10.0235 
10.051 -0.00223155 0.0205673 
-0.00223155 10.0475 -0.0110262 
0.0205673 -0.0110262 10.0118 
10.0472 -0.00759277 0.0162834 
-0.00759277 10.0199 0.0166514 
0.0162834 0.0166514 10.0432 
10.5276 -0.0868601 1.7959 
-0.0868601 5.9619 2.07753 
1.7959 2.07753 -2.59016 
13.5438 2.21211 2.23495 
2.21211 6.95824 -0.744827 
2.23495 -0.744827 -6.60277 
3.28091 0.339414 -1.68441 
0.339414 0.266126 -0.743386 
-1.68441 -0.743386 10.3523 
3.30344 -0.801739 8.05764 
-0.801739 6.48554 1.90771 
8.05764 1.90771 4.11032 
9.93762 0.00548162 0.0791808 
0.00548162 9.92798 -0.0190651 
0.0791808 -0.0190651 9.92165 
9.93923 0.000834872 0.0767566 
0.000834872 9.92094 -0.0188631 
0.0767566 -0.0188631 9.92708 
9.91915 0.00435152 0.0848248 
0.00435152 9.92758 -0.0260315 
0.0848248 -0.0260315 9.94051 
9.93019 0.00998778 0.0764259 
0.00998778 9.92719 -0.0273166 
0.0764259 -0.0273166 9.92987 
9.95687 0.00644254 0.0136857 
0.00644254 9.90513 0.00901213 
0.0136857 0.00901213 9.94184 
9.93964 -0.00400432 0.0176264 
-0.00400432 9.90629 0.016932 
0.0176264 0.016932 9.95791 
9.91418 -0.0377599 0.00749252 
-0.0377599 9.91855 0.00455171 
0.00749252 0.00455171 9.97111 
9.95054 -0.0182106 0.0376628 
-0.0182106 9.89173 0.0106967 
0.0376628 0.0106967 9.96157 
9.9894 0.00152498 0.0778406 
0.00152498 9.98285 0.0217167 
0.0778406 0.0217167 9.98526 
9.96994 0.00148187 0.0768588 
0.00148187 9.99303 0.0147381 
0.0768588 0.0147381 9.99454 
9.9893 -0.00148553 0.082935 
-0.00148553 9.98835 0.0243223 
0.082935 0.0243223 9.97985 
9.98518 -0.000250059 0.0776527 
-0.000250059 9.9872 0.0186528 
0.0776527 0.0186528 9.98513 
9.99401 0.00103954 -0.0609048 
0.00103954 9.99368 -0.0247435 
-0.0609048 -0.0247435 10.0008 
9.99452 -0.00113778 -0.0596572 
-0.00113778 9.99706 -0.0277837 
-0.0596572 -0.0277837 9.99688 
9.99642 0.000253341 -0.061774 
0.000253341 9.99589 -0.0283486 
-0.061774 -0.0283486 9.99615 
9.99843 0.000401925 -0.0609815 
0.000401925 9.99674 -0.0288958 
-0.0609815 -0.0288958 9.99329 
9.96039 0.0040217 0.0195147 
0.0040217 9.95462 -0.0821965 
0.0195147 -0.0821965 9.96171 
9.95367 -0.00191748 0.0173603 
-0.00191748 9.97544 -0.0874796 
0.0173603 -0.0874796 9.94761 
9.9565 0.000810819 0.019213 
0.000810819 9.95075 -0.0844394 
0.019213 -0.0844394 9.96948 
9.96049 0.00137529 0.0203025 
0.00137529 9.95828 -0.074549 
0.0203025 -0.074549 9.95795 
10.1678 -0.00927743 -0.0119664 
-0.00927743 10.1723 -0.0284738 
-0.0119664 -0.0284738 10.1592 
10.1487 0.00489327 -0.0142065 
0.00489327 10.1481 -0.010096 
-0.0142065 -0.010096 10.2025 
10.1472 0.00295325 -0.015145 
0.00295325 10.1572 -0.0261055 
-0.015145 -0.0261055 10.1949 
10.1626 0.00792941 0.00633246 
0.00792941 10.1494 -0.0242618 
0.00633246 -0.0242618 10.1873 
9.84544 -0.0325854 -0.0173116 
-0.0325854 9.90302 -0.0276439 
-0.0173116 -0.0276439 9.95304 
9.92878 0.00198399 -0.0371709 
0.00198399 9.89835 -0.0261082 
-0.0371709 -0.0261082 9.87437 
9.84716 -0.0136973 -0.0405773 
-0.0136973 9.90133 -0.0107533 
-0.0405773 -0.0107533 9.95301 
9.8525 0.00968877 -0.00185288 
0.00968877 9.91739 -0.024915 
-0.00185288 -0.024915 9.93161 
9.95259 0.0152671 -0.0102541 
0.0152671 10.0546 0.0260149 
-0.0102541 0.0260149 9.9872 
10.009 -0.00139371 0.0166147 
-0.00139371 9.96135 -0.00448092 
0.0166147 -0.00448092 10.024 
9.96669 -0.00331085 -0.0255998 
-0.00331085 10.044 -0.00968108 
-0.0255998 -0.00968108 9.98368 
10.0305 0.00918764 0.00514519 
0.00918764 9.9756 -0.0129914 
0.00514519 -0.0129914 9.98826 
9.97075 0.00275373 -0.0653381 
0.00275373 9.96622 -0.0434106 
-0.0653381 -0.0434106 9.96585 
9.97183 0.000648743 -0.0663712 
0.000648743 9.96615 -0.0443577 
-0.0663712 -0.0443577 9.96483 
9.96613 -0.00277235 -0.0657009 
-0.00277235 9.96748 -0.0461768 
-0.0657009 -0.0461768 9.96921 
9.97017 -0.00221943 -0.0631977 
-0.00221943 9.96658 -0.0445066 
-0.0631977 -0.0445066 9.96607 
9.88253 -0.00101343 -0.0216076 
-0.00101343 9.93343 0.0298027 
-0.0216076 0.0298027 9.94863 
9.93229 0.0148869 -0.0388707 
0.0148869 9.93483 0.0146375 
-0.0388707 0.0146375 9.89746 
9.91312 0.0479954 0.0115753 
0.0479954 9.86193 0.0150568 
0.0115753 0.0150568 9.98953 
9.88407 0.00844822 -0.031235 
0.00844822 9.91907 0.0577109 
-0.031235 0.0577109 9.96144 
9.98085 0.00602679 0.00574873 
0.00602679 9.97035 0.00593037 
0.00574873 0.00593037 9.97436 
9.95053 -0.000848442 0.00804509 
-0.000848442 9.98584 1.06234e-05 
0.00804509 1.06234e-05 9.98919 
9.97465 0.0282389 -0.00871472 
0.0282389 9.96239 -0.0305378 
-0.00871472 -0.0305378 9.98852 
9.96243 -0.00234178 0.0057396 
-0.00234178 9.99388 -0.0135881 
0.0057396 -0.0135881 9.96924 
9.95303 -0.00460281 0.0681085 
-0.00460281 9.95726 0.0455325 
0.0681085 0.0455325 9.9843 
9.96816 -0.00193648 0.0641791 
-0.00193648 9.96341 0.0448337 
0.0641791 0.0448337 9.96302 
9.97758 0.00169059 0.070507 
0.00169059 9.96658 0.0420966 
0.070507 0.0420966 9.95044 
9.97092 -0.00308086 0.0567195 
-0.00308086 9.96236 0.0449439 
0.0567195 0.0449439 9.96132 
9.90385 -0.00984273 -0.0154069 
-0.00984273 9.93718 -0.0217189 
-0.0154069 -0.0217189 9.96232 
9.92363 -0.0263201 -0.00656332 
-0.0263201 9.9017 -0.0311228 
-0.00656332 -0.0311228 9.97802 
9.95407 -0.0313163 -0.000605544 
-0.0313163 9.86105 -0.00643281 
-0.000605544 -0.00643281 9.98823 
9.89558 -0.0382274 0.00067842 
-0.0382274 9.93575 -0.0320356 
0.00067842 -0.0320356 9.97202 
9.98326 -0.00197221 -0.0206392 
-0.00197221 9.98683 0.0789856 
-0.0206392 0.0789856 9.98457 
9.98813 -5.63889e-05 -0.0171737 
-5.63889e-05 9.98285 0.0775557 
-0.0171737 0.0775557 9.98369 
9.99106 -0.00180313 -0.0149692 
-0.00180313 9.97219 0.0774554 
-0.0149692 0.0774554 9.99141 
9.98708 0.000811272 -0.022038 
0.000811272 9.98745 0.0823831 
-0.022038 0.0823831 9.98013 
10.0135 -0.0304551 -0.0287688 
-0.0304551 9.9004 0.0192658 
-0.0287688 0.0192658 10.0421 
10.0297 -0.00759153 -0.0156118 
-0.00759153 9.99414 -0.0242573 
-0.0156118 -0.0242573 9.93222 
9.95114 0.00802121 0.0283266 
0.00802121 10.0399 -0.0262086 
0.0283266 -0.0262086 9.96496 
9.96919 0.0490772 -0.00268539 
0.0490772 10.0277 0.034412 
-0.00268539 0.034412 9.95912 
10.8117 0.0255368 -0.00701745 
0.0255368 10.5021 0.133296 
-0.00701745 0.133296 10.1791 
10.0878 -0.101595 0.150052 
-0.101595 10.2208 -0.0325573 
0.150052 -0.0325573 11.1844 
10.5823 0.0250299 -0.0979503 
0.0250299 10.4438 0.0695403 
-0.0979503 0.0695403 10.4668 
10.5496 0.125485 -0.295106 
0.125485 10.4964 0.0710604 
-0.295106 0.0710604 10.447 
9.99465 0.00146686 -0.0223298 
0.00146686 10.0003 -0.0797229 
-0.0223298 -0.0797229 9.98995 
9.99457 -0.00136668 -0.0269019 
-0.00136668 9.98667 -0.0759371 
-0.0269019 -0.0759371 10.0037 
9.99724 -0.00115409 -0.0223537 
-0.00115409 9.99795 -0.0743797 
-0.0223537 -0.0743797 9.98974 
9.99481 -0.00205146 -0.0216421 
-0.00205146 9.99335 -0.077343 
-0.0216421 -0.077343 9.99677 
9.99106 0.000907762 0.0225897 
0.000907762 9.99188 -0.0810628 
0.0225897 -0.0810628 10.0022 
9.99475 0.000150144 0.0270042 
0.000150144 9.99805 -0.0811117 
0.0270042 -0.0811117 9.99231 
9.99601 0.000968319 0.0266566 
0.000968319 9.99054 -0.0797925 
0.0266566 -0.0797925 9.99856 
9.99523 0.000789468 0.0252782 
0.000789468 9.99623 -0.0801739 
0.0252782 -0.0801739 9.99365 
10.5889 -0.373583 1.11922 
-0.373583 13.5614 0.470059 
1.11922 0.470059 8.05104 
9.10416 1.6346 0.632401 
1.6346 10.481 -0.81533 
0.632401 -0.81533 12.6161 
8.70941 0.601045 1.05836 
0.601045 9.70724 -0.30829 
1.05836 -0.30829 13.7846 
9.92963 0.62542 -1.31721 
0.62542 10.0887 -0.0634938 
-1.31721 -0.0634938 12.1829 
9.99233 0.00185712 -0.0243195 
0.00185712 9.98842 0.0251064 
-0.0243195 0.0251064 10.0057 
9.99945 -0.000892032 -0.0291867 
-0.000892032 9.99863 0.0250429 
-0.0291867 0.0250429 9.98841 
9.99108 0.0019233 -0.0286759 
0.0019233 9.99513 0.0212071 
-0.0286759 0.0212071 10.0003 
9.99786 -0.00403737 -0.0252777 
-0.00403737 9.99826 0.0197591 
-0.0252777 0.0197591 9.99037 
9.89761 0.00151643 0.0779033 
0.00151643 9.88616 -0.00882967 
0.0779033 -0.00882967 9.87107 
9.87072 0.0107317 0.0820427 
0.0107317 9.89211 -0.0127132 
0.0820427 -0.0127132 9.89201 
9.8599 -8.60085e-05 0.07631 
-8.60085e-05 9.90575 -0.00736759 
0.07631 -0.00736759 9.88919 
9.884 0.0200828 0.073758 
0.0200828 9.89916 -0.0129347 
0.073758 -0.0129347 9.87168 
9.85992 -0.0131263 -0.0759372 
-0.0131263 9.87312 -0.0272113 
-0.0759372 -0.0272113 9.90335 
9.91705 -0.0118808 -0.0712439 
-0.0118808 9.85241 -0.0348328 
-0.0712439 -0.0348328 9.86694 
9.84563 -0.0319137 -0.0693791 
-0.0319137 9.88188 -0.0238514 
-0.0693791 -0.0238514 9.90889 
9.85805 -0.00855447 -0.0999347 
-0.00855447 9.88404 -0.0279631 
-0.0999347 -0.0279631 9.89431 
9.99545 -0.011072 0.0226397 
-0.011072 9.99498 0.0210428 
0.0226397 0.0210428 9.95492 
9.99772 -0.00280477 -0.016189 
-0.00280477 9.9561 -0.00121319 
-0.016189 -0.00121319 9.99155 
9.9819 -0.00887432 0.00747885 
-0.00887432 9.98501 -0.000514509 
0.00747885 -0.000514509 9.97846 
9.97743 -0.00614862 0.00917981 
-0.00614862 9.99893 -0.00129447 
0.00917981 -0.00129447 9.969 
9.97192 -0.000103732 -0.00619465 
-0.000103732 10.0001 -0.00905478 
-0.00619465 -0.00905478 9.97774 
10.013 0.00213322 0.00794918 
0.00213322 9.9301 0.00724324 
0.00794918 0.00724324 10.0067 
9.97697 -0.00629623 -0.00125422 
-0.00629623 9.99623 0.00918298 
-0.00125422 0.00918298 9.97652 
9.99916 -0.00823473 -0.0199388 
-0.00823473 9.98839 -0.0108279 
-0.0199388 -0.0108279 9.96217 
10.0273 -0.0148966 0.029764 
-0.0148966 9.98943 0.00420119 
0.029764 0.00420119 9.96659 
10.0111 0.0036314 0.0206768 
0.0036314 10.0166 -0.016219 
0.0206768 -0.016219 9.95566 
9.89874 -0.015093 -0.0017177 
-0.015093 10.0545 0.00483616 
-0.0017177 0.00483616 10.0301 
10.0244 -0.0012437 -0.0108998 
-0.0012437 9.98248 0.00913066 
-0.0108998 0.00913066 9.9765 
9.92056 0.00355121 -0.0161791 
0.00355121 9.91049 0.0810648 
-0.0161791 0.0810648 9.94643 
9.92593 0.00892357 -0.020572 
0.00892357 9.92309 0.0786328 
-0.020572 0.0786328 9.92847 
9.92635 0.00346859 -0.0201091 
0.00346859 9.93702 0.0879847 
-0.0201091 0.0879847 9.91411 
9.92469 0.00261146 -0.0232359 
0.00261146 9.92982 0.0799881 
-0.0232359 0.0799881 9.92297 
10.216 -0.127461 0.313804 
-0.127461 9.55546 -0.0446089 
0.313804 -0.0446089 11.9398 
9.84956 -0.0169561 0.210704 
-0.0169561 10.7329 -0.123332 
0.210704 -0.123332 11.1288 
11.4241 0.115067 -0.0272976 
0.115067 10.5754 -0.447393 
-0.0272976 -0.447393 9.71175 
10.6149 -0.286377 -0.532633 
-0.286377 10.0063 0.071908 
-0.532633 0.071908 11.09 
9.96513 -0.005453 -0.0012207 
-0.005453 9.99252 0.0136977 
-0.0012207 0.0136977 9.97673 
9.95302 0.00463547 -0.0158739 
0.00463547 9.99719 0.000887552 
-0.0158739 0.000887552 9.98415 
9.99471 0.000254319 -0.00453846 
0.000254319 9.97743 -0.00014385 
-0.00453846 -0.00014385 9.96223 
9.98564 0.000671263 -0.00075643 
0.000671263 9.95819 -0.00309717 
-0.00075643 -0.00309717 9.99054 
9.96578 0.0115395 0.00362399 
0.0115395 9.98472 -0.00461051 
0.00362399 -0.00461051 9.98461 
9.97227 0.0101518 0.0162148 
0.0101518 9.9756 -0.00755008 
0.0162148 -0.00755008 9.98724 
9.97934 0.0193502 -0.00121846 
0.0193502 9.96382 -0.00853571 
-0.00121846 -0.00853571 9.99195 
9.96995 0.0119427 0.00503165 
0.0119427 9.98203 -0.0141155 
0.00503165 -0.0141155 9.98313 
9.98183 -0.00495698 -0.00522682 
-0.00495698 9.9699 -0.00329725 
-0.00522682 -0.00329725 9.98222 
9.99089 0.00392103 0.00485813 
0.00392103 9.99206 0.00488626 
0.00485813 0.00488626 9.95099 
9.97883 -0.00632226 0.000342124 
-0.00632226 9.97573 0.00348376 
0.000342124 0.00348376 9.97938 
9.97346 -0.00739487 -0.0021284 
-0.00739487 9.97852 0.000582737 
-0.0021284 0.000582737 9.98196 
9.9128 -0.00850157 -0.0740426 
-0.00850157 9.88597 -0.0303024 
-0.0740426 -0.0303024 9.89124 
9.88316 -0.0196766 -0.0895836 
-0.0196766 9.89648 -0.0335592 
-0.0895836 -0.0335592 9.91037 
9.90171 -0.012992 -0.0773038 
-0.012992 9.89863 -0.0253097 
-0.0773038 -0.0253097 9.88967 
9.89082 -0.0135937 -0.0742131 
-0.0135937 9.88822 -0.0251566 
-0.0742131 -0.0251566 9.91096 
9.91836 0.0171649 -0.029095 
0.0171649 9.92744 -0.0258701 
-0.029095 -0.0258701 9.91977 
9.92363 -0.0146924 -0.0298623 
-0.0146924 9.91101 -0.026059 
-0.0298623 -0.026059 9.93093 
9.91306 -0.0248955 -0.0420176 
-0.0248955 9.90189 -0.0417479 
-0.0420176 -0.0417479 9.95061 
9.93091 0.00167419 -0.0236842 
0.00167419 9.89507 -0.0289942 
-0.0236842 -0.0289942 9.93958 
9.98848 -1.72402e-05 -0.00039844 
-1.72402e-05 10.0071 -0.002504 
-0.00039844 -0.002504 9.98577 
9.99249 0.00438715 -0.00332503 
0.00438715 9.9839 -0.00240125 
-0.00332503 -0.00240125 10.005 
9.98898 -0.00390587 0.00440105 
-0.00390587 9.98882 0.00377408 
0.00440105 0.00377408 10.0036 
9.99535 -0.00447161 -0.00398758 
-0.00447161 9.99959 0.0030697 
-0.00398758 0.0030697 9.9864 
9.99555 -0.00104594 0.0613451 
-0.00104594 9.99343 0.0525699 
0.0613451 0.0525699 9.99555 
9.99328 -0.00202618 0.0598202 
-0.00202618 9.99483 0.0523369 
0.0598202 0.0523369 9.99642 
9.99671 -0.000498849 0.0601156 
-0.000498849 9.99502 0.0528177 
0.0601156 0.0528177 9.9928 
9.99183 -0.000506193 0.0626631 
-0.000506193 9.99132 0.0489934 
0.0626631 0.0489934 10.0014 
9.45299 -0.0162935 2.09285 
-0.0162935 4.99593 -0.584794 
2.09285 -0.584794 -0.145382 
5.36673 -0.360763 0.216602 
-0.360763 2.42217 0.106305 
0.216602 0.106305 6.51465 
10.6615 -1.65676 2.43253 
-1.65676 5.40762 1.34487 
2.43253 1.34487 -1.76556 
4.73313 -0.425625 4.88318 
-0.425625 5.53507 -0.373657 
4.88318 -0.373657 4.03534 
10.0081 -0.0366788 0.0103109 
-0.0366788 10.0213 -0.00614725 
0.0103109 -0.00614725 9.95782 
9.97048 -0.0010441 0.00204263 
-0.0010441 10.0048 -0.00380452 
0.00204263 -0.00380452 10.0119 
9.99715 0.00902348 -0.00635806 
0.00902348 9.97808 0.00234786 
-0.00635806 0.00234786 10.0119 
9.98345 -0.00360206 -0.000345371 
-0.00360206 10.0065 -0.0178645 
-0.000345371 -0.0178645 9.99728 
9.96557 0.00464415 -0.00051087 
0.00464415 9.99133 -0.00973104 
-0.00051087 -0.00973104 9.97784 
9.98951 -0.000860517 -0.0045258 
-0.000860517 9.97627 0.000840304 
-0.0045258 0.000840304 9.96896 
9.96801 -0.00349888 -0.00882995 
-0.00349888 9.98804 0.0018796 
-0.00882995 0.0018796 9.9787 
9.983 -0.000844865 -0.0047641 
-0.000844865 9.97027 0.00327078 
-0.0047641 0.00327078 9.98147 
10.0231 0.00443426 0.00383794 
0.00443426 10.0109 0.00920491 
0.00383794 0.00920491 9.99983 
9.99696 0.00102147 0.00454193 
0.00102147 9.9918 -0.00726395 
0.00454193 -0.00726395 10.045 
10.018 -0.000448448 -0.00204791 
-0.000448448 10.0121 0.00350908 
-0.00204791 0.00350908 10.0037 
10.0069 0.00860081 -0.00242202 
0.00860081 10.0242 -0.000214459 
-0.00242202 -0.000214459 10.0027 
10.1466 -0.0185077 -0.0105329 
-0.0185077 10.171 -0.0258618 
-0.0105329 -0.0258618 10.1917 
10.1166 0.0218224 0.00733826 
0.0218224 10.1862 -0.0309287 
0.00733826 -0.0309287 10.2064 
10.1806 0.0126483 -0.00916793 
0.0126483 10.1505 -0.0238774 
-0.00916793 -0.0238774 10.1781 
10.1548 0.00700095 -0.00664767 
0.00700095 10.1718 -0.0171214 
-0.00664767 -0.0171214 10.1826 
9.99589 0.00131499 -0.0715902 
0.00131499 9.9939 0.0393692 
-0.0715902 0.0393692 9.99618 
9.99228 0.00201919 -0.0702564 
0.00201919 9.99549 0.0396088 
-0.0702564 0.0396088 9.9982 
9.99314 -0.000468752 -0.071885 
-0.000468752 9.99233 0.0365684 
-0.071885 0.0365684 10.0005 
9.99707 0.000949424 -0.0705446 
0.000949424 9.99523 0.0398513 
-0.0705446 0.0398513 9.99367 
10.0085 0.000644301 -0.00311567 
0.000644301 10.0047 0.000297161 
-0.00311567 0.000297161 10.0044 
10.0034 0.000786522 -0.00373419 
0.000786522 10.0124 -0.002112 
-0.00373419 -0.002112 10.0018 
9.99938 0.00219984 0.00277776 
0.00219984 10.0017 0.00173426 
0.00277776 0.00173426 10.0166 
10.0056 0.000434365 -0.00592061 
0.000434365 10.0117 9.96571e-05 
-0.00592061 9.96571e-05 10.0003 
10.1554 -0.707676 -0.970945 
-0.707676 5.97608 -1.6799 
-0.970945 -1.6799 -4.82647 
8.26699 -0.000359333 -1.14053 
-0.000359333 4.6737 0.817882 
-1.14053 0.817882 -1.63569 
4.59662 0.276754 -0.486112 
0.276754 1.51352 -0.02855 
-0.486112 -0.02855 5.19485 
5.51912 -0.401209 -5.5453 
-0.401209 5.02039 1.17328 
-5.5453 1.17328 0.765487 
9.98951 -0.000634884 -0.0800295 
-0.000634884 9.99272 -0.0281898 
-0.0800295 -0.0281898 10.0006 
9.99382 -0.000578864 -0.0818414 
-0.000578864 9.99469 -0.0252219 
-0.0818414 -0.0252219 9.99432 
9.99251 -7.12469e-05 -0.0814796 
-7.12469e-05 9.99258 -0.023165 
-0.0814796 -0.023165 9.99774 
9.99557 -0.000345059 -0.0817411 
-0.000345059 9.99537 -0.0247979 
-0.0817411 -0.0247979 9.99189 
9.86801 -0.0395067 0.0180209 
-0.0395067 9.92343 0.0156485 
0.0180209 0.0156485 9.95094 
9.92266 -0.0142139 0.0501549 
-0.0142139 9.90915 -0.00682541 
0.0501549 -0.00682541 9.91057 
9.91676 -0.00985805 0.0468039 
-0.00985805 9.8978 0.0159312 
0.0468039 0.0159312 9.92782 
9.90967 -0.0167134 0.0647708 
-0.0167134 9.89392 0.0290741 
0.0647708 0.0290741 9.93879 
9.97384 0.00521177 -0.00218717 
0.00521177 9.96519 0.017203 
-0.00218717 0.017203 9.94508 
9.9691 0.00441492 -0.0109963 
0.00441492 9.94451 -0.000603529 
-0.0109963 -0.000603529 9.9705 
9.93752 0.02171 -0.0033061 
0.02171 9.96417 -0.0209199 
-0.0033061 -0.0209199 9.98241 
9.96462 0.0112401 -0.0095904 
0.0112401 9.94912 0.000276319 
-0.0095904 0.000276319 9.97037 
9.99592 0.000395864 -0.0420117 
0.000395864 9.99606 0.0455123 
-0.0420117 0.0455123 9.99581 
9.99469 -0.00144583 -0.0448905 
-0.00144583 9.99512 0.0472145 
-0.0448905 0.0472145 9.99798 
9.99647 -0.00103912 -0.0407055 
-0.00103912 9.99446 0.0477629 
-0.0407055 0.0477629 9.99685 
9.99734 -0.000633667 -0.0420542 
-0.000633667 9.9977 0.0459029 
-0.0420542 0.0459029 9.99274 
9.90047 0.0316616 0.0234961 
0.0316616 9.91145 -0.0230148 
0.0234961 -0.0230148 9.95837 
9.90644 -0.0158466 0.0327444 
-0.0158466 9.93216 -0.0357744 
0.0327444 -0.0357744 9.93168 
9.91708 0.000558882 0.0278244 
0.000558882 9.91976 -0.0361635 
0.0278244 -0.0361635 9.93344 
9.91717 -0.00332637 0.0428178 
-0.00332637 9.90905 -0.0395057 
0.0428178 -0.0395057 9.94405 
10.105 -0.00277637 -0.000181922 
-0.00277637 10.0938 0.00207415 
-0.000181922 0.00207415 10.1064 
10.0881 -0.00314681 -0.00468408 
-0.00314681 10.0951 -0.00390671 
-0.00468408 -0.00390671 10.122 
10.1026 0.00492755 0.00212477 
0.00492755 10.0921 -8.5049e-06 
0.00212477 -8.5049e-06 10.1104 
10.1049 -0.00250156 0.00215084 
-0.00250156 10.096 0.00394093 
0.00215084 0.00394093 10.1043 
10.4928 0.0356858 -0.114632 
0.0356858 10.5741 0.061572 
-0.114632 0.061572 10.3408 
10.7356 0.109813 0.0207557 
0.109813 10.7944 0.110748 
0.0207557 0.110748 9.87766 
9.89748 0.0927783 0.10294 
0.0927783 9.8836 -0.142838 
0.10294 -0.142838 11.6266 
10.6372 0.194935 -0.775184 
0.194935 10.3798 0.101503 
-0.775184 0.101503 10.3907 
10.0225 -0.00778814 0.00460693 
-0.00778814 10.0367 -0.00483246 
0.00460693 -0.00483246 10.0179 
10.0208 0.0013123 -0.00276971 
0.0013123 10.0253 -0.00159306 
-0.00276971 -0.00159306 10.031 
10.0193 -0.00312598 0.00401871 
-0.00312598 10.021 0.00194985 
0.00401871 0.00194985 10.0369 
10.0336 -0.00482059 -0.0036707 
-0.00482059 10.0365 0.00875464 
-0.0036707 0.00875464 10.007 
9.9954 -0.00091467 0.0389199 
-0.00091467 9.99664 0.0695587 
0.0389199 0.0695587 9.99379 
9.9926 0.00126513 0.0360452 
0.00126513 9.9934 0.0707577 
0.0360452 0.0707577 9.99983 
9.99566 -0.00184487 0.0391589 
-0.00184487 9.99169 0.0691192 
0.0391589 0.0691192 9.99848 
9.99424 -0.00110888 0.0386861 
-0.00110888 9.99526 0.0707223 
0.0386861 0.0707223 9.99632 
9.99157 0.000629086 -0.0824233 
0.000629086 9.99225 0.00444562 
-0.0824233 0.00444562 10.0034 
9.99142 -0.000445765 -0.0819282 
-0.000445765 9.99947 0.00838807 
-0.0819282 0.00838807 9.99633 
10.001 0.000170034 -0.0835362 
0.000170034 9.99683 0.0116102 
-0.0835362 0.0116102 9.98941 
9.99757 -0.000542726 -0.0796571 
-0.000542726 9.99876 0.00649201 
-0.0796571 0.00649201 9.99088 
9.99595 0.000984791 -0.0505262 
0.000984791 9.996 0.0610395 
-0.0505262 0.0610395 9.99449 
9.99378 0.000355215 -0.0515091 
0.000355215 9.99473 0.0603761 
-0.0515091 0.0603761 9.99793 
9.99367 0.0012011 -0.0489177 
0.0012011 9.99376 0.0625465 
-0.0489177 0.0625465 9.99901 
9.99529 0.000872535 -0.0512305 
0.000872535 9.9939 0.0626509 
-0.0512305 0.0626509 9.99725 
9.98607 -0.000578275 -0.00140358 
-0.000578275 9.98807 0.000499507 
-0.00140358 0.000499507 9.98678 
9.98255 -0.000468939 -3.36295e-05 
-0.000468939 9.98861 -5.44053e-05 
-3.36295e-05 -5.44053e-05 9.98976 
9.98341 0.000890603 -0.00195445 
0.000890603 9.98838 0.00232965 
-0.00195445 0.00232965 9.98913 
9.98545 0.000820477 -0.00300335 
0.000820477 9.99082 0.00285624 
-0.00300335 0.00285624 9.98465 
9.99268 0.0012784 0.0528065 
0.0012784 9.99828 -0.0627351 
0.0528065 -0.0627351 9.99533 
9.99481 -0.000457976 0.050819 
-0.000457976 9.99568 -0.0630949 
0.050819 -0.0630949 9.9958 
9.99273 0.00288159 0.0542946 
0.00288159 9.99092 -0.0604802 
0.0542946 -0.0604802 10.0026 
9.99546 0.000388355 0.0519463 
0.000388355 9.99772 -0.0631346 
0.0519463 -0.0631346 9.99311 
9.99622 -0.00409243 0.0008101 
-0.00409243 10.0252 -0.000502262 
0.0008101 -0.000502262 10.0056 
9.99534 0.00937794 -0.00155383 
0.00937794 9.99829 -0.00334064 
-0.00155383 -0.00334064 10.0334 
10.0329 -0.00677531 0.000798167 
-0.00677531 10.0045 0.000781047 
0.000798167 0.000781047 9.9896 
10.0158 0.000107605 0.00717156 
0.000107605 10.0097 0.0182997 
0.00717156 0.0182997 10.0015 
9.93415 -0.00807427 0.0286645 
-0.00807427 9.8782 -0.0461378 
0.0286645 -0.0461378 9.90469 
9.89047 0.0297597 0.0470879 
0.0297597 9.89303 -0.015302 
0.0470879 -0.015302 9.93354 
9.89057 0.0306622 0.0324109 
0.0306622 9.90805 -0.0105548 
0.0324109 -0.0105548 9.91842 
9.9163 0.0383375 0.0470464 
0.0383375 9.87273 -0.0105888 
0.0470464 -0.0105888 9.92801 
10.0143 -0.0255725 0.0206223 
-0.0255725 10.084 -0.00711881 
0.0206223 -0.00711881 10.1081 
10.0483 0.0501111 -0.00622971 
0.0501111 10.0816 -0.0133504 
-0.00622971 -0.0133504 10.0766 
10.0575 0.00203531 0.00558564 
0.00203531 10.0843 -0.0019099 
0.00558564 -0.0019099 10.0647 
10.0447 0.0224004 -0.0359234 
0.0224004 10.074 -0.0183529 
-0.0359234 -0.0183529 10.0878 
10.3231 1.04979 -1.16561 
1.04979 12.3356 0.134953 
-1.16561 0.134953 11.0716 
7.55134 0.93522 -0.00875307 
0.93522 11.1034 0.402461 
-0.00875307 0.402461 15.0755 
5.38138 -0.0576079 -0.272916 
-0.0576079 11.4691 -0.866361 
-0.272916 -0.866361 16.8798 
10.2718 -0.165656 2.01602 
-0.165656 10.6265 -0.290016 
2.01602 -0.290016 12.8319 
9.94008 0.00218443 -0.0247823 
0.00218443 9.94112 0.0812213 
-0.0247823 0.0812213 9.94132 
9.93565 7.60722e-05 -0.0250565 
7.60722e-05 9.94421 0.0797389 
-0.0250565 0.0797389 9.94266 
9.94056 0.00323392 -0.0232342 
0.00323392 9.94371 0.0811268 
-0.0232342 0.0811268 9.93825 
9.9389 0.00287382 -0.0242529 
0.00287382 9.94411 0.0830866 
-0.0242529 0.0830866 9.93951 
9.9921 0.000342173 -0.0223556 
0.000342173 9.99334 0.0785713 
-0.0223556 0.0785713 10.0007 
9.99527 0.000507229 -0.0255854 
0.000507229 9.99767 0.0787631 
-0.0255854 0.0787631 9.99316 
9.99576 0.000760387 -0.0262528 
0.000760387 9.99113 0.0773957 
-0.0262528 0.0773957 9.9992 
9.99463 0.00189673 -0.0250345 
0.00189673 9.99679 0.078138 
-0.0250345 0.078138 9.99468 
9.89781 -0.00892348 -0.00500208 
-0.00892348 9.91752 0.00464277 
-0.00500208 0.00464277 9.91848 
9.90424 -0.0154477 -0.00764684 
-0.0154477 9.91934 0.00495738 
-0.00764684 0.00495738 9.91024 
9.92226 0.0267912 0.00350886 
0.0267912 9.96603 0.0256027 
0.00350886 0.0256027 9.84553 
9.87487 -0.00753217 0.0322859 
-0.00753217 9.88301 0.0153239 
0.0322859 0.0153239 9.97594 
9.99214 -0.0026975 0.0682513 
-0.0026975 9.9979 0.039911 
0.0682513 0.039911 10.0018 
10.0014 0.00148299 0.0717567 
0.00148299 9.99803 0.037236 
0.0717567 0.037236 9.99244 
9.99997 -0.00117735 0.0672935 
-0.00117735 9.99954 0.0363524 
0.0672935 0.0363524 9.99235 
9.99737 -0.00199963 0.0699604 
-0.00199963 9.99723 0.0363762 
0.0699604 0.0363762 9.99726 
9.99718 0.00381721 -0.00816432 
0.00381721 9.99775 -0.00212761 
-0.00816432 -0.00212761 10.0189 
10.0002 -0.00735994 -0.000218582 
-0.00735994 10.0164 -0.000395055 
-0.000218582 -0.000395055 9.99719 
10.0026 0.00806893 -0.00145512 
0.00806893 10.0167 -0.00468953 
-0.00145512 -0.00468953 9.99455 
10.0002 0.00206216 -0.00363535 
0.00206216 10.0151 0.00361504 
-0.00363535 0.00361504 9.99858 
9.99578 -0.00136815 0.0785739 
-0.00136815 9.99446 0.0240154 
0.0785739 0.0240154 9.99383 
9.9888 -0.000589558 0.0773739 
-0.000589558 9.99398 0.0266622 
0.0773739 0.0266622 10.0013 
9.99696 3.60227e-05 0.0794401 
3.60227e-05 9.99493 0.0239294 
0.0794401 0.0239294 9.99218 
9.9933 -0.000305171 0.0787228 
-0.000305171 9.99262 0.0218978 
0.0787228 0.0218978 9.99816 
9.90743 0.0243111 0.00033303 
0.0243111 10.0555 0.0113397 
0.00033303 0.0113397 10.0401 
10.0363 -0.00371692 -0.0196319 
-0.00371692 9.98995 -0.000420995 
-0.0196319 -0.000420995 9.97682 
10.0417 -0.0150459 0.0144582 
-0.0150459 9.98855 -0.0100913 
0.0144582 -0.0100913 9.97276 
10.0235 -0.0188558 -0.0296066 
-0.0188558 10.0161 -0.00207266 
-0.0296066 -0.00207266 9.96347 
9.99215 -0.0023467 -0.0704067 
-0.0023467 9.99881 -0.0405534 
-0.0704067 -0.0405534 9.99911 
9.99979 0.000546666 -0.072381 
0.000546666 9.99787 -0.0402879 
-0.072381 -0.0402879 9.99242 
9.9993 -0.00172563 -0.0707595 
-0.00172563 9.99719 -0.0393053 
-0.0707595 -0.0393053 9.99359 
9.99477 -0.00189018 -0.0724816 
-0.00189018 9.99499 -0.0366594 
-0.0724816 -0.0366594 10.0003 
9.97827 0.00503643 -0.0045911 
0.00503643 9.97202 -0.00688014 
-0.0045911 -0.00688014 9.97647 
9.98103 0.00447284 -0.00123804 
0.00447284 9.97681 -0.00206569 
-0.00123804 -0.00206569 9.96892 
9.97303 0.00208507 -0.000240227 
0.00208507 9.96695 -0.00101513 
-0.000240227 -0.00101513 9.98678 
9.97845 0.00507432 -0.000756634 
0.00507432 9.96836 -0.00797845 
-0.000756634 -0.00797845 9.97996 
9.99077 0.00135562 0.080641 
0.00135562 9.99958 0.00855417 
0.080641 0.00855417 9.99735 
9.99886 0.000874223 0.0771088 
0.000874223 9.9986 0.00665781 
0.0771088 0.00665781 9.99024 
9.98965 -0.00154914 0.0811179 
-0.00154914 9.99276 0.00504862 
0.0811179 0.00504862 10.0053 
10.0027 0.000705208 0.0832585 
0.000705208 9.99541 0.0109013 
0.0832585 0.0109013 9.98958 
9.99745 -0.00249627 -0.000368156 
-0.00249627 10.0021 -0.000730098 
-0.000368156 -0.000730098 9.98755 
9.97664 1.55208e-05 0.00406132 
1.55208e-05 9.97367 0.0108865 
0.00406132 0.0108865 10.0368 
10.0093 -0.00278015 0.00396778 
-0.00278015 9.99362 -0.0159785 
0.00396778 -0.0159785 9.98413 
9.99769 -0.0127918 -0.00425774 
-0.0127918 10.0076 0.00219562 
-0.00425774 0.00219562 9.98183 
9.98283 -0.0072598 0.00355194 
-0.0072598 9.99632 0.00133664 
0.00355194 0.00133664 9.9825 
9.98794 -0.00842762 0.00799837 
-0.00842762 9.97705 -0.00211763 
0.00799837 -0.00211763 9.99666 
9.97811 0.00143848 0.00164508 
0.00143848 9.99644 -0.000612539 
0.00164508 -0.000612539 9.9871 
9.97648 -0.0187693 0.00812179 
-0.0187693 10.0012 -0.00153239 
0.00812179 -0.00153239 9.98393 
9.91246 0.00814822 0.07853 
0.00814822 9.91557 -0.0284289 
0.07853 -0.0284289 9.92769 
9.92755 0.00168258 0.0773797 
0.00168258 9.90809 -0.0258949 
0.0773797 -0.0258949 9.92008 
9.9176 0.0105544 0.0762695 
0.0105544 9.92046 -0.023299 
0.0762695 -0.023299 9.91767 
9.92061 0.00252434 0.0753121 
0.00252434 9.91316 -0.0263683 
0.0753121 -0.0263683 9.92197 
9.92892 -0.00518612 0.0509336 
-0.00518612 9.92871 0.0532527 
0.0509336 0.0532527 9.94303 
9.93312 -0.00550821 0.0456963 
-0.00550821 9.93331 0.0508615 
0.0456963 0.0508615 9.93424 
9.93719 0.00883098 0.0485224 
0.00883098 9.93286 0.050553 
0.0485224 0.050553 9.93062 
9.92626 0.000579263 0.0494394 
0.000579263 9.93667 0.0508623 
0.0494394 0.0508623 9.93775 
9.90521 0.0352763 -0.0268609 
0.0352763 9.92817 0.0198049 
-0.0268609 0.0198049 9.97845 
9.95482 0.00476224 -0.00640763 
0.00476224 9.91627 0.00497988 
-0.00640763 0.00497988 9.94074 
9.93053 0.0258577 -0.00880783 
0.0258577 9.93401 0.00327373 
-0.00880783 0.00327373 9.94729 
9.91964 0.011834 -0.000651115 
0.011834 9.92429 -0.0072637 
-0.000651115 -0.0072637 9.9679 
9.99817 -0.00221823 -0.00613046 
-0.00221823 9.99712 0.0786084 
-0.00613046 0.0786084 9.99124 
9.99301 0.00142192 -0.00460932 
0.00142192 9.98902 0.0812013 
-0.00460932 0.0812013 10.0045 
9.99809 -0.00114237 -0.00827484 
-0.00114237 9.9924 0.0806726 
-0.00827484 0.0806726 9.99605 
9.99627 -0.000583937 -0.0105826 
-0.000583937 10.0005 0.0826671 
-0.0105826 0.0826671 9.98981 
10.0116 -0.00117313 -0.00173942 
-0.00117313 10.0068 -0.00298858 
-0.00173942 -0.00298858 10.0046 
10.0076 -0.00210934 -0.00313887 
-0.00210934 10.002 -0.00268321 
-0.00313887 -0.00268321 10.0135 
10.0118 0.000720065 -0.000551847 
0.000720065 10.0049 -0.000442578 
-0.000551847 -0.000442578 10.0063 
10.0111 -0.000524044 -0.000537208 
-0.000524044 10.005 -0.00122578 
-0.000537208 -0.00122578 10.0068 
9.9926 0.00119434 0.0723722 
0.00119434 9.99338 -0.0395617 
0.0723722 -0.0395617 9.99805 
9.9943 0.00193972 0.0718726 
0.00193972 9.99522 -0.0379048 
0.0718726 -0.0379048 9.99451 
9.99245 0.000423828 0.0738897 
0.000423828 9.9932 -0.0367193 
0.0738897 -0.0367193 9.9984 
9.99129 0.00054792 0.0750452 
0.00054792 9.99373 -0.0390746 
0.0750452 -0.0390746 9.99902 
9.93984 0.00560694 -0.0659813 
0.00560694 9.92689 0.0380425 
-0.0659813 0.0380425 9.92685 
9.92242 0.0132457 -0.0733475 
0.0132457 9.92791 0.0366904 
-0.0733475 0.0366904 9.94326 
9.9457 0.00561547 -0.0754042 
0.00561547 9.93277 0.0289136 
-0.0754042 0.0289136 9.91511 
9.93748 0.00752625 -0.0612894 
0.00752625 9.92994 0.0331049 
-0.0612894 0.0331049 9.92616 
9.91432 -0.00751789 0.161122 
-0.00751789 9.97108 0.0890576 
0.161122 0.0890576 10.5408 
10.1016 0.00809147 -0.0811881 
0.00809147 10.1331 0.013926 
-0.0811881 0.013926 10.1916 
10.4532 0.174799 -0.175664 
0.174799 10.313 0.0379557 
-0.175664 0.0379557 9.65995 
9.87598 -0.0552678 -0.212624 
-0.0552678 10.2064 -0.14667 
-0.212624 -0.14667 10.3439 
10.0114 0.00549146 -0.00568482 
0.00549146 9.99419 -0.00614009 
-0.00568482 -0.00614009 9.98747 
9.98748 -0.00756242 -0.00364215 
-0.00756242 9.98565 0.00575296 
-0.00364215 0.00575296 10.0199 
9.99583 5.21908e-05 0.00234432 
5.21908e-05 9.99739 -0.00448305 
0.00234432 -0.00448305 9.9998 
10.0045 0.00291696 0.00510263 
0.00291696 10.0018 -0.0017268 
0.00510263 -0.0017268 9.98672 
9.99612 0.000944104 0.0235847 
0.000944104 10.0006 0.0778885 
0.0235847 0.0778885 9.99107 
9.99665 -0.00146159 0.0267672 
-0.00146159 9.98871 0.0747038 
0.0267672 0.0747038 10.0025 
9.99817 -0.00128224 0.0231837 
-0.00128224 9.99835 0.0736717 
0.0231837 0.0736717 9.99132 
9.99603 -0.00225525 0.0221657 
-0.00225525 9.99436 0.0759435 
0.0221657 0.0759435 9.99744 
9.97915 0.00525231 -0.000114138 
0.00525231 9.97148 -0.00172722 
-0.000114138 -0.00172722 9.98065 
9.97292 -0.00356105 0.000160254 
-0.00356105 9.97534 -0.000172507 
0.000160254 -0.000172507 9.98302 
9.97484 -0.00256894 -0.00372932 
-0.00256894 9.97442 0.00101824 
-0.00372932 0.00101824 9.98202 
9.97596 -0.00232966 -0.0010031 
-0.00232966 9.97909 -2.0443e-05 
-0.0010031 -2.0443e-05 9.97622 
10.6439 0.0706596 0.011516 
0.0706596 10.2995 -0.0553723 
0.011516 -0.0553723 9.93332 
9.89974 -0.0349643 -0.242673 
-0.0349643 9.87996 0.00336935 
-0.242673 0.00336935 11.097 
10.6164 -0.0587521 -0.00482779 
-0.0587521 10.4171 0.111536 
-0.00482779 0.111536 9.8432 
10.2326 -0.0506215 0.401218 
-0.0506215 10.4731 0.00389361 
0.401218 0.00389361 10.171 
10.0211 -0.00485066 -0.00637633 
-0.00485066 10.0138 -0.00317385 
-0.00637633 -0.00317385 10.0077 
10.0133 0.000991312 0.0012643 
0.000991312 10.015 0.00240983 
0.0012643 0.00240983 10.0142 
10.0118 -0.0024509 -0.0020259 
-0.0024509 10.0087 -0.00349576 
-0.0020259 -0.00349576 10.0219 
10.0159 -0.00146571 0.00189507 
-0.00146571 10.017 0.000429345 
0.00189507 0.000429345 10.0096 
9.99695 -0.000213603 0.0112694 
-0.000213603 10.0001 -0.0856522 
0.0112694 -0.0856522 9.99016 
9.99819 -0.0010023 0.00891468 
-0.0010023 9.99262 -0.0840278 
0.00891468 -0.0840278 9.99636 
9.99272 0.000904997 0.00504239 
0.000904997 9.99046 -0.0845477 
0.00504239 -0.0845477 10.004 
9.99821 -0.00178309 0.00679043 
-0.00178309 9.99702 -0.0826774 
0.00679043 -0.0826774 9.99195 
9.87476 -0.0178777 -0.0816316 
-0.0178777 9.88898 -0.0268887 
-0.0816316 -0.0268887 9.89014 
9.88874 -0.011405 -0.0781038 
-0.011405 9.87824 -0.0273312 
-0.0781038 -0.0273312 9.88691 
9.87945 -0.0219042 -0.0749451 
-0.0219042 9.88237 -0.0276001 
-0.0749451 -0.0276001 9.89206 
9.89017 -0.0197918 -0.0812056 
-0.0197918 9.87553 -0.0331769 
-0.0812056 -0.0331769 9.88818 
10.0003 -0.00300041 -0.061908 
-0.00300041 9.9988 0.0508181 
-0.061908 0.0508181 9.98968 
9.99959 0.00103702 -0.0572892 
0.00103702 9.9996 0.0471172 
-0.0572892 0.0471172 9.98958 
9.99566 0.00385939 -0.0614253 
0.00385939 9.9939 0.0472041 
-0.0614253 0.0472041 9.99921 
9.99252 0.00344371 -0.0580081 
0.00344371 9.99647 0.0513955 
-0.0580081 0.0513955 9.99978 
9.96327 -0.00750784 -0.000320312 
-0.00750784 10.0119 -0.00264709 
-0.000320312 -0.00264709 10.0087 
10.0031 0.00242567 0.000619134 
0.00242567 9.98566 -0.00523539 
0.000619134 -0.00523539 9.99514 
10.0254 -0.0157959 0.00646798 
-0.0157959 9.97783 -0.00554 
0.00646798 -0.00554 9.9807 
10.0007 -0.000620041 -0.00314538 
-0.000620041 9.98705 -0.00103094 
-0.00314538 -0.00103094 9.99616 
9.96146 0.0107062 -0.00565512 
0.0107062 9.96106 -0.00184849 
-0.00565512 -0.00184849 9.96823 
9.96344 0.0088249 -0.0123254 
0.0088249 9.96945 -0.00133657 
-0.0123254 -0.00133657 9.95787 
9.96945 0.0114883 -0.00332572 
0.0114883 9.96643 -0.000444446 
-0.00332572 -0.000444446 9.95488 
9.96052 0.0257357 -0.0160148 
0.0257357 9.96582 0.00113261 
-0.0160148 0.00113261 9.96442 
9.99378 -0.00194754 -0.0394347 
-0.00194754 9.99768 -0.0718099 
-0.0394347 -0.0718099 9.99597 
9.99589 -0.000666785 -0.0384368 
-0.000666785 9.99757 -0.0721311 
-0.0384368 -0.0721311 9.99397 
9.99353 -0.00166787 -0.040805 
-0.00166787 9.99207 -0.0703306 
-0.040805 -0.0703306 10.0018 
9.99456 -0.000482051 -0.0376475 
-0.000482051 9.99595 -0.0718858 
-0.0376475 -0.0718858 9.9969 
10.0009 0.000201841 -0.0848219 
0.000201841 9.99499 -0.00980693 
-0.0848219 -0.00980693 9.99016 
9.99816 8.75618e-05 -0.0803456 
8.75618e-05 9.9973 -0.00721242 
-0.0803456 -0.00721242 9.99054 
9.98978 0.00188359 -0.0824038 
0.00188359 9.99834 -0.00931073 
-0.0824038 -0.00931073 9.99788 
9.99065 -0.00114633 -0.0828927 
-0.00114633 9.99197 -0.00508016 
-0.0828927 -0.00508016 10.0034 
9.99406 0.00335742 0.0626126 
0.00335742 9.99326 -0.0486449 
0.0626126 -0.0486449 10.0021 
9.99788 0.000952211 0.0591424 
0.000952211 9.9992 -0.0504536 
0.0591424 -0.0504536 9.9923 
9.99653 0.00113521 0.0595861 
0.00113521 9.99756 -0.0519978 
0.0595861 -0.0519978 9.99529 
9.99918 -0.00108016 0.0600837 
-0.00108016 9.99813 -0.0539582 
0.0600837 -0.0539582 9.99208 
9.99677 -0.0029324 0.0513869 
-0.0029324 9.993 0.0579273 
0.0513869 0.0579273 9.99967 
9.99449 -0.00324362 0.0471268 
-0.00324362 9.99581 0.0614012 
0.0471268 0.0614012 9.99914 
9.99931 -0.0010247 0.047831 
-0.0010247 9.99957 0.0579287 
0.047831 0.0579287 9.99056 
9.99902 0.00218963 0.0503038 
0.00218963 9.99996 0.0617116 
0.0503038 0.0617116 9.99047 
10.0058 0.00886288 0.0034169 
0.00886288 9.99089 0.00184425 
0.0034169 0.00184425 9.98258 
9.98857 0.000886518 -0.000506067 
0.000886518 9.98511 -0.00274606 
-0.000506067 -0.00274606 10.0056 
9.98007 0.00528359 -0.000332209 
0.00528359 10.0073 -0.00162305 
-0.000332209 -0.00162305 9.99192 
10.0056 0.000355672 -0.0023037 
0.000355672 9.99467 0.0126526 
-0.0023037 0.0126526 9.97906 
9.9917 -0.00083828 0.00120473 
-0.00083828 9.97619 0.00395031 
0.00120473 0.00395031 9.98557 
9.97985 -0.00469912 -0.00480282 
-0.00469912 9.97776 0.00431756 
-0.00480282 0.00431756 9.99584 
9.98406 0.00146045 0.00225666 
0.00146045 9.98496 -0.00187948 
0.00225666 -0.00187948 9.98443 
9.98869 0.000519236 0.00632106 
0.000519236 9.98766 -0.00157679 
0.00632106 -0.00157679 9.9771 
9.98927 0.00148579 -0.0760353 
0.00148579 9.9957 0.0275185 
-0.0760353 0.0275185 10.0023 
9.99936 -8.33198e-05 -0.0787718 
-8.33198e-05 9.99606 0.0238215 
-0.0787718 0.0238215 9.99187 
9.99515 0.00168558 -0.0772479 
0.00168558 9.99542 0.0229462 
-0.0772479 0.0229462 9.99673 
9.99779 0.00181518 -0.0760814 
0.00181518 9.99693 0.0243176 
-0.0760814 0.0243176 9.99258 
9.98232 -0.00388926 0.00400966 
-0.00388926 9.99432 -0.00277573 
0.00400966 -0.00277573 10.0236 
9.99846 0.00340594 -0.00526901 
0.00340594 10.0018 0.00288518 
-0.00526901 0.00288518 10 
10.0128 0.00949427 0.00531873 
0.00949427 10.009 0.0127041 
0.00531873 0.0127041 9.9785 
9.99433 0.00811044 -0.0139544 
0.00811044 10.0139 0.00281306 
-0.0139544 0.00281306 9.99206 
9.96964 0.00705107 0.010138 
0.00705107 9.98002 0.00213722 
0.010138 0.00213722 9.98532 
9.97602 0.00271315 -0.0103247 
0.00271315 9.98769 -0.00183475 
-0.0103247 -0.00183475 9.97127 
9.99883 -0.0019131 0.0131847 
-0.0019131 9.97088 -0.0137557 
0.0131847 -0.0137557 9.96527 
9.99251 -0.0047943 0.00876791 
-0.0047943 9.96527 -0.0170114 
0.00876791 -0.0170114 9.97721 
9.99791 0.00204168 -0.0392452 
0.00204168 9.99304 0.0676083 
-0.0392452 0.0676083 9.99999 
9.99848 -0.00115982 -0.0378069 
-0.00115982 10.0006 0.0704451 
-0.0378069 0.0704451 9.99185 
9.99942 0.00110016 -0.0362568 
0.00110016 9.99936 0.0675099 
-0.0362568 0.0675099 9.99216 
9.99631 0.00275758 -0.0349535 
0.00275758 9.99581 0.0698551 
-0.0349535 0.0698551 9.99882 
9.9805 0.00732371 -0.000842615 
0.00732371 9.98195 0.0115321 
-0.000842615 0.0115321 10.0627 
10.0429 0.00796817 0.0213176 
0.00796817 9.98979 0.000718324 
0.0213176 0.000718324 9.99242 
10.0241 0.00918891 0.00979527 
0.00918891 10.0047 0.00640768 
0.00979527 0.00640768 9.99623 
10.0248 0.00230241 -0.0122199 
0.00230241 10.0189 -0.0153318 
-0.0122199 -0.0153318 9.98145 
9.98986 -0.000335417 -0.00179324 
-0.000335417 9.98482 -0.00212429 
-0.00179324 -0.00212429 9.98561 
9.98898 0.00164446 -0.000976617 
0.00164446 9.98113 -0.00133255 
-0.000976617 -0.00133255 9.99018 
9.99133 -0.00185259 -0.00230055 
-0.00185259 9.98386 -0.00496 
-0.00230055 -0.00496 9.98511 
9.99139 -0.000663419 -0.00366665 
-0.000663419 9.98647 -0.00075737 
-0.00366665 -0.00075737 9.98243 
9.99868 -0.000198747 0.00308577 
-0.000198747 9.98482 -0.000587802 
0.00308577 -0.000587802 9.98087 
9.97198 -0.00603076 -0.00109501 
-0.00603076 10.0042 0.00278039 
-0.00109501 0.00278039 9.98817 
9.98124 0.00322641 -0.00234328 
0.00322641 9.97916 0.00668356 
-0.00234328 0.00668356 10.004 
9.99319 0.0033779 -0.000635749 
0.0033779 9.98796 -0.00417687 
-0.000635749 -0.00417687 9.98322 
9.99979 0.000684978 0.0841643 
0.000684978 9.99733 -0.0117074 
0.0841643 -0.0117074 9.99071 
9.991 0.00093527 0.0831215 
0.00093527 9.9925 -0.00498093 
0.0831215 -0.00498093 10.0043 
9.99299 -0.00094474 0.0825932 
-0.00094474 9.99917 -0.00868135 
0.0825932 -0.00868135 9.99567 
9.99726 -0.00057661 0.0817148 
-0.00057661 9.99804 -0.0077138 
0.0817148 -0.0077138 9.99252 
10.0116 -0.00379389 -0.014209 
-0.00379389 10.0165 0.0158691 
-0.014209 0.0158691 9.96691 
10.0174 -0.0197988 0.0125936 
-0.0197988 9.99541 -0.016378 
0.0125936 -0.016378 9.98224 
9.98173 -0.00189877 0.00140564 
-0.00189877 9.96447 -0.0194475 
0.00140564 -0.0194475 10.0489 
10.0107 -0.00413803 0.0126959 
-0.00413803 10.0083 0.00184935 
0.0126959 0.00184935 9.976 
9.99791 -0.00112505 0.0396925 
-0.00112505 10.0005 -0.0740662 
0.0396925 -0.0740662 9.9902 
9.99759 0.00224426 0.0415937 
0.00224426 9.99179 -0.0706386 
0.0415937 -0.0706386 9.99925 
9.99519 0.00324257 0.0363853 
0.00324257 9.99442 -0.0734043 
0.0363853 -0.0734043 9.99902 
9.99909 0.00129337 0.0384518 
0.00129337 9.99875 -0.0706964 
0.0384518 -0.0706964 9.9908 
10.6008 1.1212 0.316832 
1.1212 9.5606 -0.351691 
0.316832 -0.351691 11.9146 
10.622 -0.469064 0.137468 
-0.469064 9.56404 0.14866 
0.137468 0.14866 11.89 
10.4206 0.511366 0.181413 
0.511366 11.2712 -0.118946 
0.181413 -0.118946 10.3843 
10.6157 0.592926 -0.281943 
0.592926 10.4626 -0.419653 
-0.281943 -0.419653 10.9978 
9.98654 0.00183088 -0.00398414 
0.00183088 9.99485 -0.00389112 
-0.00398414 -0.00389112 9.98688 
9.98683 -0.00207723 0.000509412 
-0.00207723 9.99741 0.000358722 
0.000509412 0.000358722 9.98402 
9.98453 0.00308679 0.00657142 
0.00308679 9.97829 0.00156966 
0.00657142 0.00156966 10.0054 
9.97178 0.0279199 0.00834926 
0.0279199 10.011 0.0033765 
0.00834926 0.0033765 9.98545 
9.99977 0.00195578 0.0772557 
0.00195578 9.99781 -0.0247112 
0.0772557 -0.0247112 9.99215 
9.99636 0.00113588 0.0789541 
0.00113588 9.99605 -0.0230132 
0.0789541 -0.0230132 9.99733 
10.0007 -0.000600892 0.0807259 
-0.000600892 9.99695 -0.0237048 
0.0807259 -0.0237048 9.99212 
9.98947 0.000645267 0.0775877 
0.000645267 9.99656 -0.028172 
0.0775877 -0.028172 10.0037 
9.99075 0.00107726 -0.000272383 
0.00107726 10.0009 -3.70587e-05 
-0.000272383 -3.70587e-05 10.0061 
9.99773 -0.00515695 -0.00245572 
-0.00515695 10.0008 -0.00310726 
-0.00245572 -0.00310726 9.99923 
10.0005 -0.00365834 -0.00323964 
-0.00365834 10.0004 -0.000914998 
-0.00323964 -0.000914998 9.99688 
10.0061 0.000240873 0.00239921 
0.000240873 9.99843 -0.00213967 
0.00239921 -0.00213967 9.9933 
9.975 0.00152019 -0.00120838 
0.00152019 9.97898 0.00095644 
-0.00120838 0.00095644 9.98067 
9.97752 -0.00294247 -0.00134005 
-0.00294247 9.98359 0.00119226 
-0.00134005 0.00119226 9.97354 
9.97248 -0.00221087 -0.00466987 
-0.00221087 9.98065 0.000773235 
-0.00466987 0.000773235 9.98152 
9.97421 -0.00248423 -0.00352 
-0.00248423 9.98222 0.00331094 
-0.00352 0.00331094 9.97821 
9.99841 -0.00131035 -0.0608328 
-0.00131035 9.99509 -0.0518081 
-0.0608328 -0.0518081 9.99365 
9.99176 -0.00278274 -0.0591287 
-0.00278274 9.99471 -0.0534629 
-0.0591287 -0.0534629 10.0007 
9.99807 0.000350888 -0.0622853 
0.000350888 9.99717 -0.0515354 
-0.0622853 -0.0515354 9.99191 
9.99524 -0.00149054 -0.0621907 
-0.00149054 9.9942 -0.0495861 
-0.0621907 -0.0495861 9.99772 
9.9711 0.000107334 0.00886959 
0.000107334 9.97382 0.000655915 
0.00886959 0.000655915 9.96369 
9.9661 0.0008241 -0.000960609 
0.0008241 9.97717 -6.68776e-05 
-0.000960609 -6.68776e-05 9.96533 
9.97021 -0.0013233 -0.000664867 
-0.0013233 9.96533 0.000173411 
-0.000664867 0.000173411 9.97307 
9.97229 0.010765 -0.0044343 
0.010765 9.97172 -0.0039453 
-0.0044343 -0.0039453 9.96459 
9.92984 -0.00412033 -0.020859 
-0.00412033 9.95643 -0.0425633 
-0.020859 -0.0425633 9.96362 
9.92546 -0.0163874 -0.0233053 
-0.0163874 9.96904 0.00809678 
-0.0233053 0.00809678 9.95539 
9.95506 -0.00874725 0.00439385 
-0.00874725 9.9485 0.0193904 
0.00439385 0.0193904 9.94632 
9.98083 -0.0226543 0.0126475 
-0.0226543 9.91352 0.00641436 
0.0126475 0.00641436 9.95554 
9.99665 -0.000289114 -0.0109822 
-0.000289114 9.99933 -0.0857109 
-0.0109822 -0.0857109 9.99053 
9.99743 0.00110949 -0.0089185 
0.00110949 9.99239 -0.0840858 
-0.0089185 -0.0840858 9.9967 
9.99705 0.00206914 -0.00677901 
0.00206914 9.9965 -0.0834267 
-0.00677901 -0.0834267 9.99297 
9.99211 -0.00113144 -0.00522977 
-0.00113144 9.99049 -0.0845689 
-0.00522977 -0.0845689 10.0039 
9.97004 -0.00488483 -0.00556766 
-0.00488483 9.97502 -0.000927912 
-0.00556766 -0.000927912 10.0063 
9.98698 0.00391746 -0.00369165 
0.00391746 9.99497 -5.37858e-05 
-0.00369165 -5.37858e-05 9.96937 
9.98685 0.000170393 0.00234979 
0.000170393 9.98481 -0.000968401 
0.00234979 -0.000968401 9.97966 
9.98685 -0.0116953 -0.000773728 
-0.0116953 9.97815 -0.00118176 
-0.000773728 -0.00118176 9.98632 
9.97284 -0.000932331 -0.0108563 
-0.000932331 10.0002 0.000559592 
-0.0108563 0.000559592 10.0025 
9.9887 -0.000660686 0.00280253 
-0.000660686 9.99623 -0.0169475 
0.00280253 -0.0169475 9.99053 
9.99407 0.00497804 -0.0051691 
0.00497804 9.98859 0.00660022 
-0.0051691 0.00660022 9.99281 
9.9895 0.00283207 0.00198006 
0.00283207 9.98582 0.0110124 
0.00198006 0.0110124 10.0001 
10.0045 0.00471002 0.00171771 
0.00471002 9.99847 -0.0124014 
0.00171771 -0.0124014 9.98971 
9.99762 0.00133536 -0.000318383 
0.00133536 9.99725 -0.00329927 
-0.000318383 -0.00329927 9.99783 
9.99514 0.00140666 0.000293954 
0.00140666 9.98986 0.0011956 
0.000293954 0.0011956 10.0077 
10.0027 0.00243131 -0.00312652 
0.00243131 9.99879 -0.00137376 
-0.00312652 -0.00137376 9.99125 
10.0085 0.00724625 -6.27734e-05 
0.00724625 10.013 0.00407954 
-6.27734e-05 0.00407954 10.0002 
10.0056 0.0026922 0.00370867 
0.0026922 10.0041 -0.00187342 
0.00370867 -0.00187342 10.0121 
10.0012 -0.00537561 -0.00448546 
-0.00537561 10.0028 0.00279151 
-0.00448546 0.00279151 10.0178 
10.0127 0.00336893 -0.0035873 
0.00336893 10.0134 -0.00547164 
-0.0035873 -0.00547164 9.99561 
9.97544 0.00461921 0.00503454 
0.00461921 9.99152 -0.000702019 
0.00503454 -0.000702019 10.0074 
9.99698 0.00140979 -5.16248e-05 
0.00140979 9.98687 -3.90264e-05 
-5.16248e-05 -3.90264e-05 9.99047 
9.99319 -0.00377807 -0.00106802 
-0.00377807 9.99753 0.00339205 
-0.00106802 0.00339205 9.9836 
9.99155 -0.00356624 -0.0104847 
-0.00356624 10.0001 -0.00313662 
-0.0104847 -0.00313662 9.98263 
9.9979 0.000653585 0.00719592 
0.000653585 9.99724 0.0818797 
0.00719592 0.0818797 9.99299 
9.9974 -0.000420683 0.0106022 
-0.000420683 9.99935 0.0838369 
0.0106022 0.0838369 9.99137 
9.99811 0.00111167 0.00889435 
0.00111167 9.99342 0.082347 
0.00889435 0.082347 9.9966 
9.99295 -0.000132328 0.00479055 
-0.000132328 9.99249 0.0828592 
0.00479055 0.0828592 10.0027 
9.89947 -0.000188467 -0.00541748 
-0.000188467 9.92134 0.0077929 
-0.00541748 0.0077929 9.91454 
9.88957 -0.00399206 0.00069173 
-0.00399206 9.91593 -0.000880452 
0.00069173 -0.000880452 9.92985 
9.93009 -0.00309015 0.000341714 
-0.00309015 9.91517 -0.0093809 
0.000341714 -0.0093809 9.89008 
9.89537 0.0126156 0.00814997 
0.0126156 9.91129 0.00316913 
0.00814997 0.00316913 9.9287 
9.98128 -0.00142725 0.00310097 
-0.00142725 9.99526 -0.00363652 
0.00310097 -0.00363652 9.99066 
9.98981 0.0048826 0.000537746 
0.0048826 10.0019 -0.00131795 
0.000537746 -0.00131795 9.97544 
9.99852 -0.00895811 0.000516276 
-0.00895811 9.98094 4.52553e-05 
0.000516276 4.52553e-05 9.98773 
9.9851 0.00234681 0.0083422 
0.00234681 9.99641 -0.00833724 
0.0083422 -0.00833724 9.98568 
9.99611 0.00415627 -0.00349568 
0.00415627 9.97999 0.00993422 
-0.00349568 0.00993422 9.96703 
9.99062 -0.0107364 -0.00099472 
-0.0107364 9.97096 0.00320257 
-0.00099472 0.00320257 9.98155 
9.97902 -0.00994022 -0.00475595 
-0.00994022 9.97523 -0.00112667 
-0.00475595 -0.00112667 9.98889 
10.0002 -0.0315361 -0.00533776 
-0.0315361 9.95985 0.0122606 
-0.00533776 0.0122606 9.98307 
9.91365 0.0054273 0.0635216 
0.0054273 9.92267 0.0407492 
0.0635216 0.0407492 9.9415 
9.93116 -0.00478129 0.0538752 
-0.00478129 9.91354 0.0524755 
0.0538752 0.0524755 9.93313 
9.92239 -0.0113331 0.0634175 
-0.0113331 9.91703 0.0343227 
0.0634175 0.0343227 9.93841 
9.91972 0.00242771 0.0660318 
0.00242771 9.93029 0.0369668 
0.0660318 0.0369668 9.92781 
9.92132 0.00191706 0.0595997 
0.00191706 9.90964 0.0327173 
0.0595997 0.0327173 9.94695 
9.91865 -0.0124758 0.0675675 
-0.0124758 9.92331 0.0349598 
0.0675675 0.0349598 9.93594 
9.94188 -0.00101601 0.0550551 
-0.00101601 9.90591 0.0476511 
0.0550551 0.0476511 9.93011 
9.9299 -0.00378211 0.063198 
-0.00378211 9.90978 0.0368992 
0.063198 0.0368992 9.93823 
9.82633 -0.0550514 -0.0120505 
-0.0550514 9.94698 -0.0405864 
-0.0120505 -0.0405864 10.2556 
9.88921 -0.0327685 0.0353665 
-0.0327685 9.91636 -0.0138314 
0.0353665 -0.0138314 10.2234 
9.96238 -0.0279464 -0.0241662 
-0.0279464 9.90204 -0.100309 
-0.0241662 -0.100309 10.1645 
9.9218 -0.0724433 0.0443283 
-0.0724433 9.89451 0.0103337 
0.0443283 0.0103337 10.2126 
9.90087 -0.0494755 -0.0158104 
-0.0494755 9.98407 -0.0099271 
-0.0158104 -0.0099271 10.2551 
10.0074 -0.0505714 -0.00819812 
-0.0505714 9.94014 -0.00807466 
-0.00819812 -0.00807466 10.1925 
9.92569 -0.0129436 0.0126053 
-0.0129436 9.9722 -0.0139425 
0.0126053 -0.0139425 10.2422 
9.93819 0.0211501 0.00421267 
0.0211501 9.97675 -0.0012201 
0.00421267 -0.0012201 10.2251 
9.9287 -0.0210855 -0.0828532 
-0.0210855 9.92542 -0.0253636 
-0.0828532 -0.0253636 9.89178 
9.92087 -0.00963938 -0.0888784 
-0.00963938 9.92398 -0.015392 
-0.0888784 -0.015392 9.90106 
9.88101 -0.0274634 -0.101183 
-0.0274634 9.95847 0.00312455 
-0.101183 0.00312455 9.90643 
9.88868 0.0151554 -0.0846945 
0.0151554 9.91895 -0.0140198 
-0.0846945 -0.0140198 9.93828 
9.90267 -0.0300617 -0.103717 
-0.0300617 9.9041 -0.0366411 
-0.103717 -0.0366411 9.90239 
9.86677 0.00148633 -0.0674643 
0.00148633 9.92098 -0.00237712 
-0.0674643 -0.00237712 9.92141 
9.91708 -0.0217935 -0.110009 
-0.0217935 9.9099 -0.0195529 
-0.110009 -0.0195529 9.88217 
9.84479 -0.00310082 -0.135561 
-0.00310082 9.96443 -0.00729807 
-0.135561 -0.00729807 9.89994 
9.92878 -0.00345223 -0.0506707 
-0.00345223 9.93268 -0.0448146 
-0.0506707 -0.0448146 9.93264 
9.9132 -0.00252188 -0.0219599 
-0.00252188 9.92146 -0.0657955 
-0.0219599 -0.0657955 9.95944 
9.92705 0.00334436 -0.0478833 
0.00334436 9.93283 -0.0400595 
-0.0478833 -0.0400595 9.93422 
9.90402 0.0203774 -0.0773152 
0.0203774 9.94931 -0.0341728 
-0.0773152 -0.0341728 9.94078 
9.93154 0.00457497 -0.0415584 
0.00457497 9.93144 -0.0541468 
-0.0415584 -0.0541468 9.95201 
9.9303 0.00215608 -0.0368666 
0.00215608 9.93896 -0.0511193 
-0.0368666 -0.0511193 9.94573 
9.92791 0.00302524 -0.0376082 
0.00302524 9.93784 -0.0514426 
-0.0376082 -0.0514426 9.94924 
9.93281 0.00807054 -0.0310331 
0.00807054 9.93954 -0.0483151 
-0.0310331 -0.0483151 9.94263 
9.97832 -0.00178053 -0.0493334 
-0.00178053 9.98276 -0.0152348 
-0.0493334 -0.0152348 9.97837 
9.98741 0.00209372 -0.0456604 
0.00209372 9.97992 -0.0164102 
-0.0456604 -0.0164102 9.97213 
9.97843 0.000799 -0.0495868 
0.000799 9.9802 -0.0153566 
-0.0495868 -0.0153566 9.98083 
9.98362 0.00496795 -0.0547638 
0.00496795 9.9661 -0.0206977 
-0.0547638 -0.0206977 9.98974 
9.97704 0.00529077 -0.0448937 
0.00529077 9.97246 -0.0202178 
-0.0448937 -0.0202178 9.95914 
9.97149 0.00119814 -0.0478707 
0.00119814 9.97476 -0.0197016 
-0.0478707 -0.0197016 9.96238 
9.96868 0.000839667 -0.0509397 
0.000839667 9.96502 -0.00834459 
-0.0509397 -0.00834459 9.97494 
9.98948 -0.000366917 -0.0512258 
-0.000366917 9.98361 -0.00839386 
-0.0512258 -0.00839386 9.93555 
10.4286 -0.0548746 -0.132852 
-0.0548746 10.3246 -0.211709 
-0.132852 -0.211709 10.7244 
10.399 -0.00874865 -0.311969 
-0.00874865 10.2575 -0.0239905 
-0.311969 -0.0239905 10.8211 
10.427 -0.146668 -0.0401665 
-0.146668 10.1904 -0.182858 
-0.0401665 -0.182858 10.8601 
10.7667 -0.102146 -0.20648 
-0.102146 10.8914 0.217997 
-0.20648 0.217997 9.81957 
10.249 0.356406 -0.184256 
0.356406 10.3018 0.0538032 
-0.184256 0.0538032 10.3299 
10.4731 -0.0866689 0.316334 
-0.0866689 9.99986 -0.0402874 
0.316334 -0.0402874 10.4078 
9.98089 -0.739616 -0.16835 
-0.739616 10.0211 -0.182245 
-0.16835 -0.182245 10.8787 
10.2985 -0.11561 0.170378 
-0.11561 10.1994 0.00771237 
0.170378 0.00771237 10.3828 
9.95706 0.00618366 -0.0655257 
0.00618366 9.9497 0.0262835 
-0.0655257 0.0262835 9.93668 
9.9756 0.0102674 -0.0904701 
0.0102674 9.94932 0.00206094 
-0.0904701 0.00206094 9.91851 
9.91113 -0.00997296 -0.0784567 
-0.00997296 9.95075 -0.000909418 
-0.0784567 -0.000909418 9.98156 
9.94861 0.00196232 -0.0807749 
0.00196232 9.9496 0.00640968 
-0.0807749 0.00640968 9.94523 
9.94314 0.00872773 -0.0665102 
0.00872773 9.95088 0.0140581 
-0.0665102 0.0140581 9.93591 
9.92749 -0.00699513 -0.0844856 
-0.00699513 9.92485 0.0118858 
-0.0844856 0.0118858 9.97759 
9.96316 -0.00079521 -0.0863512 
-0.00079521 9.96694 -0.00148828 
-0.0863512 -0.00148828 9.89983 
9.94314 0.00538906 -0.0696416 
0.00538906 9.94706 0.00713722 
-0.0696416 0.00713722 9.93973 
9.94194 0.00099061 0.051043 
0.00099061 9.93865 -0.0512188 
0.051043 -0.0512188 9.94989 
9.93739 0.00191329 0.0480765 
0.00191329 9.94143 -0.0521937 
0.0480765 -0.0521937 9.95165 
9.93644 -0.00295319 0.04839 
-0.00295319 9.94755 -0.0439916 
0.04839 -0.0439916 9.94649 
9.94308 0.00021962 0.047641 
0.00021962 9.93586 -0.0481921 
0.047641 -0.0481921 9.95154 
9.94905 -0.00309852 0.0479851 
-0.00309852 9.95376 -0.0517043 
0.0479851 -0.0517043 9.95648 
9.95105 0.00389485 0.0506463 
0.00389485 9.95853 -0.0587501 
0.0506463 -0.0587501 9.94971 
9.95294 -0.00353275 0.0526554 
-0.00353275 9.95094 -0.0506841 
0.0526554 -0.0506841 9.95541 
9.94021 0.00711225 0.0503047 
0.00711225 9.95033 -0.05806 
0.0503047 -0.05806 9.96874 
9.9754 0.00160676 -0.0328296 
0.00160676 9.9754 -0.00641728 
-0.0328296 -0.00641728 9.95893 
9.97253 0.00671584 -0.044686 
0.00671584 9.96843 -0.00345654 
-0.044686 -0.00345654 9.96876 
9.97702 0.00120455 -0.0337291 
0.00120455 9.97284 -0.00414353 
-0.0337291 -0.00414353 9.95986 
9.98544 -0.00659766 -0.0437657 
-0.00659766 9.98146 -0.0045442 
-0.0437657 -0.0045442 9.94282 
9.98512 0.000916291 -0.0372273 
0.000916291 9.9851 -0.00329012 
-0.0372273 -0.00329012 9.97508 
9.98173 0.00146525 -0.0390568 
0.00146525 9.98409 -0.00915747 
-0.0390568 -0.00915747 9.97949 
9.98635 0.00249553 -0.0391708 
0.00249553 9.97921 -0.0048525 
-0.0391708 -0.0048525 9.97974 
9.96848 0.00267506 -0.0379476 
0.00267506 9.98824 -0.0120892 
-0.0379476 -0.0120892 9.98857 
9.99423 0.00030699 0.0363869 
0.00030699 9.99426 -0.0125073 
0.0363869 -0.0125073 9.98698 
9.9906 0.00346655 0.0375015 
0.00346655 9.99353 -0.00984348 
0.0375015 -0.00984348 9.99134 
9.98936 -0.000284421 0.035107 
-0.000284421 9.99604 -0.00831974 
0.035107 -0.00831974 9.99008 
9.9821 -0.00138561 0.0302886 
-0.00138561 9.98343 -0.0140436 
0.0302886 -0.0140436 10.0099 
9.98971 -0.0029175 0.0319006 
-0.0029175 9.98251 -0.0119505 
0.0319006 -0.0119505 9.9792 
9.98172 0.000963892 0.0379991 
0.000963892 9.98138 -0.00748423 
0.0379991 -0.00748423 9.98832 
9.98485 -0.00524666 0.033627 
-0.00524666 9.98195 -0.006446 
0.033627 -0.006446 9.98461 
9.98568 0.00453249 0.0338211 
0.00453249 9.99392 -0.0106421 
0.0338211 -0.0106421 9.97182 
9.96578 0.00870764 0.0330044 
0.00870764 9.94279 0.0459357 
0.0330044 0.0459357 9.93536 
9.94701 0.00821507 0.0368575 
0.00821507 9.95358 0.0394455 
0.0368575 0.0394455 9.94334 
9.95544 0.00684379 0.0426967 
0.00684379 9.9532 0.0395355 
0.0426967 0.0395355 9.93529 
9.94215 0.0116398 0.0349374 
0.0116398 9.94303 0.0217447 
0.0349374 0.0217447 9.95874 
9.95434 0.00615181 0.0316553 
0.00615181 9.93791 0.0264566 
0.0316553 0.0264566 9.91954 
9.9595 0.00556035 0.0392665 
0.00556035 9.93614 0.0284653 
0.0392665 0.0284653 9.91615 
9.93252 -0.00303971 0.0296086 
-0.00303971 9.94965 0.0205044 
0.0296086 0.0205044 9.92962 
9.954 0.00292187 0.0178758 
0.00292187 9.95959 0.037267 
0.0178758 0.037267 9.89821 
10.216 0.396425 -0.374844 
0.396425 10.6324 -0.312165 
-0.374844 -0.312165 10.6696 
10.0664 -0.361519 0.229564 
-0.361519 10.4719 0.39492 
0.229564 0.39492 10.9798 
10.1498 -0.303357 -0.261041 
-0.303357 10.3154 -0.0151983 
-0.261041 -0.0151983 11.0528 
9.99355 0.202495 0.0789006 
0.202495 10.2101 0.14142 
0.0789006 0.14142 11.3144 
9.74553 0.0165566 -0.075604 
0.0165566 10.0999 -0.0670918 
-0.075604 -0.0670918 10.3777 
9.64909 -0.0163696 -0.122795 
-0.0163696 9.99575 -0.0553786 
-0.122795 -0.0553786 10.5783 
9.72335 -0.0867461 0.110192 
-0.0867461 10.0588 0.0178949 
0.110192 0.0178949 10.441 
10.0231 0.00199715 -0.251669 
0.00199715 10.3154 -0.0188827 
-0.251669 -0.0188827 9.8846 
9.93956 -0.00162276 -0.0911259 
-0.00162276 9.95135 -0.0221274 
-0.0911259 -0.0221274 9.95812 
9.94043 -0.00606036 -0.0788447 
-0.00606036 9.95163 -0.0269945 
-0.0788447 -0.0269945 9.95698 
9.95621 -0.000541349 -0.0768904 
-0.000541349 9.94679 -0.0183479 
-0.0768904 -0.0183479 9.94603 
9.97011 -0.00425874 -0.0739902 
-0.00425874 9.94548 -0.0114448 
-0.0739902 -0.0114448 9.93344 
9.97103 -0.00265617 -0.0737644 
-0.00265617 9.95284 -0.0180609 
-0.0737644 -0.0180609 9.9626 
9.96592 -0.00774687 -0.0711072 
-0.00774687 9.96552 -0.0296045 
-0.0711072 -0.0296045 9.95502 
9.96534 -0.00463098 -0.0777473 
-0.00463098 9.96935 -0.026232 
-0.0777473 -0.026232 9.95177 
9.95701 -0.0050112 -0.0767117 
-0.0050112 9.95619 -0.0152045 
-0.0767117 -0.0152045 9.97327 
9.98395 -0.00577816 0.0340469 
-0.00577816 9.98703 -0.021287 
0.0340469 -0.021287 9.97477 
9.98327 -0.00345769 0.0425731 
-0.00345769 9.97922 -0.0229916 
0.0425731 -0.0229916 9.98326 
9.98334 -0.00272548 0.0428619 
-0.00272548 9.97902 -0.0201198 
0.0428619 -0.0201198 9.98339 
9.99305 -0.00215711 0.0488541 
-0.00215711 9.97727 -0.0199485 
0.0488541 -0.0199485 9.97543 
9.99448 -0.00182613 0.0423752 
-0.00182613 9.99278 -0.0187552 
0.0423752 -0.0187552 9.98679 
9.99515 -0.00318722 0.0466906 
-0.00318722 9.99119 -0.0214634 
0.0466906 -0.0214634 9.98771 
9.9954 0.0013638 0.0436782 
0.0013638 9.98614 -0.0188855 
0.0436782 -0.0188855 9.99251 
9.98263 0.00181504 0.038354 
0.00181504 9.98305 -0.0216483 
0.038354 -0.0216483 10.0084 
9.99296 -0.00197841 0.0527551 
-0.00197841 9.99379 -0.053779 
0.0527551 -0.053779 9.99284 
9.99318 -0.000447293 0.0549426 
-0.000447293 9.99632 -0.053857 
0.0549426 -0.053857 9.99009 
9.99089 -2.81848e-05 0.0506899 
-2.81848e-05 9.985 -0.0572241 
0.0506899 -0.0572241 10.0037 
9.99242 -0.00116327 0.0540932 
-0.00116327 9.99118 -0.0550099 
0.0540932 -0.0550099 9.99599 
9.98558 0.00541015 0.0533413 
0.00541015 9.98067 -0.0545142 
0.0533413 -0.0545142 9.99358 
9.98418 -0.00285509 0.0574562 
-0.00285509 9.98823 -0.0541086 
0.0574562 -0.0541086 9.98742 
9.98485 -0.00252159 0.0563817 
-0.00252159 9.98719 -0.0521979 
0.0563817 -0.0521979 9.9878 
9.98642 0.00265707 0.0535051 
0.00265707 9.9856 -0.0541432 
0.0535051 -0.0541432 9.98782 
10.8729 -0.140063 -0.241129 
-0.140063 8.7382 0.783713 
-0.241129 0.783713 11.4872 
9.89839 -1.47211 0.450823 
-1.47211 10.5164 -0.0221791 
0.450823 -0.0221791 10.6834 
10.3549 0.962672 0.479336 
0.962672 8.16648 0.0568996 
0.479336 0.0568996 12.5769 
10.9101 0.881839 -0.60926 
0.881839 9.29714 0.82844 
-0.60926 0.82844 10.891 
10.5487 0.234995 0.805759 
0.234995 11.2706 -0.619706 
0.805759 -0.619706 12.1351 
11.617 -0.274215 0.37241 
-0.274215 10.7434 -0.606744 
0.37241 -0.606744 11.594 
11.4932 0.81559 -0.460355 
0.81559 9.24451 -0.459967 
-0.460355 -0.459967 13.2166 
12.0253 0.100489 0.725122 
0.100489 11.6278 -0.30965 
0.725122 -0.30965 10.3013 
10.7149 -0.136074 0.499275 
-0.136074 11.1999 0.0680097 
0.499275 0.0680097 11.2075 
10.7767 -0.191227 0.539745 
-0.191227 11.1295 0.0336014 
0.539745 0.0336014 11.2162 
10.653 -0.386863 0.437094 
-0.386863 11.4806 0.105052 
0.437094 0.105052 10.9888 
10.7954 -0.109169 0.474902 
-0.109169 11.2433 0.0634236 
0.474902 0.0634236 11.0836 
8.64208 -0.605679 -3.52563 
-0.605679 9.00585 -0.0403326 
-3.52563 -0.0403326 10.1866 
7.41163 -0.982286 0.0465061 
-0.982286 10.1066 -0.535344 
0.0465061 -0.535344 10.3163 
6.99465 0.196183 -5.09686 
0.196183 10.5565 -0.373834 
-5.09686 -0.373834 10.2834 
13.308 0.621055 -0.804703 
0.621055 7.36565 -0.00282005 
-0.804703 -0.00282005 7.16086 
9.84585 -0.0495592 0.121783 
-0.0495592 9.9514 0.0996941 
0.121783 0.0996941 9.94506 
9.91435 0.00703275 0.0630762 
0.00703275 9.91815 0.0746196 
0.0630762 0.0746196 9.90981 
10.0418 -0.0283562 0.123634 
-0.0283562 9.80305 0.157937 
0.123634 0.157937 9.89744 
9.90285 -0.0416025 0.0823229 
-0.0416025 9.96136 0.09201 
0.0823229 0.09201 9.87811 
9.85002 -0.0558232 0.132225 
-0.0558232 9.89028 0.105563 
0.132225 0.105563 9.99601 
10.0104 -0.054754 0.0960681 
-0.054754 9.87025 0.224116 
0.0960681 0.224116 9.85568 
9.91147 0.00491805 0.0562841 
0.00491805 9.89947 0.0740296 
0.0562841 0.0740296 9.92535 
9.83714 -0.0637787 0.159507 
-0.0637787 9.79143 0.0855125 
0.159507 0.0855125 10.1077 
9.86063 -0.0357513 0.0815578 
-0.0357513 9.88586 0.034529 
0.0815578 0.034529 9.92665 
9.8477 -0.043592 0.0530813 
-0.043592 9.89638 0.0564672 
0.0530813 0.0564672 9.92905 
9.85809 -0.0349176 0.0603641 
-0.0349176 9.87205 0.0340595 
0.0603641 0.0340595 9.943 
9.86367 -0.0205766 0.0525464 
-0.0205766 9.90061 0.05857 
0.0525464 0.05857 9.90886 
9.91135 -0.00495329 0.0400301 
-0.00495329 9.84029 0.0464048 
0.0400301 0.0464048 9.92618 
9.89471 -0.0432123 0.0886004 
-0.0432123 9.85164 0.0727334 
0.0886004 0.0727334 9.93146 
9.87165 -0.0218006 0.0870986 
-0.0218006 9.91833 0.0508809 
0.0870986 0.0508809 9.88783 
9.90027 -0.0234824 0.073473 
-0.0234824 9.85149 0.067755 
0.073473 0.067755 9.92604 
9.99477 0.000865309 0.0698995 
0.000865309 9.99319 0.0304659 
0.0698995 0.0304659 9.98957 
9.99737 -0.00109827 0.0728111 
-0.00109827 9.99379 0.0329235 
0.0728111 0.0329235 9.98637 
9.98332 0.00165748 0.0732258 
0.00165748 9.98623 0.0252223 
0.0732258 0.0252223 10.008 
9.99157 0.00403085 0.0725536 
0.00403085 9.99137 0.0298833 
0.0725536 0.0298833 9.99459 
9.97176 -0.00405141 0.0706762 
-0.00405141 9.99163 0.0297328 
0.0706762 0.0297328 9.99456 
9.99236 0.00116827 0.0734023 
0.00116827 9.98061 0.0333841 
0.0734023 0.0333841 9.98497 
9.98995 0.00158439 0.0685146 
0.00158439 9.98307 0.0333338 
0.0685146 0.0333338 9.98493 
9.98305 -0.00191017 0.0713067 
-0.00191017 9.98987 0.0279612 
0.0713067 0.0279612 9.98502 
9.4678 -0.563673 -1.51798 
-0.563673 7.74403 -1.43201 
-1.51798 -1.43201 8.2107 
11.3801 0.00386236 -0.538324 
0.00386236 8.01954 -1.04389 
-0.538324 -1.04389 6.02286 
6.16658 -3.31506 2.66253 
-3.31506 9.1798 -0.645004 
2.66253 -0.645004 10.0762 
9.34309 -1.55116 -4.68561 
-1.55116 7.67498 -3.33311 
-4.68561 -3.33311 8.40446 
9.46928 -0.0578692 -0.5221 
-0.0578692 10.1546 0.174643 
-0.5221 0.174643 9.17803 
9.57013 -0.134434 -0.466933 
-0.134434 10.2299 -0.608316 
-0.466933 -0.608316 9.00189 
9.73015 -0.254882 -0.729379 
-0.254882 10.15 -0.41546 
-0.729379 -0.41546 8.92176 
9.33118 -0.202458 -0.602239 
-0.202458 9.91649 -0.24759 
-0.602239 -0.24759 9.5542 
9.83529 0.0204453 -0.0838467 
0.0204453 9.88106 0.0524785 
-0.0838467 0.0524785 9.91775 
9.85227 0.0272094 -0.0531171 
0.0272094 9.88122 0.022515 
-0.0531171 0.022515 9.90062 
9.85409 0.0284261 -0.0911697 
0.0284261 9.85982 0.0167462 
-0.0911697 0.0167462 9.92019 
9.87105 0.012819 -0.0634969 
0.012819 9.85707 0.0635038 
-0.0634969 0.0635038 9.90599 
9.8956 0.0213303 -0.0890499 
0.0213303 9.95089 0.0614809 
-0.0890499 0.0614809 9.96121 
9.94963 0.0465127 -0.123979 
0.0465127 9.92799 0.0621509 
-0.123979 0.0621509 9.93009 
9.91883 0.0506991 -0.0882852 
0.0506991 9.95051 0.0585539 
-0.0882852 0.0585539 9.93836 
9.90954 0.0471172 -0.0999311 
0.0471172 9.92032 0.082757 
-0.0999311 0.082757 9.97785 
9.8454 -0.00565951 0.173727 
-0.00565951 9.92161 0.00103889 
0.173727 0.00103889 9.78159 
9.80489 -0.0364652 0.172202 
-0.0364652 9.95572 0.0233008 
0.172202 0.0233008 9.78798 
9.84819 -0.0723109 0.200404 
-0.0723109 9.92297 0.0390285 
0.200404 0.0390285 9.77743 
9.8733 -0.0388927 0.204905 
-0.0388927 9.92673 0.0423722 
0.204905 0.0423722 9.74856 
9.89741 0.0177282 0.174495 
0.0177282 9.93605 -0.0127011 
0.174495 -0.0127011 9.78756 
9.82873 0.0116813 0.140423 
0.0116813 9.93859 0.0165024 
0.140423 0.0165024 9.8537 
9.84187 -0.00302168 0.138909 
-0.00302168 9.93662 0.0556718 
0.138909 0.0556718 9.84253 
9.93235 -0.016746 0.074219 
-0.016746 9.84186 0.00723835 
0.074219 0.00723835 9.84681 
9.98219 0.0154949 0.0447352 
0.0154949 9.94671 0.0533869 
0.0447352 0.0533869 9.83674 
9.99315 0.0210474 0.0260677 
0.0210474 9.97034 0.0352603 
0.0260677 0.0352603 9.80215 
9.9784 0.0223672 0.0718902 
0.0223672 9.94598 0.0537932 
0.0718902 0.0537932 9.84126 
9.92744 0.0095797 0.0726718 
0.0095797 9.92664 -0.0192239 
0.0726718 -0.0192239 9.91156 
9.96538 -0.0208031 0.0726187 
-0.0208031 9.8977 0.0860446 
0.0726187 0.0860446 9.83823 
9.98113 0.014446 0.0622475 
0.014446 9.91908 0.0374345 
0.0622475 0.0374345 9.8011 
9.96863 0.005932 0.07584 
0.005932 9.90888 0.0740679 
0.07584 0.0740679 9.8238 
9.9229 0.0264619 0.0693419 
0.0264619 10.0082 0.0961637 
0.0693419 0.0961637 9.77023 
9.91074 -0.00133687 -0.053076 
-0.00133687 9.9131 0.0512846 
-0.053076 0.0512846 9.95435 
9.91615 0.0024124 -0.0516346 
0.0024124 9.91606 0.0437533 
-0.0516346 0.0437533 9.94599 
9.90601 -8.67164e-05 -0.0475538 
-8.67164e-05 9.91807 0.0518291 
-0.0475538 0.0518291 9.95412 
9.90626 0.00528083 -0.0509927 
0.00528083 9.91938 0.0490559 
-0.0509927 0.0490559 9.95256 
9.91252 -0.0124179 -0.054892 
-0.0124179 9.90612 0.0538149 
-0.054892 0.0538149 9.95119 
9.90147 -0.0144347 -0.0363551 
-0.0144347 9.94354 0.0635603 
-0.0363551 0.0635603 9.92483 
9.92468 0.026755 -0.0392982 
0.026755 9.90415 0.0322347 
-0.0392982 0.0322347 9.94101 
9.91983 -0.00355165 -0.0373148 
-0.00355165 9.93168 0.0553002 
-0.0373148 0.0553002 9.91833 
9.94168 -0.00888024 -0.031975 
-0.00888024 9.92397 0.0040011 
-0.031975 0.0040011 9.99766 
9.93647 -0.00927512 -0.0102006 
-0.00927512 9.9379 0.00927268 
-0.0102006 0.00927268 9.98895 
9.96514 -0.00153542 -0.0109722 
-0.00153542 9.92723 -0.00591128 
-0.0109722 -0.00591128 9.97095 
9.91704 -0.00317954 0.00977903 
-0.00317954 9.95032 0.0213155 
0.00977903 0.0213155 9.99595 
9.94596 0.00448017 -0.026804 
0.00448017 9.94495 -0.00457436 
-0.026804 -0.00457436 9.99205 
9.95098 -0.0171858 -0.0206083 
-0.0171858 9.95201 0.0124083 
-0.0206083 0.0124083 9.97997 
9.94835 -0.0101413 -0.0308469 
-0.0101413 9.94308 0.00443563 
-0.0308469 0.00443563 9.99153 
9.95671 -0.0240518 -0.0254671 
-0.0240518 9.95087 0.00376165 
-0.0254671 0.00376165 9.97538 
9.89031 -0.0208179 0.0788109 
-0.0208179 9.89415 -0.0683985 
0.0788109 -0.0683985 9.94117 
9.89128 -0.0381494 0.0758712 
-0.0381494 9.87843 -0.0617416 
0.0758712 -0.0617416 9.95592 
9.88678 -0.0136338 0.0555392 
-0.0136338 9.85858 -0.0507516 
0.0555392 -0.0507516 9.98027 
9.85077 -0.00987686 0.0938257 
-0.00987686 9.88709 -0.0485915 
0.0938257 -0.0485915 9.98777 
9.91904 0.0114691 0.0711306 
0.0114691 9.89231 -0.0618986 
0.0711306 -0.0618986 9.95793 
9.9147 -0.0269592 0.0665197 
-0.0269592 9.90355 -0.0576854 
0.0665197 -0.0576854 9.95103 
9.89822 -0.0188919 0.0626377 
-0.0188919 9.91734 -0.0469116 
0.0626377 -0.0469116 9.95372 
9.90672 -0.00374956 0.0505804 
-0.00374956 9.91068 -0.052951 
0.0505804 -0.052951 9.95188 
10.112 0.000910287 -0.0140288 
0.000910287 10.1151 0.0132126 
-0.0140288 0.0132126 10.1554 
10.1182 0.00856958 -0.0052941 
0.00856958 10.1147 -0.000719101 
-0.0052941 -0.000719101 10.1497 
10.1167 0.000522762 -0.00628245 
0.000522762 10.128 -0.000242788 
-0.00628245 -0.000242788 10.1379 
10.1295 0.000289767 -0.00280702 
0.000289767 10.134 -0.00620162 
-0.00280702 -0.00620162 10.119 
10.102 0.00666333 -0.0302812 
0.00666333 10.1476 0.00564806 
-0.0302812 0.00564806 10.1442 
10.1169 0.00192152 -0.0108737 
0.00192152 10.1088 -0.00051305 
-0.0108737 -0.00051305 10.1682 
10.1164 -0.00722303 -0.0161573 
-0.00722303 10.0994 0.0158141 
-0.0161573 0.0158141 10.1781 
10.0996 0.000655871 -0.0200304 
0.000655871 10.1149 -0.00550557 
-0.0200304 -0.00550557 10.1793 
9.8404 0.0194817 -0.0900087 
0.0194817 9.89783 -0.00685717 
-0.0900087 -0.00685717 10.1048 
9.88991 0.0271496 -0.158174 
0.0271496 9.95005 -0.0235102 
-0.158174 -0.0235102 10.003 
9.93667 0.00913598 -0.0605346 
0.00913598 9.8815 -0.048678 
-0.0605346 -0.048678 10.0248 
9.82165 -0.00624606 -0.083817 
-0.00624606 9.93661 -0.0275175 
-0.083817 -0.0275175 10.0847 
9.89882 0.00843411 -0.0378881 
0.00843411 9.92718 -0.0472439 
-0.0378881 -0.0472439 9.97028 
9.89583 0.00613028 -0.106606 
0.00613028 9.90135 -0.000147043 
-0.106606 -0.000147043 9.9991 
9.86665 0.0305172 -0.0794092 
0.0305172 9.88363 0.0154687 
-0.0794092 0.0154687 10.046 
9.88939 0.0107443 -0.097706 
0.0107443 9.90197 -0.0123212 
-0.097706 -0.0123212 10.0049 
9.93702 0.00335354 0.0829955 
0.00335354 9.9373 -0.0253656 
0.0829955 -0.0253656 9.94535 
9.93722 0.00530153 0.0799294 
0.00530153 9.93588 -0.022293 
0.0799294 -0.022293 9.94657 
9.94518 0.00271539 0.0770736 
0.00271539 9.93598 -0.0237724 
0.0770736 -0.0237724 9.93851 
9.95019 -0.000423227 0.075125 
-0.000423227 9.93768 -0.0201085 
0.075125 -0.0201085 9.9318 
9.94893 0.000742258 0.0759588 
0.000742258 9.9457 -0.0260222 
0.0759588 -0.0260222 9.94129 
9.94619 0.000610987 0.0783051 
0.000610987 9.94799 -0.0190299 
0.0783051 -0.0190299 9.94173 
9.94374 0.00506294 0.0769249 
0.00506294 9.94502 -0.0186417 
0.0769249 -0.0186417 9.94716 
9.94107 0.00034367 0.0763337 
0.00034367 9.95027 -0.0232968 
0.0763337 -0.0232968 9.94457 
9.9254 -0.851065 -0.318572 
-0.851065 10.2395 -0.298025 
-0.318572 -0.298025 10.6617 
9.65931 1.03262 -0.68739 
1.03262 10.8777 1.35608 
-0.68739 1.35608 10.2896 
9.33294 -0.0562435 -0.303563 
-0.0562435 10.2415 0.0365118 
-0.303563 0.0365118 11.2522 
7.71906 1.09717 -0.930966 
1.09717 10.6271 -1.51887 
-0.930966 -1.51887 12.4804 
9.30938 -0.00289854 -0.19611 
-0.00289854 10.1426 0.111811 
-0.19611 0.111811 10.0926 
9.54001 0.0144736 -0.317223 
0.0144736 10.094 -0.0846147 
-0.317223 -0.0846147 9.91051 
9.31501 -0.00857265 -0.325008 
-0.00857265 10.015 -0.0228156 
-0.325008 -0.0228156 10.2146 
9.87748 -0.0576335 -0.414461 
-0.0576335 9.86026 0.0421364 
-0.414461 0.0421364 9.80682 
10.0066 0.0705987 0.00114161 
0.0705987 10.0798 0.197715 
0.00114161 0.197715 10.3852 
10.2563 0.0988579 -0.114752 
0.0988579 9.88008 0.156748 
-0.114752 0.156748 10.3352 
10.051 0.366554 0.0469841 
0.366554 10.0709 -0.128913 
0.0469841 -0.128913 10.3497 
10.2056 -0.207862 -0.0492946 
-0.207862 10.262 0.0660275 
-0.0492946 0.0660275 10.004 
9.87242 0.177494 -0.0169489 
0.177494 10.0944 -0.00393175 
-0.0169489 -0.00393175 10.2316 
10.1246 0.205628 -0.0962475 
0.205628 9.68729 0.294364 
-0.0962475 0.294364 10.3865 
10.0208 0.0818095 -0.0126861 
0.0818095 9.85235 -0.0156106 
-0.0126861 -0.0156106 10.3252 
10.0186 0.124828 -0.00554507 
0.124828 9.8692 -0.0758844 
-0.00554507 -0.0758844 10.3106 
9.88921 -0.0138718 0.0312533 
-0.0138718 9.90542 -0.063363 
0.0312533 -0.063363 10.0728 
9.88194 -0.0255422 0.0307084 
-0.0255422 9.87914 -0.0382224 
0.0307084 -0.0382224 10.1063 
9.89249 -0.0264431 0.0119457 
-0.0264431 9.89687 -0.0510844 
0.0119457 -0.0510844 10.078 
9.89181 0.0134544 0.0213127 
0.0134544 9.88541 -0.0483437 
0.0213127 -0.0483437 10.0902 
9.9226 -0.0340154 0.0237489 
-0.0340154 9.85901 -0.052087 
0.0237489 -0.052087 10.0604 
9.91764 -0.0223659 -0.0161698 
-0.0223659 9.90391 -0.047731 
-0.0161698 -0.047731 10.0204 
9.88562 -0.0158169 0.0295964 
-0.0158169 9.85621 -0.0313235 
0.0295964 -0.0313235 10.1001 
9.9569 0.0103472 0.00730764 
0.0103472 9.85114 -0.112868 
0.00730764 -0.112868 10.0339 
9.84448 0.224578 0.106838 
0.224578 9.97923 -0.0370632 
0.106838 -0.0370632 9.83972 
9.69506 0.031678 0.0793782 
0.031678 9.66793 0.0524563 
0.0793782 0.0524563 10.3004 
9.86441 0.0976279 0.227099 
0.0976279 10.0059 -0.0137098 
0.227099 -0.0137098 9.79309 
9.86837 0.070521 0.0925104 
0.070521 10.1062 -0.052313 
0.0925104 -0.052313 9.68884 
9.75903 0.158978 0.271048 
0.158978 10.1984 -0.127468 
0.271048 -0.127468 10.0032 
9.75748 0.0620158 -0.150977 
0.0620158 10.0659 0.122317 
-0.150977 0.122317 10.1373 
9.88307 0.215116 0.0919671 
0.215116 10.0195 -0.077703 
0.0919671 -0.077703 10.0582 
9.94178 0.278388 0.112042 
0.278388 9.90936 -0.139714 
0.112042 -0.139714 10.1096 
9.73716 0.0556579 0.222837 
0.0556579 9.87897 -0.189104 
0.222837 -0.189104 9.61105 
10.0483 0.402381 0.207235 
0.402381 9.78107 -0.261377 
0.207235 -0.261377 9.39778 
9.85278 0.22045 0.055047 
0.22045 9.72422 -0.125273 
0.055047 -0.125273 9.65017 
9.76628 -0.00105311 0.130939 
-0.00105311 10.0037 -0.213079 
0.130939 -0.213079 9.45718 
9.88854 0.167017 0.0292296 
0.167017 9.78893 -0.138381 
0.0292296 -0.138381 9.73211 
10.0771 0.447519 0.22943 
0.447519 9.8893 -0.284715 
0.22943 -0.284715 9.44313 
9.5775 0.178322 0.216403 
0.178322 9.92491 -0.234694 
0.216403 -0.234694 9.90717 
9.68496 0.170275 0.24452 
0.170275 9.61929 -0.343859 
0.24452 -0.343859 10.1053 
9.98175 -0.00638315 -0.0249421 
-0.00638315 9.98435 0.033525 
-0.0249421 0.033525 9.98102 
9.98398 -1.51898e-05 -0.0375544 
-1.51898e-05 9.98061 0.0353111 
-0.0375544 0.0353111 9.98253 
9.98367 -0.00687575 -0.0406363 
-0.00687575 9.97412 0.0352287 
-0.0406363 0.0352287 9.98933 
9.98415 -0.00311602 -0.033028 
-0.00311602 9.97733 0.0350067 
-0.033028 0.0350067 9.98563 
9.97222 -0.00460766 -0.0329653 
-0.00460766 9.97506 0.0339802 
-0.0329653 0.0339802 9.97198 
9.97304 -0.00470234 -0.0369647 
-0.00470234 9.97285 0.0338054 
-0.0369647 0.0338054 9.97337 
9.97283 -0.000651376 -0.0299219 
-0.000651376 9.97444 0.0413144 
-0.0299219 0.0413144 9.97198 
9.97827 -0.0101274 -0.0347131 
-0.0101274 9.96948 0.032227 
-0.0347131 0.032227 9.97151 
9.99729 -0.00038249 -0.0307712 
-0.00038249 9.98471 0.0243892 
-0.0307712 0.0243892 10.0052 
9.99649 -0.00569069 -0.0302743 
-0.00569069 9.99535 0.027995 
-0.0302743 0.027995 9.9954 
9.99829 -0.00197394 -0.0265927 
-0.00197394 9.99699 0.0297143 
-0.0265927 0.0297143 9.99195 
9.99634 0.000783001 -0.0282408 
0.000783001 9.99949 0.0312934 
-0.0282408 0.0312934 9.9914 
9.98119 0.000485379 -0.03184 
0.000485379 9.98722 0.0258382 
-0.03184 0.0258382 9.98635 
9.97654 0.00147241 -0.017653 
0.00147241 9.99108 0.0321333 
-0.017653 0.0321333 9.98715 
9.97787 -0.000275914 -0.024029 
-0.000275914 9.98602 0.0264767 
-0.024029 0.0264767 9.99087 
9.98078 -0.00382352 -0.0311397 
-0.00382352 9.98752 0.0274172 
-0.0311397 0.0274172 9.98647 
10.0868 -0.0140928 -0.070511 
-0.0140928 9.88484 0.181025 
-0.070511 0.181025 9.85046 
9.98553 0.164507 -0.27503 
0.164507 9.92748 0.284378 
-0.27503 0.284378 9.90909 
9.94798 0.0533059 -0.0516712 
0.0533059 9.83163 0.0585781 
-0.0516712 0.0585781 10.0425 
10.0749 -0.0210217 -0.0226984 
-0.0210217 9.83883 0.242796 
-0.0226984 0.242796 9.90841 
9.91096 0.0455928 -0.120513 
0.0455928 9.85079 0.141193 
-0.120513 0.141193 9.90421 
9.90674 0.0675188 -0.140105 
0.0675188 9.86877 0.162754 
-0.140105 0.162754 9.89043 
9.94846 -0.00131741 -0.117954 
-0.00131741 9.88157 0.113904 
-0.117954 0.113904 9.83592 
9.91436 0.0391535 -0.140908 
0.0391535 9.85604 0.126939 
-0.140908 0.126939 9.89555 
9.87437 0.00445239 -0.0830473 
0.00445239 9.9082 0.0121335 
-0.0830473 0.0121335 9.90995 
9.86686 0.00114538 -0.0701382 
0.00114538 9.90489 0.00987742 
-0.0701382 0.00987742 9.92077 
9.86298 0.00188595 -0.0966924 
0.00188595 9.91051 0.00808664 
-0.0966924 0.00808664 9.91903 
9.93094 -0.00428687 -0.0699053 
-0.00428687 9.88838 0.00161449 
-0.0699053 0.00161449 9.87319 
9.87362 0.00766388 -0.0939317 
0.00766388 9.89582 0.00280279 
-0.0939317 0.00280279 9.90693 
9.87657 0.013186 -0.121396 
0.013186 9.90393 -0.00942251 
-0.121396 -0.00942251 9.89587 
9.8559 0.0125374 -0.0917335 
0.0125374 9.92227 0.0236616 
-0.0917335 0.0236616 9.8982 
9.8976 0.000140955 -0.101975 
0.000140955 9.90411 0.0286846 
-0.101975 0.0286846 9.87467 
9.99142 -0.0244601 -0.230592 
-0.0244601 10.0521 -0.168974 
-0.230592 -0.168974 10.1927 
10.0724 0.393769 0.0189059 
0.393769 10.0496 -0.0207955 
0.0189059 -0.0207955 10.1142 
10.3749 -0.156391 0.347933 
-0.156391 9.54359 -0.0874338 
0.347933 -0.0874338 10.3177 
9.8718 0.458135 -0.0436543 
0.458135 9.90819 -0.103026 
-0.0436543 -0.103026 10.4563 
10.3256 0.111324 0.060084 
0.111324 10.1987 -0.0339634 
0.060084 -0.0339634 10.4146 
10.2916 0.0655253 0.00358452 
0.0655253 10.4149 -0.0421315 
0.00358452 -0.0421315 10.2324 
10.2491 0.0474583 0.105256 
0.0474583 10.2372 -0.158569 
0.105256 -0.158569 10.4526 
10.398 0.079732 0.0368892 
0.079732 10.3478 -0.0409433 
0.0368892 -0.0409433 10.1931 
9.89327 0.0244233 -0.0128066 
0.0244233 9.89425 0.0202274 
-0.0128066 0.0202274 9.95473 
9.8962 0.0159344 -0.0255448 
0.0159344 9.91077 0.0334828 
-0.0255448 0.0334828 9.93528 
9.90476 0.0524896 -0.0431781 
0.0524896 9.89694 0.0526773 
-0.0431781 0.0526773 9.94054 
9.91439 -0.0329753 -0.00930725 
-0.0329753 9.94381 0.0293483 
-0.00930725 0.0293483 9.88405 
9.85763 0.0274339 -0.043833 
0.0274339 9.9215 0.0603083 
-0.043833 0.0603083 9.95431 
9.87637 0.0236649 -0.0517469 
0.0236649 9.90665 0.0455794 
-0.0517469 0.0455794 9.95042 
9.87948 0.0317448 -0.04022 
0.0317448 9.89771 0.0384861 
-0.04022 0.0384861 9.95625 
9.88372 0.00866202 -0.0606001 
0.00866202 9.90947 0.041885 
-0.0606001 0.041885 9.94024 
10.0577 -0.017584 0.103509 
-0.017584 9.94969 -0.0573166 
0.103509 -0.0573166 10.0498 
9.83185 0.116987 -0.0996553 
0.116987 10.1092 0.0573757 
-0.0996553 0.0573757 10.1161 
9.73385 0.110397 0.0926192 
0.110397 10.1069 -0.0016553 
0.0926192 -0.0016553 10.2164 
9.8943 -0.0398382 -0.186243 
-0.0398382 9.90327 0.0799802 
-0.186243 0.0799802 10.2595 
9.9959 0.0377812 0.080282 
0.0377812 9.95437 0.0189401 
0.080282 0.0189401 10.1217 
9.87395 0.0205956 0.0613018 
0.0205956 9.95187 -0.0277419 
0.0613018 -0.0277419 10.2461 
9.95299 0.11437 -0.00876329 
0.11437 9.94903 -0.0163026 
-0.00876329 -0.0163026 10.1699 
9.94645 0.0998814 0.0384359 
0.0998814 9.95999 -0.0103645 
0.0384359 -0.0103645 10.1655 
9.89935 -0.0173333 0.0214506 
-0.0173333 9.90526 -0.00469637 
0.0214506 -0.00469637 10.0843 
9.90081 -0.00865168 0.0258937 
-0.00865168 9.89953 -0.0126641 
0.0258937 -0.0126641 10.0886 
9.90039 -0.00785384 0.0326682 
-0.00785384 9.90551 -0.0185225 
0.0326682 -0.0185225 10.083 
9.90331 0.00179421 0.0208664 
0.00179421 9.89365 -0.0182327 
0.0208664 -0.0182327 10.0919 
9.89712 -0.0212853 0.005995 
-0.0212853 9.88698 -0.00805752 
0.005995 -0.00805752 10.0722 
9.89494 -0.00340444 0.0138879 
-0.00340444 9.94631 0.000488171 
0.0138879 0.000488171 10.015 
9.87878 0.00103611 0.0417482 
0.00103611 9.88832 0.00607465 
0.0417482 0.00607465 10.0892 
9.89942 -0.00299678 0.00395877 
-0.00299678 9.87249 -8.70139e-05 
0.00395877 -8.70139e-05 10.0844 
9.90602 -0.00850202 0.0124572 
-0.00850202 9.91675 -0.0342067 
0.0124572 -0.0342067 10.1157 
9.91211 -0.00594535 0.012349 
-0.00594535 9.89665 -0.0313627 
0.012349 -0.0313627 10.1297 
9.91879 -0.00495607 0.00221954 
-0.00495607 9.91254 -0.0178811 
0.00221954 -0.0178811 10.1071 
9.90944 -0.00267882 0.00776386 
-0.00267882 9.90333 -0.0340348 
0.00776386 -0.0340348 10.1257 
9.90654 0.00725836 0.0076383 
0.00725836 9.91636 -0.0155056 
0.0076383 -0.0155056 10.0977 
9.90045 -0.0125363 0.0341869 
-0.0125363 9.88162 -0.0235735 
0.0341869 -0.0235735 10.1385 
9.92782 -0.012663 -0.00545346 
-0.012663 9.92044 -0.0398512 
-0.00545346 -0.0398512 10.0723 
9.92884 0.0308057 -0.0288516 
0.0308057 9.9003 -0.013509 
-0.0288516 -0.013509 10.0915 
9.82606 0.0654937 -0.0635424 
0.0654937 9.89019 -0.00778788 
-0.0635424 -0.00778788 9.99084 
9.86146 0.03731 -0.0539667 
0.03731 9.89264 0.0206924 
-0.0539667 0.0206924 9.95299 
9.89269 0.036361 -0.0725382 
0.036361 9.88268 0.0411201 
-0.0725382 0.0411201 9.93172 
9.90305 0.00865505 -0.015203 
0.00865505 9.8639 0.0120958 
-0.015203 0.0120958 9.94014 
9.83771 0.132082 -0.0915874 
0.132082 9.87287 0.0103175 
-0.0915874 0.0103175 10.0235 
9.85755 0.0578371 -0.101614 
0.0578371 9.95094 0.0400579 
-0.101614 0.0400579 9.92554 
9.86228 0.0628565 -0.129775 
0.0628565 9.89772 0.039833 
-0.129775 0.039833 9.97402 
9.8153 0.0505259 -0.160231 
0.0505259 9.89945 0.104021 
-0.160231 0.104021 10.0193 
9.91019 0.00432102 -0.0461551 
0.00432102 9.92413 -0.0519177 
-0.0461551 -0.0519177 9.94483 
9.90968 -0.000117429 -0.0312159 
-0.000117429 9.92679 -0.0496776 
-0.0312159 -0.0496776 9.94267 
9.91399 -0.0105928 -0.0465381 
-0.0105928 9.92234 -0.0327748 
-0.0465381 -0.0327748 9.94281 
9.91108 -0.00369577 -0.0314444 
-0.00369577 9.92143 -0.0504539 
-0.0314444 -0.0504539 9.94663 
9.91716 0.00982027 -0.0463369 
0.00982027 9.91925 -0.0575774 
-0.0463369 -0.0575774 9.94067 
9.93397 -0.0221219 -0.0394124 
-0.0221219 9.90405 -0.0396494 
-0.0394124 -0.0396494 9.93907 
9.90816 0.00679723 -0.0368814 
0.00679723 9.94257 -0.0569614 
-0.0368814 -0.0569614 9.92635 
9.91875 0.00209576 -0.040166 
0.00209576 9.92664 -0.0522848 
-0.040166 -0.0522848 9.93169 
9.90398 -0.00704152 0.0277602 
-0.00704152 9.89381 0.0812188 
0.0277602 0.0812188 9.91167 
9.90496 -0.00930564 0.0240926 
-0.00930564 9.90102 0.0769075 
0.0240926 0.0769075 9.90348 
9.90337 -0.0177501 0.0211479 
-0.0177501 9.89217 0.0729802 
0.0211479 0.0729802 9.91391 
9.89515 0.00356178 0.0231033 
0.00356178 9.91817 0.0772629 
0.0231033 0.0772629 9.89614 
9.88781 -0.00547155 0.0366612 
-0.00547155 9.89866 0.0813966 
0.0366612 0.0813966 9.92234 
9.89083 -0.0184538 0.0277331 
-0.0184538 9.90094 0.0706645 
0.0277331 0.0706645 9.91704 
9.90713 -0.0151165 0.0382424 
-0.0151165 9.90169 0.071103 
0.0382424 0.071103 9.89999 
9.91429 -0.0260195 0.0415542 
-0.0260195 9.89163 0.0717986 
0.0415542 0.0717986 9.90289 
9.80862 0.0384576 0.0627293 
0.0384576 9.86211 -0.0213764 
0.0627293 -0.0213764 9.95253 
9.81432 0.0474623 0.032664 
0.0474623 9.88341 -0.00294852 
0.032664 -0.00294852 9.92554 
9.7768 0.0452684 -0.0170753 
0.0452684 9.89711 -0.011899 
-0.0170753 -0.011899 9.94936 
10.0177 -0.0512593 0.0920599 
-0.0512593 9.80243 -0.0551697 
0.0920599 -0.0551697 9.80313 
9.8423 0.0374334 0.190178 
0.0374334 9.96151 0.0478515 
0.190178 0.0478515 10.006 
9.814 0.0563803 0.0240258 
0.0563803 10.065 0.0637557 
0.0240258 0.0637557 9.93084 
10.0254 -0.0036367 -0.0371998 
-0.0036367 9.78507 -0.0985202 
-0.0371998 -0.0985202 9.9993 
9.766 0.158178 0.0264112 
0.158178 9.88342 -0.129127 
0.0264112 -0.129127 10.1604 
10.3764 -0.039315 0.0776667 
-0.039315 10.3632 0.411077 
0.0776667 0.411077 10.9332 
10.4509 -0.241507 0.211579 
-0.241507 10.377 0.17387 
0.211579 0.17387 10.8448 
9.95644 -0.194801 0.371065 
-0.194801 10.2227 -0.235422 
0.371065 -0.235422 11.4936 
10.505 0.00490077 -0.0667191 
0.00490077 11.3513 0.12327 
-0.0667191 0.12327 9.81643 
9.89138 0.0297518 0.200485 
0.0297518 10.6147 -0.471351 
0.200485 -0.471351 10.681 
10.1692 0.167915 -0.0458926 
0.167915 10.3915 0.104039 
-0.0458926 0.104039 10.6264 
9.84865 -0.416287 -0.0141598 
-0.416287 10.2895 0.158974 
-0.0141598 0.158974 11.0489 
10.1764 -0.554024 -0.267586 
-0.554024 10.5642 -0.175038 
-0.267586 -0.175038 10.4465 
9.90806 -0.0497838 0.0740833 
-0.0497838 9.90701 0.035061 
0.0740833 0.035061 9.94892 
9.86956 -0.0417863 0.00419536 
-0.0417863 9.87302 -0.0210544 
0.00419536 -0.0210544 10.0214 
9.85455 -0.120733 0.0810998 
-0.120733 9.87643 0.0354311 
0.0810998 0.0354311 10.033 
9.94923 -0.0495018 0.0767773 
-0.0495018 9.87604 0.0545857 
0.0767773 0.0545857 9.93872 
9.90969 -0.0253613 0.0294208 
-0.0253613 9.92465 -0.0161195 
0.0294208 -0.0161195 9.97044 
9.86862 -0.0128508 0.0284102 
-0.0128508 9.94924 -0.0281964 
0.0284102 -0.0281964 9.98692 
9.89742 -0.0440709 0.0626449 
-0.0440709 9.94999 0.021497 
0.0626449 0.021497 9.95737 
9.90694 -0.0188904 -0.00052837 
-0.0188904 9.91552 -0.0168201 
-0.00052837 -0.0168201 9.98232 
9.87363 -0.0269149 -0.0889729 
-0.0269149 9.87956 -0.0559299 
-0.0889729 -0.0559299 9.9299 
9.87163 -0.0217301 -0.0230186 
-0.0217301 9.82826 -0.0419322 
-0.0230186 -0.0419322 9.9832 
9.84042 -0.0606551 -0.107222 
-0.0606551 9.8792 -0.0771592 
-0.107222 -0.0771592 9.96347 
9.91584 0.0132949 -0.105781 
0.0132949 9.88763 -0.0669571 
-0.105781 -0.0669571 9.87962 
9.88627 -0.00757923 -0.134501 
-0.00757923 9.86654 -0.019679 
-0.134501 -0.019679 9.9173 
9.84222 -0.039202 -0.0719692 
-0.039202 9.86445 -0.0847333 
-0.0719692 -0.0847333 9.96343 
9.87708 -0.0194488 -0.0316846 
-0.0194488 9.83712 -0.0507363 
-0.0316846 -0.0507363 9.95589 
9.86115 -0.0793594 -0.0301656 
-0.0793594 9.87186 0.0100085 
-0.0301656 0.0100085 9.93709 
9.98681 -0.000695295 -0.0216201 
-0.000695295 9.98059 -0.0262235 
-0.0216201 -0.0262235 9.98684 
9.98101 -0.00695949 -0.0227084 
-0.00695949 9.97333 -0.0214514 
-0.0227084 -0.0214514 9.9999 
9.9828 0.00715187 -0.0308297 
0.00715187 9.988 -0.0240489 
-0.0308297 -0.0240489 9.98345 
9.98341 0.00804663 -0.0262103 
0.00804663 9.98805 -0.0197884 
-0.0262103 -0.0197884 9.98278 
9.99368 0.00105046 -0.0287837 
0.00105046 9.99633 -0.0242491 
-0.0287837 -0.0242491 9.99016 
9.99352 0.000333682 -0.0281112 
0.000333682 9.99483 -0.0262181 
-0.0281112 -0.0262181 9.99183 
9.99433 -0.00347186 -0.0271208 
-0.00347186 9.98958 -0.0229319 
-0.0271208 -0.0229319 9.99626 
9.98517 0.00137239 -0.0279501 
0.00137239 9.98962 -0.0211177 
-0.0279501 -0.0211177 10.0054 
9.98517 0.00409033 -0.0317269 
0.00409033 9.98444 0.0655887 
-0.0317269 0.0655887 9.98642 
9.98358 0.000112627 -0.0314782 
0.000112627 9.98559 0.0650841 
-0.0314782 0.0650841 9.98686 
9.98575 -0.00125153 -0.0351836 
-0.00125153 9.98838 0.0660129 
-0.0351836 0.0660129 9.98191 
9.97855 -0.00380661 -0.0284089 
-0.00380661 9.98147 0.0596583 
-0.0284089 0.0596583 9.99602 
9.97587 -0.000385685 -0.0331324 
-0.000385685 9.97404 0.0659494 
-0.0331324 0.0659494 9.9777 
9.98044 -0.00436145 -0.0305872 
-0.00436145 9.97157 0.0681472 
-0.0305872 0.0681472 9.97559 
9.97731 0.00057946 -0.0268885 
0.00057946 9.97609 0.0676347 
-0.0268885 0.0676347 9.97421 
9.97397 -0.0010979 -0.0321383 
-0.0010979 9.98133 0.0632323 
-0.0321383 0.0632323 9.97231 
9.88841 -0.425353 0.233132 
-0.425353 9.82063 0.0661246 
0.233132 0.0661246 10.4454 
9.7561 -0.386763 0.118237 
-0.386763 9.82865 -0.0451703 
0.118237 -0.0451703 10.5697 
9.99379 -0.559496 0.193127 
-0.559496 9.75769 -0.00590628 
0.193127 -0.00590628 10.4029 
9.69872 -0.0951853 0.35995 
-0.0951853 10.2276 0.408114 
0.35995 0.408114 10.2281 
9.97124 -1.21536 -0.368709 
-1.21536 10.625 0.670436 
-0.368709 0.670436 10.8471 
10.5457 -0.931937 0.0227262 
-0.931937 10.151 -0.201306 
0.0227262 -0.201306 10.7466 
9.88848 -0.108529 -0.382775 
-0.108529 10.6865 -0.310287 
-0.382775 -0.310287 10.8684 
8.32597 -1.30934 -0.111816 
-1.30934 9.09515 0.318178 
-0.111816 0.318178 14.0222 
9.95332 -0.0621258 -0.0273777 
-0.0621258 9.9435 -0.0390101 
-0.0273777 -0.0390101 9.97574 
9.93832 0.0362292 0.0985899 
0.0362292 9.94443 0.110204 
0.0985899 0.110204 9.98981 
9.91707 -0.126836 0.0278074 
-0.126836 9.89841 -0.0229362 
0.0278074 -0.0229362 10.0571 
9.90701 -0.0184365 -0.0512402 
-0.0184365 9.97098 -0.0719813 
-0.0512402 -0.0719813 9.99456 
9.94312 -0.0295092 -0.000537585 
-0.0295092 9.85531 0.0260958 
-0.000537585 0.0260958 10.0328 
9.94459 -0.0343758 0.0410587 
-0.0343758 9.92066 0.0293555 
0.0410587 0.0293555 9.96604 
9.9896 -0.0388981 -0.0216971 
-0.0388981 9.88197 -0.0261473 
-0.0216971 -0.0261473 9.95971 
9.90226 0.00803447 0.0156344 
0.00803447 9.96427 0.0723869 
0.0156344 0.0723869 9.96475 
9.97732 0.00315697 -0.0199726 
0.00315697 9.97016 -0.00512455 
-0.0199726 -0.00512455 9.97456 
9.96539 -0.00217346 -0.0278759 
-0.00217346 9.97769 0.00136508 
-0.0278759 0.00136508 9.97895 
9.98802 6.40472e-05 -0.0236515 
6.40472e-05 9.96966 -0.00813467 
-0.0236515 -0.00813467 9.96436 
9.98183 0.00214994 -0.0248817 
0.00214994 9.97572 -0.00171729 
-0.0248817 -0.00171729 9.96449 
9.98493 0.00460143 -0.0211356 
0.00460143 9.98389 -0.00115507 
-0.0211356 -0.00115507 9.98552 
9.99092 -0.00565187 -0.0196056 
-0.00565187 9.98295 -0.00801017 
-0.0196056 -0.00801017 9.98047 
9.98008 0.00366676 -0.026511 
0.00366676 9.98688 0.00184285 
-0.026511 0.00184285 9.98738 
9.98347 -0.0016146 -0.0259243 
-0.0016146 9.9807 -0.00141356 
-0.0259243 -0.00141356 9.99018 
9.92181 0.0194575 -0.0317358 
0.0194575 9.88308 0.0352363 
-0.0317358 0.0352363 9.94797 
9.87033 0.0511741 -0.00370815 
0.0511741 9.89804 0.0323025 
-0.00370815 0.0323025 9.98449 
9.91226 0.0270136 -0.0156152 
0.0270136 9.91999 0.0390719 
-0.0156152 0.0390719 9.92061 
9.91945 -0.0547555 -0.0111298 
-0.0547555 9.93781 0.021664 
-0.0111298 0.021664 9.89561 
9.88674 0.0376548 -0.0309275 
0.0376548 9.94305 0.00844658 
-0.0309275 0.00844658 9.96337 
9.86904 0.0175285 -0.0289158 
0.0175285 9.91039 0.0417008 
-0.0289158 0.0417008 10.0137 
9.90283 0.019325 -0.0289262 
0.019325 9.93482 0.0140708 
-0.0289262 0.0140708 9.95551 
9.89336 0.0196119 -0.0141816 
0.0196119 9.91274 0.0136032 
-0.0141816 0.0136032 9.98706 
10.3315 -0.217643 -0.343751 
-0.217643 10.0262 0.471337 
-0.343751 0.471337 11.3603 
10.2929 -0.140379 -0.608137 
-0.140379 9.48358 0.464933 
-0.608137 0.464933 11.9415 
10.6108 0.47624 -0.160007 
0.47624 9.96198 0.114675 
-0.160007 0.114675 11.1453 
10.3509 -0.747185 0.430857 
-0.747185 10.377 0.609318 
0.430857 0.609318 10.9901 
11.5987 -0.334898 0.0595445 
-0.334898 11.2485 -0.225042 
0.0595445 -0.225042 11.2271 
11.4671 -0.0309241 -0.136985 
-0.0309241 11.6466 -0.0308589 
-0.136985 -0.0308589 10.9605 
11.3482 -0.50366 -0.164088 
-0.50366 11.2672 -0.226189 
-0.164088 -0.226189 11.4589 
11.6052 -0.235149 -0.136158 
-0.235149 10.3634 -0.500855 
-0.136158 -0.500855 12.1056 
9.98354 -0.00410348 -0.0164362 
-0.00410348 9.98428 0.020565 
-0.0164362 0.020565 9.98159 
9.98316 -0.00189164 -0.0155025 
-0.00189164 9.98087 0.019492 
-0.0155025 0.019492 9.98539 
9.98147 -0.000564678 -0.0119992 
-0.000564678 9.98518 0.0231328 
-0.0119992 0.0231328 9.98276 
9.98224 -0.00130256 -0.0109539 
-0.00130256 9.98975 0.0216342 
-0.0109539 0.0216342 9.97742 
9.99394 -0.00312322 -0.0161853 
-0.00312322 9.99606 0.0264228 
-0.0161853 0.0264228 9.98842 
9.9879 0.00328695 -0.0150181 
0.00328695 9.9931 0.0253584 
-0.0150181 0.0253584 9.99743 
9.99392 -0.00148817 -0.0149437 
-0.00148817 9.9951 0.021646 
-0.0149437 0.021646 9.98941 
9.98498 -0.000783065 -0.0162601 
-0.000783065 9.98394 0.0252794 
-0.0162601 0.0252794 10.0095 
9.99479 0.00248205 -0.0490195 
0.00248205 9.99343 -0.0463462 
-0.0490195 -0.0463462 9.99054 
9.9934 -0.00182303 -0.0473599 
-0.00182303 9.98991 -0.0435028 
-0.0473599 -0.0435028 9.99546 
9.99506 0.00123804 -0.0459699 
0.00123804 9.99232 -0.0446236 
-0.0459699 -0.0446236 9.99139 
9.98559 0.00109637 -0.0472844 
0.00109637 9.98633 -0.0417066 
-0.0472844 -0.0417066 10.0069 
9.98156 0.00144771 -0.0442254 
0.00144771 9.98149 -0.0464242 
-0.0442254 -0.0464242 9.98349 
9.97967 0.00157416 -0.0453172 
0.00157416 9.98089 -0.0463309 
-0.0453172 -0.0463309 9.98599 
9.98024 0.00101468 -0.0445304 
0.00101468 9.97938 -0.0447727 
-0.0445304 -0.0447727 9.98691 
9.98588 -0.00169358 -0.0453429 
-0.00169358 9.98045 -0.0458783 
-0.0453429 -0.0458783 9.98021 
9.93752 0.00906984 -0.0280478 
0.00906984 9.91871 0.0171371 
-0.0280478 0.0171371 9.97503 
9.93714 -0.00662176 -0.0136194 
-0.00662176 9.9322 0.0247645 
-0.0136194 0.0247645 9.96192 
9.93796 0.039529 -0.00166577 
0.039529 9.92867 -0.00151128 
-0.00166577 -0.00151128 9.96463 
9.95777 -0.043921 -0.0164238 
-0.043921 9.95504 0.0305695 
-0.0164238 0.0305695 9.91845 
9.92864 0.00260046 -0.0736864 
0.00260046 9.93716 0.0090348 
-0.0736864 0.0090348 9.98576 
9.95076 0.00925117 0.000656612 
0.00925117 9.94719 -0.0159204 
0.000656612 -0.0159204 9.95361 
9.92923 -0.0318851 0.0177013 
-0.0318851 9.93029 0.0183528 
0.0177013 0.0183528 9.99203 
9.91305 0.0173918 0.0447941 
0.0173918 9.88058 0.0415687 
0.0447941 0.0415687 10.0579 
9.97041 0.0112166 -0.00548167 
0.0112166 9.96364 -0.00767143 
-0.00548167 -0.00767143 9.97681 
9.97666 0.0144695 -0.00486393 
0.0144695 9.95411 -0.00105803 
-0.00486393 -0.00105803 9.98009 
9.97331 0.0090644 -1.05544e-05 
0.0090644 9.96256 -0.00360371 
-1.05544e-05 -0.00360371 9.97498 
9.97235 0.00934672 -0.00451811 
0.00934672 9.96305 -0.00772823 
-0.00451811 -0.00772823 9.97546 
9.98731 0.0104245 0.0144972 
0.0104245 9.96895 -0.000394626 
0.0144972 -0.000394626 9.99326 
9.98546 0.0117108 -0.00507694 
0.0117108 9.9595 -0.0126741 
-0.00507694 -0.0126741 10.0046 
9.97049 -0.00126645 -0.0149908 
-0.00126645 9.97457 -0.00462842 
-0.0149908 -0.00462842 10.0044 
10.0305 -0.00495161 0.00601175 
-0.00495161 9.97776 -0.0212034 
0.00601175 -0.0212034 9.94124 
9.86676 -0.0164474 -0.0756429 
-0.0164474 9.89371 -0.0222117 
-0.0756429 -0.0222117 9.92767 
9.89905 0.00216905 -0.0712638 
0.00216905 9.91187 0.00145104 
-0.0712638 0.00145104 9.87721 
9.86996 0.00434346 -0.0950605 
0.00434346 9.8776 -0.00246968 
-0.0950605 -0.00246968 9.94057 
9.84342 -0.000351737 -0.074933 
-0.000351737 9.94923 0.00367532 
-0.074933 0.00367532 9.89548 
9.86652 -0.0121063 -0.0790584 
-0.0121063 9.8864 -0.0207546 
-0.0790584 -0.0207546 9.90263 
9.85235 -0.000645826 -0.0945507 
-0.000645826 9.8784 -0.000829078 
-0.0945507 -0.000829078 9.9248 
9.89513 -0.0124771 -0.07459 
-0.0124771 9.89506 -0.000630246 
-0.07459 -0.000630246 9.86536 
9.92747 -0.0145289 -0.0718698 
-0.0145289 9.85686 -0.0101364 
-0.0718698 -0.0101364 9.87123 
9.89564 -0.00303809 -0.0238937 
-0.00303809 9.91979 0.031468 
-0.0238937 0.031468 9.98413 
9.913 0.0391337 0.0145739 
0.0391337 9.91619 0.00911752 
0.0145739 0.00911752 9.97039 
9.95646 -0.021668 -0.048084 
-0.021668 9.92085 0.00601015 
-0.048084 0.00601015 9.92226 
9.95123 -0.0309405 -0.0310454 
-0.0309405 9.93554 0.0197435 
-0.0310454 0.0197435 9.9128 
9.95076 -0.000696259 -0.0173047 
-0.000696259 9.93058 0.0505086 
-0.0173047 0.0505086 9.98291 
9.95955 -0.00448203 -0.0339654 
-0.00448203 9.91537 -0.0102565 
-0.0339654 -0.0102565 9.98932 
9.94478 0.0163311 0.00585283 
0.0163311 9.93789 0.0246423 
0.00585283 0.0246423 9.98158 
9.93934 0.0233851 -0.0455509 
0.0233851 9.90379 -0.0247912 
-0.0455509 -0.0247912 10.0211 
9.9952 -1.4311e-05 -0.0120386 
-1.4311e-05 9.99607 0.0320869 
-0.0120386 0.0320869 9.98691 
9.99587 0.000238729 -0.00799411 
0.000238729 9.99148 0.033099 
-0.00799411 0.033099 9.99082 
9.9942 0.0027053 -0.00863076 
0.0027053 9.99251 0.0339017 
-0.00863076 0.0339017 9.99147 
9.98252 -0.000782917 -0.00982957 
-0.000782917 9.98268 0.0350056 
-0.00982957 0.0350056 10.013 
9.9813 -0.00212528 -0.00783354 
-0.00212528 9.99078 0.0322364 
-0.00783354 0.0322364 9.98282 
9.98437 -0.00161618 -0.00482328 
-0.00161618 9.98723 0.031465 
-0.00482328 0.031465 9.9833 
9.98454 0.000484424 -0.0038862 
0.000484424 9.98431 0.0348524 
-0.0038862 0.0348524 9.98605 
9.99984 0.00193 -0.00939301 
0.00193 9.98183 0.0306608 
-0.00939301 0.0306608 9.97323 
9.98682 0.00238553 0.064002 
0.00238553 9.98648 0.0346902 
0.064002 0.0346902 9.98238 
9.98552 -0.00583844 0.0679472 
-0.00583844 9.98215 0.0334563 
0.0679472 0.0334563 9.98802 
9.98307 -0.00189955 0.0579498 
-0.00189955 9.98442 0.0451696 
0.0579498 0.0451696 9.9882 
9.99199 0.00246087 0.0584428 
0.00246087 9.98075 0.0495174 
0.0584428 0.0495174 9.98295 
9.99683 0.000802235 0.0576496 
0.000802235 9.9949 0.0393719 
0.0576496 0.0393719 9.99046 
9.9897 -0.00279816 0.0565957 
-0.00279816 9.99169 0.0424819 
0.0565957 0.0424819 10.0008 
9.99456 -0.000520098 0.0580221 
-0.000520098 9.99497 0.040499 
0.0580221 0.040499 9.99266 
9.98876 -0.00130325 0.0579536 
-0.00130325 9.99361 0.038549 
0.0579536 0.038549 9.99982 
METADATA
COMPONENT_NAMES
XX
XY
XZ
YX
YY
YZ
ZX
ZY
ZZ

